# el_label, x, y, sXX, sYY, sZZ, sXY
1.000000000000000000e+00 6.357490158081054688e+01 3.087960624694824219e+01 -6.897520542144775391e+00 -2.366332054138183594e+00 -2.779155731201171875e+00 -2.659891843795776367e+00
2.000000000000000000e+00 6.337632369995117188e+01 3.086600875854492188e+01 -2.217254638671875000e+00 9.117767810821533203e-01 -3.916433155536651611e-01 7.534276247024536133e-01
3.000000000000000000e+00 6.317774581909179688e+01 3.085241317749023438e+01 -3.375162124633789062e+00 -4.264963269233703613e-01 -1.140497565269470215e+00 3.314885124564170837e-02
4.000000000000000000e+00 6.297917175292968750e+01 3.083881568908691406e+01 -3.571588039398193359e+00 2.415385544300079346e-01 -9.990148544311523438e-01 2.052741646766662598e-01
5.000000000000000000e+00 6.358457183837890625e+01 3.082200813293457031e+01 8.580677986145019531e+00 -2.496957063674926758e+00 1.825116395950317383e+00 1.359673976898193359e+00
6.000000000000000000e+00 6.339244079589843750e+01 3.077001190185546875e+01 1.759553194046020508e+00 2.103339731693267822e-01 5.909661650657653809e-01 1.145815372467041016e+00
7.000000000000000000e+00 6.320030975341796875e+01 3.071801757812500000e+01 1.766488790512084961e+00 6.668897271156311035e-01 7.300135493278503418e-01 1.923862934112548828e+00
8.000000000000000000e+00 6.300818252563476562e+01 3.066601943969726562e+01 4.991241693496704102e-01 1.329244971275329590e-01 1.896146088838577271e-01 1.274177670478820801e+00
9.000000000000000000e+00 6.360526657104492188e+01 3.076739501953125000e+01 1.411613178253173828e+01 1.957280993461608887e+00 4.822023868560791016e+00 8.229564666748046875e+00
1.000000000000000000e+01 6.342693710327148438e+01 3.067898941040039062e+01 7.874070167541503906e+00 1.209126353263854980e+00 2.724958896636962891e+00 4.756846427917480469e+00
1.100000000000000000e+01 6.324860763549804688e+01 3.059058380126953125e+01 4.728290557861328125e+00 1.701772212982177734e+00 1.929018855094909668e+00 3.835644245147705078e+00
1.200000000000000000e+01 6.307027435302734375e+01 3.050217819213867188e+01 3.954490423202514648e+00 1.601535201072692871e+00 1.666807770729064941e+00 3.707229375839233398e+00
1.300000000000000000e+01 6.363620376586914062e+01 3.071785545349121094e+01 1.614690208435058594e+01 8.504161834716796875e+00 7.395319461822509766e+00 1.363892078399658203e+01
1.400000000000000000e+01 6.347849655151367188e+01 3.059642410278320312e+01 9.782239913940429688e+00 5.187585353851318359e+00 4.490947723388671875e+00 8.911908149719238281e+00
1.500000000000000000e+01 6.332078552246093750e+01 3.047499275207519531e+01 7.384675502777099609e+00 4.306798934936523438e+00 3.507442474365234375e+00 7.006949424743652344e+00
1.600000000000000000e+01 6.316307830810546875e+01 3.035356140136718750e+01 5.411534786224365234e+00 3.739570379257202148e+00 2.745331525802612305e+00 5.938023567199707031e+00
1.700000000000000000e+01 6.367618942260742188e+01 3.067528533935546875e+01 1.454046440124511719e+01 1.677964210510253906e+01 9.396031379699707031e+00 1.719829177856445312e+01
1.800000000000000000e+01 6.354513931274414062e+01 3.052547454833984375e+01 1.006707763671875000e+01 1.082588577270507812e+01 6.267889022827148438e+00 1.203396892547607422e+01
1.900000000000000000e+01 6.341408920288085938e+01 3.037566375732421875e+01 7.485561370849609375e+00 8.554227828979492188e+00 4.811936855316162109e+00 9.602880477905273438e+00
2.000000000000000000e+01 6.328303909301757812e+01 3.022585296630859375e+01 6.028757095336914062e+00 7.435042858123779297e+00 4.039139747619628906e+00 8.418642997741699219e+00
2.100000000000000000e+01 6.372369766235351562e+01 3.064131546020507812e+01 1.185341930389404297e+01 2.549595832824707031e+01 1.120481300354003906e+01 1.820429039001464844e+01
2.200000000000000000e+01 6.362432098388671875e+01 3.046885871887207031e+01 8.449919700622558594e+00 1.735964012145996094e+01 7.742867946624755859e+00 1.340327453613281250e+01
2.300000000000000000e+01 6.352494430541992188e+01 3.029640007019042969e+01 6.631919860839843750e+00 1.385266780853271484e+01 6.145376205444335938e+00 1.115971183776855469e+01
2.400000000000000000e+01 6.342556762695312500e+01 3.012394332885742188e+01 5.362661838531494141e+00 1.181913757324218750e+01 5.154539585113525391e+00 9.726215362548828125e+00
2.500000000000000000e+01 6.377691268920898438e+01 3.061724472045898438e+01 8.725057601928710938e+00 3.366318893432617188e+01 1.271647453308105469e+01 1.655140113830566406e+01
2.600000000000000000e+01 6.371300888061523438e+01 3.042873954772949219e+01 6.549741744995117188e+00 2.379666519165039062e+01 9.103921890258789062e+00 1.301854801177978516e+01
2.700000000000000000e+01 6.364910888671875000e+01 3.024023628234863281e+01 5.025356292724609375e+00 1.933096504211425781e+01 7.306896209716796875e+00 1.104164409637451172e+01
2.800000000000000000e+01 6.358520889282226562e+01 3.005173110961914062e+01 4.089336395263671875e+00 1.664016532897949219e+01 6.218850612640380859e+00 9.771589279174804688e+00
2.900000000000000000e+01 6.383379364013671875e+01 3.060399436950683594e+01 6.651673793792724609e+00 4.015779495239257812e+01 1.404284000396728516e+01 1.290441322326660156e+01
3.000000000000000000e+01 6.380781173706054688e+01 3.040665626525878906e+01 4.885062217712402344e+00 2.937630271911621094e+01 1.027840900421142578e+01 1.085874938964843750e+01
3.100000000000000000e+01 6.378183364868164062e+01 3.020931816101074219e+01 3.619750499725341797e+00 2.426569366455078125e+01 8.365633010864257812e+00 9.538208961486816406e+00
3.200000000000000000e+01 6.375585174560546875e+01 3.001198005676269531e+01 2.782052993774414062e+00 2.115526199340820312e+01 7.181194305419921875e+00 8.488307952880859375e+00
3.300000000000000000e+01 6.389216613769531250e+01 3.060206985473632812e+01 6.207311630249023438e+00 4.435798645019531250e+01 1.516958999633789062e+01 7.964993476867675781e+00
3.400000000000000000e+01 6.390510177612304688e+01 3.040345001220703125e+01 4.213404178619384766e+00 3.350564575195312500e+01 1.131571483612060547e+01 7.600193023681640625e+00
3.500000000000000000e+01 6.391803741455078125e+01 3.020483016967773438e+01 2.916395664215087891e+00 2.804232025146484375e+01 9.287614822387695312e+00 6.826087474822998047e+00
3.600000000000000000e+01 6.393097305297851562e+01 3.000621032714843750e+01 2.128363847732543945e+00 2.465520286560058594e+01 8.035070419311523438e+00 6.308485507965087891e+00
3.700000000000000000e+01 6.394979858398437500e+01 3.061154937744140625e+01 7.692348957061767578e+00 4.612537765502929688e+01 1.614531707763671875e+01 2.919158458709716797e+00
3.800000000000000000e+01 6.400115203857421875e+01 3.041924667358398438e+01 4.813915252685546875e+00 3.581895065307617188e+01 1.218985939025878906e+01 3.737124204635620117e+00
3.900000000000000000e+01 6.405250549316406250e+01 3.022694587707519531e+01 3.319732427597045898e+00 3.036188316345214844e+01 1.010448455810546875e+01 3.641372680664062500e+00
4.000000000000000000e+01 6.410386657714843750e+01 3.003464317321777344e+01 2.432431936264038086e+00 2.675742721557617188e+01 8.756958007812500000e+00 3.427524805068969727e+00
4.100000000000000000e+01 6.400447845458984375e+01 3.063206481933593750e+01 1.077634239196777344e+01 4.566955184936523438e+01 1.693376731872558594e+01 -1.437353849411010742e+00
4.200000000000000000e+01 6.409228515625000000e+01 3.045343971252441406e+01 6.767676830291748047e+00 3.641579818725585938e+01 1.295504283905029297e+01 1.282140910625457764e-01
4.300000000000000000e+01 6.418009948730468750e+01 3.027481651306152344e+01 4.869289875030517578e+00 3.103703308105468750e+01 1.077189731597900391e+01 4.376524090766906738e-01
4.400000000000000000e+01 6.426790618896484375e+01 3.009619140625000000e+01 3.750004053115844727e+00 2.757803344726562500e+01 9.398411750793457031e+00 6.014753580093383789e-01
4.500000000000000000e+01 6.405412292480468750e+01 3.066283416748046875e+01 1.492439365386962891e+01 4.378832244873046875e+01 1.761381530761718750e+01 -4.356146335601806641e+00
4.600000000000000000e+01 6.417502593994140625e+01 3.050472259521484375e+01 9.762285232543945312e+00 3.540693664550781250e+01 1.355076694488525391e+01 -2.722643613815307617e+00
4.700000000000000000e+01 6.429592895507812500e+01 3.034661102294921875e+01 7.375782489776611328e+00 3.047172355651855469e+01 1.135425186157226562e+01 -2.068814039230346680e+00
4.800000000000000000e+01 6.441683197021484375e+01 3.018849945068359375e+01 5.927701950073242188e+00 2.707832717895507812e+01 9.901808738708496094e+00 -1.755398273468017578e+00
4.900000000000000000e+01 6.409682464599609375e+01 3.070267868041992188e+01 1.925992584228515625e+01 4.103604507446289062e+01 1.808879089355468750e+01 -5.672768115997314453e+00
5.000000000000000000e+01 6.424620056152343750e+01 3.057113075256347656e+01 1.339315414428710938e+01 3.354722213745117188e+01 1.408211326599121094e+01 -4.294508934020996094e+00
5.100000000000000000e+01 6.439556884765625000e+01 3.043958282470703125e+01 1.041216087341308594e+01 2.883345222473144531e+01 1.177368450164794922e+01 -3.562702894210815430e+00
5.200000000000000000e+01 6.454494476318359375e+01 3.030803489685058594e+01 8.579133987426757812e+00 2.580922126770019531e+01 1.031650638580322266e+01 -3.091539144515991211e+00
5.300000000000000000e+01 6.413095092773437500e+01 3.075007438659667969e+01 2.330040359497070312e+01 3.845511627197265625e+01 1.852665710449218750e+01 -5.361274242401123047e+00
5.400000000000000000e+01 6.430307769775390625e+01 3.065012359619140625e+01 1.686139106750488281e+01 3.114302253723144531e+01 1.440132427215576172e+01 -4.525459766387939453e+00
5.500000000000000000e+01 6.447520446777343750e+01 3.055017280578613281e+01 1.357310390472412109e+01 2.700258255004882812e+01 1.217270565032958984e+01 -3.782948493957519531e+00
5.600000000000000000e+01 6.464733123779296875e+01 3.045022010803222656e+01 1.130169582366943359e+01 2.391608238220214844e+01 1.056533336639404297e+01 -3.355755567550659180e+00
5.700000000000000000e+01 6.415520477294921875e+01 3.080320739746093750e+01 2.625160217285156250e+01 3.616664123535156250e+01 1.872547340393066406e+01 -3.867871284484863281e+00
5.800000000000000000e+01 6.434349060058593750e+01 3.073867988586425781e+01 1.978771781921386719e+01 2.924913978576660156e+01 1.471105766296386719e+01 -3.403584003448486328e+00
5.900000000000000000e+01 6.453177642822265625e+01 3.067415046691894531e+01 1.607098770141601562e+01 2.510652160644531250e+01 1.235325241088867188e+01 -2.914154529571533203e+00
6.000000000000000000e+01 6.472006988525390625e+01 3.060962104797363281e+01 1.376186084747314453e+01 2.252789688110351562e+01 1.088692760467529297e+01 -2.638347625732421875e+00
6.100000000000000000e+01 6.416864013671875000e+01 3.086004447937011719e+01 2.801874351501464844e+01 3.501617050170898438e+01 1.891047477722167969e+01 -1.538964152336120605e+00
6.200000000000000000e+01 6.436589050292968750e+01 3.083340644836425781e+01 2.145574569702148438e+01 2.788337326049804688e+01 1.480173587799072266e+01 -1.382618069648742676e+00
6.300000000000000000e+01 6.456314086914062500e+01 3.080677032470703125e+01 1.765900230407714844e+01 2.410356903076171875e+01 1.252877140045166016e+01 -1.187265515327453613e+00
6.400000000000000000e+01 6.476039123535156250e+01 3.078013229370117188e+01 1.505889701843261719e+01 2.158544158935546875e+01 1.099330234527587891e+01 -1.126134753227233887e+00
6.500000000000000000e+01 6.417075347900390625e+01 3.091841125488281250e+01 2.824464416503906250e+01 3.474695968627929688e+01 1.889748001098632812e+01 1.108453154563903809e+00
6.600000000000000000e+01 6.436942291259765625e+01 3.093068313598632812e+01 2.176389122009277344e+01 2.774689865112304688e+01 1.485323715209960938e+01 1.052985787391662598e+00
6.700000000000000000e+01 6.456808471679687500e+01 3.094295692443847656e+01 1.783931541442871094e+01 2.391043281555175781e+01 1.252492427825927734e+01 9.023823738098144531e-01
6.800000000000000000e+01 6.476674652099609375e+01 3.095523071289062500e+01 1.524246883392333984e+01 2.150192832946777344e+01 1.102331924438476562e+01 8.392946720123291016e-01
6.900000000000000000e+01 6.416146850585937500e+01 3.097607231140136719e+01 2.705068206787109375e+01 3.571089172363281250e+01 1.882847213745117188e+01 3.620921611785888672e+00
7.000000000000000000e+01 6.435394287109375000e+01 3.102678680419921875e+01 2.050174140930175781e+01 2.859821891784667969e+01 1.472998809814453125e+01 3.263622999191284180e+00
7.100000000000000000e+01 6.454641723632812500e+01 3.107750129699707031e+01 1.674194717407226562e+01 2.477501487731933594e+01 1.245508861541748047e+01 2.873140096664428711e+00
7.200000000000000000e+01 6.473889160156250000e+01 3.112821578979492188e+01 1.422956848144531250e+01 2.216470909118652344e+01 1.091828346252441406e+01 2.577323913574218750e+00
7.300000000000000000e+01 6.414113616943359375e+01 3.103082275390625000e+01 2.444516754150390625e+01 3.754018020629882812e+01 1.859560394287109375e+01 5.492315769195556641e+00
7.400000000000000000e+01 6.432005310058593750e+01 3.111803817749023438e+01 1.796430778503417969e+01 3.047604751586914062e+01 1.453210639953613281e+01 4.736076354980468750e+00
7.500000000000000000e+01 6.449897003173828125e+01 3.120525169372558594e+01 1.449146080017089844e+01 2.625787734985351562e+01 1.222480201721191406e+01 4.091914653778076172e+00
7.600000000000000000e+01 6.467788696289062500e+01 3.129246711730957031e+01 1.225055503845214844e+01 2.360731697082519531e+01 1.075736141204833984e+01 3.702649593353271484e+00
7.700000000000000000e+01 6.411053466796875000e+01 3.108056831359863281e+01 2.072967910766601562e+01 4.013799667358398438e+01 1.826030349731445312e+01 6.267257213592529297e+00
7.800000000000000000e+01 6.426905059814453125e+01 3.120094490051269531e+01 1.457197475433349609e+01 3.273924255371093750e+01 1.419336509704589844e+01 5.015932559967041016e+00
7.900000000000000000e+01 6.442755889892578125e+01 3.132132339477539062e+01 1.148074817657470703e+01 2.821676063537597656e+01 1.190925312042236328e+01 4.234975337982177734e+00
8.000000000000000000e+01 6.458607482910156250e+01 3.144169998168945312e+01 9.558458328247070312e+00 2.518012809753417969e+01 1.042157554626464844e+01 3.735523700714111328e+00
8.100000000000000000e+01 6.407083129882812500e+01 3.112340354919433594e+01 1.640223693847656250e+01 4.293799972534179688e+01 1.780207061767578125e+01 5.542180538177490234e+00
8.200000000000000000e+01 6.420288085937500000e+01 3.127233695983886719e+01 1.085971355438232422e+01 3.488634490966796875e+01 1.372381687164306641e+01 3.918937206268310547e+00
8.300000000000000000e+01 6.433492279052734375e+01 3.142127037048339844e+01 8.326763153076171875e+00 3.000358963012695312e+01 1.149910545349121094e+01 3.127552747726440430e+00
8.400000000000000000e+01 6.446697235107421875e+01 3.157020378112792969e+01 6.517293930053710938e+00 2.669269180297851562e+01 9.962995529174804688e+00 2.684498786926269531e+00
8.500000000000000000e+01 6.402355194091796875e+01 3.115768814086914062e+01 1.200475025177001953e+01 4.527728271484375000e+01 1.718461036682128906e+01 3.160898208618164062e+00
8.600000000000000000e+01 6.412407684326171875e+01 3.132947921752929688e+01 7.586457252502441406e+00 3.624610519409179688e+01 1.314976787567138672e+01 1.460981249809265137e+00
8.700000000000000000e+01 6.422460174560546875e+01 3.150127029418945312e+01 5.430689334869384766e+00 3.104734992980957031e+01 1.094341182708740234e+01 9.148410558700561523e-01
8.800000000000000000e+01 6.432512664794921875e+01 3.167306137084960938e+01 4.142797470092773438e+00 2.760874748229980469e+01 9.525463104248046875e+00 7.404561042785644531e-01
8.900000000000000000e+01 6.397050094604492188e+01 3.118211364746093750e+01 8.409505844116210938e+00 4.631960678100585938e+01 1.641873359680175781e+01 -7.404815554618835449e-01
9.000000000000000000e+01 6.403565216064453125e+01 3.137018775939941406e+01 5.182946205139160156e+00 3.629365158081054688e+01 1.244297981262207031e+01 -2.023230314254760742e+00
9.100000000000000000e+01 6.410081481933593750e+01 3.155826187133789062e+01 3.465986251831054688e+00 3.081263732910156250e+01 1.028358745574951172e+01 -2.040634155273437500e+00
9.200000000000000000e+01 6.416596984863281250e+01 3.174633598327636719e+01 2.593538761138916016e+00 2.729271125793457031e+01 8.965875625610351562e+00 -1.980674982070922852e+00
9.300000000000000000e+01 6.391370773315429688e+01 3.119574165344238281e+01 6.321863651275634766e+00 4.540039062500000000e+01 1.551667690277099609e+01 -5.707358360290527344e+00
9.400000000000000000e+01 6.394100189208984375e+01 3.139290237426757812e+01 3.992435693740844727e+00 3.460784530639648438e+01 1.158008480072021484e+01 -5.872835636138916016e+00
9.500000000000000000e+01 6.396829605102539062e+01 3.159006309509277344e+01 2.742924690246582031e+00 2.904088973999023438e+01 9.535144805908203125e+00 -5.367835521697998047e+00
9.600000000000000000e+01 6.399559402465820312e+01 3.178722572326660156e+01 1.876504659652709961e+00 2.548409271240234375e+01 8.208179473876953125e+00 -4.904470443725585938e+00
9.700000000000000000e+01 6.385534667968750000e+01 3.119805526733398438e+01 6.055871009826660156e+00 4.206291580200195312e+01 1.443563556671142578e+01 -1.088373851776123047e+01
9.800000000000000000e+01 6.384373855590820312e+01 3.139675712585449219e+01 4.244767189025878906e+00 3.101537322998046875e+01 1.057804203033447266e+01 -9.433314323425292969e+00
9.900000000000000000e+01 6.383212661743164062e+01 3.159545898437500000e+01 3.047731637954711914e+00 2.576751136779785156e+01 8.644573211669921875e+00 -8.341726303100585938e+00
1.000000000000000000e+02 6.382051467895507812e+01 3.179416084289550781e+01 2.265485525131225586e+00 2.242537879943847656e+01 7.407258987426757812e+00 -7.502827644348144531e+00
1.010000000000000000e+02 6.379765701293945312e+01 3.118896102905273438e+01 7.505306720733642578e+00 3.622205734252929688e+01 1.311820983886718750e+01 -1.512472248077392578e+01
1.020000000000000000e+02 6.374758529663085938e+01 3.138160133361816406e+01 5.726745605468750000e+00 2.585416603088378906e+01 9.474273681640625000e+00 -1.209058570861816406e+01
1.030000000000000000e+02 6.369751358032226562e+01 3.157423973083496094e+01 4.176579952239990234e+00 2.106515884399414062e+01 7.572521209716796875e+00 -1.028408050537109375e+01
1.040000000000000000e+02 6.364743804931640625e+01 3.176688003540039062e+01 3.400262832641601562e+00 1.842877960205078125e+01 6.548712730407714844e+00 -9.112181663513183594e+00
1.050000000000000000e+02 6.374283599853515625e+01 3.116880989074707031e+01 1.051155090332031250e+01 2.846946525573730469e+01 1.169430541992187500e+01 -1.758619117736816406e+01
1.060000000000000000e+02 6.365621948242187500e+01 3.134801673889160156e+01 7.507525920867919922e+00 1.949552345275878906e+01 8.100914955139160156e+00 -1.313348293304443359e+01
1.070000000000000000e+02 6.356960296630859375e+01 3.152722167968750000e+01 5.954426288604736328e+00 1.570936679840087891e+01 6.499137878417968750e+00 -1.088436317443847656e+01
1.080000000000000000e+02 6.348298645019531250e+01 3.170642662048339844e+01 4.615190982818603516e+00 1.337570095062255859e+01 5.397267818450927734e+00 -9.377122879028320312e+00
1.090000000000000000e+02 6.369298934936523438e+01 3.113837242126464844e+01 1.341615486145019531e+01 1.961250114440917969e+01 9.908596992492675781e+00 -1.749936103820800781e+01
1.100000000000000000e+02 6.357314300537109375e+01 3.129728698730468750e+01 9.392258644104003906e+00 1.284499359130859375e+01 6.671175479888916016e+00 -1.234583091735839844e+01
1.110000000000000000e+02 6.345329666137695312e+01 3.145620155334472656e+01 7.086431026458740234e+00 1.015823078155517578e+01 5.173398494720458984e+00 -9.831214904785156250e+00
1.120000000000000000e+02 6.333344650268554688e+01 3.161511421203613281e+01 5.754827499389648438e+00 8.737968444824218750e+00 4.347838401794433594e+00 -8.545800209045410156e+00
1.130000000000000000e+02 6.365002441406250000e+01 3.109881210327148438e+01 1.564305019378662109e+01 1.078463649749755859e+01 7.928306102752685547e+00 -1.473844146728515625e+01
1.140000000000000000e+02 6.350152969360351562e+01 3.123135375976562500e+01 9.694374084472656250e+00 6.759812831878662109e+00 4.936255931854248047e+00 -9.585664749145507812e+00
1.150000000000000000e+02 6.335303878784179688e+01 3.136389541625976562e+01 7.354918956756591797e+00 5.501623153686523438e+00 3.856962680816650391e+00 -7.606669902801513672e+00
1.160000000000000000e+02 6.320454788208007812e+01 3.149643707275390625e+01 5.637291431427001953e+00 4.921445846557617188e+00 3.167621135711669922e+00 -6.434347629547119141e+00
1.170000000000000000e+02 6.361558151245117188e+01 3.105164527893066406e+01 1.461013793945312500e+01 3.400331497192382812e+00 5.403141021728515625e+00 -9.648327827453613281e+00
1.180000000000000000e+02 6.344412612915039062e+01 3.115274238586425781e+01 8.498802185058593750e+00 2.091425418853759766e+00 3.177068471908569336e+00 -5.601180553436279297e+00
1.190000000000000000e+02 6.327267074584960938e+01 3.125383758544921875e+01 5.246748447418212891e+00 2.486884355545043945e+00 2.320089817047119141e+00 -4.398641109466552734e+00
1.200000000000000000e+02 6.310121536254882812e+01 3.135493469238281250e+01 4.304974079132080078e+00 2.360440254211425781e+00 1.999624371528625488e+00 -4.165790081024169922e+00
1.210000000000000000e+02 6.359098052978515625e+01 3.099867630004882812e+01 1.033166980743408203e+01 -2.142232179641723633e+00 2.456831455230712891e+00 -2.605929374694824219e+00
1.220000000000000000e+02 6.340312194824218750e+01 3.106445884704589844e+01 3.021041393280029297e+00 4.626017808914184570e-01 1.045092940330505371e+00 -1.618992090225219727e+00
1.230000000000000000e+02 6.321526718139648438e+01 3.113024139404296875e+01 2.686877012252807617e+00 1.131002306938171387e+00 1.145363807678222656e+00 -2.224402904510498047e+00
1.240000000000000000e+02 6.302741241455078125e+01 3.119602203369140625e+01 1.255693793296813965e+00 3.032592833042144775e-01 4.676859080791473389e-01 -1.470716476440429688e+00
1.250000000000000000e+02 6.357715988159179688e+01 3.094192886352539062e+01 -4.327246189117431641e+00 -2.863189458847045898e+00 -2.157130718231201172e+00 2.672815799713134766e+00
1.260000000000000000e+02 6.338009262084960938e+01 3.096988105773925781e+01 -7.521520853042602539e-01 1.151571393013000488e+00 1.198257878422737122e-01 -7.403853535652160645e-01
1.270000000000000000e+02 6.318302536010742188e+01 3.099783325195312500e+01 -2.098330736160278320e+00 -5.012637972831726074e-01 -7.798783183097839355e-01 4.261235520243644714e-02
1.280000000000000000e+02 6.298595809936523438e+01 3.102578544616699219e+01 -2.413004398345947266e+00 3.409947156906127930e-01 -6.216029524803161621e-01 -3.007042780518531799e-02
1.290000000000000000e+02 2.333872413635253906e+01 3.602074050903320312e+01 1.300859265029430389e-02 -3.348236350575461984e-05 3.892533015459775925e-03 1.623023883439600468e-03
1.300000000000000000e+02 2.389290046691894531e+01 3.609888076782226562e+01 1.508188247680664062e-02 -2.026026370003819466e-03 3.916756715625524521e-03 5.529178306460380554e-04
1.310000000000000000e+02 2.284308815002441406e+01 3.526721954345703125e+01 -4.351286916062235832e-04 -1.808445202186703682e-03 -6.730721797794103622e-04 2.277350053191184998e-03
1.320000000000000000e+02 2.421754455566406250e+01 3.556056594848632812e+01 -1.188360969536006451e-03 -2.548571676015853882e-03 -1.121079782024025917e-03 -2.694404451176524162e-03
1.330000000000000000e+02 2.498613166809082031e+01 3.604191207885742188e+01 9.764804504811763763e-03 -5.660604801960289478e-04 2.759623341262340546e-03 -2.068052068352699280e-03
1.340000000000000000e+02 2.485820960998535156e+01 3.530118560791015625e+01 -9.556272998452186584e-03 -3.105185227468609810e-03 -3.798437537625432014e-03 -7.094331085681915283e-03
1.350000000000000000e+02 2.364893722534179688e+01 3.528245925903320312e+01 -2.984635531902313232e-03 -3.836886258795857430e-03 -2.046456560492515564e-03 -1.350212725810706615e-03
1.360000000000000000e+02 2.269410705566406250e+01 3.600639724731445312e+01 1.024620980024337769e-02 -3.104574570897966623e-04 2.980725839734077454e-03 1.994844060391187668e-03
1.370000000000000000e+02 2.440931320190429688e+01 3.610589981079101562e+01 1.335996203124523163e-02 3.450946533121168613e-04 4.111517220735549927e-03 -1.803676481358706951e-03
1.380000000000000000e+02 2.713174057006835938e+01 3.578996658325195312e+01 -1.960316300392150879e-02 4.081573279108852148e-04 -5.758501589298248291e-03 -5.506285466253757477e-03
1.390000000000000000e+02 2.639669990539550781e+01 3.588855361938476562e+01 -5.086571909487247467e-03 7.612965418957173824e-04 -1.297582639381289482e-03 -5.215860437601804733e-03
1.400000000000000000e+02 2.560692596435546875e+01 3.524289321899414062e+01 -1.983307301998138428e-02 -3.271440044045448303e-03 -6.931353826075792313e-03 -1.085132267326116562e-02
1.410000000000000000e+02 2.704477500915527344e+01 3.505500793457031250e+01 -5.029008165001869202e-02 7.363648619502782822e-04 -1.486611552536487579e-02 -1.916710287332534790e-02
1.420000000000000000e+02 2.786719703674316406e+01 3.568653869628906250e+01 -3.813662752509117126e-02 1.302917604334652424e-03 -1.105011254549026489e-02 -5.049417261034250259e-03
1.430000000000000000e+02 2.776436805725097656e+01 3.495370483398437500e+01 -7.155705243349075317e-02 2.626902889460325241e-03 -2.067904546856880188e-02 -2.198394946753978729e-02
1.440000000000000000e+02 2.632559776306152344e+01 3.515146636962890625e+01 -3.338142856955528259e-02 -9.552792762406170368e-04 -1.030101254582405090e-02 -1.522149052470922470e-02
1.450000000000000000e+02 2.566216468811035156e+01 3.598210525512695312e+01 4.478660412132740021e-03 -9.110624087043106556e-04 1.070279395207762718e-03 -3.980813082307577133e-03
1.460000000000000000e+02 2.933965110778808594e+01 3.544803619384765625e+01 -9.101729094982147217e-02 1.674835453741252422e-03 -2.680273726582527161e-02 -6.909933872520923615e-04
1.470000000000000000e+02 2.922042655944824219e+01 3.471769332885742188e+01 -1.270251423120498657e-01 6.692513823509216309e-03 -3.609978780150413513e-02 -2.655611373484134674e-02
1.480000000000000000e+02 2.848941230773925781e+01 3.484096145629882812e+01 -9.705416858196258545e-02 4.888524767011404037e-03 -2.764969319105148315e-02 -2.472060546278953552e-02
1.490000000000000000e+02 3.068212890625000000e+01 3.447154998779296875e+01 -1.993091106414794922e-01 1.078201271593570709e-02 -5.655812844634056091e-02 -2.567184716463088989e-02
1.500000000000000000e+02 2.995129966735839844e+01 3.459505081176757812e+01 -1.605354994535446167e-01 8.615082129836082458e-03 -4.557612538337707520e-02 -2.669893391430377960e-02
1.510000000000000000e+02 3.081263542175292969e+01 3.519998931884765625e+01 -1.607052087783813477e-01 1.712995930574834347e-03 -4.769766330718994141e-02 7.950304076075553894e-03
1.520000000000000000e+02 2.860299301147460938e+01 3.557225799560546875e+01 -6.179658696055412292e-02 1.579674892127513885e-03 -1.806507259607315063e-02 -3.324593650177121162e-03
1.530000000000000000e+02 3.007616424560546875e+01 3.532444381713867188e+01 -1.244883537292480469e-01 1.486209570430219173e-03 -3.690064325928688049e-02 2.836565021425485611e-03
1.540000000000000000e+02 3.228277587890625000e+01 3.491655731201171875e+01 -2.549211382865905762e-01 -4.510394937824457884e-04 -7.661166042089462280e-02 2.221994847059249878e-02
1.550000000000000000e+02 3.141323661804199219e+01 3.433660507202148438e+01 -2.430236041545867920e-01 1.273964811116456985e-02 -6.908518821001052856e-02 -2.477404475212097168e-02
1.560000000000000000e+02 3.301699829101562500e+01 3.477141952514648438e+01 -3.104145228862762451e-01 -1.258252072148025036e-03 -9.350182861089706421e-02 3.061645291745662689e-02
1.570000000000000000e+02 3.287635040283203125e+01 3.404490280151367188e+01 -3.446828722953796387e-01 1.462164800614118576e-02 -9.901836514472961426e-02 -2.025497704744338989e-02
1.580000000000000000e+02 3.360715103149414062e+01 3.390307235717773438e+01 -4.025312066078186035e-01 1.560440938919782639e-02 -1.160780414938926697e-01 -1.610106043517589569e-02
1.590000000000000000e+02 3.375072097778320312e+01 3.462901306152343750e+01 -3.705746233463287354e-01 -2.612425247207283974e-03 -1.119561195373535156e-01 4.039826244115829468e-02
1.600000000000000000e+02 3.214505767822265625e+01 3.418946456909179688e+01 -2.912916541099548340e-01 1.384725049138069153e-02 -8.323331922292709351e-02 -2.333134412765502930e-02
1.610000000000000000e+02 3.154802894592285156e+01 3.506427764892578125e+01 -2.036266177892684937e-01 9.417664259672164917e-04 -6.080545857548713684e-02 1.473143510520458221e-02
1.620000000000000000e+02 3.448552703857421875e+01 3.448280334472656250e+01 -4.367977380752563477e-01 -4.392330069094896317e-03 -1.323570162057876587e-01 5.125182494521141052e-02
1.630000000000000000e+02 3.581328582763671875e+01 3.345945358276367188e+01 -6.081537604331970215e-01 1.603030599653720856e-02 -1.776370257139205933e-01 -6.598944892175495625e-04
1.640000000000000000e+02 3.434083938598632812e+01 3.375708389282226562e+01 -4.660085439682006836e-01 1.615131087601184845e-02 -1.349571794271469116e-01 -1.154675241559743881e-02
1.650000000000000000e+02 3.654941177368164062e+01 3.331057739257812500e+01 -6.841456890106201172e-01 1.489275600761175156e-02 -2.007758766412734985e-01 5.402725189924240112e-03
1.660000000000000000e+02 3.595657730102539062e+01 3.418545532226562500e+01 -5.886014103889465332e-01 -8.360605686902999878e-03 -1.790885925292968750e-01 7.554963976144790649e-02
1.670000000000000000e+02 3.669200897216796875e+01 3.403672027587890625e+01 -6.755572557449340820e-01 -1.138424500823020935e-02 -2.060824632644653320e-01 8.794156461954116821e-02
1.680000000000000000e+02 3.522108078002929688e+01 3.433415222167968750e+01 -5.097538232803344727e-01 -6.409994326531887054e-03 -1.548491567373275757e-01 6.295570731163024902e-02
1.690000000000000000e+02 3.507709503173828125e+01 3.360829162597656250e+01 -5.343461632728576660e-01 1.647921279072761536e-02 -1.553600877523422241e-01 -6.181875243782997131e-03
1.700000000000000000e+02 3.742828750610351562e+01 3.389342117309570312e+01 -7.637972235679626465e-01 -1.277616154402494431e-02 -2.329720109701156616e-01 9.980474412441253662e-02
1.710000000000000000e+02 3.802332687377929688e+01 3.303014373779296875e+01 -8.488320112228393555e-01 1.430647261440753937e-02 -2.503576576709747314e-01 2.425463870167732239e-02
1.720000000000000000e+02 3.728625106811523438e+01 3.316717147827148438e+01 -7.638754844665527344e-01 1.392427366226911545e-02 -2.249853610992431641e-01 1.441410090774297714e-02
1.730000000000000000e+02 3.890202331542968750e+01 3.361664962768554688e+01 -9.437579512596130371e-01 -1.649130322039127350e-02 -2.880747914314270020e-01 1.284418106079101562e-01
1.740000000000000000e+02 3.963956451416015625e+01 3.347409820556640625e+01 -1.038849592208862305e+00 -1.799181289970874786e-02 -3.170524239540100098e-01 1.450018733739852905e-01
1.750000000000000000e+02 3.949879837036132812e+01 3.274760437011718750e+01 -1.028593301773071289e+00 1.552112121134996414e-02 -3.039216697216033936e-01 4.516462981700897217e-02
1.760000000000000000e+02 3.876083374023437500e+01 3.289023590087890625e+01 -9.354196786880493164e-01 1.493018958717584610e-02 -2.761468589305877686e-01 3.415927290916442871e-02
1.770000000000000000e+02 3.816493988037109375e+01 3.375647735595703125e+01 -8.509247303009033203e-01 -1.350430957973003387e-02 -2.593287229537963867e-01 1.134444996714591980e-01
1.780000000000000000e+02 4.037628555297851562e+01 3.333070373535156250e+01 -1.142942309379577637e+00 -2.117765508592128754e-02 -3.492359817028045654e-01 1.644936800003051758e-01
1.790000000000000000e+02 4.171068954467773438e+01 3.231314468383789062e+01 -1.338219285011291504e+00 9.293156675994396210e-03 -3.986778259277343750e-01 7.398712635040283203e-02
1.800000000000000000e+02 4.023619079589843750e+01 3.260407638549804688e+01 -1.126311063766479492e+00 1.501052454113960266e-02 -3.333901464939117432e-01 5.464536696672439575e-02
1.810000000000000000e+02 4.244785308837890625e+01 3.216765213012695312e+01 -1.445794343948364258e+00 4.515853710472583771e-03 -4.323835372924804688e-01 8.213445544242858887e-02
1.820000000000000000e+02 4.184893417358398438e+01 3.304013442993164062e+01 -1.380758404731750488e+00 -2.925338223576545715e-02 -4.230035543441772461e-01 2.039014846086502075e-01
1.830000000000000000e+02 4.258517456054687500e+01 3.289482498168945312e+01 -1.517762780189514160e+00 -3.558624163269996643e-02 -4.660047292709350586e-01 2.205199301242828369e-01
1.840000000000000000e+02 4.111263656616210938e+01 3.318542480468750000e+01 -1.258392453193664551e+00 -2.613517455756664276e-02 -3.853582739830017090e-01 1.842402815818786621e-01
1.850000000000000000e+02 4.097346878051757812e+01 3.245861816406250000e+01 -1.228035211563110352e+00 1.320773549377918243e-02 -3.644482493400573730e-01 6.508035957813262939e-02
1.860000000000000000e+02 4.332307434082031250e+01 3.275568008422851562e+01 -1.649386167526245117e+00 -3.629553690552711487e-02 -5.057045221328735352e-01 2.323672324419021606e-01
1.870000000000000000e+02 4.318753814697265625e+01 3.202817916870117188e+01 -1.558278322219848633e+00 4.611222539097070694e-04 -4.673451483249664307e-01 9.547532349824905396e-02
1.880000000000000000e+02 4.392967605590820312e+01 3.189475250244140625e+01 -1.678474068641662598e+00 2.577077597379684448e-03 -5.027691125869750977e-01 1.075931936502456665e-01
1.890000000000000000e+02 4.480221557617187500e+01 3.249026870727539062e+01 -1.905315399169921875e+00 -3.670698404312133789e-02 -5.826066732406616211e-01 2.647945284843444824e-01
1.900000000000000000e+02 4.541445922851562500e+01 3.162938690185546875e+01 -1.917349696159362793e+00 -1.487917150370776653e-03 -5.756512880325317383e-01 1.219708546996116638e-01
1.910000000000000000e+02 4.554204177856445312e+01 3.235831069946289062e+01 -2.054314136505126953e+00 -4.212881997227668762e-02 -6.289328932762145996e-01 2.812218666076660156e-01
1.920000000000000000e+02 4.406255722045898438e+01 3.262272644042968750e+01 -1.771532297134399414e+00 -3.448592126369476318e-02 -5.418054461479187012e-01 2.462981641292572021e-01
1.930000000000000000e+02 4.467198181152343750e+01 3.176181983947753906e+01 -1.798700809478759766e+00 2.195940120145678520e-03 -5.389514565467834473e-01 1.141091138124465942e-01
1.940000000000000000e+02 4.628276062011718750e+01 3.223004150390625000e+01 -2.200943231582641602e+00 -4.286544397473335266e-02 -6.731426119804382324e-01 2.938742041587829590e-01
1.950000000000000000e+02 4.764949035644531250e+01 3.125085830688476562e+01 -2.307294845581054688e+00 -7.563801947981119156e-03 -6.944575905799865723e-01 1.408524066209793091e-01
1.960000000000000000e+02 4.615840911865234375e+01 3.150056076049804688e+01 -2.041280746459960938e+00 -5.220443941652774811e-03 -6.139503717422485352e-01 1.328421682119369507e-01
1.970000000000000000e+02 4.839503097534179688e+01 3.112652587890625000e+01 -2.423191785812377930e+00 -1.934123225510120392e-02 -7.327599525451660156e-01 1.399537771940231323e-01
1.980000000000000000e+02 4.776623153686523438e+01 3.198161315917968750e+01 -2.501571416854858398e+00 -4.365180432796478271e-02 -7.635669112205505371e-01 3.260750472545623779e-01
1.990000000000000000e+02 4.850796127319335938e+01 3.185791587829589844e+01 -2.692965984344482422e+00 -5.511112138628959656e-02 -8.244231343269348145e-01 3.336914479732513428e-01
2.000000000000000000e+02 4.702449035644531250e+01 3.210565567016601562e+01 -2.343106985092163086e+00 -4.200197011232376099e-02 -7.155326604843139648e-01 3.079436719417572021e-01
2.010000000000000000e+02 4.690394592285156250e+01 3.137553787231445312e+01 -2.172461271286010742e+00 -3.174704033881425858e-03 -6.526907682418823242e-01 1.422432959079742432e-01
2.020000000000000000e+02 4.925159072875976562e+01 3.174488639831542969e+01 -2.856105089187622070e+00 -5.087406188249588013e-02 -8.720937967300415039e-01 3.261306583881378174e-01
2.030000000000000000e+02 4.914293289184570312e+01 3.101285552978515625e+01 -2.544575214385986328e+00 -2.569465525448322296e-02 -7.710809707641601562e-01 1.534820050001144409e-01
2.040000000000000000e+02 4.989311599731445312e+01 3.090981101989746094e+01 -2.678486347198486328e+00 -1.553355623036623001e-02 -8.082060217857360840e-01 1.604169160127639771e-01
2.050000000000000000e+02 5.074266433715820312e+01 3.154084205627441406e+01 -3.130041122436523438e+00 -3.848876804113388062e-02 -9.505589604377746582e-01 3.358050882816314697e-01
2.060000000000000000e+02 5.139404296875000000e+01 3.070597648620605469e+01 -2.898634910583496094e+00 -2.167680673301219940e-02 -8.760935068130493164e-01 1.496247500181198120e-01
2.070000000000000000e+02 5.148847579956054688e+01 3.143994712829589844e+01 -3.309631824493408203e+00 -4.687654599547386169e-02 -1.006952524185180664e+00 3.387742638587951660e-01
2.080000000000000000e+02 4.999703216552734375e+01 3.164248847961425781e+01 -2.980868339538574219e+00 -3.839177265763282776e-02 -9.057780504226684570e-01 3.250148296356201172e-01
2.090000000000000000e+02 5.064348983764648438e+01 3.080751800537109375e+01 -2.797614574432373047e+00 -1.277174334973096848e-02 -8.431159257888793945e-01 1.524612158536911011e-01
2.100000000000000000e+02 5.373043823242187500e+01 3.117490577697753906e+01 -3.737404346466064453e+00 -3.337787091732025146e-02 -1.131234645843505859e+00 3.332847356796264648e-01
2.110000000000000000e+02 5.214544677734375000e+01 3.061188697814941406e+01 -3.001544952392578125e+00 -2.531748451292514801e-02 -9.080587625503540039e-01 1.591747850179672241e-01
2.120000000000000000e+02 5.440248107910156250e+01 3.035354614257812500e+01 -3.252991199493408203e+00 -3.287699818611145020e-02 -9.857604503631591797e-01 1.457012593746185303e-01
2.130000000000000000e+02 5.365017700195312500e+01 3.043926048278808594e+01 -3.202704191207885742e+00 -1.622825674712657928e-02 -9.656797051429748535e-01 1.509390175342559814e-01
2.140000000000000000e+02 5.447802734375000000e+01 3.108973121643066406e+01 -3.923441886901855469e+00 -4.545535519719123840e-02 -1.190669178962707520e+00 3.256741762161254883e-01
2.150000000000000000e+02 5.298280715942382812e+01 3.126048088073730469e+01 -3.589278221130371094e+00 -3.250236809253692627e-02 -1.086534261703491211e+00 3.265142738819122314e-01
2.160000000000000000e+02 5.223514938354492188e+01 3.134645080566406250e+01 -3.465249061584472656e+00 -4.398440569639205933e-02 -1.052770018577575684e+00 3.293472528457641602e-01
2.170000000000000000e+02 5.289782714843750000e+01 3.052537536621093750e+01 -3.111293315887451172e+00 -1.590607874095439911e-02 -9.381597638130187988e-01 1.623509377241134644e-01
2.180000000000000000e+02 5.597676467895507812e+01 3.095117187500000000e+01 -4.135209560394287109e+00 -2.115860767662525177e-02 -1.246910452842712402e+00 2.803640961647033691e-01
2.190000000000000000e+02 5.591128540039062500e+01 3.021406745910644531e+01 -3.339035511016845703e+00 -2.172377519309520721e-02 -1.008227825164794922e+00 1.716493517160415649e-01
2.200000000000000000e+02 5.515621185302734375e+01 3.027851104736328125e+01 -3.298176765441894531e+00 -3.488763421773910522e-02 -9.999193549156188965e-01 1.647244989871978760e-01
2.210000000000000000e+02 5.666648483276367188e+01 3.015038108825683594e+01 -3.328887701034545898e+00 -5.554673727601766586e-03 -1.000332713127136230e+00 1.679021269083023071e-01
2.220000000000000000e+02 5.672682952880859375e+01 3.088792037963867188e+01 -4.235468864440917969e+00 -2.113093622028827667e-02 -1.276979923248291016e+00 2.826706469058990479e-01
2.230000000000000000e+02 5.742179489135742188e+01 3.008745574951171875e+01 -3.252028465270996094e+00 -5.130748823285102844e-02 -9.910007715225219727e-01 1.683149635791778564e-01
2.240000000000000000e+02 5.747700500488281250e+01 3.082542610168457031e+01 -4.369580745697021484e+00 -3.886969015002250671e-02 -1.322535157203674316e+00 2.644139826297760010e-01
2.250000000000000000e+02 5.522682952880859375e+01 3.101518249511718750e+01 -4.059331417083740234e+00 -4.278544709086418152e-02 -1.230635046958923340e+00 2.967352271080017090e-01
2.260000000000000000e+02 6.038554382324218750e+01 3.021649169921875000e+01 -2.862665414810180664e+00 -8.063550107181072235e-03 -8.612186908721923828e-01 3.952014744281768799e-01
2.270000000000000000e+02 5.933110809326171875e+01 2.981277465820312500e+01 -2.308635473251342773e+00 8.599565178155899048e-02 -6.667919158935546875e-01 3.999501168727874756e-01
2.280000000000000000e+02 6.058324050903320312e+01 2.987384796142578125e+01 -1.440545678138732910e+00 1.832629144191741943e-01 -3.771848082542419434e-01 8.435800075531005859e-01
2.290000000000000000e+02 5.815838623046875000e+01 3.003643417358398438e+01 -3.080868721008300781e+00 -9.576193988323211670e-03 -9.271334409713745117e-01 2.293848246335983276e-01
2.300000000000000000e+02 6.052235031127929688e+01 2.964670181274414062e+01 -1.002835392951965332e+00 3.044581711292266846e-01 -2.095131576061248779e-01 1.030058622360229492e+00
2.310000000000000000e+02 5.980460739135742188e+01 3.038582229614257812e+01 -3.517940998077392578e+00 3.624044358730316162e-02 -1.044510245323181152e+00 2.404523789882659912e-01
2.320000000000000000e+02 6.057955551147460938e+01 3.089505958557128906e+01 -5.066259384155273438e+00 4.331952705979347229e-02 -1.506881952285766602e+00 1.974935978651046753e-01
2.330000000000000000e+02 6.064988327026367188e+01 3.046913719177246094e+01 -3.526873826980590820e+00 8.124626241624355316e-03 -1.055624723434448242e+00 2.752726674079895020e-01
2.340000000000000000e+02 6.067280197143554688e+01 3.026194953918457031e+01 -2.768946886062622070e+00 1.502772886306047440e-02 -8.261756896972656250e-01 4.084313511848449707e-01
2.350000000000000000e+02 6.065071487426757812e+01 3.067815971374511719e+01 -4.101076126098632812e+00 1.072598174214363098e-01 -1.198144793510437012e+00 1.411880254745483398e-01
2.360000000000000000e+02 5.920755004882812500e+01 3.025231742858886719e+01 -3.327915191650390625e+00 2.153503475710749626e-03 -9.977284669876098633e-01 2.872194349765777588e-01
2.370000000000000000e+02 5.824670028686523438e+01 3.077254295349121094e+01 -4.467519760131835938e+00 -3.841743990778923035e-02 -1.351781129837036133e+00 2.188729494810104370e-01
2.380000000000000000e+02 5.973514175415039062e+01 3.082772254943847656e+01 -4.718639373779296875e+00 3.355050832033157349e-02 -1.405526638031005859e+00 1.954857110977172852e-01
2.390000000000000000e+02 6.065505981445312500e+01 3.007238960266113281e+01 -2.116687536239624023e+00 9.471508115530014038e-02 -6.065917611122131348e-01 6.656256318092346191e-01
2.400000000000000000e+02 5.993370437622070312e+01 2.974786376953125000e+01 -1.843556642532348633e+00 1.366296112537384033e-01 -5.120781064033508301e-01 6.047970056533813477e-01
2.410000000000000000e+02 6.011853790283203125e+01 3.004550933837890625e+01 -2.477529048919677734e+00 5.229800939559936523e-02 -7.275693416595458984e-01 4.747983813285827637e-01
2.420000000000000000e+02 5.902153015136718750e+01 3.078788185119628906e+01 -4.547523498535156250e+00 -3.021066077053546906e-02 -1.373320341110229492e+00 1.696522235870361328e-01
2.430000000000000000e+02 5.877397918701171875e+01 2.991198158264160156e+01 -2.836984872817993164e+00 -2.884449623525142670e-02 -8.597488403320312500e-01 2.913244366645812988e-01
2.440000000000000000e+02 6.025558090209960938e+01 3.075736618041992188e+01 -4.602253437042236328e+00 -1.137356758117675781e-01 -1.414796829223632812e+00 2.199681103229522705e-01
2.450000000000000000e+02 6.025533294677734375e+01 3.046719741821289062e+01 -3.624664545059204102e+00 -5.726277455687522888e-02 -1.104578137397766113e+00 2.607581317424774170e-01
2.460000000000000000e+02 6.230496215820312500e+01 2.959095191955566406e+01 2.348976850509643555e+00 2.783650636672973633e+00 1.539788246154785156e+00 4.146883964538574219e+00
2.470000000000000000e+02 6.316575622558593750e+01 3.007629203796386719e+01 5.139948844909667969e+00 6.963688373565673828e+00 3.631091117858886719e+00 7.601432800292968750e+00
2.480000000000000000e+02 6.440897369384765625e+01 2.991736602783203125e+01 3.021638870239257812e+00 2.493608856201171875e+01 8.387317657470703125e+00 3.319246768951416016e-01
2.490000000000000000e+02 6.519068908691406250e+01 3.036650466918945312e+01 9.313565254211425781e+00 1.875063323974609375e+01 8.419260025024414062e+00 -2.295774936676025391e+00
2.500000000000000000e+02 6.493015289306640625e+01 3.179222869873046875e+01 5.921406745910644531e+00 2.086558341979980469e+01 8.036096572875976562e+00 2.776151180267333984e+00
2.510000000000000000e+02 6.420851135253906250e+01 3.222989654541015625e+01 9.367375969886779785e-01 2.159451293945312500e+01 6.759375572204589844e+00 -2.791809797286987305e+00
2.520000000000000000e+02 6.246176528930664062e+01 3.229143524169921875e+01 2.580806016921997070e+00 3.708025217056274414e+00 1.886649370193481445e+00 -4.308523654937744141e+00
2.530000000000000000e+02 6.342049789428710938e+01 2.971125984191894531e+01 3.102163314819335938e+00 1.316244316101074219e+01 4.879381656646728516e+00 8.280841827392578125e+00
2.540000000000000000e+02 6.090951919555664062e+01 2.961226654052734375e+01 -4.371684491634368896e-01 5.889446139335632324e-01 4.553284868597984314e-02 1.409468412399291992e+00
2.550000000000000000e+02 6.170597839355468750e+01 2.958665847778320312e+01 9.823702573776245117e-01 1.329936623573303223e+00 6.936920285224914551e-01 2.565652847290039062e+00
2.560000000000000000e+02 6.391632461547851562e+01 2.978398704528808594e+01 1.525081872940063477e+00 2.157869720458984375e+01 6.931133747100830078e+00 6.026142597198486328e+00
2.570000000000000000e+02 6.419888305664062500e+01 3.197184562683105469e+01 1.687700986862182617e+00 2.443957328796386719e+01 7.838181972503662109e+00 -2.297301054000854492e+00
2.580000000000000000e+02 6.457607269287109375e+01 3.201417922973632812e+01 2.977610588073730469e+00 2.305160331726074219e+01 7.808764457702636719e+00 9.412622451782226562e-01
2.590000000000000000e+02 6.472175598144531250e+01 3.157927894592285156e+01 7.989566326141357422e+00 2.332878684997558594e+01 9.395505905151367188e+00 3.275813579559326172e+00
2.600000000000000000e+02 6.514392089843750000e+01 3.147326469421386719e+01 9.397286415100097656e+00 1.939362144470214844e+01 8.637271881103515625e+00 2.764969348907470703e+00
2.610000000000000000e+02 6.456932830810546875e+01 3.003471183776855469e+01 5.158968448638916016e+00 2.457346916198730469e+01 8.919731140136718750e+00 -1.606427907943725586e+00
2.620000000000000000e+02 6.103631973266601562e+01 3.240229415893554688e+01 1.704028099775314331e-01 1.041584610939025879e+00 3.635962307453155518e-01 -1.237270593643188477e+00
2.630000000000000000e+02 6.102065277099609375e+01 3.200059127807617188e+01 -6.430390477180480957e-01 3.204655349254608154e-01 -9.677205979824066162e-02 -5.489300489425659180e-01
2.640000000000000000e+02 6.139804840087890625e+01 3.112886238098144531e+01 -4.050950527191162109e+00 3.436200320720672607e-03 -1.214254260063171387e+00 1.891614794731140137e-01
2.650000000000000000e+02 6.282740783691406250e+01 3.211159896850585938e+01 3.346776723861694336e+00 5.428599834442138672e+00 2.632612943649291992e+00 -5.550264358520507812e+00
2.660000000000000000e+02 6.358717346191406250e+01 3.197882461547851562e+01 2.701936721801757812e+00 1.614032936096191406e+01 5.652679920196533203e+00 -8.150965690612792969e+00
2.670000000000000000e+02 6.098603439331054688e+01 3.113446044921875000e+01 -4.072513103485107422e+00 -1.042917147278785706e-01 -1.253041386604309082e+00 1.332817971706390381e-01
2.680000000000000000e+02 6.165704345703125000e+01 3.138451194763183594e+01 -2.176931142807006836e+00 8.305058628320693970e-02 -6.281641125679016113e-01 -1.621308922767639160e-01
2.690000000000000000e+02 6.102153396606445312e+01 3.220040893554687500e+01 -2.618880867958068848e-01 6.882802248001098633e-01 1.279176324605941772e-01 -8.313978314399719238e-01
2.700000000000000000e+02 6.225868606567382812e+01 3.116280746459960938e+01 -2.959071159362792969e+00 8.077079057693481445e-02 -8.634901046752929688e-01 -9.302210062742233276e-02
2.710000000000000000e+02 6.240260696411132812e+01 3.127410507202148438e+01 -1.342497467994689941e+00 2.204798758029937744e-01 -3.366052806377410889e-01 -4.144316613674163818e-01
2.720000000000000000e+02 6.276430130004882812e+01 3.106706047058105469e+01 -2.749103784561157227e+00 -2.466688007116317749e-01 -8.987317681312561035e-01 -2.721341885626316071e-02
2.730000000000000000e+02 6.524167633056640625e+01 3.093860435485839844e+01 1.144601726531982422e+01 1.756494712829589844e+01 8.703289985656738281e+00 3.703249096870422363e-01
2.740000000000000000e+02 6.503498077392578125e+01 3.125879287719726562e+01 1.100270175933837891e+01 1.953998374938964844e+01 9.162805557250976562e+00 2.547049522399902344e+00
2.750000000000000000e+02 6.400817871093750000e+01 3.200611877441406250e+01 1.320339918136596680e+00 2.279026222229003906e+01 7.233180999755859375e+00 -4.650660991668701172e+00
2.760000000000000000e+02 6.289210891723632812e+01 3.148918533325195312e+01 3.278835058212280273e+00 1.775104641914367676e+00 1.516181945800781250e+00 -3.393501996994018555e+00
2.770000000000000000e+02 6.258302688598632812e+01 3.081567764282226562e+01 -4.053296089172363281e+00 4.796463251113891602e-02 -1.201599359512329102e+00 2.339062392711639404e-01
2.780000000000000000e+02 6.300964355468750000e+01 3.021847343444824219e+01 4.569988727569580078e+00 3.610851764678955078e+00 2.454252004623413086e+00 5.544655799865722656e+00
2.790000000000000000e+02 6.332903289794921875e+01 2.996031570434570312e+01 4.610584735870361328e+00 1.066193962097167969e+01 4.581757068634033203e+00 8.812531471252441406e+00
2.800000000000000000e+02 6.490466308593750000e+01 2.996910858154296875e+01 5.878117561340332031e+00 2.135900878906250000e+01 8.171137809753417969e+00 -2.383396863937377930e+00
2.810000000000000000e+02 6.470077514648437500e+01 3.019643211364746094e+01 7.607783317565917969e+00 2.353416633605957031e+01 9.342584609985351562e+00 -2.834851503372192383e+00
2.820000000000000000e+02 6.197650909423828125e+01 3.082531547546386719e+01 -4.562505245208740234e+00 -3.076512180268764496e-02 -1.377981066703796387e+00 1.723008453845977783e-01
2.830000000000000000e+02 6.116194152832031250e+01 3.065463829040527344e+01 -4.014642238616943359e+00 -4.105434753000736237e-03 -1.205624222755432129e+00 2.616446614265441895e-01
2.840000000000000000e+02 6.094960784912109375e+01 3.045516777038574219e+01 -3.181761264801025391e+00 5.154959484934806824e-02 -9.390635490417480469e-01 2.246977686882019043e-01
2.850000000000000000e+02 6.096012115478515625e+01 3.066646575927734375e+01 -4.074536800384521484e+00 -1.722735166549682617e-01 -1.274043083190917969e+00 2.096679210662841797e-01
2.860000000000000000e+02 6.096942901611328125e+01 3.087910270690917969e+01 -5.162371635437011719e+00 -1.635989397764205933e-01 -1.597791194915771484e+00 2.264346778392791748e-01
2.870000000000000000e+02 6.497236633300781250e+01 3.075047302246093750e+01 1.313549709320068359e+01 1.972356605529785156e+01 9.857719421386718750e+00 -9.817097187042236328e-01
2.880000000000000000e+02 6.459291839599609375e+01 3.168661689758300781e+01 5.923266410827636719e+00 2.491477203369140625e+01 9.251411437988281250e+00 2.606802940368652344e+00
2.890000000000000000e+02 6.338420104980468750e+01 3.190338325500488281e+01 3.950064182281494141e+00 1.197725582122802734e+01 4.778195858001708984e+00 -8.345018386840820312e+00
2.900000000000000000e+02 6.498215484619140625e+01 3.139379882812500000e+01 1.014185237884521484e+01 2.007155990600585938e+01 9.064023971557617188e+00 3.004718542098999023e+00
2.910000000000000000e+02 6.343477630615234375e+01 3.233176803588867188e+01 2.162391662597656250e+00 1.289763832092285156e+01 4.518008708953857422e+00 -7.072457313537597656e+00
2.920000000000000000e+02 6.380061340332031250e+01 3.201719665527343750e+01 1.716579079627990723e+00 1.987048912048339844e+01 6.476120471954345703e+00 -6.761569976806640625e+00
2.930000000000000000e+02 6.301094818115234375e+01 3.167958259582519531e+01 4.472373008728027344e+00 4.515772819519042969e+00 2.696443796157836914e+00 -5.671135425567626953e+00
2.940000000000000000e+02 6.329515838623046875e+01 3.211271286010742188e+01 3.271719455718994141e+00 1.102887916564941406e+01 4.290179729461669922e+00 -7.631661891937255859e+00
2.950000000000000000e+02 6.473999786376953125e+01 3.173378562927246094e+01 6.120190620422363281e+00 2.306450843811035156e+01 8.755410194396972656e+00 2.646403551101684570e+00
2.960000000000000000e+02 6.401593780517578125e+01 3.225774383544921875e+01 8.331834077835083008e-01 2.042855834960937500e+01 6.378522396087646484e+00 -4.478122234344482422e+00
2.970000000000000000e+02 6.410422515869140625e+01 2.954595947265625000e+01 8.962312936782836914e-01 2.073232078552246094e+01 6.488565444946289062e+00 4.093591690063476562e+00
2.980000000000000000e+02 6.292272567749023438e+01 2.957430648803710938e+01 3.285601377487182617e+00 6.794351100921630859e+00 3.023985624313354492e+00 6.636651039123535156e+00
2.990000000000000000e+02 6.486746215820312500e+01 3.016337966918945312e+01 7.606389045715332031e+00 2.177336692810058594e+01 8.813926696777343750e+00 -2.786876916885375977e+00
3.000000000000000000e+02 6.370861053466796875e+01 2.981089591979980469e+01 2.156857728958129883e+00 1.867864227294921875e+01 6.250649929046630859e+00 7.930487632751464844e+00
3.010000000000000000e+02 6.278155899047851562e+01 3.082608985900878906e+01 -3.820448637008666992e+00 -1.671593040227890015e-01 -1.196282386779785156e+00 1.590396761894226074e-01
3.020000000000000000e+02 6.238179397583007812e+01 3.080940818786621094e+01 -4.273691177368164062e+00 -1.040325872600078583e-02 -1.285228252410888672e+00 2.049098461866378784e-01
3.030000000000000000e+02 6.513798522949218750e+01 3.020480918884277344e+01 8.254172325134277344e+00 1.918052101135253906e+01 8.230407714843750000e+00 -2.539559841156005859e+00
3.040000000000000000e+02 6.351128005981445312e+01 2.987726593017578125e+01 3.373351573944091797e+00 1.459487628936767578e+01 5.390468120574951172e+00 8.873627662658691406e+00
3.050000000000000000e+02 6.490022277832031250e+01 3.055595016479492188e+01 1.213507366180419922e+01 2.060935020446777344e+01 9.823327064514160156e+00 -2.351124763488769531e+00
3.060000000000000000e+02 6.499025726318359375e+01 3.094744873046875000e+01 1.321128082275390625e+01 1.953065299987792969e+01 9.822580337524414062e+00 6.490939259529113770e-01
3.070000000000000000e+02 6.443628692626953125e+01 2.962335014343261719e+01 1.950218081474304199e+00 2.261921119689941406e+01 7.370828628540039062e+00 9.232080578804016113e-01
3.080000000000000000e+02 6.481967163085937500e+01 3.194529151916503906e+01 4.286299228668212891e+00 2.168271446228027344e+01 7.790703773498535156e+00 2.099903583526611328e+00
3.090000000000000000e+02 6.447232055664062500e+01 3.180581092834472656e+01 3.868158817291259766e+00 2.535579681396484375e+01 8.767187118530273438e+00 1.007331013679504395e+00
3.100000000000000000e+02 6.473979187011718750e+01 2.984979438781738281e+01 4.264601230621337891e+00 2.208780670166015625e+01 7.905722141265869141e+00 -1.522563338279724121e+00
3.110000000000000000e+02 6.439457702636718750e+01 3.197564315795898438e+01 2.439174652099609375e+00 2.420360374450683594e+01 7.992833614349365234e+00 -3.805297017097473145e-01
3.120000000000000000e+02 6.489633941650390625e+01 3.119816017150878906e+01 1.266942787170410156e+01 2.067959022521972656e+01 1.000470542907714844e+01 2.525404930114746094e+00
3.130000000000000000e+02 6.520951843261718750e+01 3.130212974548339844e+01 1.025503921508789062e+01 1.855892944335937500e+01 8.644190788269042969e+00 2.280353307723999023e+00
3.140000000000000000e+02 6.504152679443359375e+01 3.163171005249023438e+01 7.827803611755371094e+00 2.042062568664550781e+01 8.474528312683105469e+00 3.173546075820922852e+00
3.150000000000000000e+02 6.522376251220703125e+01 3.074107360839843750e+01 1.150751972198486328e+01 1.790156364440917969e+01 8.822725296020507812e+00 -7.497318983078002930e-01
3.160000000000000000e+02 6.502302551269531250e+01 3.111577796936035156e+01 1.241672420501708984e+01 1.950012397766113281e+01 9.575054168701171875e+00 1.765787959098815918e+00
3.170000000000000000e+02 6.501957702636718750e+01 3.047560501098632812e+01 1.103954792022705078e+01 1.981259155273437500e+01 9.255641937255859375e+00 -2.265599012374877930e+00
3.180000000000000000e+02 6.487222290039062500e+01 3.149715614318847656e+01 9.253034591674804688e+00 2.168118286132812500e+01 9.280265808105468750e+00 3.411354541778564453e+00
3.190000000000000000e+02 6.501933288574218750e+01 3.019801139831542969e+01 8.149948120117187500e+00 2.017515373229980469e+01 8.497530937194824219e+00 -2.738043785095214844e+00
3.200000000000000000e+02 6.380714035034179688e+01 3.227174758911132812e+01 1.156972289085388184e+00 1.816653060913085938e+01 5.797050476074218750e+00 -5.992949008941650391e+00
3.210000000000000000e+02 6.361082839965820312e+01 3.230766677856445312e+01 1.672575354576110840e+00 1.563532924652099609e+01 5.192371368408203125e+00 -6.807584762573242188e+00
3.220000000000000000e+02 6.307531738281250000e+01 3.207099914550781250e+01 3.597813844680786133e+00 7.566675662994384766e+00 3.349346876144409180e+00 -6.671627521514892578e+00
3.230000000000000000e+02 6.122756576538085938e+01 3.239978790283203125e+01 4.111548364162445068e-01 1.028503656387329102e+00 4.318975508213043213e-01 -1.389567375183105469e+00
3.240000000000000000e+02 6.165499877929687500e+01 3.165319252014160156e+01 -8.663421869277954102e-01 2.839474976062774658e-01 -1.747184097766876221e-01 -6.669718027114868164e-01
3.250000000000000000e+02 6.181002426147460938e+01 3.201253509521484375e+01 6.618599891662597656e-01 1.052900075912475586e+00 5.144280195236206055e-01 -1.741308808326721191e+00
3.260000000000000000e+02 6.304661941528320312e+01 3.231482696533203125e+01 2.878787994384765625e+00 8.260855674743652344e+00 3.341893196105957031e+00 -6.362289428710937500e+00
3.270000000000000000e+02 6.100569915771484375e+01 3.135314559936523438e+01 -3.201162338256835938e+00 -1.571543067693710327e-01 -1.007494926452636719e+00 8.023996651172637939e-02
3.280000000000000000e+02 6.200356292724609375e+01 3.107624816894531250e+01 -4.056050300598144531e+00 -1.538124680519104004e-02 -1.221429586410522461e+00 1.842766404151916504e-01
3.290000000000000000e+02 6.180572128295898438e+01 3.110706520080566406e+01 -4.048903942108154297e+00 1.459769811481237411e-02 -1.210291862487792969e+00 2.114719599485397339e-01
3.300000000000000000e+02 6.279723358154296875e+01 3.128943443298339844e+01 7.496713399887084961e-01 5.389068126678466797e-01 3.865734338760375977e-01 -1.471426486968994141e+00
3.310000000000000000e+02 6.208362960815429688e+01 3.125646972656250000e+01 -2.291300535202026367e+00 1.379248946905136108e-01 -6.460126638412475586e-01 -1.058458462357521057e-01
3.320000000000000000e+02 6.261757659912109375e+01 3.057083320617675781e+01 -5.101650953292846680e-01 7.812318205833435059e-02 -1.296125650405883789e-01 1.041047453880310059e+00
3.330000000000000000e+02 6.183209228515625000e+01 3.003460311889648438e+01 1.208432465791702271e-01 5.766291022300720215e-01 2.092417031526565552e-01 1.714213132858276367e+00
3.340000000000000000e+02 6.176858139038085938e+01 3.059492301940917969e+01 -3.138542413711547852e+00 1.035305019468069077e-02 -9.384567737579345703e-01 3.639959990978240967e-01
3.350000000000000000e+02 6.177393341064453125e+01 3.083832740783691406e+01 -4.706178188323974609e+00 -3.088106634095311165e-03 -1.412779808044433594e+00 1.919774413108825684e-01
3.360000000000000000e+02 6.210461044311523438e+01 2.959357833862304688e+01 1.898152709007263184e+00 2.070812225341796875e+00 1.190689444541931152e+00 3.508758544921875000e+00
3.370000000000000000e+02 6.188567733764648438e+01 2.982135963439941406e+01 8.514019846916198730e-01 1.100696921348571777e+00 5.856297016143798828e-01 2.401775121688842773e+00
3.380000000000000000e+02 6.334382629394531250e+01 2.952234077453613281e+01 2.607919692993164062e+00 1.194942760467529297e+01 4.367204189300537109e+00 7.609445571899414062e+00
3.390000000000000000e+02 6.313828659057617188e+01 2.955780792236328125e+01 3.195157051086425781e+00 9.080888748168945312e+00 3.682813882827758789e+00 7.378918170928955078e+00
3.400000000000000000e+02 6.370952224731445312e+01 2.950408363342285156e+01 1.477694749832153320e+00 1.716085815429687500e+01 5.591566085815429688e+00 6.853425502777099609e+00
3.410000000000000000e+02 6.353103637695312500e+01 2.949334526062011719e+01 2.008065223693847656e+00 1.425586509704589844e+01 4.879179000854492188e+00 7.369874000549316406e+00
3.420000000000000000e+02 6.270610427856445312e+01 2.982691001892089844e+01 3.438144683837890625e+00 4.077441692352294922e+00 2.254675865173339844e+00 5.310488700866699219e+00
3.430000000000000000e+02 6.290299606323242188e+01 2.982344245910644531e+01 3.799926757812500000e+00 5.474758148193359375e+00 2.782405376434326172e+00 6.322336196899414062e+00
3.440000000000000000e+02 6.218692016601562500e+01 3.053129005432128906e+01 -1.640690445899963379e+00 1.580704599618911743e-01 -4.447859823703765869e-01 7.846826910972595215e-01
3.450000000000000000e+02 6.229372406005859375e+01 2.986964988708496094e+01 1.911056160926818848e+00 1.711794495582580566e+00 1.086855173110961914e+00 3.247947931289672852e+00
3.460000000000000000e+02 6.250784301757812500e+01 2.958111953735351562e+01 2.736681938171386719e+00 3.889151334762573242e+00 1.987750053405761719e+00 4.987173080444335938e+00
3.470000000000000000e+02 6.134815979003906250e+01 3.042616271972656250e+01 -2.734050035476684570e+00 9.333679080009460449e-02 -7.922139763832092285e-01 4.893210530281066895e-01
3.480000000000000000e+02 6.130864715576171875e+01 2.959653472900390625e+01 1.427152752876281738e-01 8.408371210098266602e-01 2.950657308101654053e-01 1.881264090538024902e+00
3.490000000000000000e+02 6.390582656860351562e+01 2.953246307373046875e+01 1.066470026969909668e+00 1.932100868225097656e+01 6.116243839263916016e+00 5.695174217224121094e+00
3.500000000000000000e+02 6.119337463378906250e+01 3.113227462768554688e+01 -4.029998302459716797e+00 9.531337767839431763e-03 -1.206140160560607910e+00 2.168527543544769287e-01
3.510000000000000000e+02 6.119479751586914062e+01 3.221784591674804688e+01 4.578205943107604980e-02 8.594183921813964844e-01 2.715601325035095215e-01 -1.178945541381835938e+00
3.520000000000000000e+02 6.103677749633789062e+01 3.179883384704589844e+01 -1.350947976112365723e+00 2.302106171846389771e-01 -3.362212181091308594e-01 -2.950582802295684814e-01
3.530000000000000000e+02 6.112714385986328125e+01 3.002430343627929688e+01 -1.350498557090759277e+00 2.284343838691711426e-01 -3.366192579269409180e-01 9.635582566261291504e-01
3.540000000000000000e+02 6.092897796630859375e+01 3.003390121459960938e+01 -1.603478550910949707e+00 2.215788960456848145e-01 -4.145698845386505127e-01 8.193328380584716797e-01
3.550000000000000000e+02 6.181412124633789062e+01 3.231302642822265625e+01 1.305066585540771484e+00 1.680935502052307129e+00 8.958006501197814941e-01 -2.396692991256713867e+00
3.560000000000000000e+02 6.160644912719726562e+01 3.233465957641601562e+01 8.887243866920471191e-01 1.360112428665161133e+00 6.746510267257690430e-01 -1.999608039855957031e+00
3.570000000000000000e+02 6.187942123413085938e+01 3.134574317932128906e+01 -2.006280899047851562e+00 3.246831893920898438e-02 -5.921437740325927734e-01 -2.059790194034576416e-01
3.580000000000000000e+02 6.223840332031250000e+01 3.231267166137695312e+01 2.116470575332641602e+00 2.948247194290161133e+00 1.519415378570556641e+00 -3.573564052581787109e+00
3.590000000000000000e+02 6.202826690673828125e+01 3.232012939453125000e+01 1.709414243698120117e+00 2.111382246017456055e+00 1.146238923072814941e+00 -2.851912021636962891e+00
3.600000000000000000e+02 6.143413925170898438e+01 3.136769104003906250e+01 -2.600477218627929688e+00 4.295380413532257080e-02 -7.672570347785949707e-01 -2.653831057250499725e-02
3.610000000000000000e+02 6.160297012329101562e+01 3.112410926818847656e+01 -4.044463634490966797e+00 -3.936836123466491699e-02 -1.225149512290954590e+00 1.933941543102264404e-01
3.620000000000000000e+02 6.150701904296875000e+01 2.958988761901855469e+01 5.045245289802551270e-01 9.719273447990417480e-01 4.429355561733245850e-01 2.179706811904907227e+00
3.630000000000000000e+02 6.156481552124023438e+01 3.062021827697753906e+01 -3.500784873962402344e+00 5.685141310095787048e-02 -1.033179998397827148e+00 3.279960453510284424e-01
3.640000000000000000e+02 6.288565826416015625e+01 3.040125274658203125e+01 2.919630527496337891e+00 1.207271814346313477e+00 1.238070726394653320e+00 3.188290119171142578e+00
3.650000000000000000e+02 6.157233810424804688e+01 3.085067939758300781e+01 -4.844760894775390625e+00 2.666683681309223175e-02 -1.445428252220153809e+00 1.669340878725051880e-01
3.660000000000000000e+02 6.290481567382812500e+01 3.003808784484863281e+01 4.124546051025390625e+00 3.802345037460327148e+00 2.378067255020141602e+00 5.628417491912841797e+00
3.670000000000000000e+02 6.158834075927734375e+01 3.190723419189453125e+01 4.911456629633903503e-02 6.389494538307189941e-01 2.064192146062850952e-01 -1.224365592002868652e+00
3.680000000000000000e+02 6.091944885253906250e+01 2.982322883605957031e+01 -1.013841629028320312e+00 3.604459762573242188e-01 -1.960187107324600220e-01 1.092465996742248535e+00
3.690000000000000000e+02 6.318180084228515625e+01 3.181918907165527344e+01 4.607144355773925781e+00 7.621344566345214844e+00 3.668546676635742188e+00 -7.262023925781250000e+00
3.700000000000000000e+02 6.268183898925781250e+01 3.032796669006347656e+01 1.995868802070617676e+00 1.200865864753723145e+00 9.590204358100891113e-01 2.827133178710937500e+00
3.710000000000000000e+02 6.281574630737304688e+01 3.061440467834472656e+01 -8.626755326986312866e-02 3.452986776828765869e-01 7.770933955907821655e-02 1.276062011718750000e+00
3.720000000000000000e+02 6.111828231811523438e+01 2.981447219848632812e+01 -6.353595256805419922e-01 4.365042448043823242e-01 -5.965658277273178101e-02 1.298722147941589355e+00
3.730000000000000000e+02 6.202186203002929688e+01 3.204975509643554688e+01 1.298269987106323242e+00 1.534062623977661133e+00 8.496997952461242676e-01 -2.364832639694213867e+00
3.740000000000000000e+02 6.246578598022460938e+01 3.199994277954101562e+01 2.547709703445434570e+00 2.760575532913208008e+00 1.592485547065734863e+00 -3.704950094223022461e+00
3.750000000000000000e+02 6.231892776489257812e+01 3.157300567626953125e+01 5.314227342605590820e-01 8.551182150840759277e-01 4.159623086452484131e-01 -1.567525863647460938e+00
3.760000000000000000e+02 6.150479888916015625e+01 3.000077629089355469e+01 -4.803381264209747314e-01 3.903397321701049805e-01 -2.699951082468032837e-02 1.358466386795043945e+00
3.770000000000000000e+02 6.208353042602539062e+01 2.986474418640136719e+01 1.322246432304382324e+00 1.321427226066589355e+00 7.931020855903625488e-01 2.723908901214599609e+00
3.780000000000000000e+02 6.200302124023437500e+01 3.010869789123535156e+01 4.026709496974945068e-01 6.628528833389282227e-01 3.196571469306945801e-01 1.786975860595703125e+00
3.790000000000000000e+02 6.110980987548828125e+01 2.960448265075683594e+01 -1.841878294944763184e-01 6.008933782577514648e-01 1.250116676092147827e-01 1.598451256752014160e+00
3.800000000000000000e+02 6.284896850585937500e+01 3.232710647583007812e+01 3.077519178390502930e+00 6.860068321228027344e+00 2.981276273727416992e+00 -5.912597656250000000e+00
3.810000000000000000e+02 6.240559768676757812e+01 3.053042984008789062e+01 -9.479024410247802734e-01 2.164381891489028931e-01 -2.194392830133438110e-01 9.717108011245727539e-01
3.820000000000000000e+02 6.137127304077148438e+01 3.175856781005859375e+01 -9.937214255332946777e-01 2.440048307180404663e-01 -2.249149680137634277e-01 -5.396846532821655273e-01
3.830000000000000000e+02 6.240849685668945312e+01 3.176293182373046875e+01 1.918193459510803223e+00 1.489624500274658203e+00 1.022345423698425293e+00 -2.559381723403930664e+00
3.840000000000000000e+02 6.217948150634765625e+01 3.081321334838867188e+01 -4.430480003356933594e+00 3.625594079494476318e-02 -1.318267107009887695e+00 1.776177138090133667e-01
3.850000000000000000e+02 6.113759994506835938e+01 3.023339271545410156e+01 -2.096333026885986328e+00 1.551400572061538696e-01 -5.823578834533691406e-01 6.103158593177795410e-01
3.860000000000000000e+02 6.131310653686523438e+01 2.980492401123046875e+01 -3.054735958576202393e-01 4.909029603004455566e-01 5.562880262732505798e-02 1.527200460433959961e+00
3.870000000000000000e+02 6.093889999389648438e+01 3.024446296691894531e+01 -2.511833190917968750e+00 9.898054599761962891e-02 -7.238557934761047363e-01 5.413280129432678223e-01
3.880000000000000000e+02 6.117047500610351562e+01 3.087072563171386719e+01 -5.029804706573486328e+00 4.824826493859291077e-02 -1.494466900825500488e+00 1.333434581756591797e-01
3.890000000000000000e+02 6.137125778198242188e+01 3.086148643493652344e+01 -4.953720569610595703e+00 -2.456532046198844910e-02 -1.493485808372497559e+00 1.581028401851654053e-01
3.900000000000000000e+02 6.136284255981445312e+01 3.064001846313476562e+01 -3.779587745666503906e+00 2.592346817255020142e-02 -1.126099228858947754e+00 2.467086911201477051e-01
3.910000000000000000e+02 6.214503479003906250e+01 3.026153182983398438e+01 -6.590993143618106842e-03 5.150972008705139160e-01 1.525518596172332764e-01 1.606056809425354004e+00
3.920000000000000000e+02 6.305758285522460938e+01 2.991294670104980469e+01 4.361777305603027344e+00 6.649373531341552734e+00 3.303345203399658203e+00 7.149654865264892578e+00
3.930000000000000000e+02 6.190538024902343750e+01 2.958886337280273438e+01 1.450677990913391113e+00 1.621273159980773926e+00 9.215853214263916016e-01 2.983847141265869141e+00
3.940000000000000000e+02 6.150504684448242188e+01 2.979773330688476562e+01 5.827121064066886902e-02 7.486947178840637207e-01 2.420897781848907471e-01 1.785037994384765625e+00
3.950000000000000000e+02 6.169594573974609375e+01 2.979920196533203125e+01 4.276110231876373291e-01 8.585609197616577148e-01 3.858515918254852295e-01 2.025141477584838867e+00
3.960000000000000000e+02 6.250381851196289062e+01 2.984029579162597656e+01 2.789600133895874023e+00 2.632788181304931641e+00 1.626716494560241699e+00 4.224491596221923828e+00
3.970000000000000000e+02 6.141596603393554688e+01 3.238006591796875000e+01 5.949521064758300781e-01 1.334497451782226562e+00 5.788348913192749023e-01 -1.735999226570129395e+00
3.980000000000000000e+02 6.147711181640625000e+01 3.208729553222656250e+01 2.909020185470581055e-01 8.889642953872680664e-01 3.539598882198333740e-01 -1.376066565513610840e+00
3.990000000000000000e+02 6.120640945434570312e+01 3.206164169311523438e+01 -2.974734902381896973e-01 6.126431822776794434e-01 9.455090016126632690e-02 -8.760072588920593262e-01
4.000000000000000000e+02 6.103128433227539062e+01 3.157906532287597656e+01 -2.143867492675781250e+00 2.329547889530658722e-02 -6.361716389656066895e-01 -8.208900690078735352e-02
4.010000000000000000e+02 6.127276992797851562e+01 3.190846061706542969e+01 -6.335818171501159668e-01 3.028767108917236328e-01 -9.921152889728546143e-02 -6.618801951408386230e-01
4.020000000000000000e+02 6.122369766235351562e+01 3.135954856872558594e+01 -2.996099472045898438e+00 6.490561366081237793e-02 -8.793581128120422363e-01 4.048782587051391602e-02
4.030000000000000000e+02 6.218681716918945312e+01 3.104126167297363281e+01 -3.986959218978881836e+00 4.642239212989807129e-02 -1.182161092758178711e+00 1.480435281991958618e-01
4.040000000000000000e+02 6.235533523559570312e+01 3.103826522827148438e+01 -3.659647464752197266e+00 -5.690773949027061462e-03 -1.099601507186889648e+00 5.498054251074790955e-02
4.050000000000000000e+02 6.253955459594726562e+01 3.107360267639160156e+01 -3.070134162902832031e+00 1.694132685661315918e-01 -8.702162504196166992e-01 -1.782351732254028320e-01
4.060000000000000000e+02 6.274108886718750000e+01 3.188201713562011719e+01 3.442530155181884766e+00 3.511943817138671875e+00 2.086342096328735352e+00 -4.618174076080322266e+00
4.070000000000000000e+02 6.266551589965820312e+01 3.230854034423828125e+01 3.042414426803588867e+00 4.614363193511962891e+00 2.297033309936523438e+00 -5.142853736877441406e+00
4.080000000000000000e+02 6.324652481079101562e+01 3.231947326660156250e+01 2.542731761932373047e+00 1.077274608612060547e+01 3.994643449783325195e+00 -6.937035083770751953e+00
4.090000000000000000e+02 6.349563217163085938e+01 3.217046737670898438e+01 2.409437894821166992e+00 1.446023464202880859e+01 5.060901641845703125e+00 -7.455543994903564453e+00
4.100000000000000000e+02 6.439361572265625000e+01 3.219393157958984375e+01 1.353298187255859375e+00 2.219879150390625000e+01 7.065627098083496094e+00 -1.277877688407897949e+00
4.110000000000000000e+02 6.456410217285156250e+01 3.215119171142578125e+01 2.142408370971679688e+00 2.250663566589355469e+01 7.394712924957275391e+00 3.337684869766235352e-01
4.120000000000000000e+02 6.470115661621093750e+01 3.206998825073242188e+01 3.175675630569458008e+00 2.190861892700195312e+01 7.525288581848144531e+00 1.334599852561950684e+00
4.130000000000000000e+02 6.465439605712890625e+01 3.187721252441406250e+01 4.080468654632568359e+00 2.307804107666015625e+01 8.147553443908691406e+00 1.855193376541137695e+00
4.140000000000000000e+02 6.484106445312500000e+01 3.134502410888671875e+01 1.108767414093017578e+01 2.183560371398925781e+01 9.876983642578125000e+00 3.343296766281127930e+00
4.150000000000000000e+02 6.523892974853515625e+01 3.112353897094726562e+01 1.115741157531738281e+01 1.776797676086425781e+01 8.677617073059082031e+00 1.419362902641296387e+00
4.160000000000000000e+02 6.521067047119140625e+01 3.054526138305664062e+01 1.080729484558105469e+01 1.838986015319824219e+01 8.759146690368652344e+00 -1.657321929931640625e+00
4.170000000000000000e+02 6.479761505126953125e+01 3.037723731994628906e+01 1.029467487335205078e+01 2.226846504211425781e+01 9.768941879272460938e+00 -3.155785083770751953e+00
4.180000000000000000e+02 6.504794311523437500e+01 3.007421493530273438e+01 7.135093212127685547e+00 2.013881683349609375e+01 8.182173728942871094e+00 -2.645759820938110352e+00
4.190000000000000000e+02 6.458239746093750000e+01 2.972699356079101562e+01 2.767884016036987305e+00 2.245281791687011719e+01 7.566210269927978516e+00 -2.260597497224807739e-01
4.200000000000000000e+02 6.411331939697265625e+01 2.980402946472167969e+01 1.588743805885314941e+00 2.383436965942382812e+01 7.626934051513671875e+00 3.633907556533813477e+00
4.210000000000000000e+02 6.429584503173828125e+01 2.976563453674316406e+01 2.015499353408813477e+00 2.363612556457519531e+01 7.695487499237060547e+00 1.860729217529296875e+00
4.220000000000000000e+02 6.428170013427734375e+01 2.956482505798339844e+01 1.089537262916564941e+00 2.183788871765136719e+01 6.878227710723876953e+00 2.733210325241088867e+00
4.230000000000000000e+02 6.360975265502929688e+01 2.964162445068359375e+01 2.114778041839599609e+00 1.622636222839355469e+01 5.502342224121093750e+00 7.551692962646484375e+00
4.240000000000000000e+02 6.322188568115234375e+01 2.978601264953613281e+01 3.838873386383056641e+00 9.469678878784179688e+00 3.992565870285034180e+00 7.903796195983886719e+00
4.250000000000000000e+02 6.271170806884765625e+01 2.957299041748046875e+01 3.030652284622192383e+00 5.087069988250732422e+00 2.435316801071166992e+00 5.739611148834228516e+00
4.260000000000000000e+02 6.264286041259765625e+01 3.164502716064453125e+01 2.502064704895019531e+00 1.734975457191467285e+00 1.271112084388732910e+00 -3.067453622817993164e+00
4.270000000000000000e+02 6.254071044921875000e+01 3.143292045593261719e+01 6.312561035156250000e-01 5.356456041336059570e-01 3.500705063343048096e-01 -1.435233831405639648e+00
4.280000000000000000e+02 6.491712188720703125e+01 3.033856582641601562e+01 9.944990158081054688e+00 2.133918762207031250e+01 9.385253906250000000e+00 -2.971303224563598633e+00
4.290000000000000000e+02 6.504101562500000000e+01 3.034405517578125000e+01 9.525203704833984375e+00 1.980428504943847656e+01 8.798846244812011719e+00 -2.551489114761352539e+00
4.300000000000000000e+02 6.143949127197265625e+01 3.158798217773437500e+01 -1.617875337600708008e+00 1.614705622196197510e-01 -4.369214177131652832e-01 -3.519615530967712402e-01
4.310000000000000000e+02 6.125112152099609375e+01 3.157915687561035156e+01 -1.946452021598815918e+00 9.273157268762588501e-02 -5.561161637306213379e-01 -2.057975232601165771e-01
4.320000000000000000e+02 6.114990997314453125e+01 3.044266319274902344e+01 -2.995939970016479492e+00 -1.680031977593898773e-02 -9.038220643997192383e-01 3.872777521610260010e-01
4.330000000000000000e+02 6.134077453613281250e+01 3.218612289428710938e+01 2.510790526866912842e-01 7.997124791145324707e-01 3.152374625205993652e-01 -1.320455551147460938e+00
4.340000000000000000e+02 6.175188827514648438e+01 3.035703277587890625e+01 -1.681225419044494629e+00 1.702959984540939331e-01 -4.532788395881652832e-01 8.065887093544006348e-01
4.350000000000000000e+02 6.195384216308593750e+01 3.032670974731445312e+01 -1.157762885093688965e+00 1.960402131080627441e-01 -2.885168194770812988e-01 9.642852544784545898e-01
4.360000000000000000e+02 6.133174133300781250e+01 3.021901893615722656e+01 -1.761824607849121094e+00 1.294446885585784912e-01 -4.897139668464660645e-01 7.454771995544433594e-01
4.370000000000000000e+02 6.271157073974609375e+01 3.007803535461425781e+01 3.284813404083251953e+00 2.527713060379028320e+00 1.743757963180541992e+00 4.332166194915771484e+00
4.380000000000000000e+02 6.251461410522460938e+01 3.007657051086425781e+01 2.450514793395996094e+00 1.741930127143859863e+00 1.257733464241027832e+00 3.382994413375854492e+00
4.390000000000000000e+02 6.233066177368164062e+01 3.013726043701171875e+01 1.203123092651367188e+00 9.786915183067321777e-01 6.545443534851074219e-01 2.343153476715087891e+00
4.400000000000000000e+02 6.247307205200195312e+01 3.028642654418945312e+01 1.012848019599914551e+00 7.909041643142700195e-01 5.411256551742553711e-01 2.224622249603271484e+00
4.410000000000000000e+02 6.197459793090820312e+01 3.056785583496093750e+01 -2.572797298431396484e+00 9.075487405061721802e-02 -7.446126937866210938e-01 5.383928418159484863e-01
4.420000000000000000e+02 6.219999313354492188e+01 3.141613006591796875e+01 -7.234723567962646484e-01 2.940464913845062256e-01 -1.288277655839920044e-01 -7.351942062377929688e-01
4.430000000000000000e+02 6.186966705322265625e+01 3.174469375610351562e+01 -9.794287383556365967e-03 5.840375423431396484e-01 1.722729802131652832e-01 -1.196989893913269043e+00
4.440000000000000000e+02 6.204689025878906250e+01 3.183157348632812500e+01 7.916343212127685547e-01 1.024329543113708496e+00 5.447891354560852051e-01 -1.786926269531250000e+00
4.450000000000000000e+02 6.221289443969726562e+01 3.183491325378417969e+01 1.375633358955383301e+00 1.450702071189880371e+00 8.479006290435791016e-01 -2.297760486602783203e+00
4.460000000000000000e+02 6.223250579833984375e+01 3.204598617553710938e+01 1.868271708488464355e+00 1.944877505302429199e+00 1.143944740295410156e+00 -2.865334987640380859e+00
4.470000000000000000e+02 6.154670715332031250e+01 3.040114974975585938e+01 -2.330320358276367188e+00 9.364179521799087524e-02 -6.710035800933837891e-01 5.556020140647888184e-01
4.480000000000000000e+02 6.152058029174804688e+01 3.019808006286621094e+01 -1.337849736213684082e+00 2.096469551324844360e-01 -3.384608328342437744e-01 9.061421155929565430e-01
4.490000000000000000e+02 6.131959533691406250e+01 3.001284408569335938e+01 -9.254240989685058594e-01 3.273365795612335205e-01 -1.794262677431106567e-01 1.115060567855834961e+00
4.500000000000000000e+02 6.167775726318359375e+01 2.999172019958496094e+01 -1.460667401552200317e-01 6.223277449607849121e-01 1.428782939910888672e-01 1.648826241493225098e+00
4.510000000000000000e+02 6.214258193969726562e+01 3.168324661254882812e+01 6.488884687423706055e-01 8.115249276161193848e-01 4.381240308284759521e-01 -1.553660273551940918e+00
4.520000000000000000e+02 6.170415496826171875e+01 3.015975761413574219e+01 -6.805931925773620605e-01 3.126382231712341309e-01 -1.103864908218383789e-01 1.129368424415588379e+00
4.530000000000000000e+02 6.200367736816406250e+01 3.154554557800292969e+01 -5.713945031166076660e-01 4.189406037330627441e-01 -4.573617130517959595e-02 -8.644815087318420410e-01
4.540000000000000000e+02 5.952692794799804688e+01 3.234360885620117188e+01 -1.345018386840820312e+00 2.308188825845718384e-01 -3.342598378658294678e-01 -2.040782570838928223e-02
4.550000000000000000e+02 6.079908370971679688e+01 3.199845123291015625e+01 -8.668660521507263184e-01 3.374911248683929443e-01 -1.588124781847000122e-01 -4.563911259174346924e-01
4.560000000000000000e+02 6.057065200805664062e+01 3.198173332214355469e+01 -1.319515824317932129e+00 3.040271401405334473e-01 -3.046466112136840820e-01 -2.497818619012832642e-01
4.570000000000000000e+02 5.895400619506835938e+01 3.228662109375000000e+01 -1.721647500991821289e+00 7.007364928722381592e-02 -4.954721629619598389e-01 1.482785046100616455e-01
4.580000000000000000e+02 6.049029159545898438e+01 3.226258850097656250e+01 -7.672306895256042480e-01 4.665930569171905518e-01 -9.019128233194351196e-02 -5.210116505622863770e-01
4.590000000000000000e+02 6.010921859741210938e+01 3.193730163574218750e+01 -1.865268826484680176e+00 3.408519178628921509e-02 -5.493550896644592285e-01 -1.164587959647178650e-02
4.600000000000000000e+02 6.078832626342773438e+01 3.219906616210937500e+01 -4.628235697746276855e-01 3.373590111732482910e-01 -3.763937205076217651e-02 -6.107051372528076172e-01
4.610000000000000000e+02 5.830694580078125000e+01 3.227655410766601562e+01 -1.896940827369689941e+00 6.100200489163398743e-02 -5.507816076278686523e-01 2.576223313808441162e-01
4.620000000000000000e+02 5.901282501220703125e+01 3.139540672302246094e+01 -3.397107601165771484e+00 2.107458561658859253e-02 -1.012809872627258301e+00 3.201882243156433105e-01
4.630000000000000000e+02 5.926948165893554688e+01 3.173376655578613281e+01 -2.625710487365722656e+00 4.667194187641143799e-02 -7.737115621566772461e-01 2.481767237186431885e-01
4.640000000000000000e+02 5.972392654418945312e+01 3.186858749389648438e+01 -2.108741760253906250e+00 6.914111971855163574e-02 -6.118801832199096680e-01 1.065137311816215515e-01
4.650000000000000000e+02 5.829350662231445312e+01 3.153607940673828125e+01 -3.115528821945190430e+00 -4.420908540487289429e-02 -9.479213356971740723e-01 3.285268247127532959e-01
4.660000000000000000e+02 6.073177719116210938e+01 3.162905883789062500e+01 -2.241977453231811523e+00 1.766226738691329956e-01 -6.196064352989196777e-01 3.199920058250427246e-02
4.670000000000000000e+02 6.056354141235351562e+01 3.118152427673339844e+01 -4.013899326324462891e+00 4.832994192838668823e-02 -1.189670920372009277e+00 2.795267999172210693e-01
4.680000000000000000e+02 6.078611373901367188e+01 3.181407546997070312e+01 -1.666071653366088867e+00 1.926952600479125977e-01 -4.420129060745239258e-01 -1.585534065961837769e-01
4.690000000000000000e+02 6.072073364257812500e+01 3.241173934936523438e+01 -3.046789169311523438e-01 5.740008354187011719e-01 8.079656958580017090e-02 -8.586963415145874023e-01
4.700000000000000000e+02 6.029095077514648438e+01 3.162718009948730469e+01 -2.573725461959838867e+00 1.634488999843597412e-02 -7.672141790390014648e-01 1.108677983283996582e-01
4.710000000000000000e+02 6.066516113281250000e+01 3.142012023925781250e+01 -3.001563549041748047e+00 1.812147945165634155e-01 -8.461046814918518066e-01 1.301361769437789917e-01
4.720000000000000000e+02 6.005323410034179688e+01 3.143605613708496094e+01 -3.401818752288818359e+00 -5.355908349156379700e-02 -1.036613345146179199e+00 2.343433052301406860e-01
4.730000000000000000e+02 6.006703948974609375e+01 3.233693695068359375e+01 -9.511293172836303711e-01 2.614734172821044922e-01 -2.068967819213867188e-01 -3.183203637599945068e-01
4.740000000000000000e+02 5.962898254394531250e+01 3.130824470520019531e+01 -3.722496986389160156e+00 -2.971816435456275940e-02 -1.125664591789245605e+00 2.718311846256256104e-01
4.750000000000000000e+02 6.042547988891601562e+01 3.182668876647949219e+01 -1.869737982749938965e+00 2.182286232709884644e-01 -4.954527914524078369e-01 -7.663174718618392944e-02
4.760000000000000000e+02 5.604499816894531250e+01 3.173213005065917969e+01 -2.551758050918579102e+00 -1.527510024607181549e-02 -7.701099514961242676e-01 3.131025731563568115e-01
4.770000000000000000e+02 5.678963851928710938e+01 3.166926193237304688e+01 -2.732064723968505859e+00 -4.913262277841567993e-02 -8.343591690063476562e-01 3.208718001842498779e-01
4.780000000000000000e+02 5.759029388427734375e+01 3.234218597412109375e+01 -1.926360487937927246e+00 -3.924602642655372620e-02 -5.896819829940795898e-01 3.287609815597534180e-01
4.790000000000000000e+02 5.537178421020507812e+01 3.252934646606445312e+01 -1.769304752349853516e+00 -9.300888516008853912e-03 -5.335816740989685059e-01 3.936491906642913818e-01
4.800000000000000000e+02 5.611047744750976562e+01 3.246923828125000000e+01 -1.825813055038452148e+00 -5.601708218455314636e-02 -5.645490288734436035e-01 3.796883821487426758e-01
4.810000000000000000e+02 5.684997940063476562e+01 3.240679931640625000e+01 -1.885322570800781250e+00 2.380605292273685336e-04 -5.655253529548645020e-01 3.556074798107147217e-01
4.820000000000000000e+02 5.530117034912109375e+01 3.179267501831054688e+01 -2.349987268447875977e+00 -4.300818964838981628e-02 -7.178986668586730957e-01 3.055059313774108887e-01
4.830000000000000000e+02 5.753508758544921875e+01 3.160421562194824219e+01 -2.896818637847900391e+00 -8.547774516046047211e-03 -8.716099262237548828e-01 3.258596062660217285e-01
4.840000000000000000e+02 5.315649414062500000e+01 3.277415466308593750e+01 -1.436789870262145996e+00 -7.939594238996505737e-02 -4.548557400703430176e-01 4.013751447200775146e-01
4.850000000000000000e+02 5.307151031494140625e+01 3.203905105590820312e+01 -1.856361150741577148e+00 -2.643514238297939301e-02 -5.648388862609863281e-01 3.014020919799804688e-01
4.860000000000000000e+02 5.232960128784179688e+01 3.212165451049804688e+01 -1.675131797790527344e+00 -5.446627736091613770e-02 -5.188794136047363281e-01 2.851872444152832031e-01
4.870000000000000000e+02 5.381415176391601562e+01 3.195396995544433594e+01 -2.023953437805175781e+00 -6.117891147732734680e-02 -6.255397200584411621e-01 3.149826824665069580e-01
4.880000000000000000e+02 5.463307952880859375e+01 3.260275268554687500e+01 -1.672298312187194824e+00 -5.010716617107391357e-02 -5.167216658592224121e-01 3.910565674304962158e-01
4.890000000000000000e+02 5.455753707885742188e+01 3.186656951904296875e+01 -2.174867153167724609e+00 -1.001504994928836823e-02 -6.554646492004394531e-01 3.180392980575561523e-01
4.900000000000000000e+02 5.241930389404296875e+01 3.285622024536132812e+01 -1.337040185928344727e+00 -5.162154510617256165e-02 -4.165985286235809326e-01 3.880105912685394287e-01
4.910000000000000000e+02 5.389441299438476562e+01 3.268961715698242188e+01 -1.552907466888427734e+00 -3.499528393149375916e-02 -4.763708114624023438e-01 3.937644958496093750e-01
4.920000000000000000e+02 5.010603713989257812e+01 3.241886520385742188e+01 -1.220196962356567383e+00 -3.574909642338752747e-02 -3.767838478088378906e-01 2.418449223041534424e-01
4.930000000000000000e+02 5.020995712280273438e+01 3.315154266357421875e+01 -9.615444540977478027e-01 -7.758817076683044434e-02 -3.117398023605346680e-01 3.490957915782928467e-01
4.940000000000000000e+02 4.936609268188476562e+01 3.251750564575195312e+01 -1.065267562866210938e+00 -4.421332478523254395e-02 -3.328442573547363281e-01 2.251002788543701172e-01
4.950000000000000000e+02 5.084666061401367188e+01 3.231782531738281250e+01 -1.367973685264587402e+00 -5.588290095329284668e-02 -4.271569550037384033e-01 2.627412676811218262e-01
4.960000000000000000e+02 5.168240356445312500e+01 3.294850540161132812e+01 -1.212168574333190918e+00 -7.649216055870056152e-02 -3.865982294082641602e-01 3.791089951992034912e-01
4.970000000000000000e+02 5.158797073364257812e+01 3.221453475952148438e+01 -1.513259291648864746e+00 -2.777745574712753296e-02 -4.623109996318817139e-01 2.757961750030517578e-01
4.980000000000000000e+02 4.947475433349609375e+01 3.324953460693359375e+01 -8.678638935089111328e-01 -7.613611221313476562e-02 -2.831999957561492920e-01 3.145891427993774414e-01
4.990000000000000000e+02 5.094583892822265625e+01 3.305115127563476562e+01 -1.085113883018493652e+00 -6.916271895170211792e-02 -3.462829887866973877e-01 3.531398177146911621e-01
5.000000000000000000e+02 4.727144622802734375e+01 3.360919570922851562e+01 -5.887603759765625000e-01 -6.469953805208206177e-02 -1.960379630327224731e-01 2.679613530635833740e-01
5.010000000000000000e+02 4.715089797973632812e+01 3.287907791137695312e+01 -7.161220908164978027e-01 -5.403392761945724487e-02 -2.310468107461929321e-01 1.663836091756820679e-01
5.020000000000000000e+02 4.641378021240234375e+01 3.299990844726562500e+01 -6.130356192588806152e-01 -1.494913734495639801e-02 -1.883954256772994995e-01 1.591273993253707886e-01
5.030000000000000000e+02 4.788861083984375000e+01 3.275563049316406250e+01 -8.203800320625305176e-01 -3.832517564296722412e-02 -2.576115727424621582e-01 2.006881982088088989e-01
5.040000000000000000e+02 4.873987197875976562e+01 3.336110687255859375e+01 -7.631446719169616699e-01 -6.950291991233825684e-02 -2.497942745685577393e-01 2.994947135448455811e-01
5.050000000000000000e+02 4.862693405151367188e+01 3.262971878051757812e+01 -9.354867935180664062e-01 -3.818178176879882812e-02 -2.921005785465240479e-01 2.079699486494064331e-01
5.060000000000000000e+02 4.653813171386718750e+01 3.372938919067382812e+01 -4.939707219600677490e-01 -8.363105356693267822e-02 -1.732805371284484863e-01 2.234342545270919800e-01
5.070000000000000000e+02 4.800535202026367188e+01 3.348638153076171875e+01 -6.843788027763366699e-01 -7.874640077352523804e-02 -2.289375662803649902e-01 2.568039000034332275e-01
5.080000000000000000e+02 4.420226669311523438e+01 3.339414215087890625e+01 -3.666611313819885254e-01 -3.938881307840347290e-02 -1.218149811029434204e-01 9.963566809892654419e-02
5.090000000000000000e+02 4.433515167236328125e+01 3.412211608886718750e+01 -2.993547022342681885e-01 -4.547189176082611084e-02 -1.034479811787605286e-01 1.545530706644058228e-01
5.100000000000000000e+02 4.346595001220703125e+01 3.352351760864257812e+01 -2.993506789207458496e-01 -1.119779236614704132e-02 -9.316454082727432251e-02 8.840858191251754761e-02
5.110000000000000000e+02 4.493911361694335938e+01 3.326211166381835938e+01 -4.381247162818908691e-01 -1.434667967259883881e-02 -1.357414126396179199e-01 1.192887276411056519e-01
5.120000000000000000e+02 4.580409240722656250e+01 3.385649871826171875e+01 -4.306253790855407715e-01 -5.550210550427436829e-02 -1.458382457494735718e-01 1.995280236005783081e-01
5.130000000000000000e+02 4.567650985717773438e+01 3.312757492065429688e+01 -5.182516574859619141e-01 -5.312278121709823608e-02 -1.714123338460922241e-01 1.339951753616333008e-01
5.140000000000000000e+02 4.360148620605468750e+01 3.425101852416992188e+01 -2.582402527332305908e-01 -5.918531864881515503e-02 -9.522767364978790283e-02 1.288983672857284546e-01
5.150000000000000000e+02 4.506934738159179688e+01 3.399055862426757812e+01 -3.606197237968444824e-01 -7.305775582790374756e-02 -1.301032453775405884e-01 1.778445541858673096e-01
5.160000000000000000e+02 4.139850234985351562e+01 3.467833328247070312e+01 -1.293791830539703369e-01 -2.592702023684978485e-02 -4.659186303615570068e-02 8.940455317497253418e-02
5.170000000000000000e+02 4.199465942382812500e+01 3.380642318725585938e+01 -1.965324878692626953e-01 -5.789540242403745651e-03 -6.069660931825637817e-02 6.522668153047561646e-02
5.180000000000000000e+02 4.052394866943359375e+01 3.409660720825195312e+01 -1.181834489107131958e-01 9.856150718405842781e-04 -3.515934944152832031e-02 4.417448118329048157e-02
5.190000000000000000e+02 4.213290405273437500e+01 3.453341293334960938e+01 -1.693862676620483398e-01 -5.147851258516311646e-02 -6.625943630933761597e-02 9.857589006423950195e-02
5.200000000000000000e+02 4.272992324829101562e+01 3.366130447387695312e+01 -2.446658611297607422e-01 -3.173492103815078735e-02 -8.292023837566375732e-02 7.055450975894927979e-02
5.210000000000000000e+02 4.286724853515625000e+01 3.438847732543945312e+01 -2.127519398927688599e-01 -2.939496561884880066e-02 -7.264406979084014893e-02 1.208714693784713745e-01
5.220000000000000000e+02 4.066404342651367188e+01 3.482323455810546875e+01 -1.068406701087951660e-01 -4.647999629378318787e-02 -4.599620029330253601e-02 6.011851131916046143e-02
5.230000000000000000e+02 4.125933456420898438e+01 3.395152664184570312e+01 -1.556241661310195923e-01 -2.883958257734775543e-02 -5.533912777900695801e-02 4.774839058518409729e-02
5.240000000000000000e+02 3.905131912231445312e+01 3.438002777099609375e+01 -6.585618108510971069e-02 1.249600294977426529e-02 -1.600805297493934631e-02 2.970266342163085938e-02
5.250000000000000000e+02 3.845631790161132812e+01 3.524533081054687500e+01 -5.503292754292488098e-02 5.272121634334325790e-03 -1.492824126034975052e-02 3.961267322301864624e-02
5.260000000000000000e+02 3.757802581787109375e+01 3.465816116333007812e+01 -3.189136087894439697e-02 1.609091088175773621e-02 -4.740134812891483307e-03 1.559874694794416428e-02
5.270000000000000000e+02 3.992870712280273438e+01 3.496635818481445312e+01 -7.796306163072586060e-02 -8.455928415060043335e-03 -2.592569589614868164e-02 6.279956549406051636e-02
5.280000000000000000e+02 3.978794097900390625e+01 3.423986434936523438e+01 -9.197849780321121216e-02 -2.697587385773658752e-02 -3.568631038069725037e-02 2.567262388765811920e-02
5.290000000000000000e+02 3.772006225585937500e+01 3.538441467285156250e+01 -2.811544947326183319e-02 -3.227864578366279602e-02 -1.811822876334190369e-02 3.148929402232170105e-02
5.300000000000000000e+02 3.919250869750976562e+01 3.510644531250000000e+01 -6.252402812242507935e-02 -3.900600224733352661e-02 -3.045900911092758179e-02 3.422508016228675842e-02
5.310000000000000000e+02 3.831470489501953125e+01 3.451899719238281250e+01 -4.635594412684440613e-02 -2.844380214810371399e-02 -2.243992313742637634e-02 1.354095153510570526e-02
5.320000000000000000e+02 3.551680755615234375e+01 3.582569122314453125e+01 -5.636456422507762909e-03 4.362017498351633549e-04 -1.560076372697949409e-03 6.650007329881191254e-03
5.330000000000000000e+02 3.610754394531250000e+01 3.495201110839843750e+01 -7.885849103331565857e-03 7.846051827073097229e-03 -1.193912612507119775e-05 5.819241516292095184e-03
5.340000000000000000e+02 3.463803482055664062e+01 3.524788665771484375e+01 5.072830244898796082e-03 2.534512430429458618e-03 2.282202709466218948e-03 9.256172343157231808e-04
5.350000000000000000e+02 3.684228134155273438e+01 3.480297470092773438e+01 -1.699570380151271820e-02 -1.996772177517414093e-02 -1.108902785927057266e-02 9.347662329673767090e-03
5.360000000000000000e+02 3.698487472534179688e+01 3.552911758422851562e+01 -2.348233573138713837e-02 3.836190560832619667e-03 -5.893843714147806168e-03 1.806356757879257202e-02
5.370000000000000000e+02 3.478272247314453125e+01 3.597360992431640625e+01 6.276827189140021801e-04 -8.402698673307895660e-03 -2.332504838705062866e-03 1.023867912590503693e-02
5.380000000000000000e+02 3.625083541870117188e+01 3.567801284790039062e+01 -9.900663048028945923e-03 -2.183891087770462036e-02 -9.521871805191040039e-03 2.060757577419281006e-02
5.390000000000000000e+02 3.537281799316406250e+01 3.509983062744140625e+01 1.856163871707394719e-04 -8.520468138158321381e-03 -2.500455593690276146e-03 3.750219475477933884e-03
5.400000000000000000e+02 3.242737579345703125e+01 3.568672943115234375e+01 1.033775415271520615e-02 4.457148606888949871e-04 3.235040698200464249e-03 -2.307870658114552498e-03
5.410000000000000000e+02 3.169006347656250000e+01 3.583216094970703125e+01 1.080577261745929718e-02 1.093000755645334721e-03 3.569632070139050484e-03 -1.309713581576943398e-03
5.420000000000000000e+02 3.330534362792968750e+01 3.626757049560546875e+01 2.057249192148447037e-03 -2.683192258700728416e-03 -1.877828908618539572e-04 8.709934772923588753e-04
5.430000000000000000e+02 3.316469573974609375e+01 3.554105377197265625e+01 1.036999281495809555e-02 1.662742579355835915e-04 3.160880180075764656e-03 -2.060186117887496948e-03
5.440000000000000000e+02 3.390202713012695312e+01 3.539514541625976562e+01 9.172312915325164795e-03 -2.491504186764359474e-03 2.004242734983563423e-03 1.110991142923012376e-04
5.450000000000000000e+02 3.404560089111328125e+01 3.612108612060546875e+01 2.115544397383928299e-03 -3.473049029707908630e-03 -4.072513838764280081e-04 1.223514205776154995e-03
5.460000000000000000e+02 3.182485580444335938e+01 3.655983352661132812e+01 6.153390742838382721e-03 -9.107173536904156208e-04 1.572801964357495308e-03 -1.246906118467450142e-03
5.470000000000000000e+02 3.256509399414062500e+01 3.641382217407226562e+01 4.953544586896896362e-03 1.010985928587615490e-03 1.789359143003821373e-03 8.986219763755798340e-04
5.480000000000000000e+02 2.946516418457031250e+01 3.621912765502929688e+01 8.875124156475067139e-03 -1.291010994464159012e-03 2.275233855471014977e-03 -2.153888810425996780e-03
5.490000000000000000e+02 2.958438682556152344e+01 3.694947052001953125e+01 4.542078822851181030e-03 2.562676556408405304e-03 2.131426706910133362e-03 -2.306407783180475235e-03
5.500000000000000000e+02 2.872264671325683594e+01 3.634394836425781250e+01 7.487489376217126846e-03 1.810442539863288403e-03 2.789379563182592392e-03 -1.792914001271128654e-03
5.510000000000000000e+02 3.020768547058105469e+01 3.609378433227539062e+01 9.548396803438663483e-03 2.250570338219404221e-03 3.539690049365162849e-03 -1.829432090744376183e-03
5.520000000000000000e+02 3.095018768310546875e+01 3.596792221069335938e+01 1.077667623758316040e-02 -1.272575813345611095e-03 2.851230092346668243e-03 -2.695451490581035614e-03
5.530000000000000000e+02 3.108069419860839844e+01 3.669636154174804688e+01 5.916440859436988831e-03 -1.746771013131365180e-04 1.722529181279242039e-03 -5.989298224449157715e-04
5.540000000000000000e+02 2.883622932434082031e+01 3.707524490356445312e+01 5.251985043287277222e-03 -1.065591117367148399e-03 1.255918177776038647e-03 -1.829979592002928257e-03
5.550000000000000000e+02 3.033255004882812500e+01 3.682317352294921875e+01 6.965356878936290741e-03 -9.689138387329876423e-04 1.798932906240224838e-03 -3.094737185165286064e-03
5.560000000000000000e+02 2.647223281860351562e+01 3.666142654418945312e+01 4.490012302994728088e-03 -1.554888091050088406e-03 8.805372053757309914e-04 -1.429399941116571426e-03
5.570000000000000000e+02 2.572040748596191406e+01 3.676027679443359375e+01 3.168426686897873878e-03 2.198433736339211464e-03 1.610058126971125603e-03 -7.731956429779529572e-04
5.580000000000000000e+02 2.731099891662597656e+01 3.729562377929687500e+01 3.160274587571620941e-03 -2.672661794349551201e-04 8.679025340825319290e-04 -2.651652088388800621e-03
5.590000000000000000e+02 2.722403526306152344e+01 3.656066131591796875e+01 5.303801503032445908e-03 1.613281900063157082e-03 2.075124997645616531e-03 -8.482547709718346596e-04
5.600000000000000000e+02 2.797564125061035156e+01 3.645804595947265625e+01 6.379863247275352478e-03 -7.642079144716262817e-04 1.684696529991924763e-03 -1.671270118094980717e-03
5.610000000000000000e+02 2.807846832275390625e+01 3.719087982177734375e+01 4.591669421643018723e-03 1.810875604860484600e-03 1.920763403177261353e-03 -2.225278643891215324e-03
5.620000000000000000e+02 2.577564430236816406e+01 3.749948883056640625e+01 3.759082872420549393e-03 -1.280222786590456963e-03 7.436580490320920944e-04 -1.250768429599702358e-03
5.630000000000000000e+02 2.654333496093750000e+01 3.739851379394531250e+01 1.969415927305817604e-03 1.905307406559586525e-03 1.162417000159621239e-03 -6.675238255411386490e-04
5.640000000000000000e+02 2.340743637084960938e+01 3.754123687744140625e+01 1.061875605955719948e-03 5.079426919110119343e-04 4.709454660769551992e-04 -1.558907446451485157e-03
5.650000000000000000e+02 2.266618919372558594e+01 3.679620742797851562e+01 6.478900322690606117e-04 -2.512767969164997339e-04 1.189839604194276035e-04 -4.406418302096426487e-04
5.660000000000000000e+02 2.419788742065429688e+01 3.680555725097656250e+01 1.716275815851986408e-03 8.307411335408687592e-04 7.641051197424530983e-04 -6.723613478243350983e-04
5.670000000000000000e+02 2.496211051940917969e+01 3.680892944335937500e+01 2.812399761751294136e-03 -1.322853611782193184e-03 4.468638799153268337e-04 -2.136689872713759542e-04
5.680000000000000000e+02 2.499495697021484375e+01 3.754912567138671875e+01 1.300921547226607800e-03 1.901031821034848690e-03 9.605860104784369469e-04 -2.109508030116558075e-03
5.690000000000000000e+02 2.261228370666503906e+01 3.753591537475585938e+01 6.412811344489455223e-04 3.710996679728850722e-05 2.035173238255083561e-04 3.106487929471768439e-05
5.700000000000000000e+02 2.343242454528808594e+01 3.680136489868164062e+01 1.191086601465940475e-03 -1.854076981544494629e-04 3.017036651726812124e-04 2.122879595845006406e-05
5.710000000000000000e+02 2.420181655883789062e+01 3.754558944702148438e+01 1.641263021156191826e-03 -7.415706058964133263e-04 2.699077012948691845e-04 1.341058086836710572e-04
5.720000000000000000e+02 1.998039245605468750e+01 3.692026138305664062e+01 3.363056748639792204e-04 1.266971230506896973e-03 4.809830570593476295e-04 -1.044519522110931575e-04
5.730000000000000000e+02 2.062745285034179688e+01 3.732268142700195312e+01 7.745933835394680500e-04 2.489756152499467134e-04 3.070707025472074747e-04 3.820755518972873688e-04
5.740000000000000000e+02 2.113145446777343750e+01 3.686664581298828125e+01 -1.382080023176968098e-03 -1.374853192828595638e-03 -8.270799298770725727e-04 -3.952824336010962725e-04
5.750000000000000000e+02 2.021580696105957031e+01 3.715901565551757812e+01 -8.425121777690947056e-04 5.344744422473013401e-04 -9.241132647730410099e-05 5.399930523708462715e-04
5.760000000000000000e+02 2.186282539367675781e+01 3.673282623291015625e+01 5.977381952106952667e-04 9.542428888380527496e-04 4.655943193938583136e-04 3.820706042461097240e-04
5.770000000000000000e+02 2.186202239990234375e+01 3.748466491699218750e+01 -2.505957672838121653e-04 6.056611309759318829e-04 1.065195974661037326e-04 -9.350057225674390793e-04
5.780000000000000000e+02 2.119230079650878906e+01 3.743341445922851562e+01 1.492523471824824810e-03 -9.008126216940581799e-04 1.775132695911452174e-04 -2.552701334934681654e-04
5.790000000000000000e+02 2.068652153015136719e+01 3.649208450317382812e+01 5.096734385006129742e-04 -8.669473463669419289e-04 -1.071821825462393463e-04 -4.462499055080115795e-04
5.800000000000000000e+02 2.102560424804687500e+01 3.579481887817382812e+01 1.526101958006620407e-03 1.157330814749002457e-03 8.050298201851546764e-04 2.218773355707526207e-03
5.810000000000000000e+02 2.197462081909179688e+01 3.519912338256835938e+01 5.176066770218312740e-04 -9.557218872942030430e-04 -1.314345718128606677e-04 4.245681688189506531e-03
5.820000000000000000e+02 2.189435958862304688e+01 3.593660354614257812e+01 6.418905686587095261e-03 4.642872954718768597e-05 1.939600333571434021e-03 2.858216175809502602e-03
5.830000000000000000e+02 2.057264900207519531e+01 3.514139175415039062e+01 4.064218082930892706e-04 5.141312722116708755e-03 1.664320239797234535e-03 1.070577534846961498e-03
5.840000000000000000e+02 2.112965202331542969e+01 3.506163787841796875e+01 1.015441957861185074e-03 3.683792660012841225e-03 1.409770338796079159e-03 3.829831257462501526e-03
5.850000000000000000e+02 2.112501907348632812e+01 3.337707519531250000e+01 -1.450958079658448696e-03 6.507287733256816864e-03 1.516898861154913902e-03 -4.824667485081590712e-05
5.860000000000000000e+02 2.117826080322265625e+01 3.421414184570312500e+01 -2.774246269837021828e-03 3.245290601626038551e-03 1.413132995367050171e-04 2.196320798248052597e-03
5.870000000000000000e+02 2.461874198913574219e+01 3.346166610717773438e+01 -4.160070046782493591e-02 -2.015802636742591858e-02 -1.852761767804622650e-02 -3.199147805571556091e-02
5.880000000000000000e+02 2.696267318725585938e+01 3.427458572387695312e+01 -7.685397565364837646e-02 -2.597337123006582260e-03 -2.383539453148841858e-02 -3.697691857814788818e-02
5.890000000000000000e+02 2.100310707092285156e+01 2.541623115539550781e+01 -2.308131661266088486e-03 -2.494317740201950073e-01 -7.552196830511093140e-02 -3.588876873254776001e-02
5.900000000000000000e+02 2.605865097045898438e+01 1.674986076354980469e+01 -9.141812333837151527e-04 -6.498021483421325684e-01 -1.952148973941802979e-01 -4.013084769248962402e-01
5.910000000000000000e+02 3.306049728393554688e+01 1.227644157409667969e+01 1.005480512976646423e-01 -2.241269648075103760e-01 -3.707367554306983948e-02 -5.593670606613159180e-01
5.920000000000000000e+02 3.966700744628906250e+01 4.695804595947265625e+00 2.663777172565460205e-01 6.237183213233947754e-01 2.670288085937500000e-01 -2.963943779468536377e-01
5.930000000000000000e+02 5.269773864746093750e+01 -8.275687694549560547e-01 2.396671622991561890e-01 3.123658657073974609e+00 1.008997797966003418e+00 1.827997565269470215e-01
5.940000000000000000e+02 6.179342269897460938e+01 -7.697364807128906250e+00 9.378580003976821899e-02 5.136214256286621094e+00 1.569000005722045898e+00 1.918949633836746216e-01
5.950000000000000000e+02 6.468669128417968750e+01 -1.619022560119628906e+01 6.361947953701019287e-02 5.724346637725830078e+00 1.736389875411987305e+00 1.109738051891326904e-01
5.960000000000000000e+02 6.981895446777343750e+01 -2.292962837219238281e+01 2.390303835272789001e-02 6.673289299011230469e+00 2.009157657623291016e+00 7.333277910947799683e-02
5.970000000000000000e+02 7.787863922119140625e+01 -3.064466667175292969e+01 -1.917485147714614868e-03 8.134600639343261719e+00 2.439804792404174805e+00 7.652663625776767731e-03
5.980000000000000000e+02 7.930712890625000000e+01 -2.644867134094238281e+01 4.984307568520307541e-03 8.413194656372070312e+00 2.525453567504882812e+00 -4.583802539855241776e-03
5.990000000000000000e+02 7.796897125244140625e+01 -2.358250617980957031e+01 -4.273413505870848894e-04 8.190048217773437500e+00 2.456886291503906250e+00 1.032289396971464157e-02
6.000000000000000000e+02 7.933022308349609375e+01 -2.225757980346679688e+01 -9.919652948155999184e-04 8.448783874511718750e+00 2.534337520599365234e+00 -1.950514735653996468e-03
6.010000000000000000e+02 7.287960815429687500e+01 -1.209435939788818359e+01 1.457550004124641418e-02 7.341989040374755859e+00 2.206969499588012695e+00 9.361555427312850952e-02
6.020000000000000000e+02 6.664751434326171875e+01 -4.281435012817382812e+00 2.966617606580257416e-02 6.160561084747314453e+00 1.857068300247192383e+00 2.039680033922195435e-01
6.030000000000000000e+02 4.802125930786132812e+01 1.486399364471435547e+01 3.785026967525482178e-01 1.221427917480468750e+00 4.799791872501373291e-01 1.326774712651968002e-02
6.040000000000000000e+02 4.280451965332031250e+01 2.159136772155761719e+01 -1.703300923109054565e-01 2.483449578285217285e-01 2.340446040034294128e-02 -5.509602427482604980e-01
6.050000000000000000e+02 3.868090057373046875e+01 2.869920158386230469e+01 -7.723793387413024902e-01 8.716493844985961914e-02 -2.055643200874328613e-01 -3.888666331768035889e-01
6.060000000000000000e+02 3.190875244140625000e+01 3.278639221191406250e+01 -3.350131809711456299e-01 2.544637955725193024e-02 -9.287004172801971436e-02 -1.085809543728828430e-01
6.070000000000000000e+02 2.984354019165039062e+01 3.387321853637695312e+01 -1.900442391633987427e-01 1.174973882734775543e-02 -5.348835140466690063e-02 -5.752549692988395691e-02
6.080000000000000000e+02 2.148764610290527344e+01 -3.911539077758789062e+01 1.527511924505233765e-01 -1.894015073776245117e+00 -5.223791599273681641e-01 1.604060977697372437e-01
6.090000000000000000e+02 1.655310440063476562e+01 -3.865476226806640625e+01 1.610273420810699463e-01 -8.756235474720597267e-04 4.804551601409912109e-02 -1.651764959096908569e-01
6.100000000000000000e+02 1.866174316406250000e+01 -3.940110397338867188e+01 1.009750813245773315e-01 -1.413551211357116699e+00 -3.937728404998779297e-01 -5.513556599617004395e-01
6.110000000000000000e+02 1.801144981384277344e+01 -4.139885711669921875e+01 9.367898851633071899e-02 -9.916278719902038574e-01 -2.693846821784973145e-01 -1.785636842250823975e-01
6.120000000000000000e+02 1.452409076690673828e+01 -3.648120117187500000e+01 4.119635745882987976e-02 3.611785173416137695e-02 2.319426275789737701e-02 -5.250628292560577393e-02
6.130000000000000000e+02 1.533950901031494141e+01 -3.761067962646484375e+01 2.155985087156295776e-01 5.810848623514175415e-02 8.211209625005722046e-02 -4.203658550977706909e-02
6.140000000000000000e+02 1.245159339904785156e+01 -3.268668746948242188e+01 4.947848152369260788e-03 1.033069659024477005e-02 4.583563189953565598e-03 -9.650754742324352264e-03
6.150000000000000000e+02 5.849704742431640625e-01 -2.479116058349609375e+01 1.689010416157543659e-03 -7.927634287625551224e-04 2.688740787561982870e-04 1.091782396542839706e-04
6.160000000000000000e+02 6.883991360664367676e-01 -3.040512847900390625e+01 1.834399532526731491e-03 3.347313613630831242e-04 6.507392390631139278e-04 6.140712648630142212e-04
6.170000000000000000e+02 7.725185155868530273e-01 -3.184664344787597656e+01 -8.865480776876211166e-04 2.362219849601387978e-03 4.427015373948961496e-04 1.330997562035918236e-03
6.180000000000000000e+02 6.368886232376098633e-01 -3.733696746826171875e+01 -6.798294838517904282e-03 1.415522769093513489e-02 2.207079902291297913e-03 2.623352047521620989e-04
6.190000000000000000e+02 6.793978214263916016e+00 -3.844217681884765625e+01 -7.952661253511905670e-03 -7.080729119479656219e-04 -2.598220249637961388e-03 2.459664084017276764e-02
6.200000000000000000e+02 1.210455703735351562e+01 -4.143582534790039062e+01 -9.602026641368865967e-02 -3.119633160531520844e-02 -3.816498070955276489e-02 1.227494236081838608e-02
6.210000000000000000e+02 2.139983177185058594e+01 -3.363182830810546875e+01 -1.010094583034515381e-01 -2.346596956253051758e+00 -7.342818975448608398e-01 -1.941651999950408936e-01
6.220000000000000000e+02 1.970266151428222656e+01 -2.801845550537109375e+01 -1.087466534227132797e-02 -2.585549592971801758e+00 -7.789272665977478027e-01 -2.106906101107597351e-02
6.230000000000000000e+02 2.137499046325683594e+01 -3.091492652893066406e+01 -2.355015091598033905e-02 -2.328500747680664062e+00 -7.056152224540710449e-01 -8.686069399118423462e-02
6.240000000000000000e+02 1.975024032592773438e+01 -3.502806854248046875e+01 -6.786224246025085449e-02 -2.965039491653442383e+00 -9.098705053329467773e-01 -2.421725988388061523e-01
6.250000000000000000e+02 1.980268287658691406e+01 -3.650900650024414062e+01 -2.607974708080291748e-01 -2.639440536499023438e+00 -8.700714111328125000e-01 -3.693609237670898438e-01
6.260000000000000000e+02 1.971700096130371094e+01 -2.377368736267089844e+01 2.814252674579620361e-02 -2.425333023071289062e+00 -7.191570997238159180e-01 -6.268808245658874512e-02
6.270000000000000000e+02 1.980851364135742188e+01 -2.096541595458984375e+01 -8.240832947194576263e-03 -2.462605237960815430e+00 -7.412538528442382812e-01 -7.299521565437316895e-02
6.280000000000000000e+02 2.131507682800292969e+01 -2.381735420227050781e+01 2.286140434443950653e-02 -2.234648466110229492e+00 -6.635361313819885254e-01 -7.318561524152755737e-02
6.290000000000000000e+02 2.068288230895996094e+01 -1.322844743728637695e+00 -1.652944087982177734e-02 -2.195097208023071289e+00 -6.634879708290100098e-01 -1.202070862054824829e-01
6.300000000000000000e+02 2.036509132385253906e+01 -6.928724288940429688e+00 1.187997777014970779e-02 -2.255665779113769531e+00 -6.731356978416442871e-01 -6.279741972684860229e-02
6.310000000000000000e+02 2.162622451782226562e+01 -1.114223766326904297e+01 -1.242404803633689880e-02 -2.231288909912109375e+00 -6.731138825416564941e-01 -1.107524484395980835e-01
6.320000000000000000e+02 2.596074485778808594e+01 -2.609765625000000000e+01 1.574884913861751556e-02 -1.394102931022644043e+00 -4.135062098503112793e-01 -1.230732649564743042e-01
6.330000000000000000e+02 4.166075897216796875e+01 -3.328224182128906250e+01 8.626937121152877808e-02 1.444772005081176758e+00 4.593124091625213623e-01 -6.952631752938032150e-03
6.340000000000000000e+02 4.692749786376953125e+01 -3.649022674560546875e+01 7.983634620904922485e-02 2.424408197402954102e+00 7.512733340263366699e-01 1.132519636303186417e-02
6.350000000000000000e+02 5.228663635253906250e+01 -4.050733947753906250e+01 7.230342179536819458e-02 3.375250339508056641e+00 1.034266114234924316e+00 2.084578853100538254e-03
6.360000000000000000e+02 4.734104156494140625e+01 -4.053968429565429688e+01 8.274304866790771484e-02 2.506254673004150391e+00 7.766993045806884766e-01 6.720424164086580276e-03
6.370000000000000000e+02 6.214938735961914062e+01 -4.061880874633789062e+01 4.108642786741256714e-02 5.251884937286376953e+00 1.587891340255737305e+00 3.644441952928900719e-03
6.380000000000000000e+02 5.723161315917968750e+01 -4.057356262207031250e+01 5.709491297602653503e-02 4.313954830169677734e+00 1.311314940452575684e+00 9.179776534438133240e-03
6.390000000000000000e+02 6.034935760498046875e+01 -3.268401718139648438e+01 4.715733602643013000e-02 4.923613548278808594e+00 1.491231203079223633e+00 4.014198109507560730e-02
6.400000000000000000e+02 5.689791488647460938e+01 -2.067423248291015625e+01 9.488639235496520996e-02 4.204815387725830078e+00 1.289910554885864258e+00 8.671949803829193115e-02
6.410000000000000000e+02 5.925298690795898438e+01 -1.563472652435302734e+01 1.086781173944473267e-01 4.641974449157714844e+00 1.425195693969726562e+00 1.086753159761428833e-01
6.420000000000000000e+02 4.638298797607421875e+01 -9.915838241577148438e+00 1.909546405076980591e-01 2.120282888412475586e+00 6.933712363243103027e-01 -2.403446706011891365e-03
6.430000000000000000e+02 5.228221893310546875e+01 -4.101602077484130859e+00 2.199379652738571167e-01 3.120137929916381836e+00 1.002022743225097656e+00 1.320729255676269531e-01
6.440000000000000000e+02 4.085586166381835938e+01 -3.671372234821319580e-01 2.386221885681152344e-01 9.278715252876281738e-01 3.499481081962585449e-01 -1.830173581838607788e-01
6.450000000000000000e+02 3.208703231811523438e+01 -3.147080540657043457e-01 1.075342968106269836e-01 -3.596179783344268799e-01 -7.562510669231414795e-02 -3.007587492465972900e-01
6.460000000000000000e+02 2.826548194885253906e+01 -2.028841257095336914e+00 5.762474611401557922e-02 -9.290435910224914551e-01 -2.614256441593170166e-01 -2.552928626537322998e-01
6.470000000000000000e+02 2.060884475708007812e+01 -2.728586435317993164e+00 -3.411521762609481812e-02 -2.257531404495239258e+00 -6.874940395355224609e-01 -1.566635966300964355e-01
6.480000000000000000e+02 2.032441711425781250e+01 -9.734416961669921875e+00 -2.635719627141952515e-02 -2.496280908584594727e+00 -7.567914724349975586e-01 -8.107624948024749756e-02
6.490000000000000000e+02 1.997408103942871094e+01 -1.675521469116210938e+01 2.020201180130243301e-03 -2.398783206939697266e+00 -7.190288901329040527e-01 -1.970426589250564575e-01
6.500000000000000000e+02 2.145706748962402344e+01 -1.676432418823242188e+01 2.307079918682575226e-02 -2.212561607360839844e+00 -6.568472981452941895e-01 -1.145552992820739746e-01
6.510000000000000000e+02 3.068822669982910156e+01 -3.043900871276855469e+01 8.410036563873291016e-03 -4.988646209239959717e-01 -1.471363753080368042e-01 -3.972168639302253723e-02
6.520000000000000000e+02 3.748712921142578125e+01 -4.071767425537109375e+01 8.942292630672454834e-02 7.012117505073547363e-01 2.371903955936431885e-01 -8.766544051468372345e-03
6.530000000000000000e+02 4.240586853027343750e+01 -4.065656280517578125e+01 9.641271829605102539e-02 1.589864611625671387e+00 5.058831572532653809e-01 3.483657957985997200e-03
6.540000000000000000e+02 1.326229381561279297e+01 -3.579597091674804688e+01 4.229170829057693481e-02 1.121933013200759888e-02 1.605331152677536011e-02 -1.512006856501102448e-02
6.550000000000000000e+02 1.385115337371826172e+01 -3.441257095336914062e+01 1.325680501759052277e-02 1.952668093144893646e-02 9.835045784711837769e-03 -1.474641729146242142e-02
6.560000000000000000e+02 1.409489154815673828e+01 -3.305528259277343750e+01 -1.192774041555821896e-03 2.749150386080145836e-03 4.669129266403615475e-04 -1.094187842682003975e-03
6.570000000000000000e+02 1.339548110961914062e+01 -2.737928199768066406e+01 -4.050988645758479834e-04 1.232572249136865139e-04 -8.455249189864844084e-05 1.592405460542067885e-04
6.580000000000000000e+02 1.852481722831726074e+00 -1.781260299682617188e+01 7.650491315871477127e-04 -1.471595605835318565e-04 1.853668654803186655e-04 1.706316252239048481e-04
6.590000000000000000e+02 5.937123894691467285e-01 -2.339135551452636719e+01 -1.520073856227099895e-03 -6.322003901004791260e-04 -6.456822738982737064e-04 -2.050035400316119194e-04
6.600000000000000000e+02 1.436423492431640625e+01 -3.030918693542480469e+01 2.846967836376279593e-04 -1.198031124658882618e-03 -2.740003110375255346e-04 8.387411071453243494e-06
6.610000000000000000e+02 1.290512371063232422e+01 -3.003166389465332031e+01 4.754426190629601479e-04 1.570298336446285248e-03 6.137223099358379841e-04 -1.641331939026713371e-03
6.620000000000000000e+02 1.420409774780273438e+01 -2.206503295898437500e+01 3.074852575082331896e-04 -3.160281048621982336e-04 -2.562852159826434217e-06 2.507154713384807110e-04
6.630000000000000000e+02 1.452196598052978516e+01 -1.347306346893310547e+01 6.518865702673792839e-04 -1.175794477603631094e-05 1.920385839184746146e-04 -7.286472828127443790e-05
6.640000000000000000e+02 1.461285591125488281e+01 -6.541936397552490234e+00 -4.376821743790060282e-04 -2.264889189973473549e-05 -1.380993198836222291e-04 -1.383173912472557276e-05
6.650000000000000000e+02 1.460696029663085938e+01 -3.857559680938720703e+00 -3.881485317833721638e-04 -8.692448318470269442e-05 -1.425219088559970260e-04 -1.070263388101011515e-04
6.660000000000000000e+02 1.442975425720214844e+01 -2.838148117065429688e+00 4.566702118609100580e-04 1.615556393517181277e-04 1.854677539085969329e-04 1.753424003254622221e-04
6.670000000000000000e+02 1.037506294250488281e+01 -2.602001667022705078e+00 5.466146831167861819e-05 9.614020382286980748e-05 4.524050018517300487e-05 -1.681632238614838570e-05
6.680000000000000000e+02 1.353575897216796875e+01 -1.058913326263427734e+01 -4.185361904092133045e-04 -8.466419239994138479e-05 -1.509601133875548840e-04 7.452547288266941905e-05
6.690000000000000000e+02 1.277104473114013672e+01 -1.879361724853515625e+01 -3.043833421543240547e-04 -7.031238783383741975e-05 -1.124087211792357266e-04 7.034622831270098686e-05
6.700000000000000000e+02 1.331204414367675781e+01 -2.510015106201171875e+01 -5.076322122476994991e-04 -7.902176002971827984e-04 -3.893549437634646893e-04 2.228994126198813319e-04
6.710000000000000000e+02 1.457138824462890625e+01 -2.622471237182617188e+01 -8.030190365388989449e-04 -1.248683198355138302e-03 -6.155106821097433567e-04 2.051149931503459811e-04
6.720000000000000000e+02 1.110232448577880859e+01 -1.879950046539306641e+00 6.913877587066963315e-05 4.205104414722882211e-05 3.335694418638013303e-05 -4.835258732782676816e-05
6.730000000000000000e+02 4.284690380096435547e+00 -1.908745765686035156e+00 -6.021258377586491406e-05 -1.098740103770978749e-04 -5.102597788209095597e-05 -2.851588942576199770e-05
6.740000000000000000e+02 1.713408589363098145e+00 -1.083196067810058594e+01 -2.236255677416920662e-04 -2.350193972233682871e-05 -7.413825369440019131e-05 -4.997042560717090964e-05
6.750000000000000000e+02 6.132609844207763672e-01 -1.777674674987792969e+01 -7.512364536523818970e-04 -1.339327427558600903e-04 -2.655507705640047789e-04 -1.100329973269253969e-04
6.760000000000000000e+02 2.635831594467163086e+00 -3.745872879028320312e+01 -2.384591381996870041e-03 1.069768704473972321e-02 2.493928885087370872e-03 6.864213850349187851e-03
6.770000000000000000e+02 2.185485458374023438e+01 -3.623191452026367188e+01 -2.406054288148880005e-01 -1.984084606170654297e+00 -6.674069762229919434e-01 -7.556328177452087402e-02
6.780000000000000000e+02 2.490295791625976562e+01 -3.600022125244140625e+01 -9.304233640432357788e-02 -1.409108996391296387e+00 -4.506453871726989746e-01 3.959023952484130859e-02
6.790000000000000000e+02 3.290800094604492188e+01 -3.697267150878906250e+01 8.088587969541549683e-02 -1.317442506551742554e-01 -1.525751035660505295e-02 3.080084919929504395e-02
6.800000000000000000e+02 3.025704193115234375e+01 -3.298766326904296875e+01 1.888052374124526978e-02 -5.294963121414184570e-01 -1.531847268342971802e-01 -1.279992423951625824e-02
6.810000000000000000e+02 1.972261047363281250e+01 -3.082916259765625000e+01 -3.401173278689384460e-02 -2.688452243804931641e+00 -8.167392015457153320e-01 -4.280877485871315002e-02
6.820000000000000000e+02 6.717880249023437500e+01 -3.051025009155273438e+01 3.152118250727653503e-02 6.153444290161132812e+00 1.855489611625671387e+00 6.065641716122627258e-02
6.830000000000000000e+02 6.467041015625000000e+01 -2.599417495727539062e+01 4.421603679656982422e-02 5.761962890625000000e+00 1.741853594779968262e+00 6.189582124352455139e-02
6.840000000000000000e+02 6.325118255615234375e+01 -1.707957077026367188e+01 6.954142451286315918e-02 5.423434257507324219e+00 1.647892713546752930e+00 1.088120117783546448e-01
6.850000000000000000e+02 6.696547698974609375e+01 -4.070121002197265625e+01 2.109161764383316040e-02 6.111001491546630859e+00 1.839627861976623535e+00 1.025288738310337067e-02
6.860000000000000000e+02 7.011614990234375000e+01 -3.734886932373046875e+01 1.893641613423824310e-02 6.736429214477539062e+00 2.026609659194946289e+00 1.227693445980548859e-02
6.870000000000000000e+02 7.297881317138671875e+01 -3.203982162475585938e+01 -1.320323161780834198e-02 7.214954853057861328e+00 2.160525321960449219e+00 2.369937673211097717e-02
6.880000000000000000e+02 7.234031677246093750e+01 -2.437631797790527344e+01 1.832753792405128479e-02 7.143292427062988281e+00 2.148485898971557617e+00 4.760023951530456543e-02
6.890000000000000000e+02 7.792594146728515625e+01 -4.161034774780273438e+01 6.051003187894821167e-02 8.132259368896484375e+00 2.457830905914306641e+00 1.695994846522808075e-02
6.900000000000000000e+02 7.795884704589843750e+01 -3.685233306884765625e+01 2.308489521965384483e-03 8.126647949218750000e+00 2.438686847686767578e+00 2.844800055027008057e-02
6.910000000000000000e+02 7.934101104736328125e+01 -3.340353775024414062e+01 2.475846558809280396e-03 8.380230903625488281e+00 2.514812231063842773e+00 1.719527062959969044e-03
6.920000000000000000e+02 7.803687286376953125e+01 -1.659304618835449219e+01 6.132966373115777969e-04 8.275181770324707031e+00 2.482738733291625977e+00 1.524401735514402390e-02
6.930000000000000000e+02 7.934796142578125000e+01 -1.250158405303955078e+01 7.887776009738445282e-04 8.582350730895996094e+00 2.574941873550415039e+00 -2.412823028862476349e-03
6.940000000000000000e+02 7.270109558105468750e+01 -5.523775100708007812e+00 5.387723911553621292e-03 7.389152526855468750e+00 2.218362092971801758e+00 1.171912476420402527e-01
6.950000000000000000e+02 6.689695739746093750e+01 4.572173595428466797e+00 -1.168390586972236633e-01 6.382699966430664062e+00 1.879758358001708984e+00 2.825207412242889404e-01
6.960000000000000000e+02 6.090798568725585938e+01 1.245607566833496094e+01 -1.462424695491790771e-01 5.072862148284912109e+00 1.477985858917236328e+00 8.529726266860961914e-01
6.970000000000000000e+02 4.852560424804687500e+01 2.064546394348144531e+01 1.050907894968986511e-01 6.628680229187011719e-01 2.303876429796218872e-01 -1.182854399085044861e-01
6.980000000000000000e+02 4.479436874389648438e+01 2.822802162170410156e+01 -1.213308334350585938e+00 9.816329926252365112e-02 -3.345434963703155518e-01 -3.564114868640899658e-01
6.990000000000000000e+02 3.716264724731445312e+01 3.247179031372070312e+01 -7.610977292060852051e-01 3.527578338980674744e-02 -2.177465707063674927e-01 -6.241081655025482178e-02
7.000000000000000000e+02 3.568746185302734375e+01 3.276317596435546875e+01 -6.153306365013122559e-01 3.300113603472709656e-02 -1.746988445520401001e-01 -6.821443140506744385e-02
7.010000000000000000e+02 3.275157546997070312e+01 3.334051895141601562e+01 -3.689154386520385742e-01 2.500678412616252899e-02 -1.031725928187370300e-01 -6.829534471035003662e-02
7.020000000000000000e+02 7.805431365966796875e+01 -9.644691467285156250e+00 2.169087092624977231e-04 8.387705802917480469e+00 2.516376972198486328e+00 2.336823008954524994e-02
7.030000000000000000e+02 7.935139465332031250e+01 -5.548244476318359375e+00 -6.147909443825483322e-04 8.728653907775878906e+00 2.618411779403686523e+00 -2.664447994902729988e-03
7.040000000000000000e+02 7.306203460693359375e+01 1.363466024398803711e+00 -3.445405140519142151e-02 7.585124969482421875e+00 2.265201330184936523e+00 1.147311478853225708e-01
7.050000000000000000e+02 6.771398162841796875e+01 9.574704170227050781e+00 -3.340538442134857178e-01 6.846405982971191406e+00 1.953705668449401855e+00 2.885351479053497314e-01
7.060000000000000000e+02 5.562916564941406250e+01 2.103685951232910156e+01 3.566670417785644531e-01 2.050830364227294922e+00 7.222492098808288574e-01 1.131527900695800781e+00
7.070000000000000000e+02 5.028636932373046875e+01 2.814486312866210938e+01 -1.586411356925964355e+00 6.924568116664886475e-02 -4.551496803760528564e-01 -1.908735185861587524e-01
7.080000000000000000e+02 4.147914123535156250e+01 3.096111488342285156e+01 -1.219071984291076660e+00 5.763943865895271301e-02 -3.484297692775726318e-01 -1.258905380964279175e-01
7.090000000000000000e+02 4.158965301513671875e+01 3.162039184570312500e+01 -1.279396414756774902e+00 3.716209158301353455e-02 -3.726702928543090820e-01 -3.461969271302223206e-02
7.100000000000000000e+02 3.937799835205078125e+01 3.205174636840820312e+01 -1.005775451660156250e+00 4.000490158796310425e-02 -2.897311747074127197e-01 -4.727530479431152344e-02
7.110000000000000000e+02 7.804948425292968750e+01 -2.731690168380737305e+00 -1.025072997435927391e-03 8.529466629028320312e+00 2.558532476425170898e+00 2.630646899342536926e-02
7.120000000000000000e+02 7.936547851562500000e+01 2.801430225372314453e+00 -2.746105659753084183e-03 8.919729232788085938e+00 2.675094842910766602e+00 -1.195173151791095734e-02
7.130000000000000000e+02 7.326822662353515625e+01 9.605337142944335938e+00 -1.897248625755310059e-01 7.836934566497802734e+00 2.294162750244140625e+00 -6.468809396028518677e-02
7.140000000000000000e+02 6.724154663085937500e+01 1.857999610900878906e+01 -9.569092988967895508e-01 8.124778747558593750e+00 2.150361061096191406e+00 3.781437277793884277e-01
7.150000000000000000e+02 5.641599655151367188e+01 2.894805335998535156e+01 -1.985642433166503906e+00 4.121626168489456177e-02 -5.833278298377990723e-01 2.266398817300796509e-01
7.160000000000000000e+02 5.130834960937500000e+01 3.002344322204589844e+01 -2.539940834045410156e+00 -2.934646909125149250e-04 -7.620702981948852539e-01 2.650325931608676910e-02
7.170000000000000000e+02 4.904920578002929688e+01 3.031945037841796875e+01 -2.285325288772583008e+00 5.929192528128623962e-03 -6.838188767433166504e-01 1.039663888514041901e-02
7.180000000000000000e+02 4.754707336425781250e+01 3.055227661132812500e+01 -2.091270923614501953e+00 1.574992388486862183e-02 -6.226562857627868652e-01 3.895232803188264370e-04
7.190000000000000000e+02 4.530195617675781250e+01 3.093014526367187500e+01 -1.782524943351745605e+00 2.785669267177581787e-02 -5.264004468917846680e-01 -8.086502552032470703e-03
7.200000000000000000e+02 7.811297607421875000e+01 4.222603797912597656e+00 -9.544814005494117737e-03 8.665366172790527344e+00 2.596746444702148438e+00 -9.056297712959349155e-04
7.210000000000000000e+02 7.938800048828125000e+01 8.380925178527832031e+00 -4.625503439456224442e-03 8.944641113281250000e+00 2.682004690170288086e+00 -3.638192266225814819e-02
7.220000000000000000e+02 7.373411560058593750e+01 1.710877418518066406e+01 -4.101164340972900391e-01 8.147253036499023438e+00 2.321141004562377930e+00 -5.976605415344238281e-01
7.230000000000000000e+02 5.730282592773437500e+01 2.944207382202148438e+01 -2.363194942474365234e+00 3.901776392012834549e-03 -7.077879905700683594e-01 2.518541216850280762e-01
7.240000000000000000e+02 5.656406402587890625e+01 2.950739288330078125e+01 -2.572849750518798828e+00 2.976740361191332340e-04 -7.717655897140502930e-01 1.632095724344253540e-01
7.250000000000000000e+02 5.356324768066406250e+01 2.977293395996093750e+01 -2.698955535888671875e+00 -6.945470813661813736e-03 -8.117703199386596680e-01 5.034481734037399292e-02
7.260000000000000000e+02 7.817574310302734375e+01 1.121808624267578125e+01 -2.805676124989986420e-02 8.605157852172851562e+00 2.573130369186401367e+00 -1.180498972535133362e-01
7.270000000000000000e+02 7.941821289062500000e+01 1.674979209899902344e+01 -1.065217982977628708e-02 8.231532096862792969e+00 2.466264009475708008e+00 -1.359038352966308594e-01
7.280000000000000000e+02 7.388396453857421875e+01 2.369758224487304688e+01 -7.272873073816299438e-02 8.182399749755859375e+00 2.432901144027709961e+00 -1.240323066711425781e+00
7.290000000000000000e+02 5.983452224731445312e+01 2.927387809753417969e+01 -1.062466859817504883e+00 3.372506201267242432e-01 -2.175648510456085205e-01 9.426953792572021484e-01
7.300000000000000000e+02 7.827780151367187500e+01 1.820063591003417969e+01 -4.827655106782913208e-02 7.902864933013916016e+00 2.356376409530639648e+00 -3.917199075222015381e-01
7.310000000000000000e+02 7.942959594726562500e+01 2.371623039245605469e+01 9.362951658431484248e-08 6.249731063842773438e+00 1.874919414520263672e+00 -2.212244868278503418e-01
7.320000000000000000e+02 7.829870605468750000e+01 2.237673759460449219e+01 -1.680682599544525146e-02 6.977781772613525391e+00 2.088292598724365234e+00 -5.575169324874877930e-01
7.330000000000000000e+02 7.932238006591796875e+01 2.937488746643066406e+01 3.113836422562599182e-02 4.661057472229003906e+00 1.407658815383911133e+00 -1.029006391763687134e-01
7.340000000000000000e+02 7.121879577636718750e+01 3.771787261962890625e+01 -5.682370066642761230e-01 9.634000778198242188e+00 2.719729185104370117e+00 9.351382255554199219e-01
7.350000000000000000e+02 5.955903244018554688e+01 3.631183624267578125e+01 6.931249499320983887e-01 2.827036142349243164e+00 1.056048393249511719e+00 -1.356060624122619629e+00
7.360000000000000000e+02 6.238732910156250000e+01 3.391586303710937500e+01 9.492611289024353027e-01 6.757672309875488281e+00 2.312080144882202148e+00 -4.198188304901123047e+00
7.370000000000000000e+02 5.585795974731445312e+01 3.517040252685546875e+01 -3.686287382151931524e-04 2.118596583604812622e-01 6.344731152057647705e-02 8.791063725948333740e-02
7.380000000000000000e+02 5.253900527954101562e+01 3.375759506225585938e+01 -9.055088162422180176e-01 -9.541995823383331299e-02 -3.002786338329315186e-01 4.489078521728515625e-01
7.390000000000000000e+02 5.548671722412109375e+01 3.333633422851562500e+01 -1.134445071220397949e+00 -2.423766627907752991e-02 -3.476048111915588379e-01 3.788551986217498779e-01
7.400000000000000000e+02 5.692971420288085938e+01 3.315848159790039062e+01 -1.126373767852783203e+00 4.872021265327930450e-03 -3.364505171775817871e-01 2.978466153144836426e-01
7.410000000000000000e+02 5.890357589721679688e+01 3.294036483764648438e+01 -7.802913784980773926e-01 3.355081379413604736e-01 -1.334349662065505981e-01 -1.169478893280029297e-01
7.420000000000000000e+02 7.935808563232421875e+01 3.220955276489257812e+01 4.859981592744588852e-03 4.535750389099121094e+00 1.362183213233947754e+00 3.127706050872802734e-02
7.430000000000000000e+02 7.902922058105468750e+01 3.885550308227539062e+01 1.180481016635894775e-01 5.949209213256835938e+00 1.820177197456359863e+00 2.488261610269546509e-01
7.440000000000000000e+02 7.354095458984375000e+01 3.814374542236328125e+01 -4.444833993911743164e-01 8.535871505737304688e+00 2.427416324615478516e+00 8.104023933410644531e-01
7.450000000000000000e+02 5.451382064819335938e+01 3.699011611938476562e+01 4.278113842010498047e-01 3.079744279384613037e-01 2.207357436418533325e-01 8.804385364055633545e-02
7.460000000000000000e+02 4.822904586791992188e+01 3.571149063110351562e+01 -1.759570240974426270e-01 -1.999823749065399170e-01 -1.127818226814270020e-01 3.697237670421600342e-01
7.470000000000000000e+02 4.740769577026367188e+01 3.452993774414062500e+01 -3.876887857913970947e-01 -1.285344213247299194e-01 -1.548669636249542236e-01 2.929235398769378662e-01
7.480000000000000000e+02 4.966433715820312500e+01 3.413821029663085938e+01 -6.074172854423522949e-01 -1.042345240712165833e-01 -2.134955376386642456e-01 4.156194031238555908e-01
7.490000000000000000e+02 5.036703491210937500e+01 3.398508834838867188e+01 -7.113838791847229004e-01 -1.025690436363220215e-01 -2.441858798265457153e-01 4.117967188358306885e-01
7.500000000000000000e+02 4.509560012817382812e+01 3.669838333129882812e+01 -5.604935064911842346e-02 -1.726548522710800171e-01 -6.861126422882080078e-02 2.646691799163818359e-01
7.510000000000000000e+02 4.453702163696289062e+01 3.497071456909179688e+01 -2.263798862695693970e-01 -9.895845502614974976e-02 -9.760150313377380371e-02 2.016909420490264893e-01
7.520000000000000000e+02 3.167239189147949219e+01 3.829670715332031250e+01 9.240221115760505199e-04 -3.347404301166534424e-03 -7.270146743394434452e-04 1.618528156541287899e-03
7.530000000000000000e+02 2.733003044128417969e+01 3.873165512084960938e+01 -9.805603185668587685e-04 2.070254704449325800e-04 -2.320604544365778565e-04 -7.410717080347239971e-04
7.540000000000000000e+02 2.418371009826660156e+01 3.860061645507812500e+01 1.830864785006269813e-04 9.363120771013200283e-04 3.358195535838603973e-04 -2.056312747299671173e-03
7.550000000000000000e+02 2.247073936462402344e+01 3.841535186767578125e+01 1.919219357660040259e-04 1.136116916313767433e-03 3.984116483479738235e-04 -1.120962435379624367e-03
7.560000000000000000e+02 2.216176414489746094e+01 3.937537765502929688e+01 1.774187549017369747e-04 6.177862087497487664e-05 7.175921200541779399e-05 2.433422923786565661e-04
7.570000000000000000e+02 2.097361183166503906e+01 3.815654373168945312e+01 -1.214138101204298437e-04 6.482725148089230061e-04 1.580576208652928472e-04 -4.754286783281713724e-04
7.580000000000000000e+02 1.939286994934082031e+01 3.771956253051757812e+01 -2.076889795716851950e-04 -8.625923655927181244e-04 -3.210844006389379501e-04 -4.668036999646574259e-04
7.590000000000000000e+02 1.947961688041687012e+00 2.617880821228027344e+01 2.367213601246476173e-04 -5.422701178758870810e-06 6.938959995750337839e-05 1.818689997890032828e-05
7.600000000000000000e+02 2.033942937850952148e+00 3.040436935424804688e+01 -2.235438005300238729e-04 -4.635553523257840425e-06 -6.845380266895517707e-05 -4.970618101651780307e-05
7.610000000000000000e+02 4.301179885864257812e+00 3.788394546508789062e+01 -5.271782720228657126e-05 -8.721169251657556742e-06 -1.843169957282952964e-05 3.904698678525164723e-05
7.620000000000000000e+02 1.991793870925903320e+00 4.164718627929687500e+01 1.705853501334786415e-04 -8.030473509279545397e-06 4.876646198681555688e-05 5.336499089025892317e-05
7.630000000000000000e+02 1.385014724731445312e+01 3.807132720947265625e+01 7.813961710780858994e-04 1.518785575171932578e-04 2.799824287649244070e-04 -2.826109412126243114e-04
7.640000000000000000e+02 1.302437686920166016e+01 3.405863189697265625e+01 -2.233404375147074461e-04 -2.011187316384166479e-04 -1.273377420147880912e-04 7.283657032530754805e-05
7.650000000000000000e+02 1.464162731170654297e+01 2.295878028869628906e+01 3.221566730644553900e-04 6.588152245967648923e-06 9.862344450084492564e-05 -1.410997083439724520e-05
7.660000000000000000e+02 1.442210865020751953e+01 1.742294502258300781e+01 2.230898098787292838e-04 -7.999372428457718343e-06 6.452712841564789414e-05 -1.113224425353109837e-05
7.670000000000000000e+02 1.455817794799804688e+01 1.044109249114990234e+01 -1.446963724447414279e-04 -2.027765731327235699e-06 -4.401724072522483766e-05 -1.362908960800268687e-06
7.680000000000000000e+02 1.368665790557861328e+01 1.813018202781677246e+00 -1.901135146908927709e-05 -7.540244041592814028e-06 -7.965479198901448399e-06 -1.688855627435259521e-05
7.690000000000000000e+02 1.317920112609863281e+01 1.760195970535278320e+00 8.898202395357657224e-06 2.176960515498649329e-05 9.200341992254834622e-06 1.105941464629722759e-05
7.700000000000000000e+02 6.790696382522583008e-01 3.467687606811523438e+01 -1.999330706894397736e-04 -1.905101817101240158e-05 -6.569522520294412971e-05 3.917956564691849053e-05
7.710000000000000000e+02 6.499041914939880371e-01 2.763263320922851562e+01 2.050547482213005424e-04 -3.132973915853654034e-06 6.057653445168398321e-05 7.093165095284348354e-06
7.720000000000000000e+02 6.654158234596252441e-01 2.053519821166992188e+01 -2.053885837085545063e-04 -3.962569792292924831e-07 -6.173545261844992638e-05 5.090234935778426006e-06
7.730000000000000000e+02 1.753600239753723145e+00 1.621905708312988281e+01 -2.005760907195508480e-04 1.035087370837572962e-05 -5.706756201107054949e-05 4.373684714664705098e-05
7.740000000000000000e+02 1.223852825164794922e+01 1.168186759948730469e+01 1.168455128208734095e-04 3.021777411049697548e-05 4.411898407852277160e-05 5.005034108762629330e-05
7.750000000000000000e+02 1.289285182952880859e+01 1.611626052856445312e+01 2.215056010754778981e-04 -1.514802352176047862e-05 6.190727435750886798e-05 -2.060162842099089175e-06
7.760000000000000000e+02 1.195789432525634766e+01 1.913656425476074219e+01 -2.409462613286450505e-04 1.192088257084833458e-05 -6.870760989841073751e-05 1.772841642377898097e-05
7.770000000000000000e+02 1.355518436431884766e+01 2.440913009643554688e+01 3.160113701596856117e-04 3.131748962914571166e-05 1.041986542986705899e-04 1.200793394673382863e-05
7.780000000000000000e+02 1.366478538513183594e+01 2.572257804870605469e+01 -3.423946618568152189e-04 -4.467465259949676692e-05 -1.161207983386702836e-04 -5.170615986571647227e-05
7.790000000000000000e+02 1.245125484466552734e+01 2.930253028869628906e+01 -3.698358486872166395e-04 -5.380532911658519879e-06 -1.125649141613394022e-04 -1.461869251215830445e-04
7.800000000000000000e+02 5.929362773895263672e-01 1.489857387542724609e+01 -1.906371326185762882e-04 -1.577620764692255761e-06 -5.766442700405605137e-05 2.261531335534527898e-05
7.810000000000000000e+02 1.692521333694458008e+00 9.213478088378906250e+00 1.181086045107804239e-04 1.228601036018517334e-06 3.580116026569157839e-05 -1.202882413053885102e-05
7.820000000000000000e+02 8.916321754455566406e+00 2.636294603347778320e+00 -3.649866994237527251e-05 -1.209063975693425164e-05 -1.457679354643914849e-05 -8.089698894764296710e-06
7.830000000000000000e+02 9.653601646423339844e+00 1.869671344757080078e+00 -3.119842222076840699e-05 -5.561039870372042060e-06 -1.102783880924107507e-05 -1.787841767963982420e-07
7.840000000000000000e+02 1.120842218399047852e+00 3.795732975006103516e+00 -2.538868830015417188e-05 2.486657285771798342e-05 -1.566343712511297781e-07 -5.904881254537031054e-05
7.850000000000000000e+02 5.362505316734313965e-01 6.418894290924072266e+00 -8.693773997947573662e-05 -8.226330464822240174e-06 -2.854922240658197552e-05 -1.561946447736772825e-07
7.860000000000000000e+02 3.678416013717651367e+00 3.729805231094360352e+00 -6.391130591509863734e-05 -1.338565562036819756e-05 -2.318908809684216976e-05 1.105611045204568654e-05
7.870000000000000000e+02 1.346054077148437500e+01 1.045199012756347656e+01 1.302201417274773121e-04 9.155720363196451217e-06 4.181275653536431491e-05 2.009734635066706687e-05
7.880000000000000000e+02 1.448819160461425781e+01 2.020749473571777344e+01 2.697361342143267393e-04 3.543002776495995931e-06 8.198373689083382487e-05 -2.414368827885482460e-05
7.890000000000000000e+02 1.534875488281250000e+01 3.120028305053710938e+01 6.039568688720464706e-04 -2.510307058400940150e-05 1.736561389407142997e-04 -3.266943167545832694e-05
7.900000000000000000e+02 1.523334789276123047e+01 2.978470039367675781e+01 -6.187009275890886784e-04 2.435403985145967454e-05 -1.783040643204003572e-04 -2.405123450444079936e-05
7.910000000000000000e+02 1.804631614685058594e+01 3.773214721679687500e+01 1.080378715414553881e-04 2.488997124601155519e-04 1.070812722900882363e-04 4.820722679141908884e-04
7.920000000000000000e+02 1.927502632141113281e+01 3.992943954467773438e+01 -2.419576194370165467e-04 5.299358163028955460e-04 8.639345469418913126e-05 1.119642984122037888e-03
7.930000000000000000e+02 1.203044414520263672e+01 4.128561782836914062e+01 4.765709745697677135e-04 1.602375850779935718e-04 1.910425635287538171e-04 4.168305604252964258e-04
7.940000000000000000e+02 1.971170997619628906e+01 3.787326431274414062e+01 7.924965466372668743e-04 3.249862347729504108e-04 3.352448402438312769e-04 -3.784475557040423155e-04
7.950000000000000000e+02 3.207001876831054688e+01 3.710037231445312500e+01 1.440607709810137749e-03 -1.722284359857439995e-03 -8.450297900708392262e-05 8.544439333491027355e-04
7.960000000000000000e+02 3.557603073120117188e+01 3.690910720825195312e+01 -7.591980975121259689e-03 -2.030821517109870911e-02 -8.370058611035346985e-03 2.365508675575256348e-02
7.970000000000000000e+02 3.727472686767578125e+01 3.793555068969726562e+01 -8.391686715185642242e-03 -3.576810657978057861e-02 -1.324793789535760880e-02 3.859939053654670715e-02
7.980000000000000000e+02 3.887650299072265625e+01 3.780749893188476562e+01 -5.647345911711454391e-03 -6.025300174951553345e-02 -1.977010443806648254e-02 4.423372820019721985e-02
7.990000000000000000e+02 3.111510467529296875e+01 2.927431106567382812e+01 -3.151146769523620605e-01 -1.540245115756988525e-02 -9.915514290332794189e-02 -2.976646423339843750e-01
8.000000000000000000e+02 2.667307090759277344e+01 2.450256538391113281e+01 -8.792156726121902466e-02 -2.594773471355438232e-01 -1.042196676135063171e-01 -3.390823304653167725e-01
8.010000000000000000e+02 3.720721435546875000e+01 2.898876571655273438e+01 -6.801531910896301270e-01 7.364034652709960938e-02 -1.819538474082946777e-01 -3.694337010383605957e-01
8.020000000000000000e+02 4.310104751586914062e+01 2.779915618896484375e+01 -1.010277867317199707e+00 1.088735759258270264e-01 -2.704212963581085205e-01 -4.182288944721221924e-01
8.030000000000000000e+02 5.188311004638671875e+01 2.866440963745117188e+01 -1.901040434837341309e+00 4.330955818295478821e-02 -5.573192834854125977e-01 -9.311916679143905640e-02
8.040000000000000000e+02 5.712154388427734375e+01 2.888526725769042969e+01 -1.786454558372497559e+00 1.026933342218399048e-01 -5.051283836364746094e-01 3.553531765937805176e-01
8.050000000000000000e+02 6.340711975097656250e+01 2.894464492797851562e+01 1.094880461692810059e+00 1.227213096618652344e+01 4.010103225708007812e+00 6.278645992279052734e+00
8.060000000000000000e+02 7.243849182128906250e+01 2.627218055725097656e+01 5.532044768333435059e-01 8.643055915832519531e+00 2.758878231048583984e+00 -1.347835421562194824e+00
8.070000000000000000e+02 3.349147796630859375e+01 1.573172664642333984e+01 4.505998268723487854e-02 -1.767921894788742065e-01 -3.951966017484664917e-02 -6.076829433441162109e-01
8.080000000000000000e+02 3.374348831176757812e+01 1.674644088745117188e+01 2.112068049609661102e-02 -1.528056710958480835e-01 -3.950550034642219543e-02 -6.191734671592712402e-01
8.090000000000000000e+02 4.583528137207031250e+01 2.280751609802246094e+01 -2.651048004627227783e-01 3.011594712734222412e-01 1.081640459597110748e-02 -4.303775429725646973e-01
8.100000000000000000e+02 4.979806137084960938e+01 2.099198150634765625e+01 1.319017559289932251e-01 7.603380680084228516e-01 2.676719427108764648e-01 2.187278307974338531e-02
8.110000000000000000e+02 5.581954574584960938e+01 2.031599426269531250e+01 3.478635549545288086e-01 2.309796094894409180e+00 7.972978949546813965e-01 1.161437630653381348e+00
8.120000000000000000e+02 6.671899414062500000e+01 1.921450042724609375e+01 -1.005308628082275391e+00 8.187681198120117188e+00 2.154711723327636719e+00 5.302815437316894531e-01
8.130000000000000000e+02 7.300573730468750000e+01 1.975756263732910156e+01 -4.993426799774169922e-01 8.349164009094238281e+00 2.354946374893188477e+00 -8.488768935203552246e-01
8.140000000000000000e+02 2.729261398315429688e+01 1.651821899414062500e+01 1.753590768203139305e-03 -5.812183022499084473e-01 -1.738394051790237427e-01 -4.581404030323028564e-01
8.150000000000000000e+02 2.702759361267089844e+01 1.242391777038574219e+01 2.279050275683403015e-02 -7.697792053222656250e-01 -2.240966111421585083e-01 -4.299545884132385254e-01
8.160000000000000000e+02 2.801629447937011719e+01 1.180004358291625977e+00 4.495061561465263367e-02 -9.207052588462829590e-01 -2.627263963222503662e-01 -2.925902009010314941e-01
8.170000000000000000e+02 2.607094383239746094e+01 3.195686817169189453e+00 -1.723324880003929138e-03 -1.183368802070617676e+00 -3.555276393890380859e-01 -2.805267274379730225e-01
8.180000000000000000e+02 3.423250579833984375e+01 5.437335014343261719e+00 1.548924446105957031e-01 -9.332181513309478760e-02 1.847118698060512543e-02 -4.118305146694183350e-01
8.190000000000000000e+02 3.340822982788085938e+01 6.385171413421630859e+00 1.344563215970993042e-01 -1.896415054798126221e-01 -1.655555330216884613e-02 -4.373114407062530518e-01
8.200000000000000000e+02 3.390645599365234375e+01 9.160354614257812500e+00 1.418177336454391479e-01 -1.400711685419082642e-01 5.239679594524204731e-04 -4.985622465610504150e-01
8.210000000000000000e+02 2.813638496398925781e+01 9.725881576538085938e+00 3.553815931081771851e-02 -7.454717159271240234e-01 -2.129800617694854736e-01 -4.399737119674682617e-01
8.220000000000000000e+02 4.039439392089843750e+01 8.454132080078125000e+00 2.837981283664703369e-01 5.975685119628906250e-01 2.644099891185760498e-01 -3.462476432323455811e-01
8.230000000000000000e+02 4.036846542358398438e+01 1.193701362609863281e+01 2.600367367267608643e-01 4.683266878128051758e-01 2.185090333223342896e-01 -4.237008988857269287e-01
8.240000000000000000e+02 5.084193801879882812e+01 1.481181907653808594e+01 4.052354097366333008e-01 1.742180466651916504e+00 6.442247629165649414e-01 3.118270337581634521e-01
8.250000000000000000e+02 5.538303756713867188e+01 1.220345592498779297e+01 2.555869221687316895e-01 3.216007471084594727e+00 1.041478395462036133e+00 6.831705570220947266e-01
8.260000000000000000e+02 6.545433807373046875e+01 1.131819343566894531e+01 -3.754723072052001953e-01 6.434504985809326172e+00 1.817709803581237793e+00 4.987311661243438721e-01
8.270000000000000000e+02 7.182971191406250000e+01 1.032354354858398438e+01 -2.875147461891174316e-01 7.635758876800537109e+00 2.204473257064819336e+00 -2.542435377836227417e-02
8.280000000000000000e+02 2.106270980834960938e+01 1.837973213195800781e+01 -9.583062637830153108e-05 -8.121008276939392090e-01 -2.436590045690536499e-01 -5.364369973540306091e-02
8.290000000000000000e+02 2.106274604797363281e+01 1.696840667724609375e+01 -1.266369508812204003e-04 -9.387527704238891602e-01 -2.816638350486755371e-01 -5.426062643527984619e-02
8.300000000000000000e+02 2.104893112182617188e+01 9.928074836730957031e+00 8.622863679192960262e-04 -1.569621562957763672e+00 -4.706277847290039062e-01 -4.924233257770538330e-02
8.310000000000000000e+02 2.101216697692871094e+01 4.292470455169677734e+00 -3.954882919788360596e-02 -2.124379873275756836e+00 -6.491786241531372070e-01 -1.348991096019744873e-01
8.320000000000000000e+02 2.104302406311035156e+01 5.706632614135742188e+00 -1.860980875790119171e-02 -1.994375586509704590e+00 -6.038956046104431152e-01 -7.473774999380111694e-02
8.330000000000000000e+02 5.973334503173828125e+01 4.509527683258056641e+00 6.168559938669204712e-02 4.648130893707275391e+00 1.412945032119750977e+00 4.356157779693603516e-01
8.340000000000000000e+02 6.672440338134765625e+01 2.578430891036987305e+00 -5.832420289516448975e-02 6.311937808990478516e+00 1.876084208488464355e+00 2.668455541133880615e-01
8.350000000000000000e+02 7.215141296386718750e+01 3.416901350021362305e+00 -7.311835139989852905e-02 7.435266494750976562e+00 2.208644390106201172e+00 1.108616590499877930e-01
8.360000000000000000e+02 2.105346298217773438e+01 1.273967552185058594e+01 1.037417445331811905e-03 -1.320923328399658203e+00 -3.959657847881317139e-01 -5.138114839792251587e-02
8.370000000000000000e+02 4.106652450561523438e+01 4.520508289337158203e+00 2.883456945419311523e-01 8.263575434684753418e-01 3.344109654426574707e-01 -2.539617717266082764e-01
8.380000000000000000e+02 6.008509445190429688e+01 -3.361391305923461914e+00 1.168702691793441772e-01 4.750764369964599609e+00 1.460290431976318359e+00 2.448483854532241821e-01
8.390000000000000000e+02 5.919803619384765625e+01 -4.528252124786376953e+00 1.240019723773002625e-01 4.572619438171386719e+00 1.408986449241638184e+00 2.259901612997055054e-01
8.400000000000000000e+02 6.420769500732421875e+01 -3.278315544128417969e+00 5.065754428505897522e-02 5.619166374206542969e+00 1.700947165489196777e+00 2.419642210006713867e-01
8.410000000000000000e+02 7.098355102539062500e+01 -1.553484916687011719e+00 -8.679955266416072845e-03 7.107149600982666016e+00 2.129540920257568359e+00 1.580707430839538574e-01
8.420000000000000000e+02 2.931170082092285156e+01 -3.435924053192138672e+00 6.578411906957626343e-02 -7.924622893333435059e-01 -2.180034518241882324e-01 -2.497386187314987183e-01
8.430000000000000000e+02 2.742530822753906250e+01 -8.410067558288574219e+00 3.286619856953620911e-02 -1.120554566383361816e+00 -3.263065218925476074e-01 -1.903297901153564453e-01
8.440000000000000000e+02 3.412840270996093750e+01 -1.625665664672851562e+01 7.051494717597961426e-02 6.922374665737152100e-02 4.192160815000534058e-02 -1.021654605865478516e-01
8.450000000000000000e+02 4.075678253173828125e+01 -2.303317642211914062e+01 9.068639576435089111e-02 1.262708067893981934e+00 4.060183465480804443e-01 -2.922676503658294678e-02
8.460000000000000000e+02 3.574427795410156250e+01 -9.102819561958312988e-01 1.668707281351089478e-01 1.769294142723083496e-01 1.031400412321090698e-01 -2.784897089004516602e-01
8.470000000000000000e+02 3.314764404296875000e+01 -1.216145133972167969e+01 7.588794827461242676e-02 -1.448689252138137817e-01 -2.069429308176040649e-02 -1.521018445491790771e-01
8.480000000000000000e+02 4.411082458496093750e+01 -1.333568000793457031e+01 1.604644358158111572e-01 1.763744711875915527e+00 5.772627592086791992e-01 -3.412941470742225647e-02
8.490000000000000000e+02 5.107326507568359375e+01 -2.438613319396972656e+01 9.256640821695327759e-02 3.156256437301635742e+00 9.746468663215637207e-01 3.150106221437454224e-02
8.500000000000000000e+02 5.847306823730468750e+01 -2.359130477905273438e+01 8.157057315111160278e-02 4.508746147155761719e+00 1.377094984054565430e+00 7.800647616386413574e-02
8.510000000000000000e+02 4.200720214843750000e+01 -2.410532951354980469e+00 2.407306283712387085e-01 1.193379163742065430e+00 4.302329123020172119e-01 -1.292960047721862793e-01
8.520000000000000000e+02 4.118267059326171875e+01 -1.023789882659912109e+01 1.665764749050140381e-01 1.196622729301452637e+00 4.089597463607788086e-01 -9.102339297533035278e-02
8.530000000000000000e+02 5.275804138183593750e+01 -1.673456192016601562e+01 1.178555712103843689e-01 3.418782472610473633e+00 1.060991406440734863e+00 6.434020400047302246e-02
8.540000000000000000e+02 5.974804306030273438e+01 -1.721540260314941406e+01 8.200807869434356689e-02 4.729381084442138672e+00 1.443416714668273926e+00 1.072591394186019897e-01
8.550000000000000000e+02 6.618169403076171875e+01 -1.328594017028808594e+01 5.110184848308563232e-02 6.011491298675537109e+00 1.818778038024902344e+00 1.273292750120162964e-01
8.560000000000000000e+02 6.517359924316406250e+01 -1.066989803314208984e+01 5.930203199386596680e-02 5.811351299285888672e+00 1.761196017265319824e+00 1.475606113672256470e-01
8.570000000000000000e+02 7.180924987792968750e+01 -1.065265464782714844e+01 1.651316881179809570e-02 7.156095504760742188e+00 2.151782512664794922e+00 1.106648668646812439e-01
8.580000000000000000e+02 2.727519989013671875e+01 -1.233667659759521484e+01 1.371230464428663254e-02 -1.149446606636047363e+00 -3.407202959060668945e-01 -1.543798595666885376e-01
8.590000000000000000e+02 2.765842247009277344e+01 -1.632218551635742188e+01 2.131357230246067047e-02 -1.114939212799072266e+00 -3.280877172946929932e-01 -1.098055317997932434e-01
8.600000000000000000e+02 3.632251739501953125e+01 -2.666501426696777344e+01 5.803518742322921753e-02 4.537056386470794678e-01 1.535222530364990234e-01 -2.766268327832221985e-02
8.610000000000000000e+02 4.163920974731445312e+01 -3.022512817382812500e+01 8.198592066764831543e-02 1.451103568077087402e+00 4.599268436431884766e-01 5.612404551357030869e-03
8.620000000000000000e+02 4.867838668823242188e+01 -3.051434135437011719e+01 8.120083808898925781e-02 2.728078126907348633e+00 8.427836894989013672e-01 1.204952038824558258e-02
8.630000000000000000e+02 3.582630538940429688e+01 -8.840560913085937500e+00 1.206044480204582214e-01 2.658136487007141113e-01 1.159254238009452820e-01 -1.596927791833877563e-01
8.640000000000000000e+02 4.156346130371093750e+01 -1.209683418273925781e+01 1.591026484966278076e-01 1.294282913208007812e+00 4.360156655311584473e-01 -8.014523983001708984e-02
8.650000000000000000e+02 5.194056320190429688e+01 -8.233033180236816406e+00 1.888423413038253784e-01 3.124976634979248047e+00 9.941456913948059082e-01 9.396325051784515381e-02
8.660000000000000000e+02 7.292790222167968750e+01 -1.905420494079589844e+01 1.158139947801828384e-02 7.285028934478759766e+00 2.188982963562011719e+00 6.183308735489845276e-02
8.670000000000000000e+02 7.206438446044921875e+01 -1.763760375976562500e+01 1.338478177785873413e-02 7.144317626953125000e+00 2.147310733795166016e+00 7.435264438390731812e-02
8.680000000000000000e+02 2.009194946289062500e+01 -1.535566329956054688e+01 -3.123097307980060577e-02 -2.546052932739257812e+00 -7.731851339340209961e-01 -2.133297026157379150e-01
8.690000000000000000e+02 3.713474655151367188e+01 -1.958502388000488281e+01 8.382783085107803345e-02 6.086632013320922852e-01 2.077473104000091553e-01 -6.081144884228706360e-02
8.700000000000000000e+02 4.175682830810546875e+01 -1.920269012451171875e+01 1.112119480967521667e-01 1.391425013542175293e+00 4.507910907268524170e-01 -2.821619808673858643e-02
8.710000000000000000e+02 2.981749534606933594e+01 -2.677467155456542969e+01 5.532771721482276917e-02 -6.342302560806274414e-01 -1.736707687377929688e-01 -7.894476503133773804e-02
8.720000000000000000e+02 3.617411422729492188e+01 -2.407945442199707031e+01 6.345222890377044678e-02 4.184761643409729004e-01 1.445785164833068848e-01 -3.878347575664520264e-02
8.730000000000000000e+02 6.343636703491210938e+01 -2.723219680786132812e+01 4.564491659402847290e-02 5.470738887786865234e+00 1.654915094375610352e+00 4.011413827538490295e-02
8.740000000000000000e+02 3.957045364379882812e+01 -2.882937622070312500e+01 9.062635898590087891e-02 1.089805603027343750e+00 3.541295826435089111e-01 -4.006425291299819946e-02
8.750000000000000000e+02 1.122454929351806641e+01 -3.106200027465820312e+01 3.004713915288448334e-03 3.721711458638310432e-03 2.017927588894963264e-03 -5.275774747133255005e-03
8.760000000000000000e+02 1.437432575225830078e+01 -1.766132736206054688e+01 -6.134827854111790657e-04 -1.682394358795136213e-04 -2.345166722079738975e-04 1.091224694391712546e-04
8.770000000000000000e+02 1.153565216064453125e+01 -1.709853744506835938e+01 -4.102427046746015549e-04 -4.502655428950674832e-05 -1.365807838737964630e-04 1.907324258354492486e-05
8.780000000000000000e+02 1.458627891540527344e+01 -1.069444370269775391e+01 5.704155191779136658e-04 3.324360295664519072e-05 1.810977410059422255e-04 -6.677322380710393190e-05
8.790000000000000000e+02 1.247926998138427734e+01 -1.046289730072021484e+01 3.078987065237015486e-04 1.005298690870404243e-04 1.225285814143717289e-04 -2.745102392509579659e-05
8.800000000000000000e+02 5.659088492393493652e-01 -1.074017333984375000e+01 9.596682502888143063e-05 -1.475512704018910881e-06 2.834739461832214147e-05 5.011354915041010827e-06
8.810000000000000000e+02 1.353145980834960938e+01 9.127255439758300781e+00 -1.139976011472754180e-04 -8.438217264483682811e-06 -3.673074752441607416e-05 -1.233970124303596094e-05
8.820000000000000000e+02 2.551187705993652344e+01 3.440621566772460938e+01 -4.087095335125923157e-02 -7.792473770678043365e-03 -1.459902804344892502e-02 -2.371858805418014526e-02
8.830000000000000000e+02 2.381017303466796875e+01 3.441304397583007812e+01 -1.635129004716873169e-02 -9.064501151442527771e-03 -7.624737452715635300e-03 -8.698983117938041687e-03
8.840000000000000000e+02 2.096570014953613281e+01 2.962457466125488281e+01 -2.676029456779360771e-03 -4.678040742874145508e-02 -1.483693066984415054e-02 -1.629373803734779358e-02
8.850000000000000000e+02 2.098490142822265625e+01 2.822785949707031250e+01 -2.358695259317755699e-03 -9.829521179199218750e-02 -3.019617311656475067e-02 -2.293952926993370056e-02
8.860000000000000000e+02 2.217612075805664062e+01 2.405381774902343750e+01 -8.101713843643665314e-03 -3.497830331325531006e-01 -1.073654219508171082e-01 -1.197478249669075012e-01
8.870000000000000000e+02 2.101635932922363281e+01 2.400932693481445312e+01 -1.928700366988778114e-03 -3.466139435768127441e-01 -1.045627966523170471e-01 -4.137329384684562683e-02
8.880000000000000000e+02 2.104694175720214844e+01 2.119648361206054688e+01 -1.372569124214351177e-03 -5.679361224174499512e-01 -1.707926094532012939e-01 -4.939341917634010315e-02
8.890000000000000000e+02 2.230548667907714844e+01 1.555696201324462891e+01 1.239968929439783096e-03 -9.773398041725158691e-01 -2.928299605846405029e-01 -1.599565893411636353e-01
8.900000000000000000e+02 2.105969810485839844e+01 1.555697536468505859e+01 9.348331368528306484e-04 -1.066734194755554199e+00 -3.197398185729980469e-01 -5.371548980474472046e-02
8.910000000000000000e+02 2.105617332458496094e+01 1.414731407165527344e+01 3.641134535428136587e-04 -1.194437742233276367e+00 -3.582220971584320068e-01 -5.261083692312240601e-02
8.920000000000000000e+02 2.227596855163574219e+01 1.132849025726318359e+01 2.802293514832854271e-03 -1.311989426612854004e+00 -3.927561640739440918e-01 -1.516126990318298340e-01
8.930000000000000000e+02 2.104726791381835938e+01 8.522790908813476562e+00 -1.840435317717492580e-03 -1.694672346115112305e+00 -5.089538097381591797e-01 -5.069873481988906860e-02
8.940000000000000000e+02 2.104510688781738281e+01 7.116463661193847656e+00 3.587519458960741758e-04 -1.823839545249938965e+00 -5.470442175865173340e-01 -5.270158872008323669e-02
8.950000000000000000e+02 2.224215888977050781e+01 4.290148735046386719e+00 -6.368479132652282715e-02 -1.777176976203918457e+00 -5.522585511207580566e-01 -1.746111512184143066e-01
8.960000000000000000e+02 2.092998695373535156e+01 2.880162239074707031e+00 -3.220168873667716980e-02 -2.114807844161987305e+00 -6.441028714179992676e-01 -1.864867061376571655e-01
8.970000000000000000e+02 2.081861114501953125e+01 1.475895285606384277e+00 -8.355323225259780884e-04 -2.031985282897949219e+00 -6.098462343215942383e-01 -1.807832270860671997e-01
8.980000000000000000e+02 2.073026657104492188e+01 7.794356346130371094e-02 2.313957922160625458e-02 -2.035972118377685547e+00 -6.038497686386108398e-01 -1.337548345327377319e-01
8.990000000000000000e+02 2.049466323852539062e+01 -4.132032394409179688e+00 9.901494719088077545e-03 -2.169239282608032227e+00 -6.478013396263122559e-01 -1.542800217866897583e-01
9.000000000000000000e+02 2.201099967956542969e+01 -2.767836809158325195e+00 -2.012592181563377380e-02 -1.930727839469909668e+00 -5.852561593055725098e-01 -1.415892541408538818e-01
9.010000000000000000e+02 2.034634590148925781e+01 -8.329722404479980469e+00 -1.793848467059433460e-03 -2.384271621704101562e+00 -7.158196568489074707e-01 -5.245724692940711975e-02
9.020000000000000000e+02 2.023562622070312500e+01 -1.254218864440917969e+01 -4.407542757689952850e-03 -2.544437170028686523e+00 -7.646534442901611328e-01 -9.678669273853302002e-02
9.030000000000000000e+02 2.027531433105468750e+01 -1.113823032379150391e+01 1.649221288971602917e-03 -2.476567745208740234e+00 -7.424755692481994629e-01 -9.940481185913085938e-02
9.040000000000000000e+02 2.159119415283203125e+01 -1.254430484771728516e+01 -3.471472859382629395e-02 -2.251780509948730469e+00 -6.859486103057861328e-01 -1.571635752916336060e-01
9.050000000000000000e+02 1.982592964172363281e+01 -1.955835342407226562e+01 2.809537015855312347e-02 -2.347843647003173828e+00 -6.959245204925537109e-01 -9.282618761062622070e-02
9.060000000000000000e+02 2.142281150817871094e+01 -1.816932487487792969e+01 5.370691791176795959e-02 -2.190437316894531250e+00 -6.410191655158996582e-01 -1.188353151082992554e-01
9.070000000000000000e+02 1.977012443542480469e+01 -2.237137794494628906e+01 -9.284021332859992981e-03 -2.471049547195434570e+00 -7.441000938415527344e-01 -8.414647728204727173e-02
9.080000000000000000e+02 1.969387245178222656e+01 -2.659781646728515625e+01 1.226081792265176773e-02 -2.540694952011108398e+00 -7.585302591323852539e-01 -2.347472496330738068e-02
9.090000000000000000e+02 1.969653511047363281e+01 -2.518066406250000000e+01 1.212657312862575054e-03 -2.485108375549316406e+00 -7.451686859130859375e-01 -3.523807600140571594e-02
9.100000000000000000e+02 1.971557998657226562e+01 -2.943037414550781250e+01 9.187766350805759430e-03 -2.629014015197753906e+00 -7.859478592872619629e-01 -2.397940680384635925e-02
9.110000000000000000e+02 1.972416877746582031e+01 -3.222367858886718750e+01 2.707224711775779724e-02 -2.772838115692138672e+00 -8.237298130989074707e-01 -5.171391367912292480e-02
9.120000000000000000e+02 2.136440467834472656e+01 -3.228392410278320312e+01 -9.017816185951232910e-02 -2.370524644851684570e+00 -7.382108569145202637e-01 -1.657748818397521973e-01
9.130000000000000000e+02 1.427450466156005859e+01 -3.169129371643066406e+01 1.105306786485016346e-03 2.761813520919531584e-04 4.144464328419417143e-04 -1.456722267903387547e-03
9.140000000000000000e+02 1.453663349151611328e+01 -2.756772041320800781e+01 9.261654922738671303e-04 -1.527909189462661743e-03 -1.805231295293197036e-04 6.773950735805556178e-05
9.150000000000000000e+02 1.300675773620605469e+01 -2.385264015197753906e+01 6.143003120087087154e-04 5.627533391816541553e-05 2.011726901400834322e-04 5.101129645481705666e-04
9.160000000000000000e+02 1.439263820648193359e+01 -2.350218963623046875e+01 -3.208226989954710007e-04 -7.186296861618757248e-04 -3.118357271887362003e-04 1.227878528879955411e-04
9.170000000000000000e+02 1.417254924774169922e+01 -2.055706024169921875e+01 -5.826874985359609127e-04 -1.811578113120049238e-04 -2.291535929543897510e-04 1.355340145892114379e-06
9.180000000000000000e+02 1.293236064910888672e+01 -1.739711952209472656e+01 3.837334807030856609e-04 -4.908999471808783710e-06 1.136473438236862421e-04 5.325647725840099156e-05
9.190000000000000000e+02 1.442175960540771484e+01 -1.625831222534179688e+01 6.184703670442104340e-04 -5.116674219607375562e-05 1.701910805422812700e-04 -4.168242594460025430e-05
9.200000000000000000e+02 1.459778499603271484e+01 -9.307931900024414062e+00 -5.159979918971657753e-04 -2.696575393201783299e-05 -1.628891332074999809e-04 4.132538379053585231e-05
9.210000000000000000e+02 1.254886436462402344e+01 -1.915618419647216797e+00 3.517994264257140458e-05 -7.416100743284914643e-06 8.329153388331178576e-06 -1.322481875831726938e-05
9.220000000000000000e+02 1.302103424072265625e+01 -2.797116041183471680e+00 -1.065281176124699414e-04 -4.109071232960559428e-05 -4.428565080161206424e-05 4.607041410054080188e-05
9.230000000000000000e+02 1.428660678863525391e+01 -2.021549940109252930e+00 -2.249530662083998322e-04 2.171271080442238599e-05 -6.097210643929429352e-05 -1.615273649804294109e-04
9.240000000000000000e+02 1.373861885070800781e+01 -2.028400421142578125e+00 1.716530096018686891e-04 1.746658017509616911e-05 5.673587656929157674e-05 -6.337571539916098118e-05
9.250000000000000000e+02 1.317953777313232422e+01 -1.973814725875854492e+00 5.676130604115314782e-05 -6.565211515408009291e-05 -2.667243961695930921e-06 2.400705852778628469e-05
9.260000000000000000e+02 1.183244132995605469e+01 -1.891795873641967773e+00 -8.972051000455394387e-05 3.912196007149759680e-06 -2.574249447206966579e-05 4.472866567084565759e-05
9.270000000000000000e+02 9.612883567810058594e+00 -1.862577438354492188e+00 6.123053753981366754e-05 7.253733201650902629e-05 4.013036232208833098e-05 1.016141504806000739e-05
9.280000000000000000e+02 1.036354923248291016e+01 -1.868900418281555176e+00 -5.315192902344278991e-05 -6.860990833956748247e-05 -3.652855230029672384e-05 1.467803394916700199e-05
9.290000000000000000e+02 8.852142333984375000e+00 -1.863166451454162598e+00 -7.254943920997902751e-05 -7.038837065920233727e-05 -4.288134005037136376e-05 -2.695658804441336542e-05
9.300000000000000000e+02 7.330754756927490234e+00 -1.870446324348449707e+00 -9.736687934491783381e-05 -5.842082100571133196e-05 -4.673630974139086902e-05 -1.691088255029171705e-05
9.310000000000000000e+02 5.811368942260742188e+00 -1.876794457435607910e+00 -9.846989996731281281e-05 -6.049796866136603057e-05 -4.769036240759305656e-05 5.980769856250844896e-06
9.320000000000000000e+02 3.524363994598388672e+00 -1.946506261825561523e+00 5.986773248878307641e-05 8.683337364345788956e-05 4.401033220347017050e-05 1.882410651887767017e-05
9.330000000000000000e+02 5.049189090728759766e+00 -1.885552167892456055e+00 8.367845293832942843e-05 9.192660945700481534e-05 5.268152017379179597e-05 1.932897794176824391e-05
9.340000000000000000e+02 2.764143943786621094e+00 -1.978808760643005371e+00 -2.690139262995216995e-05 -7.689776975894346833e-05 -3.113974889856763184e-05 -2.679323733900673687e-05
9.350000000000000000e+02 1.999340057373046875e+00 -2.037138938903808594e+00 2.624513581395149231e-05 8.593046368332579732e-05 3.365267912158742547e-05 8.747910032980144024e-05
9.360000000000000000e+02 1.226357460021972656e+00 -2.136923551559448242e+00 -9.399664850207045674e-05 -1.385171344736590981e-05 -3.235451004002243280e-05 -7.447713142028078437e-05
9.370000000000000000e+02 2.068093299865722656e+00 -4.159947204589843750e+01 -2.138662093784660101e-04 2.107712067663669586e-02 6.258976645767688751e-03 1.764994885888881981e-05
9.380000000000000000e+02 5.270529270172119141e+00 -3.718682479858398438e+01 -6.261928356252610683e-04 3.205657238140702248e-03 7.738393032923340797e-04 1.291065104305744171e-02
9.390000000000000000e+02 9.671564102172851562e-01 -3.856213760375976562e+01 4.763064906001091003e-03 1.901665516197681427e-02 7.133916020393371582e-03 3.580840071663260460e-03
9.400000000000000000e+02 7.753332257270812988e-01 -3.477873611450195312e+01 -3.504964755848050117e-03 7.407810539007186890e-03 1.170853734947741032e-03 6.155507289804518223e-04
9.410000000000000000e+02 8.343179821968078613e-01 -3.331497192382812500e+01 1.562327262945473194e-03 5.144964903593063354e-03 2.012187615036964417e-03 1.941701630130410194e-03
9.420000000000000000e+02 6.246068477630615234e-01 -2.898624992370605469e+01 -1.704446156509220600e-03 -4.165536083746701479e-04 -6.362999556586146355e-04 7.908014231361448765e-05
9.430000000000000000e+02 5.914624929428100586e-01 -2.758271026611328125e+01 1.910830149427056313e-03 -8.687364170327782631e-04 3.126281371805816889e-04 2.627204812597483397e-04
9.440000000000000000e+02 5.818647146224975586e-01 -2.618764114379882812e+01 -1.791805960237979889e-03 -8.939396939240396023e-04 -8.057237137109041214e-04 -2.266646479256451130e-04
9.450000000000000000e+02 6.035413742065429688e-01 -2.198963356018066406e+01 1.338661764748394489e-03 -4.918723716400563717e-04 2.540368295740336180e-04 4.559838635032065213e-05
9.460000000000000000e+02 6.103418469429016113e-01 -2.058649635314941406e+01 -1.156725455075502396e-03 -3.232879389543086290e-04 -4.440040211193263531e-04 -1.505408727098256350e-04
9.470000000000000000e+02 1.845936298370361328e+00 -2.059047889709472656e+01 1.060803886502981186e-03 -2.620057202875614166e-04 2.396394265815615654e-04 1.127128853113390505e-04
9.480000000000000000e+02 6.121215820312500000e-01 -1.637027740478515625e+01 5.495874793268740177e-04 -1.033948938129469752e-04 1.338577712886035442e-04 5.067825986770913005e-05
9.490000000000000000e+02 6.084895730018615723e-01 -1.496193981170654297e+01 -3.866183105856180191e-04 -4.575330603984184563e-05 -1.297114795306697488e-04 -7.196536898845806718e-05
9.500000000000000000e+02 5.996961593627929688e-01 -1.355308341979980469e+01 2.484114957042038441e-04 -3.001972800120711327e-05 6.551752449013292789e-05 3.355055014253593981e-05
9.510000000000000000e+02 1.814850807189941406e+00 -1.361930847167968750e+01 -3.847878542728722095e-04 -3.632309380918741226e-05 -1.263332815142348409e-04 -1.617404050193727016e-04
9.520000000000000000e+02 5.463593602180480957e-01 -9.339692115783691406e+00 -6.855012907180935144e-05 -9.558259534969693050e-07 -2.085178493871353567e-05 6.920756732142763212e-06
9.530000000000000000e+02 5.340790152549743652e-01 -7.945404052734375000e+00 6.218576163519173861e-05 9.807622518565040082e-06 2.159801442758180201e-05 -2.306975329702254385e-05
9.540000000000000000e+02 4.426588535308837891e+00 -2.704196214675903320e+00 7.216863014036789536e-05 1.145490823546424508e-04 5.601531302090734243e-05 2.137156116077676415e-05
9.550000000000000000e+02 5.407415032386779785e-01 -6.550137996673583984e+00 -7.120109512470662594e-05 -7.918966957731754519e-07 -2.159789801225997508e-05 3.340601324453018606e-05
9.560000000000000000e+02 7.470400238037109375e+01 -4.003545379638671875e+01 3.278654068708419800e-02 7.575976848602294922e+00 2.282629013061523438e+00 -4.097818955779075623e-02
9.570000000000000000e+02 3.244890594482421875e+01 -4.064440917968750000e+01 1.140609979629516602e-01 -2.268393337726593018e-01 -3.383349999785423279e-02 2.584089338779449463e-02
9.580000000000000000e+02 1.155182361602783203e+01 -3.943718719482421875e+01 -3.057515248656272888e-02 -2.832115255296230316e-02 -1.766889169812202454e-02 5.371323972940444946e-02
9.590000000000000000e+02 7.811032104492187500e+01 4.173036575317382812e+01 -4.139113724231719971e-01 6.537397384643554688e+00 1.837045788764953613e+00 1.156368404626846313e-01
9.600000000000000000e+02 7.789856719970703125e+01 3.789114379882812500e+01 5.074067413806915283e-02 6.239411354064941406e+00 1.887045621871948242e+00 3.327507376670837402e-01
9.610000000000000000e+02 7.937965393066406250e+01 3.489803695678710938e+01 -1.247307937592267990e-02 4.928094863891601562e+00 1.474686503410339355e+00 1.324667036533355713e-01
9.620000000000000000e+02 7.823736572265625000e+01 3.382035827636718750e+01 8.364212512969970703e-02 5.469414234161376953e+00 1.665916919708251953e+00 2.261167764663696289e-01
9.630000000000000000e+02 7.940480041503906250e+01 3.355993652343750000e+01 4.759693518280982971e-02 4.665535449981689453e+00 1.413939714431762695e+00 8.062879741191864014e-02
9.640000000000000000e+02 7.931499481201171875e+01 3.081253814697265625e+01 4.455193504691123962e-02 4.533231735229492188e+00 1.373335123062133789e+00 -3.030833974480628967e-02
9.650000000000000000e+02 7.710836029052734375e+01 2.795345687866210938e+01 2.089853137731552124e-01 6.282027721405029297e+00 1.947303891181945801e+00 -5.962245464324951172e-01
9.660000000000000000e+02 7.940628814697265625e+01 2.651311302185058594e+01 6.992878392338752747e-03 5.311007499694824219e+00 1.595400214195251465e+00 -1.990185081958770752e-01
9.670000000000000000e+02 7.720115661621093750e+01 2.518569564819335938e+01 6.092638149857521057e-02 6.710049152374267578e+00 2.031292676925659180e+00 -8.079782128334045410e-01
9.680000000000000000e+02 7.942346191406250000e+01 2.511093139648437500e+01 7.198388222604990005e-03 5.766186237335205078e+00 1.732015371322631836e+00 -2.144669145345687866e-01
9.690000000000000000e+02 7.942916107177734375e+01 2.093115615844726562e+01 -6.585762370377779007e-03 7.185744762420654297e+00 2.153747797012329102e+00 -2.043300867080688477e-01
9.700000000000000000e+02 7.942743682861328125e+01 1.953768920898437500e+01 -8.834423497319221497e-03 7.593788623809814453e+00 2.275486230850219727e+00 -1.835715770721435547e-01
9.710000000000000000e+02 7.717124938964843750e+01 1.964120483398437500e+01 -1.101481989026069641e-01 7.739530086517333984e+00 2.288814544677734375e+00 -6.575446128845214844e-01
9.720000000000000000e+02 7.942388916015625000e+01 1.814393043518066406e+01 -8.711718022823333740e-03 7.943971633911132812e+00 2.380578041076660156e+00 -1.607502549886703491e-01
9.730000000000000000e+02 7.940370941162109375e+01 1.396140480041503906e+01 -9.308977052569389343e-03 8.632957458496093750e+00 2.587094545364379883e+00 -9.315983951091766357e-02
9.740000000000000000e+02 7.939781951904296875e+01 1.256643390655517578e+01 -5.565422587096691132e-03 8.761129379272460938e+00 2.626669168472290039e+00 -7.535331696271896362e-02
9.750000000000000000e+02 7.939408111572265625e+01 1.117240333557128906e+01 -6.725364364683628082e-03 8.851771354675292969e+00 2.653513669967651367e+00 -6.053149327635765076e-02
9.760000000000000000e+02 7.938362884521484375e+01 6.984654426574707031e+00 -2.968294778838753700e-03 8.957536697387695312e+00 2.686370372772216797e+00 -2.759057655930519104e-02
9.770000000000000000e+02 7.937763214111328125e+01 5.589597225189208984e+00 -3.080861875787377357e-03 8.954502105712890625e+00 2.685426473617553711e+00 -2.056122757494449615e-02
9.780000000000000000e+02 7.937129211425781250e+01 4.196261882781982422e+00 -8.710190886631608009e-04 8.940795898437500000e+00 2.681977510452270508e+00 -1.611269265413284302e-02
9.790000000000000000e+02 7.935673522949218750e+01 1.628459990024566650e-02 -1.991546945646405220e-03 8.862342834472656250e+00 2.658105373382568359e+00 -6.516983732581138611e-03
9.800000000000000000e+02 7.935301208496093750e+01 -1.375339627265930176e+00 1.561077806400135159e-04 8.829223632812500000e+00 2.648813962936401367e+00 -4.568770527839660645e-03
9.810000000000000000e+02 7.804740905761718750e+01 -4.117334365844726562e+00 -1.094660139642655849e-03 8.499120712280273438e+00 2.549407720565795898e+00 2.717922069132328033e-02
9.820000000000000000e+02 7.935021209716796875e+01 -4.157673358917236328e+00 1.771571405697613955e-04 8.761717796325683594e+00 2.628568410873413086e+00 -3.187313210219144821e-03
9.830000000000000000e+02 7.935264587402343750e+01 -8.327085494995117188e+00 -6.829315680079162121e-04 8.665665626525878906e+00 2.599494695663452148e+00 -2.238476648926734924e-03
9.840000000000000000e+02 7.804856872558593750e+01 -1.103256988525390625e+01 1.132124452851712704e-03 8.361754417419433594e+00 2.508866071701049805e+00 2.190099842846393585e-02
9.850000000000000000e+02 7.934952545166015625e+01 -1.110925960540771484e+01 -6.508599617518484592e-04 8.608335494995117188e+00 2.582305431365966797e+00 -2.189673949033021927e-03
9.860000000000000000e+02 7.934568786621093750e+01 -1.528515625000000000e+01 3.929649537894874811e-04 8.536580085754394531e+00 2.561091661453247070e+00 -2.733691362664103508e-03
9.870000000000000000e+02 7.803237915039062500e+01 -1.798946952819824219e+01 2.247792581329122186e-04 8.256063461303710938e+00 2.476886510848999023e+00 1.409366913139820099e-02
9.880000000000000000e+02 7.934272766113281250e+01 -1.807283020019531250e+01 1.458373008063063025e-04 8.497351646423339844e+00 2.549249410629272461e+00 -2.667484804987907410e-03
9.890000000000000000e+02 7.932277679443359375e+01 -2.365401649475097656e+01 1.449251431040465832e-03 8.435058593750000000e+00 2.530952215194702148e+00 -2.535118954256176949e-03
9.900000000000000000e+02 7.794423675537109375e+01 -2.498801803588867188e+01 2.812127349898219109e-03 8.176603317260742188e+00 2.453824520111083984e+00 6.314561236649751663e-03
9.910000000000000000e+02 7.931482696533203125e+01 -2.505098915100097656e+01 -2.256566891446709633e-03 8.422213554382324219e+00 2.525987148284912109e+00 -1.547725521959364414e-03
9.920000000000000000e+02 7.929441833496093750e+01 -2.924821090698242188e+01 4.123781342059373856e-03 8.402990341186523438e+00 2.522134065628051758e+00 -3.365911543369293213e-03
9.930000000000000000e+02 7.791009521484375000e+01 -3.202864074707031250e+01 -6.546698510646820068e-03 8.138109207153320312e+00 2.439468622207641602e+00 3.760300576686859131e-03
9.940000000000000000e+02 7.931169891357421875e+01 -3.203127670288085938e+01 -2.967736683785915375e-03 8.392752647399902344e+00 2.516935586929321289e+00 1.503363484516739845e-03
9.950000000000000000e+02 7.936895751953125000e+01 -3.609994125366210938e+01 7.061076350510120392e-03 8.321177482604980469e+00 2.498471736907958984e+00 1.314191613346338272e-02
9.960000000000000000e+02 7.925385284423828125e+01 -3.740385818481445312e+01 -1.350440271198749542e-02 8.271396636962890625e+00 2.477367639541625977e+00 2.532630413770675659e-02
9.970000000000000000e+02 7.899079895019531250e+01 -3.868487930297851562e+01 -2.077340148389339447e-03 8.215374946594238281e+00 2.463989257812500000e+00 3.442277386784553528e-02
9.980000000000000000e+02 7.859077453613281250e+01 -4.002336502075195312e+01 -1.951216533780097961e-02 8.155425071716308594e+00 2.440773725509643555e+00 5.306743085384368896e-02
9.990000000000000000e+02 4.783010959625244141e+00 4.053675460815429688e+01 -3.048733924515545368e-04 -7.060567440930753946e-05 -1.126437127823010087e-04 1.009094848996028304e-04
1.000000000000000000e+03 2.742798805236816406e+01 3.804872131347656250e+01 1.860173884779214859e-03 1.523999962955713272e-03 1.015252084471285343e-03 -1.626343932002782822e-03
1.001000000000000000e+03 4.661331558227539062e+01 3.759381484985351562e+01 1.264500468969345093e-01 -2.246546447277069092e-01 -2.946138195693492889e-02 2.707353830337524414e-01
1.002000000000000000e+03 6.811091613769531250e+01 3.863805389404296875e+01 -1.570129036903381348e+00 1.093970012664794922e+01 2.810871362686157227e+00 5.162529349327087402e-01
1.003000000000000000e+03 6.764246821403503418e-01 3.021836280822753906e+00 4.411306872498244047e-05 -1.133695150201674551e-05 9.832835530687589198e-06 6.747636507498100400e-05
1.004000000000000000e+03 3.098738670349121094e+00 2.750633716583251953e+00 -4.542081296676769853e-05 -2.616485835460480303e-05 -2.147570194210857153e-05 -1.679311935731675476e-06
1.005000000000000000e+03 5.264756679534912109e+00 2.713027477264404297e+00 2.757389847829472274e-05 2.391911402810364962e-05 1.544790393381845206e-05 -6.938639671716373414e-06
1.006000000000000000e+03 1.641924738883972168e+00 6.325691223144531250e+00 8.760060154600068927e-05 1.482714651501737535e-05 3.072832623729482293e-05 -1.094393064704490826e-05
1.007000000000000000e+03 5.673846602439880371e-01 9.255483627319335938e+00 -1.054754466167651117e-04 -2.133530188075383194e-07 -3.170664058416150510e-05 7.203530458355089650e-06
1.008000000000000000e+03 5.922644138336181641e-01 1.208255481719970703e+01 -1.361362956231459975e-04 -3.841636498691514134e-06 -4.199338218313641846e-05 1.119771604862762615e-05
1.009000000000000000e+03 1.776653528213500977e+00 1.203867435455322266e+01 1.330128288827836514e-04 1.227475240739295259e-05 4.358627484180033207e-05 -1.657634129514917731e-05
1.010000000000000000e+03 5.902084112167358398e-01 1.630211639404296875e+01 2.140413125744089484e-04 -9.296042549067351501e-07 6.393351213773712516e-05 -1.991049430216662586e-05
1.011000000000000000e+03 1.817878723144531250e+00 1.756323623657226562e+01 2.318550250492990017e-04 -2.352957926632370800e-05 6.249763100640848279e-05 -1.950283149199094623e-05
1.012000000000000000e+03 6.087189316749572754e-01 1.770242309570312500e+01 -2.243547933176159859e-04 6.921884505572961643e-07 -6.709877925459295511e-05 1.509182857262203470e-05
1.013000000000000000e+03 6.699801683425903320e-01 2.196627426147460938e+01 2.021388499997556210e-04 5.017210469304700382e-07 6.079216836951673031e-05 -3.403338268981315196e-06
1.014000000000000000e+03 6.641720533370971680e-01 2.339004898071289062e+01 -2.058220852632075548e-04 -1.303087515225342941e-06 -6.213755114004015923e-05 2.519508370824041776e-06
1.015000000000000000e+03 1.989413499832153320e+00 2.334956550598144531e+01 2.280789776705205441e-04 1.300978851759282406e-06 6.881398439873009920e-05 1.047864770953310654e-05
1.016000000000000000e+03 6.558198332786560059e-01 2.480563163757324219e+01 2.104136219713836908e-04 1.240117626366554759e-07 6.316129292827099562e-05 -1.081006530512240715e-06
1.017000000000000000e+03 6.581726074218750000e-01 2.904660224914550781e+01 -1.898224436445161700e-04 3.921455800082185306e-07 -5.682908886228688061e-05 -1.309283015871187672e-05
1.018000000000000000e+03 6.722206473350524902e-01 3.045846748352050781e+01 1.681309222476556897e-04 7.132437644941092003e-07 5.065324876341037452e-05 1.542778227303642780e-05
1.019000000000000000e+03 2.081079959869384766e+00 3.181070899963378906e+01 2.062115672742947936e-04 2.404067527095321566e-05 6.907567149028182030e-05 3.886788181262090802e-05
1.020000000000000000e+03 6.845198869705200195e-01 3.186771202087402344e+01 -1.487778208684176207e-04 -7.621013082825811580e-06 -4.691964932135306299e-05 -1.001265445665922016e-05
1.021000000000000000e+03 6.678978204727172852e-01 3.606129455566406250e+01 2.940988051705062389e-04 3.959703826694749296e-05 1.001087512122467160e-04 -8.318871550727635622e-05
1.022000000000000000e+03 1.972277641296386719e+00 3.717990493774414062e+01 2.833795442711561918e-04 4.792718027601949871e-05 9.939201845554634929e-05 -1.610980834811925888e-04
1.023000000000000000e+03 8.574781417846679688e-01 3.875456619262695312e+01 4.217871464788913727e-04 4.594028723658993840e-05 1.403182250214740634e-04 -9.644408419262617826e-05
1.024000000000000000e+03 1.236612558364868164e+00 4.010267257690429688e+01 -3.619428316596895456e-04 4.154592170380055904e-05 -9.611907444195821881e-05 4.913518205285072327e-05
1.025000000000000000e+03 1.039004993438720703e+01 1.850601553916931152e+00 3.165619637002237141e-05 3.628502099672914483e-06 1.058540965459542349e-05 -5.293738922773627564e-06
1.026000000000000000e+03 8.930524826049804688e+00 1.877569079399108887e+00 2.713463982217945158e-05 9.644677447795402259e-06 1.103379509004298598e-05 2.695921466511208564e-06
1.027000000000000000e+03 8.208869934082031250e+00 1.881762146949768066e+00 -2.378247336309868842e-05 -1.329093720414675772e-05 -1.112202335207257420e-05 -2.402217887720325962e-06
1.028000000000000000e+03 8.180009841918945312e+00 2.647712230682373047e+00 3.078768713749013841e-05 1.761564453772734851e-05 1.452099968446418643e-05 5.954322205070639029e-06
1.029000000000000000e+03 7.488845348358154297e+00 1.884975194931030273e+00 2.213327024946920574e-05 1.617851012269966304e-05 1.149353374785277992e-05 5.530277462639787700e-07
1.030000000000000000e+03 5.327532768249511719e+00 1.903720974922180176e+00 -2.138702438969630748e-05 -1.961975613085087389e-05 -1.230203361046733335e-05 7.414760148094501346e-06
1.031000000000000000e+03 4.604815483093261719e+00 1.913678526878356934e+00 2.491649320290889591e-05 1.906124271044973284e-05 1.319332113780546933e-05 -8.264970347227063030e-06
1.032000000000000000e+03 3.889631509780883789e+00 1.916378855705261230e+00 -3.144205766147933900e-05 -1.899591370602138340e-05 -1.513139159214915708e-05 6.800381015636958182e-06
1.033000000000000000e+03 3.185999870300292969e+00 1.906336784362792969e+00 3.757731610676273704e-05 1.810058893170207739e-05 1.670337223913520575e-05 -1.635470567862284952e-07
1.034000000000000000e+03 2.492162704467773438e+00 1.889891266822814941e+00 -3.219162317691370845e-05 -2.095337367791216820e-05 -1.594349851075094193e-05 -8.306434210680890828e-06
1.035000000000000000e+03 1.803364276885986328e+00 1.884331226348876953e+00 1.700925713521428406e-05 2.643198786245193332e-05 1.303237331740092486e-05 8.285373951366636902e-06
1.036000000000000000e+03 1.186962699890136719e+01 1.776615142822265625e+00 2.342522384424228221e-05 8.410524060309398919e-06 9.550723916618153453e-06 -1.229794361279346049e-05
1.037000000000000000e+03 1.436557102203369141e+01 2.970814943313598633e+00 -5.938662070548161864e-06 -1.264628372155129910e-05 -5.575484010478248820e-06 2.809374018397647887e-05
1.038000000000000000e+03 1.460297679901123047e+01 3.780540704727172852e+00 5.502595740836113691e-05 9.443398084840737283e-06 1.934080682985950261e-05 -1.437096670997561887e-05
1.039000000000000000e+03 1.479559803009033203e+01 2.009629964828491211e+00 -3.697782813105732203e-05 -9.090484127227682620e-06 -1.382049413223285228e-05 -3.475823859844240360e-06
1.040000000000000000e+03 1.462119007110595703e+01 6.350848674774169922e+00 9.741835674503818154e-05 3.728620185938780196e-06 3.034409201063681394e-05 -1.029412487696390599e-05
1.041000000000000000e+03 1.460739517211914062e+01 7.706006050109863281e+00 -1.131738245021551847e-04 -3.387168362678494304e-06 -3.496829594951122999e-05 6.688131179544143379e-06
1.042000000000000000e+03 1.458610630035400391e+01 9.071325302124023438e+00 1.287252234760671854e-04 2.567448063928168267e-06 3.938780355383642018e-05 -2.551536454120650887e-06
1.043000000000000000e+03 1.451848220825195312e+01 1.181650733947753906e+01 1.592174230609089136e-04 -8.875993557921901811e-07 4.749894651467911899e-05 2.818903112711268477e-06
1.044000000000000000e+03 1.445997428894042969e+01 1.320589828491210938e+01 -1.678777625784277916e-04 5.067663551017176360e-06 -4.884302688878960907e-05 1.940932406796491705e-06
1.045000000000000000e+03 1.439441490173339844e+01 1.461119174957275391e+01 1.757270074449479580e-04 2.199150003434624523e-06 5.337784750736318529e-05 -4.343360160419251770e-06
1.046000000000000000e+03 1.438095474243164062e+01 1.601903343200683594e+01 -1.960694498848170042e-04 4.712751433544326574e-07 -5.867945219506509602e-05 2.233578470622887835e-06
1.047000000000000000e+03 1.322039413452148438e+01 2.035993385314941406e+01 -2.567578922025859356e-04 -9.266505003324709833e-06 -7.980732334544882178e-05 2.631354800541885197e-05
1.048000000000000000e+03 1.454852771759033203e+01 2.158378791809082031e+01 -2.927210589405149221e-04 -2.945775349871837534e-06 -8.870004967320710421e-05 2.124144521076232195e-05
1.049000000000000000e+03 1.485961151123046875e+01 2.569103813171386719e+01 4.261527210474014282e-04 1.289204192289616913e-05 1.317134301643818617e-04 1.762018837325740606e-05
1.050000000000000000e+03 1.343165111541748047e+01 2.307157516479492188e+01 -2.937435056082904339e-04 -1.003359830065164715e-05 -9.113312989939004183e-05 7.892244866525288671e-06
1.051000000000000000e+03 1.496393680572509766e+01 2.705361366271972656e+01 -4.961732774972915649e-04 -4.361289029475301504e-06 -1.501603692304342985e-04 -3.452251985436305404e-05
1.052000000000000000e+03 1.510006713867187500e+01 2.841539955139160156e+01 5.704111536033451557e-04 7.244658718263963237e-06 1.732967502903193235e-04 4.629365139408037066e-05
1.053000000000000000e+03 1.571779346466064453e+01 3.263854598999023438e+01 -6.282062386162579060e-04 -1.420449279976310208e-06 -1.888879924081265926e-04 7.566000567749142647e-05
1.054000000000000000e+03 1.628949928283691406e+01 3.400353240966796875e+01 6.820696289651095867e-04 -2.885236426664050668e-05 1.959651854122057557e-04 -1.904666860355064273e-04
1.055000000000000000e+03 1.527662754058837891e+01 3.563277435302734375e+01 9.229799616150557995e-04 6.402122380677610636e-05 2.961003629025071859e-04 -1.888854603748768568e-04
1.056000000000000000e+03 1.717527580261230469e+01 3.647625732421875000e+01 1.467115478590130806e-03 4.300339496694505215e-04 5.691448459401726723e-04 4.719340649899095297e-04
1.057000000000000000e+03 1.883001708984375000e+01 3.817996978759765625e+01 9.116434375755488873e-04 8.216964779421687126e-04 5.200019804760813713e-04 -4.621540210791863501e-05
1.058000000000000000e+03 2.169395828247070312e+01 3.828724670410156250e+01 5.027961451560258865e-04 -4.674091760534793139e-04 1.061608236341271549e-05 9.618782496545463800e-05
1.059000000000000000e+03 2.330860519409179688e+01 3.852280426025390625e+01 -5.158969725016504526e-05 1.086703923647291958e-05 -1.221679758600657806e-05 -3.141906054224818945e-04
1.060000000000000000e+03 2.515915870666503906e+01 3.865533065795898438e+01 1.091574551537632942e-03 9.086863428819924593e-06 3.301984106656163931e-04 -7.729392964392900467e-04
1.061000000000000000e+03 2.824549484252929688e+01 3.809106063842773438e+01 8.111622883006930351e-04 3.074831329286098480e-04 3.355936205480247736e-04 -2.285450696945190430e-03
1.062000000000000000e+03 2.918103599548339844e+01 3.807561111450195312e+01 1.339109847322106361e-03 9.456019033677875996e-04 6.854135426692664623e-04 -2.750054467469453812e-03
1.063000000000000000e+03 3.147893142700195312e+01 3.734133148193359375e+01 3.664838615804910660e-03 -6.729625747539103031e-04 8.975628297775983810e-04 -1.807169610401615500e-04
1.064000000000000000e+03 3.261164093017578125e+01 3.732597732543945312e+01 1.222840393893420696e-03 -1.543187419883906841e-03 -9.610410052118822932e-05 7.556187338195741177e-04
1.065000000000000000e+03 3.385124588012695312e+01 3.729570007324218750e+01 -3.312435233965516090e-03 -8.131520822644233704e-03 -3.433186793699860573e-03 6.857757456600666046e-03
1.066000000000000000e+03 3.473814773559570312e+01 3.721834182739257812e+01 -3.112760838121175766e-03 -1.365653611719608307e-02 -5.030788946896791458e-03 7.764681708067655563e-03
1.067000000000000000e+03 3.634300231933593750e+01 3.679211044311523438e+01 -1.183025538921356201e-02 -1.325023546814918518e-02 -7.524147164076566696e-03 1.944975368678569794e-02
1.068000000000000000e+03 3.807149505615234375e+01 3.777273559570312500e+01 -6.687080487608909607e-03 -5.458706244826316833e-02 -1.838224194943904877e-02 5.115934088826179504e-02
1.069000000000000000e+03 3.959122085571289062e+01 3.632075881958007812e+01 -4.601140320301055908e-02 -4.121693223714828491e-02 -2.616850100457668304e-02 8.268912136554718018e-02
1.070000000000000000e+03 4.033611297607421875e+01 3.604256057739257812e+01 -6.748685240745544434e-02 -6.027878820896148682e-02 -3.832969069480895996e-02 8.102635294198989868e-02
1.071000000000000000e+03 4.097180557250976562e+01 3.573760604858398438e+01 -8.699388802051544189e-02 -5.108895897865295410e-02 -4.142485558986663818e-02 1.123397499322891235e-01
1.072000000000000000e+03 4.429014205932617188e+01 3.623985671997070312e+01 -8.749643713235855103e-02 -1.340755671262741089e-01 -6.647160649299621582e-02 2.267486006021499634e-01
1.073000000000000000e+03 4.380313491821289062e+01 3.521214675903320312e+01 -1.730413585901260376e-01 -8.222825825214385986e-02 -7.658088207244873047e-02 1.820187419652938843e-01
1.074000000000000000e+03 4.525281524658203125e+01 3.480589294433593750e+01 -2.692087590694427490e-01 -9.507770091295242310e-02 -1.092859432101249695e-01 2.281048148870468140e-01
1.075000000000000000e+03 4.667715835571289062e+01 3.460400772094726562e+01 -3.707853257656097412e-01 -1.066072136163711548e-01 -1.432177573442459106e-01 2.735635936260223389e-01
1.076000000000000000e+03 4.819217681884765625e+01 3.451704406738281250e+01 -4.433796703815460205e-01 -1.286784261465072632e-01 -1.716174334287643433e-01 3.562023043632507324e-01
1.077000000000000000e+03 5.107866287231445312e+01 3.388985443115234375e+01 -7.846885919570922852e-01 -9.294035285711288452e-02 -2.632886767387390137e-01 4.361167252063751221e-01
1.078000000000000000e+03 5.180373001098632812e+01 3.382987594604492188e+01 -8.540419340133666992e-01 -8.472874760627746582e-02 -2.816312015056610107e-01 4.266761541366577148e-01
1.079000000000000000e+03 5.327806472778320312e+01 3.365844345092773438e+01 -9.808621406555175781e-01 -5.491978675127029419e-02 -3.107345998287200928e-01 4.471119344234466553e-01
1.080000000000000000e+03 5.401598739624023438e+01 3.354250717163085938e+01 -1.046008586883544922e+00 -4.486179351806640625e-02 -3.272611200809478760e-01 4.406329989433288574e-01
1.081000000000000000e+03 5.637288284301757812e+01 3.409991455078125000e+01 -4.911164343357086182e-01 8.336512744426727295e-02 -1.223253905773162842e-01 2.031742036342620850e-01
1.082000000000000000e+03 5.621104812622070312e+01 3.324847412109375000e+01 -1.146625638008117676e+00 2.326434291899204254e-02 -3.370083570480346680e-01 3.428287804126739502e-01
1.083000000000000000e+03 5.830199432373046875e+01 3.299915313720703125e+01 -8.976640701293945312e-01 1.674779206514358521e-01 -2.190558463335037231e-01 4.898442327976226807e-02
1.084000000000000000e+03 6.006952667236328125e+01 3.283024215698242188e+01 -2.495052367448806763e-01 6.530250310897827148e-01 1.210559383034706116e-01 -6.620231866836547852e-01
1.085000000000000000e+03 6.061959075927734375e+01 3.277490997314453125e+01 2.245488613843917847e-01 9.300768971443176270e-01 3.463877141475677490e-01 -1.179495096206665039e+00
1.086000000000000000e+03 6.101602935791015625e+01 3.272329330444335938e+01 5.515346527099609375e-01 1.167611718177795410e+00 5.157439112663269043e-01 -1.519404649734497070e+00
1.087000000000000000e+03 6.340420913696289062e+01 3.264982604980468750e+01 1.394608139991760254e+00 1.244968032836914062e+01 4.153286457061767578e+00 -6.214653015136718750e+00
1.088000000000000000e+03 6.361894989013671875e+01 3.265536499023437500e+01 8.457761406898498535e-01 1.476845836639404297e+01 4.684270381927490234e+00 -5.904615402221679688e+00
1.089000000000000000e+03 6.448229980468750000e+01 3.249137496948242188e+01 8.029177784919738770e-01 2.015522384643554688e+01 6.287442684173583984e+00 -1.302163481712341309e+00
1.090000000000000000e+03 6.468490600585937500e+01 3.240053558349609375e+01 1.566510438919067383e+00 2.057530212402343750e+01 6.642543792724609375e+00 8.984070271253585815e-02
1.091000000000000000e+03 6.501407623291015625e+01 3.211113739013671875e+01 3.838909864425659180e+00 2.004683685302734375e+01 7.165723800659179688e+00 2.136532545089721680e+00
1.092000000000000000e+03 6.554535675048828125e+01 3.217247009277343750e+01 4.573009967803955078e+00 1.737853431701660156e+01 6.585463523864746094e+00 2.378248214721679688e+00
1.093000000000000000e+03 6.544220733642578125e+01 3.163245201110839844e+01 7.453355312347412109e+00 1.757317352294921875e+01 7.507958889007568359e+00 2.607741117477416992e+00
1.094000000000000000e+03 6.585791778564453125e+01 3.178298187255859375e+01 6.439117908477783203e+00 1.587828922271728516e+01 6.695222377777099609e+00 2.306135416030883789e+00
1.095000000000000000e+03 6.549771881103515625e+01 3.115662193298339844e+01 9.867426872253417969e+00 1.655339431762695312e+01 7.926246166229248047e+00 1.376016139984130859e+00
1.096000000000000000e+03 6.536302947998046875e+01 3.010717773437500000e+01 7.488731861114501953e+00 1.807085227966308594e+01 7.667875289916992188e+00 -2.403221607208251953e+00
1.097000000000000000e+03 6.477033996582031250e+01 2.944517707824707031e+01 2.133881807327270508e+00 2.034087753295898438e+01 6.742427825927734375e+00 -3.279858231544494629e-01
1.098000000000000000e+03 6.211354064941406250e+01 2.930953216552734375e+01 2.091208457946777344e+00 2.920278787612915039e+00 1.503446221351623535e+00 4.109256267547607422e+00
1.099000000000000000e+03 6.130584716796875000e+01 2.930525207519531250e+01 7.385146021842956543e-01 1.241024971008300781e+00 5.938618779182434082e-01 2.339701175689697266e+00
1.100000000000000000e+03 6.042076873779296875e+01 2.927873802185058594e+01 -4.690057039260864258e-01 5.777326226234436035e-01 3.261808305978775024e-02 1.382057428359985352e+00
1.101000000000000000e+03 5.759365844726562500e+01 2.825014114379882812e+01 -1.026816487312316895e+00 2.853478789329528809e-01 -2.224405705928802490e-01 6.527618169784545898e-01
1.102000000000000000e+03 5.798152542114257812e+01 2.938104057312011719e+01 -2.114189386367797852e+00 7.128491997718811035e-02 -6.128713488578796387e-01 3.787746429443359375e-01
1.103000000000000000e+03 5.506708526611328125e+01 2.962691879272460938e+01 -2.701559066772460938e+00 -9.003174491226673126e-03 -8.131687045097351074e-01 9.170763939619064331e-02
1.104000000000000000e+03 5.581791305541992188e+01 2.956729316711425781e+01 -2.658346414566040039e+00 -5.092767998576164246e-03 -7.990317940711975098e-01 1.296935826539993286e-01
1.105000000000000000e+03 5.281197357177734375e+01 2.985258865356445312e+01 -2.663905382156372070e+00 -4.025852307677268982e-03 -8.003793358802795410e-01 4.114367812871932983e-02
1.106000000000000000e+03 4.829664611816406250e+01 3.043107795715332031e+01 -2.189380645751953125e+00 8.659456856548786163e-03 -6.542163491249084473e-01 5.562021397054195404e-03
1.107000000000000000e+03 4.980328750610351562e+01 3.021783065795898438e+01 -2.377828598022460938e+00 2.148216124624013901e-03 -7.127041220664978027e-01 1.675626263022422791e-02
1.108000000000000000e+03 5.055681610107421875e+01 3.011933517456054688e+01 -2.464916706085205078e+00 2.154112095013260841e-03 -7.388287782669067383e-01 2.167277038097381592e-02
1.109000000000000000e+03 4.679870986938476562e+01 3.067550849914550781e+01 -1.993153810501098633e+00 2.211503125727176666e-02 -5.913116335868835449e-01 -1.734316581860184669e-03
1.110000000000000000e+03 4.232732009887695312e+01 3.147502899169921875e+01 -1.375969290733337402e+00 3.380760923027992249e-02 -4.026485085487365723e-01 -2.887863293290138245e-02
1.111000000000000000e+03 4.306871414184570312e+01 3.133384895324707031e+01 -1.474937796592712402e+00 3.256822377443313599e-02 -4.327108860015869141e-01 -2.335087209939956665e-02
1.112000000000000000e+03 4.381280899047851562e+01 3.119787025451660156e+01 -1.576196074485778809e+00 3.044072911143302917e-02 -4.637265801429748535e-01 -1.740964315831661224e-02
1.113000000000000000e+03 4.085248184204101562e+01 3.176556777954101562e+01 -1.187474727630615234e+00 3.997169062495231628e-02 -3.442508876323699951e-01 -3.853224590420722961e-02
1.114000000000000000e+03 3.642435455322265625e+01 3.261605453491210938e+01 -6.863141059875488281e-01 3.387029469013214111e-02 -1.957331299781799316e-01 -6.570062786340713501e-02
1.115000000000000000e+03 3.927140426635742188e+01 3.138903427124023438e+01 -9.751087427139282227e-01 5.775564908981323242e-02 -2.752059400081634521e-01 -1.275595277547836304e-01
1.116000000000000000e+03 3.495086669921875000e+01 3.290993499755859375e+01 -5.483044385910034180e-01 3.181357681751251221e-02 -1.549472510814666748e-01 -6.922546029090881348e-02
1.117000000000000000e+03 3.421450042724609375e+01 3.305596160888671875e+01 -4.839456379413604736e-01 3.000521473586559296e-02 -1.361821293830871582e-01 -6.939784437417984009e-02
1.118000000000000000e+03 3.348165893554687500e+01 3.319944381713867188e+01 -4.244528710842132568e-01 2.755289338529109955e-02 -1.190699934959411621e-01 -6.926217675209045410e-02
1.119000000000000000e+03 3.056793785095214844e+01 3.375158691406250000e+01 -2.281809300184249878e-01 1.538161467760801315e-02 -6.383979320526123047e-02 -6.104091182351112366e-02
1.120000000000000000e+03 3.202157211303710938e+01 3.348116302490234375e+01 -3.178272843360900879e-01 2.209983393549919128e-02 -8.871822804212570190e-02 -6.661494821310043335e-02
1.121000000000000000e+03 2.911863708496093750e+01 3.399097824096679688e+01 -1.554447263479232788e-01 7.960306480526924133e-03 -4.424532875418663025e-02 -5.321605131030082703e-02
1.122000000000000000e+03 2.839497566223144531e+01 3.410214996337890625e+01 -1.252541095018386841e-01 4.380238242447376251e-03 -3.626216202974319458e-02 -4.820294305682182312e-02
1.123000000000000000e+03 2.767754936218261719e+01 3.419674682617187500e+01 -9.902336448431015015e-02 8.226887439377605915e-04 -2.946020290255546570e-02 -4.300256446003913879e-02
1.124000000000000000e+03 2.470212173461914062e+01 3.443052673339843750e+01 -2.740747667849063873e-02 -9.761782363057136536e-03 -1.115077733993530273e-02 -1.605517789721488953e-02
1.125000000000000000e+03 2.624175262451171875e+01 3.434415817260742188e+01 -5.748674646019935608e-02 -6.003150716423988342e-03 -1.904696971178054810e-02 -3.020734339952468872e-02
1.126000000000000000e+03 2.202343750000000000e+01 3.431283950805664062e+01 -4.595150239765644073e-03 -1.848762272857129574e-03 -1.933173742145299911e-03 1.906453981064260006e-03
1.127000000000000000e+03 6.414167022705078125e+01 2.923753356933593750e+01 4.402658343315124512e-01 1.878875350952148438e+01 5.768705844879150391e+00 3.897773504257202148e+00
1.128000000000000000e+03 6.487329101562500000e+01 3.227640151977539062e+01 2.678943872451782227e+00 2.047549057006835938e+01 6.946330070495605469e+00 1.322724938392639160e+00
1.129000000000000000e+03 6.470219421386718750e+01 2.891454887390136719e+01 5.238816738128662109e-01 1.812226295471191406e+01 5.593842983245849609e+00 1.154016733169555664e+00
1.130000000000000000e+03 6.549209594726562500e+01 3.096150779724121094e+01 1.034712600708007812e+01 1.642978477478027344e+01 8.033073425292968750e+00 4.614368975162506104e-01
1.131000000000000000e+03 6.553412628173828125e+01 2.971351432800292969e+01 5.018835544586181641e+00 1.722032356262207031e+01 6.671747684478759766e+00 -2.191643714904785156e+00
1.132000000000000000e+03 6.523815155029296875e+01 2.992564392089843750e+01 6.249222755432128906e+00 1.882560729980468750e+01 7.522449016571044922e+00 -2.450506448745727539e+00
1.133000000000000000e+03 6.550853729248046875e+01 3.052894783020019531e+01 9.447680473327636719e+00 1.655686950683593750e+01 7.801365375518798828e+00 -1.326174736022949219e+00
1.134000000000000000e+03 6.544808197021484375e+01 3.030799865722656250e+01 8.499295234680175781e+00 1.735365295410156250e+01 7.755884647369384766e+00 -2.062264442443847656e+00
1.135000000000000000e+03 6.457576751708984375e+01 2.932847213745117188e+01 1.202668190002441406e+00 2.020635604858398438e+01 6.422707557678222656e+00 9.470996856689453125e-01
1.136000000000000000e+03 6.531926727294921875e+01 3.183365821838378906e+01 6.293516159057617188e+00 1.836733055114746094e+01 7.398253917694091797e+00 2.761355400085449219e+00
1.137000000000000000e+03 6.396817398071289062e+01 2.886219215393066406e+01 1.196565553545951843e-01 1.601563644409179688e+01 4.840587615966796875e+00 4.591873645782470703e+00
1.138000000000000000e+03 6.262447357177734375e+01 3.262736129760742188e+01 2.378096103668212891e+00 5.674679279327392578e+00 2.415832519531250000e+00 -5.256074905395507812e+00
1.139000000000000000e+03 6.383639907836914062e+01 3.264016342163085938e+01 5.030895471572875977e-01 1.652675437927246094e+01 5.108953475952148438e+00 -5.050762176513671875e+00
1.140000000000000000e+03 6.143590927124023438e+01 3.265544891357421875e+01 1.147225141525268555e+00 1.859551906585693359e+00 9.020330905914306641e-01 -2.218974828720092773e+00
1.141000000000000000e+03 6.205114746093750000e+01 3.259918975830078125e+01 1.846513748168945312e+00 3.116777420043945312e+00 1.488987326622009277e+00 -3.419940948486328125e+00
1.142000000000000000e+03 6.164057922363281250e+01 3.267607116699218750e+01 1.517082691192626953e+00 2.067784309387207031e+00 1.075460076332092285e+00 -2.675184249877929688e+00
1.143000000000000000e+03 6.241985321044921875e+01 3.261892318725585938e+01 2.314857244491577148e+00 4.745322227478027344e+00 2.118053913116455078e+00 -4.623261451721191406e+00
1.144000000000000000e+03 6.222934722900390625e+01 3.259011459350585938e+01 2.168837308883666992e+00 3.753517389297485352e+00 1.776706457138061523e+00 -4.017601966857910156e+00
1.145000000000000000e+03 6.319643783569335938e+01 3.263150024414062500e+01 1.903074502944946289e+00 1.028229427337646484e+01 3.655610561370849609e+00 -6.205968856811523438e+00
1.146000000000000000e+03 6.124279785156250000e+01 3.266696929931640625e+01 7.398040890693664551e-01 1.577421307563781738e+00 6.951676011085510254e-01 -1.768513917922973633e+00
1.147000000000000000e+03 6.308380508422851562e+01 2.928379631042480469e+01 2.233580350875854492e+00 9.159067153930664062e+00 3.417794227600097656e+00 6.785911083221435547e+00
1.148000000000000000e+03 6.287576293945312500e+01 2.928959846496582031e+01 2.563005685806274414e+00 7.405302524566650391e+00 2.990492582321166992e+00 6.412828445434570312e+00
1.149000000000000000e+03 6.349073410034179688e+01 2.924654769897460938e+01 1.471140861511230469e+00 1.344735717773437500e+01 4.475549221038818359e+00 6.845988273620605469e+00
1.150000000000000000e+03 6.369721984863281250e+01 2.920282363891601562e+01 8.523836135864257812e-01 1.567041397094726562e+01 4.956839084625244141e+00 6.104875087738037109e+00
1.151000000000000000e+03 6.267475891113281250e+01 2.930963516235351562e+01 2.727914571762084961e+00 5.798604488372802734e+00 2.557955741882324219e+00 5.879628181457519531e+00
1.152000000000000000e+03 6.151818084716796875e+01 2.932054138183593750e+01 1.071731328964233398e+00 1.482460975646972656e+00 7.662577033042907715e-01 2.682941675186157227e+00
1.153000000000000000e+03 6.106674575805664062e+01 2.890272903442382812e+01 8.314791917800903320e-01 1.569463253021240234e+00 7.202827334403991699e-01 2.562009096145629883e+00
1.154000000000000000e+03 6.108077621459960938e+01 2.929363250732421875e+01 4.225919842720031738e-01 1.044589757919311523e+00 4.401545524597167969e-01 2.035169363021850586e+00
1.155000000000000000e+03 6.391953659057617188e+01 2.920003318786621094e+01 5.272454023361206055e-01 1.720302963256835938e+01 5.319082260131835938e+00 5.080490589141845703e+00
1.156000000000000000e+03 2.025071907043457031e+01 3.802903747558593750e+01 7.289755012607201934e-05 9.982061783375684172e-06 2.486388257239013910e-05 3.041240270249545574e-04
1.157000000000000000e+03 1.421004962921142578e+01 1.882423877716064453e+00 1.627560232009273022e-05 6.484750429081032053e-06 6.828105597378453240e-06 -3.052105284950812347e-06
1.158000000000000000e+03 1.257714939117431641e+01 1.745750308036804199e+00 -1.204611726279836148e-05 -1.485047869209665805e-05 -8.068978786468505859e-06 7.228182766993995756e-06
1.159000000000000000e+03 5.949461746215820312e+01 3.288486480712890625e+01 -5.979123115539550781e-01 3.920648992061614990e-01 -6.175422295928001404e-02 -3.797490596771240234e-01
1.160000000000000000e+03 6.012528610229492188e+01 3.341377258300781250e+01 4.063160717487335205e-01 1.165179491043090820e+00 4.714486598968505859e-01 -1.248000741004943848e+00
1.161000000000000000e+03 5.957043457031250000e+01 3.348437881469726562e+01 1.412063390016555786e-01 9.188962578773498535e-01 3.180307745933532715e-01 -7.520477771759033203e-01
1.162000000000000000e+03 5.922246170043945312e+01 2.928739547729492188e+01 -1.502107977867126465e+00 1.959848850965499878e-01 -3.918369114398956299e-01 7.299306988716125488e-01
1.163000000000000000e+03 5.975359725952148438e+01 2.865722656250000000e+01 -2.556988298892974854e-01 7.261601686477661133e-01 1.411383897066116333e-01 1.472963690757751465e+00
1.164000000000000000e+03 5.569297027587890625e+01 2.899947547912597656e+01 -2.130108118057250977e+00 3.658570349216461182e-02 -6.280567049980163574e-01 1.435672938823699951e-01
1.165000000000000000e+03 5.843637084960937500e+01 2.873007011413574219e+01 -1.147665858268737793e+00 2.715810835361480713e-01 -2.628254294395446777e-01 7.314453721046447754e-01
1.166000000000000000e+03 2.068924903869628906e+01 3.903183746337890625e+01 8.920536492951214314e-04 -5.086661549285054207e-04 1.150162643170915544e-04 2.304079098394140601e-04
1.167000000000000000e+03 2.303715133666992188e+01 3.973756027221679688e+01 1.462034066207706928e-03 1.753051416017115116e-03 9.645256213843822479e-04 -1.948380726389586926e-03
1.168000000000000000e+03 6.050271511077880859e+00 1.894791722297668457e+00 2.108537410094868392e-05 1.935223735927138478e-05 1.213128325616708025e-05 -4.260161858837818727e-06
1.169000000000000000e+03 9.656989097595214844e+00 2.617277145385742188e+00 4.371690738480538130e-05 4.900764452031580731e-06 1.458530186937423423e-05 6.019620741426479071e-06
1.170000000000000000e+03 6.770167350769042969e+00 1.889113068580627441e+00 -2.161627526220399886e-05 -1.784671258064918220e-05 -1.183889617095701396e-05 1.987382574952789582e-06
1.171000000000000000e+03 7.450001239776611328e+00 2.658280611038208008e+00 -2.898048842325806618e-05 -2.060845326923299581e-05 -1.487668305344413966e-05 -2.374092900936375372e-06
1.172000000000000000e+03 8.157581329345703125e+00 3.421257257461547852e+00 -3.451390875852666795e-05 -2.330105598957743496e-05 -1.734448960633017123e-05 -1.015793804981512949e-05
1.173000000000000000e+03 5.933601856231689453e+00 4.275773525238037109e+00 -4.635236473404802382e-05 -2.859782762243412435e-05 -2.248505734314676374e-05 -4.981511096957547124e-07
1.174000000000000000e+03 1.656075000762939453e+00 7.792442798614501953e+00 -1.082105663954280317e-04 -4.221925792080583051e-06 -3.372974606463685632e-05 1.058316956914495677e-05
1.175000000000000000e+03 3.878131508827209473e-01 3.779085397720336914e+00 -1.076819171430543065e-04 -1.972862264665309340e-05 -3.822315920842811465e-05 -2.873979065043386072e-05
1.176000000000000000e+03 1.826570034027099609e+00 2.622827768325805664e+00 -3.431654477026313543e-05 -2.132554072886705399e-05 -1.669262564973905683e-05 -1.571108987263869494e-05
1.177000000000000000e+03 3.837831616401672363e-01 2.094508171081542969e+00 3.766352892853319645e-05 2.042097366938833147e-05 1.742535096127539873e-05 -1.278295167139731348e-05
1.178000000000000000e+03 1.113446235656738281e+00 1.934391379356384277e+00 3.478834059933433309e-06 -3.261845267843455076e-05 -8.741885721974540502e-06 -2.438715227981447242e-06
1.179000000000000000e+03 1.113606357574462891e+01 1.817550301551818848e+00 -2.951859823951963335e-05 -4.898375664197374135e-06 -1.032509226206457242e-05 1.006086858978960663e-05
1.180000000000000000e+03 9.673057556152343750e+00 3.379830837249755859e+00 -5.566402614931575954e-05 -6.130229394329944625e-06 -1.853827779996208847e-05 -1.563797741255257279e-05
1.181000000000000000e+03 2.688480186462402344e+01 3.270698547363281250e+01 -1.126916930079460144e-01 -1.796247251331806183e-02 -3.919624909758567810e-02 -8.204340934753417969e-02
1.182000000000000000e+03 2.617374038696289062e+01 3.349702453613281250e+01 -7.587653398513793945e-02 -1.407336536794900894e-02 -2.698496915400028229e-02 -5.060967430472373962e-02
1.183000000000000000e+03 2.291263008117675781e+01 3.438582229614257812e+01 -8.460205979645252228e-03 -7.461896166205406189e-03 -4.776630550622940063e-03 -1.851127832196652889e-03
1.184000000000000000e+03 2.387788772583007812e+01 3.126848793029785156e+01 -4.190940037369728088e-02 -5.766927078366279602e-02 -2.987360209226608276e-02 -6.395272910594940186e-02
1.185000000000000000e+03 2.761803054809570312e+01 3.343184661865234375e+01 -1.207190826535224915e-01 -4.106627777218818665e-03 -3.744771331548690796e-02 -6.631416827440261841e-02
1.186000000000000000e+03 2.903626060485839844e+01 3.327153778076171875e+01 -1.773391962051391602e-01 5.755926948040723801e-03 -5.147498100996017456e-02 -8.152275532484054565e-02
1.187000000000000000e+03 2.975130462646484375e+01 3.316289520263671875e+01 -2.110796868801116943e-01 1.059911400079727173e-02 -6.014417484402656555e-02 -8.883441239595413208e-02
1.188000000000000000e+03 2.832496261596679688e+01 3.336325836181640625e+01 -1.467188000679016113e-01 4.497580812312662601e-04 -4.388071224093437195e-02 -7.405996322631835938e-02
1.189000000000000000e+03 5.346887207031250000e+01 3.471704864501953125e+01 -4.680474400520324707e-01 -3.611920028924942017e-02 -1.512499898672103882e-01 4.324211180210113525e-01
1.190000000000000000e+03 5.764344787597656250e+01 3.307096862792968750e+01 -1.046742916107177734e+00 1.140088662505149841e-01 -2.798202037811279297e-01 1.919739991426467896e-01
1.191000000000000000e+03 5.705991363525390625e+01 3.394849014282226562e+01 -4.485252499580383301e-01 2.070959061384201050e-01 -7.242880016565322876e-02 1.003550142049789429e-01
1.192000000000000000e+03 5.566502761840820312e+01 3.422486114501953125e+01 -5.260594487190246582e-01 8.557488024234771729e-02 -1.321453601121902466e-01 2.624457180500030518e-01
1.193000000000000000e+03 5.837393951416015625e+01 3.366788101196289062e+01 -2.970440387725830078e-01 4.671740531921386719e-01 5.103900656104087830e-02 -2.049459069967269897e-01
1.194000000000000000e+03 5.180123901367187500e+01 3.616379928588867188e+01 -6.949176639318466187e-02 -6.307662278413772583e-02 -3.977051377296447754e-02 4.105381667613983154e-01
1.195000000000000000e+03 4.945214080810546875e+01 3.547987365722656250e+01 -1.764265894889831543e-01 -1.564808636903762817e-01 -9.987223148345947266e-02 4.611705839633941650e-01
1.196000000000000000e+03 5.287748336791992188e+01 3.612901687622070312e+01 6.151848472654819489e-03 1.090309582650661469e-02 5.116483196616172791e-03 3.644637465476989746e-01
1.197000000000000000e+03 5.268965530395507812e+01 3.487711715698242188e+01 -4.525717794895172119e-01 -7.134796679019927979e-02 -1.571759283542633057e-01 4.430397748947143555e-01
1.198000000000000000e+03 5.475391006469726562e+01 3.343157958984375000e+01 -1.107838988304138184e+00 1.721992884995415807e-04 -3.323000371456146240e-01 4.107295870780944824e-01
1.199000000000000000e+03 5.493758010864257812e+01 3.433926773071289062e+01 -5.323235988616943359e-01 5.049010366201400757e-02 -1.445500403642654419e-01 3.326601982116699219e-01
1.200000000000000000e+03 4.895758438110351562e+01 3.437610244750976562e+01 -5.237814784049987793e-01 -1.322173774242401123e-01 -1.967996656894683838e-01 3.754454255104064941e-01
1.201000000000000000e+03 4.596494293212890625e+01 3.469605636596679688e+01 -3.177332580089569092e-01 -1.058184653520584106e-01 -1.270655095577239990e-01 2.530906498432159424e-01
1.202000000000000000e+03 3.263896179199218750e+01 3.265237426757812500e+01 -3.841350972652435303e-01 2.989557199180126190e-02 -1.062718555331230164e-01 -1.141464710235595703e-01
1.203000000000000000e+03 3.129313278198242188e+01 3.362079620361328125e+01 -2.706425189971923828e-01 1.881220005452632904e-02 -7.554909586906433105e-02 -6.403367221355438232e-02
1.204000000000000000e+03 3.118388366699218750e+01 3.291824340820312500e+01 -2.899957299232482910e-01 2.072196453809738159e-02 -8.078212291002273560e-02 -1.025692373514175415e-01
1.205000000000000000e+03 3.046649551391601562e+01 3.304432296752929688e+01 -2.489175200462341309e-01 1.576999947428703308e-02 -6.994425505399703979e-02 -9.602379798889160156e-02
1.206000000000000000e+03 4.548333358764648438e+01 3.567868804931640625e+01 -1.809307485818862915e-01 -1.366868764162063599e-01 -9.528528153896331787e-02 2.486931532621383667e-01
1.207000000000000000e+03 4.612615585327148438e+01 3.568515396118164062e+01 -1.792699992656707764e-01 -1.445129066705703735e-01 -9.713487327098846436e-02 2.828646898269653320e-01
1.208000000000000000e+03 4.376898956298828125e+01 3.709146881103515625e+01 3.213770221918821335e-03 -1.654697060585021973e-01 -4.867677763104438782e-02 1.882987171411514282e-01
1.209000000000000000e+03 4.304908752441406250e+01 3.530370330810546875e+01 -1.440421193838119507e-01 -9.037615358829498291e-02 -7.032548636198043823e-02 1.499515622854232788e-01
1.210000000000000000e+03 1.180782699584960938e+01 -2.626551151275634766e+00 1.370559766655787826e-04 4.091503433301113546e-05 5.339130439097061753e-05 -9.984313510358333588e-05
1.211000000000000000e+03 1.039313125610351562e+01 -3.345359086990356445e+00 -5.062222408014349639e-05 -1.257878320757299662e-04 -5.292301648296415806e-05 9.953132575901690871e-06
1.212000000000000000e+03 1.110209465026855469e+01 -2.616041660308837891e+00 -6.138916796771809459e-05 -8.879356755642220378e-05 -4.505482138483785093e-05 5.997791231493465602e-05
1.213000000000000000e+03 4.286585998535156250e+01 3.618335723876953125e+01 -9.223693609237670898e-02 -1.041175648570060730e-01 -5.890635028481483459e-02 1.627224534749984741e-01
1.214000000000000000e+03 4.216921234130859375e+01 3.669180297851562500e+01 -3.191438317298889160e-02 -1.040661185979843140e-01 -4.079414904117584229e-02 1.499823331832885742e-01
1.215000000000000000e+03 4.168537902832031250e+01 3.558583450317382812e+01 -1.198482215404510498e-01 -6.204563379287719727e-02 -5.456815659999847412e-02 1.082016155123710632e-01
1.216000000000000000e+03 3.532289123535156250e+01 3.837914276123046875e+01 4.201798234134912491e-03 -3.093890473246574402e-02 -8.021132089197635651e-03 1.337078399956226349e-02
1.217000000000000000e+03 3.711962127685546875e+01 3.660879135131835938e+01 -1.273624412715435028e-02 -3.321165218949317932e-02 -1.378436945378780365e-02 3.481033444404602051e-02
1.218000000000000000e+03 3.997525787353515625e+01 3.815336227416992188e+01 3.173272684216499329e-02 -1.226099729537963867e-01 -2.726317383348941803e-02 8.671198785305023193e-02
1.219000000000000000e+03 4.122104644775390625e+01 3.681426239013671875e+01 -3.489339351654052734e-02 -1.017656922340393066e-01 -4.099772498011589050e-02 1.061819195747375488e-01
1.220000000000000000e+03 3.790089797973632812e+01 3.646202087402343750e+01 -2.306793443858623505e-02 -2.532100863754749298e-02 -1.451668236404657364e-02 3.860343620181083679e-02
1.221000000000000000e+03 3.766831588745117188e+01 3.100557136535644531e+01 -7.968707680702209473e-01 6.343641877174377441e-02 -2.200303077697753906e-01 -1.973666399717330933e-01
1.222000000000000000e+03 3.779134750366210938e+01 3.166784095764160156e+01 -8.222594261169433594e-01 5.273658409714698792e-02 -2.308568507432937622e-01 -1.298682987689971924e-01
1.223000000000000000e+03 3.863983917236328125e+01 3.219127655029296875e+01 -9.205977916717529297e-01 3.866066411137580872e-02 -2.645811438560485840e-01 -5.204116180539131165e-02
1.224000000000000000e+03 4.000680160522460938e+01 3.124866867065429688e+01 -1.055324316024780273e+00 5.902661010622978210e-02 -2.988893091678619385e-01 -1.273253858089447021e-01
1.225000000000000000e+03 3.790100860595703125e+01 3.233113861083984375e+01 -8.383427858352661133e-01 3.641604259610176086e-02 -2.405780255794525146e-01 -5.757500603795051575e-02
1.226000000000000000e+03 3.853228378295898438e+01 3.152799224853515625e+01 -8.972547054290771484e-01 5.514281243085861206e-02 -2.526335716247558594e-01 -1.290359348058700562e-01
1.227000000000000000e+03 3.483763885498046875e+01 3.223919296264648438e+01 -5.523238182067871094e-01 4.137361422181129456e-02 -1.532850563526153564e-01 -1.260013878345489502e-01
1.228000000000000000e+03 3.336944961547851562e+01 3.251741409301757812e+01 -4.365766644477844238e-01 3.416912630200386047e-02 -1.207222566008567810e-01 -1.187136247754096985e-01
1.229000000000000000e+03 3.410185623168945312e+01 3.237979507446289062e+01 -4.929436743259429932e-01 3.795778006315231323e-02 -1.364957690238952637e-01 -1.227747574448585510e-01
1.230000000000000000e+03 4.011511993408203125e+01 3.191004562377929688e+01 -1.094365954399108887e+00 4.077849537134170532e-02 -3.160762488842010498e-01 -4.181822016835212708e-02
1.231000000000000000e+03 4.074281692504882812e+01 3.110575294494628906e+01 -1.135747671127319336e+00 5.879389867186546326e-02 -3.230861127376556396e-01 -1.265124529600143433e-01
1.232000000000000000e+03 4.295821762084960938e+01 3.067131042480468750e+01 -1.387378811836242676e+00 5.417707562446594238e-02 -3.999605178833007812e-01 -1.231094822287559509e-01
1.233000000000000000e+03 1.247165966033935547e+01 2.304459571838378906e+00 1.910417813633102924e-05 1.100803456210996956e-05 9.033664355229120702e-06 -1.468140089855296537e-05
1.234000000000000000e+03 1.040404415130615234e+01 2.579124689102172852e+00 -4.769712541019544005e-05 1.758754706315812655e-06 -1.378151137032546103e-05 1.805178840186272282e-06
1.235000000000000000e+03 1.337893962860107422e+01 2.524805784225463867e+00 2.555363607825711370e-05 2.167966340493876487e-05 1.416999020875664428e-05 3.502000254229642451e-05
1.236000000000000000e+03 4.370441818237304688e+01 3.053071594238281250e+01 -1.473463654518127441e+00 5.362675338983535767e-02 -4.259510934352874756e-01 -1.210747435688972473e-01
1.237000000000000000e+03 4.604924392700195312e+01 3.080069732666015625e+01 -1.886722445487976074e+00 2.629342116415500641e-02 -5.581287145614624023e-01 -3.446311224251985550e-03
1.238000000000000000e+03 4.455722427368164062e+01 3.106339073181152344e+01 -1.679140329360961914e+00 2.994733490049839020e-02 -4.947579205036163330e-01 -1.193705853074789047e-02
1.239000000000000000e+03 4.221557998657226562e+01 3.081550598144531250e+01 -1.301816940307617188e+00 5.631222203373908997e-02 -3.736514151096343994e-01 -1.249019950628280640e-01
1.240000000000000000e+03 3.317554473876953125e+01 3.700248336791992188e+01 3.458622610196471214e-03 -1.200256752781569958e-03 6.775097572244703770e-04 1.646222779527306557e-03
1.241000000000000000e+03 4.670281219482421875e+01 3.000469779968261719e+01 -1.812909722328186035e+00 4.283720627427101135e-02 -5.310217142105102539e-01 -1.128368303179740906e-01
1.242000000000000000e+03 4.820757293701171875e+01 2.976849365234375000e+01 -1.966491580009460449e+00 3.160488978028297424e-02 -5.804660320281982422e-01 -1.032170355319976807e-01
1.243000000000000000e+03 4.519745254516601562e+01 3.025968360900878906e+01 -1.645560979843139648e+00 5.034108832478523254e-02 -4.785659611225128174e-01 -1.167026907205581665e-01
1.244000000000000000e+03 5.431461334228515625e+01 2.969548797607421875e+01 -2.711335420608520508e+00 -1.008107140660285950e-02 -8.164249658584594727e-01 7.052864134311676025e-02
1.245000000000000000e+03 5.047824859619140625e+01 2.947002220153808594e+01 -2.161212444305419922e+00 1.950337924063205719e-02 -6.425127387046813965e-01 -7.357387989759445190e-02
1.246000000000000000e+03 5.205975723266601562e+01 2.993454170227050781e+01 -2.607382774353027344e+00 -1.086198142729699612e-03 -7.825406789779663086e-01 3.319838643074035645e-02
1.247000000000000000e+03 4.972299575805664062e+01 2.956163787841796875e+01 -2.103570938110351562e+00 2.359035797417163849e-02 -6.239941716194152832e-01 -8.524859696626663208e-02
1.248000000000000000e+03 4.896498489379882812e+01 2.966061782836914062e+01 -2.037825822830200195e+00 2.585641294717788696e-02 -6.035907864570617676e-01 -9.476048499345779419e-02
1.249000000000000000e+03 5.694208908081054688e+01 2.832272911071777344e+01 -1.305097460746765137e+00 1.839991360902786255e-01 -3.363294899463653564e-01 4.513531923294067383e-01
1.250000000000000000e+03 5.626367950439453125e+01 2.837520027160644531e+01 -1.500144124031066895e+00 1.368945837020874023e-01 -4.089748561382293701e-01 3.153736591339111328e-01
1.251000000000000000e+03 3.100792121887207031e+01 3.903714370727539062e+01 -3.273416776210069656e-03 -4.963064100593328476e-03 -2.470944309607148170e-03 1.004074933007359505e-03
1.252000000000000000e+03 3.222682189941406250e+01 3.776248168945312500e+01 -2.226771553978323936e-03 -2.491399878636002541e-03 -1.415451406501233578e-03 2.852080157026648521e-03
1.253000000000000000e+03 3.007145309448242188e+01 3.789903640747070312e+01 3.292422974482178688e-03 -2.686674997676163912e-04 9.071265812963247299e-04 -2.388240769505500793e-03
1.254000000000000000e+03 3.080522155761718750e+01 3.761730575561523438e+01 1.581311342306435108e-03 -2.444679616019129753e-03 -2.590104995761066675e-04 -1.164981047622859478e-03
1.255000000000000000e+03 3.285719299316406250e+01 3.832662200927734375e+01 -9.665959514677524567e-04 -6.870473269373178482e-03 -2.351120812818408012e-03 5.631627980619668961e-03
1.256000000000000000e+03 8.090855598449707031e+00 -1.866497039794921875e+00 8.945625449996441603e-05 6.203472730703651905e-05 4.544729381450451910e-05 2.856676110241096467e-05
1.257000000000000000e+03 9.637144088745117188e+00 -2.593336820602416992e+00 -6.494275294244289398e-05 -1.000853881123475730e-04 -4.950844231643714011e-05 -2.102429425576701760e-05
1.258000000000000000e+03 7.400844097137451172e+00 -2.626987695693969727e+00 1.437964674551039934e-04 5.493117714649997652e-05 5.961829447187483311e-05 3.536755320965312421e-05
1.259000000000000000e+03 8.145517349243164062e+00 -2.611324787139892578e+00 -1.221693091792985797e-04 -7.530862785642966628e-05 -5.924337892793118954e-05 -5.252201299299485981e-05
1.260000000000000000e+03 8.891868591308593750e+00 -2.597354888916015625e+00 9.047079947777092457e-05 9.127141674980521202e-05 5.452266486827284098e-05 4.635555160348303616e-05
1.261000000000000000e+03 6.571599483489990234e+00 -1.873703002929687500e+00 1.050827413564547896e-04 5.154697282705456018e-05 4.698891279986128211e-05 -3.642977389972656965e-06
1.262000000000000000e+03 6.657759189605712891e+00 -2.635947465896606445e+00 -1.439431653125211596e-04 -4.574343620333820581e-05 -5.690598118235357106e-05 -1.513227289251517504e-05
1.263000000000000000e+03 5.169409275054931641e+00 -2.648784399032592773e+00 -1.007436803774908185e-04 -7.031080167507752776e-05 -5.131634679855778813e-05 1.316228281211806461e-05
1.264000000000000000e+03 1.613453030586242676e+00 -8.117046356201171875e+00 -1.143947374657727778e-04 -1.336748937319498509e-05 -3.832866786979138851e-05 1.990772398130502552e-05
1.265000000000000000e+03 3.527496099472045898e+00 -4.214038372039794922e+00 -5.977237742627039552e-05 -1.725598121993243694e-04 -6.969965761527419090e-05 -1.340845192316919565e-04
1.266000000000000000e+03 1.624491095542907715e+00 -6.796933174133300781e+00 5.408395372796803713e-05 -4.738364623335655779e-06 1.480367609474342316e-05 -2.805718577292282134e-05
1.267000000000000000e+03 4.175937473773956299e-01 -2.197973251342773438e+00 4.042760701850056648e-05 -2.172834138036705554e-05 5.609779691440053284e-06 5.128663815412437543e-06
1.268000000000000000e+03 5.455411672592163086e-01 -3.636505842208862305e+00 -5.836384298163466156e-05 -4.888738203590037301e-06 -1.897577385534532368e-05 -1.666162802393955644e-06
1.269000000000000000e+03 5.953065156936645508e-01 -5.113904953002929688e+00 7.023066427791491151e-05 -2.856395076378248632e-05 1.250001423613866791e-05 -1.355629774479893968e-05
1.270000000000000000e+03 2.605881500244140625e+01 3.848900985717773438e+01 -8.257241570390760899e-04 1.300368923693895340e-03 1.423934299964457750e-04 -1.155543490312993526e-03
1.271000000000000000e+03 2.674901390075683594e+01 3.815719604492187500e+01 2.211055252701044083e-03 1.103646471165120602e-03 9.944104822352528572e-04 -2.759712981060147285e-03
1.272000000000000000e+03 2.828691864013671875e+01 3.910715484619140625e+01 -1.052536845236318186e-06 2.972005633637309074e-03 8.912859484553337097e-04 -3.226756583899259567e-03
1.273000000000000000e+03 2.967530250549316406e+01 3.939899826049804688e+01 -1.492392388172447681e-03 -2.612143056467175484e-03 -1.231360598467290401e-03 -1.083054463379085064e-03
1.274000000000000000e+03 2.464160537719726562e+01 4.116432189941406250e+01 -5.700187757611274719e-03 1.683081500232219696e-03 -1.205131877213716507e-03 -1.093180617317557335e-04
1.275000000000000000e+03 2.402668571472167969e+01 3.993412399291992188e+01 7.475939346477389336e-04 -5.964761367067694664e-04 4.533532774075865746e-05 5.783364395028911531e-05
1.276000000000000000e+03 2.524161148071289062e+01 4.003840255737304688e+01 -1.098195556551218033e-03 1.384294126182794571e-03 8.582956070313230157e-05 -2.154465764760971069e-03
1.277000000000000000e+03 2.201043701171875000e+01 3.330998611450195312e+01 -6.859900429844856262e-03 -8.354593068361282349e-03 -4.564348142594099045e-03 -4.058020189404487610e-03
1.278000000000000000e+03 2.551548767089843750e+01 3.174939537048339844e+01 -8.348016440868377686e-02 -4.358467832207679749e-02 -3.811945393681526184e-02 -8.878477662801742554e-02
1.279000000000000000e+03 2.060508155822753906e+01 3.400402450561523438e+01 -6.291487370617687702e-04 1.347125414758920670e-02 3.852631663903594017e-03 -2.403683174634352326e-04
1.280000000000000000e+03 2.095535087585449219e+01 3.233335494995117188e+01 -1.671573729254305363e-03 5.833731498569250107e-03 1.248647342436015606e-03 -3.605974139645695686e-03
1.281000000000000000e+03 1.982647132873535156e+01 3.892752838134765625e+01 1.079012217815034091e-04 2.647428482305258512e-04 1.117932188208214939e-04 -9.927167557179927826e-04
1.282000000000000000e+03 2.242809486389160156e+01 -4.127767944335937500e+01 3.507154583930969238e-01 -1.871025562286376953e+00 -4.560930430889129639e-01 8.682905137538909912e-02
1.283000000000000000e+03 1.933120727539062500e+01 -3.789010238647460938e+01 -4.116924703121185303e-01 -2.137783050537109375e+00 -7.648426294326782227e-01 -4.656549692153930664e-01
1.284000000000000000e+03 1.305234336853027344e+01 -3.723233032226562500e+01 8.767303824424743652e-02 -2.632609941065311432e-02 1.840408146381378174e-02 -2.911971881985664368e-02
1.285000000000000000e+03 1.243055152893066406e+01 2.577190208435058594e+01 2.568588242866098881e-04 9.044835314853116870e-05 1.041921495925635099e-04 5.878351657884195447e-05
1.286000000000000000e+03 1.308020019531250000e+01 3.209281539916992188e+01 1.339090231340378523e-04 -1.671985228313133121e-04 -9.986847544496413320e-06 2.534049854148179293e-04
1.287000000000000000e+03 1.363972663879394531e+01 3.093277740478515625e+01 -4.448361578397452831e-04 1.789277666830457747e-05 -1.280830183532088995e-04 -1.289470819756388664e-04
1.288000000000000000e+03 1.376144504547119141e+01 2.702683448791503906e+01 3.885940241161733866e-04 3.102840128121897578e-05 1.258867268916219473e-04 9.124161442741751671e-05
1.289000000000000000e+03 1.673777389526367188e+01 3.528439331054687500e+01 -6.634874152950942516e-04 -8.571146463509649038e-05 -2.247596567030996084e-04 1.943755050888285041e-04
1.290000000000000000e+03 1.700548553466796875e+01 3.764976882934570312e+01 -1.364447409287095070e-03 1.357914152322337031e-04 -3.685967822093516588e-04 -1.981345121748745441e-04
1.291000000000000000e+03 1.495277404785156250e+01 3.444073104858398438e+01 -5.183395696803927422e-04 7.496241596527397633e-05 -1.330131344730034471e-04 1.839714823290705681e-04
1.292000000000000000e+03 1.446093845367431641e+01 1.882141304016113281e+01 -2.469363389536738396e-04 1.366181209050409961e-06 -7.367104262812063098e-05 2.234949715784750879e-05
1.293000000000000000e+03 1.317933845520019531e+01 1.897847747802734375e+01 2.438689261907711625e-04 -8.334134690812788904e-06 7.066043326631188393e-05 -2.746691825450398028e-05
1.294000000000000000e+03 1.475415420532226562e+01 2.432817268371582031e+01 -3.683092945721000433e-04 -6.942700565559789538e-06 -1.125755952671170235e-04 1.669195171416504309e-06
1.295000000000000000e+03 1.381961059570312500e+01 2.832622909545898438e+01 -4.265850875526666641e-04 -2.153888635803014040e-05 -1.344371848972514272e-04 -1.095910847652703524e-04
1.296000000000000000e+03 1.213049697875976562e+01 3.036272239685058594e+01 4.269547353032976389e-04 -1.146419308497570455e-04 9.369383769808337092e-05 1.100445952033624053e-04
1.297000000000000000e+03 1.307791423797607422e+01 1.757518005371093750e+01 -2.358532947255298495e-04 2.116366158588789403e-05 -6.440688594011589885e-05 2.136705734301358461e-05
1.298000000000000000e+03 1.335954856872558594e+01 1.178484916687011719e+01 -1.502770028309896588e-04 -4.964274921803735197e-06 -4.657238241634331644e-05 -2.879976818803697824e-05
1.299000000000000000e+03 1.293941879272460938e+01 1.460652637481689453e+01 -1.985238050110638142e-04 5.076265551906544715e-06 -5.803426392958499491e-05 -2.437235161778517067e-05
1.300000000000000000e+03 1.462420558929443359e+01 5.022806644439697266e+00 -7.888446998549625278e-05 -3.876061782648321241e-06 -2.482815943949390203e-05 1.220894137077266350e-05
1.301000000000000000e+03 1.185490512847900391e+01 2.410375118255615234e+00 -3.096244472544640303e-05 -3.607095095503609627e-06 -1.037086167343659326e-05 1.619011527509428561e-05
1.302000000000000000e+03 1.050513362884521484e+01 4.110424041748046875e+00 -7.985612319316715002e-05 2.509232899683411233e-06 -2.320406747458036989e-05 -1.904976306832395494e-05
1.303000000000000000e+03 1.358204936981201172e+01 7.813483238220214844e+00 1.008868421195074916e-04 6.240170478122308850e-06 3.213810487068258226e-05 7.206618192867608741e-06
1.304000000000000000e+03 1.319689846038818359e+01 1.315250205993652344e+01 1.749562652548775077e-04 -6.178476269269594923e-06 5.063333810539916158e-05 3.481377643765881658e-05
1.305000000000000000e+03 7.929992675781250000e+01 -2.784759712219238281e+01 -5.096115171909332275e-03 8.407948493957519531e+00 2.520855665206909180e+00 -4.167024977505207062e-03
1.306000000000000000e+03 7.726773834228515625e+01 -3.775630187988281250e+01 -2.544471621513366699e-02 8.019260406494140625e+00 2.398144721984863281e+00 4.809786379337310791e-02
1.307000000000000000e+03 7.937025451660156250e+01 -3.476140975952148438e+01 -1.072669960558414459e-02 8.357108116149902344e+00 2.503914356231689453e+00 1.185446139425039291e-02
1.308000000000000000e+03 7.806101989746093750e+01 3.260335922241210938e+01 1.002625823020935059e-01 5.475516319274902344e+00 1.672733664512634277e+00 1.612857729196548462e-01
1.309000000000000000e+03 7.929952239990234375e+01 3.626535415649414062e+01 3.233546391129493713e-02 5.232674598693847656e+00 1.579502940177917480e+00 1.507486999034881592e-01
1.310000000000000000e+03 7.933615112304687500e+01 -2.086257743835449219e+01 2.437477814964950085e-04 8.463988304138183594e+00 2.539269685745239258e+00 -2.800173126161098480e-03
1.311000000000000000e+03 7.790563964843750000e+01 -2.780770492553710938e+01 4.002271220088005066e-03 8.147383689880371094e+00 2.445415735244750977e+00 -5.903040873818099499e-04
1.312000000000000000e+03 7.792350769042968750e+01 -2.639551734924316406e+01 2.752385567873716354e-03 8.161331176757812500e+00 2.449224948883056641e+00 6.315938662737607956e-03
1.313000000000000000e+03 7.929602050781250000e+01 -3.064581489562988281e+01 -2.955480478703975677e-03 8.399511337280273438e+00 2.518966913223266602e+00 -4.497303627431392670e-03
1.314000000000000000e+03 7.811086273193359375e+01 -3.466476821899414062e+01 -8.156970143318176270e-03 8.162824630737304688e+00 2.446400403976440430e+00 2.221880853176116943e-02
1.315000000000000000e+03 7.799884033203125000e+01 -3.336885833740234375e+01 -1.235875301063060760e-02 8.151578903198242188e+00 2.441766262054443359e+00 1.995218917727470398e-02
1.316000000000000000e+03 7.488359832763671875e+01 -3.691115570068359375e+01 -2.457302995026111603e-02 7.630228519439697266e+00 2.281696557998657227e+00 -2.906813845038414001e-02
1.317000000000000000e+03 7.625903320312500000e+01 -3.877529907226562500e+01 -1.460108719766139984e-02 7.939249515533447266e+00 2.377394437789916992e+00 1.679865643382072449e-02
1.318000000000000000e+03 7.820818328857421875e+01 1.401485061645507812e+01 -3.837340697646141052e-02 8.434528350830078125e+00 2.518846511840820312e+00 -2.086248546838760376e-01
1.319000000000000000e+03 7.941105651855468750e+01 1.535583209991455078e+01 -7.244392298161983490e-03 8.458940505981445312e+00 2.535508871078491211e+00 -1.136760786175727844e-01
1.320000000000000000e+03 7.829590606689453125e+01 2.098572540283203125e+01 -3.307980298995971680e-02 7.324085235595703125e+00 2.187301635742187500e+00 -5.160439014434814453e-01
1.321000000000000000e+03 7.943022918701171875e+01 2.232383537292480469e+01 -1.955813262611627579e-03 6.731301784515380859e+00 2.018803834915161133e+00 -2.167958766222000122e-01
1.322000000000000000e+03 7.794993591308593750e+01 3.114193725585937500e+01 1.713740527629852295e-01 5.557559013366699219e+00 1.718679904937744141e+00 -3.719674795866012573e-02
1.323000000000000000e+03 7.817453002929687500e+01 2.800453567504882812e+01 1.060308516025543213e-01 5.696290493011474609e+00 1.740696430206298828e+00 -4.250701963901519775e-01
1.324000000000000000e+03 7.936904907226562500e+01 2.793303108215332031e+01 2.649215422570705414e-02 4.925343036651611328e+00 1.485550522804260254e+00 -1.629658043384552002e-01
1.325000000000000000e+03 7.829321289062500000e+01 2.515572738647460938e+01 2.799526043236255646e-02 6.250470161437988281e+00 1.883539676666259766e+00 -5.586394071578979492e-01
1.326000000000000000e+03 7.829939270019531250e+01 2.376578521728515625e+01 3.995591774582862854e-03 6.612908363342285156e+00 1.985071301460266113e+00 -5.711330771446228027e-01
1.327000000000000000e+03 7.710868835449218750e+01 1.686523818969726562e+01 -1.149046644568443298e-01 8.080832481384277344e+00 2.389778375625610352e+00 -4.681618213653564453e-01
1.328000000000000000e+03 7.823384094238281250e+01 1.541231250762939453e+01 -4.520113393664360046e-02 8.300468444824218750e+00 2.476580142974853516e+00 -2.646035850048065186e-01
1.329000000000000000e+03 7.825830078125000000e+01 1.680697631835937500e+01 -4.611516743898391724e-02 8.123532295227050781e+00 2.423225164413452148e+00 -3.276383578777313232e-01
1.330000000000000000e+03 7.693710327148437500e+01 1.125248336791992188e+01 -7.166986912488937378e-02 8.393980026245117188e+00 2.496693134307861328e+00 -1.613174825906753540e-01
1.331000000000000000e+03 7.816269683837890625e+01 8.415857315063476562e+00 -1.994827948510646820e-02 8.677619934082031250e+00 2.597301483154296875e+00 -5.363006517291069031e-02
1.332000000000000000e+03 7.939109802246093750e+01 9.777253150939941406e+00 -4.568363074213266373e-03 8.911266326904296875e+00 2.672009468078613281e+00 -4.725234583020210266e-02
1.333000000000000000e+03 7.934017944335937500e+01 -1.946783256530761719e+01 -1.272309455089271069e-04 8.479770660400390625e+00 2.543893098831176758e+00 -2.672381699085235596e-03
1.334000000000000000e+03 7.934670257568359375e+01 -1.389331722259521484e+01 -4.227846511639654636e-04 8.558483123779296875e+00 2.567418098449707031e+00 -2.727568149566650391e-03
1.335000000000000000e+03 7.935261535644531250e+01 -6.937782764434814453e+00 4.650974005926400423e-04 8.696571350097656250e+00 2.609110832214355469e+00 -2.544570947065949440e-03
1.336000000000000000e+03 7.807026672363281250e+01 4.126098752021789551e-02 -3.180953906849026680e-03 8.589546203613281250e+00 2.575909376144409180e+00 2.183294110000133514e-02
1.337000000000000000e+03 7.936087036132812500e+01 1.407564520835876465e+00 -7.211724732769653201e-05 8.892919540405273438e+00 2.667854070663452148e+00 -8.871569298207759857e-03
1.338000000000000000e+03 7.800405120849609375e+01 2.955711936950683594e+01 1.746434569358825684e-01 5.614382743835449219e+00 1.736707925796508789e+00 -2.401462793350219727e-01
1.339000000000000000e+03 7.872531127929687500e+01 4.021798324584960938e+01 8.298902958631515503e-02 6.301794052124023438e+00 1.915434956550598145e+00 3.535589873790740967e-01
1.340000000000000000e+03 7.600529479980468750e+01 3.828912353515625000e+01 -1.622233092784881592e-01 7.248854637145996094e+00 2.125989437103271484e+00 5.541985034942626953e-01
1.341000000000000000e+03 7.929545593261718750e+01 3.759784317016601562e+01 -3.932615369558334351e-02 5.520604610443115234e+00 1.644383549690246582e+00 1.478313058614730835e-01
1.342000000000000000e+03 7.713620758056640625e+01 3.448056793212890625e+01 1.981453299522399902e-01 6.322207927703857422e+00 1.956106066703796387e+00 4.809220731258392334e-01
1.343000000000000000e+03 7.817024230957031250e+01 9.819070816040039062e+00 -2.502885833382606506e-02 8.651281356811523438e+00 2.587875604629516602e+00 -8.357518166303634644e-02
1.344000000000000000e+03 7.808357238769531250e+01 1.427228093147277832e+00 -6.492832209914922714e-03 8.618741035461425781e+00 2.583674430847167969e+00 1.572698727250099182e-02
1.345000000000000000e+03 7.809712982177734375e+01 2.824017286300659180e+00 -5.856860429048538208e-03 8.643598556518554688e+00 2.591322422027587891e+00 8.136402815580368042e-03
1.346000000000000000e+03 7.675479888916015625e+01 -1.326930522918701172e+00 -4.734712187200784683e-03 8.291148185729980469e+00 2.485924005508422852e+00 5.057352781295776367e-02
1.347000000000000000e+03 7.935065460205078125e+01 -2.766785860061645508e+00 -7.920460775494575500e-04 8.795262336730957031e+00 2.638340950012207031e+00 -3.822665894404053688e-03
1.348000000000000000e+03 7.805601501464843750e+01 -6.882643222808837891e+00 -1.414235157426446676e-04 8.442143440246582031e+00 2.532600641250610352e+00 2.613829262554645538e-02
1.349000000000000000e+03 7.805125427246093750e+01 -5.501967906951904297e+00 2.689609536901116371e-04 8.470311164855957031e+00 2.541174173355102539e+00 2.679855003952980042e-02
1.350000000000000000e+03 7.935144042968750000e+01 -9.717595100402832031e+00 6.521380855701863766e-04 8.636195182800292969e+00 2.591054201126098633e+00 -2.272053156048059464e-03
1.351000000000000000e+03 7.804064941406250000e+01 -1.381264877319335938e+01 1.677002874203026295e-03 8.314760208129882812e+00 2.494931221008300781e+00 1.832017488777637482e-02
1.352000000000000000e+03 7.804365539550781250e+01 -1.242342090606689453e+01 7.735980907455086708e-04 8.337454795837402344e+00 2.501468420028686523e+00 2.020192891359329224e-02
1.353000000000000000e+03 7.934455871582031250e+01 -1.667843246459960938e+01 -2.845768758561462164e-04 8.516191482543945312e+00 2.554772138595581055e+00 -2.804300049319863319e-03
1.354000000000000000e+03 7.802514648437500000e+01 -1.938727188110351562e+01 1.437452738173305988e-03 8.238708496093750000e+00 2.472043752670288086e+00 1.236974261701107025e-02
1.355000000000000000e+03 2.218452072143554688e+01 1.447437405586242676e+00 1.501482632011175156e-02 -1.871821641921997070e+00 -5.570420622825622559e-01 -1.572383046150207520e-01
1.356000000000000000e+03 2.356206130981445312e+01 1.473089933395385742e+00 -5.472708144225180149e-04 -1.631448864936828613e+00 -4.895988404750823975e-01 -2.019038200378417969e-01
1.357000000000000000e+03 2.019331932067871094e+01 -1.395041751861572266e+01 -6.002318114042282104e-02 -2.665872097015380859e+00 -8.177685737609863281e-01 -1.557243466377258301e-01
1.358000000000000000e+03 1.376570701599121094e+01 -3.874932479858398438e+01 8.919011056423187256e-02 -2.596471086144447327e-02 1.896762102842330933e-02 7.142210751771926880e-02
1.359000000000000000e+03 1.988127708435058594e+01 -1.815528297424316406e+01 2.076700702309608459e-02 -2.332171201705932617e+00 -6.934212446212768555e-01 -1.477648317813873291e-01
1.360000000000000000e+03 1.092251396179199219e+01 -3.233670425415039062e+01 1.283047348260879517e-02 -2.700482495129108429e-03 3.038997063413262367e-03 -7.284206803888082504e-03
1.361000000000000000e+03 2.040599632263183594e+01 -5.530767917633056641e+00 2.486844174563884735e-02 -2.158048868179321289e+00 -6.399541497230529785e-01 -1.032262668013572693e-01
1.362000000000000000e+03 2.214619827270507812e+01 4.446618258953094482e-02 2.274646982550621033e-02 -1.913032293319702148e+00 -5.670857429504394531e-01 -1.890186965465545654e-01
1.363000000000000000e+03 2.170049858093261719e+01 -8.347276687622070312e+00 -9.745537303388118744e-03 -2.120661735534667969e+00 -6.391221880912780762e-01 -1.387338042259216309e-01
1.364000000000000000e+03 2.140615081787109375e+01 -1.958019447326660156e+01 4.485890641808509827e-02 -2.190651416778564453e+00 -6.437377929687500000e-01 -1.299067735671997070e-01
1.365000000000000000e+03 2.181117439270019531e+01 -5.573876857757568359e+00 4.517292976379394531e-02 -2.039452314376831055e+00 -5.982838273048400879e-01 -1.413734406232833862e-01
1.366000000000000000e+03 1.974123382568359375e+01 -3.361793136596679688e+01 -1.072052344679832458e-01 -2.936299324035644531e+00 -9.130513668060302734e-01 -1.173022538423538208e-01
1.367000000000000000e+03 2.315623664855957031e+01 -3.366460800170898438e+01 -1.500114053487777710e-01 -1.797983884811401367e+00 -5.843985676765441895e-01 -1.165750622749328613e-01
1.368000000000000000e+03 2.150651550292968750e+01 -1.536131095886230469e+01 -3.770316019654273987e-02 -2.226014614105224609e+00 -6.791153550148010254e-01 -1.027423739433288574e-01
1.369000000000000000e+03 2.155513763427734375e+01 -1.395295906066894531e+01 -6.662794202566146851e-02 -2.204650163650512695e+00 -6.813834309577941895e-01 -1.379131078720092773e-01
1.370000000000000000e+03 2.190485572814941406e+01 -4.178720951080322266e+00 2.388644404709339142e-02 -2.004054546356201172e+00 -5.940504074096679688e-01 -1.220325678586959839e-01
1.371000000000000000e+03 2.225963592529296875e+01 7.123279094696044922e+00 -1.211209874600172043e-02 -1.640484929084777832e+00 -4.957790970802307129e-01 -1.625443696975708008e-01
1.372000000000000000e+03 2.486262321472167969e+01 -2.255424690246582031e+01 3.711842745542526245e-02 -1.604401707649230957e+00 -4.701849818229675293e-01 -1.045457124710083008e-01
1.373000000000000000e+03 1.171881484985351562e+01 -2.839469337463378906e+01 5.287369276629760861e-05 1.001299242489039898e-03 3.162518842145800591e-04 -1.356068532913923264e-03
1.374000000000000000e+03 2.221831321716308594e+01 2.864855527877807617e+00 -3.843824192881584167e-02 -1.822505831718444824e+00 -5.582832098007202148e-01 -1.583302766084671021e-01
1.375000000000000000e+03 1.450923347473144531e+01 -2.487154579162597656e+01 5.506918532773852348e-04 -8.582902955822646618e-04 -9.227952250512316823e-05 5.228594818618148565e-05
1.376000000000000000e+03 1.110613727569580078e+01 -2.612230682373046875e+01 -1.672502403380349278e-04 -2.095985983032733202e-04 -1.130546515923924744e-04 -5.202784086577594280e-04
1.377000000000000000e+03 2.123562812805175781e+01 -2.665378952026367188e+01 2.307571005076169968e-03 -2.260188817977905273e+00 -6.773643493652343750e-01 -7.126038521528244019e-02
1.378000000000000000e+03 2.099422836303710938e+01 2.682280540466308594e+01 -2.631391165778040886e-03 -1.658940613269805908e-01 -5.055763572454452515e-02 -2.947953715920448303e-02
1.379000000000000000e+03 2.542046165466308594e+01 3.349275207519531250e+01 -5.800891667604446411e-02 -1.755276881158351898e-02 -2.266850508749485016e-02 -4.099814593791961670e-02
1.380000000000000000e+03 2.105095481872558594e+01 1.133330249786376953e+01 2.845325798261910677e-04 -1.445844173431396484e+00 -4.336678683757781982e-01 -5.021171644330024719e-02
1.381000000000000000e+03 2.094571495056152344e+01 3.100354766845703125e+01 -2.400008263066411018e-03 -1.175099518150091171e-02 -4.245300777256488800e-03 -9.276445023715496063e-03
1.382000000000000000e+03 1.483030796051025391e+01 -2.151139736175537109e+00 1.391633704770356417e-04 -3.446756454650312662e-05 3.140874105156399310e-05 7.364626071648672223e-05
1.383000000000000000e+03 2.166378402709960938e+01 -9.742805480957031250e+00 -2.588344551622867584e-02 -2.149629354476928711e+00 -6.526538729667663574e-01 -1.154509112238883972e-01
1.384000000000000000e+03 2.174602317810058594e+01 -6.959301471710205078e+00 2.760852873325347900e-02 -2.069512605667114258e+00 -6.125711798667907715e-01 -1.412868648767471313e-01
1.385000000000000000e+03 2.227046966552734375e+01 9.927929878234863281e+00 -1.830384571803733706e-04 -1.420790791511535645e+00 -4.262921512126922607e-01 -1.508558541536331177e-01
1.386000000000000000e+03 2.357116889953613281e+01 1.695811080932617188e+01 -6.527007208205759525e-04 -7.906528711318969727e-01 -2.373916804790496826e-01 -2.536282837390899658e-01
1.387000000000000000e+03 2.103239059448242188e+01 2.260229110717773438e+01 -1.474065822549164295e-03 -4.536909461021423340e-01 -1.365495026111602783e-01 -4.573823884129524231e-02
1.388000000000000000e+03 2.324740600585937500e+01 2.549468803405761719e+01 -2.458501420915126801e-02 -2.656427323818206787e-01 -8.706832677125930786e-02 -1.628373563289642334e-01
1.389000000000000000e+03 2.105740928649902344e+01 1.978948783874511719e+01 -8.373655145987868309e-04 -6.880442500114440918e-01 -2.066644877195358276e-01 -5.224392190575599670e-02
1.390000000000000000e+03 2.231010627746582031e+01 1.982644081115722656e+01 -3.308995859697461128e-03 -6.450290083885192871e-01 -1.945013999938964844e-01 -1.539805382490158081e-01
1.391000000000000000e+03 2.358709526062011719e+01 1.985298919677734375e+01 -9.055908769369125366e-03 -5.968639254570007324e-01 -1.817759573459625244e-01 -2.447652667760848999e-01
1.392000000000000000e+03 2.231790542602539062e+01 1.697913169860839844e+01 3.909162478521466255e-04 -8.644379377365112305e-01 -2.592141032218933105e-01 -1.606640964746475220e-01
1.393000000000000000e+03 2.232188224792480469e+01 1.840572166442871094e+01 -1.613025437109172344e-03 -7.529478669166564941e-01 -2.263682782649993896e-01 -1.594129055738449097e-01
1.394000000000000000e+03 2.209741592407226562e+01 2.827267456054687500e+01 -1.173954829573631287e-02 -1.266436874866485596e-01 -4.151497408747673035e-02 -6.730230152606964111e-02
1.395000000000000000e+03 2.332769775390625000e+01 2.410902023315429688e+01 -2.107476070523262024e-02 -3.400102555751800537e-01 -1.083255112171173096e-01 -1.887339651584625244e-01
1.396000000000000000e+03 2.229290008544921875e+01 1.414228057861328125e+01 2.699448494240641594e-03 -1.090481519699096680e+00 -3.263346254825592041e-01 -1.576261669397354126e-01
1.397000000000000000e+03 1.318029212951660156e+01 -1.463163280487060547e+01 4.690024361480027437e-04 -6.431219662772491574e-05 1.214070725836791098e-04 1.319999955740058795e-05
1.398000000000000000e+03 1.357772922515869141e+01 -7.904932022094726562e+00 -3.557892632670700550e-04 -7.932075095595791936e-05 -1.305330079048871994e-04 3.546078005456365645e-05
1.399000000000000000e+03 1.460495853424072266e+01 -7.921786308288574219e+00 4.711941874120384455e-04 3.012395427504088730e-05 1.503954408690333366e-04 -1.327681275142822415e-05
1.400000000000000000e+03 1.111785984039306641e+01 -3.370455026626586914e+00 5.446490467875264585e-05 1.296588889090344310e-04 5.523713480215519667e-05 -5.183721805224195123e-05
1.401000000000000000e+03 1.347168064117431641e+01 -1.192370796203613281e+01 4.204482247587293386e-04 6.143329665064811707e-05 1.445644593331962824e-04 -7.758419815218076110e-05
1.402000000000000000e+03 1.456287002563476562e+01 -1.208125972747802734e+01 -6.241650553420186043e-04 -3.324206045363098383e-05 -1.972221361938863993e-04 8.958369289757683873e-05
1.403000000000000000e+03 1.362663173675537109e+01 -5.277299880981445312e+00 -3.003098536282777786e-04 -4.988978616893291473e-05 -1.050598875735886395e-04 3.062256382690975443e-06
1.404000000000000000e+03 1.461924743652343750e+01 -5.177966594696044922e+00 4.090666479896754026e-04 4.080187136423774064e-05 1.349605590803548694e-04 4.585662827594205737e-05
1.405000000000000000e+03 1.447025012969970703e+01 -1.486548423767089844e+01 -6.566506926901638508e-04 -5.703901479137130082e-05 -2.141069271601736546e-04 7.528088463004678488e-05
1.406000000000000000e+03 1.430412578582763672e+01 -1.908042144775390625e+01 6.292181205935776234e-04 -1.778966106940060854e-04 1.353964471491053700e-04 -4.319288927945308387e-05
1.407000000000000000e+03 1.353382015228271484e+01 -2.627830123901367188e+01 4.559459048323333263e-04 -3.776608791667968035e-04 2.348550697206519544e-05 6.369396578520536423e-05
1.408000000000000000e+03 2.204099464416503906e+01 2.966375350952148438e+01 -1.169880386441946030e-02 -7.867736369371414185e-02 -2.711285091936588287e-02 -4.839248955249786377e-02
1.409000000000000000e+03 2.324328231811523438e+01 2.832078742980957031e+01 -3.118082880973815918e-02 -1.396197974681854248e-01 -5.124018713831901550e-02 -1.106811165809631348e-01
1.410000000000000000e+03 1.393689751625061035e+00 -3.996092987060546875e+01 -3.737966530025005341e-03 2.092994563281536102e-02 5.157593637704849243e-03 1.024487544782459736e-03
1.411000000000000000e+03 6.950077414512634277e-01 3.742372512817382812e+01 -3.881580487359315157e-04 1.793159867702343035e-06 -1.159094681497663260e-04 9.416725515620782971e-05
1.412000000000000000e+03 6.882016062736511230e-01 3.327624893188476562e+01 1.527313870610669255e-04 1.630560291232541203e-05 5.071109626442193985e-05 -1.003119632514426485e-05
1.413000000000000000e+03 2.298453092575073242e+00 3.820164489746093750e+01 -3.154528676532208920e-04 -7.524974353145807981e-05 -1.172107804450206459e-04 1.355704152956604958e-04
1.414000000000000000e+03 6.499353647232055664e-01 2.621877479553222656e+01 -2.110702043864876032e-04 -2.135681711479264777e-07 -6.338513048831373453e-05 -1.521657623015926220e-06
1.415000000000000000e+03 1.979275584220886230e+00 2.899733924865722656e+01 2.348780253669247031e-04 -9.561736078467220068e-06 6.759489042451605201e-05 4.244703450240194798e-05
1.416000000000000000e+03 5.947331786155700684e-01 -3.613750457763671875e+01 6.471009925007820129e-03 1.026538573205471039e-02 5.020918790251016617e-03 2.514763502404093742e-03
1.417000000000000000e+03 2.570245265960693359e+00 -3.331330490112304688e+01 -1.358501380309462547e-03 2.271176315844058990e-03 2.738025214057415724e-04 3.941591363400220871e-03
1.418000000000000000e+03 3.228699445724487305e+00 2.754456901550292969e+01 2.866418217308819294e-04 -2.659563870111014694e-05 7.801385072525590658e-05 4.177931623416952789e-05
1.419000000000000000e+03 3.288687944412231445e+00 2.475117874145507812e+01 2.535980602260679007e-04 6.613653567910660058e-06 7.806351641193032265e-05 2.583803325251210481e-05
1.420000000000000000e+03 2.099249839782714844e+00 3.322407531738281250e+01 -1.861207565525546670e-04 -5.011662869947031140e-05 -7.087121048243716359e-05 -1.031691954267444089e-05
1.421000000000000000e+03 3.200251579284667969e+00 3.922262954711914062e+01 2.470749313943088055e-04 3.662743256427347660e-05 8.511071064276620746e-05 -1.558511285111308098e-04
1.422000000000000000e+03 1.850655198097229004e+00 -2.878661918640136719e+01 2.372660208493471146e-03 2.156629125238396227e-05 7.182679837569594383e-04 9.194216108880937099e-04
1.423000000000000000e+03 1.755277514457702637e+00 -2.607819557189941406e+01 1.758436788804829121e-03 -3.985209914389997721e-04 4.079747304785996675e-04 2.655382268130779266e-04
1.424000000000000000e+03 1.850485086441040039e+00 -1.642077064514160156e+01 -6.476087146438658237e-04 -4.342613829066976905e-05 -2.073104406008496881e-04 -2.821167872752994299e-04
1.425000000000000000e+03 6.428135633468627930e-01 1.910956382751464844e+01 2.164331526728346944e-04 -1.776728026925411541e-06 6.439692515414208174e-05 -9.304014383815228939e-06
1.426000000000000000e+03 5.967401266098022461e-01 1.349290084838867188e+01 1.604557328391820192e-04 6.520921488117892295e-06 5.009299638913944364e-05 -1.821221849240828305e-05
1.427000000000000000e+03 5.551983714103698730e-01 7.837726116180419922e+00 9.251417213818058372e-05 1.545899181110144127e-06 2.821802263497374952e-05 -6.785093773942207918e-06
1.428000000000000000e+03 1.653939366340637207e+00 -9.461314201354980469e+00 1.636992092244327068e-04 1.392960803059395403e-05 5.328864790499210358e-05 1.725428091958747245e-06
1.429000000000000000e+03 3.691702842712402344e+00 -3.876903533935546875e+01 -1.289196778088808060e-03 1.196181029081344604e-02 3.201784100383520126e-03 1.051039807498455048e-02
1.430000000000000000e+03 2.281752824783325195e+00 -3.166709899902343750e+01 4.000680521130561829e-03 1.474421354942023754e-03 1.642530551180243492e-03 3.066939534619450569e-03
1.431000000000000000e+03 1.770503520965576172e+00 -2.742313003540039062e+01 -1.644016476348042488e-03 -1.295356050832197070e-04 -5.320656346157193184e-04 -1.276583352591842413e-04
1.432000000000000000e+03 2.955177545547485352e+00 -2.597442245483398438e+01 -1.213280367664992809e-03 -9.903042155201546848e-06 -3.669550351332873106e-04 -3.934916749130934477e-04
1.433000000000000000e+03 1.824891567230224609e+00 -2.197469139099121094e+01 -1.247917185537517071e-03 -1.944843825185671449e-04 -4.327204660512506962e-04 -3.886807244271039963e-04
1.434000000000000000e+03 1.767529129981994629e+00 -2.472223281860351562e+01 -1.443875022232532501e-03 -3.672149905469268560e-04 -5.433270125649869442e-04 -3.908310027327388525e-04
1.435000000000000000e+03 3.115556716918945312e+00 -1.922233581542968750e+01 8.797163027338683605e-04 -1.584739802638068795e-04 2.163726894650608301e-04 2.160960284527391195e-04
1.436000000000000000e+03 6.130848526954650879e-01 -1.918197250366210938e+01 9.438005508854985237e-04 -2.475737419445067644e-04 2.088680485030636191e-04 4.663057552534155548e-05
1.437000000000000000e+03 1.852039456367492676e+00 -1.920178794860839844e+01 -9.582893690094351768e-04 -8.994952077046036720e-05 -3.144716611132025719e-04 -3.563115024007856846e-04
1.438000000000000000e+03 1.770896673202514648e+00 -1.222088623046875000e+01 2.827566349878907204e-04 3.053347427339758724e-06 8.574299863539636135e-05 7.415634900098666549e-05
1.439000000000000000e+03 5.850558876991271973e-01 -1.214546489715576172e+01 -1.566721766721457243e-04 -1.091463946067960933e-05 -5.027604493079707026e-05 -2.932031202362850308e-05
1.440000000000000000e+03 5.286073207855224609e+00 -3.398683547973632812e+00 1.779477606760337949e-04 3.573863523342879489e-06 5.445648639579303563e-05 1.197856249746109825e-06
1.441000000000000000e+03 3.680171251296997070e+00 -2.852745532989501953e+00 -9.065170888788998127e-05 -1.234789815498515964e-04 -6.423920422093942761e-05 -5.079206675873138011e-05
1.442000000000000000e+03 2.929696798324584961e+00 -2.911883831024169922e+00 2.380684782110620290e-05 8.717444870853796601e-05 3.329438914079219103e-05 2.078899160551372916e-05
1.443000000000000000e+03 1.500806689262390137e+00 -3.420149326324462891e+00 1.312577660428360105e-04 1.370168029097840190e-04 8.048237214097753167e-05 1.093866521841846406e-04
1.444000000000000000e+03 4.725988805294036865e-01 5.034934043884277344e+00 9.820592822507023811e-05 9.124370080826338381e-06 3.219908830942586064e-05 1.339951359113911167e-05
1.445000000000000000e+03 2.421940565109252930e+00 4.456771850585937500e+00 -1.260929002455668524e-05 -6.426171239581890404e-06 -5.710638561140513048e-06 -4.136533607379533350e-05
1.446000000000000000e+03 1.736869454383850098e+00 1.062568473815917969e+01 -1.260662829736247659e-04 -4.527988949121208861e-06 -3.917828144039958715e-05 1.272773261007387191e-05
1.447000000000000000e+03 5.807947516441345215e-01 1.066975688934326172e+01 1.193199204863049090e-04 1.848152351158205420e-06 3.635042230598628521e-05 -7.776435268169734627e-06
1.448000000000000000e+03 1.797129154205322266e+00 1.344943141937255859e+01 -1.398883468937128782e-04 -1.916007749969139695e-05 -4.771452950080856681e-05 2.611517265904694796e-05
1.449000000000000000e+03 1.988768815994262695e+00 2.042223739624023438e+01 2.077384269796311855e-04 -1.064755906554637477e-06 6.200210191309452057e-05 3.475961875665234402e-06
1.450000000000000000e+03 1.932105660438537598e+00 1.895057487487792969e+01 -2.134139940608292818e-04 4.519616595644038171e-06 -6.266831769607961178e-05 -2.363906105529167689e-06
1.451000000000000000e+03 1.968338131904602051e+00 2.476912307739257812e+01 -2.334999589947983623e-04 -1.661800297370064072e-06 -7.054852903820574284e-05 -1.211310609505744651e-05
1.452000000000000000e+03 6.300745391845703125e+01 3.259832763671875000e+01 2.159199953079223633e+00 8.941141128540039062e+00 3.330102443695068359e+00 -5.975332736968994141e+00
1.453000000000000000e+03 6.185614013671875000e+01 3.265107345581054688e+01 1.657022356986999512e+00 2.395282506942749023e+00 1.215691447257995605e+00 -2.940234661102294922e+00
1.454000000000000000e+03 6.214603424072265625e+01 3.281895065307617188e+01 1.979565978050231934e+00 4.050246715545654297e+00 1.808943867683410645e+00 -4.038797855377197266e+00
1.455000000000000000e+03 6.287724304199218750e+01 3.291147994995117188e+01 1.711788654327392578e+00 8.003177642822265625e+00 2.914489984512329102e+00 -5.519954681396484375e+00
1.456000000000000000e+03 6.405345153808593750e+01 3.260883331298828125e+01 2.847134172916412354e-01 1.806934165954589844e+01 5.506216526031494141e+00 -4.020588874816894531e+00
1.457000000000000000e+03 6.231637954711914062e+01 2.934893035888671875e+01 2.384219646453857422e+00 3.660180568695068359e+00 1.813320040702819824e+00 4.666696071624755859e+00
1.458000000000000000e+03 6.328976440429687500e+01 2.927394485473632812e+01 1.933824777603149414e+00 1.115744972229003906e+01 3.927382469177246094e+00 7.020014286041259766e+00
1.459000000000000000e+03 6.171491622924804688e+01 2.934413528442382812e+01 1.329779028892517090e+00 1.693341851234436035e+00 9.069362282752990723e-01 2.983807086944580078e+00
1.460000000000000000e+03 6.137845611572265625e+01 2.860163497924804688e+01 1.226231336593627930e+00 2.618545532226562500e+00 1.153433084487915039e+00 3.369795083999633789e+00
1.461000000000000000e+03 6.249210357666015625e+01 2.934682273864746094e+01 2.593273639678955078e+00 4.596613407135009766e+00 2.156965970993041992e+00 5.197316169738769531e+00
1.462000000000000000e+03 6.419452667236328125e+01 2.889138412475585938e+01 4.725937172770500183e-02 1.725661849975585938e+01 5.191163539886474609e+00 3.579618453979492188e+00
1.463000000000000000e+03 6.500176239013671875e+01 2.918530464172363281e+01 1.752794742584228516e+00 1.869139480590820312e+01 6.133256435394287109e+00 -4.008814990520477295e-01
1.464000000000000000e+03 6.532330322265625000e+01 2.954484558105468750e+01 3.914116859436035156e+00 1.819716835021972656e+01 6.633385658264160156e+00 -1.913501620292663574e+00
1.465000000000000000e+03 6.508907318115234375e+01 2.976104164123535156e+01 4.567389488220214844e+00 1.966232490539550781e+01 7.268914222717285156e+00 -2.026941537857055664e+00
1.466000000000000000e+03 6.586714935302734375e+01 3.148660659790039062e+01 7.856997966766357422e+00 1.559217262268066406e+01 7.034750938415527344e+00 1.877703666687011719e+00
1.467000000000000000e+03 6.426921081542968750e+01 3.255954742431640625e+01 3.664404749870300293e-01 1.931164741516113281e+01 5.903426647186279297e+00 -2.717916011810302734e+00
1.468000000000000000e+03 6.514374542236328125e+01 3.196186256408691406e+01 5.177128314971923828e+00 1.948867607116699219e+01 7.399741172790527344e+00 2.659790515899658203e+00
1.469000000000000000e+03 5.898112487792968750e+01 3.356345367431640625e+01 -8.672922104597091675e-02 5.618101954460144043e-01 1.425242871046066284e-01 -4.369469881057739258e-01
1.470000000000000000e+03 6.062788391113281250e+01 3.331424331665039062e+01 6.449015736579895020e-01 1.586871504783630371e+00 6.695319414138793945e-01 -1.581768870353698730e+00
1.471000000000000000e+03 6.024364852905273438e+01 3.409568023681640625e+01 7.597423791885375977e-01 2.144842624664306641e+00 8.713755011558532715e-01 -1.689558744430541992e+00
1.472000000000000000e+03 6.105962753295898438e+01 3.317924118041992188e+01 9.674534201622009277e-01 2.008245944976806641e+00 8.927098512649536133e-01 -2.187237977981567383e+00
1.473000000000000000e+03 5.860397338867187500e+01 2.932980918884277344e+01 -1.866467475891113281e+00 8.288223296403884888e-02 -5.350755453109741211e-01 5.130154490470886230e-01
1.474000000000000000e+03 5.779176330566406250e+01 2.881138420104980469e+01 -1.527034163475036621e+00 1.414833813905715942e-01 -4.156652390956878662e-01 4.997844099998474121e-01
1.475000000000000000e+03 5.822615051269531250e+01 2.814853096008300781e+01 -7.053314447402954102e-01 4.213772416114807129e-01 -8.518625050783157349e-02 9.068103432655334473e-01
1.476000000000000000e+03 5.885529327392578125e+01 2.799309730529785156e+01 -2.377353012561798096e-01 7.323922514915466309e-01 1.483970880508422852e-01 1.323820233345031738e+00
1.477000000000000000e+03 2.690431022644042969e+01 3.347687530517578125e+01 -9.716635942459106445e-02 -9.319561533629894257e-03 -3.194577619433403015e-02 -5.871070921421051025e-02
1.478000000000000000e+03 2.965237617492675781e+01 3.246073150634765625e+01 -2.255106866359710693e-01 6.180363241583108902e-03 -6.579909473657608032e-02 -1.208367347717285156e-01
1.479000000000000000e+03 2.075789070129394531e+01 3.989543533325195312e+01 -2.712721005082130432e-03 7.996884523890912533e-04 -5.739097832702100277e-04 -4.894958465229137801e-07
1.480000000000000000e+03 2.137963294982910156e+01 3.914874649047851562e+01 4.255060048308223486e-04 9.690020815469324589e-04 4.183524288237094879e-04 -9.504645713604986668e-04
1.481000000000000000e+03 1.387659740447998047e+01 2.682837724685668945e+00 -5.652577965520322323e-05 2.080091690004337579e-05 -1.071745919034583494e-05 -9.384577424498274922e-06
1.482000000000000000e+03 3.793595552444458008e+00 2.779258489608764648e+00 4.426637315191328526e-05 1.809908098948653787e-05 1.870963569672312587e-05 -6.021284661983372644e-06
1.483000000000000000e+03 6.000080585479736328e+00 2.684594392776489258e+00 -2.863582813006360084e-05 -2.330360621272120625e-05 -1.558183066663332283e-05 3.267887677793623880e-06
1.484000000000000000e+03 5.965028285980224609e+00 3.478423357009887695e+00 3.551991540007293224e-05 2.748912811512127519e-05 1.890271414595190436e-05 -1.359932184641365893e-06
1.485000000000000000e+03 6.689455986022949219e+00 3.458998918533325195e+00 -3.714582999236881733e-05 -2.637688157847151160e-05 -1.905681347125209868e-05 -4.228649288506858284e-07
1.486000000000000000e+03 8.911767959594726562e+00 3.403439998626708984e+00 4.334083132562227547e-05 1.658443761698435992e-05 1.797757977328728884e-05 1.584028359502553940e-05
1.487000000000000000e+03 6.726012706756591797e+00 2.669423341751098633e+00 2.895527904911432415e-05 2.261150075355544686e-05 1.547003375890199095e-05 -4.259277091023250250e-07
1.488000000000000000e+03 7.415677547454833984e+00 3.441064119338989258e+00 3.372576247784309089e-05 2.633904659887775779e-05 1.801944381440989673e-05 3.120877636320074089e-06
1.489000000000000000e+03 4.471869945526123047e+00 3.604134082794189453e+00 3.769839167944155633e-05 2.471576954121701419e-05 1.872424763860180974e-05 -1.483513642597245052e-05
1.490000000000000000e+03 4.522975921630859375e+00 2.752802133560180664e+00 -3.302590266685001552e-05 -2.102265898429322988e-05 -1.621456976863555610e-05 1.131867702497402206e-05
1.491000000000000000e+03 2.438517570495605469e+00 2.691796302795410156e+00 4.728887142846360803e-05 2.218481313320808113e-05 2.084210609609726816e-05 3.618642665514926193e-07
1.492000000000000000e+03 1.114759159088134766e+01 2.511107683181762695e+00 4.292319863452576101e-05 -2.086680524371331558e-06 1.225095547852106392e-05 -1.218221677845576778e-05
1.493000000000000000e+03 1.122360610961914062e+01 3.237558126449584961e+00 -6.398400000762194395e-05 1.295092351938365027e-05 -1.530992267362307757e-05 1.083597726392326877e-05
1.494000000000000000e+03 2.376524543762207031e+01 3.340550994873046875e+01 -2.746668271720409393e-02 -2.009049989283084869e-02 -1.426715496927499771e-02 -2.150653116405010223e-02
1.495000000000000000e+03 2.461991882324218750e+01 3.249245452880859375e+01 -5.217494815587997437e-02 -3.443892672657966614e-02 -2.598416246473789215e-02 -5.156374350190162659e-02
1.496000000000000000e+03 5.660298538208007812e+01 3.502489471435546875e+01 6.204365566372871399e-02 3.249664008617401123e-01 1.161030158400535583e-01 -2.916999906301498413e-02
1.497000000000000000e+03 5.448859786987304688e+01 3.540351867675781250e+01 -6.873498111963272095e-02 1.339076906442642212e-01 1.955180987715721130e-02 2.838044166564941406e-01
1.498000000000000000e+03 4.999453353881835938e+01 3.509322357177734375e+01 -4.170931875705718994e-01 -1.322967708110809326e-01 -1.648169904947280884e-01 4.185476601123809814e-01
1.499000000000000000e+03 5.008904647827148438e+01 3.753260421752929688e+01 2.608335614204406738e-01 -2.123077660799026489e-01 1.455773785710334778e-02 3.737773001194000244e-01
1.500000000000000000e+03 3.035429573059082031e+01 3.234296417236328125e+01 -2.618142366409301758e-01 1.259572524577379227e-02 -7.476554811000823975e-02 -1.304544061422348022e-01
1.501000000000000000e+03 3.106275558471679688e+01 3.221958923339843750e+01 -3.008888363838195801e-01 1.850678026676177979e-02 -8.471461385488510132e-02 -1.401568353176116943e-01
1.502000000000000000e+03 2.195439338684082031e+01 3.223304367065429688e+01 -9.612099267542362213e-03 -2.009142190217971802e-02 -8.911056444048881531e-03 -1.417676266282796860e-02
1.503000000000000000e+03 2.377143859863281250e+01 3.236339187622070312e+01 -3.605031222105026245e-02 -3.551290929317474365e-02 -2.146896719932556152e-02 -4.040379822254180908e-02
1.504000000000000000e+03 5.190163040161132812e+01 3.491250610351562500e+01 -4.379910826683044434e-01 -1.027339398860931396e-01 -1.622175127267837524e-01 4.674018621444702148e-01
1.505000000000000000e+03 4.486392593383789062e+01 3.586261367797851562e+01 -1.566248983144760132e-01 -1.267914026975631714e-01 -8.502488583326339722e-02 2.388758212327957153e-01
1.506000000000000000e+03 4.154540634155273438e+01 3.841747665405273438e+01 2.416920289397239685e-02 -1.283608824014663696e-01 -3.125750645995140076e-02 1.389210671186447144e-01
1.507000000000000000e+03 2.826288604736328125e+01 3.264061737060546875e+01 -1.628083139657974243e-01 -5.585446953773498535e-03 -5.051812529563903809e-02 -1.003159210085868835e-01
1.508000000000000000e+03 2.757978248596191406e+01 3.268727111816406250e+01 -1.363644450902938843e-01 -1.207961980253458023e-02 -4.453321918845176697e-02 -9.153860807418823242e-02
1.509000000000000000e+03 5.773252868652343750e+01 3.379684066772460938e+01 -3.820863962173461914e-01 2.657600045204162598e-01 -3.489791601896286011e-02 -3.052726574242115021e-02
1.510000000000000000e+03 5.505451965332031250e+01 3.603736495971679688e+01 2.574630379676818848e-01 3.245578408241271973e-01 1.746062636375427246e-01 1.125222444534301758e-01
1.511000000000000000e+03 5.727661514282226562e+01 3.477335357666015625e+01 8.550053089857101440e-02 4.213616847991943359e-01 1.520586609840393066e-01 -1.197172030806541443e-01
1.512000000000000000e+03 5.969971847534179688e+01 3.471433639526367188e+01 6.518985033035278320e-01 1.981998801231384277e+00 7.901691794395446777e-01 -1.341383695602416992e+00
1.513000000000000000e+03 5.597426986694335938e+01 3.625447082519531250e+01 4.136882722377777100e-01 5.022253394126892090e-01 2.747740745544433594e-01 -1.100950092077255249e-01
1.514000000000000000e+03 5.098134994506835938e+01 3.571290588378906250e+01 -1.838731020689010620e-01 -9.248176962137222290e-02 -8.290646225214004517e-02 4.643921852111816406e-01
1.515000000000000000e+03 5.026020050048828125e+01 3.603319168090820312e+01 -6.218677014112472534e-02 -1.270324289798736572e-01 -5.676576122641563416e-02 4.999203085899353027e-01
1.516000000000000000e+03 5.058701324462890625e+01 3.488537216186523438e+01 -4.291366338729858398e-01 -1.276413351297378540e-01 -1.670333892107009888e-01 4.555151462554931641e-01
1.517000000000000000e+03 5.420714187622070312e+01 3.450522232055664062e+01 -5.188852548599243164e-01 4.618313163518905640e-02 -1.418106406927108765e-01 3.880560100078582764e-01
1.518000000000000000e+03 5.380398941040039062e+01 3.582058334350585938e+01 -1.943787932395935059e-02 1.013336479663848877e-01 2.456873096525669098e-02 3.070896863937377930e-01
1.519000000000000000e+03 5.512714004516601562e+01 3.520554351806640625e+01 -9.318592399358749390e-02 2.073752284049987793e-01 3.425678983330726624e-02 1.912349611520767212e-01
1.520000000000000000e+03 4.747868728637695312e+01 3.558551788330078125e+01 -2.396226376295089722e-01 -1.712931841611862183e-01 -1.232747510075569153e-01 3.455935418605804443e-01
1.521000000000000000e+03 3.251430892944335938e+01 3.196484756469726562e+01 -3.907248079776763916e-01 3.063724748790264130e-02 -1.080262660980224609e-01 -1.583995074033737183e-01
1.522000000000000000e+03 3.324561691284179688e+01 3.183561515808105469e+01 -4.405990242958068848e-01 3.634356707334518433e-02 -1.212766319513320923e-01 -1.663476228713989258e-01
1.523000000000000000e+03 4.680001068115234375e+01 3.565073776245117188e+01 -1.815729290246963501e-01 -1.455214172601699829e-01 -9.812831133604049683e-02 3.052811324596405029e-01
1.524000000000000000e+03 1.257890033721923828e+01 2.778740882873535156e+00 -8.773215995461214334e-06 -1.140142217082029674e-06 -2.974007429656921886e-06 1.970337325474247336e-05
1.525000000000000000e+03 9.670550346374511719e+00 -3.329583168029785156e+00 6.481035961769521236e-05 1.273144880542531610e-04 5.763745502918027341e-05 2.771239996945951134e-05
1.526000000000000000e+03 1.363126373291015625e+01 -4.043694019317626953e+00 2.485651348251849413e-04 1.061452130670659244e-04 1.064130992745049298e-04 -3.913740874850191176e-05
1.527000000000000000e+03 9.709761619567871094e+00 -4.059291839599609375e+00 -3.447510971454903483e-05 -1.753403339534997940e-04 -6.294463673839345574e-05 -8.438672921329271048e-06
1.528000000000000000e+03 3.988366317749023438e+01 3.058577728271484375e+01 -1.005317330360412598e+00 7.263516634702682495e-02 -2.798046469688415527e-01 -2.045719176530838013e-01
1.529000000000000000e+03 1.245842647552490234e+01 -2.628800392150878906e+00 -1.875193702289834619e-04 4.081732913618907332e-05 -4.401061232783831656e-05 1.053944743034662679e-05
1.530000000000000000e+03 3.705072021484375000e+01 3.180932807922363281e+01 -7.498406171798706055e-01 4.946693032979965210e-02 -2.101121097803115845e-01 -1.303207725286483765e-01
1.531000000000000000e+03 3.915065383911132812e+01 3.072650909423828125e+01 -9.353904724121093750e-01 7.038532942533493042e-02 -2.595015466213226318e-01 -2.023944258689880371e-01
1.532000000000000000e+03 3.631081008911132812e+01 3.195273780822753906e+01 -6.809822320938110352e-01 4.710365086793899536e-02 -1.901635676622390747e-01 -1.299841701984405518e-01
1.533000000000000000e+03 3.841133499145507812e+01 3.086572837829589844e+01 -8.652096986770629883e-01 6.756460666656494141e-02 -2.392935156822204590e-01 -1.998585760593414307e-01
1.534000000000000000e+03 3.557397842407226562e+01 3.209658050537109375e+01 -6.152287721633911133e-01 4.418379068374633789e-02 -1.713134944438934326e-01 -1.283915638923645020e-01
1.535000000000000000e+03 3.752943038940429688e+01 3.034089279174804688e+01 -7.639822363853454590e-01 7.076643407344818115e-02 -2.079647332429885864e-01 -2.597493231296539307e-01
1.536000000000000000e+03 3.397743988037109375e+01 3.170326042175292969e+01 -4.930073618888854980e-01 4.174755513668060303e-02 -1.353779435157775879e-01 -1.733972132205963135e-01
1.537000000000000000e+03 3.471275711059570312e+01 3.156776237487792969e+01 -5.486830472946166992e-01 4.659451544284820557e-02 -1.506265550851821899e-01 -1.798708736896514893e-01
1.538000000000000000e+03 3.618444442749023438e+01 3.128808784484863281e+01 -6.672640442848205566e-01 5.530011653900146484e-02 -1.835891753435134888e-01 -1.902496665716171265e-01
1.539000000000000000e+03 4.135255432128906250e+01 3.029843711853027344e+01 -1.148324728012084961e+00 7.366807758808135986e-02 -3.223969936370849609e-01 -2.088972777128219604e-01
1.540000000000000000e+03 1.294806861877441406e+01 3.200289964675903320e+00 -7.230213668663054705e-06 -2.496798333595506847e-05 -9.659459465183317661e-06 -4.185772195341996849e-05
1.541000000000000000e+03 4.357929229736328125e+01 2.986277961730957031e+01 -1.363797426223754883e+00 7.081105560064315796e-02 -3.878959119319915771e-01 -2.123132795095443726e-01
1.542000000000000000e+03 4.283000183105468750e+01 3.000604248046875000e+01 -1.291452407836914062e+00 7.244586199522018433e-02 -3.657019436359405518e-01 -2.118373811244964600e-01
1.543000000000000000e+03 4.432819366455078125e+01 2.972289085388183594e+01 -1.434212803840637207e+00 7.040129601955413818e-02 -4.091434478759765625e-01 -2.117971628904342651e-01
1.544000000000000000e+03 4.445052337646484375e+01 3.039358139038085938e+01 -1.559918880462646484e+00 5.151601508259773254e-02 -4.525208771228790283e-01 -1.191780120134353638e-01
1.545000000000000000e+03 4.594857025146484375e+01 3.012978744506835938e+01 -1.731585979461669922e+00 4.715606942772865295e-02 -5.053289532661437988e-01 -1.155626326799392700e-01
1.546000000000000000e+03 1.355178642272949219e+01 4.221866607666015625e+00 -9.119447349803522229e-05 2.258518406961229630e-06 -2.668078741407953203e-05 -4.987989541405113414e-06
1.547000000000000000e+03 4.745443344116210938e+01 2.988416099548339844e+01 -1.892760634422302246e+00 3.704230487346649170e-02 -5.567154884338378906e-01 -1.087154969573020935e-01
1.548000000000000000e+03 4.583413696289062500e+01 2.945757484436035156e+01 -1.569681644439697266e+00 6.541454792022705078e-02 -4.512801170349121094e-01 -2.087972611188888550e-01
1.549000000000000000e+03 5.346783065795898438e+01 2.916757965087890625e+01 -2.273557662963867188e+00 1.435039751231670380e-02 -6.777621507644653320e-01 3.786356188356876373e-03
1.550000000000000000e+03 5.495579910278320312e+01 2.905006599426269531e+01 -2.208097934722900391e+00 1.934329606592655182e-02 -6.566263437271118164e-01 8.624803274869918823e-02
1.551000000000000000e+03 5.272225189208984375e+01 2.923428535461425781e+01 -2.270192384719848633e+00 1.660864055156707764e-02 -6.760751605033874512e-01 -2.442544139921665192e-02
1.552000000000000000e+03 5.122785949707031250e+01 2.938478088378906250e+01 -2.211023330688476562e+00 1.945751532912254333e-02 -6.574697494506835938e-01 -6.000537052750587463e-02
1.553000000000000000e+03 4.963240051269531250e+01 2.889949989318847656e+01 -1.835040926933288574e+00 4.395084828138351440e-02 -5.373269915580749512e-01 -1.623039692640304565e-01
1.554000000000000000e+03 5.197499847412109375e+01 2.930628013610839844e+01 -2.247979879379272461e+00 1.618932187557220459e-02 -6.695371866226196289e-01 -4.436520859599113464e-02
1.555000000000000000e+03 4.876119995117187500e+01 2.832359504699707031e+01 -1.556983828544616699e+00 7.080154865980148315e-02 -4.458546638488769531e-01 -2.407290190458297729e-01
1.556000000000000000e+03 4.886960983276367188e+01 2.899561691284179688e+01 -1.793559551239013672e+00 4.826919734477996826e-02 -5.235871076583862305e-01 -1.779798269271850586e-01
1.557000000000000000e+03 5.483757781982421875e+01 2.845706367492675781e+01 -1.759474873542785645e+00 7.500048726797103882e-02 -5.053423047065734863e-01 1.093914434313774109e-01
1.558000000000000000e+03 5.421238708496093750e+01 2.910592842102050781e+01 -2.256172418594360352e+00 1.894916966557502747e-02 -6.711669564247131348e-01 3.779948130249977112e-02
1.559000000000000000e+03 4.507824325561523438e+01 2.958756828308105469e+01 -1.503646731376647949e+00 6.786988675594329834e-02 -4.307330548763275146e-01 -2.111607193946838379e-01
1.560000000000000000e+03 4.208689498901367188e+01 3.015178680419921875e+01 -1.219943642616271973e+00 7.280325144529342651e-02 -3.441421389579772949e-01 -2.108561545610427856e-01
1.561000000000000000e+03 6.744719505310058594e+00 -3.440982580184936523e+00 1.807388180168345571e-04 3.383236253284849226e-05 6.437135743908584118e-05 2.419059273961465806e-05
1.562000000000000000e+03 2.691792726516723633e+00 -7.068833351135253906e+00 -1.437880418961867690e-04 1.358232111670076847e-05 -3.906171696144156158e-05 5.265457275527296588e-06
1.563000000000000000e+03 7.813797473907470703e+00 -5.131980419158935547e+00 -1.941934751812368631e-04 -1.793103147065266967e-04 -1.120511369663290679e-04 -9.400564158568158746e-05
1.564000000000000000e+03 5.335123538970947266e+00 -4.146111011505126953e+00 -3.366046003066003323e-04 7.655717490706592798e-05 -7.801422907505184412e-05 -1.291599619435146451e-04
1.565000000000000000e+03 5.913130760192871094e+00 -2.636937379837036133e+00 1.310057996306568384e-04 4.207875463180243969e-05 5.192536627873778343e-05 -5.299707481754012406e-06
1.566000000000000000e+03 6.005331039428710938e+00 -3.416440010070800781e+00 -1.465656532673165202e-04 -2.979877353936899453e-05 -5.290933040669187903e-05 -1.809388231777120382e-05
1.567000000000000000e+03 2.231761932373046875e+00 -3.026548624038696289e+00 -9.082710676011629403e-06 -1.709678617771714926e-04 -5.401517410064116120e-05 -6.351197953335940838e-05
1.568000000000000000e+03 1.753351092338562012e+00 -5.473688602447509766e+00 -1.743993379932362586e-05 8.285268995678052306e-05 1.962382702913600951e-05 2.260187466163188219e-05
1.569000000000000000e+03 8.945720672607421875e+00 -3.341951847076416016e+00 -9.689953731140121818e-05 -1.303136086789891124e-04 -6.816394306952133775e-05 -6.593285070266574621e-05
1.570000000000000000e+03 2.672001838684082031e+01 4.030212783813476562e+01 -1.714369049295783043e-03 9.088348015211522579e-04 -2.416602656012400985e-04 -4.648156173061579466e-04
1.571000000000000000e+03 2.789484977722167969e+01 3.998038482666015625e+01 -4.488815087825059891e-03 1.784063060767948627e-03 -8.114256197586655617e-04 -8.353395242011174560e-05
1.572000000000000000e+03 2.289206695556640625e+01 3.334635925292968750e+01 -1.616610772907733917e-02 -1.656671613454818726e-02 -9.819847531616687775e-03 -1.232811715453863144e-02
1.573000000000000000e+03 2.216764640808105469e+01 4.167111968994140625e+01 5.139079876244068146e-04 8.061753469519317150e-04 3.960249887313693762e-04 1.186105422675609589e-03
1.574000000000000000e+03 1.881311416625976562e+01 3.772470855712890625e+01 -3.334227367304265499e-04 2.806450065691024065e-04 -1.583331686560995877e-05 6.380759441526606679e-05
1.575000000000000000e+03 1.146540927886962891e+01 1.650221824645996094e+01 -1.489619171479716897e-04 1.747798364704067353e-06 -4.416423325892537832e-05 4.464680750970728695e-05
1.576000000000000000e+03 1.236808013916015625e+01 1.042495536804199219e+01 -1.074841929948888719e-04 -2.296552156622055918e-05 -3.913491309504024684e-05 -2.925982698798179626e-05
1.577000000000000000e+03 1.253797149658203125e+01 2.699443054199218750e+01 -3.034736728295683861e-04 -7.027166429907083511e-05 -1.121235982282087207e-04 -1.121653331210836768e-04
1.578000000000000000e+03 2.300081825256347656e+01 -1.113275337219238281e+01 -2.929138019680976868e-02 -1.924651265144348145e+00 -5.861827731132507324e-01 -1.541992127895355225e-01
1.579000000000000000e+03 2.360169792175292969e+01 4.739876091480255127e-02 5.942240823060274124e-03 -1.650878190994262695e+00 -4.934807717800140381e-01 -2.023699283599853516e-01
1.580000000000000000e+03 2.454868316650390625e+01 -7.033290863037109375e+00 2.227877266705036163e-02 -1.603709697723388672e+00 -4.744292795658111572e-01 -1.792322844266891479e-01
1.581000000000000000e+03 2.313318824768066406e+01 -6.996017456054687500e+00 2.479791082441806793e-02 -1.850964546203613281e+00 -5.478500127792358398e-01 -1.701795756816864014e-01
1.582000000000000000e+03 2.297623634338378906e+01 -1.813938331604003906e+01 4.128069430589675903e-02 -1.936843633651733398e+00 -5.686689019203186035e-01 -1.108289584517478943e-01
1.583000000000000000e+03 2.209475326538085938e+01 -1.355821728706359863e+00 -1.469628885388374329e-02 -1.899497270584106445e+00 -5.742580890655517578e-01 -1.942410022020339966e-01
1.584000000000000000e+03 2.357200622558593750e+01 -1.376505613327026367e+00 9.755641222000122070e-03 -1.683248400688171387e+00 -5.020478367805480957e-01 -1.898828744888305664e-01
1.585000000000000000e+03 1.167378425598144531e+01 3.137141609191894531e+01 -4.398779419716447592e-04 2.528811164665967226e-04 -5.609904474113136530e-05 -1.760501472745090723e-04
1.586000000000000000e+03 1.421173572540283203e+01 3.320654296875000000e+01 3.176072787027806044e-04 1.528742577647790313e-04 1.411444536643102765e-04 -1.326004130532965064e-04
1.587000000000000000e+03 1.330143260955810547e+01 2.171874427795410156e+01 2.743994991760700941e-04 9.743607733980752528e-06 8.524293662048876286e-05 -1.446562782803084701e-05
1.588000000000000000e+03 1.181814956665039062e+01 1.782983589172363281e+01 2.122296427842229605e-04 -1.688060729065909982e-05 5.860470992047339678e-05 -3.365920201758854091e-05
1.589000000000000000e+03 2.295797920227050781e+01 -1.672517776489257812e+01 1.061718538403511047e-02 -1.938433051109313965e+00 -5.783447623252868652e-01 -9.364206343889236450e-02
1.590000000000000000e+03 1.161510467529296875e+01 1.423225784301757812e+01 9.759167733136564493e-05 2.859774576791096479e-05 3.785682565649040043e-05 8.649796654935926199e-05
1.591000000000000000e+03 1.361006927490234375e+01 6.530490875244140625e+00 -8.921496919356286526e-05 -4.326807811594335362e-06 -2.806253360176924616e-05 -4.165538939560065046e-06
1.592000000000000000e+03 1.055430126190185547e+01 4.933908462524414062e+00 8.482037810608744621e-05 6.416993528546299785e-06 2.737121212703641504e-05 2.823578688548877835e-05
1.593000000000000000e+03 1.098814487457275391e+01 1.265284824371337891e+01 6.354199285851791501e-05 6.723755359416827559e-05 3.923386248061433434e-05 6.227300764294341207e-05
1.594000000000000000e+03 1.360806179046630859e+01 5.309033393859863281e+00 8.230100502260029316e-05 -6.949452568960623466e-08 2.466945443302392960e-05 2.334106966372928582e-06
1.595000000000000000e+03 8.915788650512695312e+00 4.175836563110351562e+00 -4.769687802763655782e-05 -2.378765384491998702e-05 -2.144535937986802310e-05 -2.643574407557025552e-05
1.596000000000000000e+03 9.362685203552246094e+00 -3.348926544189453125e+01 1.800366491079330444e-02 -9.286644868552684784e-03 2.615105826407670975e-03 -8.812150917947292328e-04
1.597000000000000000e+03 1.269822597503662109e+01 -3.138194465637207031e+01 1.923986477777361870e-03 2.559118904173374176e-03 1.344931661151349545e-03 -1.517357304692268372e-03
1.598000000000000000e+03 1.188596057891845703e+01 2.051349830627441406e+01 2.565896429587155581e-04 1.258038264495553449e-05 8.075100777205079794e-05 -1.087290365830995142e-05
1.599000000000000000e+03 7.444155883789062500e+01 -3.495668029785156250e+01 -4.943315871059894562e-03 7.503739833831787109e+00 2.249639034271240234e+00 -5.976212676614522934e-03
1.600000000000000000e+03 7.720568084716796875e+01 -3.595675659179687500e+01 -5.071464926004409790e-03 8.007004737854003906e+00 2.400580167770385742e+00 2.606641501188278198e-02
1.601000000000000000e+03 7.535470581054687500e+01 -2.199413490295410156e+01 6.563937291502952576e-03 7.717022418975830078e+00 2.317075967788696289e+00 3.035786189138889313e-02
1.602000000000000000e+03 7.788732910156250000e+01 -2.922782325744628906e+01 -4.884255118668079376e-03 8.142977714538574219e+00 2.441428184509277344e+00 -1.565688638947904110e-03
1.603000000000000000e+03 7.302729034423828125e+01 -3.727928924560546875e+01 -7.514731027185916901e-03 7.184602260589599609e+00 2.153126239776611328e+00 -1.240453869104385376e-02
1.604000000000000000e+03 7.828974914550781250e+01 1.959350204467773438e+01 -4.356313869357109070e-02 7.635725021362304688e+00 2.277648448944091797e+00 -4.598508775234222412e-01
1.605000000000000000e+03 7.502133941650390625e+01 1.970288848876953125e+01 -2.881185412406921387e-01 8.034447669982910156e+00 2.323898792266845703e+00 -8.627666831016540527e-01
1.606000000000000000e+03 7.816836547851562500e+01 3.493618011474609375e+01 8.889108151197433472e-02 5.758666992187500000e+00 1.754267454147338867e+00 3.910370469093322754e-01
1.607000000000000000e+03 7.670275878906250000e+01 3.162624359130859375e+01 3.843966722488403320e-01 6.300452232360839844e+00 2.005454540252685547e+00 6.490800529718399048e-02
1.608000000000000000e+03 7.799364471435546875e+01 -2.217960929870605469e+01 4.891103599220514297e-04 8.206434249877929688e+00 2.462077140808105469e+00 9.175227954983711243e-03
1.609000000000000000e+03 7.661904144287109375e+01 -2.350332260131835938e+01 7.737228879705071449e-04 7.944857597351074219e+00 2.383689403533935547e+00 1.819816790521144867e-02
1.610000000000000000e+03 7.644347381591796875e+01 -3.067518806457519531e+01 -1.287308428436517715e-02 7.872090816497802734e+00 2.357765197753906250e+00 1.674347324296832085e-03
1.611000000000000000e+03 7.649851989746093750e+01 -2.921892738342285156e+01 -7.980091031640768051e-04 7.871247291564941406e+00 2.361134767532348633e+00 4.095174837857484818e-03
1.612000000000000000e+03 7.517989349365234375e+01 -2.485885047912597656e+01 4.304338712245225906e-03 7.671737194061279297e+00 2.302812337875366211e+00 2.495959587395191193e-02
1.613000000000000000e+03 7.652725219726562500e+01 -2.777666854858398438e+01 9.192895144224166870e-03 7.895445823669433594e+00 2.371391773223876953e+00 1.226580329239368439e-02
1.614000000000000000e+03 7.656921386718750000e+01 -2.492485237121582031e+01 4.513397812843322754e-03 7.924934864044189453e+00 2.378834486007690430e+00 1.930674910545349121e-02
1.615000000000000000e+03 7.644551086425781250e+01 -3.210901641845703125e+01 -6.040824111551046371e-03 7.876427650451660156e+00 2.361115932464599609e+00 1.511535979807376862e-02
1.616000000000000000e+03 7.687673950195312500e+01 -3.474720382690429688e+01 -1.871868595480918884e-02 7.956740379333496094e+00 2.381406545639038086e+00 3.027895279228687286e-02
1.617000000000000000e+03 7.373242187500000000e+01 -3.045841789245605469e+01 9.250278584659099579e-03 7.382073879241943359e+00 2.217397212982177734e+00 2.620725333690643311e-02
1.618000000000000000e+03 7.608549499511718750e+01 2.384312820434570312e+01 6.653540767729282379e-03 7.361467838287353516e+00 2.210436582565307617e+00 -1.028792500495910645e+00
1.619000000000000000e+03 7.718495941162109375e+01 2.241842460632324219e+01 -4.401042684912681580e-02 7.258200168609619141e+00 2.164256811141967773e+00 -8.099941015243530273e-01
1.620000000000000000e+03 7.695737457275390625e+01 1.265909194946289062e+01 -8.351372927427291870e-02 8.351172447204589844e+00 2.480297565460205078e+00 -2.220799475908279419e-01
1.621000000000000000e+03 7.818701171875000000e+01 1.261486625671386719e+01 -3.462098911404609680e-02 8.534709930419921875e+00 2.550026655197143555e+00 -1.603571176528930664e-01
1.622000000000000000e+03 7.434194183349609375e+01 1.275560760498046875e+01 -2.417948395013809204e-01 8.053071022033691406e+00 2.343382835388183594e+00 -2.515824437141418457e-01
1.623000000000000000e+03 7.700336456298828125e+01 1.406928634643554688e+01 -9.868156909942626953e-02 8.290447235107421875e+00 2.457529783248901367e+00 -2.957081198692321777e-01
1.624000000000000000e+03 7.718784332275390625e+01 2.380662345886230469e+01 4.698834381997585297e-03 6.985033512115478516e+00 2.096919536590576172e+00 -8.330738544464111328e-01
1.625000000000000000e+03 7.826286315917968750e+01 2.655884361267089844e+01 5.381476506590843201e-02 5.927275180816650391e+00 1.794327020645141602e+00 -5.109414458274841309e-01
1.626000000000000000e+03 7.801287841796875000e+01 -2.078298377990722656e+01 8.628059731563553214e-05 8.221231460571289062e+00 2.466395139694213867e+00 1.117899361997842789e-02
1.627000000000000000e+03 7.666692352294921875e+01 -2.209336853027343750e+01 8.514499058946967125e-04 7.960598945617675781e+00 2.388435125350952148e+00 2.048855274915695190e-02
1.628000000000000000e+03 7.719831848144531250e+01 2.655965805053710938e+01 1.301748156547546387e-01 6.458477497100830078e+00 1.976595640182495117e+00 -7.268083095550537109e-01
1.629000000000000000e+03 7.814919281005859375e+01 7.013191223144531250e+00 -1.596185192465782166e-02 8.684608459472656250e+00 2.600594043731689453e+00 -3.014804236590862274e-02
1.630000000000000000e+03 7.543220520019531250e+01 -1.504991817474365234e+01 7.220014929771423340e-03 7.802825927734375000e+00 2.343013763427734375e+00 5.057838559150695801e-02
1.631000000000000000e+03 7.545819091796875000e+01 -8.149823188781738281e+00 5.799402948468923569e-03 7.904606819152832031e+00 2.373121738433837891e+00 7.230807840824127197e-02
1.632000000000000000e+03 7.803894042968750000e+01 -1.520091629028320312e+01 3.980338224209845066e-04 8.294166564941406250e+00 2.488369226455688477e+00 1.609915494918823242e-02
1.633000000000000000e+03 7.542701721191406250e+01 -1.322914242744445801e+00 -8.016103878617286682e-03 8.017461776733398438e+00 2.402833461761474609e+00 7.392411679029464722e-02
1.634000000000000000e+03 7.805728912353515625e+01 -8.261732101440429688e+00 9.284091647714376450e-04 8.414582252502441406e+00 2.524653196334838867e+00 2.462469786405563354e-02
1.635000000000000000e+03 7.813092803955078125e+01 5.615316867828369141e+00 -1.034864597022533417e-02 8.679717063903808594e+00 2.600810527801513672e+00 -1.439391542226076126e-02
1.636000000000000000e+03 7.557323455810546875e+01 4.213959693908691406e+00 -3.622873127460479736e-02 8.141372680664062500e+00 2.431543111801147461e+00 3.285120055079460144e-02
1.637000000000000000e+03 7.718250274658203125e+01 2.102892303466796875e+01 -8.481907844543457031e-02 7.516779422760009766e+00 2.229588031768798828e+00 -7.498927116394042969e-01
1.638000000000000000e+03 7.628559875488281250e+01 3.605451965332031250e+01 1.356298662722110748e-02 6.955074787139892578e+00 2.090591430664062500e+00 6.788339018821716309e-01
1.639000000000000000e+03 7.786048889160156250e+01 3.630632781982421875e+01 -8.973091840744018555e-02 6.139626979827880859e+00 1.814968705177307129e+00 3.794856667518615723e-01
1.640000000000000000e+03 7.687754821777343750e+01 5.627240180969238281e+00 -2.688181400299072266e-02 8.417903900146484375e+00 2.517306566238403320e+00 -4.554522689431905746e-03
1.641000000000000000e+03 7.805780792236328125e+01 -1.344693183898925781e+00 -2.371244831010699272e-03 8.559277534484863281e+00 2.567071914672851562e+00 2.405102737247943878e-02
1.642000000000000000e+03 7.673834991455078125e+01 -2.707855939865112305e+00 -2.834668848663568497e-03 8.260664939880371094e+00 2.477349042892456055e+00 5.309226736426353455e-02
1.643000000000000000e+03 7.675813293457031250e+01 -9.572661399841308594e+00 2.315701451152563095e-03 8.136730194091796875e+00 2.441713809967041016e+00 4.613726586103439331e-02
1.644000000000000000e+03 7.673773193359375000e+01 -1.651049613952636719e+01 1.363634830340743065e-03 8.031873703002929688e+00 2.409970998764038086e+00 3.127688914537429810e-02
1.645000000000000000e+03 7.670508575439453125e+01 3.319727706909179688e+01 2.643524706363677979e-01 6.395499706268310547e+00 1.997955679893493652e+00 3.543482720851898193e-01
1.646000000000000000e+03 7.623578643798828125e+01 3.065620231628417969e+01 4.559932947158813477e-01 6.504902362823486328e+00 2.088268756866455078e+00 -1.341709345579147339e-01
1.647000000000000000e+03 7.714782714843750000e+01 1.825337600708007812e+01 -1.143157258629798889e-01 7.926135063171386719e+00 2.343545913696289062e+00 -5.638565421104431152e-01
1.648000000000000000e+03 7.693839263916015625e+01 9.845114707946777344e+00 -5.952530726790428162e-02 8.422543525695800781e+00 2.508905410766601562e+00 -1.075990870594978333e-01
1.649000000000000000e+03 7.691271209716796875e+01 7.027833461761474609e+00 -3.631458058953285217e-02 8.432443618774414062e+00 2.518838644027709961e+00 -3.055376932024955750e-02
1.650000000000000000e+03 7.673490905761718750e+01 -1.512025070190429688e+01 3.486604196950793266e-03 8.049537658691406250e+00 2.415907382965087891e+00 3.441943228244781494e-02
1.651000000000000000e+03 7.675982666015625000e+01 -8.201210975646972656e+00 2.669514156877994537e-03 8.160229682922363281e+00 2.448869705200195312e+00 4.891610518097877502e-02
1.652000000000000000e+03 7.682977294921875000e+01 2.826758861541748047e+00 -1.748768799006938934e-02 8.377233505249023438e+00 2.507923841476440430e+00 2.791907824575901031e-02
1.653000000000000000e+03 7.678040313720703125e+01 4.746550321578979492e-02 -7.757228799164295197e-03 8.319853782653808594e+00 2.493628978729248047e+00 4.490283504128456116e-02
1.654000000000000000e+03 7.684928894042968750e+01 4.231849193572998047e+00 -1.993875950574874878e-02 8.398848533630371094e+00 2.513672828674316406e+00 1.203998550772666931e-02
1.655000000000000000e+03 7.674286651611328125e+01 -5.468904018402099609e+00 -2.328918926650658250e-04 8.208751678466796875e+00 2.462555646896362305e+00 5.442927777767181396e-02
1.656000000000000000e+03 7.675368499755859375e+01 -6.837108612060546875e+00 2.539999084547162056e-03 8.184015274047851562e+00 2.455966472625732422e+00 5.231814458966255188e-02
1.657000000000000000e+03 7.673495483398437500e+01 -4.090531349182128906e+00 -9.959858143702149391e-04 8.234240531921386719e+00 2.469973564147949219e+00 5.398552119731903076e-02
1.658000000000000000e+03 7.673976135253906250e+01 -1.234764766693115234e+01 3.673104103654623032e-03 8.089213371276855469e+00 2.427865982055664062e+00 4.129523411393165588e-02
1.659000000000000000e+03 7.673397827148437500e+01 -1.373594474792480469e+01 3.862804034724831581e-03 8.068444252014160156e+00 2.421692132949829102e+00 3.774745762348175049e-02
1.660000000000000000e+03 7.674970245361328125e+01 -1.095636367797851562e+01 2.469052327796816826e-03 8.112652778625488281e+00 2.434536457061767578e+00 4.406016319990158081e-02
1.661000000000000000e+03 7.670087432861328125e+01 -2.070079803466796875e+01 4.535507876425981522e-03 7.979501247406005859e+00 2.395210981369018555e+00 2.293597534298896790e-02
1.662000000000000000e+03 7.673453521728515625e+01 -1.790977859497070312e+01 1.924453536048531532e-03 8.015672683715820312e+00 2.405279159545898438e+00 2.984268032014369965e-02
1.663000000000000000e+03 7.545509338378906250e+01 -1.643827438354492188e+01 3.928678575903177261e-03 7.790267944335937500e+00 2.338258981704711914e+00 4.696096107363700867e-02
1.664000000000000000e+03 2.225505256652832031e+01 5.712539672851562500e+00 -4.113217815756797791e-02 -1.722945570945739746e+00 -5.292233228683471680e-01 -1.810310184955596924e-01
1.665000000000000000e+03 2.347411155700683594e+01 9.911668777465820312e+00 2.214206615462899208e-03 -1.273925185203552246e+00 -3.815132975578308105e-01 -2.349624633789062500e-01
1.666000000000000000e+03 2.272715377807617188e+01 -2.671267509460449219e+01 2.757271751761436462e-02 -1.988175392150878906e+00 -5.881808400154113770e-01 -8.334648609161376953e-02
1.667000000000000000e+03 2.136887359619140625e+01 -2.241157913208007812e+01 1.539681479334831238e-02 -2.180960416793823242e+00 -6.496690511703491211e-01 -6.761743873357772827e-02
1.668000000000000000e+03 2.196494483947753906e+01 3.100076293945312500e+01 -1.130363717675209045e-02 -4.139218851923942566e-02 -1.580874808132648468e-02 -2.980757877230644226e-02
1.669000000000000000e+03 2.349440002441406250e+01 1.269979190826416016e+01 5.837407894432544708e-03 -1.088372468948364258e+00 -3.247604966163635254e-01 -2.429860532283782959e-01
1.670000000000000000e+03 1.261298179626464844e+01 -2.666140937805175781e+01 -1.299375526286894456e-05 -8.809313876554369926e-04 -2.681775367818772793e-04 -3.484300978016108274e-04
1.671000000000000000e+03 2.473728942871093750e+01 3.152122688293457031e+01 -6.183240562677383423e-02 -5.437349528074264526e-02 -3.486176952719688416e-02 -7.931522279977798462e-02
1.672000000000000000e+03 2.211168479919433594e+01 2.686225128173828125e+01 -1.221088785678148270e-02 -1.889905184507369995e-01 -6.036042422056198120e-02 -8.664166182279586792e-02
1.673000000000000000e+03 2.321388435363769531e+01 2.688267135620117188e+01 -2.820971794426441193e-02 -1.997439861297607422e-01 -6.838610768318176270e-02 -1.381807774305343628e-01
1.674000000000000000e+03 1.359269523620605469e+01 -6.572751998901367188e+00 3.242128295823931694e-04 7.270093192346394062e-05 1.190741313621401787e-04 -4.993943093722919002e-06
1.675000000000000000e+03 2.213390159606933594e+01 2.545688438415527344e+01 -9.899120777845382690e-03 -2.647760808467864990e-01 -8.240255713462829590e-02 -1.043171063065528870e-01
1.676000000000000000e+03 2.464211654663085938e+01 2.279848861694335938e+01 -3.330247104167938232e-02 -3.883736133575439453e-01 -1.265028268098831177e-01 -2.806160748004913330e-01
1.677000000000000000e+03 2.127269935607910156e+01 -2.809406089782714844e+01 1.449901517480611801e-02 -2.289680719375610352e+00 -6.825545430183410645e-01 -5.983237177133560181e-02
1.678000000000000000e+03 2.222978973388671875e+01 2.264671325683593750e+01 -6.840739864856004715e-03 -4.428099691867828369e-01 -1.348952203989028931e-01 -1.343079209327697754e-01
1.679000000000000000e+03 2.343332481384277344e+01 2.270668792724609375e+01 -1.705805957317352295e-02 -4.219821393489837646e-01 -1.317120641469955444e-01 -2.115212827920913696e-01
1.680000000000000000e+03 2.353206253051757812e+01 2.128570556640625000e+01 -1.370354183018207550e-02 -5.068750977516174316e-01 -1.561735868453979492e-01 -2.307570427656173706e-01
1.681000000000000000e+03 2.227880096435546875e+01 2.123826408386230469e+01 -5.024085287004709244e-03 -5.420203804969787598e-01 -1.641133427619934082e-01 -1.460081040859222412e-01
1.682000000000000000e+03 2.491156578063964844e+01 1.985866928100585938e+01 -1.804861053824424744e-02 -5.420745611190795898e-01 -1.680369377136230469e-01 -3.240419030189514160e-01
1.683000000000000000e+03 1.303948307037353516e+01 -1.600199317932128906e+01 -4.677992546930909157e-04 -1.301118027186021209e-04 -1.793733244994655252e-04 4.101437298231758177e-05
1.684000000000000000e+03 1.135759067535400391e+01 -1.841645050048828125e+01 3.011910885106772184e-04 -2.460943942423909903e-04 1.652901300985831767e-05 3.333271306473761797e-04
1.685000000000000000e+03 1.160886096954345703e+01 -1.568222522735595703e+01 2.976922551169991493e-04 1.396522129653021693e-04 1.312033418798819184e-04 1.146239665104076266e-04
1.686000000000000000e+03 1.251427459716796875e+01 -9.184793472290039062e+00 -3.101031761616468430e-04 -9.988442616304382682e-05 -1.229962799698114395e-04 3.658930290839634836e-05
1.687000000000000000e+03 1.356463146209716797e+01 -9.249629020690917969e+00 3.918822912964969873e-04 7.308362546609714627e-05 1.394897699356079102e-04 -5.518130274140276015e-05
1.688000000000000000e+03 1.239521312713623047e+01 -1.171469974517822266e+01 -3.029553627129644156e-04 -1.038750633597373962e-04 -1.220491321873851120e-04 4.126457861275412142e-05
1.689000000000000000e+03 2.351391029357910156e+01 1.410700511932373047e+01 4.518755245953798294e-03 -9.907916188240051270e-01 -2.958818674087524414e-01 -2.479613572359085083e-01
1.690000000000000000e+03 2.354035377502441406e+01 1.552337169647216797e+01 2.914697164669632912e-03 -8.916480541229248047e-01 -2.666200101375579834e-01 -2.516574859619140625e-01
1.691000000000000000e+03 2.228279495239257812e+01 1.273233413696289062e+01 2.130742883309721947e-03 -1.202089548110961914e+00 -3.599876463413238525e-01 -1.546972990036010742e-01
1.692000000000000000e+03 2.348309326171875000e+01 1.130316829681396484e+01 4.353829659521579742e-03 -1.183377504348754883e+00 -3.537071049213409424e-01 -2.392409294843673706e-01
1.693000000000000000e+03 1.102917098999023438e+01 -1.963278961181640625e+01 -5.632236134260892868e-04 8.391930023208260536e-04 8.279081521322950721e-05 4.872983845416456461e-05
1.694000000000000000e+03 1.169549846649169922e+01 -2.441616630554199219e+01 -4.927086993120610714e-04 -6.113795679993927479e-04 -3.312264743726700544e-04 -9.106138168135657907e-05
1.695000000000000000e+03 2.226386451721191406e+01 8.526282310485839844e+00 -1.533505390398204327e-03 -1.527238011360168457e+00 -4.586314558982849121e-01 -1.504166424274444580e-01
1.696000000000000000e+03 2.346083068847656250e+01 7.129057407379150391e+00 -2.153886854648590088e-02 -1.439032793045043945e+00 -4.381715059280395508e-01 -2.377122789621353149e-01
1.697000000000000000e+03 2.321401786804199219e+01 -5.624667644500732422e+00 3.282427042722702026e-02 -1.813647150993347168e+00 -5.342468619346618652e-01 -1.580852121114730835e-01
1.698000000000000000e+03 2.332825279235839844e+01 -4.231730937957763672e+00 2.014507912099361420e-02 -1.757918953895568848e+00 -5.213321447372436523e-01 -1.646252274513244629e-01
1.699000000000000000e+03 3.429148674011230469e+00 3.032519721984863281e+01 2.804185787681490183e-04 1.365871298730780836e-06 8.453533519059419632e-05 7.204008579719811678e-05
1.700000000000000000e+03 1.947182178497314453e+00 2.758792877197265625e+01 -2.382575039518997073e-04 1.022430296870879829e-05 -6.840995774837210774e-05 -2.906614463427104056e-05
1.701000000000000000e+03 5.132429599761962891e+00 3.323131179809570312e+01 -2.637163852341473103e-04 -6.229203427210450172e-05 -9.780252730706706643e-05 -9.717646025819703937e-05
1.702000000000000000e+03 3.385957956314086914e+00 3.605003356933593750e+01 1.322145253652706742e-04 8.588654600316658616e-05 6.543032213812693954e-05 -4.120239464100450277e-05
1.703000000000000000e+03 3.299913167953491211e+00 2.892936134338378906e+01 -2.918511454481631517e-04 2.454811874486040324e-05 -8.019091183086857200e-05 -5.856469579157419503e-05
1.704000000000000000e+03 2.012475013732910156e+00 3.595877456665039062e+01 -2.010843454627320170e-04 -6.270144513109698892e-05 -7.913573790574446321e-05 8.784644160186871886e-05
1.705000000000000000e+03 2.072530984878540039e+00 3.461872482299804688e+01 1.897965557873249054e-04 6.746967846993356943e-05 7.717986591160297394e-05 -4.782385076396167278e-05
1.706000000000000000e+03 3.583699226379394531e+00 3.321173477172851562e+01 2.052156341960653663e-04 7.262174767674878240e-05 8.335121674463152885e-05 5.925739969825372100e-05
1.707000000000000000e+03 5.072791576385498047e+00 3.165922546386718750e+01 2.873145276680588722e-04 4.432990317582152784e-05 9.949332888936623931e-05 9.274225158151239157e-05
1.708000000000000000e+03 3.539281606674194336e+00 3.174885559082031250e+01 -2.469146274961531162e-04 -3.768294845940545201e-05 -8.537927351426333189e-05 -7.225677836686372757e-05
1.709000000000000000e+03 5.294673919677734375e+00 -3.434911727905273438e+01 4.206479061394929886e-03 -2.326358342543244362e-03 5.640362505801022053e-04 7.699962239712476730e-03
1.710000000000000000e+03 2.026054620742797852e+00 -3.019061279296875000e+01 -1.537042320705950260e-03 1.002429402433335781e-03 -1.603839045856148005e-04 9.957172442227602005e-04
1.711000000000000000e+03 3.020795583724975586e+00 -2.852759742736816406e+01 -1.107829040847718716e-03 2.291195705765858293e-04 -2.636128338053822517e-04 1.685945026110857725e-04
1.712000000000000000e+03 1.999567270278930664e+00 2.190170097351074219e+01 -2.188225189456716180e-04 5.395681341724412050e-07 -6.548488454427570105e-05 -6.682144430669723079e-06
1.713000000000000000e+03 3.312690734863281250e+00 2.332117271423339844e+01 -2.514523221179842949e-04 -3.591142331060837023e-06 -7.651303894817829132e-05 -2.968775879708118737e-05
1.714000000000000000e+03 3.119728326797485352e+00 -1.785120964050292969e+01 -8.620765875093638897e-04 5.223254629527218640e-05 -2.429532032692804933e-04 -4.727416962850838900e-04
1.715000000000000000e+03 1.840720891952514648e+00 -1.502172565460205078e+01 4.791886021848767996e-04 -4.545746560324914753e-05 1.301193406106904149e-04 1.508827117504552007e-04
1.716000000000000000e+03 2.893442630767822266e+00 -1.090032672882080078e+01 2.869055024348199368e-04 4.861962224822491407e-05 1.006575403152965009e-04 8.234564302256330848e-05
1.717000000000000000e+03 3.006803750991821289e+00 1.731707382202148438e+01 -2.066555462079122663e-04 5.574868919211439788e-05 -4.527205601334571838e-05 9.352553024655207992e-05
1.718000000000000000e+03 2.958154678344726562e+00 1.198646640777587891e+01 -1.391922996845096350e-04 -1.093563514587003738e-05 -4.503838135860860348e-05 1.345203963865060359e-05
1.719000000000000000e+03 2.993313789367675781e+00 -1.227683067321777344e+01 -3.673321334645152092e-04 -6.814506923547014594e-05 -1.306431659031659365e-04 -1.693228987278416753e-04
1.720000000000000000e+03 4.572184562683105469e+00 5.211151123046875000e+00 -7.967429155542049557e-06 3.928205478587187827e-05 9.394387234351597726e-06 -3.967697557527571917e-05
1.721000000000000000e+03 2.735646724700927734e+00 7.777108192443847656e+00 1.071745791705325246e-04 1.041086034092586488e-05 3.527563239913433790e-05 -9.220499123330228031e-06
1.722000000000000000e+03 1.779819488525390625e+00 1.484530258178710938e+01 1.618210662854835391e-04 1.321953004662645981e-05 5.251217589830048382e-05 -4.189540413790382445e-05
1.723000000000000000e+03 2.849791765213012695e+00 1.615908622741699219e+01 1.565491838846355677e-04 5.028616669733310118e-06 4.847333912039175630e-05 -7.083354284986853600e-05
1.724000000000000000e+03 2.801264762878417969e+00 9.169441223144531250e+00 -1.182160631287842989e-04 -6.531117833219468594e-06 -3.742415356100536883e-05 1.628540303499903530e-05
1.725000000000000000e+03 5.674485683441162109e+00 -4.812943458557128906e+00 2.960497513413429260e-04 1.170213217847049236e-04 1.239213161170482635e-04 2.230236568721011281e-04
1.726000000000000000e+03 2.183692455291748047e+00 -4.413020133972167969e+00 -1.255896931979805231e-04 -1.597129448782652617e-04 -8.559079287806525826e-05 -1.270868087885901332e-04
1.727000000000000000e+03 3.114221096038818359e+00 -2.060214042663574219e+01 -1.082378672435879707e-03 6.237910565687343478e-05 -3.059998562093824148e-04 -4.937145859003067017e-04
1.728000000000000000e+03 1.670937180519104004e+00 -3.650398254394531250e+01 -6.652513548033311963e-05 1.204342115670442581e-02 3.593068802729249001e-03 4.866536706686019897e-03
1.729000000000000000e+03 1.793543457984924316e+00 -2.335264968872070312e+01 1.354275271296501160e-03 -3.672225575428456068e-04 2.961157879326492548e-04 6.128710811026394367e-05
1.730000000000000000e+03 3.076944112777709961e+00 -2.197679710388183594e+01 1.127802766859531403e-03 -2.310151176061481237e-04 2.690363035071641207e-04 1.059589849319308996e-04
1.731000000000000000e+03 3.109282255172729492e+00 -1.508013057708740234e+01 -5.519766709767282009e-04 -4.400320540298707783e-05 -1.787939690984785557e-04 -3.268460277467966080e-04
1.732000000000000000e+03 3.302063703536987305e+00 2.184503364562988281e+01 2.496080123819410801e-04 -9.923398465616628528e-06 7.190537871792912483e-05 2.310393210791517049e-05
1.733000000000000000e+03 2.788614034652709961e+00 -9.560462951660156250e+00 -2.476458321325480938e-04 -4.126597923459485173e-05 -8.667354268254712224e-05 -5.826358028571121395e-05
1.734000000000000000e+03 2.707884073257446289e+00 -8.277046203613281250e+00 1.868583494797348976e-04 2.217965084128081799e-05 6.271139864111319184e-05 1.964453258551657200e-05
1.735000000000000000e+03 2.391838073730468750e+00 -3.504030227661132812e+01 3.105620620772242546e-03 5.961152259260416031e-03 2.720031887292861938e-03 6.475675385445356369e-03
1.736000000000000000e+03 4.289617538452148438e+00 -3.282275772094726562e+01 4.947490990161895752e-03 2.602371852844953537e-03 2.264958806335926056e-03 6.565411575138568878e-03
1.737000000000000000e+03 4.241907119750976562e+00 -2.334200859069824219e+01 1.166219590231776237e-03 2.797446359181776643e-05 3.582582285162061453e-04 3.833599112113006413e-05
1.738000000000000000e+03 2.975203990936279297e+00 -2.466458511352539062e+01 1.416343962773680687e-03 -4.759325383929535747e-05 4.106252163182944059e-04 1.351984392385929823e-04
1.739000000000000000e+03 3.068270921707153320e+00 -1.367491817474365234e+01 4.082185041625052691e-04 3.924174234271049500e-05 1.342380710411816835e-04 1.800349127734079957e-04
1.740000000000000000e+03 2.882799148559570312e+00 1.057144069671630859e+01 1.311803789576515555e-04 5.995396350044757128e-06 4.115273259230889380e-05 -1.926820004882756621e-05
1.741000000000000000e+03 3.016114950180053711e+00 1.341936302185058594e+01 1.324576296610757709e-04 2.852157194865867496e-05 4.829375757253728807e-05 -1.039732978824758902e-05
1.742000000000000000e+03 3.251402616500854492e+00 1.868670845031738281e+01 2.092169015668332577e-04 -7.299689968931488693e-06 6.057516293367370963e-05 -1.530070949229411781e-05
1.743000000000000000e+03 2.351490020751953125e+01 2.901412248611450195e+00 -2.674339711666107178e-02 -1.592146158218383789e+00 -4.856668710708618164e-01 -1.981346011161804199e-01
1.744000000000000000e+03 2.303530502319335938e+01 -9.743446350097656250e+00 -8.488982915878295898e-03 -1.910995960235595703e+00 -5.758454799652099609e-01 -1.518801748752593994e-01
1.745000000000000000e+03 1.122980690002441406e+01 3.237326812744140625e+01 4.515832406468689442e-04 -2.057169476756826043e-04 7.375988207058981061e-05 1.761333260219544172e-04
1.746000000000000000e+03 1.379140090942382812e+01 2.962438392639160156e+01 4.553088510874658823e-04 -1.474271266488358378e-05 1.321698364336043596e-04 1.237454562215134501e-04
1.747000000000000000e+03 1.220378398895263672e+01 2.322804069519042969e+01 2.512730425223708153e-04 2.304728695889934897e-05 8.229610102716833353e-05 -4.449035259312950075e-05
1.748000000000000000e+03 1.577880668640136719e+01 3.695095062255859375e+01 -4.941629013046622276e-04 -5.404662806540727615e-04 -3.103887429460883141e-04 6.352007039822638035e-05
1.749000000000000000e+03 2.295794296264648438e+01 -1.532470607757568359e+01 -2.135400660336017609e-02 -1.929603815078735352e+00 -5.852873325347900391e-01 -1.109848171472549438e-01
1.750000000000000000e+03 2.297691917419433594e+01 -1.252832126617431641e+01 -3.958299383521080017e-02 -1.933387994766235352e+00 -5.918912887573242188e-01 -1.302878260612487793e-01
1.751000000000000000e+03 1.154445075988769531e+01 -3.526849746704101562e+01 2.491945959627628326e-02 -8.896403945982456207e-03 4.806917160749435425e-03 -1.097381860017776489e-02
1.752000000000000000e+03 8.941700935363769531e+00 -3.933226776123046875e+01 -2.075782045722007751e-02 -1.093792822211980820e-02 -9.508725255727767944e-03 2.863910607993602753e-02
1.753000000000000000e+03 2.346557044982910156e+01 5.730862140655517578e+00 -4.044197499752044678e-02 -1.500782489776611328e+00 -4.623673558235168457e-01 -2.301029264926910400e-01
1.754000000000000000e+03 3.843304061889648438e+01 3.885733032226562500e+01 -3.393619554117321968e-03 -5.088886991143226624e-02 -1.628474704921245575e-02 4.714157059788703918e-02
1.755000000000000000e+03 4.297067642211914062e+01 3.806737518310546875e+01 1.098185870796442032e-02 -1.611945778131484985e-01 -4.506381601095199585e-02 1.472776979207992554e-01
1.756000000000000000e+03 3.732529449462890625e+01 4.114603424072265625e+01 2.339395880699157715e-02 -7.373426109552383423e-02 -1.510209124535322189e-02 1.019693911075592041e-02
1.757000000000000000e+03 3.644054412841796875e+01 3.832250595092773438e+01 6.062359083443880081e-03 -5.014223605394363403e-02 -1.322396285831928253e-02 3.263916820287704468e-02
1.758000000000000000e+03 3.956801986694335938e+01 4.017761611938476562e+01 5.382757261395454407e-02 -1.278279274702072144e-01 -2.220010571181774139e-02 2.572214044630527496e-02
1.759000000000000000e+03 2.346135520935058594e+01 -2.809101343154907227e+00 1.501984056085348129e-02 -1.713035583496093750e+00 -5.094047188758850098e-01 -1.811763048171997070e-01
1.760000000000000000e+03 2.301642227172851562e+01 -1.957152366638183594e+01 4.186331480741500854e-02 -1.911437630653381348e+00 -5.608722567558288574e-01 -1.134172752499580383e-01
1.761000000000000000e+03 1.257956027984619141e+01 2.817303276062011719e+01 3.527573717292398214e-04 2.961658174172043800e-05 1.147121874964796007e-04 1.383343915222212672e-04
1.762000000000000000e+03 1.131189441680908203e+01 2.704103660583496094e+01 2.482519194018095732e-04 9.130390390055254102e-05 1.018667389871552587e-04 8.744689694140106440e-05
1.763000000000000000e+03 3.263566589355468750e+01 3.957946395874023438e+01 -2.197174588218331337e-03 -7.176687009632587433e-03 -2.812158549204468727e-03 3.118159482255578041e-03
1.764000000000000000e+03 2.139856910705566406e+01 -2.099732017517089844e+01 1.090014446526765823e-02 -2.153548479080200195e+00 -6.427944898605346680e-01 -1.158662885427474976e-01
1.765000000000000000e+03 2.313570976257324219e+01 -3.103436470031738281e+01 -9.563949704170227051e-02 -1.971284508705139160e+00 -6.200771927833557129e-01 -1.258254051208496094e-01
1.766000000000000000e+03 2.281065750122070312e+01 -2.812349700927734375e+01 -9.840690530836582184e-03 -1.981844186782836914e+00 -5.975054502487182617e-01 -9.765364974737167358e-02
1.767000000000000000e+03 2.687050628662109375e+01 3.934853744506835938e+01 1.693271100521087646e-03 1.377774984575808048e-03 9.213138255290687084e-04 -3.260283730924129486e-03
1.768000000000000000e+03 2.409485626220703125e+01 -2.681841850280761719e+01 -4.065996909048408270e-04 -1.745485782623291016e+00 -5.237677097320556641e-01 -1.002821326255798340e-01
1.769000000000000000e+03 2.126090240478515625e+01 -2.522646522521972656e+01 3.052732534706592560e-02 -2.231379032135009766e+00 -6.602554917335510254e-01 -7.802406698465347290e-02
1.770000000000000000e+03 2.134344291687011719e+01 -2.952240371704101562e+01 -3.740477189421653748e-02 -2.313961267471313477e+00 -7.054097652435302734e-01 -7.509439438581466675e-02
1.771000000000000000e+03 1.506789207458496094e+01 -4.041388320922851562e+01 -1.556643694639205933e-01 -1.389932632446289062e-01 -8.839728683233261108e-02 1.770645752549171448e-02
1.772000000000000000e+03 5.146493911743164062e+00 -4.036758422851562500e+01 -1.071724761277437210e-02 1.485596224665641785e-02 1.241614460013806820e-03 7.540895603597164154e-03
1.773000000000000000e+03 6.162400436401367188e+01 3.310771179199218750e+01 1.446414470672607422e+00 3.016264438629150391e+00 1.338803648948669434e+00 -3.032563924789428711e+00
1.774000000000000000e+03 6.332920074462890625e+01 3.311641693115234375e+01 7.578494548797607422e-01 1.165089225769042969e+01 3.722622632980346680e+00 -5.297857284545898438e+00
1.775000000000000000e+03 6.387033462524414062e+01 3.311357116699218750e+01 -3.342860937118530273e-02 1.497492980957031250e+01 4.482450485229492188e+00 -4.301793575286865234e+00
1.776000000000000000e+03 6.279682540893554688e+01 2.898732376098632812e+01 2.004451513290405273e+00 7.362241268157958984e+00 2.810007810592651367e+00 5.934675216674804688e+00
1.777000000000000000e+03 6.303156661987304688e+01 2.900839042663574219e+01 1.851350665092468262e+00 9.363478660583496094e+00 3.364448785781860352e+00 6.413392066955566406e+00
1.778000000000000000e+03 6.165719985961914062e+01 2.866853713989257812e+01 1.470311045646667480e+00 3.082395553588867188e+00 1.365811944007873535e+00 3.779349565505981445e+00
1.779000000000000000e+03 6.582617950439453125e+01 3.045477867126464844e+01 8.323322296142578125e+00 1.538423824310302734e+01 7.112267971038818359e+00 -1.204790353775024414e+00
1.780000000000000000e+03 6.596352386474609375e+01 3.122020912170410156e+01 8.168133735656738281e+00 1.503683853149414062e+01 6.961491584777832031e+00 1.139372825622558594e+00
1.781000000000000000e+03 6.593161773681640625e+01 3.217802429199218750e+01 4.828540325164794922e+00 1.592278194427490234e+01 6.225396633148193359e+00 2.334096193313598633e+00
1.782000000000000000e+03 6.596116638183593750e+01 3.265219879150390625e+01 2.882652282714843750e+00 1.578080081939697266e+01 5.599036216735839844e+00 2.013593912124633789e+00
1.783000000000000000e+03 6.463014984130859375e+01 3.286833190917968750e+01 2.480333894491195679e-01 1.825716400146484375e+01 5.551559448242187500e+00 -1.138672471046447754e+00
1.784000000000000000e+03 6.581504821777343750e+01 3.084254455566406250e+01 8.925411224365234375e+00 1.525579833984375000e+01 7.254363059997558594e+00 -1.225779801607131958e-01
1.785000000000000000e+03 6.033298110961914062e+01 2.877091789245605469e+01 1.316664516925811768e-01 1.004590988159179688e+00 3.408772349357604980e-01 1.832035541534423828e+00
1.786000000000000000e+03 6.039846420288085938e+01 2.828021430969238281e+01 5.126754045486450195e-01 1.506352424621582031e+00 6.057083606719970703e-01 2.314863443374633789e+00
1.787000000000000000e+03 6.134151840209960938e+01 3.296355819702148438e+01 1.236274123191833496e+00 2.218997001647949219e+00 1.036581277847290039e+00 -2.431877374649047852e+00
1.788000000000000000e+03 5.987701416015625000e+01 2.806645202636718750e+01 2.684997916221618652e-01 1.246945738792419434e+00 4.546336829662322998e-01 1.968079447746276855e+00
1.789000000000000000e+03 5.909416580200195312e+01 2.863722229003906250e+01 -6.701789498329162598e-01 4.573814868927001953e-01 -6.383923441171646118e-02 1.087802648544311523e+00
1.790000000000000000e+03 5.908729934692382812e+01 3.417788696289062500e+01 3.120737075805664062e-01 1.025579333305358887e+00 4.012959301471710205e-01 -7.198665142059326172e-01
1.791000000000000000e+03 5.966224670410156250e+01 3.410858917236328125e+01 5.303614735603332520e-01 1.435684919357299805e+00 5.898138880729675293e-01 -1.156263470649719238e+00
1.792000000000000000e+03 6.027897644042968750e+01 3.485385894775390625e+01 8.164656162261962891e-01 2.781311511993408203e+00 1.079333066940307617e+00 -1.921571135520935059e+00
1.793000000000000000e+03 2.622334480285644531e+01 3.191263771057128906e+01 -1.018893346190452576e-01 -3.648747503757476807e-02 -4.151304438710212708e-02 -9.652030467987060547e-02
1.794000000000000000e+03 2.541655540466308594e+01 3.260598754882812500e+01 -7.022612541913986206e-02 -3.096020594239234924e-02 -3.035589866340160370e-02 -6.350006163120269775e-02
1.795000000000000000e+03 2.689893150329589844e+01 3.197214698791503906e+01 -1.255097985267639160e-01 -2.895815297961235046e-02 -4.634038358926773071e-02 -1.075897365808486938e-01
1.796000000000000000e+03 8.144782066345214844e+00 4.200045108795166016e+00 3.390874553588218987e-05 3.170186391798779368e-05 1.968318247236311436e-05 1.525719471828779206e-05
1.797000000000000000e+03 1.044576168060302734e+01 3.333112001419067383e+00 6.503152690129354596e-05 -5.357638201530789956e-06 1.790216629160568118e-05 7.099619324435479939e-06
1.798000000000000000e+03 2.616563987731933594e+01 3.268150711059570312e+01 -9.144260734319686890e-02 -2.419700659811496735e-02 -3.469188511371612549e-02 -7.303727418184280396e-02
1.799000000000000000e+03 2.502228164672851562e+01 3.058090782165527344e+01 -7.840373367071151733e-02 -6.957551091909408569e-02 -4.439377412199974060e-02 -1.111951544880867004e-01
1.800000000000000000e+03 5.211356639862060547e+00 4.307336807250976562e+00 3.675962943816557527e-05 3.125548028037883341e-05 2.040453182416968048e-05 -6.412690254364861175e-06
1.801000000000000000e+03 5.226469516754150391e+00 3.522082805633544922e+00 -3.327654849272221327e-05 -2.701658922887872905e-05 -1.808794149837922305e-05 7.055423793644877151e-06
1.802000000000000000e+03 3.065340042114257812e+00 5.182331562042236328e+00 7.845005893614143133e-05 1.841480298025999218e-05 2.905945802922360599e-05 2.418815529381390661e-05
1.803000000000000000e+03 2.886579513549804688e+01 3.188062858581542969e+01 -2.014702111482620239e-01 -8.642201311886310577e-03 -6.303372234106063843e-02 -1.396312117576599121e-01
1.804000000000000000e+03 2.272108793258666992e+00 3.549069404602050781e+00 -4.583548798109404743e-05 -3.190012648701667786e-05 -2.332068470423109829e-05 4.161935430602170527e-05
1.805000000000000000e+03 2.946303129196166992e+00 3.663176774978637695e+00 3.506429129629395902e-05 4.665170490625314415e-05 2.451479849696625024e-05 2.138470335921738297e-05
1.806000000000000000e+03 1.470182895660400391e+00 4.905584812164306641e+00 -4.830101170227862895e-05 -7.789400115143507719e-06 -1.682712354522664100e-05 2.336396210012026131e-05
1.807000000000000000e+03 1.650239109992980957e+00 3.315488815307617188e+00 7.347579958150163293e-05 5.365319793781964108e-06 2.365233558521140367e-05 1.612166488484945148e-05
1.808000000000000000e+03 5.697786331176757812e+01 3.607796478271484375e+01 4.886907637119293213e-01 6.999216079711914062e-01 3.565837144851684570e-01 -3.022196590900421143e-01
1.809000000000000000e+03 2.953770256042480469e+01 3.177074813842773438e+01 -2.335585653781890869e-01 -6.882671150378882885e-04 -7.027405500411987305e-02 -1.509463936090469360e-01
1.810000000000000000e+03 3.022233772277832031e+01 3.164507484436035156e+01 -2.667336463928222656e-01 5.419418215751647949e-03 -7.839426398277282715e-02 -1.637781113386154175e-01
1.811000000000000000e+03 5.790437316894531250e+01 3.452099609375000000e+01 1.006793230772018433e-01 6.618807911872863770e-01 2.287680357694625854e-01 -3.023903369903564453e-01
1.812000000000000000e+03 3.164319229125976562e+01 3.139784049987792969e+01 -3.455543518066406250e-01 1.987912692129611969e-02 -9.770256280899047852e-02 -1.894849985837936401e-01
1.813000000000000000e+03 5.311525344848632812e+01 3.920132064819335938e+01 6.509757637977600098e-01 2.879861295223236084e-01 2.816885709762573242e-01 1.777379661798477173e-01
1.814000000000000000e+03 5.410455322265625000e+01 2.850067520141601562e+01 -1.830780386924743652e+00 5.529741942882537842e-02 -5.326448678970336914e-01 3.919580206274986267e-02
1.815000000000000000e+03 9.696892738342285156e+00 4.157904624938964844e+00 6.587932875845581293e-05 1.084164159692591056e-05 2.301629137946292758e-05 2.800638685584999621e-05
1.816000000000000000e+03 1.038251209259033203e+01 -4.878885269165039062e+00 -1.143291156040504575e-04 -6.159771146485581994e-05 -5.277804666548036039e-05 1.443129876861348748e-04
1.817000000000000000e+03 1.040465450286865234e+01 -4.096789836883544922e+00 7.618869858561083674e-05 1.005709927994757891e-04 5.302790668793022633e-05 -3.574022048269398510e-05
1.818000000000000000e+03 2.895348548889160156e+01 3.256479644775390625e+01 -1.916450560092926025e-01 -2.875774225685745478e-04 -5.757978931069374084e-02 -1.101094111800193787e-01
1.819000000000000000e+03 1.108052921295166016e+01 -4.919743537902832031e+00 2.482230192981660366e-04 -8.924741268856450915e-05 4.769267980009317398e-05 -1.516499850140462513e-07
1.820000000000000000e+03 3.237454605102539062e+01 3.127490997314453125e+01 -3.900765478610992432e-01 2.739476598799228668e-02 -1.088045313954353333e-01 -2.010877877473831177e-01
1.821000000000000000e+03 2.755904197692871094e+01 3.195289039611816406e+01 -1.488996595144271851e-01 -2.034041844308376312e-02 -5.077202245593070984e-02 -1.164532080292701721e-01
1.822000000000000000e+03 2.820852279663085938e+01 3.193186569213867188e+01 -1.708591580390930176e-01 -1.603639684617519379e-02 -5.606866627931594849e-02 -1.265765130519866943e-01
1.823000000000000000e+03 3.178366470336914062e+01 3.209292602539062500e+01 -3.440191149711608887e-01 2.454900927841663361e-02 -9.584102779626846313e-02 -1.497598439455032349e-01
1.824000000000000000e+03 3.092361068725585938e+01 3.152087211608886719e+01 -3.043401241302490234e-01 1.229408197104930878e-02 -8.761380612850189209e-02 -1.771386414766311646e-01
1.825000000000000000e+03 3.901242828369140625e+01 3.006012344360351562e+01 -8.869425058364868164e-01 7.947655767202377319e-02 -2.422397881746292114e-01 -2.704723775386810303e-01
1.826000000000000000e+03 3.974375152587890625e+01 2.991724395751953125e+01 -9.490125775337219238e-01 8.239151537418365479e-02 -2.599863409996032715e-01 -2.755329608917236328e-01
1.827000000000000000e+03 3.692547607421875000e+01 3.114665412902832031e+01 -7.309021353721618652e-01 5.983286723494529724e-02 -2.013207823038101196e-01 -1.941782385110855103e-01
1.828000000000000000e+03 3.827376937866210938e+01 3.020097541809082031e+01 -8.254145383834838867e-01 7.509962469339370728e-02 -2.250944823026657104e-01 -2.653267085552215576e-01
1.829000000000000000e+03 3.544826889038085938e+01 3.142904090881347656e+01 -6.068046689033508301e-01 5.133319273591041565e-02 -1.666414439678192139e-01 -1.854392141103744507e-01
1.830000000000000000e+03 3.737487411499023438e+01 2.966927146911621094e+01 -7.245032191276550293e-01 7.336904853582382202e-02 -1.953402608633041382e-01 -3.171928822994232178e-01
1.831000000000000000e+03 4.061780929565429688e+01 3.044321441650390625e+01 -1.077290177345275879e+00 7.356238365173339844e-02 -3.011183440685272217e-01 -2.071511149406433105e-01
1.832000000000000000e+03 3.310721588134765625e+01 3.115049171447753906e+01 -4.368234574794769287e-01 3.468322753906250000e-02 -1.206420660018920898e-01 -2.116752117872238159e-01
1.833000000000000000e+03 3.383972930908203125e+01 3.102309417724609375e+01 -4.860809147357940674e-01 4.152649268507957458e-02 -1.333663314580917358e-01 -2.216887325048446655e-01
1.834000000000000000e+03 4.343492126464843750e+01 2.918946266174316406e+01 -1.248479604721069336e+00 8.594547957181930542e-02 -3.487602472305297852e-01 -2.912716567516326904e-01
1.835000000000000000e+03 7.484845161437988281e+00 -3.421996593475341797e+00 -1.912269653985276818e-04 -5.564266029978170991e-05 -7.406088843708857894e-05 -7.151797763071954250e-05
1.836000000000000000e+03 1.176370620727539062e+01 -5.108263015747070312e+00 4.375474600237794220e-05 8.024263661354780197e-05 3.719921369338408113e-05 -4.331797390477731824e-05
1.837000000000000000e+03 4.268410491943359375e+01 2.933395576477050781e+01 -1.190392255783081055e+00 8.584340661764144897e-02 -3.313646614551544189e-01 -2.901240289211273193e-01
1.838000000000000000e+03 4.646981811523437500e+01 2.865698814392089844e+01 -1.454400062561035156e+00 7.963576167821884155e-02 -4.124292731285095215e-01 -2.806195318698883057e-01
1.839000000000000000e+03 4.659309005737304688e+01 2.933286476135253906e+01 -1.634189128875732422e+00 6.144303828477859497e-02 -4.718238413333892822e-01 -2.051008641719818115e-01
1.840000000000000000e+03 4.810664749145507812e+01 2.910070228576660156e+01 -1.745794892311096191e+00 5.186922848224639893e-02 -5.081776976585388184e-01 -1.902997344732284546e-01
1.841000000000000000e+03 5.336940002441406250e+01 2.854836273193359375e+01 -1.875369429588317871e+00 5.144951492547988892e-02 -5.471760034561157227e-01 -1.519427821040153503e-02
1.842000000000000000e+03 3.457413101196289062e+01 3.089211654663085938e+01 -5.375059247016906738e-01 4.810149222612380981e-02 -1.468213349580764771e-01 -2.306333333253860474e-01
1.843000000000000000e+03 3.530804824829101562e+01 3.075682258605957031e+01 -5.909035801887512207e-01 5.398952215909957886e-02 -1.610742211341857910e-01 -2.392241358757019043e-01
1.844000000000000000e+03 5.103559494018554688e+01 2.807275772094726562e+01 -1.587531328201293945e+00 7.266850024461746216e-02 -4.544588625431060791e-01 -1.574427634477615356e-01
1.845000000000000000e+03 5.038907241821289062e+01 2.881237411499023438e+01 -1.868466258049011230e+00 4.334200918674468994e-02 -5.475372672080993652e-01 -1.432324349880218506e-01
1.846000000000000000e+03 4.799221038818359375e+01 2.842708587646484375e+01 -1.528856158256530762e+00 7.382648438215255737e-02 -4.365088939666748047e-01 -2.582843005657196045e-01
1.847000000000000000e+03 5.611180114746093750e+01 2.779260635375976562e+01 -1.089888453483581543e+00 2.282951623201370239e-01 -2.584779858589172363e-01 4.020172953605651855e-01
1.848000000000000000e+03 5.556203079223632812e+01 2.841648101806640625e+01 -1.648145318031311035e+00 8.779921382665634155e-02 -4.681038260459899902e-01 1.959325969219207764e-01
1.849000000000000000e+03 1.196866989135742188e+01 3.059799909591674805e+00 3.893851317116059363e-05 -4.767745849676430225e-06 1.025123037834418938e-05 -2.813721584971062839e-05
1.850000000000000000e+03 1.224599170684814453e+01 3.725323677062988281e+00 -6.976819713599979877e-05 2.161944212275557220e-05 -1.444462577637750655e-05 2.866127942979801446e-05
1.851000000000000000e+03 4.418741226196289062e+01 2.904736900329589844e+01 -1.304695844650268555e+00 8.486849814653396606e-02 -3.659482300281524658e-01 -2.918932437896728516e-01
1.852000000000000000e+03 4.047534942626953125e+01 2.977292060852050781e+01 -1.009818673133850098e+00 8.450867980718612671e-02 -2.775929868221282959e-01 -2.797656059265136719e-01
1.853000000000000000e+03 4.120696640014648438e+01 2.962646293640136719e+01 -1.071072936058044434e+00 8.553171157836914062e-02 -2.956623733043670654e-01 -2.843127846717834473e-01
1.854000000000000000e+03 8.920121192932128906e+00 4.947080135345458984e+00 5.294076254358515143e-05 2.909297472797334194e-05 2.461012081766966730e-05 3.776584708248265088e-05
1.855000000000000000e+03 4.570676422119140625e+01 2.878143692016601562e+01 -1.409172177314758301e+00 8.169945329427719116e-02 -3.982418179512023926e-01 -2.868617475032806396e-01
1.856000000000000000e+03 5.113736343383789062e+01 2.873411560058593750e+01 -1.890156865119934082e+00 4.092212766408920288e-02 -5.547704100608825684e-01 -1.211168318986892700e-01
1.857000000000000000e+03 4.607676982879638672e+00 -3.420179843902587891e+00 -1.050132632371969521e-04 -6.731408939231187105e-05 -5.169820360606536269e-05 5.578562559094280005e-05
1.858000000000000000e+03 6.234332084655761719e+00 -5.551331996917724609e+00 -2.979774144478142262e-04 -1.632996427360922098e-04 -1.383831113344058394e-04 -1.924926327774301171e-04
1.859000000000000000e+03 4.013597488403320312e+00 -3.635710716247558594e+00 1.074222309398464859e-04 1.759913575369864702e-04 8.502407581545412540e-05 6.087289875722490251e-05
1.860000000000000000e+03 4.332395553588867188e+00 -4.740434169769287109e+00 -2.800087713694665581e-05 2.320392959518358111e-04 6.121152546256780624e-05 2.501022245269268751e-04
1.861000000000000000e+03 8.218898773193359375e+00 -3.380151987075805664e+00 1.438978215446695685e-04 1.032159634632989764e-04 7.413413550239056349e-05 8.980462007457390428e-05
1.862000000000000000e+03 5.827044677734375000e+01 3.887495422363281250e+01 6.933458447456359863e-01 2.436596870422363281e+00 9.389827847480773926e-01 -7.210775017738342285e-01
1.863000000000000000e+03 3.796964406967163086e+00 -8.375210762023925781e+00 -2.821733942255377769e-04 -5.351736399461515248e-05 -1.007072278298437595e-04 -9.801307169254869223e-05
1.864000000000000000e+03 5.262882232666015625e+01 2.860260391235351562e+01 -1.896458625793457031e+00 4.341937974095344543e-02 -5.559117794036865234e-01 -5.843832716345787048e-02
1.865000000000000000e+03 2.764342069625854492e+00 -3.693500041961669922e+00 7.676825771341100335e-05 1.247221953235566616e-04 6.044713882147334516e-05 7.205030124168843031e-05
1.866000000000000000e+03 3.726079463958740234e+00 -6.277982711791992188e+00 -1.912005245685577393e-04 8.604794857092201710e-05 -3.154577643726952374e-05 4.261661524651572108e-05
1.867000000000000000e+03 2.808493375778198242e+00 -5.953072547912597656e+00 9.901003795675933361e-05 -9.791735647013410926e-05 3.278048268384736730e-07 -5.622646494884975255e-05
1.868000000000000000e+03 5.596411895751953125e+01 2.720024108886718750e+01 -7.422884106636047363e-01 3.563640117645263672e-01 -1.157773211598396301e-01 5.111675262451171875e-01
1.869000000000000000e+03 1.270980167388916016e+01 -4.152772903442382812e+00 -2.164489997085183859e-04 -1.211669223266653717e-04 -1.012847787933424115e-04 5.509651600732468069e-05
1.870000000000000000e+03 1.184095859527587891e+01 -3.378454208374023438e+00 -1.231478818226605654e-04 -1.491737639298662543e-04 -8.169649663614109159e-05 1.292770903091877699e-04
1.871000000000000000e+03 1.135376358032226562e+01 3.989471912384033203e+00 8.686413639225065708e-05 -1.500870166637469083e-05 2.155663059966173023e-05 2.461477379256393760e-06
1.872000000000000000e+03 1.358395195007324219e+01 3.373007774353027344e+00 1.055601533153094351e-04 -1.128719213738804683e-05 2.828188917192164809e-05 1.001419786916812882e-05
1.873000000000000000e+03 2.295176315307617188e+01 3.107938575744628906e+01 -2.640222571790218353e-02 -5.397804453969001770e-02 -2.411408163607120514e-02 -4.814760759472846985e-02
1.874000000000000000e+03 1.256025123596191406e+01 -3.289021253585815430e+00 4.019857442472130060e-04 1.245758321601897478e-04 1.579684758326038718e-04 -9.920696174958720803e-05
1.875000000000000000e+03 1.365917587280273438e+01 -2.966607570648193359e+00 -2.169516083085909486e-04 -7.229828770505264401e-05 -8.677496953168883920e-05 7.826761429896578193e-05
1.876000000000000000e+03 2.288470077514648438e+01 3.226341247558593750e+01 -2.108195424079895020e-02 -3.148213401436805725e-02 -1.576922647655010223e-02 -2.742668800055980682e-02
1.877000000000000000e+03 1.220423698425292969e+01 -1.298254680633544922e+01 2.279194450238719583e-04 8.386259651160798967e-06 7.089171413099393249e-05 -2.413714355498086661e-05
1.878000000000000000e+03 1.184968757629394531e+01 -1.428865623474121094e+01 -3.104859206359833479e-04 1.237824471900239587e-04 -5.601103839580900967e-05 6.876220868434756994e-05
1.879000000000000000e+03 1.251049232482910156e+01 -6.571868896484375000e+00 -2.482883573975414038e-04 -1.086339543689973652e-04 -1.070766884367913008e-04 4.188333332422189415e-05
1.880000000000000000e+03 1.251924514770507812e+01 -7.883644580841064453e+00 2.959506527986377478e-04 9.998730092775076628e-05 1.187813904834911227e-04 -4.225607335683889687e-05
1.881000000000000000e+03 1.253076362609863281e+01 7.901718139648437500e+00 -9.334980859421193600e-05 -1.036197772918967530e-05 -3.111353362328372896e-05 -1.729367068037390709e-05
1.882000000000000000e+03 4.217912292480468750e+01 4.099752044677734375e+01 1.466621309518814087e-01 -2.190283387899398804e-01 -2.170986495912075043e-02 6.090404465794563293e-02
1.883000000000000000e+03 2.717865371704101562e+01 4.171634674072265625e+01 -4.081512335687875748e-03 2.071504015475511551e-03 -6.030024960637092590e-04 -2.823383780196309090e-03
1.884000000000000000e+03 1.187934112548828125e+01 -4.195744514465332031e+00 3.047820246138144284e-05 1.472082803957164288e-04 5.330594285624101758e-05 -3.655908221844583750e-05
1.885000000000000000e+03 1.823222160339355469e+01 4.148807144165039062e+01 5.252122646197676659e-04 1.979276712518185377e-04 2.169419749407097697e-04 -9.694776963442564011e-04
1.886000000000000000e+03 2.516469001770019531e+01 1.256540715694427490e-01 1.337032672017812729e-02 -1.392973780632019043e+00 -4.138810634613037109e-01 -2.255612462759017944e-01
1.887000000000000000e+03 2.495252799987792969e+01 -2.887218713760375977e+00 2.818340063095092773e-02 -1.477454066276550293e+00 -4.347811937332153320e-01 -2.043759077787399292e-01
1.888000000000000000e+03 2.455829429626464844e+01 -1.805003547668457031e+01 2.739441581070423126e-02 -1.645424127578735352e+00 -4.854089021682739258e-01 -9.976999461650848389e-02
1.889000000000000000e+03 2.468036270141601562e+01 -1.950263786315917969e+01 4.673169180750846863e-02 -1.625211834907531738e+00 -4.735440313816070557e-01 -1.026955768465995789e-01
1.890000000000000000e+03 2.480349922180175781e+01 3.005910158157348633e+00 -1.702800393104553223e-02 -1.383085012435913086e+00 -4.200339019298553467e-01 -2.448001056909561157e-01
1.891000000000000000e+03 4.726290893554687500e+01 3.650502014160156250e+01 -1.440132968127727509e-02 -2.050820440053939819e-01 -6.584501266479492188e-02 3.525089025497436523e-01
1.892000000000000000e+03 4.586912155151367188e+01 3.646290969848632812e+01 -8.837688714265823364e-02 -1.720695793628692627e-01 -7.813394069671630859e-02 2.865693271160125732e-01
1.893000000000000000e+03 2.448450851440429688e+01 -1.663564300537109375e+01 1.292815618216991425e-02 -1.657838702201843262e+00 -4.934731721878051758e-01 -1.087327152490615845e-01
1.894000000000000000e+03 2.307684516906738281e+01 -8.365022659301757812e+00 2.488184021785855293e-03 -1.867974042892456055e+00 -5.596457719802856445e-01 -1.603370904922485352e-01
1.895000000000000000e+03 2.463756179809570312e+01 -5.688581466674804688e+00 2.914850972592830658e-02 -1.574285507202148438e+00 -4.635410904884338379e-01 -1.882128566503524780e-01
1.896000000000000000e+03 1.334881782531738281e+01 -1.327359199523925781e+01 -4.526909033302217722e-04 -2.180766932724509388e-05 -1.423495705239474773e-04 1.016147434711456299e-04
1.897000000000000000e+03 2.439320564270019531e+01 -1.248926162719726562e+01 -2.147640660405158997e-02 -1.669059395790100098e+00 -5.071607232093811035e-01 -1.447367519140243530e-01
1.898000000000000000e+03 1.114204788208007812e+01 2.587240409851074219e+01 -2.015023783314973116e-04 -1.179373939521610737e-04 -9.583193605067208409e-05 -5.614975816570222378e-05
1.899000000000000000e+03 5.199698448181152344e+00 1.043750190734863281e+01 1.059971327777020633e-04 2.346499604755081236e-05 3.883863610099069774e-05 -3.434918835409916937e-05
1.900000000000000000e+03 1.246712303161621094e+01 9.157293319702148438e+00 1.004638615995645523e-04 1.467640777264023200e-05 3.454208126640878618e-05 2.083877370750997216e-05
1.901000000000000000e+03 1.008481407165527344e+01 1.892253684997558594e+01 5.626232814393006265e-05 -1.745254558045417070e-04 -3.547893720678985119e-05 -2.758267510216683149e-05
1.902000000000000000e+03 1.074984836578369141e+01 1.530079364776611328e+01 2.241764377686195076e-05 -9.798499377211555839e-06 3.785743501794058830e-06 -1.071237056748941541e-04
1.903000000000000000e+03 7.568886566162109375e+01 1.270122814178466797e+01 -1.526926010847091675e-01 8.199657440185546875e+00 2.414089441299438477e+00 -2.573111653327941895e-01
1.904000000000000000e+03 7.404142761230468750e+01 -1.320768833160400391e+00 -1.144600473344326019e-02 7.739897727966308594e+00 2.318535566329956055e+00 1.027426868677139282e-01
1.905000000000000000e+03 7.560620117187500000e+01 5.622699260711669922e+00 -4.820160940289497375e-02 8.169134140014648438e+00 2.436279773712158203e+00 7.684845011681318283e-03
1.906000000000000000e+03 7.680740356445312500e+01 1.425279140472412109e+00 -1.181344036012887955e-02 8.347834587097167969e+00 2.500806331634521484e+00 3.967914730310440063e-02
1.907000000000000000e+03 7.547549438476562500e+01 3.266270458698272705e-02 -1.281167659908533096e-02 8.051177024841308594e+00 2.411509513854980469e+00 6.972000002861022949e-02
1.908000000000000000e+03 7.414533996582031250e+01 -8.115111351013183594e+00 1.071043871343135834e-02 7.644991874694824219e+00 2.296710729598999023e+00 9.013766795396804810e-02
1.909000000000000000e+03 7.567943572998046875e+01 3.179279518127441406e+01 5.911694169044494629e-01 6.803269386291503906e+00 2.218331575393676758e+00 9.593541920185089111e-02
1.910000000000000000e+03 7.420578002929687500e+01 -1.639477539062500000e+01 6.683682557195425034e-03 7.546616554260253906e+00 2.265990018844604492e+00 6.381360441446304321e-02
1.911000000000000000e+03 7.540395355224609375e+01 -4.081842422485351562e+00 -2.829713514074683189e-03 7.963088512420654297e+00 2.388077735900878906e+00 8.120764791965484619e-02
1.912000000000000000e+03 7.541948699951171875e+01 -5.456104755401611328e+00 3.008161671459674835e-03 7.940322399139404297e+00 2.382999181747436523e+00 7.882355153560638428e-02
1.913000000000000000e+03 7.540383911132812500e+01 -2.696746587753295898e+00 -5.170367192476987839e-03 7.990838527679443359e+00 2.395700454711914062e+00 7.776793837547302246e-02
1.914000000000000000e+03 7.693507385253906250e+01 8.434530258178710938e+00 -4.943322762846946716e-02 8.433110237121582031e+00 2.515103101730346680e+00 -6.409353762865066528e-02
1.915000000000000000e+03 7.567442321777343750e+01 7.026919841766357422e+00 -6.628263741731643677e-02 8.191183090209960938e+00 2.437470197677612305e+00 -2.456380985677242279e-02
1.916000000000000000e+03 7.556846618652343750e+01 2.797695159912109375e+00 -2.912571467459201813e-02 8.110471725463867188e+00 2.424403667449951172e+00 4.896924644708633423e-02
1.917000000000000000e+03 7.545737457275390625e+01 -1.088022136688232422e+01 4.296331200748682022e-03 7.861779212951660156e+00 2.359822750091552734e+00 6.286446005105972290e-02
1.918000000000000000e+03 7.543785858154296875e+01 -1.227496242523193359e+01 6.417197640985250473e-03 7.839869976043701172e+00 2.353886127471923828e+00 6.086466461420059204e-02
1.919000000000000000e+03 7.546530914306640625e+01 -9.502819061279296875e+00 6.647482048720121384e-03 7.882656574249267578e+00 2.366791248321533203e+00 6.710068881511688232e-02
1.920000000000000000e+03 7.608013916015625000e+01 1.967741584777832031e+01 -1.895139962434768677e-01 7.875705718994140625e+00 2.305857658386230469e+00 -7.913038730621337891e-01
1.921000000000000000e+03 7.705792236328125000e+01 1.547233676910400391e+01 -1.082660406827926636e-01 8.199749946594238281e+00 2.427445173263549805e+00 -3.791419267654418945e-01
1.922000000000000000e+03 7.578569030761718750e+01 1.413514995574951172e+01 -1.786399930715560913e-01 8.178831100463867188e+00 2.400057315826416016e+00 -3.479675948619842529e-01
1.923000000000000000e+03 7.566165924072265625e+01 1.126720333099365234e+01 -1.303111463785171509e-01 8.209923744201660156e+00 2.423883914947509766e+00 -1.799388974905014038e-01
1.924000000000000000e+03 7.609840393066406250e+01 2.105305480957031250e+01 -1.621892452239990234e-01 7.739546298980712891e+00 2.273207187652587891e+00 -8.990105986595153809e-01
1.925000000000000000e+03 7.546018981933593750e+01 -1.783936309814453125e+01 2.895246725529432297e-03 7.773344516754150391e+00 2.332871913909912109e+00 4.449956491589546204e-02
1.926000000000000000e+03 7.672261047363281250e+01 -1.930938148498535156e+01 3.080700756981968880e-03 7.996346950531005859e+00 2.399828433990478516e+00 2.800231426954269409e-02
1.927000000000000000e+03 7.543707275390625000e+01 -1.923714637756347656e+01 7.372345775365829468e-03 7.758541584014892578e+00 2.329774141311645508e+00 4.048308730125427246e-02
1.928000000000000000e+03 7.569608306884765625e+01 9.842431068420410156e+00 -1.083257868885993958e-01 8.211971282958984375e+00 2.431093692779541016e+00 -1.122848615050315857e-01
1.929000000000000000e+03 7.517456817626953125e+01 -2.921338653564453125e+01 1.651264168322086334e-02 7.635233879089355469e+00 2.295523881912231445e+00 1.759509183466434479e-02
1.930000000000000000e+03 7.397230529785156250e+01 -2.327070045471191406e+01 9.608289226889610291e-03 7.438262939453125000e+00 2.234361410140991211e+00 4.087793827056884766e-02
1.931000000000000000e+03 7.603900909423828125e+01 1.830375099182128906e+01 -2.047828137874603271e-01 7.993526458740234375e+00 2.336622953414916992e+00 -6.744694113731384277e-01
1.932000000000000000e+03 7.597377014160156250e+01 1.692960357666015625e+01 -2.009928226470947266e-01 8.080556869506835938e+00 2.363869190216064453e+00 -5.593281388282775879e-01
1.933000000000000000e+03 7.612879943847656250e+01 2.522901725769042969e+01 1.086458787322044373e-01 7.143812656402587891e+00 2.175737619400024414e+00 -9.921833276748657227e-01
1.934000000000000000e+03 7.619478607177734375e+01 2.655867385864257812e+01 2.264063656330108643e-01 6.924984931945800781e+00 2.145417451858520508e+00 -8.867183327674865723e-01
1.935000000000000000e+03 7.385881805419921875e+01 -2.788072204589843750e+01 1.293631084263324738e-02 7.424841880798339844e+00 2.231333494186401367e+00 2.506874129176139832e-02
1.936000000000000000e+03 7.653993988037109375e+01 -2.634926414489746094e+01 6.358549930155277252e-03 7.910183429718017578e+00 2.374962568283081055e+00 1.422982197254896164e-02
1.937000000000000000e+03 7.527871704101562500e+01 -2.340691757202148438e+01 1.827475964091718197e-03 7.690528392791748047e+00 2.307706832885742188e+00 2.666551247239112854e-02
1.938000000000000000e+03 7.484213256835937500e+01 -3.231786346435546875e+01 -1.163324154913425446e-02 7.566468238830566406e+00 2.266450643539428711e+00 3.814356867223978043e-03
1.939000000000000000e+03 7.618568420410156250e+01 -3.642652893066406250e+01 -2.163954824209213257e-02 7.906483650207519531e+00 2.365453243255615234e+00 2.363070100545883179e-02
1.940000000000000000e+03 7.683990478515625000e+01 2.941812324523925781e+01 3.650912046432495117e-01 6.251641750335693359e+00 1.985019922256469727e+00 -3.677388429641723633e-01
1.941000000000000000e+03 7.587005615234375000e+01 2.903016853332519531e+01 5.641613602638244629e-01 6.820174694061279297e+00 2.215300798416137695e+00 -5.371162891387939453e-01
1.942000000000000000e+03 7.570365142822265625e+01 -3.501932525634765625e+01 -2.391129173338413239e-02 7.783464908599853516e+00 2.327866077423095703e+00 -2.157693542540073395e-02
1.943000000000000000e+03 7.661582946777343750e+01 -3.345779800415039062e+01 -2.490697614848613739e-02 7.902499198913574219e+00 2.363277673721313477e+00 8.529555052518844604e-03
1.944000000000000000e+03 7.502839660644531250e+01 -3.068328857421875000e+01 -1.682752370834350586e-02 7.574337005615234375e+00 2.267252683639526367e+00 6.556069012731313705e-03
1.945000000000000000e+03 7.534009552001953125e+01 3.338981246948242188e+01 5.017293095588684082e-01 7.076123714447021484e+00 2.273355960845947266e+00 4.816249608993530273e-01
1.946000000000000000e+03 2.467001914978027344e+01 1.125493144989013672e+01 8.883984759449958801e-03 -1.058224201202392578e+00 -3.148020505905151367e-01 -3.110922873020172119e-01
1.947000000000000000e+03 1.258593463897705078e+01 -2.255157661437988281e+01 -5.455128848552703857e-04 -1.090906676836311817e-03 -4.909258568659424782e-04 -2.524770097807049751e-04
1.948000000000000000e+03 1.247052288055419922e+01 -2.020640754699707031e+01 1.123837282648310065e-04 -7.029260741546750069e-04 -1.771626994013786316e-04 3.581567725632339716e-04
1.949000000000000000e+03 2.296548461914062500e+01 -1.392651367187500000e+01 -3.555690869688987732e-02 -1.947310328483581543e+00 -5.948601961135864258e-01 -1.235814541578292847e-01
1.950000000000000000e+03 2.441175460815429688e+01 -1.387055301666259766e+01 -2.121493592858314514e-02 -1.662754297256469727e+00 -5.051907896995544434e-01 -1.199868619441986084e-01
1.951000000000000000e+03 2.465628433227539062e+01 9.878551483154296875e+00 5.371485371142625809e-03 -1.135899305343627930e+00 -3.391583561897277832e-01 -3.053115606307983398e-01
1.952000000000000000e+03 2.468716430664062500e+01 1.263748455047607422e+01 9.399889037013053894e-03 -9.792349934577941895e-01 -2.909505367279052734e-01 -3.181012272834777832e-01
1.953000000000000000e+03 5.452095985412597656e+00 -2.454006385803222656e+01 1.304239383898675442e-03 4.281958899809978902e-05 4.041177162434905767e-04 3.032748354598879814e-04
1.954000000000000000e+03 1.151937770843505859e+01 -2.974560356140136719e+01 2.480650320649147034e-03 1.039941213093698025e-03 1.056177541613578796e-03 -9.236205369234085083e-04
1.955000000000000000e+03 2.582501411437988281e+01 2.296165847778320312e+01 -5.572672933340072632e-02 -3.460029363632202148e-01 -1.205188930034637451e-01 -3.338868319988250732e-01
1.956000000000000000e+03 2.482570075988769531e+01 2.134669685363769531e+01 -2.533895336091518402e-02 -4.661436676979064941e-01 -1.474447846412658691e-01 -3.076440393924713135e-01
1.957000000000000000e+03 2.471627044677734375e+01 1.403145694732666016e+01 8.270560763776302338e-03 -8.953744173049926758e-01 -2.661311626434326172e-01 -3.241364657878875732e-01
1.958000000000000000e+03 2.359297561645507812e+01 1.840807151794433594e+01 -4.289817065000534058e-03 -6.916689276695251465e-01 -2.087876200675964355e-01 -2.511344254016876221e-01
1.959000000000000000e+03 2.488235855102539062e+01 1.836551856994628906e+01 -9.183512069284915924e-03 -6.270988583564758301e-01 -1.908847093582153320e-01 -3.336802721023559570e-01
1.960000000000000000e+03 2.482032585144042969e+01 1.688856315612792969e+01 -8.335353923030197620e-04 -7.193968892097473145e-01 -2.160691171884536743e-01 -3.337805867195129395e-01
1.961000000000000000e+03 1.002695655822753906e+01 -1.807219886779785156e+01 -6.507749785669147968e-04 4.904076922684907913e-04 -4.811017424799501896e-05 -1.372707338305190206e-04
1.962000000000000000e+03 2.314373779296875000e+01 2.975979804992675781e+01 -3.036928549408912659e-02 -9.261491894721984863e-02 -3.689526021480560303e-02 -8.076810836791992188e-02
1.963000000000000000e+03 2.346337127685546875e+01 8.519796371459960938e+00 -4.646765068173408508e-03 -1.365635633468627930e+00 -4.110847115516662598e-01 -2.352878004312515259e-01
1.964000000000000000e+03 2.464768218994140625e+01 8.507335662841796875e+00 -3.898263908922672272e-03 -1.203333020210266113e+00 -3.621693551540374756e-01 -2.991997003555297852e-01
1.965000000000000000e+03 2.429510498046875000e+01 2.684610176086425781e+01 -4.906560480594635010e-02 -1.992532312870025635e-01 -7.449565082788467407e-02 -1.837852299213409424e-01
1.966000000000000000e+03 2.446599197387695312e+01 2.418911552429199219e+01 -3.996727615594863892e-02 -3.194481134414672852e-01 -1.078246161341667175e-01 -2.468033432960510254e-01
1.967000000000000000e+03 2.434184074401855469e+01 2.553115844726562500e+01 -4.418854415416717529e-02 -2.573000788688659668e-01 -9.044658392667770386e-02 -2.148285508155822754e-01
1.968000000000000000e+03 2.437426185607910156e+01 2.816361999511718750e+01 -5.603048950433731079e-02 -1.456802934408187866e-01 -6.051323562860488892e-02 -1.535515338182449341e-01
1.969000000000000000e+03 2.620926284790039062e+01 3.018335723876953125e+01 -1.116480827331542969e-01 -7.297619432210922241e-02 -5.538728460669517517e-02 -1.507569998502731323e-01
1.970000000000000000e+03 2.465052032470703125e+01 7.141015052795410156e+00 -1.591806672513484955e-02 -1.263499975204467773e+00 -3.838253915309906006e-01 -2.896226048469543457e-01
1.971000000000000000e+03 3.122293710708618164e+00 -1.647587966918945312e+01 6.172099383547902107e-04 -3.594482768676243722e-05 1.743795291986316442e-04 2.692483831197023392e-04
1.972000000000000000e+03 4.421999931335449219e+00 -1.514391040802001953e+01 4.875974263995885849e-04 5.291462366585619748e-05 1.621536066522821784e-04 2.838090586010366678e-04
1.973000000000000000e+03 4.572766304016113281e+00 2.178719329833984375e+01 -2.919780963566154242e-04 2.857617619156371802e-05 -7.902057404862716794e-05 -3.313143315608613193e-05
1.974000000000000000e+03 3.280537128448486328e+00 2.030319213867187500e+01 -2.370912698097527027e-04 1.580170646775513887e-05 -6.638687045779079199e-05 -2.951224360003834590e-06
1.975000000000000000e+03 4.421155452728271484e+00 -1.790542984008789062e+01 7.476187893189489841e-04 -7.835946598788723350e-05 2.007777948165312409e-04 3.978372551500797272e-04
1.976000000000000000e+03 4.434893608093261719e+00 -1.654907417297363281e+01 -6.926420610398054123e-04 -9.395685083291027695e-06 -2.106113242916762829e-04 -4.782677860930562019e-04
1.977000000000000000e+03 5.748110771179199219e+00 2.630411529541015625e+01 -1.737637358019128442e-04 -9.072840475710108876e-05 -7.934764289529994130e-05 -2.980552744702436030e-05
1.978000000000000000e+03 5.886432647705078125e+00 2.502758598327636719e+01 9.534718992654234171e-05 1.429807598469778895e-04 7.149838347686454654e-05 1.067817720468156040e-04
1.979000000000000000e+03 4.595650672912597656e+00 2.881206893920898438e+01 3.805450687650591135e-04 -6.676923658233135939e-05 9.413275256520137191e-05 4.242661088937893510e-05
1.980000000000000000e+03 4.104408264160156250e+00 -2.714816284179687500e+01 -6.988247623667120934e-04 6.737331859767436981e-04 -7.527456091338535771e-06 -1.325558787357294932e-05
1.981000000000000000e+03 2.939404726028442383e+00 -2.725141906738281250e+01 2.232525730505585670e-03 -6.242889503482729197e-05 6.510290550068020821e-04 7.985263946466147900e-04
1.982000000000000000e+03 3.014887809753417969e+00 -2.333122634887695312e+01 -1.251063658855855465e-03 6.399573612725362182e-05 -3.561203775461763144e-04 -4.239243862684816122e-04
1.983000000000000000e+03 4.367709636688232422e+00 -2.201722908020019531e+01 -1.164182438515126705e-03 5.400793161243200302e-04 -1.872309367172420025e-04 -3.434056125115603209e-04
1.984000000000000000e+03 4.537815570831298828e+00 1.857872581481933594e+01 -2.323706721654161811e-04 -4.598803570843301713e-06 -7.109084253897890449e-05 -3.656446278910152614e-05
1.985000000000000000e+03 3.819595575332641602e+00 1.644710922241210938e+01 -9.714387124404311180e-05 -5.444680937216617167e-05 -4.547720527625642717e-05 -6.307705916697159410e-05
1.986000000000000000e+03 4.425162315368652344e+00 -2.062014579772949219e+01 9.634503512643277645e-04 -6.824854062870144844e-05 2.685605431906878948e-04 2.484780270606279373e-04
1.987000000000000000e+03 3.237883329391479492e+00 2.615605545043945312e+01 -2.694325521588325500e-04 1.208247704198583961e-05 -7.720501889707520604e-05 -2.738311013672500849e-05
1.988000000000000000e+03 4.642811775207519531e+00 2.477085113525390625e+01 -2.494666841812431812e-04 -3.004612881341017783e-05 -8.385384717257693410e-05 -6.468661013059318066e-05
1.989000000000000000e+03 4.659174919128417969e+00 2.329439353942871094e+01 2.969079650938510895e-04 -1.583980701980181038e-05 8.432044705841690302e-05 6.192322325659915805e-05
1.990000000000000000e+03 9.537061691284179688e+00 -2.281330871582031250e+01 3.918216971214860678e-04 8.278065361082553864e-04 3.658884670585393906e-04 2.682891208678483963e-04
1.991000000000000000e+03 5.499534606933593750e+00 -2.568235397338867188e+01 -1.715988328214734793e-04 -4.555366467684507370e-04 -1.881406351458281279e-04 -3.922215546481311321e-04
1.992000000000000000e+03 2.981831550598144531e+00 1.484197330474853516e+01 -1.271216897293925285e-04 -3.769336399273015559e-05 -4.944451575283892453e-05 3.142436253256164491e-05
1.993000000000000000e+03 4.863553524017333984e+00 1.691606521606445312e+01 1.792709517758339643e-04 3.055866545764729381e-05 6.294888589764013886e-05 6.361378473229706287e-05
1.994000000000000000e+03 4.120039939880371094e+00 1.191162204742431641e+01 1.511306618340313435e-04 6.803829364798730239e-06 4.738034840556792915e-05 -4.042987347929738462e-05
1.995000000000000000e+03 4.269555091857910156e+00 1.339186000823974609e+01 -1.724998001009225845e-04 -8.741204169382399414e-07 -5.201217572903260589e-05 1.126452389144105837e-05
1.996000000000000000e+03 3.935494422912597656e+00 -9.610215187072753906e+00 3.166628594044595957e-04 6.354870129143819213e-05 1.140634703915566206e-04 1.151781616499647498e-04
1.997000000000000000e+03 4.371531486511230469e+00 -1.371892929077148438e+01 -4.737620183732360601e-04 -1.076756889233365655e-04 -1.744313049130141735e-04 -3.012891102116554976e-04
1.998000000000000000e+03 4.841987609863281250e+00 3.638314056396484375e+01 -3.520383324939757586e-05 -2.134383394150063396e-04 -7.459265179932117462e-05 -8.414936746703460813e-05
1.999000000000000000e+03 3.707975864410400391e+00 -3.124088668823242188e+01 2.597831189632415771e-04 -2.920824044849723577e-04 -9.689787475508637726e-06 1.345109310932457447e-03
2.000000000000000000e+03 5.521409034729003906e+00 -2.862481880187988281e+01 2.066450193524360657e-03 1.800556201487779617e-03 1.160101965069770813e-03 1.565717859193682671e-03
2.001000000000000000e+03 4.100064277648925781e+00 -1.092767906188964844e+01 -3.834060626104474068e-04 -8.793685992714017630e-05 -1.414028811268508434e-04 -1.569267042214050889e-04
2.002000000000000000e+03 4.627067089080810547e+00 -5.803201675415039062e+00 -8.893883932614699006e-05 2.787938283290714025e-04 5.695649815606884658e-05 1.949450379470363259e-04
2.003000000000000000e+03 4.024382591247558594e+00 1.050461864471435547e+01 -1.169574898085556924e-04 -1.734693069010972977e-05 -4.029132469440810382e-05 3.189017661497928202e-05
2.004000000000000000e+03 6.371390342712402344e+00 2.984079933166503906e+01 4.129763983655720949e-04 -4.123925464227795601e-05 1.115211416617967188e-04 -7.809582712070550770e-06
2.005000000000000000e+03 3.538674116134643555e+00 3.466624832153320312e+01 -1.492256415076553822e-04 -1.238161639776080847e-04 -8.191254164557904005e-05 -2.389479232078883797e-05
2.006000000000000000e+03 5.071291446685791016e+00 3.482478332519531250e+01 2.055965160252526402e-04 1.196587545564398170e-04 9.757657971931621432e-05 1.444627414457499981e-04
2.007000000000000000e+03 5.005923271179199219e+00 -3.053976058959960938e+01 3.610484767705202103e-03 1.513767638243734837e-03 1.537275733426213264e-03 3.493540221825242043e-03
2.008000000000000000e+03 5.765044689178466797e+00 -3.180484771728515625e+01 4.797252360731363297e-03 -3.433326259255409241e-03 4.091778246220201254e-04 3.301291959360241890e-03
2.009000000000000000e+03 3.108895301818847656e+00 -5.006148815155029297e+00 7.346038273681188002e-06 1.690726930974051356e-04 5.292562127579003572e-05 1.697257685009390116e-04
2.010000000000000000e+03 2.742842674255371094e+00 6.376296997070312500e+00 -9.314192720921710134e-05 -2.507751014491077513e-05 -3.546582956914789975e-05 -2.393097247477271594e-06
2.011000000000000000e+03 5.863748550415039062e+00 5.075192451477050781e+00 5.904793215449899435e-05 2.860063250409439206e-05 2.629457048897165805e-05 -1.635748230910394341e-05
2.012000000000000000e+03 1.308431529998779297e+01 -2.862805175781250000e+01 7.317001000046730042e-04 -5.838102151756174862e-05 2.019957173615694046e-04 3.255591436754912138e-04
2.013000000000000000e+03 1.163792133331298828e+01 -2.712389945983886719e+01 8.729771943762898445e-04 1.023442251607775688e-03 5.689258105121552944e-04 5.858623771928250790e-04
2.014000000000000000e+03 6.612298965454101562e+00 -3.565381240844726562e+01 7.365977391600608826e-03 -5.830415524542331696e-03 4.606686416082084179e-04 1.540911570191383362e-02
2.015000000000000000e+03 5.963368892669677734e+00 3.863263320922851562e+01 8.929584146244451404e-05 -2.216705179307609797e-04 -3.971240221289917827e-05 -1.476224279031157494e-04
2.016000000000000000e+03 3.082018852233886719e+00 3.729021072387695312e+01 -3.935524728149175644e-05 -3.329542096253135242e-06 -1.280543710890924558e-05 8.801299031802045647e-07
2.017000000000000000e+03 2.304679298400878906e+01 -2.246825790405273438e+01 2.798269130289554596e-02 -1.917510151863098145e+00 -5.668582320213317871e-01 -1.055985838174819946e-01
2.018000000000000000e+03 1.711335754394531250e+01 3.888033676147460938e+01 1.752115203998982906e-03 5.889451495022512972e-05 5.433029145933687687e-04 1.915602188091725111e-04
2.019000000000000000e+03 1.123296070098876953e+01 3.898082733154296875e+01 -7.132181199267506599e-04 7.106838165782392025e-05 -1.926449185702949762e-04 -2.646055945660918951e-04
2.020000000000000000e+03 2.444230270385742188e+01 -1.524993419647216797e+01 -9.968337602913379669e-03 -1.666149377822875977e+00 -5.028353333473205566e-01 -1.068805381655693054e-01
2.021000000000000000e+03 4.822271728515625000e+01 3.683027648925781250e+01 -2.857422642409801483e-02 -2.278131842613220215e-01 -7.691621780395507812e-02 3.726098239421844482e-01
2.022000000000000000e+03 2.348100662231445312e+01 4.320990562438964844e+00 -4.607642441987991333e-02 -1.549823164939880371e+00 -4.787698686122894287e-01 -2.158154398202896118e-01
2.023000000000000000e+03 2.494757461547851562e+01 1.590634822845458984e+00 -2.991338551510125399e-04 -1.392172932624816895e+00 -4.177416265010833740e-01 -2.321255952119827271e-01
2.024000000000000000e+03 2.466757774353027344e+01 5.771131038665771484e+00 -2.720705978572368622e-02 -1.311699748039245605e+00 -4.016720652580261230e-01 -2.770934402942657471e-01
2.025000000000000000e+03 3.465009307861328125e+01 4.031974029541015625e+01 -3.678486449643969536e-03 -2.591925859451293945e-02 -8.879323489964008331e-03 7.057555485516786575e-03
2.026000000000000000e+03 1.263798332214355469e+01 3.627686691284179688e+01 -5.678173620253801346e-04 -6.592366116819903255e-05 -1.901223149616271257e-04 1.197200035676360130e-04
2.027000000000000000e+03 7.699779987335205078e+00 2.892508506774902344e+01 -1.075294057955034077e-04 -5.082686766400001943e-05 -4.750688094645738602e-05 8.037916995817795396e-05
2.028000000000000000e+03 2.440154457092285156e+01 -1.110774421691894531e+01 -1.462814211845397949e-02 -1.659628868103027344e+00 -5.022771358489990234e-01 -1.531049460172653198e-01
2.029000000000000000e+03 2.303882217407226562e+01 -2.957776069641113281e+01 -2.461322955787181854e-02 -1.961809396743774414e+00 -5.959267616271972656e-01 -9.547053277492523193e-02
2.030000000000000000e+03 2.476978492736816406e+01 -4.313012599945068359e+00 3.042422048747539520e-02 -1.532042503356933594e+00 -4.504854977130889893e-01 -1.929012984037399292e-01
2.031000000000000000e+03 2.942202377319335938e+01 4.088544845581054688e+01 -3.532297560013830662e-04 -1.523819373687729239e-04 -1.516835036454722285e-04 -3.654862521216273308e-03
2.032000000000000000e+03 2.190131950378417969e+01 4.033297729492187500e+01 -9.038348216563463211e-04 1.320772804319858551e-03 1.250813802471384406e-04 -2.070452319458127022e-03
2.033000000000000000e+03 1.203071594238281250e+01 1.294414520263671875e+01 -1.197439123643562198e-04 -3.198851118213497102e-05 -4.551972597255371511e-05 -7.794971315888687968e-05
2.034000000000000000e+03 1.147272968292236328e+01 2.806362342834472656e+01 -3.098135930486023426e-04 -4.860846820520237088e-05 -1.075266191037371755e-04 -1.397629093844443560e-04
2.035000000000000000e+03 6.288402080535888672e+00 1.017554950714111328e+01 -4.445898230187594891e-05 -2.976354880956932902e-05 -2.226676042482722551e-05 2.513762774469796568e-05
2.036000000000000000e+03 7.402627944946289062e+00 1.781922912597656250e+01 2.815223706420511007e-05 -1.307324273511767387e-04 -3.077405563089996576e-05 -4.658186662709340453e-05
2.037000000000000000e+03 2.305522346496582031e+01 -2.101909637451171875e+01 4.470305517315864563e-02 -1.917075037956237793e+00 -5.617116093635559082e-01 -1.001065298914909363e-01
2.038000000000000000e+03 1.069737052917480469e+01 -3.351310348510742188e+01 1.463419198989868164e-02 -4.003531299531459808e-03 3.189198207110166550e-03 -5.897526163607835770e-03
2.039000000000000000e+03 1.212471771240234375e+01 -3.395792770385742188e+01 2.056031301617622375e-02 4.515014879871159792e-04 6.303544156253337860e-03 -1.494799740612506866e-02
2.040000000000000000e+03 2.440493774414062500e+01 -2.554309082031250000e+01 3.172558173537254333e-02 -1.683475971221923828e+00 -4.955251216888427734e-01 -8.966570347547531128e-02
2.041000000000000000e+03 1.232283210754394531e+01 2.451573753356933594e+01 -2.373247116338461637e-04 -7.848097448004409671e-05 -9.474170656176283956e-05 3.718407924679922871e-06
2.042000000000000000e+03 3.234930419921875000e+01 4.145402526855468750e+01 -2.910842653363943100e-03 -1.423039101064205170e-02 -5.142370238900184631e-03 4.951187875121831894e-03
2.043000000000000000e+03 6.323579788208007812e+01 2.901124191284179688e+01 1.627524018287658691e+00 1.081762027740478516e+01 3.733543395996093750e+00 6.648559570312500000e+00
2.044000000000000000e+03 6.324448013305664062e+01 2.826751708984375000e+01 5.550417304039001465e-01 1.068805122375488281e+01 3.372927904129028320e+00 5.332519054412841797e+00
2.045000000000000000e+03 6.323530197143554688e+01 2.854440689086914062e+01 7.660526633262634277e-01 1.072815513610839844e+01 3.448262214660644531e+00 5.716736316680908203e+00
2.046000000000000000e+03 6.111536026000976562e+01 2.855790519714355469e+01 9.626724123954772949e-01 2.054305791854858398e+00 9.050934314727783203e-01 2.976428747177124023e+00
2.047000000000000000e+03 6.437367248535156250e+01 3.294841003417968750e+01 -1.039661020040512085e-01 1.758239173889160156e+01 5.243527889251708984e+00 -2.412702083587646484e+00
2.048000000000000000e+03 6.490173339843750000e+01 3.278123855590820312e+01 9.156728386878967285e-01 1.851403427124023438e+01 5.828911781311035156e+00 9.120924770832061768e-02
2.049000000000000000e+03 6.643480682373046875e+01 2.997702026367187500e+01 5.864436626434326172e+00 1.403331947326660156e+01 5.969326972961425781e+00 -1.638813734054565430e+00
2.050000000000000000e+03 6.521606445312500000e+01 2.896918869018554688e+01 1.551863312721252441e+00 1.730913352966308594e+01 5.658298969268798828e+00 -5.524011850357055664e-01
2.051000000000000000e+03 6.420686340332031250e+01 2.855901718139648438e+01 -2.193178236484527588e-01 1.580517673492431641e+01 4.675757884979248047e+00 3.470640182495117188e+00
2.052000000000000000e+03 6.571770477294921875e+01 2.945385551452636719e+01 4.126079082489013672e+00 1.645433616638183594e+01 6.174124717712402344e+00 -2.009990453720092773e+00
2.053000000000000000e+03 6.508416748046875000e+01 2.847047233581542969e+01 2.954492270946502686e-01 1.641565132141113281e+01 5.013329982757568359e+00 5.218800902366638184e-01
2.054000000000000000e+03 6.474662780761718750e+01 2.849692916870117188e+01 -4.249375313520431519e-02 1.647875213623046875e+01 4.930877685546875000e+00 1.523869276046752930e+00
2.055000000000000000e+03 6.548307037353515625e+01 2.877893066406250000e+01 1.489017486572265625e+00 1.650001144409179688e+01 5.396708488464355469e+00 -8.607962727546691895e-01
2.056000000000000000e+03 6.582041931152343750e+01 3.019910049438476562e+01 7.341256141662597656e+00 1.567120838165283203e+01 6.903739452362060547e+00 -1.825588941574096680e+00
2.057000000000000000e+03 6.558947753906250000e+01 3.255298614501953125e+01 2.908805131912231445e+00 1.703865432739257812e+01 5.984237670898437500e+00 1.928863525390625000e+00
2.058000000000000000e+03 6.619686126708984375e+01 3.076605796813964844e+01 7.842087745666503906e+00 1.427051544189453125e+01 6.633780956268310547e+00 -2.572398185729980469e-01
2.059000000000000000e+03 6.234914398193359375e+01 3.295808410644531250e+01 1.910460591316223145e+00 5.144588947296142578e+00 2.116514921188354492e+00 -4.481613159179687500e+00
2.060000000000000000e+03 6.448422241210937500e+01 3.329125976562500000e+01 -3.649026453495025635e-01 1.654081726074218750e+01 4.852774620056152344e+00 -2.069428443908691406e+00
2.061000000000000000e+03 6.635186767578125000e+01 3.149136161804199219e+01 6.699830532073974609e+00 1.400720596313476562e+01 6.212110996246337891e+00 1.406222820281982422e+00
2.062000000000000000e+03 5.937441635131835938e+01 2.767260551452636719e+01 1.971027851104736328e-01 1.202199220657348633e+00 4.197905957698822021e-01 1.800798773765563965e+00
2.063000000000000000e+03 6.262096786499023438e+01 3.303344726562500000e+01 1.776007175445556641e+00 6.772617816925048828e+00 2.564587354660034180e+00 -5.052878379821777344e+00
2.064000000000000000e+03 6.307632827758789062e+01 3.305697250366210938e+01 1.302272677421569824e+00 9.467535018920898438e+00 3.230942249298095703e+00 -5.435852050781250000e+00
2.065000000000000000e+03 5.252834320068359375e+01 2.795984840393066406e+01 -1.550877571105957031e+00 8.595937490463256836e-02 -4.394754767417907715e-01 -6.755665689706802368e-02
2.066000000000000000e+03 5.850964736938476562e+01 3.432394409179687500e+01 2.256361544132232666e-01 6.813142299652099609e-01 2.720851302146911621e-01 -5.179476737976074219e-01
2.067000000000000000e+03 5.871908569335937500e+01 3.497041320800781250e+01 4.874071776866912842e-01 1.159151077270507812e+00 4.939674735069274902e-01 -7.359862923622131348e-01
2.068000000000000000e+03 5.738910675048828125e+01 2.769326782226562500e+01 -6.698290109634399414e-01 4.194167554378509521e-01 -7.512367516756057739e-02 7.750657796859741211e-01
2.069000000000000000e+03 5.676567459106445312e+01 2.775460052490234375e+01 -8.957539200782775879e-01 3.162287175655364990e-01 -1.738575547933578491e-01 5.762269496917724609e-01
2.070000000000000000e+03 5.542761230468750000e+01 2.782121467590332031e+01 -1.236765027046203613e+00 1.813431680202484131e-01 -3.166265487670898438e-01 2.731190025806427002e-01
2.071000000000000000e+03 6.006397628784179688e+01 3.561256027221679688e+01 6.649848818778991699e-01 3.127677440643310547e+00 1.137798666954040527e+00 -1.768005728721618652e+00
2.072000000000000000e+03 2.691392707824707031e+01 3.129725646972656250e+01 -1.320729255676269531e-01 -4.009730741381645203e-02 -5.165106803178787231e-02 -1.304040402173995972e-01
2.073000000000000000e+03 3.743539333343505859e+00 4.599118709564208984e+00 6.237485649762675166e-05 -1.491745842940872535e-05 1.423721914761699736e-05 -6.456318078562617302e-05
2.074000000000000000e+03 4.488912105560302734e+00 4.420958518981933594e+00 -3.795565498876385391e-05 -2.539615343266632408e-05 -1.900554161693435162e-05 2.763828342722263187e-05
2.075000000000000000e+03 5.471625518798828125e+01 2.785026931762695312e+01 -1.357332348823547363e+00 1.380082964897155762e-01 -3.657972216606140137e-01 1.556432396173477173e-01
2.076000000000000000e+03 6.653436660766601562e+00 4.274336814880371094e+00 4.510068902163766325e-05 3.039369585167150944e-05 2.264831528009381145e-05 -2.005967644436168484e-06
2.077000000000000000e+03 2.415997695922851562e+01 3.010975837707519531e+01 -5.344026908278465271e-02 -8.809505403041839600e-02 -4.246059432625770569e-02 -1.018632203340530396e-01
2.078000000000000000e+03 5.196900367736816406e+00 5.035692691802978516e+00 -6.356069206958636642e-05 -1.700935172266326845e-05 -2.417101131868548691e-05 2.285501523147104308e-06
2.079000000000000000e+03 8.881059646606445312e+00 5.718152046203613281e+00 -5.204580520512536168e-05 -3.535579890012741089e-05 -2.622048305056523532e-05 -3.734948404598981142e-05
2.080000000000000000e+03 7.387294292449951172e+00 4.245532512664794922e+00 -3.358312096679583192e-05 -3.362710049259476364e-05 -2.016306643781717867e-05 -1.521585886621323880e-06
2.081000000000000000e+03 8.155555725097656250e+00 4.959177494049072266e+00 -3.419106360524892807e-05 -3.818007826339453459e-05 -2.171134292439091951e-05 -2.756321737251710147e-05
2.082000000000000000e+03 2.938421249389648438e+01 3.109137344360351562e+01 -2.318952381610870361e-01 -1.226253435015678406e-02 -7.324732840061187744e-02 -1.787645816802978516e-01
2.083000000000000000e+03 3.005868148803710938e+01 3.094696044921875000e+01 -2.647303342819213867e-01 -5.983121227473020554e-03 -8.121404051780700684e-02 -1.968206465244293213e-01
2.084000000000000000e+03 9.025124549865722656e+00 -4.081758022308349609e+00 8.969001646619290113e-05 1.920416252687573433e-04 8.451949543086811900e-05 9.495959238847717643e-05
2.085000000000000000e+03 9.730516433715820312e+00 -4.764340877532958984e+00 -8.222278120229020715e-05 2.137490082532167435e-04 3.945786738768219948e-05 -2.905596375057939440e-05
2.086000000000000000e+03 2.754819679260253906e+01 3.118745422363281250e+01 -1.560949385166168213e-01 -3.454370424151420593e-02 -5.719159170985221863e-02 -1.454121768474578857e-01
2.087000000000000000e+03 2.877069091796875000e+01 3.124356269836425781e+01 -2.066272795200347900e-01 -1.686587557196617126e-02 -6.704794615507125854e-02 -1.639529019594192505e-01
2.088000000000000000e+03 3.148519134521484375e+01 3.069760894775390625e+01 -3.407459855079650879e-01 1.145909726619720459e-02 -9.878606349229812622e-02 -2.277246713638305664e-01
2.089000000000000000e+03 3.221868896484375000e+01 3.057826232910156250e+01 -3.826633393764495850e-01 2.052692323923110962e-02 -1.086409315466880798e-01 -2.418370246887207031e-01
2.090000000000000000e+03 8.334000587463378906e+00 -4.167457103729248047e+00 -1.641089183976873755e-04 -1.559682132210582495e-04 -9.602314094081521034e-05 -1.197053497890010476e-04
2.091000000000000000e+03 1.145388603210449219e+01 -9.131144523620605469e+00 2.824771218001842499e-04 6.974209100008010864e-05 1.056657638400793076e-04 3.336530880915233865e-06
2.092000000000000000e+03 3.885596847534179688e+01 2.938517189025878906e+01 -8.327865600585937500e-01 8.457055687904357910e-02 -2.244647890329360962e-01 -3.325369358062744141e-01
2.093000000000000000e+03 3.295462036132812500e+01 3.045734024047851562e+01 -4.269187450408935547e-01 2.937130443751811981e-02 -1.192642375826835632e-01 -2.550633847713470459e-01
2.094000000000000000e+03 3.678573608398437500e+01 3.048064613342285156e+01 -7.041987776756286621e-01 6.511186063289642334e-02 -1.917260736227035522e-01 -2.536102533340454102e-01
2.095000000000000000e+03 3.811867523193359375e+01 2.952913665771484375e+01 -7.786476612091064453e-01 7.976376265287399292e-02 -2.096651792526245117e-01 -3.251865208148956299e-01
2.096000000000000000e+03 3.958587265014648438e+01 2.923756217956542969e+01 -8.848844766616821289e-01 8.900903910398483276e-02 -2.387626320123672485e-01 -3.396218717098236084e-01
2.097000000000000000e+03 3.604405593872070312e+01 3.061915588378906250e+01 -6.465328931808471680e-01 6.006753072142601013e-02 -1.759396046400070190e-01 -2.467414438724517822e-01
2.098000000000000000e+03 4.194064331054687500e+01 2.947935295104980469e+01 -1.130555033683776855e+00 8.627143502235412598e-02 -3.132850825786590576e-01 -2.875178158283233643e-01
2.099000000000000000e+03 3.368935394287109375e+01 3.033392906188964844e+01 -4.726019501686096191e-01 3.777066245675086975e-02 -1.304493844509124756e-01 -2.671656906604766846e-01
2.100000000000000000e+03 7.004934310913085938e+00 -5.280922412872314453e+00 2.772770822048187256e-04 1.220018966705538332e-04 1.197836973005905747e-04 1.065779215423390269e-04
2.101000000000000000e+03 4.629179000854492188e+00 -4.082077980041503906e+00 1.527145795989781618e-04 -1.678275584708899260e-04 -4.533893843472469598e-06 -1.222205464728176594e-04
2.102000000000000000e+03 4.177759933471679688e+01 2.879092788696289062e+01 -1.036379218101501465e+00 9.593873471021652222e-02 -2.821321189403533936e-01 -3.560150563716888428e-01
2.103000000000000000e+03 4.463648986816406250e+01 2.753619003295898438e+01 -1.070321440696716309e+00 1.125243008136749268e-01 -2.873391509056091309e-01 -4.103234410285949707e-01
2.104000000000000000e+03 3.794745635986328125e+01 2.884795379638671875e+01 -7.269068956375122070e-01 8.011783659458160400e-02 -1.940367221832275391e-01 -3.791521787643432617e-01
2.105000000000000000e+03 3.442197799682617188e+01 3.020666694641113281e+01 -5.200304388999938965e-01 4.570958018302917480e-02 -1.422962695360183716e-01 -2.789226770401000977e-01
2.106000000000000000e+03 4.734893035888671875e+01 2.921362304687500000e+01 -1.691768765449523926e+00 5.718683078885078430e-02 -4.903745949268341064e-01 -1.991751343011856079e-01
2.107000000000000000e+03 4.940967559814453125e+01 2.754977416992187500e+01 -1.330999493598937988e+00 9.941955655813217163e-02 -3.694739937782287598e-01 -2.554702460765838623e-01
2.108000000000000000e+03 4.031474304199218750e+01 2.908849525451660156e+01 -9.374156594276428223e-01 9.231241792440414429e-02 -2.535309791564941406e-01 -3.461514115333557129e-01
2.109000000000000000e+03 5.005226898193359375e+01 2.678171157836914062e+01 -1.079171538352966309e+00 1.445027589797973633e-01 -2.804006338119506836e-01 -2.300774455070495605e-01
2.110000000000000000e+03 4.952787017822265625e+01 2.822904396057128906e+01 -1.576585650444030762e+00 7.030870020389556885e-02 -4.518831074237823486e-01 -2.177883386611938477e-01
2.111000000000000000e+03 4.494341278076171875e+01 2.891114997863769531e+01 -1.357683062553405762e+00 8.419943600893020630e-02 -3.820450901985168457e-01 -2.904615998268127441e-01
2.112000000000000000e+03 4.327347564697265625e+01 2.850400352478027344e+01 -1.130265355110168457e+00 9.776556491851806641e-02 -3.097499310970306396e-01 -3.600519001483917236e-01
2.113000000000000000e+03 7.602535724639892578e+00 -4.261110782623291016e+00 2.092671056743711233e-04 9.772126941243186593e-05 9.209651034325361252e-05 1.147063012467697263e-04
2.114000000000000000e+03 7.676241397857666016e+00 -7.163974285125732422e+00 1.703806483419612050e-04 3.867724153678864241e-04 1.671459176577627659e-04 2.899647515732795000e-04
2.115000000000000000e+03 5.833451843261718750e+01 3.591246414184570312e+01 5.906036496162414551e-01 1.471440076828002930e+00 6.186131238937377930e-01 -7.868607640266418457e-01
2.116000000000000000e+03 1.256212520599365234e+01 6.694332122802734375e+00 8.777224866207689047e-05 7.253352578118210658e-06 2.850768032658379525e-05 1.315809186053229496e-05
2.117000000000000000e+03 4.403127670288085938e+01 2.836328506469726562e+01 -1.173001289367675781e+00 9.856619685888290405e-02 -3.223305344581604004e-01 -3.593691885471343994e-01
2.118000000000000000e+03 6.809231281280517578e+00 -4.328598022460937500e+00 -2.398676151642575860e-04 -2.467047670506872237e-05 -7.936142355902120471e-05 -5.819167199661023915e-05
2.119000000000000000e+03 7.342018127441406250e+00 -6.225356578826904297e+00 -2.833278849720954895e-04 -2.072317583952099085e-04 -1.471678988309577107e-04 -2.465800207573920488e-04
2.120000000000000000e+03 5.585672378540039062e+00 -5.932051658630371094e+00 1.578264927957206964e-04 2.864980197045952082e-04 1.332973479293286800e-04 1.978329528355970979e-04
2.121000000000000000e+03 4.104419326782226562e+01 2.893912506103515625e+01 -9.869763255119323730e-01 9.455867111682891846e-02 -2.677252888679504395e-01 -3.512221276760101318e-01
2.122000000000000000e+03 1.261113548278808594e+01 -5.305614471435546875e+00 2.064730360871180892e-04 2.501138078514486551e-05 6.944532651687040925e-05 -4.642331987270154059e-05
2.123000000000000000e+03 4.709569549560546875e+01 2.785841751098632812e+01 -1.303163290023803711e+00 9.700758755207061768e-02 -3.618466854095458984e-01 -3.279047012329101562e-01
2.124000000000000000e+03 5.632234573364257812e+01 2.598310470581054688e+01 -1.291768550872802734e-01 7.917140722274780273e-01 1.987611651420593262e-01 8.950908184051513672e-01
2.125000000000000000e+03 5.798227691650390625e+01 2.759214210510253906e+01 -3.463502824306488037e-01 6.098829507827758789e-01 7.905980199575424194e-02 1.057486176490783691e+00
2.126000000000000000e+03 4.846590042114257812e+01 3.844145965576171875e+01 2.988432943820953369e-01 -2.800738811492919922e-01 5.630820989608764648e-03 2.974438965320587158e-01
2.127000000000000000e+03 1.247957706451416016e+01 4.541919231414794922e+00 8.537804387742653489e-05 -1.815835844354296569e-06 2.506866258045192808e-05 7.579729413009772543e-07
2.128000000000000000e+03 1.045405673980712891e+01 8.001887321472167969e+00 -8.747130050323903561e-05 -1.650322337809484452e-05 -3.119235771009698510e-05 -2.971478534163907170e-05
2.129000000000000000e+03 5.257075881958007812e+01 4.128150177001953125e+01 8.473514914512634277e-01 9.206277132034301758e-02 2.818242907524108887e-01 1.117919981479644775e-01
2.130000000000000000e+03 4.524346923828125000e+01 3.795817947387695312e+01 1.288394778966903687e-01 -2.221639454364776611e-01 -2.799733914434909821e-02 2.303294092416763306e-01
2.131000000000000000e+03 5.328918075561523438e+01 3.756782150268554688e+01 4.692665934562683105e-01 2.706119418144226074e-01 2.219635546207427979e-01 1.908520907163619995e-01
2.132000000000000000e+03 1.147253894805908203e+01 4.808635711669921875e+00 -8.858775254338979721e-05 4.542930014395096805e-07 -2.644003870955202729e-05 -1.503720523032825440e-05
2.133000000000000000e+03 2.517512321472167969e+01 -1.392308950424194336e+00 1.973574794828891754e-02 -1.412883520126342773e+00 -4.179443120956420898e-01 -2.212155610322952271e-01
2.134000000000000000e+03 2.667888641357421875e+01 5.503796339035034180e-01 2.671255357563495636e-02 -1.152216672897338867e+00 -3.376512229442596436e-01 -2.631052136421203613e-01
2.135000000000000000e+03 2.614588737487792969e+01 -1.788354873657226562e+01 3.384462743997573853e-02 -1.357782125473022461e+00 -3.971812427043914795e-01 -1.081167235970497131e-01
2.136000000000000000e+03 2.603829956054687500e+01 -1.649295997619628906e+01 5.435508675873279572e-03 -1.380913496017456055e+00 -4.126434028148651123e-01 -1.027217283844947815e-01
2.137000000000000000e+03 2.623243904113769531e+01 -4.433372497558593750e+00 3.953226655721664429e-02 -1.297937870025634766e+00 -3.775216937065124512e-01 -2.128003090620040894e-01
2.138000000000000000e+03 2.448443031311035156e+01 -8.376122474670410156e+00 1.383161265403032303e-02 -1.632584571838378906e+00 -4.856258928775787354e-01 -1.789430975914001465e-01
2.139000000000000000e+03 1.019236087799072266e+01 -1.555867385864257812e+01 -5.204246263019740582e-04 -2.824629773385822773e-04 -2.408662840025499463e-04 -1.327031495748087764e-04
2.140000000000000000e+03 1.127880382537841797e+01 1.037258338928222656e+01 9.432422666577622294e-05 2.895242141676135361e-05 3.698299406096339226e-05 2.126593972207047045e-05
2.141000000000000000e+03 9.672618865966796875e+00 5.820525169372558594e+00 6.612699507968500257e-05 2.716649760259315372e-05 2.798804780468344688e-05 4.189368701190687716e-05
2.142000000000000000e+03 7.452450561523437500e+01 3.552893066406250000e+01 2.538293302059173584e-01 7.742849826812744141e+00 2.399003744125366211e+00 8.621377944946289062e-01
2.143000000000000000e+03 1.021376228332519531e+01 1.717621231079101562e+01 1.048103586072102189e-04 1.606487967364955693e-05 3.626257239375263453e-05 -1.130331293097697198e-05
2.144000000000000000e+03 1.141536140441894531e+01 -1.033632755279541016e+01 -2.841982932295650244e-04 -1.042784861056134105e-04 -1.165430294349789619e-04 -4.084706961293704808e-05
2.145000000000000000e+03 1.115659618377685547e+01 -1.258821105957031250e+01 -2.005636342801153660e-04 8.611220982857048512e-05 -3.433542588027194142e-05 -6.796504749218001962e-05
2.146000000000000000e+03 1.017519092559814453e+01 -3.449604797363281250e+01 2.557528391480445862e-02 -1.041974220424890518e-02 4.546662326902151108e-03 -5.796437151730060577e-03
2.147000000000000000e+03 8.699821472167968750e+00 -3.029244613647460938e+01 4.409438464790582657e-03 -6.455485126934945583e-04 1.129166921600699425e-03 -8.755822782404720783e-04
2.148000000000000000e+03 7.458895874023437500e+01 2.792168998718261719e+01 6.493681073188781738e-01 7.472492694854736328e+00 2.436558246612548828e+00 -8.805480003356933594e-01
2.149000000000000000e+03 1.536413764953613281e+01 4.017106628417968750e+01 -1.310579245910048485e-03 -5.099444533698260784e-04 -5.461571272462606430e-04 1.518462522653862834e-04
2.150000000000000000e+03 1.804644584655761719e+01 3.845730590820312500e+01 -1.403724774718284607e-03 1.404792856192216277e-04 -3.789736365433782339e-04 -4.359656304586678743e-04
2.151000000000000000e+03 2.582255172729492188e+01 -1.106762027740478516e+01 -1.225551706738770008e-03 -1.401487946510314941e+00 -4.208140671253204346e-01 -1.653775125741958618e-01
2.152000000000000000e+03 2.443537139892578125e+01 -9.733921051025390625e+00 -5.703753791749477386e-03 -1.642691612243652344e+00 -4.945185780525207520e-01 -1.725535839796066284e-01
2.153000000000000000e+03 7.517745971679687500e+01 -2.777862167358398438e+01 5.874974653124809265e-03 7.649816989898681641e+00 2.296707630157470703e+00 2.404343895614147186e-02
2.154000000000000000e+03 7.397711944580078125e+01 -2.921299362182617188e+01 8.830510079860687256e-03 7.433696269989013672e+00 2.232758045196533203e+00 3.205210343003273010e-02
2.155000000000000000e+03 7.435787963867187500e+01 2.687025642395019531e+01 5.207702517509460449e-01 7.704486846923828125e+00 2.467577219009399414e+00 -1.075888633728027344e+00
2.156000000000000000e+03 7.505428314208984375e+01 2.532783508300781250e+01 1.831037402153015137e-01 7.587893486022949219e+00 2.331299304962158203e+00 -1.144962668418884277e+00
2.157000000000000000e+03 7.615360260009765625e+01 2.782862472534179688e+01 3.256348967552185059e-01 6.781284332275390625e+00 2.132075786590576172e+00 -7.372598648071289062e-01
2.158000000000000000e+03 7.532337188720703125e+01 2.772881698608398438e+01 4.713662266731262207e-01 7.182297229766845703e+00 2.296098947525024414e+00 -8.211998939514160156e-01
2.159000000000000000e+03 2.600920104980468750e+01 -7.074237823486328125e+00 2.900529839098453522e-02 -1.358432769775390625e+00 -3.988282382488250732e-01 -1.969539076089859009e-01
2.160000000000000000e+03 5.590362930297851562e+01 3.761544036865234375e+01 6.297508478164672852e-01 7.557625174522399902e-01 4.156540036201477051e-01 -1.857954263687133789e-01
2.161000000000000000e+03 7.539930725097656250e+01 -2.061693000793457031e+01 8.459328673779964447e-03 7.737657546997070312e+00 2.323834896087646484e+00 3.712719678878784180e-02
2.162000000000000000e+03 7.405989074707031250e+01 -2.188287925720214844e+01 9.086621925234794617e-03 7.479765415191650391e+00 2.246655702590942383e+00 4.648489132523536682e-02
2.163000000000000000e+03 7.431196594238281250e+01 1.123537158966064453e+01 -2.011928260326385498e-01 8.023585319519042969e+00 2.346717596054077148e+00 -1.668744236230850220e-01
2.164000000000000000e+03 7.399562072753906250e+01 1.972533226013183594e+01 -3.909286558628082275e-01 8.192737579345703125e+00 2.340542554855346680e+00 -8.808485269546508789e-01
2.165000000000000000e+03 7.418064117431640625e+01 -9.440742492675781250e+00 8.454680442810058594e-03 7.633690357208251953e+00 2.292643547058105469e+00 8.793296664953231812e-02
2.166000000000000000e+03 7.426867675781250000e+01 4.151278972625732422e+00 -5.492834374308586121e-02 7.878502845764160156e+00 2.347072362899780273e+00 5.632597953081130981e-02
2.167000000000000000e+03 7.403018951416015625e+01 -2.701823711395263672e+00 -7.425459101796150208e-03 7.701660633087158203e+00 2.308270454406738281e+00 1.055173277854919434e-01
2.168000000000000000e+03 7.542314910888671875e+01 -1.366728305816650391e+01 8.729390799999237061e-03 7.818277835845947266e+00 2.348102092742919922e+00 5.634411051869392395e-02
2.169000000000000000e+03 7.412184143066406250e+01 -1.500676155090332031e+01 1.106672827154397964e-02 7.556077957153320312e+00 2.270143270492553711e+00 6.823574006557464600e-02
2.170000000000000000e+03 7.544049072265625000e+01 -6.808499336242675781e+00 4.603043198585510254e-03 7.923445701599121094e+00 2.378414630889892578e+00 7.480270415544509888e-02
2.171000000000000000e+03 7.404872894287109375e+01 -4.098995685577392578e+00 -5.171869415789842606e-04 7.682367324829101562e+00 2.304555177688598633e+00 1.020292565226554871e-01
2.172000000000000000e+03 7.428813171386718750e+01 5.610961914062500000e+00 -7.669421285390853882e-02 7.907978534698486328e+00 2.349385261535644531e+00 3.085699118673801422e-02
2.173000000000000000e+03 7.407359313964843750e+01 -5.472469329833984375e+00 4.304122179746627808e-03 7.671380519866943359e+00 2.302705526351928711e+00 1.001878976821899414e-01
2.174000000000000000e+03 7.418343353271484375e+01 -1.080283927917480469e+01 1.120863389223814011e-02 7.609152793884277344e+00 2.286108493804931641e+00 8.280310779809951782e-02
2.175000000000000000e+03 7.414313507080078125e+01 -1.219954967498779297e+01 8.984010666608810425e-03 7.585054397583007812e+00 2.278211593627929688e+00 7.490547746419906616e-02
2.176000000000000000e+03 7.553295898437500000e+01 1.396626353263854980e+00 -1.940581947565078735e-02 8.084425926208496094e+00 2.419506072998046875e+00 6.005332618951797485e-02
2.177000000000000000e+03 7.422943878173828125e+01 -1.778178787231445312e+01 9.336590766906738281e-03 7.538182735443115234e+00 2.264255762100219727e+00 5.500598251819610596e-02
2.178000000000000000e+03 7.416934204101562500e+01 -1.916476058959960938e+01 8.802742697298526764e-03 7.518548011779785156e+00 2.258205175399780273e+00 5.041388794779777527e-02
2.179000000000000000e+03 7.609424591064453125e+01 2.244044303894042969e+01 -8.692472428083419800e-02 7.572139739990234375e+00 2.245564460754394531e+00 -9.967712163925170898e-01
2.180000000000000000e+03 7.495146942138671875e+01 1.835672950744628906e+01 -3.040208518505096436e-01 8.080813407897949219e+00 2.333037614822387695e+00 -7.312358617782592773e-01
2.181000000000000000e+03 7.588747406005859375e+01 1.554520702362060547e+01 -1.926648616790771484e-01 8.143568992614746094e+00 2.385271310806274414e+00 -4.508228302001953125e-01
2.182000000000000000e+03 7.375006103515625000e+01 -2.476865577697753906e+01 1.280902978032827377e-02 7.391392707824707031e+00 2.221260547637939453e+00 2.529967203736305237e-02
2.183000000000000000e+03 7.514477539062500000e+01 -2.632708930969238281e+01 1.187138166278600693e-02 7.659027099609375000e+00 2.301269531250000000e+00 2.457419596612453461e-02
2.184000000000000000e+03 7.507111358642578125e+01 2.862718582153320312e+01 6.416004896163940430e-01 7.183414936065673828e+00 2.347504615783691406e+00 -6.848831176757812500e-01
2.185000000000000000e+03 7.571039581298828125e+01 8.429203033447265625e+00 -8.082564175128936768e-02 8.207945823669433594e+00 2.438135862350463867e+00 -6.228861957788467407e-02
2.186000000000000000e+03 7.505488586425781250e+01 2.104985809326171875e+01 -2.404839545488357544e-01 7.961094379425048828e+00 2.316183090209960938e+00 -9.852398037910461426e-01
2.187000000000000000e+03 7.410482025146484375e+01 -6.805085659027099609e+00 8.896767161786556244e-03 7.655825614929199219e+00 2.299416780471801758e+00 9.769427776336669922e-02
2.188000000000000000e+03 7.444800567626953125e+01 7.028614997863769531e+00 -9.660598635673522949e-02 7.967867851257324219e+00 2.361378431320190430e+00 -5.754062440246343613e-03
2.189000000000000000e+03 7.413333892822265625e+01 1.818595826625823975e-02 -2.205609343945980072e-02 7.780182361602783203e+00 2.327437877655029297e+00 9.273051470518112183e-02
2.190000000000000000e+03 7.434282684326171875e+01 2.727427482604980469e+00 -3.607711195945739746e-02 7.863954544067382812e+00 2.348363161087036133e+00 7.191062718629837036e-02
2.191000000000000000e+03 7.427123260498046875e+01 1.355447888374328613e+00 -2.804387174546718597e-02 7.823262214660644531e+00 2.338565587997436523e+00 8.075634390115737915e-02
2.192000000000000000e+03 7.409422302246093750e+01 -1.360809135437011719e+01 1.346711628139019012e-02 7.568171501159667969e+00 2.274491548538208008e+00 7.175668329000473022e-02
2.193000000000000000e+03 7.409085845947265625e+01 -2.053126525878906250e+01 1.397452317178249359e-02 7.502061367034912109e+00 2.254810810089111328e+00 4.671286046504974365e-02
2.194000000000000000e+03 7.446412658691406250e+01 9.782429695129394531e+00 -1.535187810659408569e-01 8.018341064453125000e+00 2.359446525573730469e+00 -9.819628298282623291e-02
2.195000000000000000e+03 7.451005554199218750e+01 8.398378372192382812e+00 -1.179314851760864258e-01 8.003771781921386719e+00 2.365751981735229492e+00 -4.862449690699577332e-02
2.196000000000000000e+03 7.443048095703125000e+01 2.949081230163574219e+01 9.037548899650573730e-01 7.424082756042480469e+00 2.498351335525512695e+00 -5.406901240348815918e-01
2.197000000000000000e+03 7.456960296630859375e+01 1.424250316619873047e+01 -2.705378234386444092e-01 8.100411415100097656e+00 2.348962068557739258e+00 -3.648565113544464111e-01
2.198000000000000000e+03 7.485311126708984375e+01 1.700821876525878906e+01 -3.040128052234649658e-01 8.110080718994140625e+00 2.341820478439331055e+00 -6.020087599754333496e-01
2.199000000000000000e+03 7.473092651367187500e+01 1.564673995971679688e+01 -2.868395447731018066e-01 8.114210128784179688e+00 2.348211050033569336e+00 -4.791420102119445801e-01
2.200000000000000000e+03 7.497197723388671875e+01 2.387305259704589844e+01 -3.218556055799126625e-03 7.783665657043457031e+00 2.334134101867675781e+00 -1.178218245506286621e+00
2.201000000000000000e+03 7.504002380371093750e+01 2.242216873168945312e+01 -1.642982661724090576e-01 7.888296127319335938e+00 2.317199468612670898e+00 -1.095578432083129883e+00
2.202000000000000000e+03 7.251253509521484375e+01 -3.445023345947265625e+01 9.016654454171657562e-03 7.141935825347900391e+00 2.145285844802856445e+00 1.027952507138252258e-02
2.203000000000000000e+03 7.518421936035156250e+01 -3.377354049682617188e+01 -9.379619732499122620e-03 7.624142646789550781e+00 2.284428834915161133e+00 3.244444495067000389e-03
2.204000000000000000e+03 6.924827575683593750e+00 -1.545794296264648438e+01 2.949811751022934914e-04 -9.050632797880098224e-06 8.577916742069646716e-05 5.480163963511586189e-04
2.205000000000000000e+03 7.474698638916015625e+01 3.136184501647949219e+01 7.739625573158264160e-01 7.212058067321777344e+00 2.395806312561035156e+00 3.031585924327373505e-02
2.206000000000000000e+03 7.532889556884765625e+01 3.014585876464843750e+01 6.974662542343139648e-01 6.938696861267089844e+00 2.290848970413208008e+00 -3.047571480274200439e-01
2.207000000000000000e+03 1.172566699981689453e+01 -2.145318984985351562e+01 1.885531528387218714e-04 1.006875187158584595e-03 3.586285165511071682e-04 4.928242415189743042e-04
2.208000000000000000e+03 4.865325450897216797e+00 3.017726325988769531e+01 -3.498251608107239008e-04 1.805635292839724571e-05 -9.953064000001177192e-05 -8.862501272233203053e-05
2.209000000000000000e+03 1.029867362976074219e+01 3.080691528320312500e+01 3.997066232841461897e-04 -1.979721710085868835e-04 6.052033859305083752e-05 1.803418272174894810e-04
2.210000000000000000e+03 2.582122611999511719e+01 8.493190765380859375e+00 5.086490418761968613e-03 -1.055100679397583008e+00 -3.150042295455932617e-01 -3.488030135631561279e-01
2.211000000000000000e+03 6.068931102752685547e+00 -2.678643417358398438e+01 1.449761446565389633e-03 1.582793425768613815e-03 9.097664733417332172e-04 4.163537814747542143e-04
2.212000000000000000e+03 4.467752456665039062e+00 2.750524330139160156e+01 -3.272456233389675617e-04 3.747060327441431582e-05 -8.693250128999352455e-05 -2.026662696152925491e-05
2.213000000000000000e+03 5.800957679748535156e+00 2.856630134582519531e+01 -4.058584745507687330e-04 9.439006680622696877e-05 -9.344051795778796077e-05 9.123388736043125391e-05
2.214000000000000000e+03 2.618618202209472656e+01 2.145716476440429688e+01 -4.446551203727722168e-02 -4.081148505210876465e-01 -1.357741057872772217e-01 -3.784030675888061523e-01
2.215000000000000000e+03 2.618173599243164062e+01 1.824138832092285156e+01 -1.166914589703083038e-02 -5.679606199264526367e-01 -1.738889217376708984e-01 -4.054988622665405273e-01
2.216000000000000000e+03 2.583937263488769531e+01 1.118453693389892578e+01 1.530244853347539902e-02 -9.395948648452758789e-01 -2.772877216339111328e-01 -3.708524107933044434e-01
2.217000000000000000e+03 1.444415569305419922e+01 -2.892399406433105469e+01 -5.678514135070145130e-04 -1.418866100721061230e-03 -5.960152484476566315e-04 -1.939389767358079553e-04
2.218000000000000000e+03 2.476137733459472656e+01 1.544425964355468750e+01 4.314791876822710037e-03 -8.087720274925231934e-01 -2.413371652364730835e-01 -3.299379050731658936e-01
2.219000000000000000e+03 3.155814933776855469e+01 1.765851593017578125e+01 -1.307692471891641617e-02 -2.757035493850708008e-01 -8.663413673639297485e-02 -5.936220288276672363e-01
2.220000000000000000e+03 5.709758758544921875e+00 2.180188179016113281e+01 2.382917446084320545e-04 1.838481512095313519e-05 7.700296555412933230e-05 5.193545439396984875e-05
2.221000000000000000e+03 1.102525901794433594e+01 2.343221855163574219e+01 -1.586142752785235643e-04 -8.813085150904953480e-05 -7.402354094665497541e-05 8.610504301032051444e-05
2.222000000000000000e+03 6.542117118835449219e+00 -1.072463893890380859e+01 -4.727972263935953379e-04 -2.495668886695057154e-04 -2.167092316085472703e-04 -2.657378790900111198e-04
2.223000000000000000e+03 5.317035198211669922e+00 -1.088537502288818359e+01 4.053160664625465870e-04 1.551181339891627431e-04 1.681302528595551848e-04 1.851430715760216117e-04
2.224000000000000000e+03 2.583357429504394531e+01 7.162363052368164062e+00 -3.705648705363273621e-03 -1.100878357887268066e+00 -3.313752114772796631e-01 -3.349848091602325439e-01
2.225000000000000000e+03 2.535866928100585938e+01 2.678146362304687500e+01 -7.518707960844039917e-02 -1.917477250099182129e-01 -8.008044213056564331e-02 -2.287892699241638184e-01
2.226000000000000000e+03 2.671628761291503906e+01 3.072947120666503906e+01 -1.280644536018371582e-01 -5.443862453103065491e-02 -5.475092306733131409e-02 -1.454562544822692871e-01
2.227000000000000000e+03 2.590436553955078125e+01 1.391724681854248047e+01 1.239388808608055115e-02 -8.027785420417785645e-01 -2.371153980493545532e-01 -3.881164193153381348e-01
2.228000000000000000e+03 2.542971038818359375e+01 2.790719795227050781e+01 -8.648524433374404907e-02 -1.494924724102020264e-01 -7.079331576824188232e-02 -2.020950019359588623e-01
2.229000000000000000e+03 2.657019805908203125e+01 2.876066398620605469e+01 -1.211517453193664551e-01 -1.087092831730842590e-01 -6.895830482244491577e-02 -2.082804888486862183e-01
2.230000000000000000e+03 2.476038551330566406e+01 2.921693992614746094e+01 -6.454581022262573242e-02 -1.127068698406219482e-01 -5.317580327391624451e-02 -1.385486871004104614e-01
2.231000000000000000e+03 5.577785491943359375e+00 -2.228111076354980469e+01 6.805919110774993896e-04 -5.328685510903596878e-04 4.431701017892919481e-05 -3.489128721412271261e-04
2.232000000000000000e+03 9.812261581420898438e+00 2.607181167602539062e+01 1.986833813134580851e-04 1.265344908460974693e-04 9.756536019267514348e-05 1.233572129422100261e-05
2.233000000000000000e+03 6.565724849700927734e+00 2.412125587463378906e+01 2.261110930703580379e-04 -9.093005792237818241e-05 4.055431054439395666e-05 -1.156136204372160137e-04
2.234000000000000000e+03 5.787473201751708984e+00 -1.664822006225585938e+01 4.779065784532576799e-04 2.535399980843067169e-04 2.194339758716523647e-04 4.052456934005022049e-04
2.235000000000000000e+03 5.770750999450683594e+00 -1.521761322021484375e+01 -6.193792796693742275e-04 4.111972521059215069e-05 -1.734778634272515774e-04 -3.892785462085157633e-04
2.236000000000000000e+03 4.388994693756103516e+00 -1.923979568481445312e+01 -1.062860828824341297e-03 2.898871898651123047e-04 -2.318920887773856521e-04 -5.818599602207541466e-04
2.237000000000000000e+03 7.983196258544921875e+00 1.577382469177246094e+01 3.418545475142309442e-06 1.883258119050879031e-05 6.675338227069005370e-06 6.365187437040731311e-05
2.238000000000000000e+03 4.505081653594970703e+00 2.022722053527832031e+01 2.772309817373752594e-04 -3.277283758507110178e-05 7.333743997151032090e-05 2.073233918054029346e-05
2.239000000000000000e+03 6.932500839233398438e+00 -1.658203697204589844e+01 -3.486222703941166401e-04 -7.833769195713102818e-04 -3.395997628103941679e-04 -7.873157737776637077e-04
2.240000000000000000e+03 4.224185466766357422e+00 -2.591676521301269531e+01 1.663171569816768169e-03 3.787573368754237890e-04 6.125787040218710899e-04 4.444814985617995262e-04
2.241000000000000000e+03 4.985734462738037109e+00 -2.760758018493652344e+01 1.491834525950253010e-03 -1.534351729787886143e-03 -1.275517024623695761e-05 3.771112824324518442e-04
2.242000000000000000e+03 4.214135646820068359e+00 1.495394992828369141e+01 1.585913123562932014e-04 2.951477472379337996e-05 5.643182521453127265e-05 2.983100603159982711e-05
2.243000000000000000e+03 5.628458023071289062e+00 2.749374580383300781e+01 2.949929330497980118e-04 -1.955554398591630161e-05 8.263121708296239376e-05 -3.854497845168225467e-05
2.244000000000000000e+03 4.501803398132324219e+00 2.617914009094238281e+01 2.705063379835337400e-04 8.630135198472999036e-06 8.374093886232003570e-05 3.860106153297238052e-05
2.245000000000000000e+03 8.218650817871093750e+00 -2.670858001708984375e+01 1.050639664754271507e-03 1.200986094772815704e-03 6.754877394996583462e-04 -8.511374471709132195e-04
2.246000000000000000e+03 2.693547439575195312e+01 2.325063133239746094e+01 -7.639068365097045898e-02 -3.081507980823516846e-01 -1.153624430298805237e-01 -3.763645291328430176e-01
2.247000000000000000e+03 2.797776412963867188e+01 2.359693145751953125e+01 -1.035082042217254639e-01 -2.614823579788208008e-01 -1.094971671700477600e-01 -4.165827035903930664e-01
2.248000000000000000e+03 4.256025314331054688e+00 -1.230356693267822266e+01 3.690583689603954554e-04 1.162253611255437136e-04 1.455851161153987050e-04 1.650646154303103685e-04
2.249000000000000000e+03 8.582448005676269531e+00 -1.102846050262451172e+01 2.348635025555267930e-04 -4.782950272783637047e-04 -7.302945596165955067e-05 -7.106199336703866720e-05
2.250000000000000000e+03 6.709601402282714844e+00 3.150881767272949219e+01 -3.871532098855823278e-04 1.685802857309681713e-07 -1.160953834187239408e-04 -7.638467650394886732e-05
2.251000000000000000e+03 6.087253570556640625e+00 2.088520050048828125e+01 -2.862023029592819512e-05 1.232846716447966173e-05 -4.887529030384030193e-06 -1.311702508246526122e-04
2.252000000000000000e+03 6.177319049835205078e+00 1.802136802673339844e+01 1.381476522510638461e-05 -3.878261486534029245e-05 -7.490355073969112709e-06 -3.853665839415043592e-05
2.253000000000000000e+03 5.577054500579833984e+00 2.001843643188476562e+01 -1.612398045836016536e-04 5.724364200432319194e-06 -4.665462984121404588e-05 6.996890988375525922e-06
2.254000000000000000e+03 6.172523021697998047e+00 -2.136913681030273438e+01 -7.988238212419673800e-05 1.061461050994694233e-03 2.944736042991280556e-04 4.695272655226290226e-04
2.255000000000000000e+03 6.682666301727294922e+00 3.503147888183593750e+01 -3.074775158893316984e-04 -6.856493564555421472e-05 -1.128127332776784897e-04 -2.338839258300140500e-04
2.256000000000000000e+03 5.917988777160644531e+00 1.708719444274902344e+01 -1.097276253858581185e-04 -7.430036930600181222e-05 -5.520839840755797923e-05 1.118711588787846267e-05
2.257000000000000000e+03 5.442776203155517578e+00 1.307000732421875000e+01 9.507137292530387640e-05 -1.578919909661635756e-05 2.378465069341473281e-05 -6.299900269368663430e-05
2.258000000000000000e+03 6.201412677764892578e+00 1.411699485778808594e+01 2.057840174529701471e-05 3.052175816264934838e-05 1.533004797238390893e-05 1.009192055789753795e-04
2.259000000000000000e+03 4.093935489654541016e+00 -2.822533988952636719e+01 2.496268833056092262e-03 8.921886910684406757e-04 1.016537309624254704e-03 1.476350007578730583e-03
2.260000000000000000e+03 6.839872360229492188e+00 -3.302495574951171875e+01 9.224350564181804657e-03 -4.708079155534505844e-03 1.354881445877254009e-03 5.795871838927268982e-03
2.261000000000000000e+03 9.386775970458984375e+00 -3.212161254882812500e+01 8.314192295074462891e-03 -3.747206879779696465e-03 1.370095531456172466e-03 -2.109994413331151009e-03
2.262000000000000000e+03 1.022308921813964844e+01 1.028338336944580078e+01 -1.001618875307030976e-04 -2.498924550309311599e-05 -3.754534191102720797e-05 -2.438441515550948679e-05
2.263000000000000000e+03 3.900076389312744141e+00 9.111916542053222656e+00 1.058918569469824433e-04 1.414980397385079414e-05 3.601249773055315018e-05 -2.247333759441971779e-05
2.264000000000000000e+03 5.547886848449707031e+00 -1.227501773834228516e+01 -4.815332649741321802e-04 -1.342903851764276624e-04 -1.847470994107425213e-04 -2.518065448384732008e-04
2.265000000000000000e+03 4.871041297912597656e+00 -8.359738349914550781e+00 3.826764004770666361e-04 6.740431126672774553e-05 1.350242091575637460e-04 2.301956847077235579e-04
2.266000000000000000e+03 7.315368652343750000e+01 3.455532455444335938e+01 5.946429371833801270e-01 8.365067481994628906e+00 2.687913179397583008e+00 9.145708680152893066e-01
2.267000000000000000e+03 4.985418796539306641e+00 9.005621910095214844e+00 -9.808877075556665659e-05 -2.098408913298044354e-05 -3.572185596567578614e-05 4.057912883581593633e-05
2.268000000000000000e+03 3.788580417633056641e+00 7.770315647125244141e+00 -9.822491847444325686e-05 -1.480969694966915995e-05 -3.391038626432418823e-05 2.371605478401761502e-05
2.269000000000000000e+03 7.474921226501464844e+00 -2.380015563964843750e+01 1.012193097267299891e-04 -4.640356637537479401e-04 -1.088449062081053853e-04 -1.184361681225709617e-04
2.270000000000000000e+03 1.216565799713134766e+01 -2.552975082397460938e+01 6.258896319195628166e-04 6.761500844731926918e-04 3.906119090970605612e-04 5.837154458276927471e-04
2.271000000000000000e+03 1.042056751251220703e+01 -2.512632369995117188e+01 6.613780860789120197e-04 1.316980808041989803e-03 5.935076624155044556e-04 3.077517612837255001e-04
2.272000000000000000e+03 9.187071800231933594e+00 -2.581551551818847656e+01 -1.082590097212232649e-04 -1.711437071207910776e-04 -8.382081432500854135e-05 -2.928982721641659737e-04
2.273000000000000000e+03 1.059340476989746094e+01 1.354540443420410156e+01 -4.987891588825732470e-05 -1.822144440666306764e-06 -1.551031891722232103e-05 -8.315089507959783077e-05
2.274000000000000000e+03 5.046767234802246094e+00 -6.293715953826904297e+00 -1.300984422414330766e-05 -4.373481788206845522e-04 -1.351074024569243193e-04 -2.544017625041306019e-04
2.275000000000000000e+03 3.704819917678833008e+00 -7.261509895324707031e+00 2.345906832488253713e-04 2.664327075763139874e-05 7.837018347345292568e-05 3.942338298656977713e-05
2.276000000000000000e+03 3.946313381195068359e+00 -5.441563129425048828e+00 7.593211194034665823e-05 -1.944160903804004192e-04 -3.554519207682460546e-05 -1.756988203851506114e-04
2.277000000000000000e+03 2.610073852539062500e+01 -5.767752170562744141e+00 3.411434963345527649e-02 -1.330765366554260254e+00 -3.889952898025512695e-01 -2.008200138807296753e-01
2.278000000000000000e+03 2.644762229919433594e+01 -3.060998916625976562e+00 3.701093792915344238e-02 -1.245491027832031250e+00 -3.625440299510955811e-01 -2.238782644271850586e-01
2.279000000000000000e+03 2.583418083190917969e+01 -1.242638015747070312e+01 -4.124871920794248581e-03 -1.401208043098449707e+00 -4.215998649597167969e-01 -1.445204317569732666e-01
2.280000000000000000e+03 2.586058807373046875e+01 -9.717936515808105469e+00 1.080307085067033768e-02 -1.393741130828857422e+00 -4.148814082145690918e-01 -1.746326982975006104e-01
2.281000000000000000e+03 7.007616996765136719e+00 -2.886322021484375000e+01 3.508860012516379356e-03 2.428410080028697848e-04 1.125510316342115402e-03 4.044705419801175594e-04
2.282000000000000000e+03 2.471353340148925781e+01 4.394984245300292969e+00 -2.700359560549259186e-02 -1.350968122482299805e+00 -4.133915007114410400e-01 -2.566858530044555664e-01
2.283000000000000000e+03 2.593029022216796875e+01 -8.385396003723144531e+00 1.695777848362922668e-02 -1.376195549964904785e+00 -4.077713489532470703e-01 -1.868957579135894775e-01
2.284000000000000000e+03 1.197285938262939453e+01 2.189815330505371094e+01 -2.676820440683513880e-04 6.206485068105394021e-06 -7.844267383916303515e-05 3.213789022993296385e-05
2.285000000000000000e+03 1.062965679168701172e+01 2.035191345214843750e+01 -1.381617767037823796e-04 -6.843306618975475430e-05 -6.197845505084842443e-05 -7.674246444366872311e-05
2.286000000000000000e+03 2.481040000915527344e+01 -2.100533103942871094e+01 4.150935634970664978e-02 -1.598237395286560059e+00 -4.670183956623077393e-01 -1.140834316611289978e-01
2.287000000000000000e+03 2.296156120300292969e+01 -2.390126037597656250e+01 2.554443478584289551e-02 -1.929626584053039551e+00 -5.712246298789978027e-01 -8.665540069341659546e-02
2.288000000000000000e+03 1.112177085876464844e+01 1.155310153961181641e+01 -7.982290844665840268e-05 -5.504360888153314590e-05 -4.045995592605322599e-05 -3.027939783351030201e-05
2.289000000000000000e+03 9.747698783874511719e+00 2.901720428466796875e+01 1.240438996319426224e-05 -7.434090366587042809e-05 -1.858095492934808135e-05 1.840448821894824505e-04
2.290000000000000000e+03 1.070353126525878906e+01 1.821125793457031250e+01 -1.569518790347501636e-04 2.617991958686616272e-05 -3.923158510588109493e-05 1.231892656505806372e-05
2.291000000000000000e+03 1.090445137023925781e+01 1.919907951354980469e+01 1.690734789008274674e-04 4.160073876846581697e-05 6.320226384559646249e-05 3.871215812978334725e-05
2.292000000000000000e+03 9.866692543029785156e+00 -3.073916244506835938e+01 7.820778526365756989e-03 -2.115972107276320457e-03 1.711441902443766594e-03 -3.085071453824639320e-03
2.293000000000000000e+03 5.767000579833984375e+01 3.560404205322265625e+01 4.807417988777160645e-01 9.832580685615539551e-01 4.391999542713165283e-01 -4.224575459957122803e-01
2.294000000000000000e+03 5.748566055297851562e+01 3.737134552001953125e+01 6.786055564880371094e-01 1.540518522262573242e+00 6.657372117042541504e-01 -5.911759734153747559e-01
2.295000000000000000e+03 2.678297042846679688e+01 -1.657435774803161621e+00 3.593408316373825073e-02 -1.171243190765380859e+00 -3.405927419662475586e-01 -2.394907474517822266e-01
2.296000000000000000e+03 2.586404991149902344e+01 5.837297916412353516e+00 -9.267022833228111267e-03 -1.139200687408447266e+00 -3.445403277873992920e-01 -3.156054615974426270e-01
2.297000000000000000e+03 2.630081748962402344e+01 1.869414210319519043e+00 1.106438320130109787e-02 -1.189193844795227051e+00 -3.534388244152069092e-01 -2.711468338966369629e-01
2.298000000000000000e+03 2.588646697998046875e+01 -1.378420162200927734e+01 6.188779370859265327e-04 -1.403756499290466309e+00 -4.209412932395935059e-01 -1.323083192110061646e-01
2.299000000000000000e+03 2.487800025939941406e+01 -2.947524642944335938e+01 -3.414428606629371643e-02 -1.592789530754089355e+00 -4.880801439285278320e-01 -1.013951823115348816e-01
2.300000000000000000e+03 1.132773971557617188e+01 2.893083953857421875e+01 2.937375975307077169e-04 -3.447810740908607841e-05 7.777784776408225298e-05 1.590372703503817320e-04
2.301000000000000000e+03 8.278838157653808594e+00 2.485906982421875000e+01 2.135555114364251494e-04 7.748370262561365962e-05 8.731176058063283563e-05 -4.266387622919864953e-05
2.302000000000000000e+03 6.721945762634277344e+00 3.328977203369140625e+01 3.776657395064830780e-04 4.566326424537692219e-06 1.146696231444366276e-04 1.728444622131064534e-04
2.303000000000000000e+03 6.236502838134765625e+01 2.878734207153320312e+01 1.904627203941345215e+00 5.408529281616210938e+00 2.193947076797485352e+00 5.182757854461669922e+00
2.304000000000000000e+03 6.398527526855468750e+01 2.858008193969726562e+01 -7.940520346164703369e-02 1.509477138519287109e+01 4.504609584808349609e+00 4.154264926910400391e+00
2.305000000000000000e+03 6.650796508789062500e+01 3.041652870178222656e+01 6.626919746398925781e+00 1.351237487792968750e+01 6.041788578033447266e+00 -8.916333913803100586e-01
2.306000000000000000e+03 6.370132827758789062e+01 2.762532997131347656e+01 -3.623717427253723145e-01 1.175906181335449219e+01 3.419007062911987305e+00 4.119852066040039062e+00
2.307000000000000000e+03 6.505344390869140625e+01 3.323884582519531250e+01 2.288708686828613281e-01 1.697758674621582031e+01 5.161937236785888672e+00 -7.852516323328018188e-02
2.308000000000000000e+03 6.424620056152343750e+01 3.343915939331054688e+01 -4.442972540855407715e-01 1.548754405975341797e+01 4.512973785400390625e+00 -2.885909795761108398e+00
2.309000000000000000e+03 7.377320861816406250e+01 3.067612075805664062e+01 1.125250101089477539e+00 7.681195735931396484e+00 2.641933679580688477e+00 -2.057194709777832031e-01
2.310000000000000000e+03 6.310689544677734375e+01 3.345460891723632812e+01 7.210956811904907227e-01 9.960225105285644531e+00 3.204396247863769531e+00 -4.986274242401123047e+00
2.311000000000000000e+03 6.364184951782226562e+01 3.367431640625000000e+01 -1.571843624114990234e-01 1.250744056701660156e+01 3.705076932907104492e+00 -4.163668155670166016e+00
2.312000000000000000e+03 6.080799102783203125e+01 2.843237113952636719e+01 7.955651283264160156e-01 1.785868048667907715e+00 7.744299769401550293e-01 2.662454843521118164e+00
2.313000000000000000e+03 6.076743698120117188e+01 3.393631744384765625e+01 9.762681126594543457e-01 2.530765295028686523e+00 1.052110075950622559e+00 -2.281658887863159180e+00
2.314000000000000000e+03 6.119086837768554688e+01 3.366380310058593750e+01 1.233853340148925781e+00 2.757625579833984375e+00 1.197443723678588867e+00 -2.625674009323120117e+00
2.315000000000000000e+03 6.109974670410156250e+01 3.443584823608398438e+01 9.467822909355163574e-01 3.539779186248779297e+00 1.345968484878540039e+00 -2.702748060226440430e+00
2.316000000000000000e+03 5.950444793701171875e+01 3.521800994873046875e+01 7.218997478485107422e-01 2.062285423278808594e+00 8.352555036544799805e-01 -1.289967179298400879e+00
2.317000000000000000e+03 4.786475372314453125e+01 2.774782180786132812e+01 -1.321376204490661621e+00 9.673611819744110107e-02 -3.673920035362243652e-01 -3.096559047698974609e-01
2.318000000000000000e+03 4.556441497802734375e+01 2.809960746765136719e+01 -1.248948812484741211e+00 9.816680848598480225e-02 -3.452346026897430420e-01 -3.503794670104980469e-01
2.319000000000000000e+03 5.659980773925781250e+01 2.717997169494628906e+01 -5.818779468536376953e-01 4.509083032608032227e-01 -3.929088264703750610e-02 6.817958950996398926e-01
2.320000000000000000e+03 5.703298950195312500e+01 2.658001708984375000e+01 -1.749638915061950684e-01 7.655676007270812988e-01 1.771811097860336304e-01 1.004059672355651855e+00
2.321000000000000000e+03 6.080665588378906250e+00 6.771399497985839844e+00 -3.891016240231692791e-05 -4.328121212893165648e-05 -2.465741272317245603e-05 1.184447228297358379e-06
2.322000000000000000e+03 5.775319671630859375e+01 2.706357955932617188e+01 -1.712702065706253052e-01 7.830420136451721191e-01 1.835315376520156860e-01 1.164621710777282715e+00
2.323000000000000000e+03 5.852750778198242188e+01 2.742409324645996094e+01 -4.806526750326156616e-02 9.395734667778015137e-01 2.674524486064910889e-01 1.415428638458251953e+00
2.324000000000000000e+03 8.188549995422363281e+00 5.639081478118896484e+00 5.199753650231286883e-05 2.855353341146837920e-05 2.416532151983119547e-05 3.631931394920684397e-05
2.325000000000000000e+03 9.710549354553222656e+00 4.962994575500488281e+00 -7.063129305606707931e-05 -1.806868749554269016e-05 -2.660999416548293084e-05 -3.722527981153689325e-05
2.326000000000000000e+03 7.061217308044433594e+00 6.358149528503417969e+00 -3.984271825174801052e-05 -2.686544576135929674e-05 -2.001245047722477466e-05 1.094951767299789935e-05
2.327000000000000000e+03 2.636067199707031250e+01 3.122947502136230469e+01 -1.117496415972709656e-01 -4.926385357975959778e-02 -4.830404743552207947e-02 -1.211151480674743652e-01
2.328000000000000000e+03 5.683356761932373047e+00 5.851671218872070312e+00 -7.054943853290751576e-05 -2.869472882593981922e-05 -2.977324948005843908e-05 5.138320193509571254e-05
2.329000000000000000e+03 3.847858667373657227e+00 5.421971321105957031e+00 -7.002845086390152574e-05 -1.912485095090232790e-05 -2.674598908924963325e-05 7.185342110460624099e-05
2.330000000000000000e+03 5.816823577880859375e+01 3.520061874389648438e+01 4.865853190422058105e-01 9.197867512702941895e-01 4.219115972518920898e-01 -6.221211552619934082e-01
2.331000000000000000e+03 6.606198787689208984e+00 5.143115043640136719e+00 -4.545612318906933069e-05 -4.389440437080338597e-05 -2.680515899555757642e-05 6.338752882584230974e-06
2.332000000000000000e+03 6.407361507415771484e+00 6.004614353179931641e+00 5.516272722161374986e-05 3.964870484196580946e-05 2.844342998287174851e-05 -1.966950731002725661e-05
2.333000000000000000e+03 5.167655563354492188e+01 2.734893417358398438e+01 -1.278347253799438477e+00 1.221941038966178894e-01 -3.468459248542785645e-01 -1.207168400287628174e-01
2.334000000000000000e+03 5.459187698364257812e+01 2.723351860046386719e+01 -1.009118080139160156e+00 2.301734238862991333e-01 -2.336834222078323364e-01 2.220326811075210571e-01
2.335000000000000000e+03 8.546477317810058594e+00 -4.971028327941894531e+00 1.966817508218809962e-04 1.933309395099058747e-04 1.170038085547275841e-04 1.070749567588791251e-04
2.336000000000000000e+03 7.385281085968017578e+00 5.083206176757812500e+00 2.326715366507414728e-05 4.505953256739303470e-05 2.049800605163909495e-05 2.600952711873105727e-06
2.337000000000000000e+03 2.819096755981445312e+01 3.122482490539550781e+01 -1.794124841690063477e-01 -2.737274207174777985e-02 -6.203556805849075317e-02 -1.559325456619262695e-01
2.338000000000000000e+03 1.055624580383300781e+01 5.847757339477539062e+00 -8.314027218148112297e-05 -1.308471291849855334e-05 -2.886749643948860466e-05 -2.949723602796439081e-05
2.339000000000000000e+03 2.985573768615722656e+01 3.025230216979980469e+01 -2.576680481433868408e-01 -1.996023952960968018e-02 -8.328848332166671753e-02 -2.279839366674423218e-01
2.340000000000000000e+03 2.915490722656250000e+01 3.043410491943359375e+01 -2.232386469841003418e-01 -2.933287248015403748e-02 -7.577145844697952271e-02 -2.071592360734939575e-01
2.341000000000000000e+03 3.057646751403808594e+01 3.011191368103027344e+01 -2.926902174949645996e-01 -1.065475959330797195e-02 -9.100349247455596924e-02 -2.464833259582519531e-01
2.342000000000000000e+03 3.076235198974609375e+01 3.081838989257812500e+01 -3.013865053653717041e-01 2.706171944737434387e-03 -8.960410207509994507e-02 -2.127745300531387329e-01
2.343000000000000000e+03 3.204781341552734375e+01 2.987259864807128906e+01 -3.699583709239959717e-01 1.022714283317327499e-02 -1.079193651676177979e-01 -2.804657518863677979e-01
2.344000000000000000e+03 2.850477027893066406e+01 3.070398712158203125e+01 -1.947023868560791016e-01 -3.196303546428680420e-02 -6.799962371587753296e-02 -1.813277304172515869e-01
2.345000000000000000e+03 2.735546112060546875e+01 3.040990257263183594e+01 -1.522046625614166260e-01 -5.243180692195892334e-02 -6.139094009995460510e-02 -1.691732257604598999e-01
2.346000000000000000e+03 3.279003524780273438e+01 2.975269317626953125e+01 -4.111611843109130859e-01 2.052978612482547760e-02 -1.171894222497940063e-01 -2.960468530654907227e-01
2.347000000000000000e+03 3.663082122802734375e+01 2.980637931823730469e+01 -6.712320446968078613e-01 6.748181581497192383e-02 -1.811250746250152588e-01 -3.086256682872772217e-01
2.348000000000000000e+03 3.940941619873046875e+01 2.854430007934570312e+01 -8.171486854553222656e-01 9.259173274040222168e-02 -2.173670977354049683e-01 -3.973129391670227051e-01
2.349000000000000000e+03 3.588979339599609375e+01 2.994121742248535156e+01 -6.189843416213989258e-01 6.025115028023719788e-02 -1.676199585199356079e-01 -2.996203601360321045e-01
2.350000000000000000e+03 3.848738098144531250e+01 2.800570106506347656e+01 -7.092101573944091797e-01 8.550611138343811035e-02 -1.871112138032913208e-01 -4.378021061420440674e-01
2.351000000000000000e+03 3.352671813964843750e+01 2.962974929809570312e+01 -4.539645016193389893e-01 3.066349029541015625e-02 -1.269903033971786499e-01 -3.107225298881530762e-01
2.352000000000000000e+03 4.013691329956054688e+01 2.838545036315917969e+01 -8.582479953765869141e-01 9.724423289299011230e-02 -2.283011227846145630e-01 -4.049517512321472168e-01
2.353000000000000000e+03 5.067323684692382812e+00 -5.268117427825927734e+00 -1.216337186633609235e-04 -2.495417429599910975e-04 -1.113526450353674591e-04 -2.621011517476290464e-04
2.354000000000000000e+03 6.601305484771728516e+00 -6.451757431030273438e+00 3.868735802825540304e-04 9.557201701682060957e-05 1.447336835553869605e-04 2.383907412877306342e-04
2.355000000000000000e+03 3.515431213378906250e+01 3.007510757446289062e+01 -5.687929987907409668e-01 5.343619361519813538e-02 -1.546070426702499390e-01 -2.893958985805511475e-01
2.356000000000000000e+03 3.703141784667968750e+01 2.830206680297851562e+01 -6.322653293609619141e-01 7.030962407588958740e-02 -1.685867160558700562e-01 -4.164304733276367188e-01
2.357000000000000000e+03 4.386643981933593750e+01 2.766590881347656250e+01 -1.042613744735717773e+00 1.103975698351860046e-01 -2.796648442745208740e-01 -4.156889915466308594e-01
2.358000000000000000e+03 3.425709533691406250e+01 2.950490570068359375e+01 -4.968275427818298340e-01 4.003992676734924316e-02 -1.370362937450408936e-01 -3.237595856189727783e-01
2.359000000000000000e+03 3.498859405517578125e+01 2.937840080261230469e+01 -5.408694744110107422e-01 4.883847385644912720e-02 -1.476093083620071411e-01 -3.368717133998870850e-01
2.360000000000000000e+03 4.252087402343750000e+01 2.864624595642089844e+01 -1.084251046180725098e+00 9.743988513946533203e-02 -2.960433363914489746e-01 -3.584702908992767334e-01
2.361000000000000000e+03 4.448077774047851562e+01 2.683571815490722656e+01 -9.334645867347717285e-01 1.261730194091796875e-01 -2.421874701976776123e-01 -4.527683258056640625e-01
2.362000000000000000e+03 5.092812347412109375e+01 2.740084457397460938e+01 -1.304710030555725098e+00 1.093192175030708313e-01 -3.586172163486480713e-01 -1.743880510330200195e-01
2.363000000000000000e+03 9.588891983032226562e+00 8.154941558837890625e+00 7.231003837659955025e-05 2.137638875865377486e-05 2.810592923196963966e-05 3.105806172243319452e-05
2.364000000000000000e+03 4.086551284790039062e+01 2.822918128967285156e+01 -8.994229435920715332e-01 1.009803265333175659e-01 -2.395327836275100708e-01 -4.116523563861846924e-01
2.365000000000000000e+03 4.722861480712890625e+01 2.853845787048339844e+01 -1.495207428932189941e+00 7.627081125974655151e-02 -4.256809651851654053e-01 -2.715885639190673828e-01
2.366000000000000000e+03 8.123661041259765625e+00 -5.999242782592773438e+00 1.156885336968116462e-04 2.964409068226814270e-04 1.236388343386352062e-04 8.102521678665652871e-05
2.367000000000000000e+03 4.370335006713867188e+01 2.695082283020019531e+01 -9.135996103286743164e-01 1.227518990635871887e-01 -2.372543066740036011e-01 -4.617029130458831787e-01
2.368000000000000000e+03 9.158095359802246094e+00 -4.788709640502929688e+00 -8.701946353539824486e-05 -2.922827552538365126e-04 -1.137906656367704272e-04 -1.223740691784769297e-04
2.369000000000000000e+03 4.633229064941406250e+01 2.797605895996093750e+01 -1.280066609382629395e+00 9.725560992956161499e-02 -3.548433184623718262e-01 -3.411021530628204346e-01
2.370000000000000000e+03 4.863858413696289062e+01 2.764429092407226562e+01 -1.330392122268676758e+00 9.781882166862487793e-02 -3.697719871997833252e-01 -2.850556373596191406e-01
2.371000000000000000e+03 5.399224090576171875e+01 2.788245391845703125e+01 -1.446314454078674316e+00 1.167649403214454651e-01 -3.988648653030395508e-01 6.665316969156265259e-02
2.372000000000000000e+03 5.178276062011718750e+01 2.801161193847656250e+01 -1.575806617736816406e+00 7.579158246517181396e-02 -4.500044882297515869e-01 -1.176961436867713928e-01
2.373000000000000000e+03 4.234330749511718750e+01 2.793427848815917969e+01 -9.744158983230590820e-01 1.061881855130195618e-01 -2.604683041572570801e-01 -4.187107980251312256e-01
2.374000000000000000e+03 6.276032638549804688e+01 3.376079177856445312e+01 8.469988703727722168e-01 8.107241630554199219e+00 2.686272144317626953e+00 -4.542203903198242188e+00
2.375000000000000000e+03 5.017308425903320312e+01 2.746767044067382812e+01 -1.322710156440734863e+00 1.044325083494186401e-01 -3.654833137989044189e-01 -2.176413387060165405e-01
2.376000000000000000e+03 2.575985336303710938e+01 3.093839073181152344e+01 -9.420267492532730103e-02 -5.757020413875579834e-02 -4.553186520934104919e-02 -1.146526560187339783e-01
2.377000000000000000e+03 5.326399230957031250e+01 2.791781234741210938e+01 -1.508654594421386719e+00 9.551019966602325439e-02 -4.239433407783508301e-01 -8.226089179515838623e-03
2.378000000000000000e+03 5.529225921630859375e+01 2.721555137634277344e+01 -8.918361663818359375e-01 2.818642258644104004e-01 -1.829915791749954224e-01 3.502868115901947021e-01
2.379000000000000000e+03 5.645084381103515625e+01 2.659366226196289062e+01 -3.199952244758605957e-01 6.102929115295410156e-01 8.708930760622024536e-02 7.992075681686401367e-01
2.380000000000000000e+03 1.151698780059814453e+01 6.817936420440673828e+00 -8.331656863447278738e-05 -1.404398426529951394e-05 -2.920816586993169039e-05 -2.041984407696872950e-05
2.381000000000000000e+03 5.387559509277343750e+01 2.725467491149902344e+01 -1.108749151229858398e+00 1.861083358526229858e-01 -2.767922580242156982e-01 1.083149760961532593e-01
2.382000000000000000e+03 1.255444717407226562e+01 5.562312126159667969e+00 -8.459205128019675612e-05 -3.383329840289661661e-06 -2.639261401782277972e-05 -7.569386980321723968e-06
2.383000000000000000e+03 8.083100318908691406e+00 1.220385169982910156e+01 3.735473728738725185e-05 1.001098553388146684e-05 1.420971693733008578e-05 5.677367516909725964e-05
2.384000000000000000e+03 1.104015445709228516e+01 2.463322448730468750e+01 1.578947412781417370e-04 1.317267160629853606e-04 8.688643720233812928e-05 3.623972361310734414e-06
2.385000000000000000e+03 9.211584091186523438e+00 1.885908317565917969e+01 7.061046926537528634e-05 1.326351775787770748e-04 6.097369259805418551e-05 -7.102366453182185069e-06
2.386000000000000000e+03 4.717855453491210938e+00 6.568623065948486328e+00 -9.506582864560186863e-05 -1.560827513458207250e-05 -3.320223186165094376e-05 5.683601921191439033e-05
2.387000000000000000e+03 2.637034034729003906e+01 -1.932023239135742188e+01 4.012459889054298401e-02 -1.321383357048034668e+00 -3.843776285648345947e-01 -1.037540137767791748e-01
2.388000000000000000e+03 4.653215408325195312e+00 -7.286429882049560547e+00 -3.085128264501690865e-04 -1.685520401224493980e-04 -1.431194687029346824e-04 -1.942787494044750929e-04
2.389000000000000000e+03 8.357424736022949219e+00 7.224625110626220703e+00 -3.362795905559323728e-05 -3.246670166845433414e-05 -1.982839785341639072e-05 -6.413385563064366579e-06
2.390000000000000000e+03 2.757862854003906250e+01 2.269714593887329102e+00 2.434574253857135773e-02 -9.778223633766174316e-01 -2.860429883003234863e-01 -3.056734502315521240e-01
2.391000000000000000e+03 2.832545471191406250e+01 4.871429920196533203e+00 3.456741943955421448e-02 -8.366265892982482910e-01 -2.406177520751953125e-01 -3.639315366744995117e-01
2.392000000000000000e+03 9.513632774353027344e+00 -9.016700744628906250e+00 2.624726330395787954e-04 -6.857819971628487110e-05 5.816832708660513163e-05 7.978918438311666250e-05
2.393000000000000000e+03 9.104071617126464844e+00 1.770878791809082031e+01 -1.086322954506613314e-04 -5.199039878789335489e-05 -4.818680827156640589e-05 9.826646873989375308e-07
2.394000000000000000e+03 8.878612518310546875e+00 1.503781604766845703e+01 -4.742574219562811777e-06 -9.170862824703363003e-08 -1.450284912607457954e-06 -8.493216591887176037e-05
2.395000000000000000e+03 7.425348758697509766e+00 2.099311065673828125e+01 -4.218385220156051219e-05 3.640757859102450311e-05 -1.732882651594991330e-06 -1.094440231099724770e-04
2.396000000000000000e+03 9.916877746582031250e+00 2.333131027221679688e+01 1.028539409162476659e-04 1.019998671836219728e-04 6.145614315755665302e-05 5.880983735551126301e-05
2.397000000000000000e+03 6.281170845031738281e+00 1.222527503967285156e+01 1.687142321316059679e-05 4.336841084295883775e-05 1.807195076253265142e-05 2.380792284384369850e-05
2.398000000000000000e+03 2.754578018188476562e+01 -7.123297214508056641e+00 3.671727702021598816e-02 -1.102663993835449219e+00 -3.197840154170989990e-01 -2.010564059019088745e-01
2.399000000000000000e+03 2.791324424743652344e+01 -3.275810003280639648e+00 4.567888006567955017e-02 -1.002105712890625000e+00 -2.869280576705932617e-01 -2.365672588348388672e-01
2.400000000000000000e+03 1.069691467285156250e+01 -1.366161823272705078e+01 1.579747731739189476e-05 -4.889952251687645912e-04 -1.419593172613531351e-04 9.553236304782330990e-05
2.401000000000000000e+03 1.135029792785644531e+01 -1.147677421569824219e+01 2.257108862977474928e-04 1.114762417273595929e-04 1.011561398627236485e-04 6.299166852841153741e-05
2.402000000000000000e+03 7.380463409423828125e+01 2.844499969482421875e+01 9.272014498710632324e-01 7.809932708740234375e+00 2.621140241622924805e+00 -8.307556509971618652e-01
2.403000000000000000e+03 7.043049621582031250e+01 -2.505425453186035156e+01 3.603094071149826050e-02 6.772270202636718750e+00 2.042490243911743164e+00 6.201104447245597839e-02
2.404000000000000000e+03 6.961818695068359375e+01 -3.104185295104980469e+01 1.037373486906290054e-02 6.591498374938964844e+00 1.980561614036560059e+00 3.083983063697814941e-02
2.405000000000000000e+03 7.415526580810546875e+01 3.284809494018554688e+01 8.473895192146301270e-01 7.564851760864257812e+00 2.523672342300415039e+00 4.346280992031097412e-01
2.406000000000000000e+03 7.524963378906250000e+01 2.662807083129882812e+01 3.378578722476959229e-01 7.317164421081542969e+00 2.296506643295288086e+00 -1.009200453758239746e+00
2.407000000000000000e+03 7.326174926757812500e+01 2.602055931091308594e+01 4.094533026218414307e-01 8.336443901062011719e+00 2.623769283294677734e+00 -1.282121896743774414e+00
2.408000000000000000e+03 7.350890350341796875e+01 2.720004272460937500e+01 7.392421364784240723e-01 8.105681419372558594e+00 2.653476953506469727e+00 -1.153560280799865723e+00
2.409000000000000000e+03 1.010848808288574219e+01 2.731401824951171875e+01 -2.094857627525925636e-04 -9.882201993605121970e-05 -9.249233698938041925e-05 -1.947699638549238443e-05
2.410000000000000000e+03 7.275559234619140625e+01 -2.304213714599609375e+01 2.118050865828990936e-02 7.237675666809082031e+00 2.177656888961791992e+00 4.336733743548393250e-02
2.411000000000000000e+03 7.298368072509765625e+01 1.088794422149658203e+01 -2.566736638545989990e-01 7.844283580780029297e+00 2.276283025741577148e+00 -1.126792281866073608e-01
2.412000000000000000e+03 7.305281829833984375e+01 1.306539058685302734e+01 -3.317871987819671631e-01 7.942739963531494141e+00 2.283285856246948242e+00 -2.312385439872741699e-01
2.413000000000000000e+03 7.370706939697265625e+01 -2.636029434204101562e+01 5.374075844883918762e-03 7.390213489532470703e+00 2.218676328659057617e+00 2.382938191294670105e-02
2.414000000000000000e+03 7.303087615966796875e+01 -1.642409515380859375e+01 1.165378652513027191e-02 7.324372768402099609e+00 2.200808048248291016e+00 7.178056985139846802e-02
2.415000000000000000e+03 7.308069610595703125e+01 -1.772935104370117188e+01 1.596833206713199615e-02 7.325279235839843750e+00 2.202374219894409180e+00 6.616214662790298462e-02
2.416000000000000000e+03 7.388435363769531250e+01 1.842124557495117188e+01 -4.167625308036804199e-01 8.182458877563476562e+00 2.329708814620971680e+00 -7.358314394950866699e-01
2.417000000000000000e+03 7.291648101806640625e+01 -9.406947135925292969e+00 1.432253420352935791e-02 7.376798152923583984e+00 2.217336177825927734e+00 1.049577668309211731e-01
2.418000000000000000e+03 7.295565032958984375e+01 -1.072618579864501953e+01 1.689935289323329926e-02 7.375148773193359375e+00 2.217614412307739258e+00 9.652658551931381226e-02
2.419000000000000000e+03 7.252946472167968750e+01 -1.304408311843872070e+00 -1.438643410801887512e-02 7.414892673492431641e+00 2.220151901245117188e+00 1.293129324913024902e-01
2.420000000000000000e+03 7.262608337402343750e+01 -2.747960329055786133e+00 -3.658056724816560745e-03 7.408769130706787109e+00 2.221533298492431641e+00 1.261681914329528809e-01
2.421000000000000000e+03 7.307254791259765625e+01 3.836982011795043945e+00 -7.136071473360061646e-02 7.647101879119873047e+00 2.272722482681274414e+00 8.290758728981018066e-02
2.422000000000000000e+03 7.300334167480468750e+01 5.822154045104980469e+00 -1.054345443844795227e-01 7.678503513336181641e+00 2.271920680999755859e+00 5.514076352119445801e-02
2.423000000000000000e+03 7.404919433593750000e+01 2.102149581909179688e+01 -3.344073891639709473e-01 8.188266754150390625e+00 2.356157779693603516e+00 -1.015986084938049316e+00
2.424000000000000000e+03 7.268370819091796875e+01 -4.154878616333007812e+00 3.510751063004136086e-03 7.401881217956542969e+00 2.221617460250854492e+00 1.212084889411926270e-01
2.425000000000000000e+03 8.462747573852539062e+00 3.707283782958984375e+01 -4.111705056857317686e-04 -2.475061592122074217e-05 -1.307763450313359499e-04 -3.121077897958457470e-04
2.426000000000000000e+03 7.325893402099609375e+01 7.091789722442626953e+00 -1.265433430671691895e-01 7.765267372131347656e+00 2.291617155075073242e+00 1.799972169101238251e-02
2.427000000000000000e+03 7.410071563720703125e+01 2.569347381591796875e+01 2.732756733894348145e-01 7.948784351348876953e+00 2.466618061065673828e+00 -1.227605223655700684e+00
2.428000000000000000e+03 7.255431365966796875e+01 -2.818890953063964844e+01 2.528859535232186317e-03 7.183210372924804688e+00 2.155721664428710938e+00 1.857640035450458527e-02
2.429000000000000000e+03 1.141391563415527344e+01 9.163127899169921875e+00 -9.360157855553552508e-05 -1.712645098450593650e-05 -3.321840995340608060e-05 -2.486128869350068271e-05
2.430000000000000000e+03 7.339601898193359375e+01 1.444123172760009766e+01 -3.605791926383972168e-01 8.040717124938964844e+00 2.304041385650634766e+00 -3.470215499401092529e-01
2.431000000000000000e+03 8.453892707824707031e+00 -1.877933502197265625e+01 -7.315568509511649609e-04 8.092086645774543285e-04 2.329554263269528747e-05 -1.996985956793650985e-04
2.432000000000000000e+03 1.019683933258056641e+01 -1.687042236328125000e+01 4.085333494003862143e-04 1.556329698360059410e-05 1.272289955522865057e-04 2.692404668778181076e-04
2.433000000000000000e+03 2.638890457153320312e+01 2.675863075256347656e+01 -1.046277284622192383e-01 -1.791769713163375854e-01 -8.514141291379928589e-02 -2.705112397670745850e-01
2.434000000000000000e+03 2.542332077026367188e+01 2.558272552490234375e+01 -6.832037121057510376e-02 -2.405368536710739136e-01 -9.265716373920440674e-02 -2.616903483867645264e-01
2.435000000000000000e+03 2.853330612182617188e+01 1.619066238403320312e+01 6.128595676273107529e-03 -5.107186436653137207e-01 -1.513770073652267456e-01 -5.046761631965637207e-01
2.436000000000000000e+03 9.304907798767089844e+00 -2.024866104125976562e+01 -4.691150097642093897e-04 8.378723287023603916e-04 1.106272029574029148e-04 2.332609583390876651e-04
2.437000000000000000e+03 2.698987388610839844e+01 8.480965614318847656e+00 1.766888052225112915e-02 -9.130096435546875000e-01 -2.686022222042083740e-01 -3.896296322345733643e-01
2.438000000000000000e+03 2.699565505981445312e+01 1.109586620330810547e+01 2.358146198093891144e-02 -8.224518895149230957e-01 -2.396611124277114868e-01 -4.183789193630218506e-01
2.439000000000000000e+03 2.582419395446777344e+01 9.833188056945800781e+00 1.130059547722339630e-02 -1.000010251998901367e+00 -2.966128885746002197e-01 -3.605819046497344971e-01
2.440000000000000000e+03 2.586351394653320312e+01 1.254607105255126953e+01 1.511918660253286362e-02 -8.722572922706604004e-01 -2.571414411067962646e-01 -3.797917962074279785e-01
2.441000000000000000e+03 2.931367111206054688e+01 8.487153053283691406e+00 5.183596909046173096e-02 -6.430122852325439453e-01 -1.773529052734375000e-01 -4.481234848499298096e-01
2.442000000000000000e+03 5.964934349060058594e+00 2.304281234741210938e+01 -2.636018325574696064e-04 3.825341991614550352e-05 -6.760452379239723086e-05 8.952640200732275844e-06
2.443000000000000000e+03 9.919662475585937500e+00 2.149940490722656250e+01 5.527585017262026668e-06 6.071434108889661729e-05 1.987257746804971248e-05 9.989763202611356974e-05
2.444000000000000000e+03 6.112556457519531250e+00 -9.467524528503417969e+00 4.671671485994011164e-04 1.322933676419779658e-04 1.798381563276052475e-04 2.901421103160828352e-04
2.445000000000000000e+03 5.061425685882568359e+00 -9.583754539489746094e+00 -4.422791243996471167e-04 -7.226976595120504498e-05 -1.543646649224683642e-04 -1.940025249496102333e-04
2.446000000000000000e+03 2.596800804138183594e+01 1.531216430664062500e+01 7.429914548993110657e-03 -7.281146645545959473e-01 -2.162054330110549927e-01 -3.954679071903228760e-01
2.447000000000000000e+03 2.708295631408691406e+01 1.376068687438964844e+01 1.867051608860492706e-02 -7.105231881141662598e-01 -2.075558006763458252e-01 -4.408639967441558838e-01
2.448000000000000000e+03 7.014148235321044922e+00 2.516717147827148438e+01 -2.035930083366110921e-04 -9.322281403001397848e-05 -8.904474816517904401e-05 4.957323199050733820e-06
2.449000000000000000e+03 7.874635219573974609e+00 -1.563904476165771484e+01 -4.013119323644787073e-04 -3.341984120197594166e-04 -2.206531062256544828e-04 -6.062670727260410786e-04
2.450000000000000000e+03 5.781791210174560547e+00 -1.800583648681640625e+01 -9.054227266460657120e-04 3.633536980487406254e-04 -1.626207085791975260e-04 -5.830006557516753674e-04
2.451000000000000000e+03 9.387035369873046875e+00 -2.696235847473144531e+01 1.845418126322329044e-03 5.619802977889776230e-04 7.222195272333920002e-04 1.765304623404517770e-04
2.452000000000000000e+03 6.502307415008544922e+00 -2.295093727111816406e+01 -1.516759512014687061e-04 1.624206779524683952e-03 4.417592426761984825e-04 2.706116356421262026e-04
2.453000000000000000e+03 5.646678924560546875e+00 -1.927318000793457031e+01 7.648139144293963909e-04 -1.313958346145227551e-04 1.900254137581214309e-04 4.169399617239832878e-04
2.454000000000000000e+03 7.585095882415771484e+00 -1.737854957580566406e+01 -4.047417023684829473e-04 9.106736397370696068e-04 1.517795753898099065e-04 1.144843117799609900e-04
2.455000000000000000e+03 2.692199897766113281e+01 2.963941001892089844e+01 -1.343584954738616943e-01 -8.098945021629333496e-02 -6.460438668727874756e-02 -1.886554807424545288e-01
2.456000000000000000e+03 7.056750297546386719e+00 2.652288627624511719e+01 1.771871466189622879e-04 1.343176263617351651e-04 9.345143189420923591e-05 2.470688195899128914e-05
2.457000000000000000e+03 1.067917728424072266e+01 -2.236737442016601562e+01 -2.959529811050742865e-04 -8.663262706249952316e-04 -3.486837667878717184e-04 -3.937814472010359168e-05
2.458000000000000000e+03 1.121140670776367188e+01 -2.332735443115234375e+01 2.132416411768645048e-04 1.322361757047474384e-03 4.606810107361525297e-04 3.751629265025258064e-04
2.459000000000000000e+03 5.620569229125976562e+00 1.885992622375488281e+01 1.232094073202461004e-04 3.548986933310516179e-05 4.760978481499478221e-05 8.584501301811542362e-06
2.460000000000000000e+03 7.147182941436767578e+00 1.494653320312500000e+01 -5.071312261861748993e-05 -1.289353258471237496e-05 -1.908199556055478752e-05 -7.866403757361695170e-05
2.461000000000000000e+03 2.548389625549316406e+01 2.974610710144042969e+01 -9.015424549579620361e-02 -8.802434056997299194e-02 -5.345357581973075867e-02 -1.452806144952774048e-01
2.462000000000000000e+03 2.563023185729980469e+01 2.890832710266113281e+01 -9.253347665071487427e-02 -1.166274398565292358e-01 -6.274827569723129272e-02 -1.780598163604736328e-01
2.463000000000000000e+03 6.663483619689941406e+00 -2.051074981689453125e+01 9.299917292082682252e-05 6.562365160789340734e-05 4.758684735861606896e-05 2.012657932937145233e-04
2.464000000000000000e+03 8.112510681152343750e+00 -1.982679557800292969e+01 1.766008790582418442e-04 -1.858062314568087459e-04 -2.761601990641793236e-06 1.700480497675016522e-04
2.465000000000000000e+03 2.741660881042480469e+01 2.190562438964843750e+01 -6.718613952398300171e-02 -3.471915125846862793e-01 -1.243133023381233215e-01 -4.235136210918426514e-01
2.466000000000000000e+03 2.753423881530761719e+01 -1.498456287384033203e+01 2.330392785370349884e-02 -1.117385029792785645e+00 -3.282243311405181885e-01 -1.273948997259140015e-01
2.467000000000000000e+03 2.730773162841796875e+01 -9.712833404541015625e+00 1.946990005671977997e-02 -1.139361262321472168e+00 -3.359673917293548584e-01 -1.797716766595840454e-01
2.468000000000000000e+03 5.383259773254394531e+00 1.536047363281250000e+01 -1.199448961415328085e-04 -3.817139804596081376e-05 -4.743488898384384811e-05 -7.877252210164442658e-05
2.469000000000000000e+03 2.558013725280761719e+01 2.431591796875000000e+01 -6.109270453453063965e-02 -2.936770617961883545e-01 -1.064309254288673401e-01 -2.960770726203918457e-01
2.470000000000000000e+03 9.342706680297851562e+00 -2.813927459716796875e+01 1.213328796438872814e-03 1.647215976845473051e-04 4.134151095058768988e-04 -1.505931955762207508e-03
2.471000000000000000e+03 1.055585765838623047e+01 -2.705542564392089844e+01 3.369623154867440462e-04 8.195104310289025307e-04 3.469418152235448360e-04 -9.005581960082054138e-04
2.472000000000000000e+03 8.331959724426269531e+00 8.474651336669921875e+00 2.656964716152288020e-05 -2.481562296452466398e-05 5.262073727863025852e-07 3.849278073175810277e-05
2.473000000000000000e+03 5.480939388275146484e+00 6.617918968200683594e+00 3.795598968281410635e-05 4.905255627818405628e-05 2.610256342450156808e-05 -6.748262239852920175e-05
2.474000000000000000e+03 6.172449111938476562e+00 7.910978794097900391e+00 -1.186548688565380871e-04 -1.812019945646170527e-06 -3.614006709540262818e-05 -1.086473162104084622e-06
2.475000000000000000e+03 9.981831550598144531e+00 1.265330410003662109e+01 -7.283105514943599701e-05 -3.352094427100382745e-05 -3.190559800714254379e-05 3.044458208023570478e-05
2.476000000000000000e+03 5.735023498535156250e+00 -1.374470233917236328e+01 4.143451806157827377e-04 2.261989138787612319e-04 1.921632210724055767e-04 2.534870873205363750e-04
2.477000000000000000e+03 7.796196460723876953e+00 9.091861724853515625e+00 -1.451074695069110021e-05 3.238273711758665740e-05 5.361597686714958400e-06 -3.466139969532378018e-05
2.478000000000000000e+03 5.363048553466796875e+00 -6.994609355926513672e+00 -8.941519627114757895e-05 5.404645344242453575e-04 1.353148109046742320e-04 1.461779902456328273e-04
2.479000000000000000e+03 2.803271675109863281e+01 -1.891286849975585938e+01 5.144103616476058960e-02 -1.005521297454833984e+00 -2.862240970134735107e-01 -9.907217323780059814e-02
2.480000000000000000e+03 2.595987701416015625e+01 -1.513765525817871094e+01 4.269648808985948563e-03 -1.396368145942687988e+00 -4.176295399665832520e-01 -1.121963113546371460e-01
2.481000000000000000e+03 2.701193618774414062e+01 7.196389198303222656e+00 1.333290338516235352e-02 -9.481788277626037598e-01 -2.804537713527679443e-01 -3.718931972980499268e-01
2.482000000000000000e+03 2.593484878540039062e+01 4.518078804016113281e+00 -8.968801237642765045e-03 -1.169938564300537109e+00 -3.536722064018249512e-01 -3.000920712947845459e-01
2.483000000000000000e+03 9.639636993408203125e+00 1.606167411804199219e+01 -5.500713814399205148e-05 9.621732715459074825e-06 -1.361562226520618424e-05 7.174790516728535295e-05
2.484000000000000000e+03 9.802376747131347656e+00 -1.432577514648437500e+01 4.671848437283188105e-04 4.739802679978311062e-04 2.823495306074619293e-04 9.113203122979030013e-05
2.485000000000000000e+03 1.083895206451416016e+01 2.979005241394042969e+01 -3.318943199701607227e-04 1.518558710813522339e-04 -5.401153248385526240e-05 -1.872836000984534621e-04
2.486000000000000000e+03 2.689828491210937500e+01 -2.264847373962402344e+01 3.156917914748191833e-02 -1.213152408599853516e+00 -3.544749617576599121e-01 -1.077231913805007935e-01
2.487000000000000000e+03 2.472044372558593750e+01 -2.409270477294921875e+01 2.928812243044376373e-02 -1.642398357391357422e+00 -4.839330911636352539e-01 -1.087747216224670410e-01
2.488000000000000000e+03 2.730105972290039062e+01 3.457005500793457031e+00 1.736586913466453552e-02 -1.002972602844238281e+00 -2.956820130348205566e-01 -3.185890614986419678e-01
2.489000000000000000e+03 1.074192333221435547e+01 2.236437797546386719e+01 1.275668619200587273e-04 -2.861930624931119382e-05 2.968426815641578287e-05 -1.073546154657378793e-04
2.490000000000000000e+03 2.632651329040527344e+01 1.982960319519042969e+01 -2.965272963047027588e-02 -4.784319400787353516e-01 -1.524254083633422852e-01 -4.021870493888854980e-01
2.491000000000000000e+03 2.511341094970703125e+01 -3.125844383239746094e+01 -6.169136241078376770e-02 -1.504524946212768555e+00 -4.698649048805236816e-01 -6.339244544506072998e-02
2.492000000000000000e+03 2.641639709472656250e+01 -2.859685134887695312e+01 -1.729819178581237793e-02 -1.305740356445312500e+00 -3.969115614891052246e-01 -1.069520562887191772e-01
2.493000000000000000e+03 4.806226730346679688e+01 4.097996902465820312e+01 4.669279158115386963e-01 -2.894760370254516602e-01 5.323555693030357361e-02 1.065341979265213013e-01
2.494000000000000000e+03 4.465388107299804688e+01 3.988592147827148438e+01 1.935533583164215088e-01 -2.478050589561462402e-01 -1.627550832927227020e-02 1.306364089250564575e-01
2.495000000000000000e+03 2.422697830200195312e+01 -2.801506423950195312e+01 5.724266637116670609e-03 -1.712612748146057129e+00 -5.120665431022644043e-01 -9.324147552251815796e-02
2.496000000000000000e+03 1.173553085327148438e+01 3.475540924072265625e+01 5.165721522644162178e-04 3.912306056008674204e-05 1.667085743974894285e-04 -7.910466956673189998e-05
2.497000000000000000e+03 1.138111495971679688e+01 -6.657073020935058594e+00 2.691215486265718937e-04 1.404414797434583306e-04 1.228689070558175445e-04 5.018604269935167395e-07
2.498000000000000000e+03 8.935339927673339844e+00 -5.790502548217773438e+00 -2.548298216424882412e-04 -2.318091283086687326e-04 -1.459916820749640465e-04 2.701286939554847777e-05
2.499000000000000000e+03 1.057121753692626953e+01 2.831210708618164062e+01 1.205372682306915522e-04 5.496861922438256443e-05 5.265176514512859285e-05 -6.361752457451075315e-05
2.500000000000000000e+03 2.525265312194824219e+01 -2.736962699890136719e+01 8.489569649100303650e-03 -1.546939849853515625e+00 -4.615350961685180664e-01 -9.760626405477523804e-02
2.501000000000000000e+03 2.665470504760742188e+01 -2.448366165161132812e+01 3.065820410847663879e-02 -1.241464495658874512e+00 -3.632419109344482422e-01 -1.068935170769691467e-01
2.502000000000000000e+03 7.276052856445312500e+01 -2.182134628295898438e+01 1.085574273020029068e-02 7.231213569641113281e+00 2.172620773315429688e+00 5.569076538085937500e-02
2.503000000000000000e+03 7.276865386962890625e+01 -1.504295063018798828e+01 1.682380773127079010e-02 7.287212371826171875e+00 2.191210746765136719e+00 8.291275799274444580e-02
2.504000000000000000e+03 7.980341434478759766e+00 -3.429851150512695312e+01 1.337164361029863358e-02 -1.042043603956699371e-02 8.853623876348137856e-04 4.741665907204151154e-03
2.505000000000000000e+03 9.145938873291015625e+00 -3.549655914306640625e+01 2.136803977191448212e-02 -1.818403229117393494e-02 9.552021510899066925e-04 9.408207610249519348e-03
2.506000000000000000e+03 2.746277999877929688e+01 -4.739221334457397461e-01 3.454932197928428650e-02 -1.067754745483398438e+00 -3.099616169929504395e-01 -2.585520744323730469e-01
2.507000000000000000e+03 7.280326843261718750e+01 -8.120937347412109375e+00 1.350612752139568329e-02 7.382569313049316406e+00 2.218822717666625977e+00 1.133155226707458496e-01
2.508000000000000000e+03 1.062595081329345703e+01 3.693756103515625000e+01 6.257111090235412121e-04 -3.469773946562781930e-05 1.773039984982460737e-04 1.103907270589843392e-04
2.509000000000000000e+03 9.871397972106933594e+00 3.351980972290039062e+01 4.927989793941378593e-04 -6.554940773639827967e-05 1.281748700421303511e-04 1.584412093507125974e-04
2.510000000000000000e+03 8.354624748229980469e+00 3.913295745849609375e+01 2.198421570938080549e-04 2.063884021481499076e-04 1.278691634070128202e-04 3.588923427741974592e-04
2.511000000000000000e+03 9.530310630798339844e+00 -1.165890979766845703e+01 -4.158310766797512770e-04 8.072904311120510101e-04 1.174377975985407829e-04 1.978076943487394601e-05
2.512000000000000000e+03 9.252061843872070312e+00 -1.333652305603027344e+01 -5.242514307610690594e-04 -3.307991137262433767e-04 -2.565151662565767765e-04 -1.569639716763049364e-04
2.513000000000000000e+03 6.328952026367187500e+01 2.790883255004882812e+01 1.865701228380203247e-01 1.053034877777099609e+01 3.215075492858886719e+00 4.875660419464111328e+00
2.514000000000000000e+03 6.262858963012695312e+01 2.819099807739257812e+01 1.073803186416625977e+00 7.547535419464111328e+00 2.586401462554931641e+00 5.232458591461181641e+00
2.515000000000000000e+03 6.323274230957031250e+01 2.746750259399414062e+01 -1.369983144104480743e-02 1.000962829589843750e+01 2.998778581619262695e+00 4.468773841857910156e+00
2.516000000000000000e+03 6.179537200927734375e+01 2.778252983093261719e+01 1.073725938796997070e+00 4.785756111145019531e+00 1.757844567298889160e+00 4.264631748199462891e+00
2.517000000000000000e+03 6.386051559448242188e+01 2.788425064086914062e+01 -3.656676113605499268e-01 1.290006065368652344e+01 3.760318040847778320e+00 4.060009956359863281e+00
2.518000000000000000e+03 6.358640289306640625e+01 3.411979293823242188e+01 -3.633814156055450439e-01 1.179757022857666016e+01 3.430256605148315430e+00 -3.714671373367309570e+00
2.519000000000000000e+03 6.647944641113281250e+01 2.949275207519531250e+01 4.386097908020019531e+00 1.409169578552246094e+01 5.543337821960449219e+00 -1.841023445129394531e+00
2.520000000000000000e+03 6.547744750976562500e+01 2.843621444702148438e+01 8.184164166450500488e-01 1.587486457824707031e+01 5.007984161376953125e+00 -3.765826523303985596e-01
2.521000000000000000e+03 6.549381256103515625e+01 3.320394897460937500e+01 9.291971325874328613e-01 1.635853004455566406e+01 5.186318397521972656e+00 8.673048019409179688e-01
2.522000000000000000e+03 6.647914886474609375e+01 3.189695739746093750e+01 5.452447414398193359e+00 1.405260753631591797e+01 5.851516723632812500e+00 1.844983220100402832e+00
2.523000000000000000e+03 7.276213073730468750e+01 3.011159896850585938e+01 1.452366113662719727e+00 8.176054954528808594e+00 2.888526439666748047e+00 -4.065354764461517334e-01
2.524000000000000000e+03 6.417449951171875000e+01 2.820823860168457031e+01 -3.362993299961090088e-01 1.467886924743652344e+01 4.302771091461181641e+00 3.426866531372070312e+00
2.525000000000000000e+03 6.647213745117187500e+01 3.119349861145019531e+01 6.826232433319091797e+00 1.346994781494140625e+01 6.088853836059570312e+00 8.427493572235107422e-01
2.526000000000000000e+03 6.540195465087890625e+01 3.276832199096679688e+01 1.835691809654235840e+00 1.738799858093261719e+01 5.767107486724853516e+00 1.395814895629882812e+00
2.527000000000000000e+03 7.270393371582031250e+01 2.745648193359375000e+01 8.825353384017944336e-01 8.420008659362792969e+00 2.790763378143310547e+00 -1.184269189834594727e+00
2.528000000000000000e+03 6.644235229492187500e+01 3.087813949584960938e+01 7.177336692810058594e+00 1.356123256683349609e+01 6.221570491790771484e+00 8.800107985734939575e-02
2.529000000000000000e+03 6.096815490722656250e+01 2.806854629516601562e+01 9.555591344833374023e-01 2.552064657211303711e+00 1.052287220954895020e+00 3.146553039550781250e+00
2.530000000000000000e+03 6.472962951660156250e+01 3.322798538208007812e+01 -1.363699436187744141e-01 1.702609443664550781e+01 5.066917419433593750e+00 -1.189902782440185547e+00
2.531000000000000000e+03 6.641299438476562500e+01 3.226144027709960938e+01 4.465995788574218750e+00 1.441203498840332031e+01 5.663409233093261719e+00 2.080716609954833984e+00
2.532000000000000000e+03 6.272158050537109375e+01 3.467586898803710938e+01 2.980478405952453613e-01 8.000719070434570312e+00 2.489630222320556641e+00 -3.820099115371704102e+00
2.533000000000000000e+03 6.251022720336914062e+01 3.345846176147460938e+01 1.356423258781433105e+00 6.916119098663330078e+00 2.481762647628784180e+00 -4.687404632568359375e+00
2.534000000000000000e+03 6.391073989868164062e+01 3.437128829956054688e+01 -6.878647804260253906e-01 1.239617633819580078e+01 3.512493610382080078e+00 -3.156484603881835938e+00
2.535000000000000000e+03 6.217159652709960938e+01 3.331305313110351562e+01 1.640324950218200684e+00 5.072971820831298828e+00 2.013988971710205078e+00 -4.198592662811279297e+00
2.536000000000000000e+03 6.202486801147460938e+01 2.811880302429199219e+01 1.256386041641235352e+00 5.121046066284179688e+00 1.913229703903198242e+00 4.534178256988525391e+00
2.537000000000000000e+03 6.017086410522460938e+01 2.758131980895996094e+01 6.445609927177429199e-01 2.016037702560424805e+00 7.981795668601989746e-01 2.525225400924682617e+00
2.538000000000000000e+03 6.096506118774414062e+01 3.505313110351562500e+01 7.707424163818359375e-01 4.206799030303955078e+00 1.493262410163879395e+00 -2.537610530853271484e+00
2.539000000000000000e+03 6.150992965698242188e+01 3.487947082519531250e+01 6.675279736518859863e-01 5.230128765106201172e+00 1.769297003746032715e+00 -3.053021430969238281e+00
2.540000000000000000e+03 8.706083297729492188e+00 6.478339195251464844e+00 4.812212500837631524e-05 3.500813181744888425e-05 2.493907777534332126e-05 2.286288327013608068e-05
2.541000000000000000e+03 5.601480960845947266e+00 7.390839099884033203e+00 1.910263381432741880e-05 -1.511598929937463254e-05 1.195993377223203424e-06 3.671491867862641811e-05
2.542000000000000000e+03 2.776832580566406250e+01 2.930508232116699219e+01 -1.660608798265457153e-01 -7.715412229299545288e-02 -7.296449691057205200e-02 -2.247129976749420166e-01
2.543000000000000000e+03 4.850468063354492188e+01 2.696053504943847656e+01 -1.119118094444274902e+00 1.281156241893768311e-01 -2.973007559776306152e-01 -3.150398433208465576e-01
2.544000000000000000e+03 4.541061782836914062e+01 2.741218948364257812e+01 -1.094504714012145996e+00 1.140920743346214294e-01 -2.941237688064575195e-01 -4.010536074638366699e-01
2.545000000000000000e+03 5.691130828857421875e+01 2.599845314025878906e+01 -3.535653697326779366e-03 9.504097700119018555e-01 2.840622365474700928e-01 1.104542493820190430e+00
2.546000000000000000e+03 5.515916824340820312e+01 2.660021018981933594e+01 -5.985510945320129395e-01 4.070502817630767822e-01 -5.745024234056472778e-02 4.388454854488372803e-01
2.547000000000000000e+03 7.570126533508300781e+00 5.797834873199462891e+00 4.766744950757129118e-06 -1.311553478444693610e-05 -2.504636768208001740e-06 -6.750194643245777115e-06
2.548000000000000000e+03 2.650234031677246094e+01 2.567676734924316406e+01 -9.473361819982528687e-02 -2.184343785047531128e-01 -9.395039826631546021e-02 -3.025110960006713867e-01
2.549000000000000000e+03 3.186464500427246094e+01 2.915997505187988281e+01 -3.520912826061248779e-01 -3.538275137543678284e-03 -1.066888645291328430e-01 -3.167983591556549072e-01
2.550000000000000000e+03 3.130822563171386719e+01 2.999016952514648438e+01 -3.301880657672882080e-01 -3.157128521706908941e-04 -9.915113449096679688e-02 -2.641347944736480713e-01
2.551000000000000000e+03 3.261449432373046875e+01 2.903696823120117188e+01 -3.915278315544128418e-01 8.852264843881130219e-03 -1.148026734590530396e-01 -3.346896469593048096e-01
2.552000000000000000e+03 3.167409133911132812e+01 2.844868659973144531e+01 -3.313315808773040771e-01 -1.996048912405967712e-02 -1.053876206278800964e-01 -3.491677939891815186e-01
2.553000000000000000e+03 2.832059097290039062e+01 2.822481155395507812e+01 -1.850566565990447998e-01 -9.363833069801330566e-02 -8.360850065946578979e-02 -2.835072875022888184e-01
2.554000000000000000e+03 1.048057556152343750e+01 6.879405021667480469e+00 8.014518243726342916e-05 2.088609835482202470e-05 3.030938569281715900e-05 2.674543247849214822e-05
2.555000000000000000e+03 3.335210037231445312e+01 2.890517807006835938e+01 -4.298032224178314209e-01 2.001577243208885193e-02 -1.229362338781356812e-01 -3.512278199195861816e-01
2.556000000000000000e+03 3.646425628662109375e+01 2.912166786193847656e+01 -6.326374411582946777e-01 6.551993638277053833e-02 -1.701352596282958984e-01 -3.594111502170562744e-01
2.557000000000000000e+03 3.756924057006835938e+01 2.747334098815917969e+01 -6.160920262336730957e-01 7.469999045133590698e-02 -1.624176055192947388e-01 -4.688894450664520264e-01
2.558000000000000000e+03 3.408027267456054688e+01 2.877903556823730469e+01 -4.688055217266082764e-01 3.099020943045616150e-02 -1.313446015119552612e-01 -3.669385015964508057e-01
2.559000000000000000e+03 3.572400665283203125e+01 2.925039482116699219e+01 -5.864733457565307617e-01 5.781035125255584717e-02 -1.585988998413085938e-01 -3.483817875385284424e-01
2.560000000000000000e+03 3.629269027709960938e+01 2.842817687988281250e+01 -5.910596251487731934e-01 6.160937249660491943e-02 -1.588350832462310791e-01 -4.054953157901763916e-01
2.561000000000000000e+03 8.303178787231445312e+00 -9.394656181335449219e+00 1.296478003496304154e-04 -4.682764702010899782e-04 -1.015885936794802547e-04 1.479546481277793646e-04
2.562000000000000000e+03 4.434317398071289062e+01 2.612729454040527344e+01 -8.031378984451293945e-01 1.419259160757064819e-01 -1.983636021614074707e-01 -4.845755696296691895e-01
2.563000000000000000e+03 3.555268478393554688e+01 2.854513931274414062e+01 -5.487543344497680664e-01 5.123127996921539307e-02 -1.492569148540496826e-01 -3.937368094921112061e-01
2.564000000000000000e+03 3.481386566162109375e+01 2.866113281250000000e+01 -5.086358189582824707e-01 4.153898358345031738e-02 -1.401290595531463623e-01 -3.802261650562286377e-01
2.565000000000000000e+03 4.914529800415039062e+01 2.617570304870605469e+01 -8.966570496559143066e-01 1.767318248748779297e-01 -2.159775644540786743e-01 -2.848987579345703125e-01
2.566000000000000000e+03 3.920978927612304688e+01 2.783947563171386719e+01 -7.437136173248291016e-01 9.370461851358413696e-02 -1.950027048587799072e-01 -4.485814869403839111e-01
2.567000000000000000e+03 4.215877532958984375e+01 2.719067573547363281e+01 -8.633361458778381348e-01 1.147080212831497192e-01 -2.245884388685226440e-01 -4.697052538394927979e-01
2.568000000000000000e+03 3.685425567626953125e+01 2.761551666259765625e+01 -5.830979347229003906e-01 6.571844965219497681e-02 -1.552138477563858032e-01 -4.580159485340118408e-01
2.569000000000000000e+03 1.036048984527587891e+01 -7.925204753875732422e+00 2.623923646751791239e-04 1.424547663191333413e-04 1.214541334775276482e-04 -6.118544115452095866e-05
2.570000000000000000e+03 4.772699737548828125e+01 2.706592178344726562e+01 -1.124466419219970703e+00 1.225127801299095154e-01 -3.005861043930053711e-01 -3.456649482250213623e-01
2.571000000000000000e+03 4.159888458251953125e+01 2.807800292968750000e+01 -9.376516342163085938e-01 1.040056794881820679e-01 -2.500937879085540771e-01 -4.157029092311859131e-01
2.572000000000000000e+03 5.241876983642578125e+01 2.730870056152343750e+01 -1.237434387207031250e+00 1.358125507831573486e-01 -3.304865658283233643e-01 -5.777646601200103760e-02
2.573000000000000000e+03 5.315153884887695312e+01 2.727840614318847656e+01 -1.182425856590270996e+00 1.594409942626953125e-01 -3.068954646587371826e-01 1.910037547349929810e-02
2.574000000000000000e+03 4.292793655395507812e+01 2.706784439086914062e+01 -8.898118138313293457e-01 1.185421347618103027e-01 -2.313809096813201904e-01 -4.673000574111938477e-01
2.575000000000000000e+03 5.825116348266601562e+01 2.692426681518554688e+01 3.860227018594741821e-02 1.064582467079162598e+00 3.309554159641265869e-01 1.433855414390563965e+00
2.576000000000000000e+03 4.695313262939453125e+01 2.717628669738769531e+01 -1.122718453407287598e+00 1.188068985939025879e-01 -3.011734783649444580e-01 -3.696736693382263184e-01
2.577000000000000000e+03 5.230747222900390625e+01 2.664707183837890625e+01 -9.591408967971801758e-01 2.019986212253570557e-01 -2.271426916122436523e-01 -3.196331113576889038e-02
2.578000000000000000e+03 1.152629184722900391e+01 5.754706382751464844e+00 8.234281267505139112e-05 8.438475560978986323e-06 2.723438592511229217e-05 1.645547126827295870e-05
2.579000000000000000e+03 1.148317813873291016e+01 7.963822364807128906e+00 8.795996836852282286e-05 1.492682986281579360e-05 3.086603828705847263e-05 2.488099016773048788e-05
2.580000000000000000e+03 4.618326187133789062e+01 2.729183769226074219e+01 -1.111485123634338379e+00 1.162900924682617188e-01 -2.985585331916809082e-01 -3.879308104515075684e-01
2.581000000000000000e+03 4.603321075439453125e+01 2.660937881469726562e+01 -9.547327160835266113e-01 1.359387934207916260e-01 -2.456381767988204956e-01 -4.221448600292205811e-01
2.582000000000000000e+03 4.680704498291015625e+01 2.649810409545898438e+01 -9.536890983581542969e-01 1.428819894790649414e-01 -2.432421296834945679e-01 -3.991205692291259766e-01
2.583000000000000000e+03 6.089388275146484375e+01 3.598701095581054688e+01 4.853619933128356934e-01 4.538630962371826172e+00 1.507197856903076172e+00 -2.289401054382324219e+00
2.584000000000000000e+03 6.046054458618164062e+01 3.701728439331054688e+01 3.048138022422790527e-01 4.477032661437988281e+00 1.434553980827331543e+00 -1.761885166168212891e+00
2.585000000000000000e+03 1.119580173492431641e+01 -5.675000667572021484e+00 -4.396050644572824240e-04 -1.076612097676843405e-04 -1.641798880882561207e-04 2.968919216073118150e-05
2.586000000000000000e+03 8.809367179870605469e+00 1.116021728515625000e+01 -6.480661977548152208e-05 -4.036373502458445728e-05 -3.155110607622191310e-05 -3.313281558803282678e-05
2.587000000000000000e+03 7.172791004180908203e+00 1.314376640319824219e+01 -4.303559308027615771e-06 -3.630703577073290944e-05 -1.218317811435554177e-05 -7.182842091424390674e-05
2.588000000000000000e+03 9.803894042968750000e+00 1.429152202606201172e+01 3.308003579149954021e-05 -2.372045855736359954e-05 2.807872533594490960e-06 9.463159949518740177e-05
2.589000000000000000e+03 7.881719112396240234e+00 1.718941307067871094e+01 -9.380401024827733636e-05 6.533159466926008463e-05 -8.541725946997758001e-06 1.765191336744464934e-05
2.590000000000000000e+03 7.534782409667968750e+00 -1.474355888366699219e+01 4.190615727566182613e-04 5.265082581900060177e-04 2.836709318216890097e-04 2.351238508708775043e-04
2.591000000000000000e+03 7.307820129394531250e+01 2.097308158874511719e+01 -4.417747855186462402e-01 8.398583412170410156e+00 2.387042760848999023e+00 -9.976451396942138672e-01
2.592000000000000000e+03 7.186546325683593750e+01 1.869199752807617188e+01 -6.320048570632934570e-01 8.376588821411132812e+00 2.323375225067138672e+00 -6.251328587532043457e-01
2.593000000000000000e+03 1.042014217376708984e+01 9.142726898193359375e+00 9.204858361044898629e-05 2.182556636398658156e-05 3.416224353713914752e-05 2.928279718616977334e-05
2.594000000000000000e+03 5.081562042236328125e+01 2.671851348876953125e+01 -1.047952532768249512e+00 1.582378000020980835e-01 -2.669144272804260254e-01 -1.729769855737686157e-01
2.595000000000000000e+03 5.902849578857421875e+01 3.562131500244140625e+01 6.912164688110351562e-01 1.844059705734252930e+00 7.605828642845153809e-01 -1.116989374160766602e+00
2.596000000000000000e+03 7.169358825683593750e+01 2.665502548217773438e+01 7.113543748855590820e-01 9.022172927856445312e+00 2.920058250427246094e+00 -1.382362127304077148e+00
2.597000000000000000e+03 5.688075256347656250e+01 4.141642379760742188e+01 6.787042617797851562e-01 2.257830381393432617e+00 8.809604048728942871e-01 -1.601388454437255859e-01
2.598000000000000000e+03 2.949948310852050781e+01 5.039103507995605469e+00 5.791965126991271973e-02 -6.748819947242736816e-01 -1.850887089967727661e-01 -3.863035738468170166e-01
2.599000000000000000e+03 7.316869354248046875e+01 3.207113265991210938e+01 1.222015380859375000e+00 8.077287673950195312e+00 2.789790868759155273e+00 3.120380342006683350e-01
2.600000000000000000e+03 4.792830944061279297e+00 7.705545425415039062e+00 8.533930667908862233e-05 1.535201226943172514e-05 3.020739677594974637e-05 -4.934830212732776999e-05
2.601000000000000000e+03 5.981586933135986328e+00 8.937280654907226562e+00 8.806951518636196852e-05 3.781772829825058579e-05 3.776617450057528913e-05 -2.475206565577536821e-05
2.602000000000000000e+03 9.950841903686523438e+00 1.148038387298583984e+01 1.045050812535919249e-04 4.290711513021960855e-05 4.422365600476041436e-05 -1.531218572381476406e-06
2.603000000000000000e+03 1.029989051818847656e+01 -1.024927043914794922e+01 3.432617813814431429e-04 2.756017465799232014e-06 1.038053378579206765e-04 1.441013155272230506e-04
2.604000000000000000e+03 1.042097949981689453e+01 -9.093137741088867188e+00 -3.397189138922840357e-04 -7.164201178966322914e-06 -1.040649367496371269e-04 1.237529090758471284e-06
2.605000000000000000e+03 6.775917053222656250e+00 8.864063262939453125e+00 -2.474519351380877197e-05 -5.307212268235161901e-05 -2.334519558644387871e-05 -9.271572707802988589e-06
2.606000000000000000e+03 7.270349121093750000e+01 -2.046450614929199219e+01 1.759685389697551727e-02 7.236093521118164062e+00 2.176107168197631836e+00 5.979426577687263489e-02
2.607000000000000000e+03 1.143802452087402344e+01 -7.888568878173828125e+00 -2.729925035964697599e-04 -1.182552296086214483e-04 -1.173743221443146467e-04 2.812793718476314098e-05
2.608000000000000000e+03 6.999320220947265625e+01 -3.173466920852661133e+00 8.001619018614292145e-03 6.871935844421386719e+00 2.063981294631958008e+00 1.741248667240142822e-01
2.609000000000000000e+03 8.442754745483398438e+00 2.642407417297363281e+01 -2.026070578722283244e-04 -1.395292201777920127e-04 -1.026408863253891468e-04 5.309364496497437358e-05
2.610000000000000000e+03 9.675510406494140625e+00 2.466769027709960938e+01 -1.919939240906387568e-04 -1.187958550872281194e-04 -9.323692938778549433e-05 -3.318607195978984237e-05
2.611000000000000000e+03 7.320204925537109375e+01 2.608685255050659180e+00 -4.372007399797439575e-02 7.658130168914794922e+00 2.284322977066040039e+00 1.005933210253715515e-01
2.612000000000000000e+03 7.270574951171875000e+01 7.847712934017181396e-02 -2.903759852051734924e-02 7.470467090606689453e+00 2.232428789138793945e+00 1.265661865472793579e-01
2.613000000000000000e+03 3.063596725463867188e+01 -1.841160583496093750e+01 4.283330962061882019e-02 -5.852379202842712402e-01 -1.627213805913925171e-01 -1.068054437637329102e-01
2.614000000000000000e+03 2.769123649597167969e+01 -1.765472984313964844e+01 1.885963417589664459e-02 -1.100788116455078125e+00 -3.245785236358642578e-01 -1.012819707393646240e-01
2.615000000000000000e+03 6.866028308868408203e+00 -1.215251731872558594e+01 4.742759047076106071e-04 1.564564736327156425e-04 1.892197033157572150e-04 3.176452883053570986e-04
2.616000000000000000e+03 7.173711395263671875e+01 -2.241228675842285156e+01 2.344480715692043304e-02 7.036018371582031250e+00 2.117838859558105469e+00 5.971419438719749451e-02
2.617000000000000000e+03 7.228752136230468750e+01 1.191759490966796875e+01 -3.242195844650268555e-01 7.802838802337646484e+00 2.243585824966430664e+00 -1.288163959980010986e-01
2.618000000000000000e+03 7.213862609863281250e+01 9.335031509399414062e+00 -2.245445698499679565e-01 7.648558616638183594e+00 2.227204084396362305e+00 -1.195628009736537933e-02
2.619000000000000000e+03 9.720164299011230469e+00 -1.917892837524414062e+01 4.457938775885850191e-04 -5.578760174103081226e-04 -3.362463758094236255e-05 2.048229653155431151e-04
2.620000000000000000e+03 8.809914588928222656e+00 -2.135287475585937500e+01 -5.250475805951282382e-05 -2.892045813496224582e-05 -2.442756522214040160e-05 -1.368137891404330730e-04
2.621000000000000000e+03 7.200197601318359375e+01 -1.661973190307617188e+01 2.196237817406654358e-02 7.144581794738769531e+00 2.149963378906250000e+00 8.147748559713363647e-02
2.622000000000000000e+03 7.200286865234375000e+01 2.300421714782714844e+01 -3.391554355621337891e-01 8.823179244995117188e+00 2.545207023620605469e+00 -1.161304235458374023e+00
2.623000000000000000e+03 7.402742004394531250e+01 2.232890319824218750e+01 -2.452095746994018555e-01 8.165969848632812500e+00 2.376228094100952148e+00 -1.135815262794494629e+00
2.624000000000000000e+03 7.242613220214843750e+01 4.754198551177978516e+00 -8.936020731925964355e-02 7.549346446990966797e+00 2.237995862960815430e+00 8.845897018909454346e-02
2.625000000000000000e+03 7.124765777587890625e+01 2.491393804550170898e+00 -6.784565746784210205e-02 7.219233989715576172e+00 2.145416498184204102e+00 1.366633027791976929e-01
2.626000000000000000e+03 7.171363067626953125e+01 -9.456665992736816406e+00 2.246675081551074982e-02 7.149959564208984375e+00 2.151727914810180664e+00 1.113481670618057251e-01
2.627000000000000000e+03 7.134677124023437500e+01 -4.248546600341796875e+00 6.413035560399293900e-03 7.133520603179931641e+00 2.141980171203613281e+00 1.440666466951370239e-01
2.628000000000000000e+03 7.334772491455078125e+01 8.343612670898437500e+00 -1.577721536159515381e-01 7.812350273132324219e+00 2.296373367309570312e+00 -2.304326184093952179e-02
2.629000000000000000e+03 7.258831787109375000e+01 1.724622917175292969e+01 -5.323252677917480469e-01 8.193997383117675781e+00 2.298501491546630859e+00 -5.396507382392883301e-01
2.630000000000000000e+03 7.358294677734375000e+01 1.578584194183349609e+01 -3.945115208625793457e-01 8.105716705322265625e+00 2.313361644744873047e+00 -4.702739715576171875e-01
2.631000000000000000e+03 7.272044372558593750e+01 -6.840780735015869141e+00 1.313416473567485809e-02 7.386991500854492188e+00 2.220037698745727539e+00 1.142785325646400452e-01
2.632000000000000000e+03 6.637094497680664062e+00 2.158941078186035156e+01 -1.496429285907652229e-05 -8.417908975388854742e-05 -2.974301423819269985e-05 6.981771002756431699e-05
2.633000000000000000e+03 2.698423767089843750e+01 9.780555725097656250e+00 2.257226593792438507e-02 -8.717520833015441895e-01 -2.547539472579956055e-01 -4.049374163150787354e-01
2.634000000000000000e+03 2.716702079772949219e+01 1.512034606933593750e+01 1.149886660277843475e-02 -6.487463116645812988e-01 -1.911742240190505981e-01 -4.497958421707153320e-01
2.635000000000000000e+03 6.715051269531250000e+01 2.998728942871093750e+01 5.092450618743896484e+00 1.251664733886718750e+01 5.282729625701904297e+00 -1.235237121582031250e+00
2.636000000000000000e+03 2.778905677795410156e+01 1.947484970092773438e+01 -3.515077754855155945e-02 -4.277167916297912598e-01 -1.388602703809738159e-01 -4.688204526901245117e-01
2.637000000000000000e+03 3.149165725708007812e+01 2.775195312500000000e+01 -3.111944496631622314e-01 -3.651769086718559265e-02 -1.043136417865753174e-01 -3.777045011520385742e-01
2.638000000000000000e+03 2.934581947326660156e+01 1.208702087402343750e+01 4.474565014243125916e-02 -5.660495758056640625e-01 -1.563911736011505127e-01 -5.002097487449645996e-01
2.639000000000000000e+03 3.039052581787109375e+01 1.821179580688476562e+01 -2.561840415000915527e-02 -3.310115337371826172e-01 -1.069889813661575317e-01 -5.655032992362976074e-01
2.640000000000000000e+03 2.915296745300292969e+01 1.882537078857421875e+01 -3.433926403522491455e-02 -3.794297575950622559e-01 -1.241307109594345093e-01 -5.255981683731079102e-01
2.641000000000000000e+03 2.748568344116210938e+01 1.795965385437011719e+01 -1.363390125334262848e-02 -5.102618336677551270e-01 -1.571687310934066772e-01 -4.631078541278839111e-01
2.642000000000000000e+03 7.228905487060546875e+01 1.467996215820312500e+01 -4.527421295642852783e-01 7.974601745605468750e+00 2.256557941436767578e+00 -2.951459884643554688e-01
2.643000000000000000e+03 7.270549011230468750e+01 -1.355370903015136719e+01 1.673484034836292267e-02 7.290972709655761719e+00 2.192312240600585938e+00 8.853071182966232300e-02
2.644000000000000000e+03 6.501432895660400391e+00 -2.491316032409667969e+01 3.239525249227881432e-04 1.527470303699374199e-03 5.554268718697130680e-04 -2.907105081249028444e-04
2.645000000000000000e+03 6.715809345245361328e+00 1.734980773925781250e+01 -5.920069088460877538e-05 1.358180888928472996e-04 2.298521940247155726e-05 1.266162234969669953e-05
2.646000000000000000e+03 8.664409637451171875e+00 1.667761611938476562e+01 7.117349014151841402e-05 -1.777895704435650259e-05 1.601836083864327520e-05 -4.511816587182693183e-05
2.647000000000000000e+03 7.044058799743652344e+00 1.865318870544433594e+01 3.095101783401332796e-05 8.556152170058339834e-05 3.495376222417689860e-05 -1.131002318288665265e-05
2.648000000000000000e+03 6.890294075012207031e+00 -1.946134567260742188e+01 -5.882215918973088264e-04 5.172773962840437889e-04 -2.128326377714984119e-05 -4.060093197040259838e-04
2.649000000000000000e+03 8.931181907653808594e+00 -1.561269760131835938e+01 2.328452246729284525e-04 4.659545375034213066e-04 2.096399257425218821e-04 2.776477194856852293e-04
2.650000000000000000e+03 2.826121139526367188e+01 1.355644607543945312e+01 2.680550329387187958e-02 -6.202573180198669434e-01 -1.780355572700500488e-01 -4.825106859207153320e-01
2.651000000000000000e+03 2.811092758178710938e+01 3.008156585693359375e+01 -1.801015734672546387e-01 -5.188254639506340027e-02 -6.959523260593414307e-02 -1.996011734008789062e-01
2.652000000000000000e+03 2.771170997619628906e+01 -4.563983440399169922e+00 4.981289058923721313e-02 -1.048620581626892090e+00 -2.996423244476318359e-01 -2.272416204214096069e-01
2.653000000000000000e+03 2.965627288818359375e+01 -2.260376930236816406e+00 6.894902884960174561e-02 -7.416011691093444824e-01 -2.017956376075744629e-01 -2.673335373401641846e-01
2.654000000000000000e+03 7.289496612548828125e+01 2.333314704895019531e+01 -2.006318122148513794e-01 8.537420272827148438e+00 2.501036405563354492e+00 -1.231591105461120605e+00
2.655000000000000000e+03 9.815247535705566406e+00 -2.396937942504882812e+01 -4.367747460491955280e-04 -5.580008146353065968e-04 -2.984326565638184547e-04 -2.489638427505269647e-05
2.656000000000000000e+03 9.874756813049316406e+00 -2.175225067138671875e+01 -2.164751640520989895e-04 7.149953744374215603e-04 1.495560572948306799e-04 5.639992305077612400e-04
2.657000000000000000e+03 8.768928527832031250e+00 -1.776509857177734375e+01 4.828941600862890482e-04 -4.138197400607168674e-04 2.072232200589496642e-05 2.192747633671388030e-04
2.658000000000000000e+03 7.168328857421875000e+01 -1.188675975799560547e+01 2.357369102537631989e-02 7.126717090606689453e+00 2.145087242126464844e+00 1.040003299713134766e-01
2.659000000000000000e+03 2.818565750122070312e+01 1.227083587646484375e+01 3.271526843309402466e-02 -6.667569875717163086e-01 -1.902125179767608643e-01 -4.704714417457580566e-01
2.660000000000000000e+03 1.028787612915039062e+01 -5.719146251678466797e+00 1.233043731190264225e-04 6.395937816705554724e-05 5.617912393063306808e-05 -1.408602111041545868e-04
2.661000000000000000e+03 8.910858154296875000e+00 -7.445847988128662109e+00 2.853919286280870438e-04 1.762892352417111397e-04 1.385043578920885921e-04 9.441059228265658021e-05
2.662000000000000000e+03 5.907649040222167969e+00 -8.332382202148437500e+00 -4.797609872184693813e-04 -1.760753434609796386e-06 -1.444565277779474854e-04 -3.211947041563689709e-04
2.663000000000000000e+03 7.146887779235839844e+00 9.678895950317382812e+00 2.553429840190801769e-05 -3.271921968917013146e-06 6.678712907159933820e-06 1.725966649246402085e-05
2.664000000000000000e+03 2.917160987854003906e+01 2.284131431579589844e+01 -1.206354424357414246e-01 -2.353944331407546997e-01 -1.068089604377746582e-01 -4.737979471683502197e-01
2.665000000000000000e+03 2.762585830688476562e+01 -5.850386142730712891e+00 4.726269841194152832e-02 -1.084138631820678711e+00 -3.110627532005310059e-01 -2.158774286508560181e-01
2.666000000000000000e+03 2.972732925415039062e+01 2.001163482666015625e+01 -6.101103499531745911e-02 -3.155562281608581543e-01 -1.129701733589172363e-01 -5.367322564125061035e-01
2.667000000000000000e+03 2.843528175354003906e+01 2.081569480895996094e+01 -6.487018615007400513e-02 -3.453017473220825195e-01 -1.230515837669372559e-01 -4.797760546207427979e-01
2.668000000000000000e+03 2.833225440979003906e+01 2.255280494689941406e+01 -9.322138130664825439e-02 -2.841251492500305176e-01 -1.132039576768875122e-01 -4.535336494445800781e-01
2.669000000000000000e+03 2.705543899536132812e+01 5.929834842681884766e+00 1.089356467127799988e-02 -9.788455367088317871e-01 -2.903856039047241211e-01 -3.535809516906738281e-01
2.670000000000000000e+03 2.818987846374511719e+01 7.244884967803955078e+00 3.220877423882484436e-02 -8.029935956001281738e-01 -2.312354445457458496e-01 -4.034726321697235107e-01
2.671000000000000000e+03 8.323909759521484375e+00 3.341636276245117188e+01 -4.249667981639504433e-04 4.170613829046487808e-05 -1.149781965068541467e-04 -2.225007046945393085e-04
2.672000000000000000e+03 8.885631561279296875e+00 3.010107231140136719e+01 -1.622526760911568999e-04 8.379422797588631511e-05 -2.353753552597481757e-05 -2.200150483986362815e-04
2.673000000000000000e+03 3.019094276428222656e+01 -9.936326980590820312e+00 4.833817109465599060e-02 -6.732247471809387207e-01 -1.874659657478332520e-01 -1.762686967849731445e-01
2.674000000000000000e+03 2.896718597412109375e+01 -8.497847557067871094e+00 4.429347813129425049e-02 -8.615916967391967773e-01 -2.451894730329513550e-01 -1.934266984462738037e-01
2.675000000000000000e+03 7.288275146484375000e+01 -2.959622955322265625e+01 1.232686452567577362e-02 7.256225585937500000e+00 2.180565834045410156e+00 2.593758516013622284e-02
2.676000000000000000e+03 7.173734283447265625e+01 -1.878010177612304688e+01 1.958029717206954956e-02 7.080335140228271484e+00 2.129974603652954102e+00 7.567373663187026978e-02
2.677000000000000000e+03 2.714063644409179688e+01 4.684443950653076172e+00 9.898393414914608002e-03 -9.951478838920593262e-01 -2.955748438835144043e-01 -3.320465981960296631e-01
2.678000000000000000e+03 2.824409103393554688e+01 6.039764404296875000e+00 3.154372423887252808e-02 -8.202712535858154297e-01 -2.366182506084442139e-01 -3.835163414478302002e-01
2.679000000000000000e+03 7.138958740234375000e+01 -8.233659744262695312e+00 2.415920980274677277e-02 7.090511322021484375e+00 2.134401082992553711e+00 1.247238591313362122e-01
2.680000000000000000e+03 7.844404697418212891e+00 1.047892093658447266e+01 6.632928943872684613e-06 3.495360942906700075e-05 1.247596173925558105e-05 1.709247044345829636e-05
2.681000000000000000e+03 7.042684555053710938e+00 1.128915023803710938e+01 -1.846568738983478397e-05 -4.793443622475024313e-06 -6.977739303692942485e-06 -4.072083538630977273e-05
2.682000000000000000e+03 7.211673736572265625e+01 7.209415435791015625e+00 -1.600928157567977905e-01 7.550780773162841797e+00 2.217206478118896484e+00 5.004436522722244263e-02
2.683000000000000000e+03 7.116885375976562500e+01 -2.854881858825683594e+01 1.415389776229858398e-02 6.850193500518798828e+00 2.059304237365722656e+00 2.373804897069931030e-02
2.684000000000000000e+03 7.238043212890625000e+01 -2.669175338745117188e+01 1.708595454692840576e-02 7.124940395355224609e+00 2.142607927322387695e+00 2.686528675258159637e-02
2.685000000000000000e+03 8.886143684387207031e+00 2.788832473754882812e+01 1.765474298736080527e-04 8.587245247326791286e-05 7.872596324887126684e-05 -6.626982212765142322e-05
2.686000000000000000e+03 2.872325515747070312e+01 -8.441851735115051270e-01 5.410058423876762390e-02 -8.607191443443298340e-01 -2.419855743646621704e-01 -2.748662829399108887e-01
2.687000000000000000e+03 7.202703857421875000e+01 1.497392058372497559e+00 -3.686916828155517578e-02 7.412694454193115234e+00 2.212747573852539062e+00 1.315147280693054199e-01
2.688000000000000000e+03 7.030703735351562500e+01 -3.048276007175445557e-01 -2.384851686656475067e-02 6.992479801177978516e+00 2.090589284896850586e+00 1.705881357192993164e-01
2.689000000000000000e+03 3.036815452575683594e+01 2.939626121520996094e+01 -2.800302207469940186e-01 -2.674898132681846619e-02 -9.203376621007919312e-02 -2.782496511936187744e-01
2.690000000000000000e+03 2.737460708618164062e+01 2.684605407714843750e+01 -1.372891217470169067e-01 -1.548670083284378052e-01 -8.764684200286865234e-02 -3.022386729717254639e-01
2.691000000000000000e+03 2.919530296325683594e+01 1.753943324089050293e+00 5.573266744613647461e-02 -7.650867104530334473e-01 -2.128062099218368530e-01 -3.177528977394104004e-01
2.692000000000000000e+03 2.958774757385253906e+01 4.010917663574218750e+00 5.930922552943229675e-02 -6.790750622749328613e-01 -1.859297454357147217e-01 -3.648638725280761719e-01
2.693000000000000000e+03 2.665725326538085938e+01 -2.087040519714355469e+01 4.244934767484664917e-02 -1.263929486274719238e+00 -3.664440512657165527e-01 -9.561380743980407715e-02
2.694000000000000000e+03 7.131258392333984375e+01 -5.581842899322509766e+00 1.211872603744268417e-02 7.103822708129882812e+00 2.134782314300537109e+00 1.384026259183883667e-01
2.695000000000000000e+03 1.222937679290771484e+01 3.298262405395507812e+01 1.084623872884549201e-04 1.219613477587699890e-04 6.912711978657171130e-05 -1.605334255145862699e-04
2.696000000000000000e+03 1.122297477722167969e+01 3.345615768432617188e+01 -5.176609847694635391e-04 3.948246740037575364e-05 -1.434535661246627569e-04 -1.629660800972487777e-05
2.697000000000000000e+03 2.862475585937500000e+01 2.005034834146499634e-01 5.265757068991661072e-02 -8.579180836677551270e-01 -2.415781617164611816e-01 -2.893286645412445068e-01
2.698000000000000000e+03 6.494197845458984375e+00 3.680032730102539062e+01 1.599175884621217847e-04 2.041995467152446508e-04 1.092351449187844992e-04 3.046556957997381687e-04
2.699000000000000000e+03 7.150202178955078125e+01 -1.550126743316650391e+01 1.965373195707798004e-02 7.054470539093017578e+00 2.122237443923950195e+00 9.102587401866912842e-02
2.700000000000000000e+03 2.891196250915527344e+01 -2.803677558898925781e+01 1.872853934764862061e-02 -8.353598713874816895e-01 -2.449893951416015625e-01 -6.174039468169212341e-02
2.701000000000000000e+03 2.743050765991210938e+01 -2.704163360595703125e+01 2.360659092664718628e-02 -1.096517324447631836e+00 -3.218732476234436035e-01 -1.013397425413131714e-01
2.702000000000000000e+03 6.750175476074218750e+01 3.090247917175292969e+01 5.279889106750488281e+00 1.180082130432128906e+01 5.124213218688964844e+00 5.929237231612205505e-02
2.703000000000000000e+03 6.927214050292968750e+01 -2.072692680358886719e+01 2.756465598940849304e-02 6.579838275909423828e+00 1.982220888137817383e+00 8.605992048978805542e-02
2.704000000000000000e+03 6.990208435058593750e+01 -2.664602661132812500e+01 2.839950658380985260e-02 6.668442249298095703e+00 2.009052515029907227e+00 5.761579796671867371e-02
2.705000000000000000e+03 9.887803077697753906e+00 -1.292291355133056641e+01 -4.038070619571954012e-04 7.815495482645928860e-04 1.133227415266446769e-04 -7.521783118136227131e-05
2.706000000000000000e+03 8.641446113586425781e+00 -1.453201580047607422e+01 -5.017706425860524178e-04 -3.739753738045692444e-04 -2.627237990964204073e-04 2.661475264176260680e-06
2.707000000000000000e+03 2.738453674316406250e+01 -1.365608310699462891e+01 1.540476176887750626e-02 -1.131474614143371582e+00 -3.348209559917449951e-01 -1.368452459573745728e-01
2.708000000000000000e+03 8.915244102478027344e+00 2.071037292480468750e+01 -2.198775655415374786e-05 -5.236808283370919526e-05 -2.230675272585358471e-05 -2.022269109147600830e-05
2.709000000000000000e+03 7.160715484619140625e+01 3.560533523559570312e+01 2.413455098867416382e-01 9.298356056213378906e+00 2.861910343170166016e+00 1.131008982658386230e+00
2.710000000000000000e+03 7.613366699218750000e+01 4.056216812133789062e+01 -2.867526412010192871e-01 7.015402317047119141e+00 2.018594741821289062e+00 7.940182834863662720e-02
2.711000000000000000e+03 7.283812713623046875e+01 4.103022003173828125e+01 -1.012626051902770996e+00 9.107196807861328125e+00 2.428371191024780273e+00 2.826794981956481934e-01
2.712000000000000000e+03 6.709910392761230469e+00 2.783466339111328125e+01 -8.122088911477476358e-05 -2.719588337640743703e-06 -2.518214205338153988e-05 -8.516114758094772696e-05
2.713000000000000000e+03 8.268058776855468750e+00 -1.343852233886718750e+01 4.092165327165275812e-04 2.881566178984940052e-04 2.092119539156556129e-04 9.535466233501210809e-05
2.714000000000000000e+03 1.026436042785644531e+01 -1.218499088287353516e+01 4.347414360381662846e-04 -4.472203436307609081e-04 -3.743673460121499375e-06 1.884748635347932577e-04
2.715000000000000000e+03 7.159175109863281250e+01 -3.053890228271484375e+01 2.686699619516730309e-03 6.965549945831298828e+00 2.090471029281616211e+00 1.794479601085186005e-02
2.716000000000000000e+03 7.234082794189453125e+01 3.331546020507812500e+01 1.232223629951477051e+00 8.664464950561523438e+00 2.969006538391113281e+00 8.561740517616271973e-01
2.717000000000000000e+03 8.942529678344726562e+00 2.262904357910156250e+01 4.812986662727780640e-05 -7.592167094117030501e-05 -8.337540748470928520e-06 -6.414499512175098062e-05
2.718000000000000000e+03 6.253515625000000000e+01 2.852054214477539062e+01 1.543849706649780273e+00 6.632864952087402344e+00 2.453014373779296875e+00 5.321216106414794922e+00
2.719000000000000000e+03 6.059020996093750000e+01 2.784375953674316406e+01 7.678126692771911621e-01 2.206142902374267578e+00 8.921867012977600098e-01 2.815629959106445312e+00
2.720000000000000000e+03 6.227093124389648438e+01 3.451056671142578125e+01 6.311737895011901855e-01 6.754169464111328125e+00 2.215602874755859375e+00 -3.870658636093139648e+00
2.721000000000000000e+03 6.352524185180664062e+01 2.734577178955078125e+01 -2.945103049278259277e-01 1.072132778167724609e+01 3.128045320510864258e+00 4.122628211975097656e+00
2.722000000000000000e+03 6.686949920654296875e+01 3.130751991271972656e+01 6.089088439941406250e+00 1.286215496063232422e+01 5.685372829437255859e+00 8.262871503829956055e-01
2.723000000000000000e+03 6.625836944580078125e+01 2.932440948486328125e+01 4.116007804870605469e+00 1.468677616119384766e+01 5.640835285186767578e+00 -1.992692589759826660e+00
2.724000000000000000e+03 6.600181579589843750e+01 2.945682525634765625e+01 4.284541606903076172e+00 1.554012012481689453e+01 5.947398662567138672e+00 -1.994151473045349121e+00
2.725000000000000000e+03 6.709458160400390625e+01 2.947505378723144531e+01 4.188946247100830078e+00 1.285409832000732422e+01 5.112913608551025391e+00 -1.619807481765747070e+00
2.726000000000000000e+03 7.198255157470703125e+01 2.869515800476074219e+01 1.464455366134643555e+00 8.656237602233886719e+00 3.036207675933837891e+00 -9.491412639617919922e-01
2.727000000000000000e+03 6.680445098876953125e+01 3.023791503906250000e+01 5.912204265594482422e+00 1.300777626037597656e+01 5.675993919372558594e+00 -1.033563613891601562e+00
2.728000000000000000e+03 6.600930786132812500e+01 2.861506462097167969e+01 1.747041344642639160e+00 1.513464736938476562e+01 5.064506530761718750e+00 -1.257052302360534668e+00
2.729000000000000000e+03 6.692534637451171875e+01 3.163792037963867188e+01 5.630673408508300781e+00 1.290810394287109375e+01 5.561633110046386719e+00 1.319855928421020508e+00
2.730000000000000000e+03 6.589528656005859375e+01 2.831990432739257812e+01 1.104311227798461914e+00 1.507294845581054688e+01 4.853178024291992188e+00 -9.106849431991577148e-01
2.731000000000000000e+03 6.550754547119140625e+01 2.804113769531250000e+01 1.865768581628799438e-01 1.510720634460449219e+01 4.588134765625000000e+00 6.265521794557571411e-02
2.732000000000000000e+03 6.516371917724609375e+01 2.804461479187011719e+01 -1.025383174419403076e-01 1.524487209320068359e+01 4.542700290679931641e+00 7.676828503608703613e-01
2.733000000000000000e+03 6.562832641601562500e+01 3.373403549194335938e+01 1.281658858060836792e-01 1.531416893005371094e+01 4.632700443267822266e+00 4.826747179031372070e-01
2.734000000000000000e+03 6.717601776123046875e+01 3.055698394775390625e+01 5.765476703643798828e+00 1.230096244812011719e+01 5.419931411743164062e+00 -4.521046876907348633e-01
2.735000000000000000e+03 6.599398803710937500e+01 3.317895126342773438e+01 1.617163896560668945e+00 1.545067787170410156e+01 5.120352745056152344e+00 1.576997041702270508e+00
2.736000000000000000e+03 6.717934417724609375e+01 3.113212585449218750e+01 5.697427272796630859e+00 1.229630947113037109e+01 5.398120880126953125e+00 4.912717044353485107e-01
2.737000000000000000e+03 6.498677062988281250e+01 3.371191024780273438e+01 -3.167191743850708008e-01 1.560948848724365234e+01 4.587831020355224609e+00 -7.513949275016784668e-01
2.738000000000000000e+03 6.531992340087890625e+01 3.396651077270507812e+01 -3.356049060821533203e-01 1.513610363006591797e+01 4.440149784088134766e+00 -1.982687562704086304e-01
2.739000000000000000e+03 6.648544311523437500e+01 3.319955062866210938e+01 1.928240418434143066e+00 1.439812946319580078e+01 4.897911071777343750e+00 1.751933217048645020e+00
2.740000000000000000e+03 6.643808746337890625e+01 3.271031951904296875e+01 3.070518016815185547e+00 1.456162071228027344e+01 5.289641380310058594e+00 2.047733306884765625e+00
2.741000000000000000e+03 7.140573120117187500e+01 3.083909797668457031e+01 2.104462385177612305e+00 8.853255271911621094e+00 3.287315368652343750e+00 -9.146570414304733276e-02
2.742000000000000000e+03 6.198855972290039062e+01 3.376145553588867188e+01 1.267732620239257812e+00 5.177805900573730469e+00 1.933661460876464844e+00 -3.835705041885375977e+00
2.743000000000000000e+03 6.300555419921875000e+01 3.419642639160156250e+01 2.818501293659210205e-01 9.189108848571777344e+00 2.841287612915039062e+00 -4.135268688201904297e+00
2.744000000000000000e+03 6.374575805664062500e+01 3.482731628417968750e+01 -7.078678011894226074e-01 1.136518859863281250e+01 3.197196245193481445e+00 -2.966782331466674805e+00
2.745000000000000000e+03 6.180675125122070312e+01 2.835281944274902344e+01 1.397732853889465332e+00 4.014247417449951172e+00 1.623594164848327637e+00 4.175293445587158203e+00
2.746000000000000000e+03 5.756621932983398438e+01 2.654601860046386719e+01 -1.834736019372940063e-02 9.615107178688049316e-01 2.829490005970001221e-01 1.234015464782714844e+00
2.747000000000000000e+03 5.802718353271484375e+01 2.647685432434082031e+01 1.225163191556930542e-01 1.166338205337524414e+00 3.866563439369201660e-01 1.463349342346191406e+00
2.748000000000000000e+03 5.938593292236328125e+01 2.682909393310546875e+01 4.533406794071197510e-01 1.809625029563903809e+00 6.788896918296813965e-01 2.171699285507202148e+00
2.749000000000000000e+03 5.899042510986328125e+01 2.716376876831054688e+01 2.090756297111511230e-01 1.306823253631591797e+00 4.547696709632873535e-01 1.778170824050903320e+00
2.750000000000000000e+03 5.303702926635742188e+01 2.663021469116210938e+01 -8.968155980110168457e-01 2.317450791597366333e-01 -1.995211541652679443e-01 5.680202692747116089e-02
2.751000000000000000e+03 6.308039474487304688e+01 3.498902130126953125e+01 -2.884821891784667969e-01 9.282562255859375000e+00 2.698224067687988281e+00 -3.319474458694458008e+00
2.752000000000000000e+03 6.181194686889648438e+01 3.430897903442382812e+01 8.373640179634094238e-01 5.287355422973632812e+00 1.837415814399719238e+00 -3.475047349929809570e+00
2.753000000000000000e+03 5.582339477539062500e+01 2.659573745727539062e+01 -4.726327359676361084e-01 4.965327084064483643e-01 7.169992662966251373e-03 6.044659614562988281e-01
2.754000000000000000e+03 4.525804901123046875e+01 2.672209167480468750e+01 -9.471219182014465332e-01 1.313675045967102051e-01 -2.447263151407241821e-01 -4.399063587188720703e-01
2.755000000000000000e+03 3.242705917358398438e+01 2.831887245178222656e+01 -3.664705157279968262e-01 -6.480256095528602600e-03 -1.118852347135543823e-01 -3.702671229839324951e-01
2.756000000000000000e+03 2.962066841125488281e+01 2.954918479919433594e+01 -2.460763305425643921e-01 -3.736100345849990845e-02 -8.503119647502899170e-02 -2.561541497707366943e-01
2.757000000000000000e+03 2.886927032470703125e+01 2.976167678833007812e+01 -2.143277972936630249e-01 -4.607425630092620850e-02 -7.812061905860900879e-02 -2.321542054414749146e-01
2.758000000000000000e+03 3.063528251647949219e+01 2.705427169799804688e+01 -2.586190700531005859e-01 -7.356267422437667847e-02 -9.965451806783676147e-02 -3.899713754653930664e-01
2.759000000000000000e+03 3.316317749023437500e+01 2.815849113464355469e+01 -4.029041826725006104e-01 7.056331727653741837e-03 -1.187543570995330811e-01 -3.901562988758087158e-01
2.760000000000000000e+03 2.994900321960449219e+01 2.787016105651855469e+01 -2.438818216323852539e-01 -6.963709741830825806e-02 -9.405567497014999390e-02 -3.367404639720916748e-01
2.761000000000000000e+03 2.748272705078125000e+01 2.849740409851074219e+01 -1.520463973283767700e-01 -1.045402511954307556e-01 -7.697599381208419800e-02 -2.469633370637893677e-01
2.762000000000000000e+03 5.446514129638671875e+01 2.660927391052246094e+01 -7.199699282646179199e-01 3.288201689720153809e-01 -1.173449307680130005e-01 2.878584265708923340e-01
2.763000000000000000e+03 5.569099426269531250e+01 2.597212600708007812e+01 -2.431676536798477173e-01 6.568717360496520996e-01 1.241112351417541504e-01 6.976364850997924805e-01
2.764000000000000000e+03 2.937427330017089844e+01 2.880712699890136719e+01 -2.319786399602890015e-01 -5.773336812853813171e-02 -8.691360056400299072e-02 -2.843551337718963623e-01
2.765000000000000000e+03 3.827303314208984375e+01 2.730923080444335938e+01 -6.449507474899291992e-01 8.283328264951705933e-02 -1.686352491378784180e-01 -4.799249768257141113e-01
2.766000000000000000e+03 3.776359558105468750e+01 2.816089820861816406e+01 -6.720920801162719727e-01 7.883714884519577026e-02 -1.779764741659164429e-01 -4.271295964717864990e-01
2.767000000000000000e+03 5.375575637817382812e+01 2.661932945251464844e+01 -8.166642785072326660e-01 2.775645554065704346e-01 -1.617299318313598633e-01 1.657232046127319336e-01
2.768000000000000000e+03 3.389358901977539062e+01 2.801905632019042969e+01 -4.360294342041015625e-01 1.865703053772449493e-02 -1.252117156982421875e-01 -4.057485759258270264e-01
2.769000000000000000e+03 3.463981246948242188e+01 2.791806602478027344e+01 -4.711397290229797363e-01 3.036341071128845215e-02 -1.322328895330429077e-01 -4.216435253620147705e-01
2.770000000000000000e+03 4.501204299926757812e+01 2.534860801696777344e+01 -6.843395829200744629e-01 1.687661111354827881e-01 -1.546720415353775024e-01 -4.859126210212707520e-01
2.771000000000000000e+03 3.538852691650390625e+01 2.782721138000488281e+01 -5.098038315773010254e-01 4.296203330159187317e-02 -1.400525420904159546e-01 -4.348821938037872314e-01
2.772000000000000000e+03 4.992500305175781250e+01 2.608806991577148438e+01 -8.584824204444885254e-01 1.920695006847381592e-01 -1.999238729476928711e-01 -2.265307605266571045e-01
2.773000000000000000e+03 4.928126907348632812e+01 2.686383628845214844e+01 -1.103081703186035156e+00 1.350284367799758911e-01 -2.904160022735595703e-01 -2.754483520984649658e-01
2.774000000000000000e+03 4.511983871459960938e+01 2.603345298767089844e+01 -8.103113174438476562e-01 1.483010053634643555e-01 -1.986030936241149902e-01 -4.676331579685211182e-01
2.775000000000000000e+03 4.140512466430664062e+01 2.732998466491699219e+01 -8.349676728248596191e-01 1.097568273544311523e-01 -2.175632566213607788e-01 -4.690779745578765869e-01
2.776000000000000000e+03 5.069829559326171875e+01 2.602410697937011719e+01 -8.146504759788513184e-01 2.146036624908447266e-01 -1.800140440464019775e-01 -1.618722081184387207e-01
2.777000000000000000e+03 4.066847229003906250e+01 2.749085235595703125e+01 -8.064506053924560547e-01 1.052395328879356384e-01 -2.103633284568786621e-01 -4.637425541877746582e-01
2.778000000000000000e+03 4.836391067504882812e+01 2.627902412414550781e+01 -9.245326519012451172e-01 1.613184958696365356e-01 -2.289642542600631714e-01 -3.313433527946472168e-01
2.779000000000000000e+03 9.518173217773437500e+00 6.748216629028320312e+00 -5.083031282993033528e-05 -3.850338543998077512e-05 -2.680010948097333312e-05 -3.786950037465430796e-05
2.780000000000000000e+03 5.156805419921875000e+01 2.667478942871093750e+01 -1.007272243499755859e+00 1.754673719406127930e-01 -2.495414614677429199e-01 -1.088164374232292175e-01
2.781000000000000000e+03 4.044386291503906250e+01 2.672324180603027344e+01 -7.126962542533874512e-01 1.089459881186485291e-01 -1.811250895261764526e-01 -5.102299451828002930e-01
2.782000000000000000e+03 2.728034019470214844e+01 2.766973495483398438e+01 -1.391654163599014282e-01 -1.301254481077194214e-01 -8.078725636005401611e-02 -2.657232284545898438e-01
2.783000000000000000e+03 4.666453552246093750e+01 2.583225822448730469e+01 -8.020184040069580078e-01 1.681491881608963013e-01 -1.901607662439346313e-01 -4.171045720577239990e-01
2.784000000000000000e+03 5.745508575439453125e+01 2.601877021789550781e+01 1.073522269725799561e-01 1.158022403717041016e+00 3.796124160289764404e-01 1.315488815307617188e+00
2.785000000000000000e+03 5.836226272583007812e+01 2.627187728881835938e+01 2.518646717071533203e-01 1.493135452270507812e+00 5.235000252723693848e-01 1.696496009826660156e+00
2.786000000000000000e+03 5.502978515625000000e+01 2.597236633300781250e+01 -3.664062321186065674e-01 5.362689495086669922e-01 5.095882341265678406e-02 5.170051455497741699e-01
2.787000000000000000e+03 5.145803070068359375e+01 2.598635292053222656e+01 -7.678261995315551758e-01 2.421441823244094849e-01 -1.577045917510986328e-01 -8.336424082517623901e-02
2.788000000000000000e+03 4.356034469604492188e+01 2.621660232543945312e+01 -7.894653677940368652e-01 1.348138004541397095e-01 -1.963954716920852661e-01 -4.979550838470458984e-01
2.789000000000000000e+03 7.009761047363281250e+01 -4.338803291320800781e+00 8.154431357979774475e-03 6.879128456115722656e+00 2.066184759140014648e+00 1.615455448627471924e-01
2.790000000000000000e+03 7.146342468261718750e+01 5.487177371978759766e-01 -3.421691432595252991e-02 7.234465122222900391e+00 2.160074472427368164e+00 1.529617458581924438e-01
2.791000000000000000e+03 7.218110656738281250e+01 2.506466865539550781e+00 -6.316802650690078735e-02 7.435041427612304688e+00 2.211562156677246094e+00 1.175945997238159180e-01
2.792000000000000000e+03 3.803239059448242188e+01 2.660825729370117188e+01 -5.819978117942810059e-01 7.836023718118667603e-02 -1.510912626981735229e-01 -5.163772702217102051e-01
2.793000000000000000e+03 9.438950538635253906e+00 -8.131334304809570312e+00 -3.299507661722600460e-04 -2.227183576906099916e-04 -1.658007386140525341e-04 1.277688443224178627e-05
2.794000000000000000e+03 7.305718994140625000e+01 2.216643524169921875e+01 -3.419332802295684814e-01 8.454503059387207031e+00 2.433770895004272461e+00 -1.124874472618103027e+00
2.795000000000000000e+03 7.205746459960937500e+01 1.981142425537109375e+01 -6.097179651260375977e-01 8.489708900451660156e+00 2.363997459411621094e+00 -7.777278423309326172e-01
2.796000000000000000e+03 8.432883262634277344e+00 9.659762382507324219e+00 -7.165820989030180499e-06 -5.406999844126403332e-05 -1.837074523791670799e-05 -8.674227501614950597e-06
2.797000000000000000e+03 7.289543151855468750e+01 2.874108505249023438e+01 1.217053651809692383e+00 8.173444747924804688e+00 2.817149400711059570e+00 -8.635208010673522949e-01
2.798000000000000000e+03 7.193198394775390625e+01 2.763083267211914062e+01 1.088322520256042480e+00 8.758780479431152344e+00 2.954130887985229492e+00 -1.226879000663757324e+00
2.799000000000000000e+03 9.262343406677246094e+00 1.006928253173828125e+01 6.299112283159047365e-05 4.425977385835722089e-05 3.217527046217583120e-05 3.988818934885784984e-05
2.800000000000000000e+03 6.996434783935546875e+01 -5.556120872497558594e+00 2.170225977897644043e-02 6.841330051422119141e+00 2.058909654617309570e+00 1.578372567892074585e-01
2.801000000000000000e+03 8.912543296813964844e+00 8.236520767211914062e+00 -4.401646947371773422e-05 -4.774082844960503280e-05 -2.752718864940106869e-05 -7.724745955783873796e-05
2.802000000000000000e+03 1.024162578582763672e+01 -6.744877338409423828e+00 -1.672829384915530682e-04 -1.589056046213954687e-04 -9.785656584426760674e-05 6.403389852494001389e-05
2.803000000000000000e+03 2.877794456481933594e+01 1.752531814575195312e+01 -1.177996024489402771e-02 -4.459801912307739258e-01 -1.373280435800552368e-01 -5.143740177154541016e-01
2.804000000000000000e+03 2.907326126098632812e+01 2.187106132507324219e+01 -9.581972658634185791e-02 -2.751836478710174561e-01 -1.113010123372077942e-01 -4.884834885597229004e-01
2.805000000000000000e+03 7.249130249023437500e+00 7.483158111572265625e+00 -6.546452641487121582e-05 -3.913439286407083273e-06 -2.081338971038348973e-05 1.592318221810273826e-05
2.806000000000000000e+03 8.042830467224121094e+00 6.218473434448242188e+00 -5.656038410961627960e-05 -1.449983028578571975e-05 -2.131806468241848052e-05 -8.495705515088047832e-06
2.807000000000000000e+03 3.073914146423339844e+01 2.781174468994140625e+01 -2.781104147434234619e-01 -5.273189768195152283e-02 -9.925269335508346558e-02 -3.596193194389343262e-01
2.808000000000000000e+03 7.125035095214843750e+01 -2.906717777252197266e+00 -4.939117934554815292e-04 7.139101505279541016e+00 2.141582250595092773e+00 1.469226032495498657e-01
2.809000000000000000e+03 2.814279365539550781e+01 1.099343013763427734e+01 3.566783666610717773e-02 -7.107309103012084961e-01 -2.025189101696014404e-01 -4.552552103996276855e-01
2.810000000000000000e+03 2.837120819091796875e+01 1.486286544799804688e+01 1.875601895153522491e-02 -5.673918724060058594e-01 -1.645907461643218994e-01 -4.947252571582794189e-01
2.811000000000000000e+03 7.078241729736328125e+01 -1.055979061126708984e+01 2.412904240190982819e-02 6.962993621826171875e+00 2.096136808395385742e+00 1.182852461934089661e-01
2.812000000000000000e+03 7.056810760498046875e+01 -1.154007625579833984e+01 2.548665925860404968e-02 6.913040637969970703e+00 2.081558227539062500e+00 1.173704117536544800e-01
2.813000000000000000e+03 6.912652587890625000e+01 -2.441605949401855469e+01 3.506668284535408020e-02 6.550824642181396484e+00 1.975767493247985840e+00 7.253917306661605835e-02
2.814000000000000000e+03 6.959523773193359375e+01 -2.859983253479003906e+01 2.639311179518699646e-02 6.586359977722167969e+00 1.983825922012329102e+00 5.906428769230842590e-02
2.815000000000000000e+03 7.123731994628906250e+01 -1.721819305419921875e+01 2.176230400800704956e-02 6.985554695129394531e+00 2.102195024490356445e+00 8.985659480094909668e-02
2.816000000000000000e+03 7.063782501220703125e+01 -1.822721862792968750e+01 2.297366783022880554e-02 6.853717803955078125e+00 2.063007354736328125e+00 8.396557718515396118e-02
2.817000000000000000e+03 6.848049163818359375e+00 -8.323463439941406250e+00 5.097849061712622643e-04 -7.033025758573785424e-05 1.318364083999767900e-04 4.291642690077424049e-04
2.818000000000000000e+03 6.998897552490234375e+00 -9.220119476318359375e+00 -2.243030903628095984e-04 -4.110781010240316391e-04 -1.906143588712438941e-04 -2.989879576489329338e-04
2.819000000000000000e+03 7.284720611572265625e+01 1.852092552185058594e+01 -5.278531908988952637e-01 8.285174369812011719e+00 2.327196359634399414e+00 -7.006769180297851562e-01
2.820000000000000000e+03 7.241368103027343750e+01 1.593803119659423828e+01 -5.028173923492431641e-01 8.089453697204589844e+00 2.275990962982177734e+00 -4.107960164546966553e-01
2.821000000000000000e+03 7.135999298095703125e+01 1.257622909545898438e+01 -4.112081825733184814e-01 7.732122421264648438e+00 2.196274280548095703e+00 -1.011782810091972351e-01
2.822000000000000000e+03 7.182551574707031250e+01 6.173928737640380859e+00 -1.412971764802932739e-01 7.461163520812988281e+00 2.195960044860839844e+00 8.654532581567764282e-02
2.823000000000000000e+03 2.914694595336914062e+01 -4.631708145141601562e+00 5.858103558421134949e-02 -8.174277544021606445e-01 -2.276540249586105347e-01 -2.304334938526153564e-01
2.824000000000000000e+03 3.087277793884277344e+01 1.617611199617385864e-01 8.720771968364715576e-02 -5.482296943664550781e-01 -1.383066028356552124e-01 -3.096399903297424316e-01
2.825000000000000000e+03 7.120544433593750000e+01 2.773083686828613281e+01 1.278959393501281738e+00 9.208408355712890625e+00 3.146210193634033203e+00 -1.306371450424194336e+00
2.826000000000000000e+03 7.193825531005859375e+01 2.530078697204589844e+01 1.895898878574371338e-01 8.917787551879882812e+00 2.732213258743286133e+00 -1.341251850128173828e+00
2.827000000000000000e+03 7.252779388427734375e+01 2.445109558105468750e+01 -5.228793248534202576e-03 8.682740211486816406e+00 2.603253364562988281e+00 -1.311562418937683105e+00
2.828000000000000000e+03 3.050966644287109375e+01 1.185680580139160156e+01 5.961080640554428101e-02 -4.633308649063110352e-01 -1.211160123348236084e-01 -5.210664868354797363e-01
2.829000000000000000e+03 2.815557479858398438e+01 8.475655555725097656e+00 3.492900356650352478e-02 -7.765040397644042969e-01 -2.224725186824798584e-01 -4.227735102176666260e-01
2.830000000000000000e+03 2.928033065795898438e+01 1.087877273559570312e+01 5.071309581398963928e-02 -5.988717675209045410e-01 -1.644476056098937988e-01 -4.846657216548919678e-01
2.831000000000000000e+03 7.152971649169921875e+01 1.758275604248046875e+01 -6.411169767379760742e-01 8.249947547912597656e+00 2.282649278640747070e+00 -4.663753807544708252e-01
2.832000000000000000e+03 7.087453460693359375e+01 9.876427650451660156e+00 -2.891992628574371338e-01 7.465536117553710938e+00 2.152900934219360352e+00 3.151013702154159546e-02
2.833000000000000000e+03 8.304733276367187500e+00 -2.257684898376464844e+01 -5.929554026806727052e-05 7.116734632290899754e-04 1.957133790710940957e-04 -1.586951548233628273e-04
2.834000000000000000e+03 7.140442657470703125e+01 3.340279579162597656e+00 -7.605145871639251709e-02 7.285523414611816406e+00 2.162841558456420898e+00 1.327034085988998413e-01
2.835000000000000000e+03 9.200422286987304688e+00 -9.989650726318359375e+00 -2.178695431211963296e-04 2.101114951074123383e-04 -2.327416268599336036e-06 -9.592947026249021292e-05
2.836000000000000000e+03 7.592006683349609375e+00 -1.020467853546142578e+01 5.552575657929992303e-06 5.720430053770542145e-04 1.732786768116056919e-04 1.812692062230780721e-04
2.837000000000000000e+03 8.041891098022460938e+00 1.406611156463623047e+01 1.597512891748920083e-05 8.702389095560647547e-06 7.403255494864424691e-06 8.193656685762107372e-05
2.838000000000000000e+03 2.958486938476562500e+01 1.454750728607177734e+01 2.913661487400531769e-02 -4.845960140228271484e-01 -1.366378217935562134e-01 -5.291970372200012207e-01
2.839000000000000000e+03 6.950504779815673828e+00 2.026573371887207031e+01 -2.186742676713038236e-05 -8.715761941857635975e-05 -3.270751403761096299e-05 3.374122388777323067e-05
2.840000000000000000e+03 8.163912773132324219e+00 1.796749114990234375e+01 1.078290224540978670e-04 7.598773663630709052e-05 5.514502845471724868e-05 1.260857152374228463e-05
2.841000000000000000e+03 2.922244644165039062e+01 -7.186159610748291016e+00 5.765265971422195435e-02 -8.169349431991577148e-01 -2.277846783399581909e-01 -2.109159976243972778e-01
2.842000000000000000e+03 7.151720523834228516e+00 -1.832768058776855469e+01 4.530670412350445986e-04 -3.819071280304342508e-04 2.134797614417038858e-05 3.138120810035616159e-04
2.843000000000000000e+03 7.719675540924072266e+00 -2.091049957275390625e+01 -1.944525429280474782e-04 6.336076767183840275e-04 1.317465357715263963e-04 -2.739418960118200630e-05
2.844000000000000000e+03 2.923810195922851562e+01 -5.878748416900634766e+00 6.086826324462890625e-02 -8.021103739738464355e-01 -2.223726361989974976e-01 -2.221873402595520020e-01
2.845000000000000000e+03 7.106095123291015625e+01 1.491443991661071777e+00 -5.464017018675804138e-02 7.149415493011474609e+00 2.128432512283325195e+00 1.457869410514831543e-01
2.846000000000000000e+03 7.134797096252441406e+00 2.249379539489746094e+01 1.523909159004688263e-04 -2.488980499038007110e-05 3.825033491011708975e-05 -5.773003795184195042e-05
2.847000000000000000e+03 8.129895210266113281e+00 2.171911239624023438e+01 -1.895426612463779747e-05 1.845952829171437770e-05 -1.484213498770259321e-07 6.698969809804111719e-05
2.848000000000000000e+03 7.303240299224853516e+00 -2.584895133972167969e+01 9.042446035891771317e-04 -9.993819985538721085e-04 -2.854122067219577730e-05 1.692993246251717210e-04
2.849000000000000000e+03 7.203976631164550781e+00 -2.197057723999023438e+01 1.943040406331419945e-04 -4.799685266334563494e-04 -8.569935016566887498e-05 -1.194634314742870629e-04
2.850000000000000000e+03 8.460883140563964844e+00 -2.476191711425781250e+01 5.559782730415463448e-04 1.720482134260237217e-03 6.829380872659385204e-04 -1.538315555080771446e-04
2.851000000000000000e+03 3.015046501159667969e+01 2.865720939636230469e+01 -2.640371322631835938e-01 -4.555530473589897156e-02 -9.287773072719573975e-02 -3.070984780788421631e-01
2.852000000000000000e+03 9.916520118713378906e+00 3.205503845214843750e+01 -4.333877295721322298e-04 1.215321390191093087e-04 -9.355667862109839916e-05 -1.526555424788966775e-04
2.853000000000000000e+03 7.163397979736328125e+01 3.239746093750000000e+01 1.759011268615722656e+00 8.865213394165039062e+00 3.187267541885375977e+00 6.461275219917297363e-01
2.854000000000000000e+03 6.689118957519531250e+01 3.081500244140625000e+01 6.344129562377929688e+00 1.271778964996337891e+01 5.718575954437255859e+00 -1.032952293753623962e-01
2.855000000000000000e+03 2.856211471557617188e+01 -2.042354011535644531e+01 3.796398267149925232e-02 -9.418047666549682617e-01 -2.711522281169891357e-01 -1.087637171149253845e-01
2.856000000000000000e+03 3.174738693237304688e+01 -2.319323158264160156e+01 4.627430438995361328e-02 -3.680802583694458008e-01 -9.654178470373153687e-02 -6.992967426776885986e-02
2.857000000000000000e+03 3.092552566528320312e+01 -2.157332992553710938e+01 4.648366570472717285e-02 -5.028831362724304199e-01 -1.369198411703109741e-01 -8.107459545135498047e-02
2.858000000000000000e+03 6.849907684326171875e+01 -2.210920524597167969e+01 3.291393816471099854e-02 6.444688796997070312e+00 1.943280816078186035e+00 7.885505259037017822e-02
2.859000000000000000e+03 9.149795532226562500e+00 -1.247805786132812500e+01 5.422668764367699623e-04 -3.568878164514899254e-04 5.561371290241368115e-05 3.488037618808448315e-04
2.860000000000000000e+03 2.937689781188964844e+01 7.306334018707275391e+00 5.400463193655014038e-02 -6.569298505783081055e-01 -1.808775812387466431e-01 -4.297417104244232178e-01
2.861000000000000000e+03 2.888357543945312500e+01 -1.345009708404541016e+01 3.022526390850543976e-02 -8.721105456352233887e-01 -2.525655627250671387e-01 -1.461875736713409424e-01
2.862000000000000000e+03 2.867133712768554688e+01 -1.220729732513427734e+01 2.790338546037673950e-02 -9.027235507965087891e-01 -2.624460458755493164e-01 -1.540528088808059692e-01
2.863000000000000000e+03 7.128184509277343750e+01 3.412798690795898438e+01 1.092729568481445312e+00 9.283545494079589844e+00 3.112882614135742188e+00 1.135390996932983398e+00
2.864000000000000000e+03 7.808716773986816406e+00 2.353864669799804688e+01 -2.167713682865723968e-04 5.676135697285644710e-05 -4.800300666829571128e-05 7.548306894022971392e-05
2.865000000000000000e+03 1.027103137969970703e+01 -2.947524070739746094e+01 1.476946752518415451e-03 1.842182362452149391e-03 9.957387810572981834e-04 -2.524014562368392944e-03
2.866000000000000000e+03 1.047682762145996094e+01 -2.825987434387207031e+01 2.018019556999206543e-03 8.823729003779590130e-04 8.701177430339157581e-04 -2.156691189156845212e-04
2.867000000000000000e+03 2.776665496826171875e+01 2.472321701049804688e+01 -1.173997521400451660e-01 -2.241832613945007324e-01 -1.024749055504798889e-01 -3.791289031505584717e-01
2.868000000000000000e+03 2.761768341064453125e+01 2.586259460449218750e+01 -1.309643387794494629e-01 -1.845988184213638306e-01 -9.466894716024398804e-02 -3.403071165084838867e-01
2.869000000000000000e+03 2.858536720275878906e+01 2.902441024780273438e+01 -1.994841396808624268e-01 -6.804938614368438721e-02 -8.026006072759628296e-02 -2.559033930301666260e-01
2.870000000000000000e+03 2.927456665039062500e+01 9.676020622253417969e+00 5.207537859678268433e-02 -6.263554692268371582e-01 -1.722840368747711182e-01 -4.653101861476898193e-01
2.871000000000000000e+03 2.847044181823730469e+01 3.748572111129760742e+00 3.283130005002021790e-02 -8.311890959739685059e-01 -2.395073324441909790e-01 -3.437561392784118652e-01
2.872000000000000000e+03 7.061410522460937500e+01 -2.154126930236816406e+01 2.409850805997848511e-02 6.839176177978515625e+00 2.058982372283935547e+00 7.073897123336791992e-02
2.873000000000000000e+03 2.873747253417968750e+01 2.695142745971679688e+00 4.523568972945213318e-02 -8.057620525360107422e-01 -2.281579077243804932e-01 -3.273932337760925293e-01
2.874000000000000000e+03 2.974345779418945312e+01 3.094499111175537109e+00 5.688224360346794128e-02 -6.776789426803588867e-01 -1.862390041351318359e-01 -3.538015782833099365e-01
2.875000000000000000e+03 7.129299163818359375e+01 -2.013044738769531250e+01 1.978891156613826752e-02 6.974102020263671875e+00 2.098167181015014648e+00 7.273339480161666870e-02
2.876000000000000000e+03 2.945088005065917969e+01 1.330539798736572266e+01 3.833599388599395752e-02 -5.267111063003540039e-01 -1.465125381946563721e-01 -5.155292153358459473e-01
2.877000000000000000e+03 8.140305519104003906e+00 -1.220534420013427734e+01 -4.393204289954155684e-04 5.341813084669411182e-05 -1.157706865342333913e-04 -2.260751643916592002e-04
2.878000000000000000e+03 7.126664733886718750e+01 2.462509155273437500e+01 -6.912291049957275391e-02 9.230258941650390625e+00 2.748340845108032227e+00 -1.301931858062744141e+00
2.879000000000000000e+03 7.118171691894531250e+01 2.274448013305664062e+01 -4.827464222908020020e-01 9.068187713623046875e+00 2.575632333755493164e+00 -1.051460027694702148e+00
2.880000000000000000e+03 7.102677917480468750e+01 7.365034103393554688e+00 -1.922000795602798462e-01 7.342919349670410156e+00 2.145215749740600586e+00 9.922716766595840454e-02
2.881000000000000000e+03 6.963330078125000000e+01 -1.744124412536621094e+01 3.033820725977420807e-02 6.659858226776123047e+00 2.007058858871459961e+00 8.981883525848388672e-02
2.882000000000000000e+03 2.916958427429199219e+01 -1.475610446929931641e+01 3.723046556115150452e-02 -8.207727074623107910e-01 -2.350626736879348755e-01 -1.309824883937835693e-01
2.883000000000000000e+03 7.135596466064453125e+01 -1.321677494049072266e+01 1.953237131237983704e-02 7.046760559082031250e+00 2.119887828826904297e+00 1.019633337855339050e-01
2.884000000000000000e+03 7.018661499023437500e+01 -1.259472274780273438e+01 2.793555147945880890e-02 6.798142910003662109e+00 2.047823667526245117e+00 1.206492409110069275e-01
2.885000000000000000e+03 8.400034904479980469e+00 3.519308090209960938e+01 4.398330638650804758e-04 4.126160888517915737e-07 1.320737064816057682e-04 2.592024684417992830e-04
2.886000000000000000e+03 7.118798065185546875e+01 -2.691031837463378906e+01 2.626824192702770233e-02 6.877595424652099609e+00 2.071159124374389648e+00 4.308154433965682983e-02
2.887000000000000000e+03 7.052988433837890625e+01 1.182206058502197266e+01 -3.915972411632537842e-01 7.546911716461181641e+00 2.146594285964965820e+00 3.897993825376033783e-03
2.888000000000000000e+03 3.014486694335937500e+01 2.387013196945190430e+00 7.683343440294265747e-02 -6.203210949897766113e-01 -1.630463004112243652e-01 -3.466066122055053711e-01
2.889000000000000000e+03 3.069241523742675781e+01 3.214648723602294922e+00 7.476093620061874390e-02 -5.331054329872131348e-01 -1.375033408403396606e-01 -3.704687952995300293e-01
2.890000000000000000e+03 2.821301460266113281e+01 -2.982367515563964844e+01 -1.585091347806155682e-03 -9.547551274299621582e-01 -2.869020700454711914e-01 -6.154285371303558350e-02
2.891000000000000000e+03 3.087978172302246094e+01 1.927823448181152344e+01 -5.131067708134651184e-02 -2.774309217929840088e-01 -9.862247854471206665e-02 -5.749484896659851074e-01
2.892000000000000000e+03 3.050871467590332031e+01 2.091182899475097656e+01 -9.096156060695648193e-02 -2.523345351219177246e-01 -1.029888316988945007e-01 -5.474153757095336914e-01
2.893000000000000000e+03 2.900385093688964844e+01 -2.231065940856933594e+01 3.849995136260986328e-02 -8.448201417922973633e-01 -2.418960630893707275e-01 -9.259387105703353882e-02
2.894000000000000000e+03 2.843858528137207031e+01 -2.543802452087402344e+01 1.903180219233036041e-02 -9.134932756423950195e-01 -2.683384418487548828e-01 -9.566558152437210083e-02
2.895000000000000000e+03 8.984683036804199219e+00 1.321690654754638672e+01 -1.546245584904681891e-06 1.198118661704938859e-05 3.130482355118147098e-06 -5.907301965635269880e-05
2.896000000000000000e+03 6.294156646728515625e+01 2.754682159423828125e+01 3.250120878219604492e-01 8.866085052490234375e+00 2.757328987121582031e+00 4.726272106170654297e+00
2.897000000000000000e+03 6.308038330078125000e+01 2.703913688659667969e+01 -1.179163455963134766e-01 9.101711273193359375e+00 2.695138692855834961e+00 4.179752349853515625e+00
2.898000000000000000e+03 6.235269546508789062e+01 2.778916931152343750e+01 8.945947885513305664e-01 6.526591777801513672e+00 2.226356029510498047e+00 4.791498661041259766e+00
2.899000000000000000e+03 6.446155548095703125e+01 3.379831314086914062e+01 -6.268345713615417480e-01 1.495854377746582031e+01 4.299512863159179688e+00 -2.195686817169189453e+00
2.900000000000000000e+03 6.491439056396484375e+01 3.579912185668945312e+01 -1.211591958999633789e+00 1.195687389373779297e+01 3.223584413528442383e+00 -1.357446670532226562e+00
2.901000000000000000e+03 7.043325042724609375e+01 2.985252380371093750e+01 2.512341499328613281e+00 9.399272918701171875e+00 3.573484182357788086e+00 -6.369608044624328613e-01
2.902000000000000000e+03 6.687712860107421875e+01 3.197718238830566406e+01 4.913863658905029297e+00 1.313753318786621094e+01 5.415419101715087891e+00 1.675020933151245117e+00
2.903000000000000000e+03 6.489230346679687500e+01 2.794391059875488281e+01 -3.873700499534606934e-01 1.505936145782470703e+01 4.401597499847412109e+00 1.428826212882995605e+00
2.904000000000000000e+03 7.177189636230468750e+01 2.978316688537597656e+01 1.863984823226928711e+00 8.698064804077148438e+00 3.168614864349365234e+00 -5.644893646240234375e-01
2.905000000000000000e+03 6.413784027099609375e+01 2.734938812255859375e+01 -7.051982879638671875e-01 1.254671096801757812e+01 3.552453756332397461e+00 3.227790117263793945e+00
2.906000000000000000e+03 6.230367279052734375e+01 2.807808303833007812e+01 1.195175409317016602e+00 6.058346748352050781e+00 2.176056623458862305e+00 4.879299640655517578e+00
2.907000000000000000e+03 6.608779144287109375e+01 3.373989105224609375e+01 5.490110516548156738e-01 1.481018543243408203e+01 4.607758998870849609e+00 1.089216947555541992e+00
2.908000000000000000e+03 6.416047668457031250e+01 3.479276275634765625e+01 -9.484910964965820312e-01 1.241976737976074219e+01 3.441382884979248047e+00 -2.533001899719238281e+00
2.909000000000000000e+03 6.476184844970703125e+01 3.410960769653320312e+01 -8.004881143569946289e-01 1.447318744659423828e+01 4.101809978485107422e+00 -1.594648361206054688e+00
2.910000000000000000e+03 6.511994171142578125e+01 3.440813827514648438e+01 -7.642670273780822754e-01 1.407393264770507812e+01 3.992899656295776367e+00 -9.312871098518371582e-01
2.911000000000000000e+03 6.870227050781250000e+01 2.966753959655761719e+01 3.415224313735961914e+00 1.069808101654052734e+01 4.233991622924804688e+00 -1.017307519912719727e+00
2.912000000000000000e+03 6.693041992187500000e+01 3.274392700195312500e+01 3.107079029083251953e+00 1.341260147094726562e+01 4.955904006958007812e+00 1.910347223281860352e+00
2.913000000000000000e+03 6.566046142578125000e+01 3.417254257202148438e+01 -2.616773545742034912e-01 1.449222946166992188e+01 4.269165515899658203e+00 1.842298954725265503e-01
2.914000000000000000e+03 7.088406372070312500e+01 3.311522293090820312e+01 1.737866401672363281e+00 9.381472587585449219e+00 3.335801601409912109e+00 1.017395615577697754e+00
2.915000000000000000e+03 6.815016174316406250e+01 3.106114006042480469e+01 4.440706729888916016e+00 1.103521347045898438e+01 4.642776012420654297e+00 2.243199497461318970e-01
2.916000000000000000e+03 6.151792907714843750e+01 2.805945777893066406e+01 1.160298109054565430e+00 3.651735782623291016e+00 1.443610191345214844e+00 3.842050075531005859e+00
2.917000000000000000e+03 6.199476242065429688e+01 3.627785110473632812e+01 -5.242512747645378113e-02 6.741881847381591797e+00 2.006837129592895508e+00 -2.627293109893798828e+00
2.918000000000000000e+03 6.047326660156250000e+01 2.716413688659667969e+01 7.544274926185607910e-01 2.753857135772705078e+00 1.052485346794128418e+00 2.944252967834472656e+00
2.919000000000000000e+03 5.867028045654296875e+01 2.669595336914062500e+01 2.540148496627807617e-01 1.440804004669189453e+00 5.084456801414489746e-01 1.750873923301696777e+00
2.920000000000000000e+03 5.975856018066406250e+01 2.723887634277343750e+01 5.370216369628906250e-01 1.871363997459411621e+00 7.225157022476196289e-01 2.326329469680786133e+00
2.921000000000000000e+03 5.838171005249023438e+01 2.553083992004394531e+01 3.646451830863952637e-01 1.856340646743774414e+00 6.662957668304443359e-01 1.865424394607543945e+00
2.922000000000000000e+03 6.449153900146484375e+01 3.525614547729492188e+01 -1.121139287948608398e+00 1.238479423522949219e+01 3.379096269607543945e+00 -2.023065090179443359e+00
2.923000000000000000e+03 5.621437454223632812e+01 2.533201217651367188e+01 3.862646594643592834e-02 9.953004717826843262e-01 3.101780712604522705e-01 9.807639718055725098e-01
2.924000000000000000e+03 5.683936691284179688e+01 2.537151527404785156e+01 1.304705291986465454e-01 1.176204323768615723e+00 3.920024335384368896e-01 1.204505085945129395e+00
2.925000000000000000e+03 3.091669464111328125e+01 2.854969787597656250e+01 -2.967197895050048828e-01 -3.350903466343879700e-02 -9.906864166259765625e-02 -3.289212882518768311e-01
2.926000000000000000e+03 3.196227645874023438e+01 2.648143959045410156e+01 -2.980918288230895996e-01 -5.256550386548042297e-02 -1.051971986889839172e-01 -4.435670077800750732e-01
2.927000000000000000e+03 3.135855102539062500e+01 2.708320617675781250e+01 -2.934873700141906738e-01 -5.178849771618843079e-02 -1.035827621817588806e-01 -4.071754813194274902e-01
2.928000000000000000e+03 2.876587486267089844e+01 2.599295234680175781e+01 -1.690718680620193481e-01 -1.509013324975967407e-01 -9.599196165800094604e-02 -3.749400973320007324e-01
2.929000000000000000e+03 4.182026672363281250e+01 2.558199691772460938e+01 -6.367005705833435059e-01 1.313382685184478760e-01 -1.516086906194686890e-01 -5.480278134346008301e-01
2.930000000000000000e+03 5.434088897705078125e+01 2.597639656066894531e+01 -4.745685458183288574e-01 4.472943544387817383e-01 -8.182256482541561127e-03 3.629892766475677490e-01
2.931000000000000000e+03 3.612598419189453125e+01 2.773048019409179688e+01 -5.467144250869750977e-01 5.444511771202087402e-02 -1.476807892322540283e-01 -4.468874335289001465e-01
2.932000000000000000e+03 3.736179351806640625e+01 2.679120063781738281e+01 -5.596358776092529297e-01 7.004736363887786865e-02 -1.468765586614608765e-01 -5.061922073364257812e-01
2.933000000000000000e+03 3.201297760009765625e+01 2.702503204345703125e+01 -3.222027122974395752e-01 -3.568547591567039490e-02 -1.073664575815200806e-01 -4.180720448493957520e-01
2.934000000000000000e+03 3.668480682373046875e+01 2.694150733947753906e+01 -5.321310758590698242e-01 5.799297615885734558e-02 -1.422414183616638184e-01 -4.939536154270172119e-01
2.935000000000000000e+03 3.525173187255859375e+01 2.710397911071777344e+01 -4.710610210895538330e-01 3.392579779028892517e-02 -1.311405599117279053e-01 -4.716031551361083984e-01
2.936000000000000000e+03 3.597784423828125000e+01 2.703445816040039062e+01 -5.033111572265625000e-01 4.562649875879287720e-02 -1.373053938150405884e-01 -4.819124639034271240e-01
2.937000000000000000e+03 4.277056884765625000e+01 2.630616569519042969e+01 -7.702674269676208496e-01 1.290731281042098999e-01 -1.923583000898361206e-01 -5.072245001792907715e-01
2.938000000000000000e+03 4.424155426025390625e+01 2.541105651855468750e+01 -6.801015734672546387e-01 1.573848426342010498e-01 -1.568150222301483154e-01 -5.066030621528625488e-01
2.939000000000000000e+03 4.197722625732421875e+01 2.640608406066894531e+01 -7.489350438117980957e-01 1.220792233943939209e-01 -1.880567371845245361e-01 -5.128445625305175781e-01
2.940000000000000000e+03 4.265088272094726562e+01 2.551873397827148438e+01 -6.558800339698791504e-01 1.399338692426681519e-01 -1.547838449478149414e-01 -5.377911329269409180e-01
2.941000000000000000e+03 4.963801193237304688e+01 2.468095779418945312e+01 -4.881499707698822021e-01 3.076597750186920166e-01 -5.414705350995063782e-02 -2.031757384538650513e-01
2.942000000000000000e+03 4.979024887084960938e+01 2.538807487487792969e+01 -6.625405550003051758e-01 2.505421340465545654e-01 -1.235995218157768250e-01 -2.172137796878814697e-01
2.943000000000000000e+03 4.345740509033203125e+01 2.546527671813964844e+01 -6.704117059707641602e-01 1.500099450349807739e-01 -1.561205387115478516e-01 -5.233380198478698730e-01
2.944000000000000000e+03 4.758354949951171875e+01 2.638817024230957031e+01 -9.452763795852661133e-01 1.509741693735122681e-01 -2.382906526327133179e-01 -3.687967061996459961e-01
2.945000000000000000e+03 4.821802139282226562e+01 2.560716629028320312e+01 -7.531412839889526367e-01 1.983644217252731323e-01 -1.664330661296844482e-01 -3.370887041091918945e-01
2.946000000000000000e+03 5.057751464843750000e+01 2.531246566772460938e+01 -6.073264479637145996e-01 2.775322794914245605e-01 -9.893824905157089233e-02 -1.368688493967056274e-01
2.947000000000000000e+03 4.589277267456054688e+01 2.593572616577148438e+01 -8.102574348449707031e-01 1.580575257539749146e-01 -1.956599801778793335e-01 -4.460551142692565918e-01
2.948000000000000000e+03 4.743891525268554688e+01 2.572292137145996094e+01 -7.824772000312805176e-01 1.819013655185699463e-01 -1.801727563142776489e-01 -3.821146786212921143e-01
2.949000000000000000e+03 4.119514846801757812e+01 2.653561782836914062e+01 -7.299705147743225098e-01 1.144701242446899414e-01 -1.846501231193542480e-01 -5.133980512619018555e-01
2.950000000000000000e+03 3.970878219604492188e+01 2.693827629089355469e+01 -6.915352940559387207e-01 1.007885485887527466e-01 -1.772240251302719116e-01 -5.021363496780395508e-01
2.951000000000000000e+03 5.556473541259765625e+01 2.532162857055664062e+01 -6.940998882055282593e-02 8.162680268287658691e-01 2.240574061870574951e-01 7.747820019721984863e-01
2.952000000000000000e+03 5.292518615722656250e+01 2.597137260437011719e+01 -6.484964489936828613e-01 3.218090832233428955e-01 -9.800620377063751221e-02 1.060329228639602661e-01
2.953000000000000000e+03 5.363769912719726562e+01 2.597568893432617188e+01 -5.734807252883911133e-01 3.760660588741302490e-01 -5.922439321875572205e-02 2.217580825090408325e-01
2.954000000000000000e+03 5.796215438842773438e+01 2.559782218933105469e+01 2.779493033885955811e-01 1.612448334693908691e+00 5.671193003654479980e-01 1.633224844932556152e+00
2.955000000000000000e+03 8.184728622436523438e+00 -7.992249488830566406e+00 -6.487328937510028481e-05 -4.268960328772664070e-04 -1.475307944929227233e-04 -4.031112985103391111e-05
2.956000000000000000e+03 2.901366424560546875e+01 2.383652687072753906e+01 -1.360129863023757935e-01 -2.120017260313034058e-01 -1.044044122099876404e-01 -4.478931128978729248e-01
2.957000000000000000e+03 6.833621501922607422e+00 -7.388864517211914062e+00 -4.206747980788350105e-04 -1.135147831519134343e-04 -1.602568809175863862e-04 -3.513762785587459803e-04
2.958000000000000000e+03 5.219896316528320312e+01 2.597145652770996094e+01 -7.129406332969665527e-01 2.767620682716369629e-01 -1.308535784482955933e-01 3.092784201726317406e-03
2.959000000000000000e+03 5.869767761230468750e+01 3.687390136718750000e+01 7.405819892883300781e-01 2.108394861221313477e+00 8.546930551528930664e-01 -1.014313459396362305e+00
2.960000000000000000e+03 9.125499725341796875e+00 7.566377639770507812e+00 1.770946073520462960e-05 4.028214607387781143e-05 1.739748222462367266e-05 4.064097447553649545e-05
2.961000000000000000e+03 7.116507720947265625e+01 2.857440567016601562e+01 1.709193825721740723e+00 9.089786529541015625e+00 3.239694118499755859e+00 -1.048741221427917480e+00
2.962000000000000000e+03 6.894219970703125000e+01 -3.481200933456420898e+00 1.164635177701711655e-02 6.645931243896484375e+00 1.997273206710815430e+00 1.832615435123443604e-01
2.963000000000000000e+03 6.969604492187500000e+01 -6.845769405364990234e+00 2.262321300804615021e-02 6.766222476959228516e+00 2.036653757095336914e+00 1.499809324741363525e-01
2.964000000000000000e+03 9.230435371398925781e+00 -6.694269657135009766e+00 6.520019815070554614e-05 2.200409508077427745e-04 8.557234832551330328e-05 -6.769673291273647919e-06
2.965000000000000000e+03 7.195772552490234375e+01 1.354425811767578125e+01 -4.228503108024597168e-01 7.859950542449951172e+00 2.231130123138427734e+00 -1.954373866319656372e-01
2.966000000000000000e+03 7.214691162109375000e+01 2.091921424865722656e+01 -5.566864013671875000e-01 8.599052429199218750e+00 2.412709951400756836e+00 -9.219748973846435547e-01
2.967000000000000000e+03 3.993780899047851562e+01 2.766516685485839844e+01 -7.775857448577880859e-01 1.002993807196617126e-01 -2.031859010457992554e-01 -4.572329521179199219e-01
2.968000000000000000e+03 3.898181152343750000e+01 2.713254928588867188e+01 -6.701934337615966797e-01 9.026515483856201172e-02 -1.739784777164459229e-01 -4.911777377128601074e-01
2.969000000000000000e+03 6.920887756347656250e+01 -1.197244834899902344e+01 3.404160961508750916e-02 6.613859176635742188e+00 1.994370222091674805e+00 1.223507225513458252e-01
2.970000000000000000e+03 6.860654449462890625e+01 -1.278540039062500000e+01 3.489367663860321045e-02 6.513786315917968750e+00 1.964604020118713379e+00 1.262484490871429443e-01
2.971000000000000000e+03 7.213652038574218750e+01 2.199026679992675781e+01 -4.623516798019409180e-01 8.702793121337890625e+00 2.472132444381713867e+00 -1.056842088699340820e+00
2.972000000000000000e+03 7.126047515869140625e+01 2.088115882873535156e+01 -6.696709394454956055e-01 8.760708808898925781e+00 2.427311420440673828e+00 -8.028708100318908691e-01
2.973000000000000000e+03 2.913064384460449219e+01 2.799330711364746094e+01 -2.147072702646255493e-01 -8.124902099370956421e-02 -8.878688514232635498e-02 -3.102134466171264648e-01
2.974000000000000000e+03 2.802466773986816406e+01 2.736971282958984375e+01 -1.628431826829910278e-01 -1.279481649398803711e-01 -8.723740279674530029e-02 -3.069800138473510742e-01
2.975000000000000000e+03 3.198223114013671875e+01 1.868089866638183594e+01 -3.944035992026329041e-02 -2.334838807582855225e-01 -8.187726885080337524e-02 -6.008815169334411621e-01
2.976000000000000000e+03 3.002745056152343750e+01 1.703795814514160156e+01 -3.235835349187254906e-03 -3.839896917343139648e-01 -1.161676570773124695e-01 -5.554762482643127441e-01
2.977000000000000000e+03 7.057434844970703125e+01 2.774590873718261719e+01 1.371559500694274902e+00 9.578824043273925781e+00 3.285115003585815430e+00 -1.350227475166320801e+00
2.978000000000000000e+03 3.061066055297851562e+01 -3.576023817062377930e+00 8.177087455987930298e-02 -5.991492867469787598e-01 -1.552135199308395386e-01 -2.560178935527801514e-01
2.979000000000000000e+03 7.171276855468750000e+01 2.391592788696289062e+01 -2.008219510316848755e-01 9.003404617309570312e+00 2.640774726867675781e+00 -1.241384983062744141e+00
2.980000000000000000e+03 7.088461303710937500e+01 1.673976898193359375e+01 -6.593824028968811035e-01 8.131983757019042969e+00 2.241780281066894531e+00 -3.125003874301910400e-01
2.981000000000000000e+03 7.129130554199218750e+01 1.587091159820556641e+01 -5.907839536666870117e-01 8.041880607604980469e+00 2.235329151153564453e+00 -2.959988713264465332e-01
2.982000000000000000e+03 6.882020568847656250e+01 -1.857678031921386719e+01 2.690809778869152069e-02 6.497298717498779297e+00 1.957262039184570312e+00 9.262263774871826172e-02
2.983000000000000000e+03 3.065163421630859375e+01 1.300388813018798828e+01 5.380520597100257874e-02 -4.337304532527923584e-01 -1.139775738120079041e-01 -5.372719764709472656e-01
2.984000000000000000e+03 6.700020599365234375e+01 3.322382736206054688e+01 2.135990619659423828e+00 1.335354423522949219e+01 4.646860599517822266e+00 1.865431785583496094e+00
2.985000000000000000e+03 2.976782798767089844e+01 1.580226230621337891e+01 1.534796971827745438e-02 -4.358892142772674561e-01 -1.261623799800872803e-01 -5.428947806358337402e-01
2.986000000000000000e+03 3.122718811035156250e+01 1.655910110473632812e+01 9.848101064562797546e-03 -3.186044692993164062e-01 -9.262690693140029907e-02 -5.828145146369934082e-01
2.987000000000000000e+03 7.125622558593750000e+01 1.114471340179443359e+01 -3.418961167335510254e-01 7.599783897399902344e+00 2.177366256713867188e+00 -2.100792899727821350e-02
2.988000000000000000e+03 6.727600097656250000e+01 3.169964408874511719e+01 5.107550144195556641e+00 1.235486221313476562e+01 5.238723754882812500e+00 1.238557696342468262e+00
2.989000000000000000e+03 7.096393585205078125e+01 3.175506591796875000e+01 2.261017560958862305e+00 9.144309997558593750e+00 3.421598196029663086e+00 4.556804597377777100e-01
2.990000000000000000e+03 6.758115386962890625e+01 3.030163002014160156e+01 4.971935749053955078e+00 1.173856639862060547e+01 5.013150691986083984e+00 -7.004986405372619629e-01
2.991000000000000000e+03 3.039114379882812500e+01 1.074709510803222656e+01 6.627135723829269409e-02 -4.916830956935882568e-01 -1.276235282421112061e-01 -5.045837163925170898e-01
2.992000000000000000e+03 6.358604049682617188e+01 3.801534652709960938e+01 -1.061702966690063477e+00 8.882020950317382812e+00 2.346095323562622070e+00 -1.657841324806213379e+00
2.993000000000000000e+03 6.181293106079101562e+01 3.760168075561523438e+01 -2.931613326072692871e-01 6.545729160308837891e+00 1.875770449638366699e+00 -2.048597574234008789e+00
2.994000000000000000e+03 7.068402862548828125e+01 6.431851387023925781e+00 -1.679793298244476318e-01 7.250672817230224609e+00 2.124808073043823242e+00 1.211663112044334412e-01
2.995000000000000000e+03 7.174518585205078125e+01 4.028192043304443359e+00 -8.574480563402175903e-02 7.380592346191406250e+00 2.188454389572143555e+00 1.169331148266792297e-01
2.996000000000000000e+03 7.103813934326171875e+01 2.694193840026855469e+01 8.692073225975036621e-01 9.350177764892578125e+00 3.065815687179565430e+00 -1.394541621208190918e+00
2.997000000000000000e+03 7.127925109863281250e+01 2.583430099487304688e+01 3.924775719642639160e-01 9.245166778564453125e+00 2.891293287277221680e+00 -1.386433362960815430e+00
2.998000000000000000e+03 6.961969757080078125e+01 -2.084543466567993164e+00 -3.401395631954073906e-03 6.800751686096191406e+00 2.039205074310302734e+00 1.844049990177154541e-01
2.999000000000000000e+03 6.774391937255859375e+01 -2.362211990356445312e+01 2.980254404246807098e-02 6.298497200012207031e+00 1.898489952087402344e+00 7.787801325321197510e-02
3.000000000000000000e+03 7.122431182861328125e+01 -6.925210475921630859e+00 1.486593484878540039e-02 7.071806907653808594e+00 2.126001834869384766e+00 1.337222158908843994e-01
3.001000000000000000e+03 7.032408142089843750e+01 1.996506309509277344e+01 -8.142708539962768555e-01 8.701806068420410156e+00 2.366260766983032227e+00 -5.089042186737060547e-01
3.002000000000000000e+03 7.020913696289062500e+01 1.728194046020507812e+01 -7.393665313720703125e-01 8.203580856323242188e+00 2.239264249801635742e+00 -2.599052488803863525e-01
3.003000000000000000e+03 7.884682655334472656e+00 -1.655232810974121094e+01 -7.459840708179399371e-05 5.016112118028104305e-04 1.281038421439006925e-04 4.452841822057962418e-04
3.004000000000000000e+03 8.962263107299804688e+00 -1.671625137329101562e+01 -4.824276256840676069e-04 5.447290823212824762e-05 -1.283864112338051200e-04 -2.289966651005670428e-04
3.005000000000000000e+03 3.034885978698730469e+01 -1.306852722167968750e+01 4.226107895374298096e-02 -6.278371214866638184e-01 -1.756728142499923706e-01 -1.458457559347152710e-01
3.006000000000000000e+03 7.108477783203125000e+01 9.058066368103027344e+00 -2.537167966365814209e-01 7.461983680725097656e+00 2.162480115890502930e+00 4.848791286349296570e-02
3.007000000000000000e+03 7.223414611816406250e+01 8.274890899658203125e+00 -1.904205828905105591e-01 7.618214130401611328e+00 2.228338003158569336e+00 1.724796183407306671e-02
3.008000000000000000e+03 8.459786415100097656e+00 -2.860531234741210938e+01 2.554492326453328133e-03 1.039344118908047676e-03 1.078150933608412743e-03 -8.369146380573511124e-04
3.009000000000000000e+03 6.963121032714843750e+01 -1.549132633209228516e+01 3.126207739114761353e-02 6.680455684661865234e+00 2.013515233993530273e+00 1.003669127821922302e-01
3.010000000000000000e+03 7.115764617919921875e+01 1.988460922241210938e+01 -7.175754904747009277e-01 8.613553047180175781e+00 2.368793249130249023e+00 -6.604565382003784180e-01
3.011000000000000000e+03 7.095175933837890625e+01 1.890390205383300781e+01 -7.364929318428039551e-01 8.457839965820312500e+00 2.316404104232788086e+00 -5.117010474205017090e-01
3.012000000000000000e+03 7.633891582489013672e+00 -2.788717079162597656e+01 2.345685847103595734e-03 -3.465694608166813850e-04 5.997349508106708527e-04 3.694932092912495136e-04
3.013000000000000000e+03 7.101037597656250000e+01 2.351946067810058594e+01 -3.714280426502227783e-01 9.194733619689941406e+00 2.646991729736328125e+00 -1.125525832176208496e+00
3.014000000000000000e+03 6.987333679199218750e+01 -1.018851280212402344e+01 3.194512426853179932e-02 6.751387119293212891e+00 2.034999608993530273e+00 1.373265385627746582e-01
3.015000000000000000e+03 3.038959312438964844e+01 -4.596944808959960938e+00 7.283178716897964478e-02 -6.394331455230712891e-01 -1.699804067611694336e-01 -2.464585006237030029e-01
3.016000000000000000e+03 7.066988372802734375e+01 -9.660689353942871094e+00 2.011158503592014313e-02 6.945226669311523438e+00 2.089601516723632812e+00 1.310830712318420410e-01
3.017000000000000000e+03 6.958380126953125000e+01 1.111331844329833984e+01 -3.836958408355712891e-01 7.335244655609130859e+00 2.085464477539062500e+00 1.031497642397880554e-01
3.018000000000000000e+03 6.999106597900390625e+01 9.729274749755859375e+00 -3.130708038806915283e-01 7.281096458435058594e+00 2.090407848358154297e+00 1.107585877180099487e-01
3.019000000000000000e+03 3.137722778320312500e+01 -1.569505691528320312e+01 5.061665177345275879e-02 -4.454300701618194580e-01 -1.184440255165100098e-01 -1.164052858948707581e-01
3.020000000000000000e+03 2.919795227050781250e+01 -1.779847145080566406e+01 3.233691677451133728e-02 -8.106436729431152344e-01 -2.334920316934585571e-01 -1.064081415534019470e-01
3.021000000000000000e+03 3.037906837463378906e+01 9.644508361816406250e+00 7.311037182807922363e-02 -5.097185373306274414e-01 -1.309824585914611816e-01 -4.850756824016571045e-01
3.022000000000000000e+03 6.786666107177734375e+01 -2.813897514343261719e+01 3.169003501534461975e-02 6.320746421813964844e+00 1.905730843544006348e+00 6.254135072231292725e-02
3.023000000000000000e+03 6.848386383056640625e+01 -2.612365150451660156e+01 3.937416523694992065e-02 6.416315555572509766e+00 1.936706900596618652e+00 7.446492463350296021e-02
3.024000000000000000e+03 3.079754066467285156e+01 1.419537734985351562e+01 4.489566013216972351e-02 -3.983638882637023926e-01 -1.060404703021049500e-01 -5.556159615516662598e-01
3.025000000000000000e+03 3.068752288818359375e+01 4.163074493408203125e+00 7.850863784551620483e-02 -5.285885334014892578e-01 -1.350239664316177368e-01 -3.831202983856201172e-01
3.026000000000000000e+03 3.069663619995117188e+01 6.228512287139892578e+00 8.077419549226760864e-02 -5.082320570945739746e-01 -1.282373666763305664e-01 -4.230644702911376953e-01
3.027000000000000000e+03 7.981934070587158203e+00 -3.163321113586425781e+01 9.320690296590328217e-03 -4.348227288573980331e-03 1.491739065386354923e-03 -1.357872242806479335e-04
3.028000000000000000e+03 3.009908103942871094e+01 2.180456924438476562e+01 -1.089585125446319580e-01 -2.455996572971343994e-01 -1.063674464821815491e-01 -5.201154947280883789e-01
3.029000000000000000e+03 3.084081077575683594e+01 -1.428677749633789062e+01 5.504006519913673401e-02 -5.398232340812683105e-01 -1.454349458217620850e-01 -1.289800852537155151e-01
3.030000000000000000e+03 2.943125152587890625e+01 -1.619661903381347656e+01 4.200809076428413391e-02 -7.768340110778808594e-01 -2.204477787017822266e-01 -1.216888874769210815e-01
3.031000000000000000e+03 3.158805847167968750e+01 4.698648929595947266e+00 9.589732438325881958e-02 -4.146613776683807373e-01 -9.562921524047851562e-02 -3.987183570861816406e-01
3.032000000000000000e+03 7.765266895294189453e+00 -2.962759780883789062e+01 4.572646226733922958e-03 -2.006004098802804947e-03 7.699927082285284996e-04 -1.895831082947552204e-04
3.033000000000000000e+03 6.898986053466796875e+01 -1.084542632102966309e+00 -1.307904254645109177e-02 6.691328525543212891e+00 2.003474712371826172e+00 1.913594603538513184e-01
3.034000000000000000e+03 7.038213348388671875e+01 2.623424053192138672e+00 -6.780207902193069458e-02 7.070413589477539062e+00 2.100783348083496094e+00 1.684868633747100830e-01
3.035000000000000000e+03 7.003107452392578125e+01 1.635632872581481934e+00 -5.961461737751960754e-02 6.955775260925292969e+00 2.068848133087158203e+00 1.825327873229980469e-01
3.036000000000000000e+03 7.097895050048828125e+01 4.354145050048828125e+00 -8.965270966291427612e-02 7.249261856079101562e+00 2.147882699966430664e+00 1.358740031719207764e-01
3.037000000000000000e+03 9.559359550476074219e+00 -3.766099166870117188e+01 1.193667203187942505e-02 -2.918696776032447815e-02 -5.175088997930288315e-03 3.854413330554962158e-02
3.038000000000000000e+03 1.129608726501464844e+01 -3.769375610351562500e+01 5.943907797336578369e-02 -3.471508994698524475e-02 7.417196407914161682e-03 2.840796671807765961e-02
3.039000000000000000e+03 6.225120162963867188e+01 2.739144134521484375e+01 7.222047448158264160e-01 6.676632404327392578e+00 2.219651222229003906e+00 4.581229686737060547e+00
3.040000000000000000e+03 6.120014190673828125e+01 2.774432563781738281e+01 9.937649965286254883e-01 3.355013608932495117e+00 1.304633617401123047e+00 3.550480604171752930e+00
3.041000000000000000e+03 6.084382629394531250e+01 2.745810127258300781e+01 8.799036741256713867e-01 3.057130813598632812e+00 1.181110382080078125e+00 3.238219976425170898e+00
3.042000000000000000e+03 6.466180419921875000e+01 2.784391212463378906e+01 -5.663146972656250000e-01 1.442587757110595703e+01 4.157868862152099609e+00 2.169337272644042969e+00
3.043000000000000000e+03 7.039520263671875000e+01 2.841497611999511719e+01 1.889526009559631348e+00 9.628899574279785156e+00 3.455527782440185547e+00 -1.236014246940612793e+00
3.044000000000000000e+03 6.201473236083984375e+01 2.727076911926269531e+01 7.348741292953491211e-01 5.837255954742431641e+00 1.971639037132263184e+00 4.362615108489990234e+00
3.045000000000000000e+03 6.146821594238281250e+01 2.743043327331542969e+01 9.267864823341369629e-01 4.334436893463134766e+00 1.578367114067077637e+00 3.876627206802368164e+00
3.046000000000000000e+03 6.695645141601562500e+01 2.878892517089843750e+01 2.761229515075683594e+00 1.326091480255126953e+01 4.806643486022949219e+00 -1.724356293678283691e+00
3.047000000000000000e+03 6.629241180419921875e+01 2.816770362854003906e+01 1.167911052703857422e+00 1.421184158325195312e+01 4.613925933837890625e+00 -1.097896337509155273e+00
3.048000000000000000e+03 7.095795440673828125e+01 2.939720344543457031e+01 2.101279973983764648e+00 9.102012634277343750e+00 3.360987663269042969e+00 -7.923020124435424805e-01
3.049000000000000000e+03 6.636906433105468750e+01 2.844788169860839844e+01 1.727682471275329590e+00 1.421335411071777344e+01 4.782310962677001953e+00 -1.359870314598083496e+00
3.050000000000000000e+03 6.525292968750000000e+01 2.767022514343261719e+01 -3.813666701316833496e-01 1.443195152282714844e+01 4.215175628662109375e+00 8.651401400566101074e-01
3.051000000000000000e+03 6.416317749023437500e+01 3.580215835571289062e+01 -1.043553590774536133e+00 1.115001010894775391e+01 3.031936883926391602e+00 -2.197533369064331055e+00
3.052000000000000000e+03 6.607176971435546875e+01 3.424553680419921875e+01 -6.192118301987648010e-02 1.420583438873291016e+01 4.243174076080322266e+00 5.976697802543640137e-01
3.053000000000000000e+03 6.681143951416015625e+01 2.924029922485351562e+01 3.803032875061035156e+00 1.347723293304443359e+01 5.184080123901367188e+00 -1.781261086463928223e+00
3.054000000000000000e+03 6.850649261474609375e+01 3.017200279235839844e+01 3.941269397735595703e+00 1.075396156311035156e+01 4.408569335937500000e+00 -6.266062855720520020e-01
3.055000000000000000e+03 6.687089538574218750e+01 3.232908248901367188e+01 4.039381980895996094e+00 1.334133911132812500e+01 5.214216232299804688e+00 1.820634961128234863e+00
3.056000000000000000e+03 6.732801055908203125e+01 3.451496505737304688e+01 3.645352423191070557e-01 1.260812854766845703e+01 3.891799211502075195e+00 1.349792480468750000e+00
3.057000000000000000e+03 6.612615966796875000e+01 3.540404891967773438e+01 -9.289088249206542969e-01 1.280147361755371094e+01 3.561769485473632812e+00 6.919852644205093384e-02
3.058000000000000000e+03 6.487336730957031250e+01 3.485988616943359375e+01 -1.037872314453125000e+00 1.323534870147705078e+01 3.659243106842041016e+00 -1.591329455375671387e+00
3.059000000000000000e+03 5.904246902465820312e+01 2.640142059326171875e+01 4.107483923435211182e-01 1.827756762504577637e+00 6.715515255928039551e-01 2.058386564254760742e+00
3.060000000000000000e+03 6.655053710937500000e+01 3.371030426025390625e+01 1.013032793998718262e+00 1.404701232910156250e+01 4.518013477325439453e+00 1.451568841934204102e+00
3.061000000000000000e+03 6.744422149658203125e+01 3.144154930114746094e+01 5.178195476531982422e+00 1.198042011260986328e+01 5.147584915161132812e+00 8.311825990676879883e-01
3.062000000000000000e+03 6.266609954833984375e+01 3.528226089477539062e+01 -3.225478157401084900e-02 7.783010005950927734e+00 2.325226545333862305e+00 -3.271135807037353516e+00
3.063000000000000000e+03 6.986087799072265625e+01 3.288843917846679688e+01 2.262060642242431641e+00 9.986012458801269531e+00 3.674421787261962891e+00 1.124065756797790527e+00
3.064000000000000000e+03 6.756145477294921875e+01 3.212704467773437500e+01 4.187860012054443359e+00 1.200463867187500000e+01 4.857749462127685547e+00 1.405092358589172363e+00
3.065000000000000000e+03 6.758441925048828125e+01 3.323341751098632812e+01 2.247260808944702148e+00 1.244805717468261719e+01 4.408595561981201172e+00 1.764780879020690918e+00
3.066000000000000000e+03 6.727288818359375000e+01 3.230989074707031250e+01 3.893763065338134766e+00 1.261132717132568359e+01 4.951527118682861328e+00 1.619776725769042969e+00
3.067000000000000000e+03 6.296618652343750000e+01 3.607312393188476562e+01 -5.434275269508361816e-01 8.651267051696777344e+00 2.432351827621459961e+00 -2.712169885635375977e+00
3.068000000000000000e+03 5.796084594726562500e+01 2.605219650268554688e+01 2.141672372817993164e-01 1.379361987113952637e+00 4.780587852001190186e-01 1.543745875358581543e+00
3.069000000000000000e+03 3.369498825073242188e+01 2.719228172302246094e+01 -3.955953121185302734e-01 1.011876272968947887e-03 -1.183750331401824951e-01 -4.463295936584472656e-01
3.070000000000000000e+03 3.222303771972656250e+01 2.762716865539550781e+01 -3.397307395935058594e-01 -2.402953431010246277e-02 -1.091280803084373474e-01 -3.978245556354522705e-01
3.071000000000000000e+03 3.070790672302246094e+01 2.628535079956054688e+01 -2.449530661106109619e-01 -8.985760062932968140e-02 -1.004431992769241333e-01 -4.240446686744689941e-01
3.072000000000000000e+03 3.711034774780273438e+01 2.612412834167480469e+01 -5.000638961791992188e-01 6.122556328773498535e-02 -1.316515058279037476e-01 -5.363048315048217773e-01
3.073000000000000000e+03 4.095943069458007812e+01 2.567699432373046875e+01 -6.172562241554260254e-01 1.191065460443496704e-01 -1.494449079036712646e-01 -5.537240505218505859e-01
3.074000000000000000e+03 2.887385559082031250e+01 2.489809417724609375e+01 -1.516887247562408447e-01 -1.844240427017211914e-01 -1.008338332176208496e-01 -4.141463339328765869e-01
3.075000000000000000e+03 6.010563278198242188e+01 2.683455848693847656e+01 6.469442248344421387e-01 2.581544160842895508e+00 9.685465097427368164e-01 2.711521387100219727e+00
3.076000000000000000e+03 4.577420806884765625e+01 2.527534675598144531e+01 -6.801760196685791016e-01 1.799968332052230835e-01 -1.500537544488906860e-01 -4.593183696269989014e-01
3.077000000000000000e+03 4.900137329101562500e+01 2.549039649963378906e+01 -7.101497054100036621e-01 2.196729928255081177e-01 -1.471430212259292603e-01 -2.841241359710693359e-01
3.078000000000000000e+03 4.341059112548828125e+01 2.470508193969726562e+01 -5.573717355728149414e-01 1.652873307466506958e-01 -1.176253110170364380e-01 -5.397785902023315430e-01
3.079000000000000000e+03 4.494954681396484375e+01 2.466816711425781250e+01 -5.679816007614135742e-01 1.900653541088104248e-01 -1.133748814463615417e-01 -4.937945008277893066e-01
3.080000000000000000e+03 3.653822708129882812e+01 2.630633926391601562e+01 -4.875591695308685303e-01 4.894280806183815002e-02 -1.315849125385284424e-01 -5.204638838768005371e-01
3.081000000000000000e+03 3.293492507934570312e+01 2.737728309631347656e+01 -3.666159510612487793e-01 -1.222612056881189346e-02 -1.136526241898536682e-01 -4.250969588756561279e-01
3.082000000000000000e+03 3.586547470092773438e+01 2.633404922485351562e+01 -4.631661176681518555e-01 3.844078257679939270e-02 -1.274175941944122314e-01 -5.135160088539123535e-01
3.083000000000000000e+03 3.515900039672851562e+01 2.638379669189453125e+01 -4.324038922786712646e-01 2.492640353739261627e-02 -1.222432404756546021e-01 -5.065029263496398926e-01
3.084000000000000000e+03 5.209526824951171875e+01 2.527421379089355469e+01 -4.978639483451843262e-01 3.660193681716918945e-01 -3.955337405204772949e-02 4.701638966798782349e-02
3.085000000000000000e+03 4.259109115600585938e+01 2.471786499023437500e+01 -5.454215407371520996e-01 1.551192998886108398e-01 -1.170906797051429749e-01 -5.569057464599609375e-01
3.086000000000000000e+03 5.671132278442382812e+01 2.388511466979980469e+01 3.032930195331573486e-01 1.689098596572875977e+00 5.977174639701843262e-01 1.349732398986816406e+00
3.087000000000000000e+03 5.682280731201171875e+01 2.466510581970214844e+01 2.444709390401840210e-01 1.459887385368347168e+00 5.113075375556945801e-01 1.304867625236511230e+00
3.088000000000000000e+03 4.865378189086914062e+01 2.414153099060058594e+01 -4.132114648818969727e-01 3.170838654041290283e-01 -2.883827313780784607e-02 -2.686509490013122559e-01
3.089000000000000000e+03 5.044482421875000000e+01 2.457209587097167969e+01 -4.215048551559448242e-01 3.609541952610015869e-01 -1.816520094871520996e-02 -1.085270568728446960e-01
3.090000000000000000e+03 5.134799194335937500e+01 2.527399826049804688e+01 -5.512185096740722656e-01 3.196920454502105713e-01 -6.945793330669403076e-02 -5.289506912231445312e-02
3.091000000000000000e+03 3.944445037841796875e+01 2.623941421508789062e+01 -6.128708124160766602e-01 9.588207304477691650e-02 -1.550966203212738037e-01 -5.353891849517822266e-01
3.092000000000000000e+03 4.884276962280273438e+01 2.481206130981445312e+01 -5.506107807159423828e-01 2.666309773921966553e-01 -8.519393950700759888e-02 -2.755783796310424805e-01
3.093000000000000000e+03 5.871500015258789062e+01 2.523888397216796875e+01 4.259128272533416748e-01 2.243598699569702148e+00 8.008534908294677734e-01 2.068443059921264648e+00
3.094000000000000000e+03 5.742461013793945312e+01 2.546279335021972656e+01 2.070472985506057739e-01 1.355709791183471680e+00 4.688271284103393555e-01 1.401948928833007812e+00
3.095000000000000000e+03 4.653381347656250000e+01 2.518694305419921875e+01 -6.660077571868896484e-01 1.962877511978149414e-01 -1.409159898757934570e-01 -4.277625083923339844e-01
3.096000000000000000e+03 4.729679107666015625e+01 2.507983016967773438e+01 -6.411698460578918457e-01 2.136656641960144043e-01 -1.282512545585632324e-01 -3.863283991813659668e-01
3.097000000000000000e+03 5.282131195068359375e+01 2.529746437072753906e+01 -4.390125274658203125e-01 4.222937226295471191e-01 -5.015647970139980316e-03 1.570095866918563843e-01
3.098000000000000000e+03 7.126775360107421875e+01 2.184613800048828125e+01 -5.978109240531921387e-01 8.914795875549316406e+00 2.495095252990722656e+00 -9.337127208709716797e-01
3.099000000000000000e+03 5.352475357055664062e+01 2.532318878173828125e+01 -3.636143207550048828e-01 4.891861975193023682e-01 3.767156228423118591e-02 2.854770123958587646e-01
3.100000000000000000e+03 7.048512268066406250e+01 2.717740249633789062e+01 1.029488563537597656e+00 9.667414665222167969e+00 3.209070920944213867e+00 -1.396774888038635254e+00
3.101000000000000000e+03 6.828873443603515625e+01 1.562898397445678711e+00 -5.837421119213104248e-02 6.590821743011474609e+00 1.959734201431274414e+00 2.222162336111068726e-01
3.102000000000000000e+03 3.113638114929199219e+01 2.400579643249511719e+01 -1.959442347288131714e-01 -1.360242217779159546e-01 -9.959053993225097656e-02 -5.042046904563903809e-01
3.103000000000000000e+03 6.111663055419921875e+01 3.902224731445312500e+01 -2.954367399215698242e-01 5.990606784820556641e+00 1.708550930023193359e+00 -1.286397576332092285e+00
3.104000000000000000e+03 6.849836730957031250e+01 -1.114600181579589844e+01 4.295814409852027893e-02 6.481863975524902344e+00 1.957446575164794922e+00 1.316396296024322510e-01
3.105000000000000000e+03 6.711590576171875000e+01 -1.268692493438720703e+01 4.959350451827049255e-02 6.179902076721191406e+00 1.868848681449890137e+00 1.286675781011581421e-01
3.106000000000000000e+03 3.007119560241699219e+01 2.394631004333496094e+01 -1.648589521646499634e-01 -1.732763648033142090e-01 -1.014405936002731323e-01 -4.787754416465759277e-01
3.107000000000000000e+03 7.064202117919921875e+01 2.405353546142578125e+01 -3.133084774017333984e-01 9.428397178649902344e+00 2.734526634216308594e+00 -1.146277189254760742e+00
3.108000000000000000e+03 9.547639846801757812e+00 9.081500053405761719e+00 -7.287259359145537019e-05 -3.984680370194837451e-05 -3.381581700523383915e-05 -3.450951771810650826e-05
3.109000000000000000e+03 8.827239036560058594e+00 8.912224769592285156e+00 1.685290772002190351e-05 6.095433855080045760e-05 2.334217424504458904e-05 2.500189839338418096e-05
3.110000000000000000e+03 7.006587219238281250e+01 8.807563781738281250e+00 -2.640403211116790771e-01 7.229976177215576172e+00 2.089780807495117188e+00 1.165449470281600952e-01
3.111000000000000000e+03 7.121191406250000000e+01 8.202985763549804688e+00 -2.120873332023620605e-01 7.437911510467529297e+00 2.167747259140014648e+00 6.717624515295028687e-02
3.112000000000000000e+03 7.000004577636718750e+01 3.056894302368164062e+01 2.950248479843139648e+00 9.586027145385742188e+00 3.760882854461669922e+00 -2.227551490068435669e-01
3.113000000000000000e+03 3.774607849121093750e+01 2.587933540344238281e+01 -5.108770132064819336e-01 7.013058662414550781e-02 -1.322239339351654053e-01 -5.498562455177307129e-01
3.114000000000000000e+03 7.034730529785156250e+01 3.133965492248535156e+01 2.591537237167358398e+00 9.401951789855957031e+00 3.598046541213989258e+00 2.431474626064300537e-01
3.115000000000000000e+03 6.986631774902343750e+01 1.250071620941162109e+01 -4.637536108493804932e-01 7.509116649627685547e+00 2.113608837127685547e+00 3.853724524378776550e-02
3.116000000000000000e+03 3.267276000976562500e+01 1.717054367065429688e+01 2.759093884378671646e-03 -2.168536931276321411e-01 -6.422837823629379272e-02 -6.104137301445007324e-01
3.117000000000000000e+03 3.304498672485351562e+01 1.815773391723632812e+01 -2.490290813148021698e-02 -1.805790811777114868e-01 -6.164459511637687683e-02 -6.185355782508850098e-01
3.118000000000000000e+03 6.936454772949218750e+01 1.925796127319335938e+01 -9.053365588188171387e-01 8.566323280334472656e+00 2.298295974731445312e+00 -2.177596241235733032e-01
3.119000000000000000e+03 2.981393241882324219e+01 2.700633049011230469e+01 -2.258850336074829102e-01 -9.460944682359695435e-02 -9.614834189414978027e-02 -3.698199987411499023e-01
3.120000000000000000e+03 3.097948455810546875e+01 1.539442634582519531e+01 2.921837568283081055e-02 -3.593510389328002930e-01 -9.903980046510696411e-02 -5.708416104316711426e-01
3.121000000000000000e+03 3.238087844848632812e+01 1.611801910400390625e+01 2.634712308645248413e-02 -2.489940226078033447e-01 -6.679406762123107910e-02 -6.003704071044921875e-01
3.122000000000000000e+03 3.167624282836914062e+01 1.153304004669189453e+01 7.797800004482269287e-02 -3.674496710300445557e-01 -8.684150129556655884e-02 -5.307349562644958496e-01
3.123000000000000000e+03 3.185860633850097656e+01 1.265209293365478516e+01 7.611083239316940308e-02 -3.362568616867065430e-01 -7.804381102323532104e-02 -5.533838868141174316e-01
3.124000000000000000e+03 7.098540496826171875e+01 1.388607406616210938e+01 -5.023514628410339355e-01 7.797167301177978516e+00 2.188444852828979492e+00 -1.324285566806793213e-01
3.125000000000000000e+03 3.046649742126464844e+01 8.531932830810546875e+00 6.800460815429687500e-02 -5.191883444786071777e-01 -1.353551149368286133e-01 -4.660094082355499268e-01
3.126000000000000000e+03 3.141538238525390625e+01 9.673014640808105469e+00 8.835015445947647095e-02 -4.033019542694091797e-01 -9.448553621768951416e-02 -4.987557828426361084e-01
3.127000000000000000e+03 3.148886489868164062e+01 2.025333023071289062e+01 -8.203163743019104004e-02 -2.269631475210189819e-01 -9.269843250513076782e-02 -5.803134441375732422e-01
3.128000000000000000e+03 3.113500404357910156e+01 2.178339767456054688e+01 -1.281273216009140015e-01 -1.924783885478973389e-01 -9.618171304464340210e-02 -5.555906891822814941e-01
3.129000000000000000e+03 6.906847476959228516e+00 -3.071593284606933594e+01 5.603149533271789551e-03 -1.218219404108822346e-03 1.315479050390422344e-03 1.741523854434490204e-03
3.130000000000000000e+03 7.074594879150390625e+01 2.516395759582519531e+01 5.148653686046600342e-02 9.486348152160644531e+00 2.861350536346435547e+00 -1.311520338058471680e+00
3.131000000000000000e+03 5.622913360595703125e+00 -2.048349571228027344e+01 -9.461524896323680878e-04 8.383788554056081921e-06 -2.813306055031716824e-04 -9.340476826764643192e-04
3.132000000000000000e+03 6.396096420288085938e+01 -2.333835411071777344e+01 4.489907622337341309e-02 5.566017627716064453e+00 1.683275103569030762e+00 7.223751395940780640e-02
3.133000000000000000e+03 6.699702453613281250e+01 -2.531208229064941406e+01 4.009237140417098999e-02 6.182125091552734375e+00 1.866665244102478027e+00 7.619079202413558960e-02
3.134000000000000000e+03 3.061108398437500000e+01 -5.555286407470703125e+00 7.199384272098541260e-02 -5.876004099845886230e-01 -1.546819657087326050e-01 -2.313347160816192627e-01
3.135000000000000000e+03 9.226840972900390625e+00 -2.917954254150390625e+01 4.591879434883594513e-03 -9.105392964556813240e-04 1.104402006603777409e-03 -1.633692649193108082e-03
3.136000000000000000e+03 7.011312866210937500e+01 1.909016227722167969e+01 -8.312423825263977051e-01 8.527072906494140625e+00 2.308749198913574219e+00 -3.702978193759918213e-01
3.137000000000000000e+03 7.063218688964843750e+01 1.800954246520996094e+01 -7.478243708610534668e-01 8.316685676574707031e+00 2.270658493041992188e+00 -3.674979805946350098e-01
3.138000000000000000e+03 3.142822074890136719e+01 1.056679725646972656e+01 8.407846838235855103e-02 -3.920559883117675781e-01 -9.239325672388076782e-02 -5.141943097114562988e-01
3.139000000000000000e+03 3.249926376342773438e+01 1.964700508117675781e+01 -7.236050814390182495e-02 -1.863310784101486206e-01 -7.760747522115707397e-02 -6.061704754829406738e-01
3.140000000000000000e+03 3.087701034545898438e+01 1.818430542945861816e+00 9.015788137912750244e-02 -5.254592299461364746e-01 -1.305903941392898560e-01 -3.409529030323028564e-01
3.141000000000000000e+03 7.125072479248046875e+01 1.483227157592773438e+01 -5.299107432365417480e-01 7.910703659057617188e+00 2.214237928390502930e+00 -2.183983027935028076e-01
3.142000000000000000e+03 6.999817657470703125e+01 -1.942684745788574219e+01 2.618208900094032288e-02 6.720884323120117188e+00 2.024119853973388672e+00 8.354490995407104492e-02
3.143000000000000000e+03 6.943311309814453125e+01 3.716642379760742188e+01 -8.084888458251953125e-01 1.077894496917724609e+01 2.991136789321899414e+00 9.356237053871154785e-01
3.144000000000000000e+03 7.018741607666015625e+01 3.438949584960937500e+01 9.497382044792175293e-01 1.002536773681640625e+01 3.292531967163085938e+00 1.271942973136901855e+00
3.145000000000000000e+03 6.961340332031250000e+01 2.861965894699096680e+00 -7.452578842639923096e-02 6.923029899597167969e+00 2.054551124572753906e+00 1.834947168827056885e-01
3.146000000000000000e+03 3.014210700988769531e+01 2.288429641723632812e+01 -1.366581171751022339e-01 -2.075008004903793335e-01 -1.032476797699928284e-01 -5.001660585403442383e-01
3.147000000000000000e+03 3.374251937866210938e+01 2.550764656066894531e+01 -3.322294652462005615e-01 -2.614356018602848053e-02 -1.075119078159332275e-01 -5.176104903221130371e-01
3.148000000000000000e+03 3.184682273864746094e+01 6.490412235260009766e+00 1.013953909277915955e-01 -3.766568601131439209e-01 -8.257843554019927979e-02 -4.392223060131072998e-01
3.149000000000000000e+03 3.199716949462890625e+01 1.383224582672119141e+01 6.354326009750366211e-02 -3.064049780368804932e-01 -7.285851240158081055e-02 -5.723763704299926758e-01
3.150000000000000000e+03 3.216013336181640625e+01 1.500007820129394531e+01 4.620391875505447388e-02 -2.791042029857635498e-01 -6.987008452415466309e-02 -5.868906974792480469e-01
3.151000000000000000e+03 3.170051956176757812e+01 7.520152091979980469e+00 9.974468499422073364e-02 -3.910597860813140869e-01 -8.739453554153442383e-02 -4.587358534336090088e-01
3.152000000000000000e+03 3.055920600891113281e+01 7.394860267639160156e+00 7.749289274215698242e-02 -5.181376338005065918e-01 -1.321934163570404053e-01 -4.471879601478576660e-01
3.153000000000000000e+03 3.164915275573730469e+01 2.874608755111694336e+00 9.888675063848495483e-02 -4.159494936466217041e-01 -9.511882811784744263e-02 -3.634208738803863525e-01
3.154000000000000000e+03 3.232842636108398438e+01 3.932178735733032227e+00 1.076144948601722717e-01 -3.293370604515075684e-01 -6.651676446199417114e-02 -3.841366171836853027e-01
3.155000000000000000e+03 3.171167755126953125e+01 -1.938526535034179688e+01 6.310127675533294678e-02 -3.430663347244262695e-01 -8.398951590061187744e-02 -9.343302994966506958e-02
3.156000000000000000e+03 6.762457275390625000e+01 3.177687263488769531e+01 4.536075115203857422e+00 1.182818889617919922e+01 4.909279346466064453e+00 1.161267876625061035e+00
3.157000000000000000e+03 3.032139396667480469e+01 -1.998924446105957031e+01 4.595010355114936829e-02 -6.306734681129455566e-01 -1.754170060157775879e-01 -8.897500485181808472e-02
3.158000000000000000e+03 7.019458007812500000e+01 -8.704908370971679688e+00 3.096654452383518219e-02 6.878804206848144531e+00 2.072931289672851562e+00 1.461496055126190186e-01
3.159000000000000000e+03 6.901708984375000000e+01 -4.348425388336181641e+00 2.170457318425178528e-02 6.653851509094238281e+00 2.002666711807250977e+00 1.783098131418228149e-01
3.160000000000000000e+03 6.870851898193359375e+01 -5.365772247314453125e+00 2.289237827062606812e-02 6.577081203460693359e+00 1.979992151260375977e+00 1.723737865686416626e-01
3.161000000000000000e+03 7.991440773010253906e+00 -3.680875778198242188e+01 1.185533404350280762e-02 -1.590056158602237701e-02 -1.213568146340548992e-03 1.769165508449077606e-02
3.162000000000000000e+03 6.281632614135742188e+01 2.722375106811523438e+01 2.208724319934844971e-01 8.326951026916503906e+00 2.564347028732299805e+00 4.492265224456787109e+00
3.163000000000000000e+03 6.341414260864257812e+01 2.688710594177246094e+01 -3.884450495243072510e-01 9.975911140441894531e+00 2.876239776611328125e+00 3.910322666168212891e+00
3.164000000000000000e+03 6.380323410034179688e+01 2.682276153564453125e+01 -6.530712246894836426e-01 1.096065711975097656e+01 3.092275857925415039e+00 3.428327560424804688e+00
3.165000000000000000e+03 6.972496032714843750e+01 2.807401847839355469e+01 1.772505283355712891e+00 1.012676048278808594e+01 3.569779872894287109e+00 -1.379996418952941895e+00
3.166000000000000000e+03 6.714366149902343750e+01 2.900747680664062500e+01 3.241504192352294922e+00 1.284890365600585938e+01 4.827122688293457031e+00 -1.710137486457824707e+00
3.167000000000000000e+03 6.669486999511718750e+01 2.800984954833984375e+01 1.234057903289794922e+00 1.345862960815429688e+01 4.407806396484375000e+00 -1.253979325294494629e+00
3.168000000000000000e+03 6.631117248535156250e+01 2.909866523742675781e+01 3.296826601028442383e+00 1.466208934783935547e+01 5.387674808502197266e+00 -1.895292878150939941e+00
3.169000000000000000e+03 6.458328247070312500e+01 2.696006584167480469e+01 -8.789064288139343262e-01 1.258816337585449219e+01 3.512777090072631836e+00 2.368095397949218750e+00
3.170000000000000000e+03 6.837727355957031250e+01 3.069423484802246094e+01 4.318147182464599609e+00 1.078387641906738281e+01 4.530607223510742188e+00 -1.944970637559890747e-01
3.171000000000000000e+03 6.793389892578125000e+01 2.996095657348632812e+01 4.303920269012451172e+00 1.141287517547607422e+01 4.715038776397705078e+00 -9.615215063095092773e-01
3.172000000000000000e+03 6.738347625732421875e+01 2.922233009338378906e+01 3.594461202621459961e+00 1.247686958312988281e+01 4.821399211883544922e+00 -1.612136721611022949e+00
3.173000000000000000e+03 6.555233764648437500e+01 2.766632080078125000e+01 -1.348049044609069824e-01 1.434294700622558594e+01 4.262442588806152344e+00 3.236852586269378662e-01
3.174000000000000000e+03 6.540029144287109375e+01 3.528131103515625000e+01 -1.062069416046142578e+00 1.274009513854980469e+01 3.503407955169677734e+00 -7.347561120986938477e-01
3.175000000000000000e+03 6.078084945678710938e+01 2.679011917114257812e+01 7.251535058021545410e-01 3.555747747421264648e+00 1.284270405769348145e+00 3.260483741760253906e+00
3.176000000000000000e+03 5.906054687500000000e+01 2.566354942321777344e+01 4.607568979263305664e-01 2.296984910964965820e+00 8.273225426673889160e-01 2.201908111572265625e+00
3.177000000000000000e+03 5.975060653686523438e+01 2.646477508544921875e+01 5.676643252372741699e-01 2.440304040908813477e+00 9.023904800415039062e-01 2.532032489776611328e+00
3.178000000000000000e+03 6.743737792968750000e+01 3.269631958007812500e+01 3.109950542449951172e+00 1.246784305572509766e+01 4.673338413238525391e+00 1.750041484832763672e+00
3.179000000000000000e+03 7.013167572021484375e+01 3.347740936279296875e+01 1.696010947227478027e+00 9.899874687194824219e+00 3.478765726089477539e+00 1.257949829101562500e+00
3.180000000000000000e+03 6.941202545166015625e+01 3.241973114013671875e+01 2.651091337203979492e+00 1.013226890563964844e+01 3.835008144378662109e+00 9.860422015190124512e-01
3.181000000000000000e+03 6.776864624023437500e+01 3.125776290893554688e+01 4.857713222503662109e+00 1.151774024963378906e+01 4.912636280059814453e+00 5.543251037597656250e-01
3.182000000000000000e+03 6.793096160888671875e+01 3.247527694702148438e+01 3.359741210937500000e+00 1.167682647705078125e+01 4.510970115661621094e+00 1.453357458114624023e+00
3.183000000000000000e+03 6.892611694335937500e+01 3.287974166870117188e+01 2.408806324005126953e+00 1.081162452697753906e+01 3.966129302978515625e+00 1.353869915008544922e+00
3.184000000000000000e+03 6.838357543945312500e+01 3.151102066040039062e+01 4.037299633026123047e+00 1.088824367523193359e+01 4.477663040161132812e+00 6.181355118751525879e-01
3.185000000000000000e+03 6.826598358154296875e+01 3.314237594604492188e+01 2.355866193771362305e+00 1.147768211364746094e+01 4.150064468383789062e+00 1.594475626945495605e+00
3.186000000000000000e+03 2.999236488342285156e+01 2.501407051086425781e+01 -1.913512498140335083e-01 -1.426477730274200439e-01 -1.001997068524360657e-01 -4.443941712379455566e-01
3.187000000000000000e+03 5.749863433837890625e+01 2.485203933715820312e+01 3.073600828647613525e-01 1.692122936248779297e+00 5.998449325561523438e-01 1.548120021820068359e+00
3.188000000000000000e+03 5.421825790405273438e+01 2.533490753173828125e+01 -2.798621356487274170e-01 5.696105957031250000e-01 8.692453801631927490e-02 4.258158802986145020e-01
3.189000000000000000e+03 5.611485290527343750e+01 2.464015769958496094e+01 1.486834734678268433e-01 1.196690320968627930e+00 4.036121368408203125e-01 1.048680067062377930e+00
3.190000000000000000e+03 2.886435699462890625e+01 2.705544662475585938e+01 -1.910121142864227295e-01 -1.149208620190620422e-01 -9.177989512681961060e-02 -3.408691883087158203e-01
3.191000000000000000e+03 2.986710739135742188e+01 2.605266571044921875e+01 -2.110990881919860840e-01 -1.171847060322761536e-01 -9.848514199256896973e-02 -4.084535241127014160e-01
3.192000000000000000e+03 4.170471572875976562e+01 2.386541557312011719e+01 -4.245973229408264160e-01 1.534498035907745361e-01 -8.134426176548004150e-02 -5.862057209014892578e-01
3.193000000000000000e+03 3.580098342895507812e+01 2.560750770568847656e+01 -4.115627408027648926e-01 2.766512520611286163e-02 -1.151692867279052734e-01 -5.471955537796020508e-01
3.194000000000000000e+03 4.172859191894531250e+01 2.473343467712402344e+01 -5.332150459289550781e-01 1.398101747035980225e-01 -1.180214658379554749e-01 -5.706704854965209961e-01
3.195000000000000000e+03 4.184535980224609375e+01 2.305486106872558594e+01 -3.383070528507232666e-01 1.742412298917770386e-01 -4.921974241733551025e-02 -5.895864963531494141e-01
3.196000000000000000e+03 3.442505264282226562e+01 2.639630126953125000e+01 -3.973636925220489502e-01 5.881675984710454941e-03 -1.174446046352386475e-01 -4.943752884864807129e-01
3.197000000000000000e+03 3.658826828002929688e+01 2.572307777404785156e+01 -4.533851146697998047e-01 4.832840338349342346e-02 -1.215170174837112427e-01 -5.508756637573242188e-01
3.198000000000000000e+03 5.342438507080078125e+01 2.465668106079101562e+01 -1.953802853822708130e-01 6.007696390151977539e-01 1.216168105602264404e-01 3.388938307762145996e-01
3.199000000000000000e+03 3.444854354858398438e+01 2.569637680053710938e+01 -3.652440607547760010e-01 -6.191241089254617691e-03 -1.114305928349494934e-01 -5.203375220298767090e-01
3.200000000000000000e+03 4.420743942260742188e+01 2.396512985229492188e+01 -4.568530023097991943e-01 2.006527185440063477e-01 -7.686008512973785400e-02 -5.226839184761047363e-01
3.201000000000000000e+03 4.419245910644531250e+01 2.469040870666503906e+01 -5.665583014488220215e-01 1.777939647436141968e-01 -1.166293025016784668e-01 -5.192042589187622070e-01
3.202000000000000000e+03 4.260510635375976562e+01 2.392116355895996094e+01 -4.441490769386291504e-01 1.726741194725036621e-01 -8.144248276948928833e-02 -5.669615268707275391e-01
3.203000000000000000e+03 4.768447875976562500e+01 2.369362640380859375e+01 -3.606698215007781982e-01 3.158128857612609863e-01 -1.345707848668098450e-02 -3.301735520362854004e-01
3.204000000000000000e+03 3.363121795654296875e+01 2.632967758178710938e+01 -3.604817986488342285e-01 -1.553344074636697769e-02 -1.128045767545700073e-01 -4.815906584262847900e-01
3.205000000000000000e+03 3.253961944580078125e+01 2.674394607543945312e+01 -3.322021663188934326e-01 -3.237413242459297180e-02 -1.093728914856910706e-01 -4.445433914661407471e-01
3.206000000000000000e+03 4.806472396850585938e+01 2.495136070251464844e+01 -6.016119718551635742e-01 2.376634925603866577e-01 -1.091845408082008362e-01 -3.375823199748992920e-01
3.207000000000000000e+03 4.789429473876953125e+01 2.431427574157714844e+01 -4.721128046512603760e-01 2.750588059425354004e-01 -5.911619961261749268e-02 -3.334680795669555664e-01
3.208000000000000000e+03 4.569007110595703125e+01 2.463138580322265625e+01 -5.625466704368591309e-01 2.055409252643585205e-01 -1.071017161011695862e-01 -4.654804766178131104e-01
3.209000000000000000e+03 4.642398071289062500e+01 2.457004547119140625e+01 -5.481842756271362305e-01 2.233401536941528320e-01 -9.745323657989501953e-02 -4.298965632915496826e-01
3.210000000000000000e+03 4.944573593139648438e+01 2.396613121032714844e+01 -3.433763384819030762e-01 3.653596043586730957e-01 6.594976875931024551e-03 -1.855839937925338745e-01
3.211000000000000000e+03 5.124132919311523438e+01 2.451313781738281250e+01 -3.568713366985321045e-01 4.003911614418029785e-01 1.305595226585865021e-02 -9.036935865879058838e-03
3.212000000000000000e+03 5.200901794433593750e+01 2.453817176818847656e+01 -3.069097399711608887e-01 4.752452373504638672e-01 5.050064623355865479e-02 8.997445553541183472e-02
3.213000000000000000e+03 4.016267013549804688e+01 2.593123435974121094e+01 -6.115067005157470703e-01 1.091691181063652039e-01 -1.507012695074081421e-01 -5.485283136367797852e-01
3.214000000000000000e+03 5.409720611572265625e+01 2.468801498413085938e+01 -1.153249442577362061e-01 7.060828208923339844e-01 1.772273629903793335e-01 4.906004071235656738e-01
3.215000000000000000e+03 7.023080444335937500e+01 2.915491676330566406e+01 2.332506418228149414e+00 9.623816490173339844e+00 3.586896896362304688e+00 -1.013221144676208496e+00
3.216000000000000000e+03 7.008799743652343750e+01 2.753124427795410156e+01 1.288612008094787598e+00 9.909308433532714844e+00 3.359375953674316406e+00 -1.407638192176818848e+00
3.217000000000000000e+03 5.781197357177734375e+01 2.432518196105957031e+01 3.568751513957977295e-01 2.069195508956909180e+00 7.278212308883666992e-01 1.709074139595031738e+00
3.218000000000000000e+03 4.715612030029296875e+01 2.446548080444335938e+01 -5.177443027496337891e-01 2.483958750963211060e-01 -8.080451935529708862e-02 -3.864024579524993896e-01
3.219000000000000000e+03 3.872921371459960938e+01 2.643709564208984375e+01 -6.000809073448181152e-01 8.693563938140869141e-02 -1.539435833692550659e-01 -5.250481367111206055e-01
3.220000000000000000e+03 3.214271545410156250e+01 2.126391220092773438e+01 -1.254348009824752808e-01 -1.681610494852066040e-01 -8.807875216007232666e-02 -5.837939381599426270e-01
3.221000000000000000e+03 4.082678604125976562e+01 2.477545356750488281e+01 -5.165368914604187012e-01 1.266833990812301636e-01 -1.169560551643371582e-01 -5.810499787330627441e-01
3.222000000000000000e+03 5.490185928344726562e+01 2.532963562011718750e+01 -1.748968064785003662e-01 6.805947422981262207e-01 1.517093926668167114e-01 5.953643918037414551e-01
3.223000000000000000e+03 7.060552215576171875e+01 3.059084892272949219e+01 2.556846618652343750e+00 9.249833106994628906e+00 3.542003870010375977e+00 -1.807101219892501831e-01
3.224000000000000000e+03 6.949799346923828125e+01 3.142265510559082031e+01 3.180510759353637695e+00 9.969357490539550781e+00 3.944960594177246094e+00 4.068440794944763184e-01
3.225000000000000000e+03 7.043496704101562500e+01 2.086604690551757812e+01 -7.831175327301025391e-01 8.891046524047851562e+00 2.432378530502319336e+00 -6.470430493354797363e-01
3.226000000000000000e+03 6.743699645996093750e+01 2.807762145996093750e+01 1.689179658889770508e+00 1.240694332122802734e+01 4.228837013244628906e+00 -1.509244203567504883e+00
3.227000000000000000e+03 7.037039184570312500e+01 2.338974380493164062e+01 -5.049667358398437500e-01 9.435299873352050781e+00 2.679099798202514648e+00 -1.010415673255920410e+00
3.228000000000000000e+03 7.014430236816406250e+01 2.665719413757324219e+01 7.553260326385498047e-01 9.886397361755371094e+00 3.192517042160034180e+00 -1.430127978324890137e+00
3.229000000000000000e+03 6.957868957519531250e+01 2.004764747619628906e+01 -8.979820013046264648e-01 8.764134407043457031e+00 2.359845876693725586e+00 -3.472778201103210449e-01
3.230000000000000000e+03 7.068252563476562500e+01 2.625581169128417969e+01 5.477994680404663086e-01 9.566970825195312500e+00 3.034431219100952148e+00 -1.412322163581848145e+00
3.231000000000000000e+03 3.217352294921875000e+01 2.414776420593261719e+01 -2.289015948772430420e-01 -1.010744869709014893e-01 -9.899282455444335938e-02 -5.264642238616943359e-01
3.232000000000000000e+03 3.107679557800292969e+01 2.502999114990234375e+01 -2.248608916997909546e-01 -1.111446395516395569e-01 -1.008016616106033325e-01 -4.730184972286224365e-01
3.233000000000000000e+03 7.041006469726562500e+01 3.242178726196289062e+01 2.235458135604858398e+00 9.526053428649902344e+00 3.528453350067138672e+00 8.191758394241333008e-01
3.234000000000000000e+03 6.886582946777343750e+01 3.218927764892578125e+01 3.189130544662475586e+00 1.066631984710693359e+01 4.156634807586669922e+00 1.053588867187500000e+00
3.235000000000000000e+03 6.285550308227539062e+01 4.151973724365234375e+01 -9.367484450340270996e-01 7.362787246704101562e+00 1.927811741828918457e+00 -4.256557524204254150e-01
3.236000000000000000e+03 6.851990509033203125e+01 1.036736774444580078e+01 -3.547115027904510498e-01 7.069464206695556641e+00 2.014425754547119141e+00 2.013227194547653198e-01
3.237000000000000000e+03 3.477363204956054688e+01 1.638586616516113281e+01 4.179454967379570007e-02 -8.758949488401412964e-02 -1.373848412185907364e-02 -6.203079819679260254e-01
3.238000000000000000e+03 7.042166137695312500e+01 2.259463882446289062e+01 -6.370442509651184082e-01 9.257421493530273438e+00 2.586113214492797852e+00 -8.873280882835388184e-01
3.239000000000000000e+03 7.035437774658203125e+01 1.566672515869140625e+01 -6.447713971138000488e-01 7.933197975158691406e+00 2.186527967453002930e+00 -1.465625017881393433e-01
3.240000000000000000e+03 7.009584045410156250e+01 1.627150344848632812e+01 -6.978033185005187988e-01 7.999758720397949219e+00 2.190586805343627930e+00 -1.359254121780395508e-01
3.241000000000000000e+03 6.864330291748046875e+01 1.482077980041503906e+01 -6.545495986938476562e-01 7.609930038452148438e+00 2.086614131927490234e+00 1.204546019434928894e-01
3.242000000000000000e+03 3.125759124755859375e+01 2.289391517639160156e+01 -1.615627408027648926e-01 -1.640138030052185059e-01 -9.767296165227890015e-02 -5.379354357719421387e-01
3.243000000000000000e+03 6.973918151855468750e+01 1.328068637847900391e+01 -5.138738751411437988e-01 7.557337284088134766e+00 2.113039016723632812e+00 2.666107565164566040e-02
3.244000000000000000e+03 6.889598083496093750e+01 1.192116832733154297e+01 -4.462882280349731445e-01 7.294452667236328125e+00 2.054449319839477539e+00 1.422589868307113647e-01
3.245000000000000000e+03 3.349810791015625000e+01 1.908969116210937500e+01 -5.608827620744705200e-02 -1.437457948923110962e-01 -5.995022505521774292e-02 -6.256634593009948730e-01
3.246000000000000000e+03 7.064965057373046875e+01 3.514396190643310547e+00 -8.554779738187789917e-02 7.152195453643798828e+00 2.119994401931762695e+00 1.514256894588470459e-01
3.247000000000000000e+03 7.141460418701171875e+01 5.213183403015136719e+00 -1.180480718612670898e-01 7.357832431793212891e+00 2.171935319900512695e+00 1.144840717315673828e-01
3.248000000000000000e+03 3.317661666870117188e+01 1.349183464050292969e+01 8.326293528079986572e-02 -2.113283872604370117e-01 -3.841963782906532288e-02 -5.770072340965270996e-01
3.249000000000000000e+03 3.406975936889648438e+01 1.769924545288085938e+01 -6.265461444854736328e-03 -1.262884289026260376e-01 -3.976616635918617249e-02 -6.284357309341430664e-01
3.250000000000000000e+03 6.892816162109375000e+01 2.012914276123046875e+01 -9.616082310676574707e-01 8.792903900146484375e+00 2.349388837814331055e+00 -1.822340786457061768e-01
3.251000000000000000e+03 6.813107299804687500e+01 -1.467964053153991699e-01 -1.293783728033304214e-02 6.541707515716552734e+00 1.958630919456481934e+00 2.089481502771377563e-01
3.252000000000000000e+03 6.925788116455078125e+01 6.810191273689270020e-01 -4.083880037069320679e-02 6.791276931762695312e+00 2.025131464004516602e+00 1.955273598432540894e-01
3.253000000000000000e+03 6.700843811035156250e+01 3.372444915771484375e+01 1.339983105659484863e+00 1.327160072326660156e+01 4.383474826812744141e+00 1.640139222145080566e+00
3.254000000000000000e+03 3.165409278869628906e+01 8.637042999267578125e+00 9.364730864763259888e-02 -3.907833993434906006e-01 -8.914082497358322144e-02 -4.812682569026947021e-01
3.255000000000000000e+03 3.284732818603515625e+01 1.103150844573974609e+01 1.048917844891548157e-01 -2.552790343761444092e-01 -4.511617496609687805e-02 -5.349409580230712891e-01
3.256000000000000000e+03 6.919590759277343750e+01 -8.127088546752929688e+00 2.804628200829029083e-02 6.649848461151123047e+00 2.003368377685546875e+00 1.377920359373092651e-01
3.257000000000000000e+03 6.951461029052734375e+01 -1.107973194122314453e+01 3.199616819620132446e-02 6.669330596923828125e+00 2.010397911071777344e+00 1.366129219532012939e-01
3.258000000000000000e+03 6.871780395507812500e+01 -1.457521724700927734e+01 3.980245813727378845e-02 6.516041755676269531e+00 1.966753244400024414e+00 1.156385391950607300e-01
3.259000000000000000e+03 3.242432022094726562e+01 -5.246939182281494141e+00 1.004483252763748169e-01 -2.970678508281707764e-01 -5.898585543036460876e-02 -2.271855473518371582e-01
3.260000000000000000e+03 3.226471328735351562e+01 -2.792135238647460938e+00 1.060575842857360840e-01 -3.279007673263549805e-01 -6.655295938253402710e-02 -2.646631598472595215e-01
3.261000000000000000e+03 3.197459793090820312e+01 -9.118535041809082031e+00 7.972548902034759521e-02 -3.413143157958984375e-01 -7.847665250301361084e-02 -1.852376461029052734e-01
3.262000000000000000e+03 3.090971565246582031e+01 -7.480333805084228516e+00 7.121303677558898926e-02 -5.359876155853271484e-01 -1.394323855638504028e-01 -2.112363576889038086e-01
3.263000000000000000e+03 2.986786270141601562e+01 8.693200945854187012e-01 6.832691282033920288e-02 -6.787556409835815430e-01 -1.831286251544952393e-01 -3.120136260986328125e-01
3.264000000000000000e+03 3.181883430480957031e+01 1.271095156669616699e+00 1.029542461037635803e-01 -3.960647583007812500e-01 -8.793315291404724121e-02 -3.315404951572418213e-01
3.265000000000000000e+03 3.144700431823730469e+01 -1.417987823486328125e+00 9.128497540950775146e-02 -4.576343894004821777e-01 -1.099048182368278503e-01 -2.882857024669647217e-01
3.266000000000000000e+03 2.991314315795898438e+01 -1.101440238952636719e+01 4.514151066541671753e-02 -7.024297118186950684e-01 -1.971864551305770874e-01 -1.620336920022964478e-01
3.267000000000000000e+03 2.995715332031250000e+01 -1.200202560424804688e+01 3.371592983603477478e-02 -6.936228871345520020e-01 -1.979720741510391235e-01 -1.562376171350479126e-01
3.268000000000000000e+03 3.330671691894531250e+01 1.464712047576904297e+01 6.644282490015029907e-02 -1.964195668697357178e-01 -3.899302333593368530e-02 -5.938539505004882812e-01
3.269000000000000000e+03 6.914836883544921875e+01 -9.307594299316406250e+00 3.309839218854904175e-02 6.610406875610351562e+00 1.993051648139953613e+00 1.370583772659301758e-01
3.270000000000000000e+03 6.818991851806640625e+01 -4.037186145782470703e+00 2.223769202828407288e-02 6.476975440979003906e+00 1.949763894081115723e+00 1.863487660884857178e-01
3.271000000000000000e+03 7.029358673095703125e+01 1.491304016113281250e+01 -6.049088835716247559e-01 7.852264881134033203e+00 2.174206733703613281e+00 -1.129458099603652954e-01
3.272000000000000000e+03 3.243859481811523438e+01 -1.345038986206054688e+01 6.310626864433288574e-02 -2.431560754776000977e-01 -5.401493981480598450e-02 -1.347776353359222412e-01
3.273000000000000000e+03 3.170663070678710938e+01 -1.240203666687011719e+01 5.716386437416076660e-02 -4.153814315795898438e-01 -1.074652671813964844e-01 -1.427056640386581421e-01
3.274000000000000000e+03 6.776763916015625000e+01 -1.553183937072753906e+01 4.258332028985023499e-02 6.315080642700195312e+00 1.907299160957336426e+00 1.167097166180610657e-01
3.275000000000000000e+03 6.797251892089843750e+01 -1.981344223022460938e+01 3.088409826159477234e-02 6.341083049774169922e+00 1.911590218544006348e+00 8.938618749380111694e-02
3.276000000000000000e+03 3.335455703735351562e+01 -1.467285728454589844e+01 7.295265793800354004e-02 -9.126579761505126953e-02 -5.493943113833665848e-03 -1.266168355941772461e-01
3.277000000000000000e+03 6.888699340820312500e+01 3.750128269195556641e+00 -9.401120990514755249e-02 6.776088714599609375e+00 2.004623174667358398e+00 2.006307840347290039e-01
3.278000000000000000e+03 3.504745101928710938e+01 1.225641608238220215e+00 1.595694273710250854e-01 5.178214237093925476e-02 6.340546905994415283e-02 -3.192209899425506592e-01
3.279000000000000000e+03 3.246588516235351562e+01 5.561078071594238281e+00 1.217723563313484192e-01 -3.016024827957153320e-01 -5.394903570413589478e-02 -4.222148060798645020e-01
3.280000000000000000e+03 6.912713623046875000e+01 8.781831741333007812e+00 -2.782489955425262451e-01 7.072361946105957031e+00 2.038233757019042969e+00 1.660718917846679688e-01
3.281000000000000000e+03 3.212118530273437500e+01 -1.711299705505371094e+01 4.889855161309242249e-02 -3.408902883529663086e-01 -8.759751915931701660e-02 -1.131122410297393799e-01
3.282000000000000000e+03 6.847761535644531250e+01 -2.666239023208618164e+00 1.203987468034029007e-02 6.565601825714111328e+00 1.973292469978332520e+00 1.893201917409896851e-01
3.283000000000000000e+03 6.628511047363281250e+01 -2.266063880920410156e+01 3.840298950672149658e-02 6.032110214233398438e+00 1.821153998374938965e+00 7.364223152399063110e-02
3.284000000000000000e+03 7.005644226074218750e+01 3.564763259887695312e+01 1.126703396439552307e-01 1.033044242858886719e+01 3.132933855056762695e+00 1.257773637771606445e+00
3.285000000000000000e+03 6.646381378173828125e+01 3.452075958251953125e+01 -8.861233294010162354e-02 1.348510169982910156e+01 4.018946647644042969e+00 8.064876794815063477e-01
3.286000000000000000e+03 2.992325401306152344e+01 -2.412415695190429688e+01 3.210607543587684631e-02 -6.867819428443908691e-01 -1.964027583599090576e-01 -8.008278906345367432e-02
3.287000000000000000e+03 3.269000625610351562e+01 -2.071692848205566406e+01 5.893858149647712708e-02 -1.591716408729553223e-01 -3.006991930305957794e-02 -7.822590321302413940e-02
3.288000000000000000e+03 6.260956954956054688e+01 2.696711730957031250e+01 2.013520449399948120e-01 7.738909721374511719e+00 2.382078409194946289e+00 4.346218109130859375e+00
3.289000000000000000e+03 6.144841003417968750e+01 2.611023712158203125e+01 4.225389361381530762e-01 5.168832302093505859e+00 1.677411317825317383e+00 3.599715709686279297e+00
3.290000000000000000e+03 6.878881072998046875e+01 2.830398750305175781e+01 1.997667312622070312e+00 1.084693145751953125e+01 3.853379726409912109e+00 -1.467007279396057129e+00
3.291000000000000000e+03 6.421288299560546875e+01 2.681786727905273438e+01 -8.173060417175292969e-01 1.179209232330322266e+01 3.292435884475708008e+00 2.881629943847656250e+00
3.292000000000000000e+03 6.681388092041015625e+01 2.855637550354003906e+01 2.290518522262573242e+00 1.351402854919433594e+01 4.741364002227783203e+00 -1.647819280624389648e+00
3.293000000000000000e+03 5.940537261962890625e+01 2.607176017761230469e+01 5.065058469772338867e-01 2.341867923736572266e+00 8.545121550559997559e-01 2.355440855026245117e+00
3.294000000000000000e+03 6.681262207031250000e+01 3.414707565307617188e+01 5.245598554611206055e-01 1.346505737304687500e+01 4.196885108947753906e+00 1.292495965957641602e+00
3.295000000000000000e+03 6.111889266967773438e+01 2.710930442810058594e+01 8.127471208572387695e-01 3.854878902435302734e+00 1.400287866592407227e+00 3.516600370407104492e+00
3.296000000000000000e+03 6.823837280273437500e+01 2.914712333679199219e+01 3.191378116607666016e+00 1.122994899749755859e+01 4.326397895812988281e+00 -1.402090311050415039e+00
3.297000000000000000e+03 6.731029510498046875e+01 2.873069763183593750e+01 2.728533744812011719e+00 1.266784286499023438e+01 4.618913173675537109e+00 -1.664339780807495117e+00
3.298000000000000000e+03 6.775467681884765625e+01 2.876389884948730469e+01 2.755172967910766602e+00 1.193732547760009766e+01 4.407749652862548828e+00 -1.589480876922607422e+00
3.299000000000000000e+03 6.484408569335937500e+01 2.718469047546386719e+01 -7.738612890243530273e-01 1.330188655853271484e+01 3.758407354354858398e+00 1.804383873939514160e+00
3.300000000000000000e+03 6.757498168945312500e+01 3.387436294555664062e+01 1.323897719383239746e+00 1.254241752624511719e+01 4.159894466400146484e+00 1.696121335029602051e+00
3.301000000000000000e+03 6.830662536621093750e+01 3.401987457275390625e+01 1.240658998489379883e+00 1.163033771514892578e+01 3.861299037933349609e+00 1.583111643791198730e+00
3.302000000000000000e+03 5.906466674804687500e+01 2.491343688964843750e+01 4.269846379756927490e-01 2.680243253707885742e+00 9.321683645248413086e-01 2.251116275787353516e+00
3.303000000000000000e+03 7.022040557861328125e+01 2.565789222717285156e+01 2.141782641410827637e-01 9.795586585998535156e+00 3.002929449081420898e+00 -1.334681630134582520e+00
3.304000000000000000e+03 6.506522369384765625e+01 2.729597282409667969e+01 -6.692571640014648438e-01 1.383579254150390625e+01 3.949960470199584961e+00 1.309127449989318848e+00
3.305000000000000000e+03 6.642256164550781250e+01 3.631891632080078125e+01 -1.198204517364501953e+00 1.201402282714843750e+01 3.244745731353759766e+00 3.328605368733406067e-02
3.306000000000000000e+03 6.519409942626953125e+01 3.671406555175781250e+01 -1.387457013130187988e+00 1.126468181610107422e+01 2.963167667388916016e+00 -9.300765991210937500e-01
3.307000000000000000e+03 6.387121582031250000e+01 3.670519256591796875e+01 -1.055075049400329590e+00 9.783828735351562500e+00 2.618626117706298828e+00 -2.108690500259399414e+00
3.308000000000000000e+03 6.918375396728515625e+01 3.424525451660156250e+01 1.097515344619750977e+00 1.087596130371093750e+01 3.592042922973632812e+00 1.478289961814880371e+00
3.309000000000000000e+03 6.955771636962890625e+01 3.047996902465820312e+01 3.321616172790527344e+00 9.947330474853515625e+00 3.980684041976928711e+00 -3.066864609718322754e-01
3.310000000000000000e+03 6.788896942138671875e+01 3.068172836303710938e+01 4.816282272338867188e+00 1.135640907287597656e+01 4.851807594299316406e+00 -2.268397361040115356e-01
3.311000000000000000e+03 6.969429779052734375e+01 2.615143775939941406e+01 3.999479711055755615e-01 1.019294357299804688e+01 3.177867412567138672e+00 -1.367750167846679688e+00
3.312000000000000000e+03 6.969079589843750000e+01 2.710423088073730469e+01 1.045953154563903809e+00 1.019614982604980469e+01 3.372631072998046875e+00 -1.438127994537353516e+00
3.313000000000000000e+03 6.772085571289062500e+01 2.721138954162597656e+01 7.241327166557312012e-01 1.185202217102050781e+01 3.772846460342407227e+00 -1.266174435615539551e+00
3.314000000000000000e+03 6.943536376953125000e+01 3.093885040283203125e+01 3.441754341125488281e+00 1.000653171539306641e+01 4.034485816955566406e+00 1.339779980480670929e-02
3.315000000000000000e+03 3.469738769531250000e+01 2.512050628662109375e+01 -3.473022282123565674e-01 -7.010961882770061493e-03 -1.062939614057540894e-01 -5.478391647338867188e-01
3.316000000000000000e+03 3.133588027954101562e+01 2.645686912536621094e+01 -2.791094779968261719e-01 -6.401677429676055908e-02 -1.029378771781921387e-01 -4.301187694072723389e-01
3.317000000000000000e+03 4.565541458129882812e+01 2.400636482238769531e+01 -4.583601951599121094e-01 2.314684540033340454e-01 -6.806752085685729980e-02 -4.613387286663055420e-01
3.318000000000000000e+03 6.351696014404296875e+01 3.542101287841796875e+01 -7.378352284431457520e-01 1.034358024597167969e+01 2.881723642349243164e+00 -2.830038309097290039e+00
3.319000000000000000e+03 5.737997817993164062e+01 2.369716072082519531e+01 3.529908955097198486e-01 2.065398693084716797e+00 7.255168557167053223e-01 1.588064789772033691e+00
3.320000000000000000e+03 5.476361846923828125e+01 2.466763687133789062e+01 -2.653113007545471191e-02 8.169260621070861816e-01 2.371184825897216797e-01 6.510195136070251465e-01
3.321000000000000000e+03 5.649269485473632812e+01 2.311378097534179688e+01 3.343954682350158691e-01 1.861178517341613770e+00 6.586721539497375488e-01 1.321724414825439453e+00
3.322000000000000000e+03 6.893173980712890625e+01 3.150593757629394531e+01 3.613739252090454102e+00 1.042378616333007812e+01 4.211257934570312500e+00 5.078915357589721680e-01
3.323000000000000000e+03 6.797834777832031250e+01 3.166678047180175781e+01 4.387928485870361328e+00 1.141629600524902344e+01 4.741267204284667969e+00 9.392271041870117188e-01
3.324000000000000000e+03 6.830182647705078125e+01 3.204788208007812500e+01 3.636566877365112305e+00 1.116522598266601562e+01 4.440537929534912109e+00 1.136384487152099609e+00
3.325000000000000000e+03 6.943679046630859375e+01 3.340515136718750000e+01 1.894216656684875488e+00 1.046741199493408203e+01 3.708488702774047852e+00 1.355144023895263672e+00
3.326000000000000000e+03 3.672558212280273438e+01 2.509086418151855469e+01 -4.174518585205078125e-01 4.616057127714157104e-02 -1.113873794674873352e-01 -5.726659297943115234e-01
3.327000000000000000e+03 3.755588912963867188e+01 2.511434936523437500e+01 -4.483937025070190430e-01 6.342461705207824707e-02 -1.154907271265983582e-01 -5.762686729431152344e-01
3.328000000000000000e+03 3.588253402709960938e+01 2.490420341491699219e+01 -3.727765977382659912e-01 1.943201757967472076e-02 -1.060033738613128662e-01 -5.683045983314514160e-01
3.329000000000000000e+03 3.282430267333984375e+01 2.610383415222167969e+01 -3.225165903568267822e-01 -3.777204453945159912e-02 -1.080865859985351562e-01 -4.746179580688476562e-01
3.330000000000000000e+03 4.269659423828125000e+01 2.314505195617675781e+01 -3.513346612453460693e-01 1.911140829324722290e-01 -4.806617274880409241e-02 -5.658363699913024902e-01
3.331000000000000000e+03 4.342897796630859375e+01 2.394272613525390625e+01 -4.530344009399414062e-01 1.847666054964065552e-01 -8.048034459352493286e-02 -5.453206896781921387e-01
3.332000000000000000e+03 5.273629379272460938e+01 2.459831428527832031e+01 -2.512233853340148926e-01 5.436542630195617676e-01 8.772926777601242065e-02 2.225263565778732300e-01
3.333000000000000000e+03 5.397769927978515625e+01 2.405433845520019531e+01 8.015586994588375092e-03 8.141976594924926758e-01 2.466639727354049683e-01 5.382284522056579590e-01
3.334000000000000000e+03 4.502145767211914062e+01 2.332019042968750000e+01 -3.574391007423400879e-01 2.536000311374664307e-01 -3.115171752870082855e-02 -4.870152473449707031e-01
3.335000000000000000e+03 4.494649505615234375e+01 2.399180030822753906e+01 -4.618703424930572510e-01 2.183452397584915161e-01 -7.305753231048583984e-02 -4.946188926696777344e-01
3.336000000000000000e+03 4.999407577514648438e+01 2.299135780334472656e+01 -1.380945742130279541e-01 5.075229406356811523e-01 1.108285039663314819e-01 -7.267110794782638550e-02
3.337000000000000000e+03 5.027390289306640625e+01 2.379531669616699219e+01 -2.627056241035461426e-01 4.426143765449523926e-01 5.397262796759605408e-02 -8.521869778633117676e-02
3.338000000000000000e+03 5.115247726440429688e+01 2.364991760253906250e+01 -1.736400276422500610e-01 5.247119665145874023e-01 1.053215786814689636e-01 4.907255992293357849e-02
3.339000000000000000e+03 6.947545623779296875e+01 2.915842437744140625e+01 2.603331804275512695e+00 1.010486602783203125e+01 3.812459230422973633e+00 -1.123801589012145996e+00
3.340000000000000000e+03 6.735785675048828125e+01 2.839978790283203125e+01 2.138141870498657227e+00 1.255915832519531250e+01 4.409190177917480469e+00 -1.593104481697082520e+00
3.341000000000000000e+03 4.840526199340820312e+01 2.347028541564941406e+01 -2.973667383193969727e-01 3.601822257041931152e-01 1.884463988244533539e-02 -2.646602392196655273e-01
3.342000000000000000e+03 5.198699188232421875e+01 2.373911666870117188e+01 -1.274796277284622192e-01 5.996919274330139160e-01 1.416636854410171509e-01 1.587656140327453613e-01
3.343000000000000000e+03 4.634168243408203125e+01 2.398690795898437500e+01 -4.437847733497619629e-01 2.530881166458129883e-01 -5.720899999141693115e-02 -4.268944263458251953e-01
3.344000000000000000e+03 4.700765609741210938e+01 2.388444900512695312e+01 -4.136306643486022949e-01 2.787738144397735596e-01 -4.045704752206802368e-02 -3.843243122100830078e-01
3.345000000000000000e+03 6.908418273925781250e+01 3.031940650939941406e+01 3.636699914932250977e+00 1.021802902221679688e+01 4.156418323516845703e+00 -4.345347881317138672e-01
3.346000000000000000e+03 4.917617797851562500e+01 2.323858451843261719e+01 -2.219303995370864868e-01 4.298940300941467285e-01 6.238909065723419189e-02 -1.770214438438415527e-01
3.347000000000000000e+03 5.458575820922851562e+01 2.397816848754882812e+01 7.420572638511657715e-02 9.479164481163024902e-01 3.066366612911224365e-01 6.761115789413452148e-01
3.348000000000000000e+03 5.597810363769531250e+01 2.391312408447265625e+01 2.289162874221801758e-01 1.374104857444763184e+00 4.809063374996185303e-01 1.087339639663696289e+00
3.349000000000000000e+03 5.543026351928710938e+01 2.464193534851074219e+01 6.175277754664421082e-02 9.807574152946472168e-01 3.127530515193939209e-01 8.332984447479248047e-01
3.350000000000000000e+03 7.045895385742187500e+01 2.175156402587890625e+01 -7.175812125205993652e-01 9.071632385253906250e+00 2.506215333938598633e+00 -7.723839282989501953e-01
3.351000000000000000e+03 6.900171661376953125e+01 2.085529518127441406e+01 -9.547061920166015625e-01 9.002270698547363281e+00 2.414269447326660156e+00 -2.807711064815521240e-01
3.352000000000000000e+03 7.016071319580078125e+01 2.454222869873046875e+01 -2.489634156227111816e-01 9.697319030761718750e+00 2.834506750106811523e+00 -1.168697714805603027e+00
3.353000000000000000e+03 6.783683776855468750e+01 -1.830018639564514160e+00 1.677043619565665722e-03 6.446632862091064453e+00 1.934492945671081543e+00 2.056444138288497925e-01
3.354000000000000000e+03 6.751320648193359375e+01 -3.392174959182739258e+00 1.909411326050758362e-02 6.349254131317138672e+00 1.910504460334777832e+00 1.992377042770385742e-01
3.355000000000000000e+03 6.887673950195312500e+01 3.532799911499023438e+01 8.676051348447799683e-02 1.123099708557128906e+01 3.395327091217041016e+00 1.317110180854797363e+00
3.356000000000000000e+03 3.916474151611328125e+01 2.563043785095214844e+01 -5.538432002067565918e-01 9.498915821313858032e-02 -1.376562118530273438e-01 -5.614982843399047852e-01
3.357000000000000000e+03 3.970256423950195312e+01 2.531810379028320312e+01 -5.375419855117797852e-01 1.055554151535034180e-01 -1.295959651470184326e-01 -5.728905200958251953e-01
3.358000000000000000e+03 6.969010162353515625e+01 2.250759124755859375e+01 -7.560881376266479492e-01 9.391399383544921875e+00 2.590593338012695312e+00 -7.081375122070312500e-01
3.359000000000000000e+03 6.335676574707031250e+01 3.966729354858398438e+01 -1.048284769058227539e+00 8.075761795043945312e+00 2.108242988586425781e+00 -1.189681768417358398e+00
3.360000000000000000e+03 6.783192443847656250e+01 1.116269969940185547e+01 -4.090393781661987305e-01 6.987964153289794922e+00 1.973677396774291992e+00 2.651937305927276611e-01
3.361000000000000000e+03 3.471897506713867188e+01 2.338736343383789062e+01 -2.618425190448760986e-01 -3.085486777126789093e-02 -8.780921250581741333e-02 -5.958945751190185547e-01
3.362000000000000000e+03 3.121488952636718750e+01 2.584191894531250000e+01 -2.499607205390930176e-01 -8.897679299116134644e-02 -1.016812548041343689e-01 -4.490380883216857910e-01
3.363000000000000000e+03 6.815093231201171875e+01 1.271100139617919922e+01 -5.132663249969482422e-01 7.232913970947265625e+00 2.015894174575805664e+00 2.175670564174652100e-01
3.364000000000000000e+03 6.968428802490234375e+01 2.086550712585449219e+01 -8.763923645019531250e-01 8.966593742370605469e+00 2.427060365676879883e+00 -4.646719396114349365e-01
3.365000000000000000e+03 3.206638717651367188e+01 2.506854057312011719e+01 -2.588271200656890869e-01 -8.103667944669723511e-02 -1.019591465592384338e-01 -4.969027340412139893e-01
3.366000000000000000e+03 3.240729141235351562e+01 2.311530876159667969e+01 -1.942917555570602417e-01 -1.170949488878250122e-01 -9.341601282358169556e-02 -5.598735809326171875e-01
3.367000000000000000e+03 6.905688476562500000e+01 1.849736595153808594e+01 -8.901646733283996582e-01 8.366772651672363281e+00 2.242982387542724609e+00 -9.711705893278121948e-02
3.368000000000000000e+03 6.981369781494140625e+01 1.827767372131347656e+01 -8.314757347106933594e-01 8.358653068542480469e+00 2.258153438568115234e+00 -2.391263395547866821e-01
3.369000000000000000e+03 3.848612976074218750e+01 2.575325202941894531e+01 -5.326436161994934082e-01 8.451959490776062012e-02 -1.344372034072875977e-01 -5.587068796157836914e-01
3.370000000000000000e+03 3.673736572265625000e+01 2.443208312988281250e+01 -3.709309697151184082e-01 3.854799270629882812e-02 -9.971489757299423218e-02 -5.918779969215393066e-01
3.371000000000000000e+03 3.447130584716796875e+01 1.859558296203613281e+01 -3.666098415851593018e-02 -9.652253240346908569e-02 -3.995505347847938538e-02 -6.351275444030761719e-01
3.372000000000000000e+03 3.202735137939453125e+01 2.585419654846191406e+01 -2.779477834701538086e-01 -6.802466511726379395e-02 -1.037917286157608032e-01 -4.682402312755584717e-01
3.373000000000000000e+03 3.312150955200195312e+01 2.442473411560058594e+01 -2.654354572296142578e-01 -6.476832181215286255e-02 -9.906113892793655396e-02 -5.423366427421569824e-01
3.374000000000000000e+03 3.576285552978515625e+01 1.608859252929687500e+01 6.394844502210617065e-02 -1.989840902388095856e-02 1.321501191705465317e-02 -6.144021153450012207e-01
3.375000000000000000e+03 3.426657104492187500e+01 1.197149848937988281e+01 1.233304440975189209e-01 -1.175404414534568787e-01 1.737002516165375710e-03 -5.512486100196838379e-01
3.376000000000000000e+03 6.919013214111328125e+01 2.174362897872924805e+00 -6.657630950212478638e-02 6.808770656585693359e+00 2.022658348083496094e+00 1.963762640953063965e-01
3.377000000000000000e+03 6.938455200195312500e+01 5.615293979644775391e+00 -1.487143486738204956e-01 6.960673332214355469e+00 2.043587684631347656e+00 1.831266880035400391e-01
3.378000000000000000e+03 7.028698730468750000e+01 7.894357681274414062e+00 -2.207172662019729614e-01 7.235776424407958984e+00 2.104517698287963867e+00 1.181595697999000549e-01
3.379000000000000000e+03 7.007030487060546875e+01 1.410940933227539062e+01 -5.676286816596984863e-01 7.707538604736328125e+00 2.141973018646240234e+00 -3.377000615000724792e-02
3.380000000000000000e+03 3.278020858764648438e+01 9.049217224121093750e+00 1.186483576893806458e-01 -2.643886804580688477e-01 -4.372210055589675903e-02 -4.937642514705657959e-01
3.381000000000000000e+03 3.794290924072265625e+01 1.188325214385986328e+01 2.039754241704940796e-01 2.247028052806854248e-01 1.286034733057022095e-01 -4.985851049423217773e-01
3.382000000000000000e+03 3.442443466186523438e+01 1.435780525207519531e+01 8.715808391571044922e-02 -1.118303239345550537e-01 -7.401671260595321655e-03 -5.924170613288879395e-01
3.383000000000000000e+03 3.456585693359375000e+01 1.540841770172119141e+01 6.615833193063735962e-02 -1.021201312541961670e-01 -1.078854035586118698e-02 -6.075142621994018555e-01
3.384000000000000000e+03 3.050861549377441406e+01 -8.742161750793457031e+00 6.581831723451614380e-02 -6.179520487785339355e-01 -1.656401157379150391e-01 -1.964681297540664673e-01
3.385000000000000000e+03 2.875578880310058594e+01 -9.758991241455078125e+00 3.475960344076156616e-02 -8.968525528907775879e-01 -2.586278915405273438e-01 -1.796021610498428345e-01
3.386000000000000000e+03 3.263418960571289062e+01 7.204382419586181641e+00 1.162223368883132935e-01 -2.682922184467315674e-01 -4.562095925211906433e-02 -4.556055665016174316e-01
3.387000000000000000e+03 6.930155181884765625e+01 7.346159458160400391e+00 -2.191351056098937988e-01 7.036983489990234375e+00 2.045354604721069336e+00 1.710023134946823120e-01
3.388000000000000000e+03 6.884588623046875000e+01 2.871110200881958008e+00 -7.567435503005981445e-02 6.757188320159912109e+00 2.004454135894775391e+00 2.033350318670272827e-01
3.389000000000000000e+03 3.433577728271484375e+01 1.321888637542724609e+01 1.066887825727462769e-01 -1.169790029525756836e-01 -3.087067976593971252e-03 -5.735307931900024414e-01
3.390000000000000000e+03 6.758189392089843750e+01 -4.940435409545898438e+00 3.068567998707294464e-02 6.337510108947753906e+00 1.910458803176879883e+00 1.934562325477600098e-01
3.391000000000000000e+03 6.662844848632812500e+01 -1.036050891876220703e+01 4.966970905661582947e-02 6.085442066192626953e+00 1.840533614158630371e+00 1.500510424375534058e-01
3.392000000000000000e+03 6.678972625732421875e+01 -1.163752841949462891e+01 4.568242654204368591e-02 6.116212844848632812e+00 1.848568558692932129e+00 1.397371739149093628e-01
3.393000000000000000e+03 2.863030242919921875e+01 -1.098696041107177734e+01 2.802001498639583588e-02 -9.157189726829528809e-01 -2.663096785545349121e-01 -1.682452857494354248e-01
3.394000000000000000e+03 6.561705780029296875e+01 -1.203912448883056641e+01 5.824677273631095886e-02 5.890988349914550781e+00 1.784770607948303223e+00 1.360547393560409546e-01
3.395000000000000000e+03 6.777056884765625000e+01 -1.194398689270019531e+01 3.541146591305732727e-02 6.328923225402832031e+00 1.909300446510314941e+00 1.500604450702667236e-01
3.396000000000000000e+03 6.882028198242187500e+01 1.354928302764892578e+01 -5.585153698921203613e-01 7.465669155120849609e+00 2.072146177291870117e+00 1.188997030258178711e-01
3.397000000000000000e+03 3.265263366699218750e+01 2.373333692550659180e+00 1.249658390879631042e-01 -2.716126739978790283e-01 -4.399404674768447876e-02 -3.514393568038940430e-01
3.398000000000000000e+03 3.291755294799804688e+01 7.551980018615722656e-01 1.251554638147354126e-01 -2.370402216911315918e-01 -3.356542810797691345e-02 -3.251652121543884277e-01
3.399000000000000000e+03 3.302346038818359375e+01 -4.173512458801269531e+00 1.145855560898780823e-01 -2.047737389802932739e-01 -2.705645561218261719e-02 -2.393632829189300537e-01
3.400000000000000000e+03 3.138636207580566406e+01 -4.781684875488281250e+00 8.916030079126358032e-02 -4.479077756404876709e-01 -1.076242402195930481e-01 -2.411767542362213135e-01
3.401000000000000000e+03 3.366898727416992188e+01 -5.698601722717285156e+00 1.098782196640968323e-01 -1.063160747289657593e-01 1.068643992766737938e-03 -2.201601564884185791e-01
3.402000000000000000e+03 3.399919891357421875e+01 -1.992851853370666504e+00 1.387830674648284912e-01 -5.859592929482460022e-02 2.405614219605922699e-02 -2.673577368259429932e-01
3.403000000000000000e+03 6.980300140380859375e+01 4.013123703002929688e+01 -1.524348616600036621e+00 1.030659675598144531e+01 2.634674549102783203e+00 3.192228376865386963e-01
3.404000000000000000e+03 6.799457550048828125e+01 3.491019058227539062e+01 1.738957762718200684e-01 1.196825027465820312e+01 3.642643928527832031e+00 1.405165076255798340e+00
3.405000000000000000e+03 6.706016540527343750e+01 8.778040885925292969e+00 -2.746474146842956543e-01 6.609080791473388672e+00 1.900330066680908203e+00 3.196716010570526123e-01
3.406000000000000000e+03 6.907981872558593750e+01 9.611203193664550781e+00 -3.082576096057891846e-01 7.130896568298339844e+00 2.046791791915893555e+00 1.519582122564315796e-01
3.407000000000000000e+03 6.512767028808593750e+01 -1.400234889984130859e+01 5.674247071146965027e-02 5.799891471862792969e+00 1.756990194320678711e+00 1.214330345392227173e-01
3.408000000000000000e+03 6.711377716064453125e+01 -2.116022872924804688e+01 3.792300820350646973e-02 6.173776149749755859e+00 1.863509774208068848e+00 8.458755165338516235e-02
3.409000000000000000e+03 6.960052490234375000e+01 6.469226837158203125e+00 -1.778001189231872559e-01 7.059624195098876953e+00 2.064547300338745117e+00 1.659692823886871338e-01
3.410000000000000000e+03 6.785413360595703125e+01 2.598942041397094727e+00 -6.855103373527526855e-02 6.526452541351318359e+00 1.937370419502258301e+00 2.408320456743240356e-01
3.411000000000000000e+03 3.121924400329589844e+01 -2.582428169250488281e+01 2.080818638205528259e-02 -4.407201707363128662e-01 -1.259735971689224243e-01 -6.052949279546737671e-02
3.412000000000000000e+03 6.627998352050781250e+01 2.756453132629394531e+01 3.079095184803009033e-01 1.365184593200683594e+01 4.187926769256591797e+00 -6.247735619544982910e-01
3.413000000000000000e+03 6.419915771484375000e+01 2.623376464843750000e+01 -8.970655202865600586e-01 1.101679420471191406e+01 3.035918712615966797e+00 2.716388463973999023e+00
3.414000000000000000e+03 6.825964355468750000e+01 2.875054168701171875e+01 2.655023336410522461e+00 1.131137943267822266e+01 4.189920902252197266e+00 -1.469454407691955566e+00
3.415000000000000000e+03 6.218244934082031250e+01 2.699592781066894531e+01 4.615364968776702881e-01 6.526539325714111328e+00 2.096422672271728516e+00 4.307783126831054688e+00
3.416000000000000000e+03 6.171426391601562500e+01 2.709101104736328125e+01 7.457567453384399414e-01 5.178645133972167969e+00 1.777320504188537598e+00 4.011141777038574219e+00
3.417000000000000000e+03 6.530321502685546875e+01 2.734010314941406250e+01 -5.863472223281860352e-01 1.396019840240478516e+01 4.012155055999755859e+00 1.014995574951171875e+00
3.418000000000000000e+03 6.923254394531250000e+01 2.563504028320312500e+01 4.142702370882034302e-02 1.039594364166259766e+01 3.131211280822753906e+00 -1.207080245018005371e+00
3.419000000000000000e+03 5.941839981079101562e+01 2.532870101928710938e+01 4.745276570320129395e-01 2.793294429779052734e+00 9.803466200828552246e-01 2.424974679946899414e+00
3.420000000000000000e+03 6.814053344726562500e+01 2.955100631713867188e+01 3.696068763732910156e+00 1.129058074951171875e+01 4.495995044708251953e+00 -1.241555333137512207e+00
3.421000000000000000e+03 6.518624877929687500e+01 2.589334297180175781e+01 -1.042569756507873535e+00 1.165908050537109375e+01 3.184953212738037109e+00 1.472367167472839355e+00
3.422000000000000000e+03 6.707635498046875000e+01 3.740418243408203125e+01 -1.336456894874572754e+00 1.122189331054687500e+01 2.965631008148193359e+00 3.246497809886932373e-01
3.423000000000000000e+03 5.976194000244140625e+01 2.572003746032714844e+01 5.202906727790832520e-01 2.931228399276733398e+00 1.035455703735351562e+00 2.610816478729248047e+00
3.424000000000000000e+03 6.044177627563476562e+01 2.645578002929687500e+01 6.470850706100463867e-01 3.291889190673828125e+00 1.181692242622375488e+00 3.016434669494628906e+00
3.425000000000000000e+03 6.932750701904296875e+01 2.978787231445312500e+01 3.079752206802368164e+00 1.012584114074707031e+01 3.961678028106689453e+00 -7.751449942588806152e-01
3.426000000000000000e+03 6.919288635253906250e+01 2.465996932983398438e+01 -3.915134668350219727e-01 1.017617702484130859e+01 2.935399055480957031e+00 -9.890810251235961914e-01
3.427000000000000000e+03 6.896846771240234375e+01 2.318901062011718750e+01 -8.017913699150085449e-01 9.768181800842285156e+00 2.689917087554931641e+00 -5.903896093368530273e-01
3.428000000000000000e+03 6.851519775390625000e+01 2.737394905090332031e+01 1.106997013092041016e+00 1.115314769744873047e+01 3.678043603897094727e+00 -1.452888607978820801e+00
3.429000000000000000e+03 6.926267242431640625e+01 2.756476020812988281e+01 1.400766253471374512e+00 1.055163288116455078e+01 3.585719823837280273e+00 -1.488249421119689941e+00
3.430000000000000000e+03 4.569464874267578125e+01 2.339686584472656250e+01 -3.603553175926208496e-01 2.657400965690612793e-01 -2.838456258177757263e-02 -4.478770494461059570e-01
3.431000000000000000e+03 6.971340179443359375e+01 2.511480140686035156e+01 -1.227043867111206055e-01 1.002281093597412109e+01 2.970031976699829102e+00 -1.188006997108459473e+00
3.432000000000000000e+03 5.868438339233398438e+01 2.445862197875976562e+01 3.909728527069091797e-01 2.577131271362304688e+00 8.904312849044799805e-01 2.080483675003051758e+00
3.433000000000000000e+03 6.927604675292968750e+01 2.854306030273437500e+01 2.206594944000244141e+00 1.037633800506591797e+01 3.774879932403564453e+00 -1.370849013328552246e+00
3.434000000000000000e+03 6.893154144287109375e+01 3.087001037597656250e+01 3.805063486099243164e+00 1.034201431274414062e+01 4.244123458862304688e+00 -1.725570298731327057e-02
3.435000000000000000e+03 5.526331329345703125e+01 2.393093490600585938e+01 1.499163955450057983e-01 1.146682858467102051e+00 3.889797925949096680e-01 8.701498508453369141e-01
3.436000000000000000e+03 3.609883880615234375e+01 2.430283737182617188e+01 -3.457134068012237549e-01 1.933924295008182526e-02 -9.791225194931030273e-02 -5.892181396484375000e-01
3.437000000000000000e+03 6.892975616455078125e+01 2.714329147338867188e+01 1.008264064788818359e+00 1.081338405609130859e+01 3.546494483947753906e+00 -1.449622392654418945e+00
3.438000000000000000e+03 3.428908538818359375e+01 2.405638504028320312e+01 -2.823303937911987305e-01 -3.509583324193954468e-02 -9.522786736488342285e-02 -5.727058649063110352e-01
3.439000000000000000e+03 4.448088455200195312e+01 2.246758460998535156e+01 -2.512195706367492676e-01 2.713376581668853760e-01 6.035426631569862366e-03 -4.943614006042480469e-01
3.440000000000000000e+03 4.362378692626953125e+01 2.238619232177734375e+01 -2.546904981136322021e-01 2.439627796411514282e-01 -3.218315541744232178e-03 -5.319138169288635254e-01
3.441000000000000000e+03 5.367003250122070312e+01 2.345520019531250000e+01 6.379926204681396484e-02 8.893313407897949219e-01 2.859391868114471436e-01 5.192002654075622559e-01
3.442000000000000000e+03 5.337576293945312500e+01 2.395963859558105469e+01 -4.072934389114379883e-02 7.435070276260375977e-01 2.108333110809326172e-01 4.046580493450164795e-01
3.443000000000000000e+03 6.010213470458984375e+01 2.609746551513671875e+01 5.731328725814819336e-01 3.096871137619018555e+00 1.101001262664794922e+00 2.799703121185302734e+00
3.444000000000000000e+03 4.429573059082031250e+01 2.322816848754882812e+01 -3.551299870014190674e-01 2.273179888725280762e-01 -3.834359720349311829e-02 -5.144026279449462891e-01
3.445000000000000000e+03 4.763545989990234375e+01 2.213812446594238281e+01 -1.118966639041900635e-01 4.412733614444732666e-01 9.881301224231719971e-02 -2.750250697135925293e-01
3.446000000000000000e+03 5.087368392944335938e+01 2.271715545654296875e+01 -3.223565593361854553e-02 6.328584551811218262e-01 1.801868379116058350e-01 6.973351538181304932e-02
3.447000000000000000e+03 4.738721084594726562e+01 2.308602523803710938e+01 -2.702244222164154053e-01 3.436068296432495117e-01 2.201472222805023193e-02 -3.350504934787750244e-01
3.448000000000000000e+03 4.682346725463867188e+01 2.335320663452148438e+01 -3.276536166667938232e-01 3.150503337383270264e-01 -3.780982224270701408e-03 -3.804661035537719727e-01
3.449000000000000000e+03 4.880625152587890625e+01 2.250182151794433594e+01 -1.181523278355598450e-01 4.796524643898010254e-01 1.084500402212142944e-01 -1.808561384677886963e-01
3.450000000000000000e+03 5.316109466552734375e+01 2.266291427612304688e+01 1.455463767051696777e-01 9.916476607322692871e-01 3.411582112312316895e-01 4.791679382324218750e-01
3.451000000000000000e+03 3.294845581054687500e+01 2.527128982543945312e+01 -2.948932647705078125e-01 -5.269246920943260193e-02 -1.042757257819175720e-01 -5.111436247825622559e-01
3.452000000000000000e+03 6.970662689208984375e+01 2.168950653076171875e+01 -8.356425762176513672e-01 9.187047004699707031e+00 2.505421161651611328e+00 -5.855056047439575195e-01
3.453000000000000000e+03 5.632228469848632812e+01 2.240349388122558594e+01 3.443450033664703369e-01 1.992770195007324219e+00 7.011345624923706055e-01 1.290453076362609863e+00
3.454000000000000000e+03 6.868000793457031250e+01 2.430408096313476562e+01 -6.149619817733764648e-01 1.018411731719970703e+01 2.870746612548828125e+00 -7.291274070739746094e-01
3.455000000000000000e+03 5.432809066772460938e+01 2.325847053527832031e+01 1.473589986562728882e-01 1.078037858009338379e+00 3.676190674304962158e-01 6.888710856437683105e-01
3.456000000000000000e+03 5.506410980224609375e+01 2.319640731811523438e+01 2.251785695552825928e-01 1.298432588577270508e+00 4.570833444595336914e-01 8.855475187301635742e-01
3.457000000000000000e+03 3.994495391845703125e+01 2.468743896484375000e+01 -4.853534102439880371e-01 1.101905927062034607e-01 -1.125488430261611938e-01 -5.900317430496215820e-01
3.458000000000000000e+03 3.322371673583984375e+01 4.643852710723876953e+00 1.366765797138214111e-01 -2.017651349306106567e-01 -1.952656544744968414e-02 -4.009639620780944824e-01
3.459000000000000000e+03 3.494413375854492188e+01 8.416733741760253906e+00 1.640428751707077026e-01 -2.723601087927818298e-02 4.104205965995788574e-02 -4.726411402225494385e-01
3.460000000000000000e+03 3.415116119384765625e+01 1.055725002288818359e+01 1.369647234678268433e-01 -1.230426952242851257e-01 4.176605958491563797e-03 -5.227511525154113770e-01
3.461000000000000000e+03 6.820935058593750000e+01 3.644012451171875000e+01 -8.128718137741088867e-01 1.151894760131835938e+01 3.211822748184204102e+00 1.023079156875610352e+00
3.462000000000000000e+03 6.830488586425781250e+01 6.850205421447753906e+00 -2.008052319288253784e-01 6.760092735290527344e+00 1.967786312103271484e+00 2.343599051237106323e-01
3.463000000000000000e+03 6.868831634521484375e+01 8.031730651855468750e+00 -2.474026679992675781e-01 6.967554569244384766e+00 2.016045570373535156e+00 2.011914402246475220e-01
3.464000000000000000e+03 6.782267761230468750e+01 5.609373092651367188e+00 -1.523344963788986206e-01 6.627686977386474609e+00 1.942605853080749512e+00 2.484642863273620605e-01
3.465000000000000000e+03 3.272746276855468750e+01 -1.746369004249572754e+00 1.156004369258880615e-01 -2.666306495666503906e-01 -4.530906677246093750e-02 -2.802205681800842285e-01
3.466000000000000000e+03 6.871654510498046875e+01 1.944598579406738281e+01 -9.600336551666259766e-01 8.586688995361328125e+00 2.287996768951416016e+00 -6.930227577686309814e-02
3.467000000000000000e+03 3.309412002563476562e+01 2.057146072387695312e+01 -1.098650470376014709e-01 -1.395718008279800415e-01 -7.483105361461639404e-02 -6.127845644950866699e-01
3.468000000000000000e+03 3.494036865234375000e+01 1.943772125244140625e+01 -7.031670212745666504e-02 -6.680130213499069214e-02 -4.113540053367614746e-02 -6.399087309837341309e-01
3.469000000000000000e+03 6.955844116210937500e+01 1.575156021118164062e+01 -6.866661310195922852e-01 7.864420890808105469e+00 2.153326511383056641e+00 -3.381570801138877869e-02
3.470000000000000000e+03 6.959210205078125000e+01 1.681735229492187500e+01 -7.500733733177185059e-01 8.064390182495117188e+00 2.194294929504394531e+00 -1.062791347503662109e-01
3.471000000000000000e+03 6.924333953857421875e+01 1.433568763732910156e+01 -6.009480357170104980e-01 7.622036933898925781e+00 2.106326580047607422e+00 5.247252807021141052e-02
3.472000000000000000e+03 6.725022125244140625e+01 1.200140285491943359e+01 -4.590276181697845459e-01 6.936708927154541016e+00 1.943304419517517090e+00 3.338259756565093994e-01
3.473000000000000000e+03 3.649370574951171875e+01 2.387170410156250000e+01 -3.287626802921295166e-01 2.695260755717754364e-02 -9.054301679134368896e-02 -6.043949723243713379e-01
3.474000000000000000e+03 6.586840057373046875e+01 -3.498722314834594727e+00 3.267043083906173706e-02 5.997099399566650391e+00 1.808930993080139160e+00 2.135527431964874268e-01
3.475000000000000000e+03 6.547647857666015625e+01 3.800213241577148438e+01 -1.515527844429016113e+00 1.057953834533691406e+01 2.719203233718872070e+00 -6.879500746726989746e-01
3.476000000000000000e+03 6.595424652099609375e+01 1.336514568328857422e+01 -5.321239829063415527e-01 6.801144599914550781e+00 1.880706191062927246e+00 5.118563771247863770e-01
3.477000000000000000e+03 6.667492675781250000e+01 1.062314319610595703e+01 -3.719540536403656006e-01 6.684985637664794922e+00 1.893909454345703125e+00 3.670226037502288818e-01
3.478000000000000000e+03 3.552566528320312500e+01 1.414742374420166016e+01 1.093189716339111328e-01 -2.592730335891246796e-02 2.501749992370605469e-02 -5.846205353736877441e-01
3.479000000000000000e+03 3.012080383300781250e+01 -1.044188857078552246e+00 7.316124439239501953e-02 -6.584535837173461914e-01 -1.755876988172531128e-01 -2.831091582775115967e-01
3.480000000000000000e+03 6.703151702880859375e+01 -9.754087924957275391e-01 -3.865584498271346092e-03 6.285272121429443359e+00 1.884421944618225098e+00 2.268299758434295654e-01
3.481000000000000000e+03 3.548453903198242188e+01 1.183690547943115234e+01 1.460802257061004639e-01 -1.336893066763877869e-02 3.981338813900947571e-02 -5.426776409149169922e-01
3.482000000000000000e+03 3.663571548461914062e+01 1.402539634704589844e+01 1.315911561250686646e-01 6.439803540706634521e-02 5.879675969481468201e-02 -5.720959901809692383e-01
3.483000000000000000e+03 3.532915115356445312e+01 -1.371417713165283203e+01 8.770287036895751953e-02 2.278130948543548584e-01 9.465479105710983276e-02 -1.061955541372299194e-01
3.484000000000000000e+03 3.317677307128906250e+01 -1.068651676177978516e+01 8.506615459918975830e-02 -1.513587832450866699e-01 -1.988779008388519287e-02 -1.644319295883178711e-01
3.485000000000000000e+03 3.296293258666992188e+01 2.215701293945312500e+01 -1.689824163913726807e-01 -1.166263148188591003e-01 -8.568261563777923584e-02 -5.888114571571350098e-01
3.486000000000000000e+03 3.508007431030273438e+01 2.453810501098632812e+01 -3.303549289703369141e-01 -4.394100978970527649e-03 -1.004247143864631653e-01 -5.704087018966674805e-01
3.487000000000000000e+03 6.795691680908203125e+01 4.683237552642822266e+00 -1.192173510789871216e-01 6.626584053039550781e+00 1.952209949493408203e+00 2.403617948293685913e-01
3.488000000000000000e+03 6.775990295410156250e+01 -7.795356750488281250e+00 3.975042700767517090e-02 6.353870391845703125e+00 1.918086290359497070e+00 1.748725771903991699e-01
3.489000000000000000e+03 6.698217010498046875e+01 -9.071465492248535156e+00 5.363471060991287231e-02 6.177309989929199219e+00 1.869283437728881836e+00 1.615497618913650513e-01
3.490000000000000000e+03 3.330738067626953125e+01 3.555556058883666992e+00 1.335902214050292969e-01 -1.928874105215072632e-01 -1.778915710747241974e-02 -3.761814832687377930e-01
3.491000000000000000e+03 3.526483917236328125e+01 4.609117507934570312e+00 1.755853742361068726e-01 4.623502865433692932e-02 6.654611974954605103e-02 -3.858389854431152344e-01
3.492000000000000000e+03 6.681409454345703125e+01 -2.639154911041259766e+00 2.423368766903877258e-02 6.216032981872558594e+00 1.872079968452453613e+00 2.148323357105255127e-01
3.493000000000000000e+03 3.671040725708007812e+01 1.585957145690917969e+01 8.620595932006835938e-02 4.753508791327476501e-02 4.012231528759002686e-02 -6.030396819114685059e-01
3.494000000000000000e+03 3.561014175415039062e+01 1.515602874755859375e+01 8.770855516195297241e-02 -2.585922554135322571e-02 1.855479739606380463e-02 -6.010472774505615234e-01
3.495000000000000000e+03 3.242128372192382812e+01 -7.952978610992431641e+00 9.332749992609024048e-02 -2.795018553733825684e-01 -5.585230514407157898e-02 -1.959722042083740234e-01
3.496000000000000000e+03 3.161128616333007812e+01 -6.312150478363037109e+00 8.346065133810043335e-02 -4.386118650436401367e-01 -1.065453663468360901e-01 -2.186424881219863892e-01
3.497000000000000000e+03 6.608383941650390625e+01 -1.250103861093521118e-01 -3.322373086120933294e-04 6.086784362792968750e+00 1.825935721397399902e+00 2.470000386238098145e-01
3.498000000000000000e+03 6.716008758544921875e+01 7.979534864425659180e-01 -2.937636896967887878e-02 6.341432571411132812e+00 1.893616914749145508e+00 2.362987548112869263e-01
3.499000000000000000e+03 3.689986419677734375e+01 1.666215896606445312e+01 6.077692657709121704e-02 5.246192589402198792e-02 3.397165611386299133e-02 -6.143521070480346680e-01
3.500000000000000000e+03 3.505638122558593750e+01 1.730205917358398438e+01 1.458319555968046188e-02 -6.806170195341110229e-02 -1.604355312883853912e-02 -6.300544142723083496e-01
3.501000000000000000e+03 6.784626770019531250e+01 -1.363348579406738281e+01 4.015645012259483337e-02 6.331826686859130859e+00 1.911594986915588379e+00 1.308398693799972534e-01
3.502000000000000000e+03 6.308069229125976562e+01 -1.013248348236083984e+01 8.299168199300765991e-02 5.373905658721923828e+00 1.637069106101989746e+00 1.702232211828231812e-01
3.503000000000000000e+03 6.688877868652343750e+01 -6.041335105895996094e+00 4.535423219203948975e-02 6.179423332214355469e+00 1.867433309555053711e+00 1.895347237586975098e-01
3.504000000000000000e+03 6.623922729492187500e+01 2.788150405883789062e+01 7.643237113952636719e-01 1.414265441894531250e+01 4.472093105316162109e+00 -8.871129751205444336e-01
3.505000000000000000e+03 6.825628662109375000e+01 2.835449218750000000e+01 2.147000074386596680e+00 1.142610454559326172e+01 4.071931362152099609e+00 -1.553050637245178223e+00
3.506000000000000000e+03 6.356691741943359375e+01 2.575440406799316406e+01 -6.913285255432128906e-01 9.407019615173339844e+00 2.614707231521606445e+00 3.158384561538696289e+00
3.507000000000000000e+03 6.835798645019531250e+01 2.631233978271484375e+01 2.117380946874618530e-01 1.111479663848876953e+01 3.397960424423217773e+00 -1.154349923133850098e+00
3.508000000000000000e+03 6.109926605224609375e+01 2.644235992431640625e+01 6.063005328178405762e-01 4.333026885986328125e+00 1.481798291206359863e+00 3.458824872970581055e+00
3.509000000000000000e+03 6.407083892822265625e+01 2.564971351623535156e+01 -9.247202873229980469e-01 1.016471290588378906e+01 2.771997928619384766e+00 2.648559570312500000e+00
3.510000000000000000e+03 6.775105285644531250e+01 2.910902976989746094e+01 3.271192550659179688e+00 1.191465282440185547e+01 4.555753707885742188e+00 -1.545284748077392578e+00
3.511000000000000000e+03 6.778552246093750000e+01 2.840455627441406250e+01 2.228794097900390625e+00 1.193159008026123047e+01 4.248115539550781250e+00 -1.586877107620239258e+00
3.512000000000000000e+03 6.592947387695312500e+01 2.683816909790039062e+01 -5.554079413414001465e-01 1.308690452575683594e+01 3.759449005126953125e+00 3.044118285179138184e-01
3.513000000000000000e+03 6.837201690673828125e+01 2.559807205200195312e+01 -2.034862935543060303e-01 1.085282421112060547e+01 3.194801330566406250e+00 -9.454861879348754883e-01
3.514000000000000000e+03 6.469767761230468750e+01 2.610187530517578125e+01 -1.006038188934326172e+00 1.148499584197998047e+01 3.143687248229980469e+00 2.088303804397583008e+00
3.515000000000000000e+03 6.315002822875976562e+01 2.597122764587402344e+01 -4.690551161766052246e-01 8.798007965087890625e+00 2.498685836791992188e+00 3.494179487228393555e+00
3.516000000000000000e+03 6.194689178466796875e+01 2.677382087707519531e+01 4.858870804309844971e-01 6.056422710418701172e+00 1.962692975997924805e+00 4.034068107604980469e+00
3.517000000000000000e+03 5.978260040283203125e+01 2.497636795043945312e+01 4.199842810630798340e-01 3.345123529434204102e+00 1.129532337188720703e+00 2.599993228912353516e+00
3.518000000000000000e+03 5.829044723510742188e+01 2.395641136169433594e+01 3.789283037185668945e-01 2.526913642883300781e+00 8.717526197433471680e-01 1.920606255531311035e+00
3.519000000000000000e+03 5.944030761718750000e+01 2.456808090209960938e+01 3.884798884391784668e-01 3.182038545608520508e+00 1.071155548095703125e+00 2.419306039810180664e+00
3.520000000000000000e+03 6.880516815185546875e+01 2.917679405212402344e+01 2.985775232315063477e+00 1.076475524902343750e+01 4.125159263610839844e+00 -1.284864902496337891e+00
3.521000000000000000e+03 6.873633575439453125e+01 2.783530044555664062e+01 1.638913512229919434e+00 1.096837615966796875e+01 3.782186746597290039e+00 -1.528862118721008301e+00
3.522000000000000000e+03 6.877558898925781250e+01 2.872816276550292969e+01 2.575206756591796875e+00 1.080628108978271484e+01 4.014446258544921875e+00 -1.409584641456604004e+00
3.523000000000000000e+03 5.711877441406250000e+01 2.296980857849121094e+01 3.506375253200531006e-01 2.181897401809692383e+00 7.597604990005493164e-01 1.518067598342895508e+00
3.524000000000000000e+03 5.847245407104492188e+01 2.308451461791992188e+01 3.349079191684722900e-01 2.966165304183959961e+00 9.903219938278198242e-01 1.968526601791381836e+00
3.525000000000000000e+03 4.520307159423828125e+01 2.267058181762695312e+01 -2.615138888359069824e-01 2.917433679103851318e-01 9.068850427865982056e-03 -4.636980295181274414e-01
3.526000000000000000e+03 5.693016052246093750e+01 2.228326034545898438e+01 3.531133532524108887e-01 2.306849718093872070e+00 7.979889512062072754e-01 1.465491771697998047e+00
3.527000000000000000e+03 5.580011749267578125e+01 2.317095184326171875e+01 2.948485910892486572e-01 1.555298924446105957e+00 5.550442934036254883e-01 1.111857295036315918e+00
3.528000000000000000e+03 6.878036499023437500e+01 2.646322822570800781e+01 4.154175519943237305e-01 1.083027458190917969e+01 3.373707532882690430e+00 -1.286071062088012695e+00
3.529000000000000000e+03 4.350999832153320312e+01 2.317383575439453125e+01 -3.525712192058563232e-01 2.123634666204452515e-01 -4.206233099102973938e-02 -5.428507328033447266e-01
3.530000000000000000e+03 4.280420684814453125e+01 2.238096237182617188e+01 -2.604019045829772949e-01 2.167015522718429565e-01 -1.311010122299194336e-02 -5.599902272224426270e-01
3.531000000000000000e+03 6.556280517578125000e+01 2.730441284179687500e+01 -4.117320179939270020e-01 1.364228916168212891e+01 3.969167232513427734e+00 5.538876652717590332e-01
3.532000000000000000e+03 6.802932739257812500e+01 2.755033874511718750e+01 1.209374547004699707e+00 1.165315532684326172e+01 3.858758926391601562e+00 -1.462119460105895996e+00
3.533000000000000000e+03 3.378211212158203125e+01 2.140457344055175781e+01 -1.481317728757858276e-01 -9.817100316286087036e-02 -7.389082759618759155e-02 -6.157800555229187012e-01
3.534000000000000000e+03 4.645019149780273438e+01 2.295137214660644531e+01 -2.727503478527069092e-01 3.187247216701507568e-01 1.379230525344610214e-02 -3.983833491802215576e-01
3.535000000000000000e+03 4.630255126953125000e+01 2.344730949401855469e+01 -3.592490255832672119e-01 2.723152339458465576e-01 -2.608013339340686798e-02 -4.225596487522125244e-01
3.536000000000000000e+03 6.892901611328125000e+01 2.378699684143066406e+01 -6.870456933975219727e-01 1.000491619110107422e+01 2.795361280441284180e+00 -7.205674052238464355e-01
3.537000000000000000e+03 6.953159332275390625e+01 2.406317520141601562e+01 -5.018123388290405273e-01 9.851081848144531250e+00 2.804780721664428711e+00 -9.366712570190429688e-01
3.538000000000000000e+03 6.684269714355468750e+01 3.506015014648437500e+01 -3.947454392910003662e-01 1.275843811035156250e+01 3.709107637405395508e+00 8.192532658576965332e-01
3.539000000000000000e+03 5.172670364379882812e+01 2.229025077819824219e+01 8.937902003526687622e-02 8.040061593055725098e-01 2.680155634880065918e-01 2.311816960573196411e-01
3.540000000000000000e+03 5.271164321899414062e+01 2.385734939575195312e+01 -7.628448307514190674e-02 6.830182671546936035e-01 1.820201277732849121e-01 2.908616065979003906e-01
3.541000000000000000e+03 5.402391815185546875e+01 2.241080665588378906e+01 2.419738620519638062e-01 1.224193811416625977e+00 4.398503303527832031e-01 6.827237606048583984e-01
3.542000000000000000e+03 4.806575393676757812e+01 2.279547691345214844e+01 -1.976908892393112183e-01 4.070402085781097412e-01 6.280479580163955688e-02 -2.657344639301300049e-01
3.543000000000000000e+03 4.714646911621093750e+01 2.150529098510742188e+01 -4.650475457310676575e-02 4.676630198955535889e-01 1.263474822044372559e-01 -2.934899032115936279e-01
3.544000000000000000e+03 4.694373703002929688e+01 2.251493453979492188e+01 -1.953898519277572632e-01 3.714072108268737793e-01 5.280521139502525330e-02 -3.498721420764923096e-01
3.545000000000000000e+03 4.109452056884765625e+01 2.268214225769042969e+01 -2.998449206352233887e-01 1.573371142148971558e-01 -4.275234043598175049e-02 -6.038397550582885742e-01
3.546000000000000000e+03 6.842484283447265625e+01 2.343940162658691406e+01 -8.563861846923828125e-01 9.958521842956542969e+00 2.730640888214111328e+00 -4.411559700965881348e-01
3.547000000000000000e+03 6.968191528320312500e+01 2.332539939880371094e+01 -6.316920518875122070e-01 9.598681449890136719e+00 2.690096855163574219e+00 -8.493330478668212891e-01
3.548000000000000000e+03 4.834856414794921875e+01 2.177729797363281250e+01 -3.028129786252975464e-02 5.215931534767150879e-01 1.473935544490814209e-01 -1.939953267574310303e-01
3.549000000000000000e+03 4.957894897460937500e+01 2.218561172485351562e+01 -2.544894255697727203e-02 5.764795541763305664e-01 1.653091907501220703e-01 -7.596473395824432373e-02
3.550000000000000000e+03 3.912701797485351562e+01 2.449783897399902344e+01 -4.408703744411468506e-01 9.534329175949096680e-02 -1.036581248044967651e-01 -5.959474444389343262e-01
3.551000000000000000e+03 6.899083709716796875e+01 2.162037086486816406e+01 -9.366152882575988770e-01 9.228681564331054688e+00 2.487619876861572266e+00 -3.640131354331970215e-01
3.552000000000000000e+03 6.893235015869140625e+01 2.243302536010742188e+01 -8.857179880142211914e-01 9.511430740356445312e+00 2.587713956832885742e+00 -4.672588407993316650e-01
3.553000000000000000e+03 6.870356750488281250e+01 1.769598960876464844e+01 -8.516276478767395020e-01 8.139966964721679688e+00 2.186501741409301758e+00 1.747694052755832672e-02
3.554000000000000000e+03 6.801546478271484375e+01 1.413503265380859375e+01 -6.194358468055725098e-01 7.385402202606201172e+00 2.029789924621582031e+00 2.367626726627349854e-01
3.555000000000000000e+03 5.035796737670898438e+01 2.182373619079589844e+01 7.237131148576736450e-02 7.112852931022644043e-01 2.350969761610031128e-01 5.164761468768119812e-02
3.556000000000000000e+03 5.564860916137695312e+01 2.244223022460937500e+01 3.314215838909149170e-01 1.708421587944030762e+00 6.119529604911804199e-01 1.104976058006286621e+00
3.557000000000000000e+03 6.830498504638671875e+01 2.148962593078613281e+01 -1.022294759750366211e+00 9.215031623840332031e+00 2.457820892333984375e+00 -1.288624107837677002e-01
3.558000000000000000e+03 6.775546264648437500e+01 2.062708091735839844e+01 -1.061249613761901855e+00 8.866194725036621094e+00 2.341483592987060547e+00 1.462533921003341675e-01
3.559000000000000000e+03 5.489178466796875000e+01 2.242964172363281250e+01 2.982938885688781738e-01 1.467129111289978027e+00 5.296269059181213379e-01 9.080090522766113281e-01
3.560000000000000000e+03 6.819108581542968750e+01 1.967756462097167969e+01 -9.981207251548767090e-01 8.607641220092773438e+00 2.282856225967407227e+00 6.187382340431213379e-02
3.561000000000000000e+03 3.906077194213867188e+01 2.508295059204101562e+01 -4.838912785053253174e-01 9.503572434186935425e-02 -1.166566684842109680e-01 -5.857394933700561523e-01
3.562000000000000000e+03 3.548861312866210938e+01 1.304613494873046875e+01 1.305126845836639404e-01 -2.083320356905460358e-02 3.290384262800216675e-02 -5.651459097862243652e-01
3.563000000000000000e+03 3.664158248901367188e+01 1.498656845092773438e+01 1.087699010968208313e-01 5.305522307753562927e-02 4.854753613471984863e-02 -5.885630846023559570e-01
3.564000000000000000e+03 6.602445983886718750e+01 -1.848592758178710938e+00 1.910364441573619843e-02 6.050077915191650391e+00 1.820754528045654297e+00 2.281390875577926636e-01
3.565000000000000000e+03 6.733800506591796875e+01 1.971655845642089844e+01 -1.035298943519592285e+00 8.499434471130371094e+00 2.239240646362304688e+00 3.301157057285308838e-01
3.566000000000000000e+03 3.834006500244140625e+01 2.506345939636230469e+01 -4.676909148693084717e-01 7.774624973535537720e-02 -1.169833987951278687e-01 -5.813595652580261230e-01
3.567000000000000000e+03 3.715626907348632812e+01 2.354384231567382812e+01 -3.219837844371795654e-01 4.377337172627449036e-02 -8.346311748027801514e-02 -6.152178645133972168e-01
3.568000000000000000e+03 4.151572799682617188e+01 2.214007186889648438e+01 -2.416413873434066772e-01 1.805007159709930420e-01 -1.834220439195632935e-02 -5.949587821960449219e-01
3.569000000000000000e+03 3.389462661743164062e+01 2.281481170654296875e+01 -2.160706222057342529e-01 -6.762455403804779053e-02 -8.510855585336685181e-02 -5.944527387619018555e-01
3.570000000000000000e+03 3.395891952514648438e+01 2.475532341003417969e+01 -3.053108155727386475e-01 -3.256096690893173218e-02 -1.013615354895591736e-01 -5.492417812347412109e-01
3.571000000000000000e+03 3.527039718627929688e+01 2.151306915283203125e+01 -1.700132936239242554e-01 -3.578145802021026611e-02 -6.173842400312423706e-02 -6.330128312110900879e-01
3.572000000000000000e+03 3.402561950683593750e+01 1.996625518798828125e+01 -9.056375920772552490e-02 -1.063204184174537659e-01 -5.906525626778602600e-02 -6.301233768463134766e-01
3.573000000000000000e+03 6.735929107666015625e+01 1.339680767059326172e+01 -5.658468008041381836e-01 7.146909236907958984e+00 1.974318742752075195e+00 3.326978385448455811e-01
3.574000000000000000e+03 6.635601043701171875e+01 1.147163105010986328e+01 -4.094371199607849121e-01 6.697988510131835938e+00 1.886565327644348145e+00 4.090838134288787842e-01
3.575000000000000000e+03 6.794745635986328125e+01 1.810282135009765625e+01 -9.038254022598266602e-01 8.114044189453125000e+00 2.163065671920776367e+00 1.926761716604232788e-01
3.576000000000000000e+03 6.786236572265625000e+01 7.610361099243164062e+00 -2.159085869789123535e-01 6.717923641204833984e+00 1.950604557991027832e+00 2.650218605995178223e-01
3.577000000000000000e+03 6.742710113525390625e+01 6.418456554412841797e+00 -1.805170029401779175e-01 6.580241203308105469e+00 1.919917345046997070e+00 2.714862823486328125e-01
3.578000000000000000e+03 3.342043304443359375e+01 2.359037590026855469e+01 -2.395038604736328125e-01 -6.925488263368606567e-02 -9.262762218713760376e-02 -5.710658431053161621e-01
3.579000000000000000e+03 6.673915863037109375e+01 9.624304771423339844e+00 -3.159430921077728271e-01 6.613342761993408203e+00 1.889219880104064941e+00 3.419560194015502930e-01
3.580000000000000000e+03 6.839389038085937500e+01 9.096640586853027344e+00 -3.150948286056518555e-01 6.937016963958740234e+00 1.986576676368713379e+00 2.392974346876144409e-01
3.581000000000000000e+03 7.062517547607421875e+01 -1.444758224487304688e+01 2.672449126839637756e-02 6.894326686859130859e+00 2.076315402984619141e+00 1.038734018802642822e-01
3.582000000000000000e+03 6.955335998535156250e+01 -1.361119365692138672e+01 3.075562417507171631e-02 6.680189609527587891e+00 2.013283729553222656e+00 1.143026575446128845e-01
3.583000000000000000e+03 3.420073699951171875e+01 7.353878021240234375e+00 1.485496014356613159e-01 -1.137830391526222229e-01 1.042996812611818314e-02 -4.581862986087799072e-01
3.584000000000000000e+03 3.553367614746093750e+01 1.049030685424804688e+01 1.670052409172058105e-01 1.075447630137205124e-02 5.332791432738304138e-02 -5.112641453742980957e-01
3.585000000000000000e+03 3.665958023071289062e+01 1.297025966644287109e+01 1.543315201997756958e-01 7.928977161645889282e-02 7.008638232946395874e-02 -5.519759058952331543e-01
3.586000000000000000e+03 6.589786529541015625e+01 4.642647266387939453e+00 -1.024364084005355835e-01 6.159556388854980469e+00 1.817136049270629883e+00 3.207232356071472168e-01
3.587000000000000000e+03 6.437508392333984375e+01 2.695782423019409180e+00 -2.250052429735660553e-02 5.758544921875000000e+00 1.720813274383544922e+00 3.241485655307769775e-01
3.588000000000000000e+03 6.515972137451171875e+01 -2.707768917083740234e+00 4.239058867096900940e-02 5.862574100494384766e+00 1.771489381790161133e+00 2.338419407606124878e-01
3.589000000000000000e+03 6.610864257812500000e+01 1.658386468887329102e+00 -3.379088640213012695e-02 6.124894618988037109e+00 1.827331066131591797e+00 2.755005061626434326e-01
3.590000000000000000e+03 6.557151031494140625e+01 1.041674423217773438e+01 -3.277619779109954834e-01 6.365690231323242188e+00 1.811378479003906250e+00 4.661905765533447266e-01
3.591000000000000000e+03 3.462211227416992188e+01 2.077412605285644531e+01 -1.288672983646392822e-01 -7.005961239337921143e-02 -5.967807397246360779e-02 -6.325520873069763184e-01
3.592000000000000000e+03 6.587256622314453125e+01 -1.529750919342041016e+01 5.209766328334808350e-02 5.951021194458007812e+00 1.800935745239257812e+00 1.215934604406356812e-01
3.593000000000000000e+03 6.868312835693359375e+01 -1.652643585205078125e+01 3.486614301800727844e-02 6.484631061553955078e+00 1.955849170684814453e+00 1.041005328297615051e-01
3.594000000000000000e+03 3.378498840332031250e+01 1.879603505134582520e+00 1.356850713491439819e-01 -1.288643181324005127e-01 2.046225126832723618e-03 -3.425745368003845215e-01
3.595000000000000000e+03 6.691028594970703125e+01 5.365201950073242188e+00 -1.349212229251861572e-01 6.417013645172119141e+00 1.884627699851989746e+00 2.855318188667297363e-01
3.596000000000000000e+03 3.320361328125000000e+01 -7.259181737899780273e-01 1.174435541033744812e-01 -2.094183862209320068e-01 -2.759245038032531738e-02 -2.968618571758270264e-01
3.597000000000000000e+03 3.401016235351562500e+01 1.486922949552536011e-01 1.476369649171829224e-01 -7.234066724777221680e-02 2.258888818323612213e-02 -3.087233603000640869e-01
3.598000000000000000e+03 3.163361358642578125e+01 -1.035613059997558594e+01 6.901852041482925415e-02 -4.152947962284088135e-01 -1.038828790187835693e-01 -1.751234382390975952e-01
3.599000000000000000e+03 3.302372360229492188e+01 -6.835489749908447266e+00 9.389882534742355347e-02 -1.956049203872680664e-01 -3.051183000206947327e-02 -2.082031518220901489e-01
3.600000000000000000e+03 6.691702270507812500e+01 -1.445522022247314453e+01 5.202775821089744568e-02 6.149340152740478516e+00 1.860410451889038086e+00 1.168944835662841797e-01
3.601000000000000000e+03 6.445182800292968750e+01 -1.269806861877441406e+01 6.597106158733367920e-02 5.655803203582763672e+00 1.716532349586486816e+00 1.344892382621765137e-01
3.602000000000000000e+03 6.577179718017578125e+01 -8.411434173583984375e+00 6.423242390155792236e-02 5.938766002655029297e+00 1.800899505615234375e+00 1.702412068843841553e-01
3.603000000000000000e+03 6.452816772460937500e+01 -9.328612327575683594e+00 7.905795425176620483e-02 5.703644275665283203e+00 1.734810590744018555e+00 1.712092757225036621e-01
3.604000000000000000e+03 6.509780120849609375e+01 -7.360496520996093750e+00 6.410083174705505371e-02 5.798597812652587891e+00 1.758809566497802734e+00 1.884496510028839111e-01
3.605000000000000000e+03 3.555817794799804688e+01 -4.926823616027832031e+00 1.422406584024429321e-01 1.824197918176651001e-01 9.739813953638076782e-02 -2.159107178449630737e-01
3.606000000000000000e+03 6.690439605712890625e+01 4.145854187011718750e+01 -1.856947779655456543e+00 1.027248001098632812e+01 2.524659633636474609e+00 7.528036832809448242e-02
3.607000000000000000e+03 3.616024017333984375e+01 -1.536552524566650391e+01 8.373373746871948242e-02 3.820659220218658447e-01 1.397399008274078369e-01 -9.811742603778839111e-02
3.608000000000000000e+03 3.647349929809570312e+01 -1.009092140197753906e+01 1.146367415785789490e-01 3.838048279285430908e-01 1.495324671268463135e-01 -1.453775018453598022e-01
3.609000000000000000e+03 3.101461601257324219e+01 -1.142937278747558594e+01 4.583412036299705505e-02 -5.113520026206970215e-01 -1.396553516387939453e-01 -1.610351651906967163e-01
3.610000000000000000e+03 3.491727828979492188e+01 -1.208043289184570312e+01 9.733281284570693970e-02 1.372833698987960815e-01 7.038486003875732422e-02 -1.323405504226684570e-01
3.611000000000000000e+03 6.548752593994140625e+01 -2.431250381469726562e+01 3.289899975061416626e-02 5.878026485443115234e+00 1.773277759552001953e+00 6.311256438493728638e-02
3.612000000000000000e+03 6.321999359130859375e+01 -2.523051643371582031e+01 4.909858480095863342e-02 5.383870601654052734e+00 1.629890799522399902e+00 3.987709432840347290e-02
3.613000000000000000e+03 3.407336044311523438e+01 -2.623324584960937500e+01 4.319910705089569092e-02 9.679665416479110718e-02 4.199872910976409912e-02 -4.581389576196670532e-02
3.614000000000000000e+03 3.363378524780273438e+01 -2.237216377258300781e+01 5.234487727284431458e-02 -3.614754183217883110e-03 1.461903657764196396e-02 -8.157168328762054443e-02
3.615000000000000000e+03 3.506199645996093750e+01 6.534846782684326172e+00 1.763594597578048706e-01 6.983189377933740616e-03 5.500279366970062256e-02 -4.303776025772094727e-01
3.616000000000000000e+03 3.650037002563476562e+01 8.056830406188964844e+00 2.012705206871032715e-01 1.581951379776000977e-01 1.078396961092948914e-01 -4.420619010925292969e-01
3.617000000000000000e+03 6.332719039916992188e+01 2.640603065490722656e+01 -4.724838733673095703e-01 9.452528953552246094e+00 2.694013595581054688e+00 3.640439510345458984e+00
3.618000000000000000e+03 6.373277664184570312e+01 2.630200004577636719e+01 -7.091065645217895508e-01 1.027735710144042969e+01 2.870475053787231445e+00 3.314869642257690430e+00
3.619000000000000000e+03 6.508142089843750000e+01 2.698573112487792969e+01 -7.929878234863281250e-01 1.317409515380859375e+01 3.714332103729248047e+00 1.434985280036926270e+00
3.620000000000000000e+03 6.632913208007812500e+01 2.718394279479980469e+01 -1.055654231458902359e-02 1.320738124847412109e+01 3.959047555923461914e+00 -4.071289896965026855e-01
3.621000000000000000e+03 6.078269958496093750e+01 2.609583473205566406e+01 5.506908297538757324e-01 4.040067195892333984e+00 1.377227306365966797e+00 3.227647304534912109e+00
3.622000000000000000e+03 6.171309280395507812e+01 2.646483421325683594e+01 4.580477178096771240e-01 5.533012390136718750e+00 1.797318100929260254e+00 3.809763431549072266e+00
3.623000000000000000e+03 6.984011077880859375e+01 3.008263778686523438e+01 2.978578567504882812e+00 9.731015205383300781e+00 3.812878131866455078e+00 -5.411083102226257324e-01
3.624000000000000000e+03 5.952227783203125000e+01 2.378641700744628906e+01 3.044320940971374512e-01 3.567225933074951172e+00 1.161497354507446289e+00 2.380390644073486328e+00
3.625000000000000000e+03 6.797965240478515625e+01 2.603079414367675781e+01 -5.554226040840148926e-02 1.127757358551025391e+01 3.366609334945678711e+00 -9.621988534927368164e-01
3.626000000000000000e+03 6.769782257080078125e+01 2.403357696533203125e+01 -9.032278656959533691e-01 1.035546302795410156e+01 2.835670471191406250e+00 -2.320895791053771973e-01
3.627000000000000000e+03 6.012012481689453125e+01 2.536298561096191406e+01 4.581501185894012451e-01 3.540830135345458984e+00 1.199694156646728516e+00 2.794908285140991211e+00
3.628000000000000000e+03 6.295673751831054688e+01 2.634656715393066406e+01 -2.566540837287902832e-01 8.510828018188476562e+00 2.476252079010009766e+00 3.819957017898559570e+00
3.629000000000000000e+03 6.819731140136718750e+01 2.795429420471191406e+01 1.714817166328430176e+00 1.150117969512939453e+01 3.964799165725708008e+00 -1.557001233100891113e+00
3.630000000000000000e+03 6.732179260253906250e+01 2.759849548339843750e+01 1.036425948143005371e+00 1.249151706695556641e+01 4.058382987976074219e+00 -1.315434098243713379e+00
3.631000000000000000e+03 6.853176879882812500e+01 2.693939208984375000e+01 7.591832280158996582e-01 1.110624027252197266e+01 3.559627056121826172e+00 -1.370788216590881348e+00
3.632000000000000000e+03 6.738196563720703125e+01 3.571130371093750000e+01 -5.800457596778869629e-01 1.205117988586425781e+01 3.441340208053588867e+00 9.179158806800842285e-01
3.633000000000000000e+03 3.787185287475585938e+01 2.309323692321777344e+01 -3.061230480670928955e-01 6.275898963212966919e-02 -7.300922274589538574e-02 -6.252884268760681152e-01
3.634000000000000000e+03 3.918500518798828125e+01 2.388942337036132812e+01 -4.006716609001159668e-01 9.594794362783432007e-02 -9.141711145639419556e-02 -6.071100234985351562e-01
3.635000000000000000e+03 5.769252777099609375e+01 2.274119186401367188e+01 3.497647643089294434e-01 2.566485166549682617e+00 8.748749494552612305e-01 1.709616184234619141e+00
3.636000000000000000e+03 5.794879150390625000e+01 2.338094520568847656e+01 3.662045598030090332e-01 2.532850980758666992e+00 8.697166442871093750e-01 1.806480169296264648e+00
3.637000000000000000e+03 4.482185745239257812e+01 2.095969009399414062e+01 -6.170297414064407349e-02 3.724387884140014648e-01 9.322074800729751587e-02 -4.412395358085632324e-01
3.638000000000000000e+03 4.545439529418945312e+01 2.170734977722167969e+01 -1.349027603864669800e-01 3.544731438159942627e-01 6.587111949920654297e-02 -4.254339039325714111e-01
3.639000000000000000e+03 4.572355270385742188e+01 2.226264953613281250e+01 -1.961182355880737305e-01 3.259854316711425781e-01 3.896016255021095276e-02 -4.229821562767028809e-01
3.640000000000000000e+03 6.818340301513671875e+01 2.400094604492187500e+01 -8.106782436370849609e-01 1.022131061553955078e+01 2.823189735412597656e+00 -4.399463236331939697e-01
3.641000000000000000e+03 6.795766448974609375e+01 2.524502754211425781e+01 -5.046185851097106934e-01 1.091145420074462891e+01 3.122050523757934570e+00 -6.701239943504333496e-01
3.642000000000000000e+03 6.535357666015625000e+01 2.635890960693359375e+01 -9.344833493232727051e-01 1.232733249664306641e+01 3.417854785919189453e+00 1.209356665611267090e+00
3.643000000000000000e+03 4.398384857177734375e+01 2.071511268615722656e+01 -6.483398377895355225e-02 3.342362642288208008e-01 8.082067966461181641e-02 -4.810063540935516357e-01
3.644000000000000000e+03 4.647319793701171875e+01 2.194941329956054688e+01 -1.296763271093368530e-01 3.925595879554748535e-01 7.886498421430587769e-02 -3.649136722087860107e-01
3.645000000000000000e+03 5.485364151000976562e+01 2.165254211425781250e+01 3.307912051677703857e-01 1.637508869171142578e+00 5.904899835586547852e-01 9.344816803932189941e-01
3.646000000000000000e+03 5.678607559204101562e+01 2.164239692687988281e+01 3.418127596378326416e-01 2.416148185729980469e+00 8.273882269859313965e-01 1.417402505874633789e+00
3.647000000000000000e+03 3.594612884521484375e+01 2.334111022949218750e+01 -2.859073579311370850e-01 7.441051770001649857e-03 -8.353988826274871826e-02 -6.121651530265808105e-01
3.648000000000000000e+03 3.850301742553710938e+01 2.366918182373046875e+01 -3.571644127368927002e-01 8.089674264192581177e-02 -8.288029581308364868e-02 -6.165646910667419434e-01
3.649000000000000000e+03 5.250202941894531250e+01 2.171536254882812500e+01 2.100743800401687622e-01 1.050018191337585449e+00 3.780277669429779053e-01 4.185055494308471680e-01
3.650000000000000000e+03 6.766487884521484375e+01 2.128503417968750000e+01 -1.083330035209655762e+00 9.111654281616210938e+00 2.408497333526611328e+00 1.468292176723480225e-01
3.651000000000000000e+03 4.203815460205078125e+01 2.180097007751464844e+01 -2.039035558700561523e-01 2.117623686790466309e-01 2.357646357268095016e-03 -5.813633203506469727e-01
3.652000000000000000e+03 4.371772384643554688e+01 2.155341148376464844e+01 -1.548232138156890869e-01 2.819418907165527344e-01 3.813560307025909424e-02 -5.163666009902954102e-01
3.653000000000000000e+03 5.399240875244140625e+01 2.148836135864257812e+01 3.003436326980590820e-01 1.417879343032836914e+00 5.154669284820556641e-01 7.262474894523620605e-01
3.654000000000000000e+03 4.463708496093750000e+01 2.169709396362304688e+01 -1.524107605218887329e-01 3.179005682468414307e-01 4.964694753289222717e-02 -4.711635410785675049e-01
3.655000000000000000e+03 4.781956100463867188e+01 2.107145500183105469e+01 2.750580385327339172e-02 5.515408515930175781e-01 1.737139970064163208e-01 -2.129774242639541626e-01
3.656000000000000000e+03 6.795932006835937500e+01 2.446178627014160156e+01 -7.446133494377136230e-01 1.053901767730712891e+01 2.938321352005004883e+00 -4.643391966819763184e-01
3.657000000000000000e+03 6.567405700683593750e+01 2.570535087585449219e+01 -1.008695244789123535e+00 1.163958263397216797e+01 3.189266443252563477e+00 9.525206089019775391e-01
3.658000000000000000e+03 4.922172164916992188e+01 2.019804954528808594e+01 1.797067672014236450e-01 7.950986623764038086e-01 2.924416363239288330e-01 -1.486699003726243973e-02
3.659000000000000000e+03 4.907740020751953125e+01 2.140235900878906250e+01 5.177818983793258667e-02 6.282160878181457520e-01 2.039982974529266357e-01 -9.204187989234924316e-02
3.660000000000000000e+03 3.545143508911132812e+01 2.389921569824218750e+01 -3.072196543216705322e-01 -1.516242977231740952e-03 -9.262077510356903076e-02 -5.930690765380859375e-01
3.661000000000000000e+03 5.109666061401367188e+01 2.138000869750976562e+01 1.611107736825942993e-01 8.743541240692138672e-01 3.106394708156585693e-01 1.881966888904571533e-01
3.662000000000000000e+03 5.048120117187500000e+01 2.052935981750488281e+01 2.075950205326080322e-01 9.174639582633972168e-01 3.375177085399627686e-01 1.381303966045379639e-01
3.663000000000000000e+03 6.715734863281250000e+01 2.039069747924804688e+01 -1.075451850891113281e+00 8.673559188842773438e+00 2.279432058334350586e+00 3.897709250450134277e-01
3.664000000000000000e+03 6.620922088623046875e+01 2.064214515686035156e+01 -1.087863922119140625e+00 8.520191192626953125e+00 2.229698181152343750e+00 7.649825215339660645e-01
3.665000000000000000e+03 6.708731842041015625e+01 2.106872940063476562e+01 -1.115472793579101562e+00 8.956322669982910156e+00 2.352255105972290039e+00 4.079662561416625977e-01
3.666000000000000000e+03 3.993286132812500000e+01 2.393345832824707031e+01 -4.102194011211395264e-01 1.123619824647903442e-01 -8.935721963644027710e-02 -6.053642630577087402e-01
3.667000000000000000e+03 6.788214111328125000e+01 2.297272872924804688e+01 -1.002902507781982422e+00 9.849012374877929688e+00 2.653833150863647461e+00 -1.489242762327194214e-01
3.668000000000000000e+03 3.541535186767578125e+01 1.816082954406738281e+01 -1.533228904008865356e-02 -4.659322649240493774e-02 -1.857765577733516693e-02 -6.375849246978759766e-01
3.669000000000000000e+03 3.859100341796875000e+01 2.258829879760742188e+01 -2.740810513496398926e-01 8.722805231809616089e-02 -5.605589970946311951e-02 -6.328724026679992676e-01
3.670000000000000000e+03 5.558171081542968750e+01 2.173571205139160156e+01 3.474320471286773682e-01 1.865404963493347168e+00 6.638510823249816895e-01 1.104839563369750977e+00
3.671000000000000000e+03 5.621450042724609375e+01 2.174435806274414062e+01 3.556758165359497070e-01 2.120393991470336914e+00 7.428209781646728516e-01 1.265019059181213379e+00
3.672000000000000000e+03 4.172024917602539062e+01 2.124212074279785156e+01 -1.572773307561874390e-01 2.102081328630447388e-01 1.587923988699913025e-02 -5.839567184448242188e-01
3.673000000000000000e+03 3.747659683227539062e+01 2.431837272644042969e+01 -3.815695941448211670e-01 5.676415562629699707e-02 -9.744162857532501221e-02 -6.004108190536499023e-01
3.674000000000000000e+03 6.666451263427734375e+01 1.401468372344970703e+01 -6.029051542282104492e-01 7.064800262451171875e+00 1.938568472862243652e+00 4.418781697750091553e-01
3.675000000000000000e+03 6.806588745117187500e+01 1.551692771911621094e+01 -7.190605998039245605e-01 7.607406616210937500e+00 2.066503763198852539e+00 2.202499508857727051e-01
3.676000000000000000e+03 6.886616516113281250e+01 1.625979042053222656e+01 -7.476370930671691895e-01 7.879571437835693359e+00 2.139580249786376953e+00 4.379949346184730530e-02
3.677000000000000000e+03 3.721165466308593750e+01 1.740942573547363281e+01 3.307659551501274109e-02 6.138546019792556763e-02 2.833861671388149261e-02 -6.215415596961975098e-01
3.678000000000000000e+03 3.453548049926757812e+01 2.212425994873046875e+01 -1.930637657642364502e-01 -5.691448226571083069e-02 -7.499347627162933350e-02 -6.157277822494506836e-01
3.679000000000000000e+03 6.837020111083984375e+01 1.878639984130859375e+01 -9.399939179420471191e-01 8.363615989685058594e+00 2.227086782455444336e+00 5.905254185199737549e-02
3.680000000000000000e+03 6.659078979492187500e+01 1.272129058837890625e+01 -5.068544745445251465e-01 6.874367713928222656e+00 1.910253882408142090e+00 4.246567487716674805e-01
3.681000000000000000e+03 3.453919601440429688e+01 -9.275083541870117188e+00 1.049191877245903015e-01 7.567396014928817749e-02 5.417794361710548401e-02 -1.697407066822052002e-01
3.682000000000000000e+03 3.442448806762695312e+01 -7.335746765136718750e+00 1.142629012465476990e-01 2.974921092391014099e-02 4.320363327860832214e-02 -1.881287992000579834e-01
3.683000000000000000e+03 3.585559463500976562e+01 2.637851476669311523e+00 1.856375783681869507e-01 1.546997576951980591e-01 1.021011993288993835e-01 -3.409573733806610107e-01
3.684000000000000000e+03 3.452054977416992188e+01 3.217186927795410156e+00 1.597196757793426514e-01 -4.072491452097892761e-02 3.569842875003814697e-02 -3.647002875804901123e-01
3.685000000000000000e+03 6.729606628417968750e+01 1.477457046508789062e+01 -6.622399687767028809e-01 7.329736232757568359e+00 2.000248908996582031e+00 3.505690097808837891e-01
3.686000000000000000e+03 3.600341415405273438e+01 1.695888710021972656e+01 3.691882640123367310e-02 -9.104259312152862549e-03 8.344369940459728241e-03 -6.254832744598388672e-01
3.687000000000000000e+03 6.613839721679687500e+01 6.559671401977539062e+00 -1.735864430665969849e-01 6.304574489593505859e+00 1.839296460151672363e+00 3.459281623363494873e-01
3.688000000000000000e+03 6.509079742431640625e+01 -1.106020569801330566e+00 1.888554915785789490e-02 5.842795372009277344e+00 1.758504271507263184e+00 2.543492615222930908e-01
3.689000000000000000e+03 3.589975738525390625e+01 9.175746917724609375e+00 1.846149861812591553e-01 6.517261266708374023e-02 7.493627816438674927e-02 -4.797751903533935547e-01
3.690000000000000000e+03 3.786014556884765625e+01 1.297198963165283203e+01 1.810712367296218872e-01 1.901620328426361084e-01 1.113699823617935181e-01 -5.262654423713684082e-01
3.691000000000000000e+03 6.571759796142578125e+01 3.683042287826538086e+00 -7.307990640401840210e-02 6.066593170166015625e+00 1.798053979873657227e+00 3.112762868404388428e-01
3.692000000000000000e+03 6.464827728271484375e+01 3.858272314071655273e+00 -5.709720775485038757e-02 5.828426361083984375e+00 1.731398701667785645e+00 3.529820740222930908e-01
3.693000000000000000e+03 6.787857055664062500e+01 3.677874326705932617e+00 -9.292373061180114746e-02 6.572437763214111328e+00 1.943854093551635742e+00 2.475620061159133911e-01
3.694000000000000000e+03 3.671044158935546875e+01 1.183892536163330078e+01 1.737824678421020508e-01 1.064989566802978516e-01 8.408442884683609009e-02 -5.245395898818969727e-01
3.695000000000000000e+03 6.489016723632812500e+01 -4.303833007812500000e+00 4.505306109786033630e-02 5.754352092742919922e+00 1.739821553230285645e+00 2.223255932331085205e-01
3.696000000000000000e+03 6.573053741455078125e+01 -5.278499603271484375e+00 4.850402474403381348e-02 5.943757534027099609e+00 1.797678470611572266e+00 2.016512304544448853e-01
3.697000000000000000e+03 3.525312805175781250e+01 -2.240674734115600586e+00 1.531117260456085205e-01 1.160170063376426697e-01 8.073861896991729736e-02 -2.614367008209228516e-01
3.698000000000000000e+03 6.378808212280273438e+01 -1.140068531036376953e+01 7.524345815181732178e-02 5.514997482299804688e+00 1.677072286605834961e+00 1.587583273649215698e-01
3.699000000000000000e+03 3.711321640014648438e+01 5.372192382812500000e+00 2.133438885211944580e-01 2.760017216205596924e-01 1.468036770820617676e-01 -3.731642365455627441e-01
3.700000000000000000e+03 3.572712326049804688e+01 7.503870487213134766e+00 1.841942667961120605e-01 7.421597838401794434e-02 7.752307504415512085e-02 -4.420571029186248779e-01
3.701000000000000000e+03 3.352507019042968750e+01 -3.097946405410766602e+00 1.216180175542831421e-01 -1.302361339330673218e-01 -2.585434122011065483e-03 -2.538755238056182861e-01
3.702000000000000000e+03 3.476787185668945312e+01 -3.418697595596313477e+00 1.411032229661941528e-01 5.531448125839233398e-02 5.892531201243400574e-02 -2.431911081075668335e-01
3.703000000000000000e+03 3.777991867065429688e+01 1.400356388092041016e+01 1.560227274894714355e-01 1.557036787271499634e-01 9.351792186498641968e-02 -5.529588460922241211e-01
3.704000000000000000e+03 3.672061920166015625e+01 1.854090881347656250e+01 -2.255222760140895844e-02 2.424602769315242767e-02 5.081404233351349831e-04 -6.376959681510925293e-01
3.705000000000000000e+03 6.665557098388671875e+01 5.994024753570556641e+00 -1.608035862445831299e-01 6.391301631927490234e+00 1.869149446487426758e+00 3.040614128112792969e-01
3.706000000000000000e+03 6.453341674804687500e+01 -6.177437305450439453e+00 6.504619866609573364e-02 5.698821544647216797e+00 1.729160308837890625e+00 2.024360448122024536e-01
3.707000000000000000e+03 3.331001663208007812e+01 -9.433972358703613281e+00 8.705240488052368164e-02 -1.389590650796890259e-01 -1.557199656963348389e-02 -1.747801154851913452e-01
3.708000000000000000e+03 6.403717803955078125e+01 -4.001456499099731445e-01 2.710419334471225739e-02 5.623610973358154297e+00 1.695214629173278809e+00 2.813047170639038086e-01
3.709000000000000000e+03 3.445051956176757812e+01 -1.788144302368164062e+01 6.317409873008728027e-02 1.483251601457595825e-01 6.344977766275405884e-02 -9.341456741094589233e-02
3.710000000000000000e+03 6.400327301025390625e+01 -1.476870822906494141e+01 5.863926187157630920e-02 5.564210414886474609e+00 1.686854839324951172e+00 1.153665333986282349e-01
3.711000000000000000e+03 6.735540771484375000e+01 2.695661354064941406e+01 3.191451728343963623e-01 1.208886337280273438e+01 3.722402572631835938e+00 -1.008074641227722168e+00
3.712000000000000000e+03 6.491457366943359375e+01 2.660761642456054688e+01 -9.435515999794006348e-01 1.238038444519042969e+01 3.431049823760986328e+00 1.803894519805908203e+00
3.713000000000000000e+03 6.456464385986328125e+01 2.553719711303710938e+01 -1.048774123191833496e+00 1.066987705230712891e+01 2.886331081390380859e+00 2.171971321105957031e+00
3.714000000000000000e+03 6.045411682128906250e+01 2.573616600036621094e+01 5.070140361785888672e-01 3.771991729736328125e+00 1.283701658248901367e+00 3.005541086196899414e+00
3.715000000000000000e+03 6.055218887329101562e+01 2.426365852355957031e+01 1.951679140329360962e-01 4.496359348297119141e+00 1.407458186149597168e+00 2.790313959121704102e+00
3.716000000000000000e+03 6.113941192626953125e+01 2.574736976623535156e+01 3.935998976230621338e-01 4.813628673553466797e+00 1.562168478965759277e+00 3.350084781646728516e+00
3.717000000000000000e+03 6.185488128662109375e+01 2.579092407226562500e+01 1.498427838087081909e-01 6.123468399047851562e+00 1.881993293762207031e+00 3.592447519302368164e+00
3.718000000000000000e+03 6.674532318115234375e+01 2.705674552917480469e+01 1.188411265611648560e-01 1.281927776336669922e+01 3.881435632705688477e+00 -7.127490043640136719e-01
3.719000000000000000e+03 6.807653045654296875e+01 2.676845169067382812e+01 4.498359858989715576e-01 1.142951011657714844e+01 3.563803672790527344e+00 -1.210347771644592285e+00
3.720000000000000000e+03 6.631920623779296875e+01 2.677673912048339844e+01 -3.588418662548065186e-01 1.274047088623046875e+01 3.714488744735717773e+00 -1.361442953348159790e-01
3.721000000000000000e+03 6.559725189208984375e+01 2.671778297424316406e+01 -7.328506708145141602e-01 1.287642478942871094e+01 3.643072128295898438e+00 7.812685370445251465e-01
3.722000000000000000e+03 6.752104949951171875e+01 2.195327568054199219e+01 -1.104198336601257324e+00 9.397106170654296875e+00 2.487872362136840820e+00 1.624975353479385376e-01
3.723000000000000000e+03 6.614911651611328125e+01 2.507119560241699219e+01 -1.040198922157287598e+00 1.114553165435791016e+01 3.031599998474121094e+00 5.939806103706359863e-01
3.724000000000000000e+03 6.661637878417968750e+01 2.575097084045410156e+01 -7.405053973197937012e-01 1.170489215850830078e+01 3.289315938949584961e+00 2.513699233531951904e-02
3.725000000000000000e+03 5.909536743164062500e+01 2.412104034423828125e+01 3.697936832904815674e-01 3.062611341476440430e+00 1.029721498489379883e+00 2.251297950744628906e+00
3.726000000000000000e+03 5.876400756835937500e+01 2.363155364990234375e+01 3.571835756301879883e-01 2.987788438796997070e+00 1.003491640090942383e+00 2.100174903869628906e+00
3.727000000000000000e+03 5.749813461303710938e+01 2.208567810058593750e+01 3.345785737037658691e-01 2.656183719635009766e+00 8.972286581993103027e-01 1.625713586807250977e+00
3.728000000000000000e+03 6.835890197753906250e+01 2.479080772399902344e+01 -5.434450507164001465e-01 1.052581882476806641e+01 2.994712114334106445e+00 -7.086158394813537598e-01
3.729000000000000000e+03 6.753082275390625000e+01 2.572785186767578125e+01 -4.130700826644897461e-01 1.139357471466064453e+01 3.294151306152343750e+00 -6.113587617874145508e-01
3.730000000000000000e+03 4.249701309204101562e+01 2.085999488830566406e+01 -1.090954691171646118e-01 2.636758387088775635e-01 4.637411236763000488e-02 -5.519398450851440430e-01
3.731000000000000000e+03 4.657394027709960938e+01 2.089893913269042969e+01 -4.653282463550567627e-03 4.727925360202789307e-01 1.404417753219604492e-01 -3.183349967002868652e-01
3.732000000000000000e+03 6.818402099609375000e+01 2.225173377990722656e+01 -1.006374001502990723e+00 9.527172088623046875e+00 2.556239366531372070e+00 -1.755077093839645386e-01
3.733000000000000000e+03 5.176532745361328125e+01 2.084514045715332031e+01 2.426740527153015137e-01 1.070361852645874023e+00 3.939107656478881836e-01 3.238940536975860596e-01
3.734000000000000000e+03 3.996022796630859375e+01 2.260963439941406250e+01 -2.787884473800659180e-01 1.264475733041763306e-01 -4.570226371288299561e-02 -6.206796169281005859e-01
3.735000000000000000e+03 3.830540466308593750e+01 2.433373641967773438e+01 -4.027698338031768799e-01 7.582218199968338013e-02 -9.808430075645446777e-02 -6.015464663505554199e-01
3.736000000000000000e+03 3.527364349365234375e+01 2.276276016235351562e+01 -2.385832220315933228e-01 -2.095815539360046387e-02 -7.786241173744201660e-02 -6.160079240798950195e-01
3.737000000000000000e+03 3.657378768920898438e+01 2.285181427001953125e+01 -2.643331289291381836e-01 2.335821837186813354e-02 -7.229246944189071655e-02 -6.268173456192016602e-01
3.738000000000000000e+03 4.106315612792968750e+01 2.164940071105957031e+01 -2.011414319276809692e-01 1.733532994985580444e-01 -8.336441591382026672e-03 -6.016151905059814453e-01
3.739000000000000000e+03 4.806678771972656250e+01 1.869609069824218750e+01 2.400138527154922485e-01 8.279421925544738770e-01 3.203867971897125244e-01 -8.977489173412322998e-02
3.740000000000000000e+03 6.659325408935546875e+01 2.090106582641601562e+01 -1.106348395347595215e+00 8.778072357177734375e+00 2.301517009735107422e+00 5.814801454544067383e-01
3.741000000000000000e+03 6.639575195312500000e+01 1.708169937133789062e+01 -8.330448865890502930e-01 7.562956809997558594e+00 2.018973588943481445e+00 5.542231798171997070e-01
3.742000000000000000e+03 3.890941619873046875e+01 2.022392082214355469e+01 -9.990904480218887329e-02 1.183025464415550232e-01 5.518050398677587509e-03 -6.322085261344909668e-01
3.743000000000000000e+03 4.988599395751953125e+01 1.971517753601074219e+01 2.425446659326553345e-01 9.435357451438903809e-01 3.558241426944732666e-01 9.078419208526611328e-02
3.744000000000000000e+03 3.905614471435546875e+01 2.326642227172851562e+01 -3.302232027053833008e-01 9.485473483800888062e-02 -7.061053812503814697e-02 -6.224382519721984863e-01
3.745000000000000000e+03 4.078068161010742188e+01 2.389204025268554688e+01 -4.130474030971527100e-01 1.364993005990982056e-01 -8.296442776918411255e-02 -5.994629263877868652e-01
3.746000000000000000e+03 6.740703582763671875e+01 2.351635551452636719e+01 -1.034946799278259277e+00 1.015901470184326172e+01 2.737220287322998047e+00 -4.570699296891689301e-03
3.747000000000000000e+03 6.628363800048828125e+01 1.980289459228515625e+01 -1.043398499488830566e+00 8.277872085571289062e+00 2.170341968536376953e+00 6.948730945587158203e-01
3.748000000000000000e+03 6.777581787109375000e+01 1.917757415771484375e+01 -9.912726879119873047e-01 8.399497032165527344e+00 2.222467184066772461e+00 2.105526626110076904e-01
3.749000000000000000e+03 6.464049530029296875e+01 1.031693077087402344e+01 -2.911544740200042725e-01 6.140626430511474609e+00 1.754841566085815430e+00 5.114103555679321289e-01
3.750000000000000000e+03 5.310673141479492188e+01 2.100416946411132812e+01 2.930926978588104248e-01 1.304869294166564941e+00 4.793886244297027588e-01 5.661822557449340820e-01
3.751000000000000000e+03 5.354053115844726562e+01 2.021927833557128906e+01 3.495482504367828369e-01 1.591182112693786621e+00 5.822190642356872559e-01 6.858211159706115723e-01
3.752000000000000000e+03 4.128834152221679688e+01 2.066050529479980469e+01 -1.089046746492385864e-01 2.072179317474365234e-01 2.949397824704647064e-02 -5.867775082588195801e-01
3.753000000000000000e+03 3.769042205810546875e+01 1.493699359893798828e+01 1.273108422756195068e-01 1.321969628334045410e-01 7.785233855247497559e-02 -5.733796954154968262e-01
3.754000000000000000e+03 4.012637710571289062e+01 2.045186042785644531e+01 -1.065390557050704956e-01 1.685478240251541138e-01 1.860263198614120483e-02 -6.133813261985778809e-01
3.755000000000000000e+03 6.722484588623046875e+01 2.441056251525878906e+01 -9.386577010154724121e-01 1.065970134735107422e+01 2.916313171386718750e+00 -5.301662161946296692e-02
3.756000000000000000e+03 6.692356872558593750e+01 2.392939376831054688e+01 -1.078731179237365723e+00 1.040153884887695312e+01 2.796842336654663086e+00 2.355904728174209595e-01
3.757000000000000000e+03 5.497149658203125000e+01 2.089775276184082031e+01 3.500864505767822266e-01 1.854795575141906738e+00 6.614645719528198242e-01 9.735363721847534180e-01
3.758000000000000000e+03 3.546873474121093750e+01 2.022670364379882812e+01 -1.066241636872291565e-01 -3.692582622170448303e-02 -4.306499660015106201e-02 -6.424513459205627441e-01
3.759000000000000000e+03 3.763265609741210938e+01 1.999313545227050781e+01 -9.259413927793502808e-02 6.168108060956001282e-02 -9.273918345570564270e-03 -6.427620649337768555e-01
3.760000000000000000e+03 3.656045150756835938e+01 6.998166561126708984e+00 2.093724161386489868e-01 1.809598356485366821e-01 1.170996725559234619e-01 -4.164281785488128662e-01
3.761000000000000000e+03 3.681805419921875000e+01 1.066497325897216797e+01 1.963079422712326050e-01 1.409393697977066040e-01 1.011741906404495239e-01 -4.951135814189910889e-01
3.762000000000000000e+03 6.753376770019531250e+01 1.621382904052734375e+01 -7.781724929809570312e-01 7.630399703979492188e+00 2.055668115615844727e+00 3.087246119976043701e-01
3.763000000000000000e+03 6.749488067626953125e+01 1.739625358581542969e+01 -8.707556128501892090e-01 7.889250278472900391e+00 2.105548381805419922e+00 3.115682303905487061e-01
3.764000000000000000e+03 3.736205673217773438e+01 2.097633361816406250e+00 2.088409066200256348e-01 3.751960694789886475e-01 1.752110868692398071e-01 -3.046110868453979492e-01
3.765000000000000000e+03 3.786946105957031250e+01 3.594653367996215820e+00 2.289180904626846313e-01 4.122821390628814697e-01 1.923600733280181885e-01 -3.183688521385192871e-01
3.766000000000000000e+03 6.510421752929687500e+01 1.273584842681884766e+01 -4.518521726131439209e-01 6.479484081268310547e+00 1.808289527893066406e+00 5.828664302825927734e-01
3.767000000000000000e+03 3.583846664428710938e+01 1.896890830993652344e+01 -4.753779247403144836e-02 -2.268408983945846558e-02 -2.106656506657600403e-02 -6.423811316490173340e-01
3.768000000000000000e+03 6.454949188232421875e+01 9.535021781921386719e+00 -2.554372847080230713e-01 6.051170349121093750e+00 1.738719940185546875e+00 4.905522167682647705e-01
3.769000000000000000e+03 6.559377288818359375e+01 2.599306344985961914e+00 -4.417910054326057434e-02 6.005441188812255859e+00 1.788378596305847168e+00 2.982972562313079834e-01
3.770000000000000000e+03 6.260932922363281250e+01 -5.734001636505126953e+00 7.990951836109161377e-02 5.288997173309326172e+00 1.610671997070312500e+00 2.147149443626403809e-01
3.771000000000000000e+03 6.521566009521484375e+01 8.388371467590332031e+00 -2.239964455366134644e-01 6.181723117828369141e+00 1.787317991256713867e+00 4.104484319686889648e-01
3.772000000000000000e+03 6.624203491210937500e+01 7.954869270324707031e+00 -2.255152165889739990e-01 6.404530525207519531e+00 1.853704571723937988e+00 3.489233851432800293e-01
3.773000000000000000e+03 6.556362915039062500e+01 9.439553260803222656e+00 -2.861307561397552490e-01 6.299667835235595703e+00 1.804061055183410645e+00 4.337236285209655762e-01
3.774000000000000000e+03 4.026876068115234375e+01 1.306835842132568359e+01 2.389387190341949463e-01 4.136826395988464355e-01 1.957864016294479370e-01 -4.546285867691040039e-01
3.775000000000000000e+03 3.604462432861328125e+01 2.096932792663574219e+01 -1.472428590059280396e-01 -8.036419749259948730e-03 -4.658378660678863525e-02 -6.423314809799194336e-01
3.776000000000000000e+03 3.665073394775390625e+01 2.167726898193359375e+01 -1.916472017765045166e-01 1.904197037220001221e-02 -5.178156867623329163e-02 -6.406509280204772949e-01
3.777000000000000000e+03 3.804191589355468750e+01 1.077226829528808594e+01 2.216755598783493042e-01 2.604968845844268799e-01 1.446517407894134521e-01 -4.709909856319427490e-01
3.778000000000000000e+03 6.377095031738281250e+01 -8.112222671508789062e+00 8.159342408180236816e-02 5.525151729583740234e+00 1.682023644447326660e+00 1.893306821584701538e-01
3.779000000000000000e+03 6.676944732666015625e+01 1.605569839477539062e+01 -7.500082254409790039e-01 7.416437149047851562e+00 1.999928593635559082e+00 4.587312340736389160e-01
3.780000000000000000e+03 3.786006546020507812e+01 -2.075419127941131592e-01 2.109121829271316528e-01 4.945335090160369873e-01 2.116337120532989502e-01 -2.586617767810821533e-01
3.781000000000000000e+03 6.502574920654296875e+01 7.316745519638061523e-01 3.666496602818369865e-03 5.865931034088134766e+00 1.760879158973693848e+00 2.776482403278350830e-01
3.782000000000000000e+03 3.651531982421875000e+01 4.038577079772949219e+00 2.005835771560668945e-01 2.273557037115097046e-01 1.283817887306213379e-01 -3.579036891460418701e-01
3.783000000000000000e+03 6.253042984008789062e+01 -1.223932456970214844e+01 9.016689658164978027e-02 5.260760307312011719e+00 1.605278134346008301e+00 1.521085500717163086e-01
3.784000000000000000e+03 6.331967544555664062e+01 -1.346758842468261719e+01 7.813201099634170532e-02 5.412140369415283203e+00 1.647081732749938965e+00 1.360023170709609985e-01
3.785000000000000000e+03 3.604250335693359375e+01 -3.759780883789062500e+00 1.587693542242050171e-01 2.423747777938842773e-01 1.203432381153106689e-01 -2.306089997291564941e-01
3.786000000000000000e+03 3.739475250244140625e+01 -4.104890823364257812e+00 1.712264567613601685e-01 4.704815149307250977e-01 1.925123929977416992e-01 -2.089914679527282715e-01
3.787000000000000000e+03 3.648394393920898438e+01 -2.592467784881591797e+00 1.714841574430465698e-01 2.979884743690490723e-01 1.408417820930480957e-01 -2.402443885803222656e-01
3.788000000000000000e+03 6.570462799072265625e+01 -2.005860328674316406e+01 4.077473282814025879e-02 5.906079292297363281e+00 1.784056186676025391e+00 8.546309173107147217e-02
3.789000000000000000e+03 6.672732543945312500e+01 -1.876414680480957031e+01 3.519620001316070557e-02 6.090940475463867188e+00 1.837841033935546875e+00 9.407652169466018677e-02
3.790000000000000000e+03 3.438162231445312500e+01 -8.142310976982116699e-01 1.482315808534622192e-01 -1.371100265532732010e-02 4.035617038607597351e-02 -2.864905297756195068e-01
3.791000000000000000e+03 6.228522109985351562e+01 -1.427363109588623047e+01 8.258992433547973633e-02 5.209388732910156250e+00 1.587593674659729004e+00 1.337060481309890747e-01
3.792000000000000000e+03 3.895194244384765625e+01 1.407847785949707031e+01 1.820977628231048584e-01 2.599629759788513184e-01 1.326182335615158081e-01 -5.227255821228027344e-01
3.793000000000000000e+03 3.759818267822265625e+01 1.573185920715332031e+01 1.070588976144790649e-01 1.162592768669128418e-01 6.699545681476593018e-02 -5.888086557388305664e-01
3.794000000000000000e+03 6.309994888305664062e+01 -6.907363414764404297e+00 8.037094026803970337e-02 5.386651992797851562e+00 1.640106916427612305e+00 2.005490511655807495e-01
3.795000000000000000e+03 3.934358596801757812e+01 -1.001988410949707031e+01 1.573662757873535156e-01 8.761427998542785645e-01 3.100527226924896240e-01 -1.153763979673385620e-01
3.796000000000000000e+03 3.294570541381835938e+01 -1.839629364013671875e+01 6.704664230346679688e-02 -1.794514060020446777e-01 -3.372142836451530457e-02 -9.589876979589462280e-02
3.797000000000000000e+03 3.738224411010742188e+01 8.429898262023925781e+00 2.184417992830276489e-01 2.377993464469909668e-01 1.368723511695861816e-01 -4.332061409950256348e-01
3.798000000000000000e+03 3.816225433349609375e+01 9.680265426635742188e+00 2.338333278894424438e-01 3.050839900970458984e-01 1.616751998662948608e-01 -4.430136680603027344e-01
3.799000000000000000e+03 6.763416290283203125e+01 2.780582237243652344e+01 1.396287918090820312e+00 1.212326145172119141e+01 4.055864810943603516e+00 -1.462872147560119629e+00
3.800000000000000000e+03 6.703977966308593750e+01 2.674844551086425781e+01 3.352164104580879211e-02 1.233945846557617188e+01 3.711893796920776367e+00 -8.004204630851745605e-01
3.801000000000000000e+03 6.623511505126953125e+01 2.312205886840820312e+01 -1.174237489700317383e+00 9.737178802490234375e+00 2.568882226943969727e+00 7.200371623039245605e-01
3.802000000000000000e+03 6.081309127807617188e+01 2.537997627258300781e+01 3.616833388805389404e-01 4.456233501434326172e+00 1.445375084877014160e+00 3.122732639312744141e+00
3.803000000000000000e+03 6.117676162719726562e+01 2.502766036987304688e+01 1.836200952529907227e-01 5.102752685546875000e+00 1.585911750793457031e+00 3.155036211013793945e+00
3.804000000000000000e+03 6.728282165527343750e+01 2.255979347229003906e+01 -1.112649679183959961e+00 9.636587142944335938e+00 2.557181358337402344e+00 2.120078057050704956e-01
3.805000000000000000e+03 6.548167419433593750e+01 2.070205688476562500e+01 -1.063420176506042480e+00 8.304100990295410156e+00 2.172204256057739258e+00 1.031160712242126465e+00
3.806000000000000000e+03 5.983751678466796875e+01 2.421803665161132812e+01 3.122356534004211426e-01 3.720681905746459961e+00 1.209875226020812988e+00 2.547408342361450195e+00
3.807000000000000000e+03 5.896495819091796875e+01 2.280016899108886719e+01 2.769996821880340576e-01 3.415831565856933594e+00 1.107849359512329102e+00 2.099243879318237305e+00
3.808000000000000000e+03 5.922692108154296875e+01 2.331742858886718750e+01 2.902476191520690918e-01 3.465665578842163086e+00 1.126773953437805176e+00 2.229741573333740234e+00
3.809000000000000000e+03 6.048601531982421875e+01 2.500549507141113281e+01 3.412015140056610107e-01 4.160616874694824219e+00 1.350545525550842285e+00 2.914942502975463867e+00
3.810000000000000000e+03 6.016064834594726562e+01 2.461923789978027344e+01 3.238709867000579834e-01 3.918451070785522461e+00 1.272696614265441895e+00 2.723328590393066406e+00
3.811000000000000000e+03 6.629958343505859375e+01 2.637121200561523438e+01 -6.557301282882690430e-01 1.236484718322753906e+01 3.512735128402709961e+00 1.556557416915893555e-01
3.812000000000000000e+03 6.766143798828125000e+01 2.650337982177734375e+01 1.152228191494941711e-01 1.166190433502197266e+01 3.533138036727905273e+00 -9.917261004447937012e-01
3.813000000000000000e+03 6.755806732177734375e+01 2.486347770690917969e+01 -7.250649929046630859e-01 1.081811046600341797e+01 3.027913808822631836e+00 -3.701699674129486084e-01
3.814000000000000000e+03 6.590356445312500000e+01 2.649553871154785156e+01 -7.523898482322692871e-01 1.254555416107177734e+01 3.537949323654174805e+00 4.773933589458465576e-01
3.815000000000000000e+03 6.254338073730468750e+01 2.616005897521972656e+01 -6.478489935398101807e-02 7.474193572998046875e+00 2.222822427749633789e+00 3.837230443954467773e+00
3.816000000000000000e+03 6.150596237182617188e+01 2.540584182739257812e+01 1.733282059431076050e-01 5.536543846130371094e+00 1.712961673736572266e+00 3.355331659317016602e+00
3.817000000000000000e+03 6.693459320068359375e+01 2.167195892333984375e+01 -1.138648152351379395e+00 9.177834510803222656e+00 2.411756038665771484e+00 4.408335983753204346e-01
3.818000000000000000e+03 5.804800033569335938e+01 2.185186004638671875e+01 2.940520346164703369e-01 3.038330554962158203e+00 9.997147321701049805e-01 1.763666749000549316e+00
3.819000000000000000e+03 5.823516845703125000e+01 2.248437690734863281e+01 3.112389147281646729e-01 3.001116275787353516e+00 9.937065839767456055e-01 1.861634731292724609e+00
3.820000000000000000e+03 6.722901916503906250e+01 2.626767539978027344e+01 -2.387086302042007446e-01 1.184390926361083984e+01 3.481560230255126953e+00 -6.582871079444885254e-01
3.821000000000000000e+03 4.368309020996093750e+01 1.961643218994140625e+01 2.785090170800685883e-02 3.889468610286712646e-01 1.250393390655517578e-01 -4.670701324939727783e-01
3.822000000000000000e+03 4.445366287231445312e+01 1.992640113830566406e+01 2.197805233299732208e-02 4.114861190319061279e-01 1.300392597913742065e-01 -4.280090332031250000e-01
3.823000000000000000e+03 5.733325576782226562e+01 2.144118499755859375e+01 3.226565420627593994e-01 2.740268945693969727e+00 9.188776612281799316e-01 1.555132150650024414e+00
3.824000000000000000e+03 4.319477462768554688e+01 2.030187606811523438e+01 -4.670684784650802612e-02 3.192603290081024170e-01 8.176604658365249634e-02 -5.128673911094665527e-01
3.825000000000000000e+03 6.506226348876953125e+01 2.539158439636230469e+01 -1.116105318069458008e+00 1.102605915069580078e+01 2.972986221313476562e+00 1.633460044860839844e+00
3.826000000000000000e+03 6.445722961425781250e+01 2.499837303161621094e+01 -1.046725153923034668e+00 1.006523227691650391e+01 2.705552101135253906e+00 2.151195049285888672e+00
3.827000000000000000e+03 5.425275421142578125e+01 2.066178512573242188e+01 3.479932546615600586e-01 1.689408063888549805e+00 6.112203598022460938e-01 8.146423697471618652e-01
3.828000000000000000e+03 6.556986236572265625e+01 1.561155414581298828e+01 -6.727583408355712891e-01 6.982934951782226562e+00 1.893052935600280762e+00 6.669692397117614746e-01
3.829000000000000000e+03 4.197524261474609375e+01 2.024749565124511719e+01 -6.065908819437026978e-02 2.587468028068542480e-01 5.942631512880325317e-02 -5.603277087211608887e-01
3.830000000000000000e+03 5.289786911010742188e+01 1.957199859619140625e+01 3.551688194274902344e-01 1.523447155952453613e+00 5.635848045349121094e-01 5.777561664581298828e-01
3.831000000000000000e+03 4.795141983032226562e+01 1.990686798095703125e+01 1.510781794786453247e-01 6.895571351051330566e-01 2.521905899047851562e-01 -1.461861431598663330e-01
3.832000000000000000e+03 4.721320343017578125e+01 2.036668586730957031e+01 7.586832344532012939e-02 5.705109834671020508e-01 1.939138025045394897e-01 -2.421148717403411865e-01
3.833000000000000000e+03 4.607049942016601562e+01 2.142409133911132812e+01 -8.035194873809814453e-02 3.984273374080657959e-01 9.542261064052581787e-02 -3.719061911106109619e-01
3.834000000000000000e+03 3.593384933471679688e+01 2.219672203063964844e+01 -2.160114496946334839e-01 -4.134362563490867615e-03 -6.604374200105667114e-02 -6.305894851684570312e-01
3.835000000000000000e+03 3.929164505004882812e+01 2.207808303833007812e+01 -2.376173436641693115e-01 1.125462725758552551e-01 -3.752131760120391846e-02 -6.307889819145202637e-01
3.836000000000000000e+03 6.640427398681640625e+01 2.139885902404785156e+01 -1.133696079254150391e+00 8.917169570922851562e+00 2.335042238235473633e+00 6.768019199371337891e-01
3.837000000000000000e+03 5.112107086181640625e+01 2.000683593750000000e+01 2.717038989067077637e-01 1.091954231262207031e+00 4.090974628925323486e-01 2.557427287101745605e-01
3.838000000000000000e+03 4.059411239624023438e+01 2.107897377014160156e+01 -1.536461263895034790e-01 1.727701872587203979e-01 5.737220402806997299e-03 -6.096153855323791504e-01
3.839000000000000000e+03 4.052805328369140625e+01 2.313159942626953125e+01 -3.385536670684814453e-01 1.391799896955490112e-01 -5.981210246682167053e-02 -6.097755432128906250e-01
3.840000000000000000e+03 5.235711288452148438e+01 2.022965049743652344e+01 3.074130117893218994e-01 1.279440045356750488e+00 4.760558903217315674e-01 4.511182010173797607e-01
3.841000000000000000e+03 6.646987152099609375e+01 1.527394390106201172e+01 -6.852043271064758301e-01 7.213376998901367188e+00 1.958451747894287109e+00 4.860575497150421143e-01
3.842000000000000000e+03 4.864287185668945312e+01 1.943269920349121094e+01 2.151502370834350586e-01 8.147358298301696777e-01 3.089658319950103760e-01 -5.249772593379020691e-02
3.843000000000000000e+03 4.930307769775390625e+01 1.892724800109863281e+01 2.711971402168273926e-01 9.639733433723449707e-01 3.705511391162872314e-01 4.385957866907119751e-02
3.844000000000000000e+03 3.992889404296875000e+01 2.154501914978027344e+01 -1.938285976648330688e-01 1.423236876726150513e-01 -1.545147225260734558e-02 -6.235114932060241699e-01
3.845000000000000000e+03 3.979792785644531250e+01 2.321367645263671875e+01 -3.397224247455596924e-01 1.147753670811653137e-01 -6.748411804437637329e-02 -6.176707148551940918e-01
3.846000000000000000e+03 5.453696060180664062e+01 1.994629478454589844e+01 3.655430674552917480e-01 1.928969502449035645e+00 6.883537769317626953e-01 8.854075670242309570e-01
3.847000000000000000e+03 4.474408721923828125e+01 1.912760162353515625e+01 9.412952512502670288e-02 4.761069118976593018e-01 1.710709333419799805e-01 -3.870989680290222168e-01
3.848000000000000000e+03 4.586321258544921875e+01 2.054600906372070312e+01 1.017283089458942413e-02 4.578130245208740234e-01 1.403957605361938477e-01 -3.582308590412139893e-01
3.849000000000000000e+03 4.150502014160156250e+01 1.969817352294921875e+01 -3.206300362944602966e-02 2.472085803747177124e-01 6.454367190599441528e-02 -5.634242296218872070e-01
3.850000000000000000e+03 3.683348464965820312e+01 2.046940803527832031e+01 -1.214964240789413452e-01 2.417597360908985138e-02 -2.919613569974899292e-02 -6.459054946899414062e-01
3.851000000000000000e+03 5.714883041381835938e+01 2.080618858337402344e+01 3.132736682891845703e-01 2.777924299240112305e+00 9.273594021797180176e-01 1.477573037147521973e+00
3.852000000000000000e+03 5.665406036376953125e+01 2.105508041381835938e+01 3.359841704368591309e-01 2.518491029739379883e+00 8.563425540924072266e-01 1.374053001403808594e+00
3.853000000000000000e+03 6.578684997558593750e+01 1.208782005310058594e+01 -4.340152144432067871e-01 6.586239814758300781e+00 1.845667362213134766e+00 4.887550473213195801e-01
3.854000000000000000e+03 6.238327026367187500e+01 -8.896259307861328125e+00 1.028618961572647095e-01 5.264273643493652344e+00 1.610140681266784668e+00 1.848704963922500610e-01
3.855000000000000000e+03 6.300804901123046875e+01 1.157091331481933594e+01 -2.697772979736328125e-01 5.744267940521240234e+00 1.642347097396850586e+00 6.889243721961975098e-01
3.856000000000000000e+03 3.759972000122070312e+01 6.655114650726318359e+00 2.299512177705764771e-01 3.082570135593414307e-01 1.614624708890914917e-01 -3.916344046592712402e-01
3.857000000000000000e+03 3.601546859741210938e+01 5.864736080169677734e+00 1.960231065750122070e-01 1.360141336917877197e-01 9.961117058992385864e-02 -4.024726152420043945e-01
3.858000000000000000e+03 3.633054733276367188e+01 1.777181816101074219e+01 8.096426725387573242e-03 7.495976984500885010e-03 4.677720833569765091e-03 -6.327987909317016602e-01
3.859000000000000000e+03 3.806346511840820312e+01 1.701890182495117188e+01 6.561518460512161255e-02 1.179533302783966064e-01 5.507055670022964478e-02 -6.044023633003234863e-01
3.860000000000000000e+03 3.704261016845703125e+01 9.513439178466796875e+00 2.065183371305465698e-01 1.796768158674240112e-01 1.158585473895072937e-01 -4.663437902927398682e-01
3.861000000000000000e+03 3.916573715209960938e+01 1.192287349700927734e+01 2.328044623136520386e-01 3.425632417201995850e-01 1.726103127002716064e-01 -4.653786718845367432e-01
3.862000000000000000e+03 3.907085800170898438e+01 1.301743888854980469e+01 2.092843353748321533e-01 3.001992404460906982e-01 1.528450697660446167e-01 -4.948114454746246338e-01
3.863000000000000000e+03 6.676210021972656250e+01 1.784848022460937500e+01 -9.065748453140258789e-01 7.846185684204101562e+00 2.081883192062377930e+00 4.991411268711090088e-01
3.864000000000000000e+03 6.544963836669921875e+01 1.401126098632812500e+01 -5.545822381973266602e-01 6.725477695465087891e+00 1.851268649101257324e+00 6.011043190956115723e-01
3.865000000000000000e+03 6.601523590087890625e+01 1.452877712249755859e+01 -6.183913946151733398e-01 6.995663642883300781e+00 1.913181662559509277e+00 5.342831015586853027e-01
3.866000000000000000e+03 3.654526901245117188e+01 5.631222724914550781e-01 1.875825822353363037e-01 2.845502495765686035e-01 1.416398435831069946e-01 -2.912776172161102295e-01
3.867000000000000000e+03 6.426022338867187500e+01 -2.178514003753662109e+00 4.523773118853569031e-02 5.640943050384521484e+00 1.705854296684265137e+00 2.462412267923355103e-01
3.868000000000000000e+03 6.212607192993164062e+01 -2.899155616760253906e+00 8.005136996507644653e-02 5.199820518493652344e+00 1.583961606025695801e+00 2.618403434753417969e-01
3.869000000000000000e+03 6.555661010742187500e+01 7.118246555328369141e+00 -1.760580241680145264e-01 6.198183536529541016e+00 1.806637644767761230e+00 3.667975366115570068e-01
3.870000000000000000e+03 6.292855453491210938e+01 3.289581835269927979e-01 4.155717790126800537e-02 5.392015457153320312e+00 1.630071878433227539e+00 3.062435686588287354e-01
3.871000000000000000e+03 3.771798324584960938e+01 1.638841819763183594e+01 8.038029819726943970e-02 1.084155514836311340e-01 5.663875490427017212e-02 -5.978932976722717285e-01
3.872000000000000000e+03 4.195797348022460938e+01 1.924312973022460938e+01 1.135140191763639450e-02 2.950085699558258057e-01 9.190799295902252197e-02 -5.393651127815246582e-01
3.873000000000000000e+03 6.310723495483398438e+01 -1.643222212791442871e+00 5.877850204706192017e-02 5.404380321502685547e+00 1.638947606086730957e+00 2.695105969905853271e-01
3.874000000000000000e+03 3.631359863281250000e+01 1.973572731018066406e+01 -8.272299170494079590e-02 7.976700435392558575e-04 -2.457759715616703033e-02 -6.449183225631713867e-01
3.875000000000000000e+03 3.765829467773437500e+01 -7.033871650695800781e+00 1.590286642313003540e-01 5.590270161628723145e-01 2.154167145490646362e-01 -1.745634377002716064e-01
3.876000000000000000e+03 3.835417938232421875e+01 -5.747050285339355469e+00 1.734381616115570068e-01 6.651942729949951172e-01 2.515897452831268311e-01 -1.805736422538757324e-01
3.877000000000000000e+03 3.868807601928710938e+01 -1.863178443908691406e+01 1.015201956033706665e-01 8.430162072181701660e-01 2.833609282970428467e-01 -5.571675673127174377e-02
3.878000000000000000e+03 6.284019851684570312e+01 -1.541413593292236328e+01 6.738705188035964966e-02 5.323246479034423828e+00 1.617190122604370117e+00 1.156297102570533752e-01
3.879000000000000000e+03 3.479107284545898438e+01 -1.056480693817138672e+01 1.008646562695503235e-01 1.232772618532180786e-01 6.724257767200469971e-02 -1.529688388109207153e-01
3.880000000000000000e+03 6.096273040771484375e+01 -2.119400739669799805e+00 9.233588725328445435e-02 4.940944671630859375e+00 1.509984254837036133e+00 2.693447172641754150e-01
3.881000000000000000e+03 6.559208679199218750e+01 -1.756380462646484375e+01 5.286749452352523804e-02 5.889983177185058594e+00 1.782855153083801270e+00 1.071872189640998840e-01
3.882000000000000000e+03 3.578689193725585938e+01 -7.688430309295654297e+00 1.261526346206665039e-01 2.457819730043411255e-01 1.115803793072700500e-01 -1.762420982122421265e-01
3.883000000000000000e+03 3.635192489624023438e+01 -6.518003940582275391e+00 1.451494991779327393e-01 3.168929219245910645e-01 1.386127173900604248e-01 -1.895616203546524048e-01
3.884000000000000000e+03 3.902864837646484375e+01 -1.581451702117919922e+01 1.062731817364692688e-01 8.594905138015747070e-01 2.897290885448455811e-01 -6.220345571637153625e-02
3.885000000000000000e+03 3.733818054199218750e+01 -1.697451972961425781e+01 8.324493467807769775e-02 5.727572441101074219e-01 1.968006491661071777e-01 -7.927661389112472534e-02
3.886000000000000000e+03 6.675601196289062500e+01 2.623312187194824219e+01 -4.718503355979919434e-01 1.202801036834716797e+01 3.466847896575927734e+00 -2.738259434700012207e-01
3.887000000000000000e+03 6.222670364379882812e+01 2.541933441162109375e+01 -1.067764908075332642e-01 6.816651344299316406e+00 2.012962579727172852e+00 3.461396932601928711e+00
3.888000000000000000e+03 6.396367645263671875e+01 2.508432960510253906e+01 -9.227563142776489258e-01 9.571688652038574219e+00 2.594679594039916992e+00 2.579619646072387695e+00
3.889000000000000000e+03 6.437311553955078125e+01 2.446751022338867188e+01 -1.042833328247070312e+00 9.554999351501464844e+00 2.553649902343750000e+00 2.121658325195312500e+00
3.890000000000000000e+03 6.695913696289062500e+01 2.306848144531250000e+01 -1.123558402061462402e+00 9.865827560424804688e+00 2.622680664062500000e+00 3.129443228244781494e-01
3.891000000000000000e+03 6.618933868408203125e+01 2.381612205505371094e+01 -1.159696221351623535e+00 1.018432044982910156e+01 2.707387447357177734e+00 7.319763898849487305e-01
3.892000000000000000e+03 6.697364044189453125e+01 2.735968208312988281e+01 5.690022110939025879e-01 1.277585792541503906e+01 4.003458023071289062e+00 -1.031913518905639648e+00
3.893000000000000000e+03 5.995283126831054688e+01 2.345333290100097656e+01 2.011512517929077148e-01 4.085420131683349609e+00 1.285971403121948242e+00 2.465420007705688477e+00
3.894000000000000000e+03 6.024739837646484375e+01 2.386808586120605469e+01 2.009981274604797363e-01 4.265823841094970703e+00 1.340046525001525879e+00 2.621947288513183594e+00
3.895000000000000000e+03 5.395475769042968750e+01 1.954232597351074219e+01 3.668235838413238525e-01 1.832407116889953613e+00 6.597692370414733887e-01 7.679924368858337402e-01
3.896000000000000000e+03 5.516640853881835938e+01 2.017364311218261719e+01 3.644989132881164551e-01 2.085691928863525391e+00 7.350572943687438965e-01 1.014834642410278320e+00
3.897000000000000000e+03 6.672174835205078125e+01 2.480464553833007812e+01 -9.728525876998901367e-01 1.097779464721679688e+01 3.001482486724853516e+00 2.158080786466598511e-01
3.898000000000000000e+03 5.788725662231445312e+01 2.120234870910644531e+01 2.771357595920562744e-01 3.094377040863037109e+00 1.011453866958618164e+00 1.668777585029602051e+00
3.899000000000000000e+03 6.647367095947265625e+01 2.270102691650390625e+01 -1.172572135925292969e+00 9.595775604248046875e+00 2.526961088180541992e+00 6.147354245185852051e-01
3.900000000000000000e+03 4.303531646728515625e+01 1.919880867004394531e+01 3.912724927067756653e-02 3.593257665634155273e-01 1.195359006524085999e-01 -4.955487251281738281e-01
3.901000000000000000e+03 4.666868972778320312e+01 1.963483428955078125e+01 1.199747771024703979e-01 5.949076414108276367e-01 2.144647240638732910e-01 -2.588731050491333008e-01
3.902000000000000000e+03 4.583057785034179688e+01 1.989609527587890625e+01 6.640221923589706421e-02 4.983406066894531250e-01 1.694228500127792358e-01 -3.402843475341796875e-01
3.903000000000000000e+03 5.232969284057617188e+01 1.882314682006835938e+01 3.647576570510864258e-01 1.520915269851684570e+00 5.657019019126892090e-01 4.885743558406829834e-01
3.904000000000000000e+03 4.739494705200195312e+01 1.918411254882812500e+01 1.870193779468536377e-01 7.016395926475524902e-01 2.665976881980895996e-01 -1.732078343629837036e-01
3.905000000000000000e+03 6.579310607910156250e+01 1.937701988220214844e+01 -9.817034006118774414e-01 7.984012126922607422e+00 2.100692510604858398e+00 8.202193975448608398e-01
3.906000000000000000e+03 6.707315826416015625e+01 2.532727050781250000e+01 -7.267705798149108887e-01 1.128579711914062500e+01 3.167707920074462891e+00 -1.780401468276977539e-01
3.907000000000000000e+03 4.255797958374023438e+01 1.975419998168945312e+01 -1.253991015255451202e-02 3.114018440246582031e-01 8.965858072042465210e-02 -5.282374620437622070e-01
3.908000000000000000e+03 4.301857376098632812e+01 1.817594718933105469e+01 1.068981811404228210e-01 4.095023274421691895e-01 1.549201458692550659e-01 -4.680774807929992676e-01
3.909000000000000000e+03 6.407350921630859375e+01 1.214557933807373047e+01 -3.613195419311523438e-01 6.123613357543945312e+00 1.728688120841979980e+00 6.343210935592651367e-01
3.910000000000000000e+03 6.495011901855468750e+01 2.488342666625976562e+01 -1.129625678062438965e+00 1.043439674377441406e+01 2.791431188583374023e+00 1.710934162139892578e+00
3.911000000000000000e+03 6.483899688720703125e+01 2.438458824157714844e+01 -1.124366283416748047e+00 9.927339553833007812e+00 2.640892028808593750e+00 1.728249311447143555e+00
3.912000000000000000e+03 4.872259140014648438e+01 1.816933441162109375e+01 2.911173999309539795e-01 9.703976511955261230e-01 3.784545063972473145e-01 2.586283488199114799e-03
3.913000000000000000e+03 6.605171966552734375e+01 1.884511756896972656e+01 -9.600099325180053711e-01 7.877845287322998047e+00 2.075350522994995117e+00 7.121201157569885254e-01
3.914000000000000000e+03 6.413311767578125000e+01 2.040970802307128906e+01 -8.704753518104553223e-01 7.488095283508300781e+00 1.985285997390747070e+00 1.448874711990356445e+00
3.915000000000000000e+03 3.889128112792968750e+01 1.836225128173828125e+01 8.962945081293582916e-03 1.476729661226272583e-01 4.699077457189559937e-02 -6.103075146675109863e-01
3.916000000000000000e+03 5.052522277832031250e+01 1.918846130371093750e+01 2.987870872020721436e-01 1.115858316421508789e+00 4.243936240673065186e-01 1.973390281200408936e-01
3.917000000000000000e+03 6.583503723144531250e+01 2.023848152160644531e+01 -1.064578294754028320e+00 8.292747497558593750e+00 2.168450832366943359e+00 8.797165155410766602e-01
3.918000000000000000e+03 5.173064041137695312e+01 1.942973709106445312e+01 3.262277841567993164e-01 1.294709086418151855e+00 4.862810671329498291e-01 3.733787834644317627e-01
3.919000000000000000e+03 4.084638977050781250e+01 2.004793357849121094e+01 -6.444557756185531616e-02 2.096063047647476196e-01 4.354821890592575073e-02 -5.893597602844238281e-01
3.920000000000000000e+03 3.928845214843750000e+01 1.907138252258300781e+01 -2.197167091071605682e-02 1.563808917999267578e-01 4.032276570796966553e-02 -6.127232313156127930e-01
3.921000000000000000e+03 3.759291458129882812e+01 1.812613868713378906e+01 5.878234747797250748e-03 7.521493732929229736e-02 2.432795241475105286e-02 -6.271173954010009766e-01
3.922000000000000000e+03 3.739261627197265625e+01 2.118093299865722656e+01 -1.652554273605346680e-01 4.689238220453262329e-02 -3.550891578197479248e-02 -6.441261172294616699e-01
3.923000000000000000e+03 6.602446746826171875e+01 1.636803817749023438e+01 -7.505202889442443848e-01 7.263339519500732422e+00 1.953845739364624023e+00 6.178816556930541992e-01
3.924000000000000000e+03 3.798059844970703125e+01 2.188428878784179688e+01 -2.149474322795867920e-01 6.757568567991256714e-02 -4.421152174472808838e-02 -6.392446756362915039e-01
3.925000000000000000e+03 6.405154418945312500e+01 8.597634315490722656e+00 -1.989542096853256226e-01 5.861165046691894531e+00 1.698663234710693359e+00 4.900764524936676025e-01
3.926000000000000000e+03 6.365321350097656250e+01 4.164907932281494141e+00 -4.034260287880897522e-02 5.622945308685302734e+00 1.674780845642089844e+00 3.633449077606201172e-01
3.927000000000000000e+03 6.540021514892578125e+01 5.843082904815673828e+00 -1.311317235231399536e-01 6.066691398620605469e+00 1.780667901039123535e+00 3.611533343791961670e-01
3.928000000000000000e+03 3.844721221923828125e+01 1.952872276306152344e+01 -5.990052595734596252e-02 1.044956892728805542e-01 1.337854936718940735e-02 -6.316770911216735840e-01
3.929000000000000000e+03 4.248054122924804688e+01 1.768317031860351562e+01 1.222935244441032410e-01 3.947988152503967285e-01 1.551277041435241699e-01 -4.760994017124176025e-01
3.930000000000000000e+03 3.877783203125000000e+01 1.509513950347900391e+01 1.467449665069580078e-01 2.136858105659484863e-01 1.081292331218719482e-01 -5.519014596939086914e-01
3.931000000000000000e+03 3.924404525756835938e+01 1.080895423889160156e+01 2.485199719667434692e-01 3.883851468563079834e-01 1.910715252161026001e-01 -4.364382624626159668e-01
3.932000000000000000e+03 4.013553237915039062e+01 1.418946266174316406e+01 2.058230489492416382e-01 3.572915792465209961e-01 1.689343899488449097e-01 -4.881512522697448730e-01
3.933000000000000000e+03 4.044967269897460938e+01 9.634293556213378906e+00 2.848532199859619141e-01 5.591722130775451660e-01 2.532076239585876465e-01 -3.702768683433532715e-01
3.934000000000000000e+03 4.015827941894531250e+01 -1.788658857345581055e+00 2.336613833904266357e-01 8.905819654464721680e-01 3.372730016708374023e-01 -1.879496127367019653e-01
3.935000000000000000e+03 3.804674911499023438e+01 -1.896597385406494141e+00 2.073421031236648560e-01 5.457926392555236816e-01 2.259404212236404419e-01 -2.255652993917465210e-01
3.936000000000000000e+03 3.773253250122070312e+01 -2.953438758850097656e+00 1.835612505674362183e-01 5.072289109230041504e-01 2.072370499372482300e-01 -2.122791856527328491e-01
3.937000000000000000e+03 6.318820571899414062e+01 3.189044952392578125e+00 -7.715053856372833252e-03 5.502967834472656250e+00 1.648575782775878906e+00 3.497385084629058838e-01
3.938000000000000000e+03 6.382503890991210938e+01 1.486835122108459473e+00 4.015648271888494492e-03 5.626209735870361328e+00 1.689067721366882324e+00 3.124088644981384277e-01
3.939000000000000000e+03 6.379752349853515625e+01 -5.048279285430908203e+00 6.620064377784729004e-02 5.549917697906494141e+00 1.684835553169250488e+00 2.122941166162490845e-01
3.940000000000000000e+03 6.307761001586914062e+01 -3.899266004562377930e+00 6.995002925395965576e-02 5.380414485931396484e+00 1.635109424591064453e+00 2.322186380624771118e-01
3.941000000000000000e+03 6.461478424072265625e+01 1.360122871398925781e+01 -4.861901402473449707e-01 6.443539142608642578e+00 1.787204742431640625e+00 6.700502634048461914e-01
3.942000000000000000e+03 6.478810119628906250e+01 7.400141716003417969e+00 -1.703122258186340332e-01 6.020373821258544922e+00 1.755018591880798340e+00 4.128371179103851318e-01
3.943000000000000000e+03 3.789774703979492188e+01 -9.101911544799804688e+00 1.365186125040054321e-01 6.126741170883178711e-01 2.247578054666519165e-01 -1.550226509571075439e-01
3.944000000000000000e+03 6.088630294799804688e+01 1.139233484864234924e-01 8.544413745403289795e-02 4.924319267272949219e+00 1.502928972244262695e+00 3.104646503925323486e-01
3.945000000000000000e+03 6.168881607055664062e+01 -1.098927497863769531e+01 9.306611120700836182e-02 5.102762222290039062e+00 1.558748483657836914e+00 1.632363498210906982e-01
3.946000000000000000e+03 3.833766937255859375e+01 4.976302146911621094e+00 2.391627430915832520e-01 4.396914541721343994e-01 2.036562561988830566e-01 -3.368629813194274902e-01
3.947000000000000000e+03 3.875213623046875000e+01 6.262206077575683594e+00 2.534309923648834229e-01 4.624348282814025879e-01 2.147597372531890869e-01 -3.524867892265319824e-01
3.948000000000000000e+03 6.046190643310546875e+01 -8.202786445617675781e+00 1.177298575639724731e-01 4.828444004058837891e+00 1.483852148056030273e+00 1.772420406341552734e-01
3.949000000000000000e+03 6.085130691528320312e+01 -9.635168075561523438e+00 1.079431548714637756e-01 4.914097309112548828e+00 1.506612181663513184e+00 1.728895902633666992e-01
3.950000000000000000e+03 3.692852020263671875e+01 -5.307425022125244141e+00 1.584472805261611938e-01 4.039741158485412598e-01 1.687264144420623779e-01 -2.028153091669082642e-01
3.951000000000000000e+03 5.959489822387695312e+01 -6.432560920715332031e+00 1.250596940517425537e-01 4.667576313018798828e+00 1.437790751457214355e+00 2.060692310333251953e-01
3.952000000000000000e+03 3.678937149047851562e+01 -1.152574062347412109e+01 1.276931017637252808e-01 4.712602794170379639e-01 1.796860098838806152e-01 -1.268560439348220825e-01
3.953000000000000000e+03 6.030253601074218750e+01 -5.193336009979248047e+00 1.131729260087013245e-01 4.789277553558349609e+00 1.470735192298889160e+00 2.195927798748016357e-01
3.954000000000000000e+03 6.271576690673828125e+01 2.568000221252441406e+01 -2.888937890529632568e-01 7.825843334197998047e+00 2.261084794998168945e+00 3.528025865554809570e+00
3.955000000000000000e+03 6.535710144042968750e+01 2.304030609130859375e+01 -1.157986164093017578e+00 9.329050064086914062e+00 2.451319217681884766e+00 1.255809664726257324e+00
3.956000000000000000e+03 6.581596374511718750e+01 2.293511962890625000e+01 -1.177240729331970215e+00 9.462315559387207031e+00 2.485522508621215820e+00 1.007578015327453613e+00
3.957000000000000000e+03 6.344306182861328125e+01 2.516030883789062500e+01 -7.145363092422485352e-01 8.824800491333007812e+00 2.433079242706298828e+00 2.960720539093017578e+00
3.958000000000000000e+03 6.246620559692382812e+01 2.500291442871093750e+01 -3.147228062152862549e-01 7.230412006378173828e+00 2.074706792831420898e+00 3.275895118713378906e+00
3.959000000000000000e+03 6.620903778076171875e+01 2.598553657531738281e+01 -7.881004810333251953e-01 1.205547046661376953e+01 3.380211114883422852e+00 3.183220326900482178e-01
3.960000000000000000e+03 6.619178009033203125e+01 2.557555007934570312e+01 -8.925747275352478027e-01 1.154898166656494141e+01 3.196922063827514648e+00 4.308620989322662354e-01
3.961000000000000000e+03 6.567460632324218750e+01 2.156810760498046875e+01 -1.120925307273864746e+00 8.729640960693359375e+00 2.282614707946777344e+00 1.000413894653320312e+00
3.962000000000000000e+03 6.390269851684570312e+01 2.451204299926757812e+01 -9.316074848175048828e-01 9.087296485900878906e+00 2.446706771850585938e+00 2.452146530151367188e+00
3.963000000000000000e+03 6.185204315185546875e+01 2.506425285339355469e+01 -2.934188768267631531e-02 6.116978168487548828e+00 1.826290845870971680e+00 3.289263010025024414e+00
3.964000000000000000e+03 6.154277801513671875e+01 2.468242645263671875e+01 1.595501234987750649e-04 5.700143337249755859e+00 1.710090875625610352e+00 3.122935771942138672e+00
3.965000000000000000e+03 6.545262908935546875e+01 2.473298645019531250e+01 -1.159873127937316895e+00 1.065514659881591797e+01 2.848582029342651367e+00 1.243577480316162109e+00
3.966000000000000000e+03 5.943256759643554688e+01 2.253136062622070312e+01 1.920108050107955933e-01 3.850474596023559570e+00 1.212745547294616699e+00 2.178785800933837891e+00
3.967000000000000000e+03 5.967769241333007812e+01 2.301114845275878906e+01 1.994305998086929321e-01 3.945894956588745117e+00 1.243597626686096191e+00 2.317205190658569336e+00
3.968000000000000000e+03 5.874846267700195312e+01 2.223319625854492188e+01 2.520124316215515137e-01 3.405951023101806641e+00 1.097389101982116699e+00 1.982980132102966309e+00
3.969000000000000000e+03 6.659178161621093750e+01 2.348868751525878906e+01 -1.140569806098937988e+00 1.006482219696044922e+01 2.677275657653808594e+00 4.914050102233886719e-01
3.970000000000000000e+03 6.593127441406250000e+01 2.108125686645507812e+01 -1.104578971862792969e+00 8.620092391967773438e+00 2.254653930664062500e+00 8.799332380294799805e-01
3.971000000000000000e+03 6.466796875000000000e+01 2.083868789672851562e+01 -9.780279994010925293e-01 7.944290161132812500e+00 2.089878559112548828e+00 1.338435292243957520e+00
3.972000000000000000e+03 6.557991790771484375e+01 2.522904205322265625e+01 -1.106884837150573730e+00 1.116304969787597656e+01 3.016849279403686523e+00 1.107500195503234863e+00
3.973000000000000000e+03 5.539145278930664062e+01 1.877795600891113281e+01 3.490934669971466064e-01 2.447179794311523438e+00 8.388819694519042969e-01 1.026575684547424316e+00
3.974000000000000000e+03 5.478713607788085938e+01 1.933333396911621094e+01 3.657230436801910400e-01 2.130542039871215820e+00 7.488794922828674316e-01 9.366182088851928711e-01
3.975000000000000000e+03 6.593778228759765625e+01 2.241537284851074219e+01 -1.173027634620666504e+00 9.245549201965332031e+00 2.421756505966186523e+00 9.228308200836181641e-01
3.976000000000000000e+03 6.293617630004882812e+01 2.455994415283203125e+01 -5.758670568466186523e-01 7.824222087860107422e+00 2.174506425857543945e+00 2.906854152679443359e+00
3.977000000000000000e+03 5.646036529541015625e+01 1.866527748107910156e+01 2.922745943069458008e-01 2.875367641448974609e+00 9.502927064895629883e-01 1.199031829833984375e+00
3.978000000000000000e+03 5.636845779418945312e+01 2.057699775695800781e+01 3.380518555641174316e-01 2.477009057998657227e+00 8.445182442665100098e-01 1.282658100128173828e+00
3.979000000000000000e+03 5.771117401123046875e+01 2.054335975646972656e+01 2.518065869808197021e-01 3.135876417160034180e+00 1.016304969787597656e+00 1.568664550781250000e+00
3.980000000000000000e+03 5.343056869506835938e+01 1.894849014282226562e+01 3.731160163879394531e-01 1.789222240447998047e+00 6.487014889717102051e-01 6.823193430900573730e-01
3.981000000000000000e+03 5.595132827758789062e+01 1.955556488037109375e+01 3.330549597740173340e-01 2.522137880325317383e+00 8.565578460693359375e-01 1.161279201507568359e+00
3.982000000000000000e+03 6.554691314697265625e+01 2.356609535217285156e+01 -1.187884211540222168e+00 9.798039436340332031e+00 2.583046436309814453e+00 1.158593058586120605e+00
3.983000000000000000e+03 6.617941284179687500e+01 2.189943122863769531e+01 -1.157126069068908691e+00 9.064966201782226562e+00 2.372352123260498047e+00 7.927739620208740234e-01
3.984000000000000000e+03 4.241519927978515625e+01 1.869770431518554688e+01 5.576182901859283447e-02 3.388244807720184326e-01 1.183758974075317383e-01 -5.113453269004821777e-01
3.985000000000000000e+03 4.191572570800781250e+01 1.812238883972167969e+01 7.473415136337280273e-02 3.336446881294250488e-01 1.225136518478393555e-01 -5.167988538742065430e-01
3.986000000000000000e+03 5.179664993286132812e+01 1.802397727966308594e+01 3.751426935195922852e-01 1.530399560928344727e+00 5.716626644134521484e-01 4.176760017871856689e-01
3.987000000000000000e+03 5.662086105346679688e+01 1.943529319763183594e+01 3.040656745433807373e-01 2.808228969573974609e+00 9.336884021759033203e-01 1.281587481498718262e+00
3.988000000000000000e+03 5.686716079711914062e+01 2.016074371337890625e+01 3.013412058353424072e-01 2.781123876571655273e+00 9.247395396232604980e-01 1.367711901664733887e+00
3.989000000000000000e+03 6.575151062011718750e+01 1.736088943481445312e+01 -8.260658383369445801e-01 7.443162441253662109e+00 1.985128998756408691e+00 7.114089131355285645e-01
3.990000000000000000e+03 3.940208053588867188e+01 2.090590286254882812e+01 -1.471869200468063354e-01 1.302226930856704712e-01 -5.089269019663333893e-03 -6.283569335937500000e-01
3.991000000000000000e+03 3.726559829711914062e+01 2.237244224548339844e+01 -2.427250891923904419e-01 4.235009104013442993e-02 -6.011249870061874390e-02 -6.357718110084533691e-01
3.992000000000000000e+03 3.715665435791015625e+01 1.927891349792480469e+01 -5.569608137011528015e-02 4.247361794114112854e-02 -3.966739401221275330e-03 -6.413009762763977051e-01
3.993000000000000000e+03 3.800901412963867188e+01 1.883059692382812500e+01 -2.482236362993717194e-02 9.099222719669342041e-02 1.985096000134944916e-02 -6.308481097221374512e-01
3.994000000000000000e+03 3.838684844970703125e+01 1.592114639282226562e+01 1.100131422281265259e-01 1.689008623361587524e-01 8.367419987916946411e-02 -5.761798024177551270e-01
3.995000000000000000e+03 3.993597030639648438e+01 1.530079078674316406e+01 1.692763715982437134e-01 3.026327490806579590e-01 1.415727287530899048e-01 -5.227385163307189941e-01
3.996000000000000000e+03 6.597370147705078125e+01 1.810625076293945312e+01 -8.981156349182128906e-01 7.696249008178710938e+00 2.039439916610717773e+00 6.834359765052795410e-01
3.997000000000000000e+03 4.937097549438476562e+01 1.759994125366210938e+01 3.357600867748260498e-01 1.137591600418090820e+00 4.420054852962493896e-01 9.434119611978530884e-02
3.998000000000000000e+03 3.969107818603515625e+01 1.977626800537109375e+01 -6.156183779239654541e-02 1.626485884189605713e-01 3.032602183520793915e-02 -6.135804057121276855e-01
3.999000000000000000e+03 4.813704681396484375e+01 1.745044517517089844e+01 3.079711496829986572e-01 9.710738062858581543e-01 3.837134838104248047e-01 -3.935791552066802979e-02
4.000000000000000000e+03 4.994884872436523438e+01 1.838388633728027344e+01 3.191444873809814453e-01 1.130693316459655762e+00 4.349513351917266846e-01 1.460009068250656128e-01
4.001000000000000000e+03 5.115731430053710938e+01 1.861831665039062500e+01 3.441345989704132080e-01 1.309669017791748047e+00 4.961410760879516602e-01 3.076224327087402344e-01
4.002000000000000000e+03 6.313698959350585938e+01 9.164633750915527344e+00 -1.848610192537307739e-01 5.653555870056152344e+00 1.640608429908752441e+00 5.602192282676696777e-01
4.003000000000000000e+03 4.624612045288085938e+01 1.894294357299804688e+01 1.620242744684219360e-01 6.243138313293457031e-01 2.359014153480529785e-01 -2.671258449554443359e-01
4.004000000000000000e+03 4.683396530151367188e+01 1.849014282226562500e+01 2.080692499876022339e-01 7.043374180793762207e-01 2.737219929695129395e-01 -2.040357887744903564e-01
4.005000000000000000e+03 5.532748031616210938e+01 1.947677612304687500e+01 3.560710847377777100e-01 2.258286714553833008e+00 7.843073010444641113e-01 1.026039123535156250e+00
4.006000000000000000e+03 6.206301879882812500e+01 1.092968368530273438e+01 -1.873364597558975220e-01 5.401633739471435547e+00 1.564289093017578125e+00 7.152136564254760742e-01
4.007000000000000000e+03 6.345756912231445312e+01 1.069351482391357422e+01 -2.587648928165435791e-01 5.824113845825195312e+00 1.669604659080505371e+00 6.092124581336975098e-01
4.008000000000000000e+03 6.388864517211914062e+01 9.938419342041015625e+00 -2.470898032188415527e-01 5.919495105743408203e+00 1.701721549034118652e+00 5.510222315788269043e-01
4.009000000000000000e+03 6.435232543945312500e+01 1.457943058013916016e+01 -5.375542044639587402e-01 6.490670680999755859e+00 1.785934925079345703e+00 7.662745714187622070e-01
4.010000000000000000e+03 6.527185821533203125e+01 1.477189254760742188e+01 -5.983820557594299316e-01 6.787823677062988281e+00 1.856832504272460938e+00 6.580597162246704102e-01
4.011000000000000000e+03 6.355364990234375000e+01 1.313427448272705078e+01 -3.878274857997894287e-01 6.038100242614746094e+00 1.695081949234008789e+00 7.615535259246826172e-01
4.012000000000000000e+03 3.814518356323242188e+01 2.069595527648925781e+01 -1.349131017923355103e-01 7.947625964879989624e-02 -1.663105189800262451e-02 -6.411615014076232910e-01
4.013000000000000000e+03 4.481312179565429688e+01 1.827115249633789062e+01 1.631585061550140381e-01 5.528141856193542480e-01 2.147918045520782471e-01 -3.507891893386840820e-01
4.014000000000000000e+03 4.556792449951171875e+01 1.917853927612304688e+01 1.169194281101226807e-01 5.314040184020996094e-01 1.944970339536666870e-01 -3.396332263946533203e-01
4.015000000000000000e+03 3.869393157958984375e+01 2.139241981506347656e+01 -1.831980794668197632e-01 9.667861461639404297e-02 -2.595584094524383545e-02 -6.373675465583801270e-01
4.016000000000000000e+03 5.835353088378906250e+01 -5.753975868225097656e+00 1.383262723684310913e-01 4.408782005310058594e+00 1.364132523536682129e+00 1.971216797828674316e-01
4.017000000000000000e+03 4.565917587280273438e+01 1.844583129882812500e+01 1.733364164829254150e-01 6.048420667648315430e-01 2.334535568952560425e-01 -3.027218580245971680e-01
4.018000000000000000e+03 4.023412704467773438e+01 7.246916294097900391e+00 2.803280949592590332e-01 6.196504831314086914e-01 2.699935734272003174e-01 -3.270662724971771240e-01
4.019000000000000000e+03 4.295787429809570312e+01 1.703759384155273438e+01 1.740392297506332397e-01 4.724386334419250488e-01 1.939433664083480835e-01 -4.316077232360839844e-01
4.020000000000000000e+03 6.538924407958984375e+01 1.979408264160156250e+01 -9.845170974731445312e-01 7.959125518798828125e+00 2.092382431030273438e+00 9.714310169219970703e-01
4.021000000000000000e+03 6.492739868164062500e+01 1.926192855834960938e+01 -9.049079418182373047e-01 7.594303607940673828e+00 2.006818771362304688e+00 1.071971774101257324e+00
4.022000000000000000e+03 6.087487792968750000e+01 -6.921931266784667969e+00 1.019276604056358337e-01 4.913961410522460938e+00 1.504766702651977539e+00 1.993677169084548950e-01
4.023000000000000000e+03 6.187902450561523438e+01 1.098476767539978027e+00 5.404492840170860291e-02 5.149539470672607422e+00 1.561075210571289062e+00 3.322563767433166504e-01
4.024000000000000000e+03 6.491130828857421875e+01 4.928253173828125000e+00 -9.497534483671188354e-02 5.925813674926757812e+00 1.749251484870910645e+00 3.618498742580413818e-01
4.025000000000000000e+03 3.906914520263671875e+01 1.888012170791625977e+00 2.347516864538192749e-01 6.102981567382812500e-01 2.535149455070495605e-01 -2.622333168983459473e-01
4.026000000000000000e+03 3.934403991699218750e+01 3.325915098190307617e+00 2.506923973560333252e-01 6.110584735870361328e-01 2.585252523422241211e-01 -2.825109362602233887e-01
4.027000000000000000e+03 3.921873092651367188e+01 5.347288250923156738e-01 2.257667332887649536e-01 6.631055474281311035e-01 2.666616737842559814e-01 -2.395958006381988525e-01
4.028000000000000000e+03 5.905297088623046875e+01 -2.702744007110595703e+00 1.353315562009811401e-01 4.533379554748535156e+00 1.400613307952880859e+00 2.574003040790557861e-01
4.029000000000000000e+03 6.387540054321289062e+01 5.112911224365234375e+00 -8.344495296478271484e-02 5.705779075622558594e+00 1.686700224876403809e+00 3.969119489192962646e-01
4.030000000000000000e+03 6.482361602783203125e+01 6.516666412353515625e+00 -1.424979716539382935e-01 5.979923725128173828e+00 1.751227736473083496e+00 3.974593877792358398e-01
4.031000000000000000e+03 3.909085464477539062e+01 7.444881439208984375e+00 2.556596398353576660e-01 4.697865843772888184e-01 2.176338732242584229e-01 -3.677604496479034424e-01
4.032000000000000000e+03 4.163883972167968750e+01 9.549078941345214844e+00 3.088097870349884033e-01 7.105485200881958008e-01 3.058075010776519775e-01 -3.188055455684661865e-01
4.033000000000000000e+03 4.043254852294921875e+01 1.079313850402832031e+01 2.768398821353912354e-01 5.149605274200439453e-01 2.375401109457015991e-01 -3.956305980682373047e-01
4.034000000000000000e+03 3.847940444946289062e+01 -1.171138477325439453e+01 1.327101737260818481e-01 7.570245265960693359e-01 2.669204175472259521e-01 -1.131537929177284241e-01
4.035000000000000000e+03 3.846788406372070312e+01 1.768058395385742188e+01 3.946726769208908081e-02 1.362925916910171509e-01 5.272796005010604858e-02 -6.109554767608642578e-01
4.036000000000000000e+03 6.426117706298828125e+01 -1.876148223876953125e+01 5.535034462809562683e-02 5.607144832611083984e+00 1.698748469352722168e+00 9.622568637132644653e-02
4.037000000000000000e+03 6.191695404052734375e+01 -8.495562076568603516e-01 7.001400738954544067e-02 5.137953281402587891e+00 1.562390208244323730e+00 2.913843989372253418e-01
4.038000000000000000e+03 5.983781433105468750e+01 -5.634562373161315918e-01 1.037583947181701660e-01 4.711481094360351562e+00 1.444571852684020996e+00 2.982548475265502930e-01
4.039000000000000000e+03 6.160099029541015625e+01 -1.543570137023925781e+01 8.081858605146408081e-02 5.080344676971435547e+00 1.548349022865295410e+00 1.232644096016883850e-01
4.040000000000000000e+03 6.137525939941406250e+01 -1.324288940429687500e+01 9.631509333848953247e-02 5.056995868682861328e+00 1.545993208885192871e+00 1.449057310819625854e-01
4.041000000000000000e+03 6.112474060058593750e+01 -4.045584678649902344e+00 9.807829558849334717e-02 4.974452495574951172e+00 1.521759271621704102e+00 2.366356700658798218e-01
4.042000000000000000e+03 3.716090774536132812e+01 -1.290088844299316406e+01 1.169629767537117004e-01 5.519290566444396973e-01 2.006676048040390015e-01 -1.168127283453941345e-01
4.043000000000000000e+03 3.805733489990234375e+01 7.730976581573486328e+00 2.327993214130401611e-01 3.338321745395660400e-01 1.699894517660140991e-01 -4.005095958709716797e-01
4.044000000000000000e+03 6.291399383544921875e+01 2.513870239257812500e+01 -4.974529445171356201e-01 8.010925292968750000e+00 2.254041671752929688e+00 3.181954145431518555e+00
4.045000000000000000e+03 6.595964813232421875e+01 2.454469108581542969e+01 -1.128713965415954590e+00 1.066000175476074219e+01 2.859386205673217773e+00 8.315206170082092285e-01
4.046000000000000000e+03 6.338954162597656250e+01 2.396880149841308594e+01 -7.783737182617187500e-01 8.185124397277832031e+00 2.222025394439697266e+00 2.501065015792846680e+00
4.047000000000000000e+03 5.858559417724609375e+01 2.161737632751464844e+01 2.258018106222152710e-01 3.456497907638549805e+00 1.104689955711364746e+00 1.869398713111877441e+00
4.048000000000000000e+03 5.968280792236328125e+01 2.179567527770996094e+01 8.857727795839309692e-02 4.191530227661132812e+00 1.284032225608825684e+00 2.096971988677978516e+00
4.049000000000000000e+03 6.095741271972656250e+01 2.390618133544921875e+01 4.431435093283653259e-02 5.068457126617431641e+00 1.533831477165222168e+00 2.798631906509399414e+00
4.050000000000000000e+03 6.250699996948242188e+01 2.457892799377441406e+01 -4.130549728870391846e-01 7.264031410217285156e+00 2.055292844772338867e+00 3.071930170059204102e+00
4.051000000000000000e+03 6.066456604003906250e+01 2.351397514343261719e+01 6.205210089683532715e-02 4.808520793914794922e+00 1.461171746253967285e+00 2.645835399627685547e+00
4.052000000000000000e+03 6.341724014282226562e+01 2.454967880249023438e+01 -7.561854720115661621e-01 8.450105667114257812e+00 2.308176040649414062e+00 2.698456525802612305e+00
4.053000000000000000e+03 6.575428771972656250e+01 2.405369949340820312e+01 -1.181469917297363281e+00 1.022683811187744141e+01 2.713610649108886719e+00 1.027443051338195801e+00
4.054000000000000000e+03 5.727724075317382812e+01 1.915533065795898438e+01 2.459986209869384766e-01 3.176150560379028320e+00 1.026644706726074219e+00 1.378748893737792969e+00
4.055000000000000000e+03 6.593675231933593750e+01 2.339226341247558594e+01 -1.182341933250427246e+00 9.827906608581542969e+00 2.593669414520263672e+00 9.375985264778137207e-01
4.056000000000000000e+03 6.500728607177734375e+01 2.027646064758300781e+01 -9.882001280784606934e-01 7.933970451354980469e+00 2.083730936050415039e+00 1.153089165687561035e+00
4.057000000000000000e+03 6.519186401367187500e+01 2.120268821716308594e+01 -1.067380666732788086e+00 8.373665809631347656e+00 2.191885471343994141e+00 1.188479781150817871e+00
4.058000000000000000e+03 4.177700042724609375e+01 1.745004844665527344e+01 1.191311180591583252e-01 3.590564727783203125e-01 1.434562802314758301e-01 -5.044999122619628906e-01
4.059000000000000000e+03 4.227943420410156250e+01 1.576227092742919922e+01 2.082732915878295898e-01 4.702398777008056641e-01 2.035539448261260986e-01 -4.366585910320281982e-01
4.060000000000000000e+03 6.485228729248046875e+01 1.615816688537597656e+01 -6.699799895286560059e-01 6.867896556854248047e+00 1.859375000000000000e+00 7.969422936439514160e-01
4.061000000000000000e+03 4.195865249633789062e+01 1.666821289062500000e+01 1.640458703041076660e-01 4.061197042465209961e-01 1.710496693849563599e-01 -4.762732386589050293e-01
4.062000000000000000e+03 5.590831375122070312e+01 1.883476257324218750e+01 3.299846649169921875e-01 2.647302150726318359e+00 8.931860923767089844e-01 1.128851175308227539e+00
4.063000000000000000e+03 5.749649429321289062e+01 1.986504364013671875e+01 2.493845969438552856e-01 3.160429477691650391e+00 1.022944211959838867e+00 1.471881389617919922e+00
4.064000000000000000e+03 4.126429748535156250e+01 1.910272789001464844e+01 1.007655169814825058e-02 2.585763633251190186e-01 8.059587329626083374e-02 -5.599817633628845215e-01
4.065000000000000000e+03 4.114299392700195312e+01 1.543675422668457031e+01 1.933979839086532593e-01 4.008716344833374023e-01 1.782808899879455566e-01 -4.781366884708404541e-01
4.066000000000000000e+03 5.436285400390625000e+01 1.899967765808105469e+01 3.716310262680053711e-01 2.059775829315185547e+00 7.294220328330993652e-01 8.437904119491577148e-01
4.067000000000000000e+03 6.541986083984375000e+01 1.677226066589355469e+01 -7.527229189872741699e-01 7.157211303710937500e+00 1.921346545219421387e+00 7.528343796730041504e-01
4.068000000000000000e+03 6.513497924804687500e+01 2.375414848327636719e+01 -1.154174923896789551e+00 9.668899536132812500e+00 2.554417371749877930e+00 1.450505375862121582e+00
4.069000000000000000e+03 4.747977447509765625e+01 1.799244880676269531e+01 2.578839957714080811e-01 8.266711235046386719e-01 3.253665566444396973e-01 -1.240553930401802063e-01
4.070000000000000000e+03 5.126509475708007812e+01 1.719586372375488281e+01 3.873838484287261963e-01 1.537365436553955078e+00 5.774247646331787109e-01 3.510523140430450439e-01
4.071000000000000000e+03 6.246815109252929688e+01 1.249531745910644531e+01 -2.721788585186004639e-01 5.622371673583984375e+00 1.605057835578918457e+00 7.904722690582275391e-01
4.072000000000000000e+03 5.293974685668945312e+01 1.822872543334960938e+01 3.824470937252044678e-01 1.769776821136474609e+00 6.456671953201293945e-01 5.998705625534057617e-01
4.073000000000000000e+03 5.245692062377929688e+01 1.743436241149902344e+01 3.936134576797485352e-01 1.774300575256347656e+00 6.503741741180419922e-01 5.241020917892456055e-01
4.074000000000000000e+03 3.983247375488281250e+01 1.784274101257324219e+01 5.640543252229690552e-02 2.143019139766693115e-01 8.121220767498016357e-02 -5.782762765884399414e-01
4.075000000000000000e+03 5.059844207763671875e+01 1.780172920227050781e+01 3.589979112148284912e-01 1.322059512138366699e+00 5.043172240257263184e-01 2.483305484056472778e-01
4.076000000000000000e+03 4.689271163940429688e+01 1.733265113830566406e+01 2.773991823196411133e-01 8.261653780937194824e-01 3.310693800449371338e-01 -1.599319577217102051e-01
4.077000000000000000e+03 6.543102264404296875e+01 1.890960121154785156e+01 -9.175230860710144043e-01 7.656801700592041016e+00 2.021783590316772461e+00 9.081381559371948242e-01
4.078000000000000000e+03 6.328918457031250000e+01 1.420229244232177734e+01 -4.242905974388122559e-01 6.031342029571533203e+00 1.682115435600280762e+00 8.722496032714843750e-01
4.079000000000000000e+03 3.997713851928710938e+01 6.000766277313232422e+00 2.746305763721466064e-01 6.258285641670227051e-01 2.701377272605895996e-01 -3.130050301551818848e-01
4.080000000000000000e+03 4.560942840576171875e+01 1.712057876586914062e+01 2.459341883659362793e-01 7.077083587646484375e-01 2.860927581787109375e-01 -2.620835006237030029e-01
4.081000000000000000e+03 4.128232955932617188e+01 5.823988437652587891e+00 2.953144311904907227e-01 8.126472830772399902e-01 3.323885202407836914e-01 -2.640187740325927734e-01
4.082000000000000000e+03 4.276399230957031250e+01 1.193408107757568359e+01 3.139072060585021973e-01 7.339508533477783203e-01 3.143574297428131104e-01 -3.148231208324432373e-01
4.083000000000000000e+03 6.408625030517578125e+01 1.555685710906982422e+01 -5.757330060005187988e-01 6.503311634063720703e+00 1.778273701667785645e+00 8.848785758018493652e-01
4.084000000000000000e+03 6.153887939453125000e+01 1.174393939971923828e+01 -1.772607117891311646e-01 5.253570556640625000e+00 1.522892951965332031e+00 7.859834432601928711e-01
4.085000000000000000e+03 4.087191772460937500e+01 1.651713943481445312e+01 1.401201784610748291e-01 3.296174407005310059e-01 1.409212797880172729e-01 -5.185243487358093262e-01
4.086000000000000000e+03 4.144132232666015625e+01 1.309472274780273438e+01 2.666392624378204346e-01 5.320912003517150879e-01 2.396191507577896118e-01 -4.076193869113922119e-01
4.087000000000000000e+03 4.133330535888671875e+01 1.427906131744384766e+01 2.337265908718109131e-01 4.670969843864440918e-01 2.102470695972442627e-01 -4.429168105125427246e-01
4.088000000000000000e+03 4.155762863159179688e+01 1.193004608154296875e+01 2.877120375633239746e-01 5.914689898490905762e-01 2.637543082237243652e-01 -3.759345710277557373e-01
4.089000000000000000e+03 4.335002136230468750e+01 1.623023796081542969e+01 2.235871702432632446e-01 5.490287542343139648e-01 2.317847758531570435e-01 -3.884121477603912354e-01
4.090000000000000000e+03 6.311809539794921875e+01 -2.042906951904296875e+01 6.002840399742126465e-02 5.392999172210693359e+00 1.635908365249633789e+00 8.730927109718322754e-02
4.091000000000000000e+03 4.108492660522460938e+01 1.836632537841796875e+01 4.527881741523742676e-02 2.730348408222198486e-01 9.549409896135330200e-02 -5.521427392959594727e-01
4.092000000000000000e+03 3.929687500000000000e+01 9.695676803588867188e+00 2.605532109737396240e-01 4.262073636054992676e-01 2.060281634330749512e-01 -4.094008505344390869e-01
4.093000000000000000e+03 3.927658462524414062e+01 8.575787544250488281e+00 2.605555653572082520e-01 4.550676345825195312e-01 2.146869599819183350e-01 -3.883455395698547363e-01
4.094000000000000000e+03 4.617224121093750000e+01 1.783746528625488281e+01 2.244864255189895630e-01 6.978317499160766602e-01 2.766954600811004639e-01 -2.435118854045867920e-01
4.095000000000000000e+03 6.368798065185546875e+01 7.428571701049804688e+00 -1.443221271038055420e-01 5.740165710449218750e+00 1.678753137588500977e+00 4.661379754543304443e-01
4.096000000000000000e+03 6.375767135620117188e+01 6.206400871276855469e+00 -1.014919281005859375e-01 5.714940547943115234e+00 1.684034585952758789e+00 4.223374724388122559e-01
4.097000000000000000e+03 6.101427078247070312e+01 1.901743412017822266e+00 5.875972285866737366e-02 4.940956592559814453e+00 1.499914884567260742e+00 3.560782670974731445e-01
4.098000000000000000e+03 6.264068222045898438e+01 2.123177289962768555e+00 1.237278804183006287e-02 5.349531173706054688e+00 1.608571290969848633e+00 3.514682650566101074e-01
4.099000000000000000e+03 5.348351669311523438e+01 -1.162456798553466797e+01 1.649037599563598633e-01 3.459541797637939453e+00 1.087333679199218750e+00 9.674146026372909546e-02
4.100000000000000000e+03 5.920154190063476562e+01 -1.318864536285400391e+01 1.112951710820198059e-01 4.604785919189453125e+00 1.414824366569519043e+00 1.349160373210906982e-01
4.101000000000000000e+03 4.075973510742187500e+01 7.202153205871582031e-01 2.495723366737365723e-01 8.944361805915832520e-01 3.432025611400604248e-01 -2.012609988451004028e-01
4.102000000000000000e+03 4.234794235229492188e+01 3.103203535079956055e+00 2.987807989120483398e-01 1.082592487335205078e+00 4.144119620323181152e-01 -1.845473498106002808e-01
4.103000000000000000e+03 3.971738815307617188e+01 -6.413269639015197754e-01 2.272320836782455444e-01 7.764097452163696289e-01 3.010925352573394775e-01 -2.128190845251083374e-01
4.104000000000000000e+03 3.867298889160156250e+01 -1.114486694335937500e+00 2.214383184909820557e-01 6.485941410064697266e-01 2.610097527503967285e-01 -2.309860587120056152e-01
4.105000000000000000e+03 6.164437484741210938e+01 2.708661794662475586e+00 3.093102201819419861e-02 5.115417003631591797e+00 1.543904423713684082e+00 3.751676082611083984e-01
4.106000000000000000e+03 4.258177947998046875e+01 1.312306976318359375e+01 2.929192781448364258e-01 6.485714316368103027e-01 2.824472188949584961e-01 -3.480820357799530029e-01
4.107000000000000000e+03 6.149465942382812500e+01 -1.734268951416015625e+01 8.040028065443038940e-02 5.076695919036865234e+00 1.547128796577453613e+00 1.051713004708290100e-01
4.108000000000000000e+03 6.255678939819335938e+01 1.005708789825439453e+01 -1.869800835847854614e-01 5.512330532073974609e+00 1.597605228424072266e+00 6.345201730728149414e-01
4.109000000000000000e+03 6.211165237426757812e+01 8.454636573791503906e+00 -1.153159961104393005e-01 5.351933002471923828e+00 1.570985078811645508e+00 5.651382803916931152e-01
4.110000000000000000e+03 6.038570785522460938e+01 -1.201177883148193359e+01 1.060432493686676025e-01 4.853596687316894531e+00 1.487892031669616699e+00 1.447112262248992920e-01
4.111000000000000000e+03 3.886490631103515625e+01 -7.709175586700439453e+00 1.639298945665359497e-01 7.938421964645385742e-01 2.873316407203674316e-01 -1.532544642686843872e-01
4.112000000000000000e+03 5.982940292358398438e+01 -1.624311566352844238e+00 1.108543425798416138e-01 4.702533245086669922e+00 1.444016218185424805e+00 2.849810421466827393e-01
4.113000000000000000e+03 5.715196990966796875e+01 -4.915003776550292969e+00 1.521570831537246704e-01 4.132425308227539062e+00 1.285374641418457031e+00 1.998222023248672485e-01
4.114000000000000000e+03 6.035202026367187500e+01 -1.450914859771728516e+01 9.743903577327728271e-02 4.851368904113769531e+00 1.484642386436462402e+00 1.278997510671615601e-01
4.115000000000000000e+03 5.998361587524414062e+01 1.193421006202697754e+00 9.692376106977462769e-02 4.714152336120605469e+00 1.443322777748107910e+00 3.337104916572570801e-01
4.116000000000000000e+03 3.974036788940429688e+01 -1.304407691955566406e+01 1.435253769159317017e-01 9.788762331008911133e-01 3.367204964160919189e-01 -8.185059577226638794e-02
4.117000000000000000e+03 6.011507797241210938e+01 2.270206642150878906e+01 8.317597210407257080e-02 4.418112754821777344e+00 1.350386619567871094e+00 2.357720851898193359e+00
4.118000000000000000e+03 6.292299270629882812e+01 2.343058967590332031e+01 -6.480348110198974609e-01 7.432637214660644531e+00 2.035380601882934570e+00 2.530188798904418945e+00
4.119000000000000000e+03 6.137520217895507812e+01 2.354322052001953125e+01 -1.316913962364196777e-01 5.632643699645996094e+00 1.650285720825195312e+00 2.746137857437133789e+00
4.120000000000000000e+03 6.466830444335937500e+01 2.217827987670898438e+01 -1.047500133514404297e+00 8.430492401123046875e+00 2.214897632598876953e+00 1.533699393272399902e+00
4.121000000000000000e+03 6.388465118408203125e+01 2.391410827636718750e+01 -9.282802343368530273e-01 8.725065231323242188e+00 2.339035511016845703e+00 2.272506952285766602e+00
4.122000000000000000e+03 6.433617401123046875e+01 2.393784904479980469e+01 -1.034559011459350586e+00 9.152925491333007812e+00 2.435510158538818359e+00 2.031314611434936523e+00
4.123000000000000000e+03 6.192921447753906250e+01 2.435642242431640625e+01 -1.899619847536087036e-01 6.273750305175781250e+00 1.825136542320251465e+00 3.051289319992065430e+00
4.124000000000000000e+03 5.987732315063476562e+01 2.226479530334472656e+01 8.860455453395843506e-02 4.288924694061279297e+00 1.313258767127990723e+00 2.223799943923950195e+00
4.125000000000000000e+03 5.923154067993164062e+01 2.200809288024902344e+01 1.787956207990646362e-01 3.803453922271728516e+00 1.194674849510192871e+00 2.063055515289306641e+00
4.126000000000000000e+03 6.237472534179687500e+01 2.408280563354492188e+01 -4.241060912609100342e-01 6.956111907958984375e+00 1.959601640701293945e+00 2.891649007797241211e+00
4.127000000000000000e+03 6.450461578369140625e+01 1.978524589538574219e+01 -8.899415731430053711e-01 7.535909175872802734e+00 1.993790268898010254e+00 1.225511074066162109e+00
4.128000000000000000e+03 6.320194244384765625e+01 1.703023910522460938e+01 -5.597448348999023438e-01 6.296695709228515625e+00 1.721085190773010254e+00 1.174379944801330566e+00
4.129000000000000000e+03 6.252434158325195312e+01 2.315653991699218750e+01 -5.384812355041503906e-01 6.954609870910644531e+00 1.924838542938232422e+00 2.549626111984252930e+00
4.130000000000000000e+03 6.393510055541992188e+01 1.925520324707031250e+01 -7.770844697952270508e-01 7.052873134613037109e+00 1.882736682891845703e+00 1.330656290054321289e+00
4.131000000000000000e+03 6.530228424072265625e+01 2.423910331726074219e+01 -1.169601559638977051e+00 1.015484523773193359e+01 2.695572853088378906e+00 1.363252043724060059e+00
4.132000000000000000e+03 6.541184997558593750e+01 2.209045600891113281e+01 -1.134716749191284180e+00 8.857793807983398438e+00 2.316923141479492188e+00 1.167450666427612305e+00
4.133000000000000000e+03 6.436119842529296875e+01 1.698786735534667969e+01 -6.926032900810241699e-01 6.830474853515625000e+00 1.841361522674560547e+00 9.808222651481628418e-01
4.134000000000000000e+03 5.706455612182617188e+01 1.841305351257324219e+01 2.389334589242935181e-01 3.179791212081909180e+00 1.025617361068725586e+00 1.278728127479553223e+00
4.135000000000000000e+03 5.831956481933593750e+01 2.028529739379882812e+01 1.846195310354232788e-01 3.528478860855102539e+00 1.113929510116577148e+00 1.664346337318420410e+00
4.136000000000000000e+03 4.016415786743164062e+01 1.865143394470214844e+01 1.644925586879253387e-02 2.140922844409942627e-01 6.916246563196182251e-02 -5.853814482688903809e-01
4.137000000000000000e+03 4.441231918334960938e+01 1.643979644775390625e+01 2.399557828903198242e-01 6.390861868858337402e-01 2.637125849723815918e-01 -3.314587473869323730e-01
4.138000000000000000e+03 4.461485290527343750e+01 1.736125755310058594e+01 2.041834443807601929e-01 5.940563678741455078e-01 2.394719421863555908e-01 -3.421905040740966797e-01
4.139000000000000000e+03 4.942197799682617188e+01 1.619787216186523438e+01 3.772861957550048828e-01 1.313504219055175781e+00 5.072371363639831543e-01 1.315043866634368896e-01
4.140000000000000000e+03 4.877833557128906250e+01 1.685235023498535156e+01 3.482206165790557861e-01 1.127422213554382324e+00 4.426928460597991943e-01 4.650709033012390137e-02
4.141000000000000000e+03 5.002750015258789062e+01 1.698923110961914062e+01 3.706369698047637939e-01 1.325327038764953613e+00 5.087891817092895508e-01 1.918879747390747070e-01
4.142000000000000000e+03 3.888296127319335938e+01 1.651461982727050781e+01 1.021042466163635254e-01 1.927913576364517212e-01 8.846868574619293213e-02 -5.792117118835449219e-01
4.143000000000000000e+03 3.933710861206054688e+01 1.715210533142089844e+01 8.228331059217453003e-02 2.085802853107452393e-01 8.725907653570175171e-02 -5.775814056396484375e-01
4.144000000000000000e+03 6.222359085083007812e+01 1.420491123199462891e+01 -3.253286480903625488e-01 5.630355834960937500e+00 1.591508150100708008e+00 9.469658136367797852e-01
4.145000000000000000e+03 5.358013534545898438e+01 1.768344116210937500e+01 3.854871690273284912e-01 2.042146921157836914e+00 7.282902002334594727e-01 7.037664055824279785e-01
4.146000000000000000e+03 6.169452667236328125e+01 1.327026367187500000e+01 -2.468121349811553955e-01 5.408190250396728516e+00 1.548413515090942383e+00 8.931505680084228516e-01
4.147000000000000000e+03 6.070388031005859375e+01 1.109890365600585938e+01 -1.003745943307876587e-01 4.969748020172119141e+00 1.460812091827392578e+00 7.581024765968322754e-01
4.148000000000000000e+03 6.321228408813476562e+01 1.519622898101806641e+01 -4.691591560840606689e-01 6.105355262756347656e+00 1.690858840942382812e+00 9.721999764442443848e-01
4.149000000000000000e+03 4.755937576293945312e+01 1.679061126708984375e+01 3.187296390533447266e-01 9.597939252853393555e-01 3.835570514202117920e-01 -7.883436232805252075e-02
4.150000000000000000e+03 6.507305908203125000e+01 1.739702224731445312e+01 -7.765835523605346680e-01 7.183289051055908203e+00 1.922011613845825195e+00 8.673547506332397461e-01
4.151000000000000000e+03 4.639295959472656250e+01 1.671515655517578125e+01 2.894036471843719482e-01 8.219687342643737793e-01 3.334117233753204346e-01 -1.845993548631668091e-01
4.152000000000000000e+03 4.147025299072265625e+01 7.091435909271240234e+00 3.036311864852905273e-01 7.868840098381042480e-01 3.271545469760894775e-01 -2.791542112827301025e-01
4.153000000000000000e+03 4.282100677490234375e+01 1.070648574829101562e+01 3.291638791561126709e-01 8.082492947578430176e-01 3.412239551544189453e-01 -2.877595722675323486e-01
4.154000000000000000e+03 4.047879028320312500e+01 1.938295364379882812e+01 -2.452982403337955475e-02 2.114244550466537476e-01 5.606839060783386230e-02 -5.887021422386169434e-01
4.155000000000000000e+03 5.566571807861328125e+01 1.825820732116699219e+01 3.277270793914794922e-01 2.631018877029418945e+00 8.876237869262695312e-01 1.055506110191345215e+00
4.156000000000000000e+03 5.484977340698242188e+01 1.871573638916015625e+01 3.625537455081939697e-01 2.272826671600341797e+00 7.906141281127929688e-01 9.339689612388610840e-01
4.157000000000000000e+03 6.210894393920898438e+01 3.815019607543945312e+00 4.286476876586675644e-03 5.248303890228271484e+00 1.575777053833007812e+00 3.953934311866760254e-01
4.158000000000000000e+03 6.061771392822265625e+01 2.885654211044311523e+00 5.781900510191917419e-02 4.861885547637939453e+00 1.475911259651184082e+00 3.842064142227172852e-01
4.159000000000000000e+03 4.162247085571289062e+01 1.074995613098144531e+01 3.045805096626281738e-01 6.534636020660400391e-01 2.874132096767425537e-01 -3.452178835868835449e-01
4.160000000000000000e+03 6.240510940551757812e+01 7.238757133483886719e+00 -8.754731714725494385e-02 5.382748126983642578e+00 1.588560223579406738e+00 5.031269192695617676e-01
4.161000000000000000e+03 6.286081695556640625e+01 4.766681194305419922e+00 -3.632650524377822876e-02 5.422798156738281250e+00 1.615941524505615234e+00 4.031615555286407471e-01
4.162000000000000000e+03 5.790941238403320312e+01 1.799383282661437988e+00 1.415199488401412964e-01 4.233270168304443359e+00 1.312437057495117188e+00 3.357131779193878174e-01
4.163000000000000000e+03 4.264035034179687500e+01 5.695819377899169922e+00 3.170912265777587891e-01 1.008966088294982910e+00 3.978171944618225098e-01 -2.097020745277404785e-01
4.164000000000000000e+03 5.909373855590820312e+01 3.619918227195739746e-01 1.193574517965316772e-01 4.536897659301757812e+00 1.396876573562622070e+00 3.199033439159393311e-01
4.165000000000000000e+03 6.249156188964843750e+01 5.877642154693603516e+00 -5.341981351375579834e-02 5.366526603698730469e+00 1.593932032585144043e+00 4.434034824371337891e-01
4.166000000000000000e+03 4.816801452636718750e+01 1.617149734497070312e+01 3.537571430206298828e-01 1.111714482307434082e+00 4.396414756774902344e-01 -7.025561644695699215e-04
4.167000000000000000e+03 6.126806640625000000e+01 -1.960053253173828125e+01 7.153356820344924927e-02 5.037783622741699219e+00 1.532795190811157227e+00 9.038360416889190674e-02
4.168000000000000000e+03 4.383330535888671875e+01 4.299830913543701172e+00 3.213312029838562012e-01 1.256601333618164062e+00 4.733797609806060791e-01 -1.375337690114974976e-01
4.169000000000000000e+03 6.161903381347656250e+01 9.455340385437011719e+00 -1.187998354434967041e-01 5.227045536041259766e+00 1.532473683357238770e+00 6.404644250869750977e-01
4.170000000000000000e+03 5.811071777343750000e+01 -9.382245063781738281e+00 1.318286210298538208e-01 4.392574310302734375e+00 1.357320904731750488e+00 1.587378531694412231e-01
4.171000000000000000e+03 5.896896362304687500e+01 -7.883603096008300781e+00 1.335397213697433472e-01 4.551706790924072266e+00 1.405573844909667969e+00 1.781157553195953369e-01
4.172000000000000000e+03 5.803305816650390625e+01 6.080554127693176270e-01 1.478169858455657959e-01 4.285180091857910156e+00 1.329899072647094727e+00 3.132970929145812988e-01
4.173000000000000000e+03 5.895906066894531250e+01 -1.127573013305664062e+00 1.226339414715766907e-01 4.459169387817382812e+00 1.374540925025939941e+00 2.869126200675964355e-01
4.174000000000000000e+03 4.075231170654296875e+01 1.911743760108947754e+00 2.674582302570343018e-01 8.722296953201293945e-01 3.419063687324523926e-01 -2.190191596746444702e-01
4.175000000000000000e+03 6.237420272827148438e+01 -2.244541358947753906e+01 6.199555471539497375e-02 5.246462821960449219e+00 1.592537403106689453e+00 6.506016850471496582e-02
4.176000000000000000e+03 6.476534271240234375e+01 -2.158706092834472656e+01 4.995986074209213257e-02 5.733101367950439453e+00 1.734918355941772461e+00 7.473796606063842773e-02
4.177000000000000000e+03 3.570079803466796875e+01 -2.187205886840820312e+01 7.259897887706756592e-02 3.392245471477508545e-01 1.235470548272132874e-01 -5.788592994213104248e-02
4.178000000000000000e+03 3.060521888732910156e+01 -2.833447456359863281e+01 3.358979523181915283e-02 -5.026298165321350098e-01 -1.407119929790496826e-01 -6.139194965362548828e-02
4.179000000000000000e+03 3.260514068603515625e+01 -2.772190093994140625e+01 5.466154962778091431e-02 -1.380531638860702515e-01 -2.501748502254486084e-02 -5.011730641126632690e-02
4.180000000000000000e+03 2.746822357177734375e+01 -3.197959327697753906e+01 -2.207594178617000580e-02 -1.111401081085205078e+00 -3.400431275367736816e-01 -5.635919794440269470e-02
4.181000000000000000e+03 3.358327865600585938e+01 -3.350939178466796875e+01 6.025595963001251221e-02 3.114651888608932495e-03 1.901118271052837372e-02 1.143844705075025558e-02
4.182000000000000000e+03 6.038096237182617188e+01 2.311359977722167969e+01 7.548913359642028809e-02 4.590162277221679688e+00 1.399695396423339844e+00 2.498057842254638672e+00
4.183000000000000000e+03 6.211914825439453125e+01 2.358978652954101562e+01 -3.780470192432403564e-01 6.550331115722656250e+00 1.851685285568237305e+00 2.749772548675537109e+00
4.184000000000000000e+03 6.287888336181640625e+01 2.397853469848632812e+01 -6.054840087890625000e-01 7.537028312683105469e+00 2.079463243484497070e+00 2.710136890411376953e+00
4.185000000000000000e+03 6.506873321533203125e+01 2.254759597778320312e+01 -1.119845390319824219e+00 8.902926445007324219e+00 2.334924459457397461e+00 1.370518803596496582e+00
4.186000000000000000e+03 6.473419952392578125e+01 2.392098808288574219e+01 -1.111170649528503418e+00 9.527347564697265625e+00 2.524852991104125977e+00 1.753184080123901367e+00
4.187000000000000000e+03 6.453159332275390625e+01 2.355101013183593750e+01 -1.078259348869323730e+00 9.058908462524414062e+00 2.394194602966308594e+00 1.848980545997619629e+00
4.188000000000000000e+03 6.179177474975585938e+01 2.317253112792968750e+01 -3.031856417655944824e-01 6.118535041809082031e+00 1.744604706764221191e+00 2.626638174057006836e+00
4.189000000000000000e+03 6.494326782226562500e+01 2.171191406250000000e+01 -1.062654972076416016e+00 8.409400939941406250e+00 2.204023838043212891e+00 1.339004039764404297e+00
4.190000000000000000e+03 6.108249282836914062e+01 2.315082168579101562e+01 -9.207966178655624390e-02 5.321091651916503906e+00 1.568703532218933105e+00 2.603619575500488281e+00
4.191000000000000000e+03 6.335526657104492188e+01 2.344041252136230469e+01 -7.886899709701538086e-01 7.939047336578369141e+00 2.145107269287109375e+00 2.393664360046386719e+00
4.192000000000000000e+03 6.493174743652343750e+01 2.330023384094238281e+01 -1.127063632011413574e+00 9.187564849853515625e+00 2.418150186538696289e+00 1.546508193016052246e+00
4.193000000000000000e+03 6.029302215576171875e+01 2.198344230651855469e+01 -2.594670094549655914e-02 4.706924915313720703e+00 1.404293417930603027e+00 2.235652923583984375e+00
4.194000000000000000e+03 6.119762420654296875e+01 2.239376831054687500e+01 -1.932956427335739136e-01 5.475871086120605469e+00 1.584772706031799316e+00 2.401081085205078125e+00
4.195000000000000000e+03 6.447535705566406250e+01 2.141309928894042969e+01 -9.772650599479675293e-01 8.006414413452148438e+00 2.108744859695434570e+00 1.484228968620300293e+00
4.196000000000000000e+03 5.954905319213867188e+01 2.131150245666503906e+01 7.648379355669021606e-02 4.138707160949707031e+00 1.264557242393493652e+00 1.998279929161071777e+00
4.197000000000000000e+03 5.846203613281250000e+01 2.096101188659667969e+01 2.003730088472366333e-01 3.495933055877685547e+00 1.108891844749450684e+00 1.758217930793762207e+00
4.198000000000000000e+03 5.622062683105468750e+01 1.795176506042480469e+01 2.881408035755157471e-01 2.895220756530761719e+00 9.550084471702575684e-01 1.112772941589355469e+00
4.199000000000000000e+03 5.791836929321289062e+01 1.886801719665527344e+01 1.701881438493728638e-01 3.540948867797851562e+00 1.113341093063354492e+00 1.441901803016662598e+00
4.200000000000000000e+03 6.514900207519531250e+01 1.820513153076171875e+01 -8.411531448364257812e-01 7.354024887084960938e+00 1.953861474990844727e+00 9.240132570266723633e-01
4.201000000000000000e+03 5.591057205200195312e+01 1.724602317810058594e+01 2.950795888900756836e-01 2.883737087249755859e+00 9.536449909210205078e-01 1.039557695388793945e+00
4.202000000000000000e+03 5.909959030151367188e+01 2.142667007446289062e+01 1.486984789371490479e-01 3.829576015472412109e+00 1.193482279777526855e+00 1.963807463645935059e+00
4.203000000000000000e+03 4.320381546020507812e+01 1.427894496917724609e+01 2.845206558704376221e-01 6.596048474311828613e-01 2.832376360893249512e-01 -3.463583588600158691e-01
4.204000000000000000e+03 4.533977508544921875e+01 1.634646606445312500e+01 2.695812582969665527e-01 7.413653135299682617e-01 3.032839596271514893e-01 -2.568473219871520996e-01
4.205000000000000000e+03 6.116740798950195312e+01 1.033008670806884766e+01 -1.100400462746620178e-01 5.105687141418457031e+00 1.498694181442260742e+00 7.006284594535827637e-01
4.206000000000000000e+03 4.084455871582031250e+01 1.750414085388183594e+01 9.429470449686050415e-02 2.920263111591339111e-01 1.158962994813919067e-01 -5.429437160491943359e-01
4.207000000000000000e+03 5.196093750000000000e+01 1.659197425842285156e+01 3.973903357982635498e-01 1.777998208999633789e+00 6.526165604591369629e-01 4.541317224502563477e-01
4.208000000000000000e+03 5.143029403686523438e+01 1.571434020996093750e+01 4.037943482398986816e-01 1.770081996917724609e+00 6.521629095077514648e-01 3.806485235691070557e-01
4.209000000000000000e+03 4.701811599731445312e+01 1.621566200256347656e+01 3.238288760185241699e-01 9.494014978408813477e-01 3.819691240787506104e-01 -1.150108799338340759e-01
4.210000000000000000e+03 5.009775924682617188e+01 1.550159358978271484e+01 3.986940383911132812e-01 1.522019982337951660e+00 5.762141942977905273e-01 2.242052257061004639e-01
4.211000000000000000e+03 6.118945693969726562e+01 6.929328441619873047e+00 -3.002235852181911469e-02 5.046038150787353516e+00 1.504804730415344238e+00 5.229328870773315430e-01
4.212000000000000000e+03 6.238383102416992188e+01 1.512322998046875000e+01 -3.838290274143218994e-01 5.783988952636718750e+00 1.620047926902770996e+00 1.043158650398254395e+00
4.213000000000000000e+03 5.070814895629882812e+01 1.635134696960449219e+01 3.941399455070495605e-01 1.533938169479370117e+00 5.784234404563903809e-01 2.888355851173400879e-01
4.214000000000000000e+03 6.362479019165039062e+01 1.996471977233886719e+01 -7.662611007690429688e-01 7.058188438415527344e+00 1.887578129768371582e+00 1.537209749221801758e+00
4.215000000000000000e+03 6.380328750610351562e+01 1.775858688354492188e+01 -6.831357479095458984e-01 6.730460166931152344e+00 1.814197301864624023e+00 1.167123556137084961e+00
4.216000000000000000e+03 5.493507003784179688e+01 1.681368446350097656e+01 3.339954912662506104e-01 2.604307651519775391e+00 8.814909458160400391e-01 8.775716423988342285e-01
4.217000000000000000e+03 4.464863967895507812e+01 1.486442375183105469e+01 2.983633875846862793e-01 7.691769003868103027e-01 3.202620744705200195e-01 -2.661413848400115967e-01
4.218000000000000000e+03 4.238835525512695312e+01 1.421274375915527344e+01 2.624776959419250488e-01 5.589015483856201172e-01 2.464137822389602661e-01 -3.878235816955566406e-01
4.219000000000000000e+03 4.286353302001953125e+01 8.226866722106933594e+00 3.309982419013977051e-01 9.302885532379150391e-01 3.783860504627227783e-01 -2.384997308254241943e-01
4.220000000000000000e+03 4.278689575195312500e+01 6.969887256622314453e+00 3.239499330520629883e-01 9.777244925498962402e-01 3.905023336410522461e-01 -2.233892828226089478e-01
4.221000000000000000e+03 5.812695693969726562e+01 -3.771612644195556641e+00 1.476147174835205078e-01 4.342058181762695312e+00 1.346901774406433105e+00 2.232597321271896362e-01
4.222000000000000000e+03 4.876090240478515625e+01 1.546819305419921875e+01 3.804186582565307617e-01 1.273098468780517578e+00 4.960551559925079346e-01 7.312095165252685547e-02
4.223000000000000000e+03 4.651856994628906250e+01 1.576001262664794922e+01 3.230782747268676758e-01 9.217482209205627441e-01 3.734479546546936035e-01 -1.466516405344009399e-01
4.224000000000000000e+03 5.314866256713867188e+01 1.687786293029785156e+01 3.896424472332000732e-01 2.042561292648315430e+00 7.296611070632934570e-01 6.261846423149108887e-01
4.225000000000000000e+03 5.425231170654296875e+01 1.721363067626953125e+01 3.669132590293884277e-01 2.327014684677124023e+00 8.081784248352050781e-01 7.965223789215087891e-01
4.226000000000000000e+03 6.213778305053710938e+01 1.680839157104492188e+01 -4.232739508152008057e-01 5.817800998687744141e+00 1.618358135223388672e+00 1.248382091522216797e+00
4.227000000000000000e+03 6.367892837524414062e+01 1.638794517517089844e+01 -5.847953557968139648e-01 6.447160720825195312e+00 1.758709549903869629e+00 1.047000527381896973e+00
4.228000000000000000e+03 4.159218215942382812e+01 8.329322814941406250e+00 3.081480562686920166e-01 7.542408704757690430e-01 3.187166750431060791e-01 -2.982202768325805664e-01
4.229000000000000000e+03 6.026081466674804688e+01 9.835600852966308594e+00 -4.396842420101165771e-02 4.827261447906494141e+00 1.434987902641296387e+00 6.816160678863525391e-01
4.230000000000000000e+03 4.087094116210937500e+01 3.197299003601074219e+00 2.735822200775146484e-01 8.442066311836242676e-01 3.353366553783416748e-01 -2.374809533357620239e-01
4.231000000000000000e+03 4.227810287475585938e+01 1.820040583610534668e+00 2.822082042694091797e-01 1.107606887817382812e+00 4.169445037841796875e-01 -1.741678267717361450e-01
4.232000000000000000e+03 3.906475067138671875e+01 -3.154550313949584961e+00 2.059737741947174072e-01 7.365594506263732910e-01 2.827599644660949707e-01 -1.936862021684646606e-01
4.233000000000000000e+03 4.359706497192382812e+01 2.785605192184448242e-01 2.794815301895141602e-01 1.382541894912719727e+00 4.986070096492767334e-01 -1.108887344598770142e-01
4.234000000000000000e+03 6.089862442016601562e+01 4.199117183685302734e+00 3.223568201065063477e-02 4.942789077758789062e+00 1.492507338523864746e+00 4.158639907836914062e-01
4.235000000000000000e+03 6.009065246582031250e+01 5.701564311981201172e+00 4.288780316710472107e-02 4.747190475463867188e+00 1.437023520469665527e+00 4.677259624004364014e-01
4.236000000000000000e+03 5.806547927856445312e+01 -1.442076110839843750e+01 1.216832995414733887e-01 4.398258686065673828e+00 1.355982542037963867e+00 1.239124014973640442e-01
4.237000000000000000e+03 5.755031967163085938e+01 -7.056272983551025391e+00 1.504063457250595093e-01 4.239090919494628906e+00 1.316849231719970703e+00 1.761146336793899536e-01
4.238000000000000000e+03 5.577972412109375000e+01 -9.594922065734863281e+00 1.529921889305114746e-01 3.923241853713989258e+00 1.222870230674743652e+00 1.406454741954803467e-01
4.239000000000000000e+03 5.568695449829101562e+01 -1.456567764282226562e+01 1.299459934234619141e-01 3.941243171691894531e+00 1.221356749534606934e+00 1.022721901535987854e-01
4.240000000000000000e+03 5.757060241699218750e+01 -1.854439353942871094e+01 9.756390005350112915e-02 4.302623748779296875e+00 1.320056319236755371e+00 9.360159188508987427e-02
4.241000000000000000e+03 5.671940231323242188e+01 -8.360478401184082031e+00 1.544515490531921387e-01 4.092004299163818359e+00 1.273936867713928223e+00 1.571590155363082886e-01
4.242000000000000000e+03 5.935304641723632812e+01 2.388917207717895508e+00 9.784312546253204346e-02 4.574934959411621094e+00 1.401833415031433105e+00 3.698792457580566406e-01
4.243000000000000000e+03 4.338740539550781250e+01 -1.151261997222900391e+01 1.637463718652725220e-01 1.618352890014648438e+00 5.346297621726989746e-01 -5.631649121642112732e-02
4.244000000000000000e+03 6.318702316284179688e+01 2.303069686889648438e+01 -7.437791228294372559e-01 7.594297885894775391e+00 2.055155515670776367e+00 2.311508655548095703e+00
4.245000000000000000e+03 6.053313064575195312e+01 2.237635421752929688e+01 -3.954184055328369141e-02 4.859601497650146484e+00 1.446017861366271973e+00 2.360541582107543945e+00
4.246000000000000000e+03 6.396897125244140625e+01 2.231281661987304688e+01 -9.303320646286010742e-01 8.036606788635253906e+00 2.131882429122924805e+00 1.830143570899963379e+00
4.247000000000000000e+03 6.435723114013671875e+01 2.262030220031738281e+01 -1.024100303649902344e+00 8.468311309814453125e+00 2.233263254165649414e+00 1.774621248245239258e+00
4.248000000000000000e+03 6.381789398193359375e+01 2.328318595886230469e+01 -9.244549870491027832e-01 8.352034568786621094e+00 2.228273868560791016e+00 2.129345417022705078e+00
4.249000000000000000e+03 6.468981933593750000e+01 2.289564704895019531e+01 -1.080340623855590820e+00 8.891144752502441406e+00 2.343241214752197266e+00 1.614930391311645508e+00
4.250000000000000000e+03 6.293581008911132812e+01 2.186072349548339844e+01 -6.889616250991821289e-01 7.026194572448730469e+00 1.901169776916503906e+00 2.060002565383911133e+00
4.251000000000000000e+03 6.429177093505859375e+01 2.187777900695800781e+01 -9.867330789566040039e-01 8.124406814575195312e+00 2.141302108764648438e+00 1.639556765556335449e+00
4.252000000000000000e+03 6.372748947143554688e+01 2.097380447387695312e+01 -8.386117815971374512e-01 7.422320365905761719e+00 1.975112557411193848e+00 1.672030687332153320e+00
4.253000000000000000e+03 6.327251052856445312e+01 2.055928039550781250e+01 -7.364206910133361816e-01 7.014589309692382812e+00 1.883450627326965332e+00 1.705812573432922363e+00
4.254000000000000000e+03 6.218082427978515625e+01 2.276982498168945312e+01 -4.471735954284667969e-01 6.492024421691894531e+00 1.813455343246459961e+00 2.483896255493164062e+00
4.255000000000000000e+03 6.050636672973632812e+01 2.132844161987304688e+01 -1.102756187319755554e-01 4.954231739044189453e+00 1.453186750411987305e+00 2.121304988861083984e+00
4.256000000000000000e+03 6.402809906005859375e+01 2.147012710571289062e+01 -9.094089865684509277e-01 7.767591476440429688e+00 2.057454824447631836e+00 1.650401592254638672e+00
4.257000000000000000e+03 6.441173553466796875e+01 1.856606674194335938e+01 -7.999925017356872559e-01 7.151844024658203125e+00 1.905555486679077148e+00 1.134162664413452148e+00
4.258000000000000000e+03 6.104129409790039062e+01 1.619674491882324219e+01 -2.513250708580017090e-01 5.228866100311279297e+00 1.493262290954589844e+00 1.230952978134155273e+00
4.259000000000000000e+03 5.907182312011718750e+01 2.076109886169433594e+01 1.051442176103591919e-01 3.952692747116088867e+00 1.217351078987121582e+00 1.849794030189514160e+00
4.260000000000000000e+03 5.812985610961914062e+01 1.958753967285156250e+01 1.770662367343902588e-01 3.548336505889892578e+00 1.117620825767517090e+00 1.555165648460388184e+00
4.261000000000000000e+03 5.269593811035156250e+01 1.601576614379882812e+01 3.940427899360656738e-01 2.039147615432739258e+00 7.299571633338928223e-01 5.503156185150146484e-01
4.262000000000000000e+03 4.362811660766601562e+01 1.538559150695800781e+01 2.526656687259674072e-01 6.264149546623229980e-01 2.637241780757904053e-01 -3.498117625713348389e-01
4.263000000000000000e+03 4.532662963867187500e+01 1.486686897277832031e+01 3.204005658626556396e-01 8.540431261062622070e-01 3.523330986499786377e-01 -2.220982909202575684e-01
4.264000000000000000e+03 6.141011810302734375e+01 1.821366310119628906e+01 -3.413493931293487549e-01 5.508516788482666016e+00 1.550150275230407715e+00 1.521124958992004395e+00
4.265000000000000000e+03 6.269802474975585938e+01 1.646212768554687500e+01 -4.803213775157928467e-01 6.049444675445556641e+00 1.670737028121948242e+00 1.148034691810607910e+00
4.266000000000000000e+03 5.681828689575195312e+01 1.766756820678710938e+01 2.404058128595352173e-01 3.184237241744995117e+00 1.027392864227294922e+00 1.179205298423767090e+00
4.267000000000000000e+03 5.528221130371093750e+01 1.761908340454101562e+01 3.315909206867218018e-01 2.607965230941772461e+00 8.818668127059936523e-01 9.671393036842346191e-01
4.268000000000000000e+03 6.077325820922851562e+01 1.389453983306884766e+01 -1.782465875148773193e-01 5.056344985961914062e+00 1.463429450988769531e+00 9.943063259124755859e-01
4.269000000000000000e+03 6.016214370727539062e+01 1.175036048889160156e+01 -7.666899263858795166e-02 4.794370651245117188e+00 1.415310502052307129e+00 8.176921010017395020e-01
4.270000000000000000e+03 5.944932174682617188e+01 1.109995841979980469e+01 -9.792829863727092743e-03 4.553974151611328125e+00 1.363254427909851074e+00 7.589052319526672363e-01
4.271000000000000000e+03 4.753493118286132812e+01 1.559289836883544922e+01 3.534824252128601074e-01 1.077003955841064453e+00 4.291459321975708008e-01 -4.902142286300659180e-02
4.272000000000000000e+03 4.604584503173828125e+01 1.614550781250000000e+01 2.996709644794464111e-01 8.278801441192626953e-01 3.382653295993804932e-01 -1.959123462438583374e-01
4.273000000000000000e+03 4.354562759399414062e+01 1.342061424255371094e+01 3.107707798480987549e-01 7.478938698768615723e-01 3.175993859767913818e-01 -3.031023144721984863e-01
4.274000000000000000e+03 4.431586074829101562e+01 1.388839340209960938e+01 3.294791877269744873e-01 8.149522542953491211e-01 3.433294296264648438e-01 -2.608969807624816895e-01
4.275000000000000000e+03 5.891652679443359375e+01 1.160923862457275391e+01 2.095638960599899292e-02 4.377116680145263672e+00 1.319422006607055664e+00 7.937416434288024902e-01
4.276000000000000000e+03 6.062804412841796875e+01 8.988208770751953125e+00 -4.623270779848098755e-02 4.927080154418945312e+00 1.464254260063171387e+00 6.241621971130371094e-01
4.277000000000000000e+03 4.549138259887695312e+01 1.366081905364990234e+01 3.459488153457641602e-01 9.559682607650756836e-01 3.905751109123229980e-01 -1.860098689794540405e-01
4.278000000000000000e+03 4.939153671264648438e+01 1.466270542144775391e+01 3.970605731010437012e-01 1.478887438774108887e+00 5.627844333648681641e-01 1.514875441789627075e-01
4.279000000000000000e+03 6.272510910034179688e+01 1.932334327697753906e+01 -5.842207074165344238e-01 6.376160621643066406e+00 1.737581849098205566e+00 1.571821570396423340e+00
4.280000000000000000e+03 6.176527023315429688e+01 1.874243736267089844e+01 -4.076324701309204102e-01 5.726016521453857422e+00 1.595515131950378418e+00 1.577541470527648926e+00
4.281000000000000000e+03 4.247499084472656250e+01 4.405182361602783203e+00 3.047749102115631104e-01 1.046783328056335449e+00 4.054674506187438965e-01 -1.961299329996109009e-01
4.282000000000000000e+03 6.097565841674804688e+01 8.034729957580566406e+00 -4.339963197708129883e-02 4.996731281280517578e+00 1.485999464988708496e+00 5.689958333969116211e-01
4.283000000000000000e+03 6.014037322998046875e+01 6.782685756683349609e+00 1.690252684056758881e-02 4.758481979370117188e+00 1.432615399360656738e+00 5.149019360542297363e-01
4.284000000000000000e+03 5.386989212036132812e+01 1.638163566589355469e+01 3.700485229492187500e-01 2.323085784912109375e+00 8.079403042793273926e-01 7.173460125923156738e-01
4.285000000000000000e+03 4.413106536865234375e+01 9.448670387268066406e+00 3.567698299884796143e-01 1.054363369941711426e+00 4.233399629592895508e-01 -1.949305683374404907e-01
4.286000000000000000e+03 4.286676788330078125e+01 9.474936485290527344e+00 3.335152268409729004e-01 8.707742094993591309e-01 3.612868189811706543e-01 -2.622318565845489502e-01
4.287000000000000000e+03 4.417382049560546875e+01 1.275401687622070312e+01 3.304430544376373291e-01 8.540318608283996582e-01 3.553424775600433350e-01 -2.538735866546630859e-01
4.288000000000000000e+03 4.402108383178710938e+01 5.573981761932373047e+00 3.359973132610321045e-01 1.229387044906616211e+00 4.696153104305267334e-01 -1.459907293319702148e-01
4.289000000000000000e+03 5.715296936035156250e+01 -2.889370441436767578e+00 1.654853820800781250e-01 4.126021385192871094e+00 1.287451982498168945e+00 2.291040867567062378e-01
4.290000000000000000e+03 5.832873153686523438e+01 -3.476210534572601318e-01 1.350032389163970947e-01 4.337196826934814453e+00 1.341660022735595703e+00 2.845529019832611084e-01
4.291000000000000000e+03 6.122259902954101562e+01 5.629712104797363281e+00 -5.145655013620853424e-03 5.043180942535400391e+00 1.511410593986511230e+00 4.678568243980407715e-01
4.292000000000000000e+03 4.217667388916015625e+01 6.020247936248779297e-01 2.708196640014648438e-01 1.129069328308105469e+00 4.199666976928710938e-01 -1.666125208139419556e-01
4.293000000000000000e+03 4.370921707153320312e+01 3.022254943847656250e+00 3.096141815185546875e-01 1.295338630676269531e+00 4.814858436584472656e-01 -1.307383626699447632e-01
4.294000000000000000e+03 5.831834793090820312e+01 4.355405807495117188e+00 1.091111004352569580e-01 4.284695625305175781e+00 1.318142056465148926e+00 4.261771142482757568e-01
4.295000000000000000e+03 4.124241638183593750e+01 -1.337636590003967285e+00 2.381720393896102905e-01 1.024334073066711426e+00 3.787518441677093506e-01 -1.613776981830596924e-01
4.296000000000000000e+03 4.303447723388671875e+01 -1.136179685592651367e+00 2.614100277423858643e-01 1.333730936050415039e+00 4.785422980785369873e-01 -1.184106543660163879e-01
4.297000000000000000e+03 5.812590026855468750e+01 -1.947346329689025879e+00 1.465075463056564331e-01 4.317454814910888672e+00 1.339188694953918457e+00 2.521595358848571777e-01
4.298000000000000000e+03 5.694705581665039062e+01 -1.582975769042968750e+01 1.191542521119117737e-01 4.184384346008300781e+00 1.291061639785766602e+00 1.066849157214164734e-01
4.299000000000000000e+03 5.828605270385742188e+01 -1.682220840454101562e+01 8.859015256166458130e-02 4.417166709899902344e+00 1.351727008819580078e+00 1.053311303257942200e-01
4.300000000000000000e+03 5.809107208251953125e+01 -1.192344856262207031e+01 1.229402720928192139e-01 4.383399963378906250e+00 1.351902008056640625e+00 1.397862732410430908e-01
4.301000000000000000e+03 5.689509201049804688e+01 -1.321299362182617188e+01 1.257974654436111450e-01 4.161144256591796875e+00 1.286082506179809570e+00 1.169454008340835571e-01
4.302000000000000000e+03 6.023377990722656250e+01 -2.379795265197753906e+01 5.705462396144866943e-02 4.810322284698486328e+00 1.460213065147399902e+00 6.485266238451004028e-02
4.303000000000000000e+03 6.051990509033203125e+01 -2.580853843688964844e+01 7.010016590356826782e-02 4.904155254364013672e+00 1.492276549339294434e+00 6.256997585296630859e-02
4.304000000000000000e+03 4.288830947875976562e+01 -9.840312004089355469e+00 1.839463412761688232e-01 1.516682028770446777e+00 5.101885199546813965e-01 -6.882831454277038574e-02
4.305000000000000000e+03 3.422639846801757812e+01 -2.427163887023925781e+01 6.031379103660583496e-02 1.397619992494583130e-01 6.002273783087730408e-02 -6.267387419939041138e-02
4.306000000000000000e+03 3.266501617431640625e+01 -2.484226417541503906e+01 3.675929456949234009e-02 -2.281954139471054077e-01 -5.743083730340003967e-02 -6.954716145992279053e-02
4.307000000000000000e+03 6.066307067871093750e+01 2.169507026672363281e+01 -1.285811215639114380e-01 5.058996200561523438e+00 1.479124546051025391e+00 2.229577779769897461e+00
4.308000000000000000e+03 6.358167266845703125e+01 2.271993446350097656e+01 -8.493952751159667969e-01 7.874210357666015625e+00 2.107444524765014648e+00 2.077263355255126953e+00
4.309000000000000000e+03 6.079961013793945312e+01 2.276006698608398438e+01 -6.153085827827453613e-02 5.059470176696777344e+00 1.499381899833679199e+00 2.479581594467163086e+00
4.310000000000000000e+03 6.287633132934570312e+01 2.268262863159179688e+01 -6.659451127052307129e-01 7.231813907623291016e+00 1.969760656356811523e+00 2.279967546463012695e+00
4.311000000000000000e+03 6.148674774169921875e+01 2.278241157531738281e+01 -2.479299753904342651e-01 5.778537273406982422e+00 1.659182071685791016e+00 2.516546726226806641e+00
4.312000000000000000e+03 6.254321289062500000e+01 2.231024742126464844e+01 -5.853052735328674316e-01 6.807089805603027344e+00 1.866535425186157227e+00 2.291400194168090820e+00
4.313000000000000000e+03 6.298066329956054688e+01 2.107277870178222656e+01 -6.977162957191467285e-01 6.929651260375976562e+00 1.869580388069152832e+00 1.867675542831420898e+00
4.314000000000000000e+03 6.429114532470703125e+01 2.312270927429199219e+01 -1.011231899261474609e+00 8.651002883911132812e+00 2.291931390762329102e+00 1.870764255523681641e+00
4.315000000000000000e+03 5.560573959350585938e+01 1.648073768615722656e+01 2.929636538028717041e-01 2.886186122894287109e+00 9.537449479103088379e-01 9.588821530342102051e-01
4.316000000000000000e+03 5.653157043457031250e+01 1.693570709228515625e+01 2.499766498804092407e-01 3.150506019592285156e+00 1.020144820213317871e+00 1.082837820053100586e+00
4.317000000000000000e+03 6.257902526855468750e+01 2.099578857421875000e+01 -5.932267308235168457e-01 6.579113006591796875e+00 1.795765876770019531e+00 1.912145614624023438e+00
4.318000000000000000e+03 5.993075561523437500e+01 2.111472511291503906e+01 -1.437631342560052872e-02 4.504307746887207031e+00 1.346979379653930664e+00 2.005750894546508789e+00
4.319000000000000000e+03 5.898327255249023438e+01 2.004026985168457031e+01 8.466766774654388428e-02 3.988396644592285156e+00 1.221919298171997070e+00 1.734237670898437500e+00
4.320000000000000000e+03 4.501499938964843750e+01 1.428964042663574219e+01 3.290365636348724365e-01 8.523634672164916992e-01 3.544200062751770020e-01 -2.240640670061111450e-01
4.321000000000000000e+03 4.449235916137695312e+01 1.559387779235839844e+01 2.732392549514770508e-01 7.104080915451049805e-01 2.950941920280456543e-01 -3.029644489288330078e-01
4.322000000000000000e+03 6.244664001464843750e+01 1.587863922119140625e+01 -4.208717048168182373e-01 5.883977890014648438e+00 1.638931870460510254e+00 1.113633275032043457e+00
4.323000000000000000e+03 6.179520034790039062e+01 1.607187843322753906e+01 -3.535249531269073486e-01 5.606359481811523438e+00 1.575850367546081543e+00 1.176639199256896973e+00
4.324000000000000000e+03 6.133198547363281250e+01 1.462271595001220703e+01 -2.438118010759353638e-01 5.270100116729736328e+00 1.507886528968811035e+00 1.044892191886901855e+00
4.325000000000000000e+03 5.954465484619140625e+01 1.231107902526855469e+01 -3.750398755073547363e-02 4.600190639495849609e+00 1.368806004524230957e+00 8.530677556991577148e-01
4.326000000000000000e+03 6.017053222656250000e+01 1.306341838836669922e+01 -1.009160503745079041e-01 4.817161560058593750e+00 1.414873600006103516e+00 9.204694628715515137e-01
4.327000000000000000e+03 5.993027496337890625e+01 1.057014179229736328e+01 -3.253692016005516052e-02 4.732806682586669922e+00 1.410080909729003906e+00 7.292959690093994141e-01
4.328000000000000000e+03 5.937630844116210938e+01 1.356931304931640625e+01 -4.057435318827629089e-02 4.524116039276123047e+00 1.345062613487243652e+00 9.651677608489990234e-01
4.329000000000000000e+03 4.608421325683593750e+01 1.485771465301513672e+01 3.378707766532897949e-01 9.377959370613098145e-01 3.826999962329864502e-01 -1.622386127710342407e-01
4.330000000000000000e+03 5.105261611938476562e+01 1.319434452056884766e+01 4.006451964378356934e-01 1.968290328979492188e+00 7.106806635856628418e-01 3.258230090141296387e-01
4.331000000000000000e+03 5.017607879638671875e+01 1.389358520507812500e+01 4.070705771446228027e-01 1.706967115402221680e+00 6.342113018035888672e-01 2.384227216243743896e-01
4.332000000000000000e+03 4.511315155029296875e+01 4.129566669464111328e+00 3.284119963645935059e-01 1.470544099807739258e+00 5.396867990493774414e-01 -9.300515055656433105e-02
4.333000000000000000e+03 5.996612930297851562e+01 7.745369434356689453e+00 1.020238641649484634e-02 4.709642410278320312e+00 1.415953397750854492e+00 5.640710592269897461e-01
4.334000000000000000e+03 5.961351776123046875e+01 2.078771018981933594e+01 2.924056351184844971e-02 4.280960559844970703e+00 1.293060302734375000e+00 1.923156857490539551e+00
4.335000000000000000e+03 6.305288696289062500e+01 1.823478507995605469e+01 -6.126142740249633789e-01 6.450041770935058594e+00 1.751228332519531250e+00 1.357517242431640625e+00
4.336000000000000000e+03 4.685352325439453125e+01 1.514137268066406250e+01 3.484641909599304199e-01 1.025681495666503906e+00 4.122436940670013428e-01 -1.021529734134674072e-01
4.337000000000000000e+03 4.395475006103515625e+01 1.183663940429687500e+01 3.398914039134979248e-01 8.808394670486450195e-01 3.662192523479461670e-01 -2.474710345268249512e-01
4.338000000000000000e+03 5.964284896850585938e+01 8.624602317810058594e+00 1.879757642745971680e-02 4.609147071838378906e+00 1.388383388519287109e+00 6.151368618011474609e-01
4.339000000000000000e+03 5.428599548339843750e+01 1.505524349212646484e+01 3.386851847171783447e-01 2.612133979797363281e+00 8.852457404136657715e-01 7.231261730194091797e-01
4.340000000000000000e+03 4.421622085571289062e+01 8.170060157775878906e+00 3.509449362754821777e-01 1.129132509231567383e+00 4.440232515335083008e-01 -1.737356036901473999e-01
4.341000000000000000e+03 4.785063171386718750e+01 7.547006130218505859e+00 3.738577067852020264e-01 1.771608829498291016e+00 6.436399817466735840e-01 3.891114518046379089e-02
4.342000000000000000e+03 4.851457214355468750e+01 1.401564884185791016e+01 3.921150267124176025e-01 1.391071081161499023e+00 5.349557995796203613e-01 7.324883341789245605e-02
4.343000000000000000e+03 5.642696380615234375e+01 2.780085563659667969e+00 1.839041709899902344e-01 3.852485895156860352e+00 1.210916996002197266e+00 3.390977084636688232e-01
4.344000000000000000e+03 5.886093139648437500e+01 3.524962663650512695e+00 1.020562648773193359e-01 4.443461894989013672e+00 1.363655447959899902e+00 4.021497666835784912e-01
4.345000000000000000e+03 5.347133636474609375e+01 1.549561309814453125e+01 3.733114898204803467e-01 2.320378541946411133e+00 8.081070184707641602e-01 6.387487649917602539e-01
4.346000000000000000e+03 5.642323684692382812e+01 1.454754352569580078e+00 1.787407100200653076e-01 3.873087882995605469e+00 1.215548515319824219e+00 2.991573214530944824e-01
4.347000000000000000e+03 5.764761734008789062e+01 2.994362115859985352e+00 1.462927609682083130e-01 4.150090217590332031e+00 1.288914918899536133e+00 3.590351939201354980e-01
4.348000000000000000e+03 4.050275039672851562e+01 -4.686036586761474609e+00 1.966288983821868896e-01 1.003995656967163086e+00 3.601873517036437988e-01 -1.510290056467056274e-01
4.349000000000000000e+03 4.429463195800781250e+01 -1.664916992187500000e+00 2.598667740821838379e-01 1.533148527145385742e+00 5.379046201705932617e-01 -8.551426231861114502e-02
4.350000000000000000e+03 4.401652526855468750e+01 1.067431831359863281e+01 3.486455082893371582e-01 9.610797166824340820e-01 3.929175734519958496e-01 -2.209076583385467529e-01
4.351000000000000000e+03 4.192000961303710938e+01 -5.211220979690551758e-01 2.505049407482147217e-01 1.116231560707092285e+00 4.100209474563598633e-01 -1.571999490261077881e-01
4.352000000000000000e+03 5.606832122802734375e+01 -3.944146871566772461e+00 1.755207628011703491e-01 3.903065204620361328e+00 1.223575830459594727e+00 2.062835097312927246e-01
4.353000000000000000e+03 5.535229873657226562e+01 -7.397623062133789062e+00 1.734858006238937378e-01 3.815358638763427734e+00 1.196653366088867188e+00 1.530828773975372314e-01
4.354000000000000000e+03 4.503519439697265625e+01 1.880692839622497559e+00 3.070160448551177979e-01 1.551167964935302734e+00 5.574551820755004883e-01 -7.738481462001800537e-02
4.355000000000000000e+03 4.375033950805664062e+01 1.671999812126159668e+00 2.982400655746459961e-01 1.361520886421203613e+00 4.979282915592193604e-01 -1.175689250230789185e-01
4.356000000000000000e+03 5.630865097045898438e+01 -1.867901682853698730e+00 1.781254857778549194e-01 3.936117649078369141e+00 1.234272956848144531e+00 2.394393533468246460e-01
4.357000000000000000e+03 5.670809936523437500e+01 1.281044781208038330e-01 1.760111898183822632e-01 3.958733081817626953e+00 1.240423321723937988e+00 2.829271852970123291e-01
4.358000000000000000e+03 5.937773513793945312e+01 -1.916113853454589844e+01 9.312303364276885986e-02 4.661847114562988281e+00 1.426491141319274902e+00 9.930782765150070190e-02
4.359000000000000000e+03 4.236738967895507812e+01 -1.390796375274658203e+01 1.490929871797561646e-01 1.467854022979736328e+00 4.850841164588928223e-01 -6.716483831405639648e-02
4.360000000000000000e+03 4.432365417480468750e+01 -9.363115310668945312e+00 1.846335530281066895e-01 1.734307646751403809e+00 5.756823420524597168e-01 -5.148693174123764038e-02
4.361000000000000000e+03 6.067155456542968750e+01 -2.175099945068359375e+01 8.149662613868713379e-02 4.914326190948486328e+00 1.498746871948242188e+00 7.486598938703536987e-02
4.362000000000000000e+03 5.854037094116210938e+01 -2.617247581481933594e+01 6.891136616468429565e-02 4.516983032226562500e+00 1.375768303871154785e+00 5.685324966907501221e-02
4.363000000000000000e+03 6.127759552001953125e+01 2.160738182067871094e+01 -2.679713964462280273e-01 5.543651580810546875e+00 1.582704067230224609e+00 2.202350378036499023e+00
4.364000000000000000e+03 6.186180877685546875e+01 2.241072273254394531e+01 -3.791898787021636963e-01 6.154966831207275391e+00 1.732733130455017090e+00 2.400983572006225586e+00
4.365000000000000000e+03 6.363740158081054688e+01 2.186322975158691406e+01 -8.414430022239685059e-01 7.569462776184082031e+00 2.018405914306640625e+00 1.865169882774353027e+00
4.366000000000000000e+03 6.332671356201171875e+01 2.143480491638183594e+01 -7.746846079826354980e-01 7.251525878906250000e+00 1.943052411079406738e+00 1.861158251762390137e+00
4.367000000000000000e+03 6.325685501098632812e+01 2.226937675476074219e+01 -7.634376883506774902e-01 7.414922714233398438e+00 1.995445489883422852e+00 2.071446180343627930e+00
4.368000000000000000e+03 6.214109039306640625e+01 2.113611030578613281e+01 -4.984533488750457764e-01 6.266033172607421875e+00 1.730273962020874023e+00 2.013686895370483398e+00
4.369000000000000000e+03 5.769287872314453125e+01 1.812644577026367188e+01 1.711145937442779541e-01 3.523995876312255859e+00 1.108533143997192383e+00 1.336201906204223633e+00
4.370000000000000000e+03 5.856063842773437500e+01 1.858147430419921875e+01 8.545453101396560669e-02 3.909117460250854492e+00 1.198371648788452148e+00 1.482838153839111328e+00
4.371000000000000000e+03 5.877312850952148438e+01 1.931346321105957031e+01 8.116703480482101440e-02 3.952879190444946289e+00 1.210213899612426758e+00 1.601217746734619141e+00
4.372000000000000000e+03 6.262422943115234375e+01 1.747723197937011719e+01 -5.140455365180969238e-01 6.133603096008300781e+00 1.685867190361022949e+00 1.289806365966796875e+00
4.373000000000000000e+03 6.226265716552734375e+01 1.902451896667480469e+01 -5.063424706459045410e-01 6.075632572174072266e+00 1.670787096023559570e+00 1.591358184814453125e+00
4.374000000000000000e+03 6.326534652709960938e+01 1.902000236511230469e+01 -6.786831021308898926e-01 6.671219825744628906e+00 1.797760963439941406e+00 1.438634395599365234e+00
4.375000000000000000e+03 6.245817565917968750e+01 2.055809974670410156e+01 -5.728563070297241211e-01 6.458858966827392578e+00 1.765800833702087402e+00 1.854394555091857910e+00
4.376000000000000000e+03 5.927127456665039062e+01 1.563227748870849609e+01 -3.543144091963768005e-02 4.423378467559814453e+00 1.316384077072143555e+00 1.173470497131347656e+00
4.377000000000000000e+03 5.816101455688476562e+01 1.129511356353759766e+01 8.038476109504699707e-02 4.142753601074218750e+00 1.266941547393798828e+00 7.604857087135314941e-01
4.378000000000000000e+03 6.037223434448242188e+01 1.707643318176269531e+01 -1.705747842788696289e-01 4.929057598114013672e+00 1.427544832229614258e+00 1.363868236541748047e+00
4.379000000000000000e+03 6.165382385253906250e+01 1.529060840606689453e+01 -3.008493483066558838e-01 5.487978935241699219e+00 1.556138873100280762e+00 1.090976476669311523e+00
4.380000000000000000e+03 6.282071685791015625e+01 2.018378448486328125e+01 -6.383758187294006348e-01 6.629528522491455078e+00 1.797345876693725586e+00 1.712916612625122070e+00
4.381000000000000000e+03 5.220561981201171875e+01 1.510293674468994141e+01 3.939955532550811768e-01 2.033605575561523438e+00 7.282803654670715332e-01 4.747598469257354736e-01
4.382000000000000000e+03 5.833557510375976562e+01 1.783111190795898438e+01 9.801769256591796875e-02 3.864518880844116211e+00 1.188760995864868164e+00 1.372324228286743164e+00
4.383000000000000000e+03 5.949464035034179688e+01 1.648002052307128906e+01 -6.289325654506683350e-02 4.517051219940185547e+00 1.336247324943542480e+00 1.276943325996398926e+00
4.384000000000000000e+03 5.897058868408203125e+01 1.479086780548095703e+01 2.498954068869352341e-03 4.329031467437744141e+00 1.299459099769592285e+00 1.088657975196838379e+00
4.385000000000000000e+03 5.536967468261718750e+01 1.564772987365722656e+01 2.972089052200317383e-01 2.909013271331787109e+00 9.618666172027587891e-01 8.683986067771911621e-01
4.386000000000000000e+03 4.963724136352539062e+01 1.298532772064208984e+01 4.009924829006195068e-01 1.688091158866882324e+00 6.267250776290893555e-01 1.876232326030731201e-01
4.387000000000000000e+03 5.931447982788085938e+01 9.483543395996093750e+00 2.549234591424465179e-02 4.522517204284667969e+00 1.364402890205383301e+00 6.681391596794128418e-01
4.388000000000000000e+03 4.596523666381835938e+01 1.556770515441894531e+01 3.147273063659667969e-01 8.656631112098693848e-01 3.541171252727508545e-01 -1.885485649108886719e-01
4.389000000000000000e+03 4.720645904541015625e+01 1.439582061767578125e+01 3.712447881698608398e-01 1.142064094543457031e+00 4.539926648139953613e-01 -5.472220852971076965e-02
4.390000000000000000e+03 4.418149185180664062e+01 6.870335102081298828e+00 3.437600433826446533e-01 1.184179067611694336e+00 4.583817422389984131e-01 -1.568100899457931519e-01
4.391000000000000000e+03 4.633377075195312500e+01 1.403587913513183594e+01 3.569180071353912354e-01 1.036962747573852539e+00 4.181642234325408936e-01 -1.258105486631393433e-01
4.392000000000000000e+03 4.568143463134765625e+01 6.760883808135986328e+00 3.575650155544281006e-01 1.445910692214965820e+00 5.410426855087280273e-01 -7.705485820770263672e-02
4.393000000000000000e+03 4.824871826171875000e+01 1.178670787811279297e+01 4.004766941070556641e-01 1.555959820747375488e+00 5.869309306144714355e-01 7.166744768619537354e-02
4.394000000000000000e+03 5.727268981933593750e+01 8.672834396362304688e+00 1.423874199390411377e-01 3.922772407531738281e+00 1.219547986984252930e+00 5.881000757217407227e-01
4.395000000000000000e+03 5.461200714111328125e+01 1.596493530273437500e+01 3.406539261341094971e-01 2.609535694122314453e+00 8.850569128990173340e-01 7.959675788879394531e-01
4.396000000000000000e+03 5.868209457397460938e+01 8.246216773986816406e+00 7.567972689867019653e-02 4.346008300781250000e+00 1.326506495475769043e+00 5.845255851745605469e-01
4.397000000000000000e+03 5.612109756469726562e+01 1.451549243927001953e+01 2.297509908676147461e-01 3.275757551193237305e+00 1.051652550697326660e+00 8.832703828811645508e-01
4.398000000000000000e+03 5.888579177856445312e+01 4.982260704040527344e+00 8.617705106735229492e-02 4.410364151000976562e+00 1.348962426185607910e+00 4.496489167213439941e-01
4.399000000000000000e+03 5.742463302612304688e+01 4.053041458129882812e+00 1.509594023227691650e-01 4.077247619628906250e+00 1.268462181091308594e+00 3.983443379402160645e-01
4.400000000000000000e+03 5.525618362426757812e+01 2.840692043304443359e+00 2.149446308612823486e-01 3.587804794311523438e+00 1.140824794769287109e+00 3.143256604671478271e-01
4.401000000000000000e+03 5.911828994750976562e+01 5.879035472869873047e+00 7.711353152990341187e-02 4.484239101409912109e+00 1.368405818939208984e+00 4.773171842098236084e-01
4.402000000000000000e+03 5.985844421386718750e+01 1.441565322875976562e+01 -9.633441269397735596e-02 4.706060409545898438e+00 1.382917881011962891e+00 1.054412484169006348e+00
4.403000000000000000e+03 5.844409179687500000e+01 6.972342967987060547e+00 9.837995469570159912e-02 4.259064674377441406e+00 1.307233452796936035e+00 5.139231681823730469e-01
4.404000000000000000e+03 5.923496627807617188e+01 6.741952896118164062e+00 6.272864341735839844e-02 4.508267402648925781e+00 1.371298789978027344e+00 5.084969401359558105e-01
4.405000000000000000e+03 5.734531402587890625e+01 -1.001742839813232422e+00 1.529956609010696411e-01 4.143722534179687500e+00 1.289015531539916992e+00 2.642474174499511719e-01
4.406000000000000000e+03 4.499742889404296875e+01 -3.269356787204742432e-01 2.800922393798828125e-01 1.611021280288696289e+00 5.673340559005737305e-01 -6.926383078098297119e-02
4.407000000000000000e+03 5.257155227661132812e+01 -1.004948997497558594e+01 1.737122535705566406e-01 3.277135610580444336e+00 1.035254359245300293e+00 9.415361285209655762e-02
4.408000000000000000e+03 5.521604156494140625e+01 -2.849495649337768555e+00 1.935722380876541138e-01 3.719684123992919922e+00 1.173976898193359375e+00 2.078431248664855957e-01
4.409000000000000000e+03 5.641907882690429688e+01 -2.320404052734375000e+01 9.132920950651168823e-02 4.128620147705078125e+00 1.265984892845153809e+00 7.683722674846649170e-02
4.410000000000000000e+03 5.884525680541992188e+01 -2.125949478149414062e+01 8.569901436567306519e-02 4.565224647521972656e+00 1.395277023315429688e+00 9.106062352657318115e-02
4.411000000000000000e+03 3.979751205444335938e+01 -6.295486450195312500e+00 1.837600022554397583e-01 9.317018389701843262e-01 3.346385359764099121e-01 -1.417767405509948730e-01
4.412000000000000000e+03 4.488235092163085938e+01 2.981132507324218750e+00 3.161785900592803955e-01 1.467917084693908691e+00 5.352287292480468750e-01 -9.304032474756240845e-02
4.413000000000000000e+03 4.088901519775390625e+01 -7.211770057678222656e+00 1.887198686599731445e-01 1.102053403854370117e+00 3.872319757938385010e-01 -1.185624673962593079e-01
4.414000000000000000e+03 5.204616546630859375e+01 -1.505321884155273438e+01 1.446052789688110352e-01 3.265712738037109375e+00 1.023095369338989258e+00 6.559559702873229980e-02
4.415000000000000000e+03 5.578055572509765625e+01 -1.754647064208984375e+01 9.998375177383422852e-02 3.956108093261718750e+00 1.216827511787414551e+00 9.480978548526763916e-02
4.416000000000000000e+03 6.156589889526367188e+01 2.203316497802734375e+01 -3.241352438926696777e-01 5.844419002532958984e+00 1.656085133552551270e+00 2.303148269653320312e+00
4.417000000000000000e+03 6.092208480834960938e+01 2.201884078979492188e+01 -1.542831212282180786e-01 5.219337940216064453e+00 1.519516468048095703e+00 2.315537691116333008e+00
4.418000000000000000e+03 6.227176284790039062e+01 2.159332847595214844e+01 -5.306810736656188965e-01 6.452052593231201172e+00 1.776411414146423340e+00 2.126571655273437500e+00
4.419000000000000000e+03 6.191558837890625000e+01 1.957705879211425781e+01 -4.538799524307250977e-01 5.933778285980224609e+00 1.643969416618347168e+00 1.723094344139099121e+00
4.420000000000000000e+03 6.091930770874023438e+01 2.130836486816406250e+01 -1.988651305437088013e-01 5.275674819946289062e+00 1.523042917251586914e+00 2.149267435073852539e+00
4.421000000000000000e+03 6.212808609008789062e+01 2.027943611145019531e+01 -4.992934167385101318e-01 6.166948795318603516e+00 1.700296521186828613e+00 1.837225437164306641e+00
4.422000000000000000e+03 5.965514373779296875e+01 1.971631050109863281e+01 -2.836764790117740631e-02 4.430023670196533203e+00 1.320496797561645508e+00 1.748353362083435059e+00
4.423000000000000000e+03 5.744000244140625000e+01 1.736796379089355469e+01 1.798003762960433960e-01 3.489929676055908203e+00 1.100919008255004883e+00 1.231823086738586426e+00
4.424000000000000000e+03 6.039191436767578125e+01 2.080561828613281250e+01 -1.139699444174766541e-01 4.873211860656738281e+00 1.427772641181945801e+00 2.015443325042724609e+00
4.425000000000000000e+03 5.623423385620117188e+01 1.623031997680664062e+01 2.528848350048065186e-01 3.117221117019653320e+00 1.011031746864318848e+00 1.017038822174072266e+00
4.426000000000000000e+03 6.095643615722656250e+01 1.531671428680419922e+01 -2.190768867731094360e-01 5.153550624847412109e+00 1.480342149734497070e+00 1.119931578636169434e+00
4.427000000000000000e+03 5.515348434448242188e+01 1.471404075622558594e+01 2.930061519145965576e-01 2.916170597076416016e+00 9.627529978752136230e-01 7.940961718559265137e-01
4.428000000000000000e+03 5.165919113159179688e+01 1.415044784545898438e+01 3.973810374736785889e-01 2.008713483810424805e+00 7.218283414840698242e-01 3.947373628616333008e-01
4.429000000000000000e+03 5.848663330078125000e+01 1.594505023956298828e+01 4.794967919588088989e-02 4.069657325744628906e+00 1.235282063484191895e+00 1.177986741065979004e+00
4.430000000000000000e+03 5.581935119628906250e+01 1.334525012969970703e+01 2.378220558166503906e-01 3.280142307281494141e+00 1.055389285087585449e+00 7.829425334930419922e-01
4.431000000000000000e+03 5.885485076904296875e+01 1.279649639129638672e+01 1.921062357723712921e-02 4.326773166656494141e+00 1.303795218467712402e+00 8.880236148834228516e-01
4.432000000000000000e+03 5.498223114013671875e+01 5.230565071105957031e+00 2.294470816850662231e-01 3.435835838317871094e+00 1.099584817886352539e+00 3.728555142879486084e-01
4.433000000000000000e+03 5.913340759277343750e+01 1.034680652618408203e+01 2.066194452345371246e-02 4.474654674530029297e+00 1.348594903945922852e+00 7.154834270477294922e-01
4.434000000000000000e+03 5.836596298217773438e+01 1.207357025146484375e+01 6.000589579343795776e-02 4.173526763916015625e+00 1.270059823989868164e+00 8.283818960189819336e-01
4.435000000000000000e+03 5.303176498413085938e+01 1.454489612579345703e+01 3.739964962005615234e-01 2.310240745544433594e+00 8.052711486816406250e-01 5.641103982925415039e-01
4.436000000000000000e+03 4.604988098144531250e+01 1.195091342926025391e+01 3.781099617481231689e-01 1.166542172431945801e+00 4.633956551551818848e-01 -1.089747324585914612e-01
4.437000000000000000e+03 6.162741851806640625e+01 1.723650932312011719e+01 -3.639501929283142090e-01 5.598659038543701172e+00 1.570412635803222656e+00 1.350638151168823242e+00
4.438000000000000000e+03 5.728732299804687500e+01 6.057712078094482422e+00 1.417445838451385498e-01 4.010058879852294922e+00 1.245541095733642578e+00 4.838812649250030518e-01
4.439000000000000000e+03 4.540338516235351562e+01 9.538559913635253906e+00 3.735280930995941162e-01 1.234307527542114258e+00 4.823507070541381836e-01 -1.167359128594398499e-01
4.440000000000000000e+03 4.907388687133789062e+01 1.228733444213867188e+01 4.003872573375701904e-01 1.666071653366088867e+00 6.199376583099365234e-01 1.347576975822448730e-01
4.441000000000000000e+03 4.505402755737304688e+01 1.177147865295410156e+01 3.655055463314056396e-01 1.042006731033325195e+00 4.222536981105804443e-01 -1.733180582523345947e-01
4.442000000000000000e+03 4.518773269653320312e+01 1.072731399536132812e+01 3.676874041557312012e-01 1.124311566352844238e+00 4.475996792316436768e-01 -1.481433212757110596e-01
4.443000000000000000e+03 4.567435455322265625e+01 8.198822975158691406e+00 3.689109086990356445e-01 1.368392705917358398e+00 5.211911201477050781e-01 -8.707199990749359131e-02
4.444000000000000000e+03 4.789050292968750000e+01 1.268815994262695312e+01 3.976123332977294922e-01 1.390413165092468262e+00 5.364076495170593262e-01 2.739878371357917786e-02
4.445000000000000000e+03 6.013661193847656250e+01 1.535377788543701172e+01 -1.325393915176391602e-01 4.822650909423828125e+00 1.407033443450927734e+00 1.159902095794677734e+00
4.446000000000000000e+03 6.106175994873046875e+01 1.696747589111328125e+01 -2.717860341072082520e-01 5.295919418334960938e+00 1.507240056991577148e+00 1.333309173583984375e+00
4.447000000000000000e+03 5.644673156738281250e+01 3.932712316513061523e+00 1.849278658628463745e-01 3.839876174926757812e+00 1.207441210746765137e+00 3.714579343795776367e-01
4.448000000000000000e+03 5.390540313720703125e+01 1.406709575653076172e+01 3.419324159622192383e-01 2.606848478317260742e+00 8.846342563629150391e-01 6.420822739601135254e-01
4.449000000000000000e+03 5.551363372802734375e+01 -7.532898187637329102e-01 1.911698281764984131e-01 3.730631828308105469e+00 1.176540493965148926e+00 2.414065599441528320e-01
4.450000000000000000e+03 5.908958053588867188e+01 7.481470584869384766e+00 5.673982948064804077e-02 4.445230960845947266e+00 1.350591301918029785e+00 5.477926135063171387e-01
4.451000000000000000e+03 5.827988433837890625e+01 9.185405731201171875e+00 8.926164358854293823e-02 4.212766170501708984e+00 1.290608406066894531e+00 6.233215928077697754e-01
4.452000000000000000e+03 4.581718444824218750e+01 1.284752655029296875e+01 3.635885715484619141e-01 1.068362712860107422e+00 4.295853674411773682e-01 -1.408668905496597290e-01
4.453000000000000000e+03 5.204633331298828125e+01 4.186225891113281250e+00 2.957664728164672852e-01 2.814305543899536133e+00 9.330215454101562500e-01 2.360525131225585938e-01
4.454000000000000000e+03 4.539606094360351562e+01 5.382093429565429688e+00 3.423206210136413574e-01 1.469276070594787598e+00 5.434790253639221191e-01 -8.352842181921005249e-02
4.455000000000000000e+03 4.588974380493164062e+01 8.780966997146606445e-01 2.995755374431610107e-01 1.723204374313354492e+00 6.068339943885803223e-01 -4.591153934597969055e-02
4.456000000000000000e+03 4.361326599121093750e+01 -4.844788074493408203e+00 2.376741766929626465e-01 1.538731694221496582e+00 5.329217314720153809e-01 -8.464172482490539551e-02
4.457000000000000000e+03 4.541577529907226562e+01 -2.325535058975219727e+00 2.668338716030120850e-01 1.763070106506347656e+00 6.089711785316467285e-01 -4.369098320603370667e-02
4.458000000000000000e+03 4.628168869018554688e+01 -1.243431568145751953e+00 2.734136879444122314e-01 1.877749085426330566e+00 6.453488469123840332e-01 -2.638227306306362152e-02
4.459000000000000000e+03 5.482196807861328125e+01 -5.099380016326904297e+00 1.842889338731765747e-01 3.635799646377563477e+00 1.146026492118835449e+00 1.678237617015838623e-01
4.460000000000000000e+03 5.813222122192382812e+01 5.151398181915283203e+00 1.119949817657470703e-01 4.215271949768066406e+00 1.298180103302001953e+00 4.525195062160491943e-01
4.461000000000000000e+03 5.377503204345703125e+01 -1.149381399154663086e+00 2.243770062923431396e-01 3.342057466506958008e+00 1.069930315017700195e+00 2.002773433923721313e-01
4.462000000000000000e+03 4.264153671264648438e+01 -8.227454185485839844e+00 1.909863948822021484e-01 1.405154109001159668e+00 4.788421690464019775e-01 -8.803484588861465454e-02
4.463000000000000000e+03 4.576695251464843750e+01 -1.259379768371582031e+01 1.653510481119155884e-01 2.026200056076049805e+00 6.574653387069702148e-01 -1.513775438070297241e-02
4.464000000000000000e+03 5.481639099121093750e+01 -1.980218696594238281e+01 1.104141026735305786e-01 3.806882143020629883e+00 1.175188899040222168e+00 7.169293612241744995e-02
4.465000000000000000e+03 6.190604782104492188e+01 2.173148536682128906e+01 -4.147028923034667969e-01 6.085371971130371094e+00 1.701200723648071289e+00 2.216441392898559570e+00
4.466000000000000000e+03 6.010173797607421875e+01 2.155635070800781250e+01 -2.017198875546455383e-02 4.602949142456054688e+00 1.374833106994628906e+00 2.109233379364013672e+00
4.467000000000000000e+03 6.098486328125000000e+01 2.070660400390625000e+01 -2.381886988878250122e-01 5.313398838043212891e+00 1.522563099861145020e+00 2.011961460113525391e+00
4.468000000000000000e+03 6.166558837890625000e+01 2.013857650756835938e+01 -3.986121714115142822e-01 5.794202327728271484e+00 1.618677020072937012e+00 1.851642489433288574e+00
4.469000000000000000e+03 6.024185562133789062e+01 1.934071159362792969e+01 -1.353431046009063721e-01 4.811926841735839844e+00 1.402975082397460938e+00 1.732000350952148438e+00
4.470000000000000000e+03 6.138275909423828125e+01 1.932257843017578125e+01 -3.425040543079376221e-01 5.544173717498779297e+00 1.560500860214233398e+00 1.691228985786437988e+00
4.471000000000000000e+03 6.168402099609375000e+01 2.128888893127441406e+01 -3.739909529685974121e-01 5.872145175933837891e+00 1.649446249008178711e+00 2.119278669357299805e+00
4.472000000000000000e+03 6.080549621582031250e+01 1.917538452148437500e+01 -2.543774545192718506e-01 5.225461006164550781e+00 1.491325020790100098e+00 1.701953649520874023e+00
4.473000000000000000e+03 6.233303070068359375e+01 1.844477272033691406e+01 -5.099718570709228516e-01 6.067364692687988281e+00 1.667217850685119629e+00 1.491829395294189453e+00
4.474000000000000000e+03 5.808309555053710938e+01 1.705979347229003906e+01 1.083245277404785156e-01 3.817863225936889648e+00 1.177856326103210449e+00 1.267404198646545410e+00
4.475000000000000000e+03 6.052483367919921875e+01 1.780636596679687500e+01 -2.069322168827056885e-01 5.041885375976562500e+00 1.450485944747924805e+00 1.479830145835876465e+00
4.476000000000000000e+03 6.004965209960937500e+01 2.028141021728515625e+01 -7.406045496463775635e-02 4.652476787567138672e+00 1.373524904251098633e+00 1.886934638023376465e+00
4.477000000000000000e+03 5.941677856445312500e+01 1.902096557617187500e+01 -1.531366724520921707e-02 4.326642036437988281e+00 1.293398618698120117e+00 1.620284318923950195e+00
4.478000000000000000e+03 6.110807037353515625e+01 2.000834465026855469e+01 -2.819229364395141602e-01 5.374231815338134766e+00 1.527692675590515137e+00 1.862865447998046875e+00
4.479000000000000000e+03 5.714480209350585938e+01 1.660573577880859375e+01 1.879909336566925049e-01 3.462513685226440430e+00 1.095151424407958984e+00 1.129321336746215820e+00
4.480000000000000000e+03 5.783423995971679688e+01 1.434854412078857422e+01 1.051299199461936951e-01 3.926429033279418945e+00 1.209467649459838867e+00 1.007508635520935059e+00
4.481000000000000000e+03 5.635533905029296875e+01 8.486540794372558594e+00 1.867384016513824463e-01 3.677886009216308594e+00 1.159387350082397461e+00 5.403024554252624512e-01
4.482000000000000000e+03 5.810016632080078125e+01 1.322057819366455078e+01 7.289933413267135620e-02 4.046313285827636719e+00 1.235763788223266602e+00 9.101557731628417969e-01
4.483000000000000000e+03 5.813825988769531250e+01 1.028712558746337891e+01 8.831174671649932861e-02 4.144971370697021484e+00 1.269984960556030273e+00 6.862856149673461914e-01
4.484000000000000000e+03 5.483326339721679688e+01 1.367398262023925781e+01 2.996725440025329590e-01 2.915220022201538086e+00 9.644677639007568359e-01 7.184476256370544434e-01
4.485000000000000000e+03 5.038511276245117188e+01 1.231102085113525391e+01 4.029234349727630615e-01 1.909014225006103516e+00 6.935812830924987793e-01 2.649241089820861816e-01
4.486000000000000000e+03 5.676876068115234375e+01 1.290258789062500000e+01 1.762774586677551270e-01 3.612339258193969727e+00 1.136584997177124023e+00 8.143151998519897461e-01
4.487000000000000000e+03 6.113888931274414062e+01 1.759745216369628906e+01 -2.928016483783721924e-01 5.337940692901611328e+00 1.513541698455810547e+00 1.446041107177734375e+00
4.488000000000000000e+03 6.056952667236328125e+01 1.978042984008789062e+01 -1.925964951515197754e-01 5.058229923248291016e+00 1.459690093994140625e+00 1.820629954338073730e+00
4.489000000000000000e+03 5.252700805664062500e+01 1.352868938446044922e+01 3.781566619873046875e-01 2.300926208496093750e+00 8.037248253822326660e-01 4.840892553329467773e-01
4.490000000000000000e+03 6.025424957275390625e+01 1.627570915222167969e+01 -1.554696410894393921e-01 4.867240905761718750e+00 1.413531422615051270e+00 1.274908423423767090e+00
4.491000000000000000e+03 4.879411315917968750e+01 1.309520530700683594e+01 4.018007814884185791e-01 1.525673151016235352e+00 5.782421827316284180e-01 1.105393096804618835e-01
4.492000000000000000e+03 4.756856918334960938e+01 1.357018184661865234e+01 3.803858160972595215e-01 1.267124533653259277e+00 4.942530989646911621e-01 -1.376280002295970917e-02
4.493000000000000000e+03 4.698436737060546875e+01 1.227835273742675781e+01 3.881771862506866455e-01 1.287046074867248535e+00 5.025669932365417480e-01 -4.296554997563362122e-02
4.494000000000000000e+03 4.973534774780273438e+01 5.348622798919677734e+00 3.383479416370391846e-01 2.281852483749389648e+00 7.860600948333740234e-01 1.469052731990814209e-01
4.495000000000000000e+03 5.500897979736328125e+01 1.480291485786437988e+00 2.133640497922897339e-01 3.564099073410034180e+00 1.133238911628723145e+00 2.740910649299621582e-01
4.496000000000000000e+03 4.474969863891601562e+01 1.327239418029785156e+01 3.345200717449188232e-01 8.837987780570983887e-01 3.654956519603729248e-01 -2.300411164760589600e-01
4.497000000000000000e+03 4.498993682861328125e+01 1.262024307250976562e+01 3.487884402275085449e-01 9.718025922775268555e-01 3.961772918701171875e-01 -1.961967051029205322e-01
4.498000000000000000e+03 4.713545989990234375e+01 6.360561847686767578e+00 3.577800393104553223e-01 1.710675239562988281e+00 6.205365657806396484e-01 2.459389157593250275e-03
4.499000000000000000e+03 5.857682037353515625e+01 1.398317432403564453e+01 3.566941991448402405e-02 4.195967674255371094e+00 1.269491195678710938e+00 9.910852909088134766e-01
4.500000000000000000e+03 5.345004272460937500e+01 1.300197792053222656e+01 3.484888374805450439e-01 2.579785108566284180e+00 8.784821629524230957e-01 5.611749887466430664e-01
4.501000000000000000e+03 5.455023193359375000e+01 4.281765937805175781e+00 2.380663454532623291e-01 3.373616456985473633e+00 1.083504915237426758e+00 3.291371762752532959e-01
4.502000000000000000e+03 5.737172317504882812e+01 1.543336868286132812e+01 1.511663347482681274e-01 3.632791519165039062e+00 1.135187268257141113e+00 1.047985792160034180e+00
4.503000000000000000e+03 5.817974090576171875e+01 6.091298103332519531e+00 1.136811077594757080e-01 4.205823898315429688e+00 1.295851469039916992e+00 4.834122061729431152e-01
4.504000000000000000e+03 4.215885925292968750e+01 -4.944493293762207031e+00 2.221877574920654297e-01 1.261622309684753418e+00 4.451430439949035645e-01 -1.113786697387695312e-01
4.505000000000000000e+03 4.858770370483398438e+01 2.625664234161376953e+00 3.170168995857238770e-01 2.174737453460693359e+00 7.475262880325317383e-01 6.941990554332733154e-02
4.506000000000000000e+03 5.373387908935546875e+01 1.885557413101196289e+00 2.431293427944183350e-01 3.248483896255493164e+00 1.047483921051025391e+00 2.484719753265380859e-01
4.507000000000000000e+03 5.665894317626953125e+01 9.410426139831542969e+00 1.749220341444015503e-01 3.746658802032470703e+00 1.176474213600158691e+00 6.106580495834350586e-01
4.508000000000000000e+03 5.235795593261718750e+01 -2.342926979064941406e+00 2.334311157464981079e-01 3.096715688705444336e+00 9.990440011024475098e-01 1.564056575298309326e-01
4.509000000000000000e+03 5.547847366333007812e+01 4.000267028808593750e+00 2.132037729024887085e-01 3.608302593231201172e+00 1.146451950073242188e+00 3.540351092815399170e-01
4.510000000000000000e+03 4.837210464477539062e+01 -8.497877717018127441e-01 2.779432237148284912e-01 2.274910926818847656e+00 7.658562660217285156e-01 4.120697081089019775e-02
4.511000000000000000e+03 4.496928787231445312e+01 -1.083414268493652344e+01 1.852160096168518066e-01 1.865038990974426270e+00 6.150764822959899902e-01 -3.012196719646453857e-02
4.512000000000000000e+03 4.000213623046875000e+01 -8.392747879028320312e+00 1.728898286819458008e-01 9.650343656539916992e-01 3.413772583007812500e-01 -1.194999739527702332e-01
4.513000000000000000e+03 4.158586883544921875e+01 -1.630471420288085938e+01 1.135598123073577881e-01 1.321490764617919922e+00 4.305151700973510742e-01 -5.891870334744453430e-02
4.514000000000000000e+03 4.487132263183593750e+01 -1.552407741546630859e+01 1.415258198976516724e-01 1.932426929473876953e+00 6.221858263015747070e-01 -2.084844373166561127e-02
4.515000000000000000e+03 5.968260955810546875e+01 1.728150939941406250e+01 -8.006964623928070068e-02 4.584212303161621094e+00 1.351242780685424805e+00 1.394829750061035156e+00
4.516000000000000000e+03 5.920930480957031250e+01 1.829755401611328125e+01 -1.873524743132293224e-03 4.276993274688720703e+00 1.282535910606384277e+00 1.506255030632019043e+00
4.517000000000000000e+03 6.219245910644531250e+01 2.202421569824218750e+01 -4.947466254234313965e-01 6.436766624450683594e+00 1.782605886459350586e+00 2.244268417358398438e+00
4.518000000000000000e+03 5.777902603149414062e+01 1.626683807373046875e+01 1.284288018941879272e-01 3.745420694351196289e+00 1.162154793739318848e+00 1.163211226463317871e+00
4.519000000000000000e+03 6.005841064453125000e+01 1.872859382629394531e+01 -1.210126429796218872e-01 4.730823516845703125e+00 1.382943272590637207e+00 1.632567167282104492e+00
4.520000000000000000e+03 6.073354721069335938e+01 1.850418853759765625e+01 -2.452337294816970825e-01 5.160394668579101562e+00 1.474548220634460449e+00 1.600013375282287598e+00
4.521000000000000000e+03 5.726537704467773438e+01 1.147908973693847656e+01 1.384885162115097046e-01 3.853475093841552734e+00 1.197589039802551270e+00 7.432184219360351562e-01
4.522000000000000000e+03 5.761585617065429688e+01 1.241748619079589844e+01 1.124292910099029541e-01 3.938006639480590820e+00 1.215130805969238281e+00 8.274558186531066895e-01
4.523000000000000000e+03 4.667707824707031250e+01 1.317889595031738281e+01 3.737670183181762695e-01 1.162299871444702148e+00 4.608200490474700928e-01 -8.245750516653060913e-02
4.524000000000000000e+03 5.256999969482421875e+01 2.350387096405029297e+00 2.676193118095397949e-01 2.991618156433105469e+00 9.777712225914001465e-01 2.270253449678421021e-01
4.525000000000000000e+03 4.671516799926757812e+01 5.016389846801757812e+00 3.417823314666748047e-01 1.705762147903442383e+00 6.142633557319641113e-01 -2.293589152395725250e-02
4.526000000000000000e+03 5.735260772705078125e+01 1.370376014709472656e+01 1.350550055503845215e-01 3.742747068405151367e+00 1.163340568542480469e+00 9.163417220115661621e-01
4.527000000000000000e+03 5.703378677368164062e+01 1.040637397766113281e+01 1.560269296169281006e-01 3.803519725799560547e+00 1.187864065170288086e+00 6.739062666893005371e-01
4.528000000000000000e+03 5.675839614868164062e+01 1.584974956512451172e+01 2.066712975502014160e-01 3.371979475021362305e+00 1.073595285415649414e+00 1.030705928802490234e+00
4.529000000000000000e+03 5.614181518554687500e+01 1.549597072601318359e+01 2.481259107589721680e-01 3.196118116378784180e+00 1.033273220062255859e+00 9.538236856460571289e-01
4.530000000000000000e+03 5.815626525878906250e+01 1.513085651397705078e+01 7.540155202150344849e-02 3.993096351623535156e+00 1.220549345016479492e+00 1.073699831962585449e+00
4.531000000000000000e+03 5.043347549438476562e+01 8.198749542236328125e+00 3.630350530147552490e-01 2.226010084152221680e+00 7.767135500907897949e-01 2.166028022766113281e-01
4.532000000000000000e+03 5.192778015136718750e+01 1.244939422607421875e+01 3.833427131175994873e-01 2.248706579208374023e+00 7.896147966384887695e-01 3.977498710155487061e-01
4.533000000000000000e+03 4.968937301635742188e+01 -1.547707438468933105e+00 2.659777700901031494e-01 2.541336059570312500e+00 8.421941995620727539e-01 8.294190466403961182e-02
4.534000000000000000e+03 5.017957305908203125e+01 1.073349666595458984e+01 3.896334469318389893e-01 2.002190828323364258e+00 7.175472974777221680e-01 2.251601666212081909e-01
4.535000000000000000e+03 5.112036132812500000e+01 1.149892234802246094e+01 3.854517042636871338e-01 2.146753549575805664e+00 7.596615552902221680e-01 3.169691860675811768e-01
4.536000000000000000e+03 5.415077590942382812e+01 3.147030591964721680e+00 2.456609159708023071e-01 3.322713851928710938e+00 1.070512413978576660e+00 2.876457571983337402e-01
4.537000000000000000e+03 5.365118789672851562e+01 4.759480476379394531e+00 2.649292945861816406e-01 3.148272037506103516e+00 1.023960471153259277e+00 3.094932734966278076e-01
4.538000000000000000e+03 4.705196380615234375e+01 8.612065315246582031e+00 3.801528811454772949e-01 1.568916440010070801e+00 5.847207903861999512e-01 -9.705336764454841614e-03
4.539000000000000000e+03 4.232160949707031250e+01 -6.623995780944824219e+00 1.931909322738647461e-01 1.301133394241333008e+00 4.482972919940948486e-01 -9.882643818855285645e-02
4.540000000000000000e+03 4.123571014404296875e+01 -8.558758735656738281e+00 1.823925971984863281e-01 1.178336262702941895e+00 4.082186520099639893e-01 -1.028557941317558289e-01
4.541000000000000000e+03 5.293251800537109375e+01 1.184952831268310547e+01 3.540479838848114014e-01 2.555469989776611328e+00 8.728554248809814453e-01 4.738636612892150879e-01
4.542000000000000000e+03 5.441537857055664062e+01 1.257607936859130859e+01 3.046630322933197021e-01 2.900375127792358398e+00 9.615114331245422363e-01 6.303684115409851074e-01
4.543000000000000000e+03 4.498360443115234375e+01 -4.287485122680664062e+00 2.250944674015045166e-01 1.715587139129638672e+00 5.822044610977172852e-01 -5.532699078321456909e-02
4.544000000000000000e+03 5.447119522094726562e+01 8.002055436372756958e-02 2.144595533609390259e-01 3.474226713180541992e+00 1.106605887413024902e+00 2.329126000404357910e-01
4.545000000000000000e+03 5.567619705200195312e+01 4.982412815093994141e+00 2.054724246263504028e-01 3.630440235137939453e+00 1.150773763656616211e+00 3.817327320575714111e-01
4.546000000000000000e+03 5.430648803710937500e+01 5.771113872528076172e+00 2.455902993679046631e-01 3.264479398727416992e+00 1.053020954132080078e+00 3.602002263069152832e-01
4.547000000000000000e+03 5.685095596313476562e+01 6.891500949859619141e+00 1.626437008380889893e-01 3.851656436920166016e+00 1.204290032386779785e+00 4.943093359470367432e-01
4.548000000000000000e+03 5.512554550170898438e+01 6.620522499084472656e+00 2.261366099119186401e-01 3.445938348770141602e+00 1.101622462272644043e+00 4.201376438140869141e-01
4.549000000000000000e+03 5.356464385986328125e+01 -2.338479757308959961e+00 2.175665944814682007e-01 3.314184665679931641e+00 1.059525370597839355e+00 1.762197017669677734e-01
4.550000000000000000e+03 5.322955322265625000e+01 5.577676296234130859e-01 2.432940900325775146e-01 3.184019565582275391e+00 1.028194069862365723e+00 2.203203737735748291e-01
4.551000000000000000e+03 4.902759170532226562e+01 -3.205258846282958984e+00 2.531391382217407227e-01 2.458782434463500977e+00 8.135764598846435547e-01 5.202960968017578125e-02
4.552000000000000000e+03 5.456660079956054688e+01 -1.790616869926452637e+00 2.031670510768890381e-01 3.522992610931396484e+00 1.117847919464111328e+00 1.948176026344299316e-01
4.553000000000000000e+03 4.630367660522460938e+01 3.774149417877197266e+00 3.320885300636291504e-01 1.700355887413024902e+00 6.097332835197448730e-01 -3.617060184478759766e-02
4.554000000000000000e+03 4.660929107666015625e+01 9.836099624633789062e+00 3.828242421150207520e-01 1.401167392730712891e+00 5.351974964141845703e-01 -4.859993234276771545e-02
4.555000000000000000e+03 5.563273620605468750e+01 5.857645988464355469e+00 2.032071053981781006e-01 3.580230712890625000e+00 1.135031342506408691e+00 4.098759591579437256e-01
4.556000000000000000e+03 5.646081542968750000e+01 5.988871097564697266e+00 1.744917333126068115e-01 3.741642713546752930e+00 1.174840331077575684e+00 4.575858414173126221e-01
4.557000000000000000e+03 4.638728713989257812e+01 -3.508686065673828125e+00 2.408729791641235352e-01 1.977012276649475098e+00 6.653655767440795898e-01 -1.824118196964263916e-02
4.558000000000000000e+03 4.730416488647460938e+01 -1.155243587493896484e+01 1.734100729227066040e-01 2.310866117477416992e+00 7.452828884124755859e-01 -6.566352676600217819e-03
4.559000000000000000e+03 4.656978607177734375e+01 -7.350322723388671875e+00 2.208159565925598145e-01 2.109691143035888672e+00 6.991521716117858887e-01 -9.728947654366493225e-03
4.560000000000000000e+03 4.855218505859375000e+01 -4.896110534667968750e+00 2.257231920957565308e-01 2.394130945205688477e+00 7.859562039375305176e-01 3.590334579348564148e-02
4.561000000000000000e+03 5.986811447143554688e+01 1.803236389160156250e+01 -9.876450896263122559e-02 4.654856681823730469e+00 1.366827726364135742e+00 1.507674217224121094e+00
4.562000000000000000e+03 5.899834060668945312e+01 1.754241180419921875e+01 1.170076895505189896e-02 4.223704338073730469e+00 1.270621538162231445e+00 1.390645027160644531e+00
4.563000000000000000e+03 5.876551055908203125e+01 1.675674629211425781e+01 3.299218043684959412e-02 4.149598598480224609e+00 1.254777193069458008e+00 1.282772898674011230e+00
4.564000000000000000e+03 5.204302978515625000e+01 8.065505027770996094e+00 3.261302411556243896e-01 2.631704807281494141e+00 8.873504996299743652e-01 3.070208430290222168e-01
4.565000000000000000e+03 4.960847473144531250e+01 1.154997539520263672e+01 4.016004502773284912e-01 1.818757772445678711e+00 6.661074757575988770e-01 1.822733432054519653e-01
4.566000000000000000e+03 5.398583984375000000e+01 1.143367290496826172e+01 3.122068941593170166e-01 2.879033803939819336e+00 9.573722481727600098e-01 5.494167804718017578e-01
4.567000000000000000e+03 5.568468093872070312e+01 9.728903770446777344e+00 2.264176309108734131e-01 3.464891910552978516e+00 1.107392787933349609e+00 5.800014734268188477e-01
4.568000000000000000e+03 4.972846984863281250e+01 2.031120061874389648e+00 2.979546487331390381e-01 2.425921201705932617e+00 8.171627521514892578e-01 1.081634163856506348e-01
4.569000000000000000e+03 4.731140518188476562e+01 1.132023334503173828e+01 3.956534862518310547e-01 1.414432048797607422e+00 5.430256724357604980e-01 -7.422924507409334183e-03
4.570000000000000000e+03 4.629187011718750000e+01 1.094746017456054688e+01 3.855451345443725586e-01 1.279067039489746094e+00 4.993836581707000732e-01 -7.720673084259033203e-02
4.571000000000000000e+03 4.770742034912109375e+01 1.032207012176513672e+01 3.895300924777984619e-01 1.573169231414794922e+00 5.888097882270812988e-01 2.835767343640327454e-02
4.572000000000000000e+03 4.820500946044921875e+01 9.328712463378906250e+00 3.887911140918731689e-01 1.744086742401123047e+00 6.398633718490600586e-01 7.050448656082153320e-02
4.573000000000000000e+03 5.151173400878906250e+01 -4.601484537124633789e-01 2.601182758808135986e-01 2.868517160415649414e+00 9.385906457901000977e-01 1.528385579586029053e-01
4.574000000000000000e+03 5.164594268798828125e+01 1.055570125579833984e+01 3.687348365783691406e-01 2.341069459915161133e+00 8.129412531852722168e-01 3.422701954841613770e-01
4.575000000000000000e+03 4.922871017456054688e+01 1.001884746551513672e+01 3.912832736968994141e-01 1.867869019508361816e+00 6.777456998825073242e-01 1.472196429967880249e-01
4.576000000000000000e+03 5.073805999755859375e+01 9.852355957031250000e+00 3.809762597084045410e-01 2.168868541717529297e+00 7.649534344673156738e-01 2.612181901931762695e-01
4.577000000000000000e+03 4.918897247314453125e+01 3.973624944686889648e+00 3.276293873786926270e-01 2.244847774505615234e+00 7.717431187629699707e-01 1.060095429420471191e-01
4.578000000000000000e+03 5.204042434692382812e+01 9.985463619232177734e-01 2.611143290996551514e-01 2.925997257232666016e+00 9.561334848403930664e-01 1.876614391803741455e-01
4.579000000000000000e+03 4.797466278076171875e+01 4.504435062408447266e+00 3.418364226818084717e-01 1.970761418342590332e+00 6.937793493270874023e-01 5.206905305385589600e-02
4.580000000000000000e+03 4.583798599243164062e+01 2.670660257339477539e+00 3.194915056228637695e-01 1.676997184753417969e+00 5.989466309547424316e-01 -5.099589750170707703e-02
4.581000000000000000e+03 4.887488174438476562e+01 6.841357707977294922e+00 3.619221150875091553e-01 2.016743183135986328e+00 7.135995626449584961e-01 9.729167073965072632e-02
4.582000000000000000e+03 5.461373138427734375e+01 8.810747146606445312e+00 2.638616859912872314e-01 3.180637359619140625e+00 1.033349633216857910e+00 4.890455603599548340e-01
4.583000000000000000e+03 5.354354476928710938e+01 6.440546512603759766e+00 2.774016857147216797e-01 3.054274320602416992e+00 9.995027780532836914e-01 3.556999862194061279e-01
4.584000000000000000e+03 5.599163818359375000e+01 1.075962352752685547e+01 2.071743905544281006e-01 3.476937532424926758e+00 1.105233550071716309e+00 6.415714025497436523e-01
4.585000000000000000e+03 5.498490142822265625e+01 1.107949447631835938e+01 2.636973261833190918e-01 3.166274070739746094e+00 1.028991341590881348e+00 6.001142263412475586e-01
4.586000000000000000e+03 4.402198410034179688e+01 -6.379241466522216797e+00 2.094236612319946289e-01 1.632568478584289551e+00 5.525976419448852539e-01 -7.321608811616897583e-02
4.587000000000000000e+03 5.200756072998046875e+01 -6.149596691131591797e+00 2.032356113195419312e-01 3.102191209793090820e+00 9.916280508041381836e-01 1.072910055518150330e-01
4.588000000000000000e+03 4.773231124877929688e+01 -8.774366378784179688e+00 1.987489163875579834e-01 2.354202270507812500e+00 7.658854126930236816e-01 1.655231579206883907e-03
4.589000000000000000e+03 5.104064559936523438e+01 -2.052727699279785156e+00 2.468915730714797974e-01 2.830601930618286133e+00 9.232480525970458984e-01 1.183279305696487427e-01
4.590000000000000000e+03 5.383223724365234375e+01 -6.552432060241699219e+00 1.928278505802154541e-01 3.474409818649291992e+00 1.100171327590942383e+00 1.380335539579391479e-01
4.591000000000000000e+03 5.063894653320312500e+01 -3.782089948654174805e+00 2.379919141530990601e-01 2.799884319305419922e+00 9.113628864288330078e-01 9.139131754636764526e-02
4.592000000000000000e+03 5.437868881225585938e+01 7.333575248718261719e+00 2.576922774314880371e-01 3.231589078903198242e+00 1.046784400939941406e+00 4.194786846637725830e-01
4.593000000000000000e+03 5.595354080200195312e+01 7.493418216705322266e+00 1.979397088289260864e-01 3.600936174392700195e+00 1.139662742614746094e+00 4.979070425033569336e-01
4.594000000000000000e+03 4.675918197631835938e+01 -1.472308826446533203e+01 1.503165811300277710e-01 2.246368408203125000e+00 7.190055251121520996e-01 -2.469452796503901482e-03
4.595000000000000000e+03 5.121411132812500000e+01 -1.087629222869873047e+01 1.756439208984375000e-01 3.057258129119873047e+00 9.698706269264221191e-01 6.751608103513717651e-02
4.596000000000000000e+03 4.843935394287109375e+01 5.757205486297607422e+00 3.497800827026367188e-01 1.994295597076416016e+00 7.032226920127868652e-01 7.621357589960098267e-02
4.597000000000000000e+03 4.414556121826171875e+01 -7.955555915832519531e+00 2.047736048698425293e-01 1.680843591690063477e+00 5.656851530075073242e-01 -5.081924051046371460e-02
4.598000000000000000e+03 4.563520812988281250e+01 -5.819878101348876953e+00 2.288171499967575073e-01 1.879398941993713379e+00 6.324648261070251465e-01 -3.420578688383102417e-02
4.599000000000000000e+03 6.156667327880859375e+01 2.073267364501953125e+01 -3.650949597358703613e-01 5.771380901336669922e+00 1.621885776519775391e+00 1.993156909942626953e+00
4.600000000000000000e+03 4.870613479614257812e+01 1.089792823791503906e+01 3.933891057968139648e-01 1.716116547584533691e+00 6.328517198562622070e-01 1.077500134706497192e-01
4.601000000000000000e+03 4.952556610107421875e+01 7.582686424255371094e+00 3.614249229431152344e-01 2.106058120727539062e+00 7.402449250221252441e-01 1.505714207887649536e-01
4.602000000000000000e+03 5.463656997680664062e+01 9.906058311462402344e+00 2.702835202217102051e-01 3.135975122451782227e+00 1.021877646446228027e+00 5.232970118522644043e-01
4.603000000000000000e+03 5.511190414428710938e+01 8.045759201049804688e+00 2.275309264659881592e-01 3.347323656082153320e+00 1.072456359863281250e+00 4.752259552478790283e-01
4.604000000000000000e+03 5.259248352050781250e+01 1.068623161315917969e+01 3.456538915634155273e-01 2.544682502746582031e+00 8.671008944511413574e-01 4.158398211002349854e-01
4.605000000000000000e+03 5.277057647705078125e+01 7.220735549926757812e+00 3.083945810794830322e-01 2.819263458251953125e+00 9.382973909378051758e-01 3.353800773620605469e-01
4.606000000000000000e+03 5.295246887207031250e+01 9.061887741088867188e+00 3.183008134365081787e-01 2.764007806777954102e+00 9.246925711631774902e-01 3.976761996746063232e-01
4.607000000000000000e+03 5.216055679321289062e+01 9.734169960021972656e+00 3.436153531074523926e-01 2.540161609649658203e+00 8.651330471038818359e-01 3.584709763526916504e-01
4.608000000000000000e+03 5.309137344360351562e+01 3.610655784606933594e+00 2.719867229461669922e-01 3.055156469345092773e+00 9.981429576873779297e-01 2.611674368381500244e-01
4.609000000000000000e+03 5.033612442016601562e+01 3.430770874023437500e+00 3.103723526000976562e-01 2.479942560195922852e+00 8.370944857597351074e-01 1.500906646251678467e-01
4.610000000000000000e+03 5.548325347900390625e+01 8.794269561767578125e+00 2.259923964738845825e-01 3.434378862380981445e+00 1.098111391067504883e+00 5.279274582862854004e-01
4.611000000000000000e+03 4.744521713256835938e+01 3.231627702713012695e+00 3.288947641849517822e-01 1.936046719551086426e+00 6.794824600219726562e-01 2.057041972875595093e-02
4.612000000000000000e+03 4.679071044921875000e+01 2.005904674530029297e+00 3.179283738136291504e-01 1.860021829605102539e+00 6.533850431442260742e-01 -1.062215026468038559e-02
4.613000000000000000e+03 5.144852828979492188e+01 2.872174263000488281e+00 2.893946468830108643e-01 2.731380462646484375e+00 9.062325358390808105e-01 1.915511339902877808e-01
4.614000000000000000e+03 5.029420471191406250e+01 1.305384933948516846e-02 2.734726369380950928e-01 2.615476608276367188e+00 8.666847348213195801e-01 1.141028329730033875e-01
4.615000000000000000e+03 5.096051406860351562e+01 4.852350711822509766e+00 3.193330466747283936e-01 2.546694040298461914e+00 8.598081469535827637e-01 1.977058947086334229e-01
4.616000000000000000e+03 4.789916992187500000e+01 1.285105586051940918e+00 2.996716797351837158e-01 2.097033500671386719e+00 7.190115451812744141e-01 2.821659483015537262e-02
4.617000000000000000e+03 5.015887451171875000e+01 -5.686358451843261719e+00 2.155334651470184326e-01 2.745073080062866211e+00 8.881819248199462891e-01 7.649095356464385986e-02
4.618000000000000000e+03 5.388864135742187500e+01 -3.756973743438720703e+00 2.032920569181442261e-01 3.418445348739624023e+00 1.086521148681640625e+00 1.621781587600708008e-01
4.619000000000000000e+03 4.293817901611328125e+01 -3.589093446731567383e+00 2.266311645507812500e-01 1.356877684593200684e+00 4.750526547431945801e-01 -1.126180589199066162e-01
4.620000000000000000e+03 4.755039596557617188e+01 -2.312762022018432617e+00 2.647362649440765381e-01 2.154258251190185547e+00 7.256983518600463867e-01 9.871636517345905304e-03
4.621000000000000000e+03 4.785102844238281250e+01 -6.270411014556884766e+00 2.221107929944992065e-01 2.312716007232666016e+00 7.604480385780334473e-01 1.742120087146759033e-02
4.622000000000000000e+03 4.883897399902343750e+01 8.409950256347656250e+00 3.810996115207672119e-01 1.908738970756530762e+00 6.869515776634216309e-01 1.125681921839714050e-01
4.623000000000000000e+03 5.257724380493164062e+01 -1.899143981933593750e+01 1.083218008279800415e-01 3.403249025344848633e+00 1.053471207618713379e+00 6.541923433542251587e-02
4.624000000000000000e+03 5.035484313964843750e+01 -1.811310195922851562e+01 1.068889200687408447e-01 2.959336996078491211e+00 9.198678135871887207e-01 3.363628685474395752e-02
4.625000000000000000e+03 5.358596420288085938e+01 1.021655654907226562e+01 3.093234896659851074e-01 2.853081226348876953e+00 9.487214088439941406e-01 4.797843098640441895e-01
4.626000000000000000e+03 5.179699325561523438e+01 6.142965316772460938e+00 3.185755908489227295e-01 2.659644842147827148e+00 8.934661149978637695e-01 2.565035521984100342e-01
4.627000000000000000e+03 5.135157012939453125e+01 8.946338653564453125e+00 3.572977185249328613e-01 2.404946804046630859e+00 8.286733031272888184e-01 2.890851497650146484e-01
4.628000000000000000e+03 4.980780792236328125e+01 9.133173942565917969e+00 3.836806714534759521e-01 2.048982143402099609e+00 7.297988533973693848e-01 1.856545060873031616e-01
4.629000000000000000e+03 5.274200820922851562e+01 5.384742259979248047e+00 2.909187674522399902e-01 2.907885074615478516e+00 9.596411585807800293e-01 2.845588326454162598e-01
4.630000000000000000e+03 4.992803955078125000e+01 6.616884708404541016e+00 3.521466851234436035e-01 2.258422613143920898e+00 7.831707596778869629e-01 1.673557907342910767e-01
4.631000000000000000e+03 4.908238220214843750e+01 6.028689742088317871e-01 2.871174514293670654e-01 2.351845979690551758e+00 7.916889786720275879e-01 7.561792433261871338e-02
4.632000000000000000e+03 4.708488464355468750e+01 -4.967169284820556641e+00 2.312254160642623901e-01 2.145334482192993164e+00 7.129679918289184570e-01 7.422670256346464157e-03
4.633000000000000000e+03 4.430102920532226562e+01 -2.954526901245117188e+00 2.466937154531478882e-01 1.571089148521423340e+00 5.453348755836486816e-01 -7.187331467866897583e-02
4.634000000000000000e+03 4.877658462524414062e+01 -1.032890224456787109e+01 1.846325844526290894e-01 2.562397003173828125e+00 8.241088986396789551e-01 2.684453502297401428e-02
4.635000000000000000e+03 4.711405181884765625e+01 -1.261711679399013519e-02 2.867388725280761719e-01 1.992798447608947754e+00 6.838611960411071777e-01 -6.418330594897270203e-03
4.636000000000000000e+03 4.914262390136718750e+01 -7.428512573242187500e+00 2.067951858043670654e-01 2.584962129592895508e+00 8.375271558761596680e-01 4.266672953963279724e-02
4.637000000000000000e+03 5.029699707031250000e+01 -9.034297943115234375e+00 1.938368082046508789e-01 2.842671394348144531e+00 9.109524488449096680e-01 6.468804180622100830e-02
4.638000000000000000e+03 5.369421386718750000e+01 8.208220481872558594e+00 2.866857647895812988e-01 2.999135971069335938e+00 9.857465028762817383e-01 4.181477129459381104e-01
4.639000000000000000e+03 5.103493499755859375e+01 7.132709980010986328e+00 3.375800848007202148e-01 2.442723274230957031e+00 8.340910077095031738e-01 2.358632832765579224e-01
4.640000000000000000e+03 5.346062088012695312e+01 -8.122369766235351562e+00 1.798531562089920044e-01 3.415154933929443359e+00 1.078502416610717773e+00 1.257098317146301270e-01
4.641000000000000000e+03 5.091797256469726562e+01 -1.361374378204345703e+01 1.571101397275924683e-01 3.037967205047607422e+00 9.585231542587280273e-01 5.285800993442535400e-02
4.642000000000000000e+03 5.469434356689453125e+01 -1.068643665313720703e+01 1.548260003328323364e-01 3.688121080398559570e+00 1.152884125709533691e+00 1.169568076729774475e-01
4.643000000000000000e+03 5.466531372070312500e+01 -8.608718872070312500e+00 1.689933240413665771e-01 3.678750038146972656e+00 1.154322981834411621e+00 1.356502920389175415e-01
4.644000000000000000e+03 5.379430007934570312e+01 -9.449267387390136719e+00 1.711119562387466431e-01 3.491135358810424805e+00 1.098674178123474121e+00 1.195506975054740906e-01
4.645000000000000000e+03 5.221693801879882812e+01 -1.254414463043212891e+01 1.589637100696563721e-01 3.255792140960693359e+00 1.024426817893981934e+00 8.176755160093307495e-02
4.646000000000000000e+03 5.328878784179687500e+01 -1.416073417663574219e+01 1.413644552230834961e-01 3.440412759780883789e+00 1.074533104896545410e+00 8.197422325611114502e-02
4.647000000000000000e+03 4.963439178466796875e+01 -1.498040390014648438e+01 1.509305834770202637e-01 2.799645185470581055e+00 8.851727247238159180e-01 3.740190342068672180e-02
4.648000000000000000e+03 5.694572830200195312e+01 -1.071499633789062500e+01 1.358159631490707397e-01 4.157016277313232422e+00 1.287849664688110352e+00 1.353746205568313599e-01
4.649000000000000000e+03 4.715909957885742188e+01 -1.903320121765136719e+01 1.126518771052360535e-01 2.363927841186523438e+00 7.429738640785217285e-01 -3.056949703022837639e-03
4.650000000000000000e+03 6.498873901367187500e+01 -2.914430427551269531e+01 3.289653733372688293e-02 5.798847675323486328e+00 1.749523282051086426e+00 6.156354025006294250e-02
4.651000000000000000e+03 6.625661468505859375e+01 -3.336225128173828125e+01 1.699929498136043549e-02 5.964001655578613281e+00 1.794300198554992676e+00 4.139163717627525330e-02
4.652000000000000000e+03 5.436017227172851562e+01 -1.596584796905517578e+01 1.200352907180786133e-01 3.687755107879638672e+00 1.142337083816528320e+00 8.116801083087921143e-02
4.653000000000000000e+03 3.354817199707031250e+01 -3.031157493591308594e+01 4.064850881695747375e-02 2.625425532460212708e-02 2.007083036005496979e-02 -2.272571995854377747e-02
4.654000000000000000e+03 2.645551681518554688e+01 -3.416422653198242188e+01 -3.906424716114997864e-02 -1.275044083595275879e+00 -3.942324817180633545e-01 3.135252743959426880e-02
4.655000000000000000e+03 2.304424095153808594e+01 -3.507096099853515625e+01 -1.297514736652374268e-01 -1.725055575370788574e+00 -5.564421415328979492e-01 -6.871073693037033081e-02
4.656000000000000000e+03 5.603613281250000000e+01 3.936064529418945312e+01 7.410547137260437012e-01 1.318314433097839355e+00 6.178107261657714844e-01 -3.149714767932891846e-01
4.657000000000000000e+03 4.067127990722656250e+01 -1.472068691253662109e+01 1.272913217544555664e-01 1.151993036270141602e+00 3.837853074073791504e-01 -6.875319778919219971e-02
4.658000000000000000e+03 3.802062225341796875e+01 -1.426111221313476562e+01 1.049267128109931946e-01 6.701274514198303223e-01 2.325162589550018311e-01 -9.456624835729598999e-02
4.659000000000000000e+03 5.936019897460937500e+01 -1.063420963287353516e+01 1.188406720757484436e-01 4.631679534912109375e+00 1.425156116485595703e+00 1.529738157987594604e-01
4.660000000000000000e+03 8.053698539733886719e+00 -4.139099502563476562e+01 -2.866540476679801941e-02 6.752939429134130478e-03 -6.573739461600780487e-03 1.354012079536914825e-02
4.661000000000000000e+03 3.690300750732421875e+01 -8.170187950134277344e+00 1.404702514410018921e-01 4.367473125457763672e-01 1.731652617454528809e-01 -1.615946441888809204e-01
4.662000000000000000e+03 2.452049636840820312e+01 -3.294812011718750000e+01 -1.412969082593917847e-01 -1.562964320182800293e+00 -5.112783908843994141e-01 -6.458879262208938599e-02
4.663000000000000000e+03 5.576237106323242188e+01 -1.195331192016601562e+01 1.390897482633590698e-01 3.928189516067504883e+00 1.220183730125427246e+00 1.196417137980461121e-01
4.664000000000000000e+03 4.023017501831054688e+01 -1.747187805175781250e+01 9.243053197860717773e-02 1.074531912803649902e+00 3.500887155532836914e-01 -5.483537167310714722e-02
4.665000000000000000e+03 3.782524871826171875e+01 -2.142692756652832031e+01 9.160268306732177734e-02 7.094647288322448730e-01 2.403202205896377563e-01 -4.742074385285377502e-02
4.666000000000000000e+03 3.551928710937500000e+01 -1.994103431701660156e+01 7.420254498720169067e-02 2.725629210472106934e-01 1.040296405553817749e-01 -7.686796039342880249e-02
4.667000000000000000e+03 6.969346618652343750e+01 -3.404523086547851562e+01 -9.468271309742704034e-05 6.629747390747070312e+00 1.988895773887634277e+00 2.267552725970745087e-02
4.668000000000000000e+03 6.156369400024414062e+01 -2.827061653137207031e+01 4.454397782683372498e-02 5.065243721008300781e+00 1.532936334609985352e+00 4.145732894539833069e-02
4.669000000000000000e+03 6.598358154296875000e+01 3.956459808349609375e+01 -1.654359817504882812e+00 1.005908679962158203e+01 2.521418094635009766e+00 -1.813216060400009155e-01
4.670000000000000000e+03 3.995792770385742188e+01 -2.061230850219726562e+01 9.574979543685913086e-02 1.104650974273681641e+00 3.601202070713043213e-01 -4.144147783517837524e-02
4.671000000000000000e+03 4.287180328369140625e+01 -1.742536926269531250e+01 1.188833341002464294e-01 1.570442318916320801e+00 5.067976713180541992e-01 -3.368288651108741760e-02
4.672000000000000000e+03 4.302129745483398438e+01 -1.568986892700195312e+01 1.323833465576171875e-01 1.586730957031250000e+00 5.157342553138732910e-01 -4.659404605627059937e-02
4.673000000000000000e+03 6.146599578857421875e+01 -3.667008590698242188e+01 4.558155313134193420e-02 5.118402957916259766e+00 1.549195408821105957e+00 1.943303085863590240e-02
4.674000000000000000e+03 5.673869705200195312e+01 -3.668935394287109375e+01 6.007798388600349426e-02 4.224578857421875000e+00 1.285397052764892578e+00 1.802184805274009705e-02
4.675000000000000000e+03 2.731090354919433594e+01 -4.080539321899414062e+01 1.752763837575912476e-01 -1.096884131431579590e+00 -2.764823436737060547e-01 2.138846181333065033e-02
4.676000000000000000e+03 4.213179016113281250e+01 -3.696041870117187500e+01 7.307651638984680176e-02 1.511938691139221191e+00 4.755045473575592041e-01 1.923591829836368561e-03
4.677000000000000000e+03 3.751112365722656250e+01 -3.711762237548828125e+01 8.840930461883544922e-02 7.158295512199401855e-01 2.412716597318649292e-01 -2.166975056752562523e-03
4.678000000000000000e+03 6.607324218750000000e+01 -3.691654586791992188e+01 3.462916985154151917e-02 5.954815864562988281e+00 1.796833515167236328e+00 1.893122680485248566e-02
4.679000000000000000e+03 7.153884887695312500e+01 -4.076047134399414062e+01 1.484385505318641663e-02 6.982163429260253906e+00 2.099102020263671875e+00 -2.540076849982142448e-03
4.680000000000000000e+03 7.868240833282470703e+00 4.135786056518554688e+01 1.010322012007236481e-05 -5.001737736165523529e-05 -1.197424717247486115e-05 -2.219785674242302775e-04
4.681000000000000000e+03 4.484545135498046875e+01 -1.803853225708007812e+01 1.245240122079849243e-01 1.937199473381042480e+00 6.185170412063598633e-01 -1.466248277574777603e-02
4.682000000000000000e+03 2.914097976684570312e+01 -3.583048629760742188e+01 4.998043552041053772e-02 -7.873657345771789551e-01 -2.212155759334564209e-01 8.231422863900661469e-03
4.683000000000000000e+03 3.748149871826171875e+01 -3.343382263183593750e+01 6.645689904689788818e-02 7.019066214561462402e-01 2.305090576410293579e-01 2.849765820428729057e-03
4.684000000000000000e+03 4.830634307861328125e+01 -1.670739364624023438e+01 1.325452476739883423e-01 2.546796321868896484e+00 8.038024902343750000e-01 1.693567074835300446e-02
4.685000000000000000e+03 4.950209045410156250e+01 -2.043909072875976562e+01 1.202555149793624878e-01 2.840094566345214844e+00 8.881049752235412598e-01 2.780660614371299744e-02
4.686000000000000000e+03 6.327976989746093750e+01 -3.126613807678222656e+01 4.490818455815315247e-02 5.441823482513427734e+00 1.646019458770751953e+00 3.307414427399635315e-02
4.687000000000000000e+03 5.418762588500976562e+01 -2.252296257019042969e+01 9.149721264839172363e-02 3.709439516067504883e+00 1.140280961990356445e+00 6.476018577814102173e-02
4.688000000000000000e+03 5.619202423095703125e+01 -2.604934883117675781e+01 8.158624917268753052e-02 4.093978881835937500e+00 1.252669453620910645e+00 6.896965950727462769e-02
4.689000000000000000e+03 3.838315200805664062e+01 -2.365917205810546875e+01 7.404762506484985352e-02 7.980616092681884766e-01 2.616327702999114990e-01 -4.159842059016227722e-02
4.690000000000000000e+03 5.186301422119140625e+01 -2.159930419921875000e+01 1.146278679370880127e-01 3.295943737030029297e+00 1.023171424865722656e+00 4.226892068982124329e-02
4.691000000000000000e+03 3.880575180053710938e+01 -2.618182945251464844e+01 6.732272356748580933e-02 9.020826220512390137e-01 2.908216118812561035e-01 -3.345783054828643799e-02
4.692000000000000000e+03 4.387155532836914062e+01 -2.052284431457519531e+01 1.131981015205383301e-01 1.758329153060913086e+00 5.614581704139709473e-01 -1.619021780788898468e-02
4.693000000000000000e+03 4.624474334716796875e+01 -2.164057540893554688e+01 1.182439178228378296e-01 2.219366788864135742e+00 7.012832164764404297e-01 -1.530333328992128372e-02
4.694000000000000000e+03 5.363912200927734375e+01 -2.543412399291992188e+01 9.568078070878982544e-02 3.646446704864501953e+00 1.122638225555419922e+00 4.941862449049949646e-02
4.695000000000000000e+03 4.744226455688476562e+01 -2.570067405700683594e+01 1.010896340012550354e-01 2.448808670043945312e+00 7.649694681167602539e-01 -1.131037902086973190e-02
4.696000000000000000e+03 3.684970474243164062e+01 -2.982668113708496094e+01 7.420066744089126587e-02 5.815041661262512207e-01 1.967114359140396118e-01 -6.064004264771938324e-03
4.697000000000000000e+03 4.115427398681640625e+01 -2.559727287292480469e+01 7.114516943693161011e-02 1.378813982009887695e+00 4.349877536296844482e-01 -1.487559266388416290e-02
4.698000000000000000e+03 4.315583038330078125e+01 -2.291062355041503906e+01 9.045439213514328003e-02 1.666036009788513184e+00 5.269471406936645508e-01 -4.435908515006303787e-03
4.699000000000000000e+03 4.578998184204101562e+01 -3.271297836303710938e+01 8.594609051942825317e-02 2.230741739273071289e+00 6.950063109397888184e-01 1.227606087923049927e-02
4.700000000000000000e+03 4.859053421020507812e+01 -2.304138374328613281e+01 1.106299087405204773e-01 2.688332796096801758e+00 8.396888375282287598e-01 1.717777363955974579e-02
4.701000000000000000e+03 4.165488052368164062e+01 -2.790633964538574219e+01 8.836986869573593140e-02 1.469024538993835449e+00 4.672183096408843994e-01 2.768095582723617554e-02
4.702000000000000000e+03 4.352212524414062500e+01 -2.522661018371582031e+01 9.693844616413116455e-02 1.746560215950012207e+00 5.530496239662170410e-01 1.724827289581298828e-02
4.703000000000000000e+03 4.524177932739257812e+01 -2.398223114013671875e+01 1.105135828256607056e-01 2.029659986495971680e+00 6.420521140098571777e-01 4.112187307327985764e-03
4.704000000000000000e+03 5.619697189331054688e+01 -2.926325607299804688e+01 6.896058470010757446e-02 4.111364841461181641e+00 1.254097580909729004e+00 3.678363189101219177e-02
4.705000000000000000e+03 5.914255142211914062e+01 -2.914577102661132812e+01 4.946244508028030396e-02 4.652080535888671875e+00 1.410462975502014160e+00 5.212133377790451050e-02
4.706000000000000000e+03 4.397515487670898438e+01 -2.752753067016601562e+01 8.569539338350296021e-02 1.795258045196533203e+00 5.642860531806945801e-01 5.380113609135150909e-03
4.707000000000000000e+03 5.638066101074218750e+01 -3.285784912109375000e+01 6.308749318122863770e-02 4.159862995147705078e+00 1.266885161399841309e+00 1.856890507042407990e-02
4.708000000000000000e+03 5.010297393798828125e+01 -2.735898780822753906e+01 9.420879185199737549e-02 3.020361185073852539e+00 9.343709945678710938e-01 1.791675947606563568e-02
4.709000000000000000e+03 5.187712097167968750e+01 -3.637010192871093750e+01 7.173638045787811279e-02 3.305235624313354492e+00 1.013091564178466797e+00 1.384070701897144318e-02
4.710000000000000000e+03 4.441905212402343750e+01 -2.986901664733886719e+01 6.882116943597793579e-02 1.925520658493041992e+00 5.983025431632995605e-01 -2.302103443071246147e-03
4.711000000000000000e+03 5.110523223876953125e+01 -1.626349449157714844e+01 1.312273591756820679e-01 3.075972795486450195e+00 9.621600508689880371e-01 4.311562329530715942e-02
4.712000000000000000e+03 5.304452896118164062e+01 -2.864879798889160156e+01 8.750117570161819458e-02 3.526571989059448242e+00 1.084221959114074707e+00 4.512101411819458008e-02
4.713000000000000000e+03 4.623114013671875000e+01 -2.824736785888671875e+01 7.275921851396560669e-02 2.206126928329467773e+00 6.836658716201782227e-01 9.305653162300586700e-03
4.714000000000000000e+03 5.219810104370117188e+01 -3.228921127319335938e+01 7.931667566299438477e-02 3.350493907928466797e+00 1.028943181037902832e+00 3.227751702070236206e-02
4.715000000000000000e+03 6.193889999389648438e+01 3.302192687988281250e+01 1.683544874191284180e+00 3.810207128524780273e+00 1.648125648498535156e+00 -3.621538400650024414e+00
4.716000000000000000e+03 6.282368850708007812e+01 3.259950637817382812e+01 2.365676879882812500e+00 6.763283729553222656e+00 2.738687992095947266e+00 -5.598520755767822266e+00
4.717000000000000000e+03 6.359346008300781250e+01 3.316455078125000000e+01 3.464882373809814453e-01 1.321188640594482422e+01 4.067512512207031250e+00 -4.939534187316894531e+00
4.718000000000000000e+03 6.412506866455078125e+01 3.303627395629882812e+01 -1.699075847864151001e-01 1.643655776977539062e+01 4.879995346069335938e+00 -3.449715614318847656e+00
4.719000000000000000e+03 6.531650543212890625e+01 3.249441909790039062e+01 2.892176151275634766e+00 1.850484466552734375e+01 6.419106006622314453e+00 1.919390916824340820e+00
4.720000000000000000e+03 4.235371780395507812e+01 3.536861419677734375e+01 -1.239327788352966309e-01 -5.850123986601829529e-02 -5.473020672798156738e-02 1.247824206948280334e-01
4.721000000000000000e+03 3.870671844482421875e+01 3.637233352661132812e+01 -2.108616568148136139e-02 -5.491231009364128113e-02 -2.279954217374324799e-02 5.727718025445938110e-02
4.722000000000000000e+03 3.262499618530273438e+01 3.695958709716796875e+01 2.585262991487979889e-03 -1.100107911042869091e-03 4.455464950297027826e-04 2.124998718500137329e-03
4.723000000000000000e+03 6.359527587890625000e+01 2.882488822937011719e+01 5.735917091369628906e-01 1.355238246917724609e+01 4.237792491912841797e+00 5.657255172729492188e+00
4.724000000000000000e+03 6.256826019287109375e+01 2.903414344787597656e+01 2.178620100021362305e+00 5.889388084411621094e+00 2.420402526855468750e+00 5.563651084899902344e+00
4.725000000000000000e+03 6.280577087402343750e+01 2.868809509277343750e+01 1.560176849365234375e+00 7.954089164733886719e+00 2.854279756546020508e+00 5.769236564636230469e+00
4.726000000000000000e+03 6.239300155639648438e+01 2.916924476623535156e+01 2.339457988739013672e+00 4.515406131744384766e+00 2.056459188461303711e+00 5.068998813629150391e+00
4.727000000000000000e+03 6.190443420410156250e+01 2.932357597351074219e+01 1.731026768684387207e+00 2.364348649978637695e+00 1.228612661361694336e+00 3.551118612289428711e+00
4.728000000000000000e+03 6.193682479858398438e+01 2.885424995422363281e+01 1.768707036972045898e+00 3.580624818801879883e+00 1.604799509048461914e+00 4.199904441833496094e+00
4.729000000000000000e+03 6.179341888427734375e+01 2.910841560363769531e+01 1.684905529022216797e+00 2.502783298492431641e+00 1.256306648254394531e+00 3.621999263763427734e+00
4.730000000000000000e+03 6.156933212280273438e+01 2.900222778320312500e+01 1.425164103507995605e+00 2.210893630981445312e+00 1.090817332267761230e+00 3.274081945419311523e+00
4.731000000000000000e+03 6.083347702026367188e+01 2.928371429443359375e+01 1.073467507958412170e-01 7.833871245384216309e-01 2.672201693058013916e-01 1.772294402122497559e+00
4.732000000000000000e+03 6.443612670898437500e+01 2.890352821350097656e+01 1.635843962430953979e-01 1.789881515502929688e+01 5.418719768524169922e+00 2.410425424575805664e+00
4.733000000000000000e+03 6.435633087158203125e+01 2.927593803405761719e+01 6.117280125617980957e-01 1.982153701782226562e+01 6.129979610443115234e+00 2.490028381347656250e+00
4.734000000000000000e+03 6.499595642089843750e+01 2.889151000976562500e+01 9.659356474876403809e-01 1.776441001892089844e+01 5.619103908538818359e+00 1.579488813877105713e-01
4.735000000000000000e+03 6.515157318115234375e+01 2.937163734436035156e+01 2.884980678558349609e+00 1.868812561035156250e+01 6.471931457519531250e+00 -1.242883324623107910e+00
4.736000000000000000e+03 6.493227386474609375e+01 2.960666275024414062e+01 3.273746490478515625e+00 2.015136909484863281e+01 7.027534484863281250e+00 -1.309272050857543945e+00
4.737000000000000000e+03 6.573898315429687500e+01 2.992954063415527344e+01 6.272621154785156250e+00 1.623148918151855469e+01 6.751233100891113281e+00 -2.173131227493286133e+00
4.738000000000000000e+03 6.613049316406250000e+01 2.973169136047363281e+01 5.328491687774658203e+00 1.500693035125732422e+01 6.100626468658447266e+00 -2.011191129684448242e+00
4.739000000000000000e+03 6.549606323242187500e+01 3.138164138793945312e+01 8.989785194396972656e+00 1.682026863098144531e+01 7.743016242980957031e+00 2.034032583236694336e+00
4.740000000000000000e+03 6.552439117431640625e+01 3.075739669799804688e+01 9.962471961975097656e+00 1.632429695129394531e+01 7.886030673980712891e+00 -4.175229072570800781e-01
4.741000000000000000e+03 6.570614624023437500e+01 3.106810760498046875e+01 9.300016403198242188e+00 1.580612373352050781e+01 7.531842231750488281e+00 8.274859189987182617e-01
4.742000000000000000e+03 1.268870711326599121e+00 2.711728096008300781e+00 -1.192393665405688807e-05 1.707097544567659497e-05 1.544111682960647158e-06 2.198488118665409274e-06
4.743000000000000000e+03 2.143672370910644531e+01 -3.494531631469726562e+01 -2.506110966205596924e-01 -2.297113180160522461e+00 -7.643172740936279297e-01 -2.299808561801910400e-01
4.744000000000000000e+03 5.980331420898437500e+01 4.053948974609375000e+01 1.299690902233123779e-01 4.402835845947265625e+00 1.359841465950012207e+00 -4.468466341495513916e-01
4.745000000000000000e+03 2.348400688171386719e+01 -3.768140792846679688e+01 5.447886511683464050e-02 -1.653262853622436523e+00 -4.796352088451385498e-01 4.286228492856025696e-02
4.746000000000000000e+03 2.652652549743652344e+01 -3.790169525146484375e+01 9.635082632303237915e-02 -1.179917097091674805e+00 -3.250698745250701904e-01 1.126504391431808472e-01
4.747000000000000000e+03 1.295087623596191406e+01 2.344928264617919922e+00 1.030157136483467184e-06 -2.935179873020388186e-05 -8.496493137499783188e-06 -6.827052402513800189e-06
4.748000000000000000e+03 3.912287473678588867e+00 -3.588846969604492188e+01 1.546038780361413956e-03 5.374738480895757675e-03 2.076233271509408951e-03 9.594838134944438934e-03
4.749000000000000000e+03 6.595603942871093750e+01 3.064155006408691406e+01 8.469120979309082031e+00 1.494298648834228516e+01 7.023632526397705078e+00 -6.709392070770263672e-01
4.750000000000000000e+03 1.050033569335937500e+01 -3.644642639160156250e+01 4.927304759621620178e-02 -2.585574984550476074e-02 7.025188766419887543e-03 -4.309908021241426468e-03
4.751000000000000000e+03 6.556402587890625000e+01 2.900961112976074219e+01 2.284188270568847656e+00 1.678746223449707031e+01 5.721495151519775391e+00 -1.335966944694519043e+00
4.752000000000000000e+03 6.445637512207031250e+01 2.853906059265136719e+01 -2.077150493860244751e-01 1.642606163024902344e+01 4.865504264831542969e+00 2.539871454238891602e+00
4.753000000000000000e+03 6.379345703125000000e+01 2.868044281005859375e+01 2.024103254079818726e-01 1.449517536163330078e+01 4.409275531768798828e+00 4.988401412963867188e+00
4.754000000000000000e+03 6.609006500244140625e+01 3.045654678344726562e+01 7.649590492248535156e+00 1.461645984649658203e+01 6.679814815521240234e+00 -1.063540697097778320e+00
4.755000000000000000e+03 6.619651794433593750e+01 3.022600173950195312e+01 6.761245250701904297e+00 1.445581245422363281e+01 6.365117073059082031e+00 -1.414044737815856934e+00
4.756000000000000000e+03 6.366691207885742188e+01 2.833470535278320312e+01 6.803476810455322266e-02 1.279511928558349609e+01 3.858946323394775391e+00 4.910454750061035156e+00
4.757000000000000000e+03 6.323908233642578125e+01 2.879022026062011719e+01 1.188551306724548340e+00 1.083231353759765625e+01 3.606259584426879883e+00 6.102178573608398438e+00
4.758000000000000000e+03 3.725849914550781250e+01 3.916847229003906250e+01 2.457947470247745514e-03 -5.592823028564453125e-02 -1.604108512401580811e-02 4.852060228586196899e-02
4.759000000000000000e+03 4.899168014526367188e+01 3.630899047851562500e+01 -9.359229356050491333e-02 -2.345851808786392212e-01 -9.845323860645294189e-02 3.826023042201995850e-01
4.760000000000000000e+03 5.119447326660156250e+01 3.482894134521484375e+01 -4.541042149066925049e-01 -9.274403750896453857e-02 -1.640544831752777100e-01 4.453392326831817627e-01
4.761000000000000000e+03 6.158631515502929688e+01 3.359984970092773438e+01 1.345114231109619141e+00 3.734129667282104492e+00 1.523773193359375000e+00 -3.241082429885864258e+00
4.762000000000000000e+03 1.821690750122070312e+01 3.921238708496093750e+01 2.367580542340874672e-03 3.814615774899721146e-04 8.247126243077218533e-04 2.224703202955424786e-04
4.763000000000000000e+03 5.963073730468750000e+01 3.799348449707031250e+01 4.392803013324737549e-01 3.662307262420654297e+00 1.230476260185241699e+00 -1.073191046714782715e+00
4.764000000000000000e+03 1.050625801086425781e+01 -2.074441719055175781e+01 1.380898174829781055e-04 -7.225152803584933281e-04 -1.753276446834206581e-04 -1.908609265228733420e-04
4.765000000000000000e+03 5.163311767578125000e+01 3.790853500366210938e+01 4.151412248611450195e-01 -3.258139127865433693e-03 1.235649213194847107e-01 3.799364864826202393e-01
4.766000000000000000e+03 6.615905761718750000e+01 3.168731307983398438e+01 6.448490619659423828e+00 1.470674896240234375e+01 6.346571922302246094e+00 1.860743761062622070e+00
4.767000000000000000e+03 1.914982604980468750e+01 3.858792114257812500e+01 -1.321880030445754528e-03 -9.372168278787285089e-05 -4.246805037837475538e-04 7.875115989008918405e-05
4.768000000000000000e+03 6.526357269287109375e+01 3.221517562866210938e+01 3.857637643814086914e+00 1.879619789123535156e+01 6.796150684356689453e+00 2.258171796798706055e+00
4.769000000000000000e+03 6.659218597412109375e+01 3.162318992614746094e+01 6.137647151947021484e+00 1.358197021484375000e+01 5.915885448455810547e+00 1.483997583389282227e+00
4.770000000000000000e+03 6.607028198242187500e+01 3.097348976135253906e+01 8.078178405761718750e+00 1.455498695373535156e+01 6.789949893951416016e+00 3.349651098251342773e-01
4.771000000000000000e+03 6.075778961181640625e+01 2.884535980224609375e+01 4.764269292354583740e-01 1.167724490165710449e+00 4.932454228401184082e-01 2.214411497116088867e+00
4.772000000000000000e+03 1.394997215270996094e+01 3.526182174682617188e+01 2.104493032675236464e-04 5.705519652110524476e-05 8.025134593481197953e-05 -1.028187980409711599e-04
4.773000000000000000e+03 6.219212722778320312e+01 2.902565383911132812e+01 2.048327445983886719e+00 4.021698951721191406e+00 1.821007966995239258e+00 4.677592754364013672e+00
4.774000000000000000e+03 6.632370758056640625e+01 3.057265090942382812e+01 7.448880672454833984e+00 1.400363349914550781e+01 6.435754299163818359e+00 -7.358653545379638672e-01
4.775000000000000000e+03 1.014720153808593750e+01 3.513977050781250000e+01 -5.692431586794555187e-04 7.490561256418004632e-05 -1.483012601966038346e-04 -1.337862195214256644e-04
4.776000000000000000e+03 6.208986663818359375e+01 2.858042144775390625e+01 1.679507613182067871e+00 4.709331035614013672e+00 1.916651606559753418e+00 4.677243709564208984e+00
4.777000000000000000e+03 6.392274475097656250e+01 2.825490951538085938e+01 -2.430261671543121338e-01 1.398893260955810547e+01 4.123772144317626953e+00 4.132945537567138672e+00
4.778000000000000000e+03 6.359356307983398438e+01 2.793690299987792969e+01 -6.389378756284713745e-02 1.186427211761474609e+01 3.540113449096679688e+00 4.625126838684082031e+00
4.779000000000000000e+03 6.294830322265625000e+01 2.824231529235839844e+01 8.832309842109680176e-01 9.008538246154785156e+00 2.967530965805053711e+00 5.366212844848632812e+00
4.780000000000000000e+03 6.344862747192382812e+01 2.847291564941406250e+01 4.503882825374603271e-01 1.185536003112792969e+01 3.691724538803100586e+00 5.430553913116455078e+00
4.781000000000000000e+03 6.630488586425781250e+01 3.106599235534667969e+01 7.605826854705810547e+00 1.398600482940673828e+01 6.477549552917480469e+00 5.059621930122375488e-01
4.782000000000000000e+03 6.625298309326171875e+01 3.126912879943847656e+01 7.329253196716308594e+00 1.419274234771728516e+01 6.456598758697509766e+00 1.105512022972106934e+00
4.783000000000000000e+03 6.396437454223632812e+01 3.359859085083007812e+01 -3.793429434299468994e-01 1.407217407226562500e+01 4.107849121093750000e+00 -3.630696773529052734e+00
4.784000000000000000e+03 6.511071777343750000e+01 3.261671829223632812e+01 1.952648878097534180e+00 1.843601608276367188e+01 6.116599559783935547e+00 1.104210615158081055e+00
4.785000000000000000e+03 2.282528305053710938e+01 -2.531372261047363281e+01 1.754918694496154785e-02 -1.979235887527465820e+00 -5.885060429573059082e-01 -8.918672055006027222e-02
4.786000000000000000e+03 6.127335357666015625e+01 2.830230331420898438e+01 1.168339133262634277e+00 2.768096208572387695e+00 1.180930614471435547e+00 3.450251102447509766e+00
4.787000000000000000e+03 6.132866287231445312e+01 2.894704627990722656e+01 1.166268467903137207e+00 1.898896217346191406e+00 9.195494055747985840e-01 2.927935123443603516e+00
4.788000000000000000e+03 6.550505828857421875e+01 2.934488868713378906e+01 3.425056457519531250e+00 1.741906547546386719e+01 6.253236770629882812e+00 -1.826925039291381836e+00
4.789000000000000000e+03 6.535463714599609375e+01 2.916977500915527344e+01 2.442953586578369141e+00 1.745065879821777344e+01 5.968083858489990234e+00 -1.333530783653259277e+00
4.790000000000000000e+03 6.569444274902343750e+01 2.920455741882324219e+01 3.011932611465454102e+00 1.639311981201171875e+01 5.821516036987304688e+00 -1.679946184158325195e+00
4.791000000000000000e+03 6.413091278076171875e+01 2.781342697143554688e+01 -5.380662083625793457e-01 1.345934581756591797e+01 3.876384019851684570e+00 3.432104110717773438e+00
4.792000000000000000e+03 7.819822692871093750e+01 -3.586177062988281250e+01 -1.131249591708183289e-02 8.165867805480957031e+00 2.446366548538208008e+00 3.547754138708114624e-02
4.793000000000000000e+03 6.657953643798828125e+01 3.065576553344726562e+01 6.830652713775634766e+00 1.325496578216552734e+01 6.025685310363769531e+00 -3.904797136783599854e-01
4.794000000000000000e+03 6.592123413085937500e+01 2.904915618896484375e+01 2.854602336883544922e+00 1.558055686950683594e+01 5.530547618865966797e+00 -1.643147468566894531e+00
4.795000000000000000e+03 6.575122833251953125e+01 2.882862472534179688e+01 1.951355814933776855e+00 1.580053329467773438e+01 5.325566768646240234e+00 -1.217212200164794922e+00
4.796000000000000000e+03 6.608059692382812500e+01 2.921958541870117188e+01 3.468889474868774414e+00 1.545467185974121094e+01 5.677068233489990234e+00 -1.941338419914245605e+00
4.797000000000000000e+03 3.286775112152099609e+00 -2.984082412719726562e+01 3.402213566005229950e-03 9.208896080963313580e-04 1.296930946409702301e-03 2.654614392668008804e-03
4.798000000000000000e+03 1.112556076049804688e+01 -4.143402099609375000e+00 -8.331664139404892921e-05 -7.809733506292104721e-05 -4.842419366468675435e-05 2.124670800185413100e-06
4.799000000000000000e+03 6.658194732666015625e+01 3.139279556274414062e+01 6.538046836853027344e+00 1.345648670196533203e+01 5.998360157012939453e+00 1.102727651596069336e+00
4.800000000000000000e+03 6.587636566162109375e+01 2.797453689575195312e+01 5.221731662750244141e-01 1.461903572082519531e+01 4.542362689971923828e+00 -5.082674026489257812e-01
4.801000000000000000e+03 6.648878479003906250e+01 2.871138191223144531e+01 2.402954578399658203e+00 1.417487049102783203e+01 4.973347663879394531e+00 -1.651899099349975586e+00
4.802000000000000000e+03 6.617996215820312500e+01 2.886182403564453125e+01 2.524717807769775391e+00 1.491361713409423828e+01 5.231500625610351562e+00 -1.635937213897705078e+00
4.803000000000000000e+03 6.677765655517578125e+01 2.972815322875976562e+01 4.885161876678466797e+00 1.335776424407958984e+01 5.472877979278564453e+00 -1.649280548095703125e+00
4.804000000000000000e+03 6.589649200439453125e+01 2.761149215698242188e+01 5.373826622962951660e-02 1.407888793945312500e+01 4.239788055419921875e+00 -1.548012644052505493e-01
4.805000000000000000e+03 6.469728851318359375e+01 2.814597702026367188e+01 -3.165596127510070801e-01 1.540360832214355469e+01 4.526114463806152344e+00 1.883599400520324707e+00
4.806000000000000000e+03 6.442848968505859375e+01 2.818556594848632812e+01 -3.813992738723754883e-01 1.513141441345214844e+01 4.425004482269287109e+00 2.702920436859130859e+00
4.807000000000000000e+03 6.440673065185546875e+01 2.781874275207519531e+01 -5.829468965530395508e-01 1.405235958099365234e+01 4.040823936462402344e+00 2.711763620376586914e+00
4.808000000000000000e+03 6.498699951171875000e+01 2.760700798034667969e+01 -5.793064832687377930e-01 1.435198593139648438e+01 4.131803989410400391e+00 1.367216229438781738e+00
4.809000000000000000e+03 5.921585083007812500e+01 3.475548934936523438e+01 5.676373839378356934e-01 1.415629506111145020e+00 5.949800610542297363e-01 -1.006752490997314453e+00
4.810000000000000000e+03 4.477310180664062500e+00 -6.437570571899414062e+00 2.756923786364495754e-04 1.296114623983157799e-05 8.659605373395606875e-05 1.022303331410512328e-04
4.811000000000000000e+03 6.302379226684570312e+01 2.876689147949218750e+01 1.485289573669433594e+00 9.346874237060546875e+00 3.249649047851562500e+00 6.156528472900390625e+00
4.812000000000000000e+03 6.298385238647460938e+01 2.853552627563476562e+01 1.124852180480957031e+00 9.046994209289550781e+00 3.051553726196289062e+00 5.707655906677246094e+00
4.813000000000000000e+03 4.468063354492187500e+00 -2.932164573669433594e+01 9.911986999213695526e-04 -1.169657567515969276e-03 -5.353766755433753133e-05 3.833936643786728382e-04
4.814000000000000000e+03 6.106023311614990234e+00 -2.969640159606933594e+01 3.515448886901140213e-03 -2.504452830180525780e-03 3.032988752238452435e-04 9.618592448532581329e-04
4.815000000000000000e+03 6.667809295654296875e+01 3.104279708862304688e+01 6.714848995208740234e+00 1.308785343170166016e+01 5.940810680389404297e+00 4.341119527816772461e-01
4.816000000000000000e+03 6.418701171875000000e+01 3.405548858642578125e+01 -7.340237498283386230e-01 1.358757305145263672e+01 3.856064796447753906e+00 -2.891494750976562500e+00
4.817000000000000000e+03 6.332345199584960938e+01 3.383326339721679688e+01 1.479571759700775146e-01 1.074843406677246094e+01 3.268917560577392578e+00 -4.344828128814697266e+00
4.818000000000000000e+03 6.334949111938476562e+01 3.454050445556640625e+01 -3.067034780979156494e-01 1.037018489837646484e+01 3.019044399261474609e+00 -3.481316328048706055e+00
4.819000000000000000e+03 6.142609405517578125e+01 3.404243469238281250e+01 1.064738750457763672e+00 4.005698204040527344e+00 1.521131038665771484e+00 -3.058681488037109375e+00
4.820000000000000000e+03 6.444627380371093750e+01 2.741083717346191406e+01 -7.364185452461242676e-01 1.320221614837646484e+01 3.739739179611206055e+00 2.683037757873535156e+00
4.821000000000000000e+03 6.472515869140625000e+01 2.751053047180175781e+01 -6.620251536369323730e-01 1.383015060424804688e+01 3.950437545776367188e+00 2.016570568084716797e+00
4.822000000000000000e+03 6.033235073089599609e+00 -4.219599723815917969e+00 9.001319995149970055e-05 -1.692915247986093163e-05 2.192521424149163067e-05 3.268462751293554902e-05
4.823000000000000000e+03 6.224276351928710938e+01 2.834622001647949219e+01 1.427761316299438477e+00 5.493776798248291016e+00 2.076461553573608398e+00 4.859737873077392578e+00
4.824000000000000000e+03 8.377315521240234375e+00 3.164859390258789062e+01 3.268056025262922049e-04 -8.293110113299917430e-06 9.555374708725139499e-05 1.878286275314167142e-04
4.825000000000000000e+03 6.382015228271484375e+01 2.730119514465332031e+01 -5.436411499977111816e-01 1.165476894378662109e+01 3.333338260650634766e+00 3.678345918655395508e+00
4.826000000000000000e+03 6.723100280761718750e+01 3.201255035400390625e+01 4.706308841705322266e+00 1.258614730834960938e+01 5.187736988067626953e+00 1.532598018646240234e+00
4.827000000000000000e+03 6.662233734130859375e+01 2.898106384277343750e+01 3.135499954223632812e+00 1.393369770050048828e+01 5.120759010314941406e+00 -1.798958301544189453e+00
4.828000000000000000e+03 6.746126556396484375e+01 2.970921134948730469e+01 4.395712375640869141e+00 1.214066410064697266e+01 4.960913181304931641e+00 -1.349593043327331543e+00
4.829000000000000000e+03 6.768313598632812500e+01 2.941626167297363281e+01 3.837243318557739258e+00 1.190116596221923828e+01 4.721522808074951172e+00 -1.423927545547485352e+00
4.830000000000000000e+03 2.300705528259277344e+01 -3.237793350219726562e+01 -9.473667293787002563e-02 -1.929082155227661133e+00 -6.071456670761108398e-01 -1.085197180509567261e-01
4.831000000000000000e+03 5.719717025756835938e+01 2.713986587524414062e+01 -3.734877109527587891e-01 5.888492465019226074e-01 6.460845470428466797e-02 9.040496945381164551e-01
4.832000000000000000e+03 5.868642807006835938e+01 2.596948814392089844e+01 3.872871398925781250e-01 1.848207473754882812e+00 6.706483960151672363e-01 1.940918207168579102e+00
4.833000000000000000e+03 6.297226333618164062e+01 2.789571189880371094e+01 4.904776513576507568e-01 9.031568527221679688e+00 2.856613636016845703e+00 4.997988700866699219e+00
4.834000000000000000e+03 6.266845703125000000e+01 2.787250137329101562e+01 7.542539834976196289e-01 7.850814819335937500e+00 2.581520557403564453e+00 5.000136375427246094e+00
4.835000000000000000e+03 3.782179594039916992e+00 6.499240398406982422e+00 7.812894909875467420e-05 2.545266033848747611e-05 3.107448355876840651e-05 -3.962716800742782652e-05
4.836000000000000000e+03 6.590455627441406250e+01 2.722273063659667969e+01 -2.938727140426635742e-01 1.356304359436035156e+01 3.980751276016235352e+00 9.583437442779541016e-02
4.837000000000000000e+03 6.658670043945312500e+01 2.769260215759277344e+01 7.334735989570617676e-01 1.339653491973876953e+01 4.239002227783203125e+00 -9.958620667457580566e-01
4.838000000000000000e+03 7.230844974517822266e+00 1.653744316101074219e+01 -4.456600208868621849e-07 -6.107070657890290022e-05 -1.845490987761877477e-05 -1.958340544661041349e-05
4.839000000000000000e+03 6.555532836914062500e+01 3.465696334838867188e+01 -6.853518486022949219e-01 1.388550949096679688e+01 3.960047245025634766e+00 -2.007867991924285889e-01
4.840000000000000000e+03 6.467322540283203125e+01 3.353629302978515625e+01 -4.373487830162048340e-01 1.607234382629394531e+01 4.690498352050781250e+00 -1.570886850357055664e+00
4.841000000000000000e+03 7.226989746093750000e+01 3.136673545837402344e+01 1.664580464363098145e+00 8.456899642944335938e+00 3.036443948745727539e+00 1.573098450899124146e-01
4.842000000000000000e+03 6.604319763183593750e+01 3.473711776733398438e+01 -5.470602512359619141e-01 1.356624031066894531e+01 3.905754089355468750e+00 2.181290090084075928e-01
4.843000000000000000e+03 6.268392944335937500e+01 2.759628677368164062e+01 5.118414163589477539e-01 7.861950397491455078e+00 2.512137651443481445e+00 4.792935371398925781e+00
4.844000000000000000e+03 6.557047843933105469e+00 -2.791121482849121094e+01 1.921941991895437241e-03 -1.565711805596947670e-03 1.068690326064825058e-04 -6.280765519477427006e-04
4.845000000000000000e+03 6.670943450927734375e+01 2.831926536560058594e+01 1.757288336753845215e+00 1.361398220062255859e+01 4.611381530761718750e+00 -1.472052574157714844e+00
4.846000000000000000e+03 6.701307678222656250e+01 2.832155227661132812e+01 1.966673254966735840e+00 1.316418266296386719e+01 4.539256572723388672e+00 -1.588337779045104980e+00
4.847000000000000000e+03 9.616325378417968750e+00 1.978878211975097656e+01 -2.077009412460029125e-05 5.838598372065462172e-05 1.128476742451312020e-05 2.290972042828798294e-05
4.848000000000000000e+03 4.200794219970703125e+00 -2.461553573608398438e+01 -1.021111966110765934e-03 2.228068624390289187e-04 -2.394915354670956731e-04 -3.743906563613563776e-04
4.849000000000000000e+03 5.476793766021728516e+00 -2.338878250122070312e+01 -7.150241872295737267e-04 5.005559069104492664e-05 -1.994905760511755943e-04 -3.677077766042202711e-04
4.850000000000000000e+03 6.449774932861328125e+01 3.446375274658203125e+01 -9.609608650207519531e-01 1.347591876983642578e+01 3.754487514495849609e+00 -2.058455467224121094e+00
4.851000000000000000e+03 6.245791625976562500e+01 2.754518318176269531e+01 6.441476345062255859e-01 7.141712665557861328e+00 2.335758209228515625e+00 4.693498611450195312e+00
4.852000000000000000e+03 6.204611587524414062e+01 3.525254821777343750e+01 3.667131960391998291e-01 6.454984664916992188e+00 2.046509265899658203e+00 -3.303606748580932617e+00
4.853000000000000000e+03 4.975341320037841797e+00 5.706358909606933594e+00 1.380202884320169687e-04 -2.287993993377313018e-05 3.454210673226043582e-05 -2.605032386782113463e-05
4.854000000000000000e+03 2.640540504455566406e+01 2.777339363098144531e+01 -1.130001768469810486e-01 -1.421506553888320923e-01 -7.654524594545364380e-02 -2.379455566406250000e-01
4.855000000000000000e+03 1.031988239288330078e+01 -1.130776786804199219e+01 -3.522450861055403948e-04 -2.298174076713621616e-04 -1.746187481330707669e-04 -1.249501801794394851e-04
4.856000000000000000e+03 8.097897529602050781e+00 1.900626564025878906e+01 -8.990472269942983985e-05 -1.176435689558275044e-04 -6.226448749657720327e-05 6.099452093621948734e-06
4.857000000000000000e+03 7.908699989318847656e+00 2.012670135498046875e+01 9.470662917010486126e-05 9.901116573018953204e-05 5.811533992527984083e-05 2.632611176522914320e-05
4.858000000000000000e+03 6.615462493896484375e+01 -2.718239212036132812e+01 4.774426668882369995e-02 6.005069732666015625e+00 1.815844178199768066e+00 6.682772189378738403e-02
4.859000000000000000e+03 6.206715393066406250e+01 2.757838058471679688e+01 8.937626481056213379e-01 5.800758838653564453e+00 2.008356571197509766e+00 4.456770896911621094e+00
4.860000000000000000e+03 6.390190124511718750e+00 1.594421482086181641e+01 9.882335143629461527e-05 2.960448182420805097e-05 3.852834925055503845e-05 3.228476634831167758e-05
4.861000000000000000e+03 7.675056934356689453e+00 6.814907073974609375e+00 5.125062671140767634e-05 1.311573487328132614e-05 1.930990765686146915e-05 -1.131914996221894398e-05
4.862000000000000000e+03 6.709301757812500000e+01 2.797860717773437500e+01 1.412670373916625977e+00 1.287865066528320312e+01 4.287396430969238281e+00 -1.434338927268981934e+00
4.863000000000000000e+03 5.803979492187500000e+01 2.516567230224609375e+01 3.510592579841613770e-01 1.881753325462341309e+00 6.698437929153442383e-01 1.750645160675048828e+00
4.864000000000000000e+03 6.259888076782226562e+01 2.736925888061523438e+01 5.041559338569641113e-01 7.680290699005126953e+00 2.455333948135375977e+00 4.625675678253173828e+00
4.865000000000000000e+03 6.539609527587890625e+01 2.703284072875976562e+01 -6.927680969238281250e-01 1.331121158599853516e+01 3.785532951354980469e+00 9.666037559509277344e-01
4.866000000000000000e+03 2.724632263183593750e+01 -1.102115726470947266e+01 1.540529262274503708e-02 -1.150064110755920410e+00 -3.403976559638977051e-01 -1.655140370130538940e-01
4.867000000000000000e+03 7.069736957550048828e+00 -1.360908794403076172e+01 -5.205677589401602745e-04 -3.158616600558161736e-04 -2.509288315195590258e-04 -3.000243450514972210e-04
4.868000000000000000e+03 9.537793159484863281e+00 -5.399107456207275391e+00 1.853801659308373928e-04 1.320743904216215014e-04 9.523636981612071395e-05 5.536427579500013962e-06
4.869000000000000000e+03 5.926482677459716797e+00 -6.652165412902832031e+00 -2.206019853474572301e-04 -2.003397821681573987e-04 -1.262825389858335257e-04 -1.107820207835175097e-04
4.870000000000000000e+03 5.965699672698974609e+00 -7.400081157684326172e+00 5.046121659688651562e-04 -2.126818581018596888e-04 8.757909381529316306e-05 2.189244260080158710e-04
4.871000000000000000e+03 6.670774078369140625e+01 2.669673919677734375e+01 -2.070439457893371582e-01 1.251636219024658203e+01 3.692795515060424805e+00 -4.554353952407836914e-01
4.872000000000000000e+03 6.444602489471435547e+00 1.946230697631835938e+01 -2.054772494375356473e-06 3.871961382628796855e-07 -5.002729039915720932e-07 3.536264921422116458e-05
4.873000000000000000e+03 5.263484001159667969e+00 1.180959796905517578e+01 -1.336475834250450134e-04 -2.340027094760444015e-05 -4.711435758508741856e-05 5.807851630379445851e-05
4.874000000000000000e+03 7.605713844299316406e+00 -8.666107177734375000e+00 -2.307042013853788376e-04 5.217162542976438999e-04 8.730361878406256437e-05 -1.694943493930622935e-04
4.875000000000000000e+03 6.140208053588867188e+01 2.677726364135742188e+01 6.811583042144775391e-01 4.678689479827880859e+00 1.607954263687133789e+00 3.734788656234741211e+00
4.876000000000000000e+03 6.240979385375976562e+01 2.717719078063964844e+01 4.576708376407623291e-01 7.167114734649658203e+00 2.287435770034790039e+00 4.482528209686279297e+00
4.877000000000000000e+03 6.638993263244628906e+00 7.113134384155273438e+00 6.669647700618952513e-05 1.898590016935486346e-05 2.570471224316861480e-05 1.192993113363627344e-05
4.878000000000000000e+03 6.777509307861328125e+01 2.807322311401367188e+01 1.766665220260620117e+00 1.196760368347167969e+01 4.120280742645263672e+00 -1.543353438377380371e+00
4.879000000000000000e+03 7.861420631408691406e+00 7.919365406036376953e+00 1.135835191234946251e-05 2.676788790267892182e-05 1.143787176260957494e-05 -1.822345438995398581e-05
4.880000000000000000e+03 8.429071426391601562e+00 -6.812060832977294922e+00 -7.987200660863891244e-05 -3.757108061108738184e-04 -1.366748474538326263e-04 -1.646229648031294346e-04
4.881000000000000000e+03 5.831669616699218750e+01 2.480132675170898438e+01 3.858775198459625244e-01 2.155697584152221680e+00 7.624725103378295898e-01 1.902888417243957520e+00
4.882000000000000000e+03 6.986008453369140625e+01 3.106922340393066406e+01 2.963672637939453125e+00 9.691414833068847656e+00 3.796526193618774414e+00 1.231859847903251648e-01
4.883000000000000000e+03 3.396651077270507812e+01 -1.945475769042968750e+01 8.222664892673492432e-02 6.179714947938919067e-02 4.320713877677917480e-02 -9.217248111963272095e-02
4.884000000000000000e+03 6.988040161132812500e+01 3.190519142150878906e+01 2.780465126037597656e+00 9.793446540832519531e+00 3.772173404693603516e+00 6.965643763542175293e-01
4.885000000000000000e+03 7.167764282226562500e+01 -2.564603805541992188e+01 2.067128010094165802e-02 7.012837409973144531e+00 2.110052585601806641e+00 4.325013235211372375e-02
4.886000000000000000e+03 3.097583580017089844e+01 -2.508211851119995117e+00 8.573026955127716064e-02 -5.346417427062988281e-01 -1.346734315156936646e-01 -2.691009342670440674e-01
4.887000000000000000e+03 6.849399566650390625e+00 8.150671005249023438e+00 7.415650907205417752e-05 2.456849142618011683e-05 2.961750033136922866e-05 -3.910335726686753333e-05
4.888000000000000000e+03 6.221278381347656250e+01 2.656263732910156250e+01 2.515035271644592285e-01 6.734411239624023438e+00 2.095774412155151367e+00 4.062306880950927734e+00
4.889000000000000000e+03 6.577747344970703125e+01 2.613415336608886719e+01 -8.450328707695007324e-01 1.212860679626464844e+01 3.385072231292724609e+00 6.816454529762268066e-01
4.890000000000000000e+03 6.173028564453125000e+01 -2.447405815124511719e+01 6.062474474310874939e-02 5.132562160491943359e+00 1.557955980300903320e+00 6.579583883285522461e-02
4.891000000000000000e+03 7.345100879669189453e+00 8.514888763427734375e+00 2.095163608828443103e-06 -2.282296009070705622e-05 -6.218338967300951481e-06 4.571807221509516239e-05
4.892000000000000000e+03 8.814734458923339844e+00 -8.650979995727539062e+00 -5.392208549892529845e-05 3.908082144334912300e-04 1.010658379527740180e-04 -1.499886275269091129e-04
4.893000000000000000e+03 2.944843101501464844e+01 6.147809982299804688e+00 5.491423234343528748e-02 -6.712577939033508301e-01 -1.849030703306198120e-01 -4.082151651382446289e-01
4.894000000000000000e+03 3.183003044128417969e+01 -3.816616296768188477e+00 9.264273941516876221e-02 -3.881193101406097412e-01 -8.864296972751617432e-02 -2.515365779399871826e-01
4.895000000000000000e+03 6.237835311889648438e+01 2.678120994567871094e+01 2.795442044734954834e-01 7.125430107116699219e+00 2.221492290496826172e+00 4.218082904815673828e+00
4.896000000000000000e+03 6.250232315063476562e+01 2.653955459594726562e+01 7.959681749343872070e-02 7.394289970397949219e+00 2.242166042327880859e+00 4.049138069152832031e+00
4.897000000000000000e+03 6.209693527221679688e+01 2.620491790771484375e+01 1.710023730993270874e-01 6.556850910186767578e+00 2.018356084823608398e+00 3.810770750045776367e+00
4.898000000000000000e+03 6.086180114746093750e+01 2.464845275878906250e+01 1.904876828193664551e-01 4.770695686340332031e+00 1.488355040550231934e+00 2.966305017471313477e+00
4.899000000000000000e+03 7.105689239501953125e+01 -2.367652320861816406e+01 2.205553278326988220e-02 6.888267517089843750e+00 2.073096990585327148e+00 6.776230037212371826e-02
4.900000000000000000e+03 6.281981277465820312e+01 2.671105194091796875e+01 -4.257444664835929871e-02 8.236441612243652344e+00 2.458160161972045898e+00 4.076800346374511719e+00
4.901000000000000000e+03 6.873917388916015625e+01 2.599341773986816406e+01 1.308096498250961304e-01 1.076890373229980469e+01 3.269913911819458008e+00 -1.179038405418395996e+00
4.902000000000000000e+03 6.926250457763671875e+01 2.667782211303710938e+01 6.925256848335266113e-01 1.055043792724609375e+01 3.372889041900634766e+00 -1.416372299194335938e+00
4.903000000000000000e+03 6.125131225585937500e+01 2.429366493225097656e+01 2.008428797125816345e-02 5.363376617431640625e+00 1.615038275718688965e+00 2.960035800933837891e+00
4.904000000000000000e+03 3.067160797119140625e+01 5.125564098358154297e+00 8.345483988523483276e-02 -5.198114514350891113e-01 -1.309069842100143433e-01 -4.027637541294097900e-01
4.905000000000000000e+03 7.345173645019531250e+01 2.492096710205078125e+01 1.404975354671478271e-01 8.281587600708007812e+00 2.526625633239746094e+00 -1.301180839538574219e+00
4.906000000000000000e+03 6.645381927490234375e+01 2.428245735168457031e+01 -1.106460332870483398e+00 1.055973052978515625e+01 2.835980892181396484e+00 5.121229887008666992e-01
4.907000000000000000e+03 6.166579437255859375e+01 2.394200325012207031e+01 -1.667667627334594727e-01 5.961462497711181641e+00 1.738408684730529785e+00 2.900994300842285156e+00
4.908000000000000000e+03 3.375548553466796875e+01 -8.416357994079589844e+00 1.064596623182296753e-01 -5.234332755208015442e-02 1.623490080237388611e-02 -1.841247528791427612e-01
4.909000000000000000e+03 6.879700469970703125e+01 2.516390609741210938e+01 -3.038947582244873047e-01 1.047868824005126953e+01 3.052438259124755859e+00 -9.714380502700805664e-01
4.910000000000000000e+03 4.980788040161132812e+01 -1.201104164123535156e+01 1.725163459777832031e-01 2.804686784744262695e+00 8.931609392166137695e-01 5.182604491710662842e-02
4.911000000000000000e+03 4.835239410400390625e+01 -1.332844924926757812e+01 1.676076352596282959e-01 2.545314550399780273e+00 8.138766288757324219e-01 1.828075200319290161e-02
4.912000000000000000e+03 3.605051040649414062e+01 -1.830627250671386719e+01 8.440894633531570435e-02 3.686661422252655029e-01 1.359225362539291382e-01 -7.909844070672988892e-02
4.913000000000000000e+03 3.425564193725585938e+01 -4.555899620056152344e+00 1.270037591457366943e-01 -1.670341566205024719e-02 3.309009969234466553e-02 -2.310076355934143066e-01
4.914000000000000000e+03 3.500054550170898438e+01 -6.114671230316162109e+00 1.283111870288848877e-01 1.136852130293846130e-01 7.259891927242279053e-02 -2.019561976194381714e-01
4.915000000000000000e+03 3.449332427978515625e+01 2.715293312072753906e+01 -4.344487190246582031e-01 1.895569823682308197e-02 -1.246479079127311707e-01 -4.613199532032012939e-01
4.916000000000000000e+03 6.772939300537109375e+01 -1.760262298583984375e+01 3.931097313761711121e-02 6.296990871429443359e+00 1.900890469551086426e+00 9.884279221296310425e-02
4.917000000000000000e+03 7.034629821777343750e+01 1.049722957611083984e+01 -3.362562358379364014e-01 7.399339199066162109e+00 2.118924856185913086e+00 6.247063353657722473e-02
4.918000000000000000e+03 6.673754882812500000e+01 -1.651071166992187500e+01 5.143499374389648438e-02 6.107694625854492188e+00 1.847738862037658691e+00 1.082445681095123291e-01
4.919000000000000000e+03 6.216321563720703125e+01 2.474765014648437500e+01 -2.133301496505737305e-01 6.660597324371337891e+00 1.934180140495300293e+00 3.189071655273437500e+00
4.920000000000000000e+03 3.700896072387695312e+01 -1.391200542449951172e+00 1.876083314418792725e-01 3.696338236331939697e-01 1.671726554632186890e-01 -2.494847029447555542e-01
4.921000000000000000e+03 7.056874084472656250e+01 1.306636714935302734e+01 -4.666515886783599854e-01 7.679239273071289062e+00 2.163776397705078125e+00 -5.875714495778083801e-02
4.922000000000000000e+03 7.039188385009765625e+01 5.460448265075683594e+00 -1.371406763792037964e-01 7.156262874603271484e+00 2.105736732482910156e+00 1.403554230928421021e-01
4.923000000000000000e+03 7.006203460693359375e+01 4.562901496887207031e+00 -1.082381531596183777e-01 7.071544647216796875e+00 2.088991880416870117e+00 1.571782082319259644e-01
4.924000000000000000e+03 4.542636108398437500e+01 -8.503435134887695312e+00 1.961202621459960938e-01 1.915688157081604004e+00 6.335425376892089844e-01 -2.426613681018352509e-02
4.925000000000000000e+03 5.454172515869140625e+01 -1.311628150939941406e+01 1.407248377799987793e-01 3.684422969818115234e+00 1.147544384002685547e+00 9.011951088905334473e-02
4.926000000000000000e+03 6.981153869628906250e+01 3.688657760620117188e+00 -9.207849204540252686e-02 6.996313571929931641e+00 2.071270465850830078e+00 1.789822280406951904e-01
4.927000000000000000e+03 6.672014617919921875e+01 2.221322822570800781e+01 -1.161085247993469238e+00 9.391407966613769531e+00 2.469096660614013672e+00 5.135186910629272461e-01
4.928000000000000000e+03 6.870778656005859375e+01 6.075322628021240234e+00 -1.680975556373596191e-01 6.824854373931884766e+00 1.997027039527893066e+00 2.127149850130081177e-01
4.929000000000000000e+03 6.904219818115234375e+01 4.706588268280029297e+00 -1.192803084850311279e-01 6.853939533233642578e+00 2.020397663116455078e+00 1.987982541322708130e-01
4.930000000000000000e+03 3.885827636718750000e+01 -4.421793937683105469e+00 1.761819720268249512e-01 7.176513075828552246e-01 2.681499719619750977e-01 -1.797076761722564697e-01
4.931000000000000000e+03 3.905062484741210938e+01 -2.040057659149169922e+00 2.215489447116851807e-01 7.296487092971801758e-01 2.853592932224273682e-01 -2.131476402282714844e-01
4.932000000000000000e+03 7.048162841796875000e+01 -1.640439224243164062e+01 2.511361427605152130e-02 6.826314449310302734e+00 2.055428266525268555e+00 9.382712095975875854e-02
4.933000000000000000e+03 6.949547576904296875e+01 1.750043678283691406e+01 -8.007605671882629395e-01 8.174706459045410156e+00 2.212183713912963867e+00 -1.293678581714630127e-01
4.934000000000000000e+03 3.230357360839843750e+01 1.005885219573974609e+01 9.931282699108123779e-02 -3.103932142257690430e-01 -6.332411617040634155e-02 -5.140677690505981445e-01
4.935000000000000000e+03 3.332662582397460938e+01 8.104689598083496094e+00 1.321264803409576416e-01 -2.026050984859466553e-01 -2.114358358085155487e-02 -4.718576073646545410e-01
4.936000000000000000e+03 6.795825195312500000e+01 -9.961215019226074219e+00 3.739842399954795837e-02 6.395638465881347656e+00 1.929911017417907715e+00 1.467950344085693359e-01
4.937000000000000000e+03 6.836243438720703125e+01 2.079246139526367188e+01 -1.016345739364624023e+00 8.972017288208007812e+00 2.386701583862304688e+00 -7.488709688186645508e-02
4.938000000000000000e+03 4.053432846069335938e+01 -3.077732801437377930e+00 2.282358407974243164e-01 9.902572631835937500e-01 3.655479252338409424e-01 -1.677761524915695190e-01
4.939000000000000000e+03 3.508402633666992188e+01 2.567036628723144531e+01 -3.886377215385437012e-01 1.176578272134065628e-02 -1.130615770816802979e-01 -5.347979664802551270e-01
4.940000000000000000e+03 5.619252014160156250e+01 -6.131052494049072266e+00 1.662568300962448120e-01 3.955680131912231445e+00 1.236581087112426758e+00 1.750085949897766113e-01
4.941000000000000000e+03 6.790222930908203125e+01 8.369891166687011719e+00 -2.708002924919128418e-01 6.771038055419921875e+00 1.950071334838867188e+00 2.681214511394500732e-01
4.942000000000000000e+03 6.694651794433593750e+01 7.203971385955810547e+00 -1.987856626510620117e-01 6.522323131561279297e+00 1.897061228752136230e+00 2.999290525913238525e-01
4.943000000000000000e+03 6.940641784667968750e+01 1.504065608978271484e+01 -6.613948345184326172e-01 7.752995014190673828e+00 2.127480030059814453e+00 2.016904577612876892e-02
4.944000000000000000e+03 5.238271331787109375e+01 2.311908340454101562e+01 1.146168634295463562e-02 7.443753480911254883e-01 2.267511188983917236e-01 2.839496433734893799e-01
4.945000000000000000e+03 6.826979064941406250e+01 -6.515844821929931641e+00 3.875000029802322388e-02 6.475310325622558594e+00 1.954218149185180664e+00 1.693939715623855591e-01
4.946000000000000000e+03 6.639533233642578125e+01 -7.262645721435546875e+00 4.773733392357826233e-02 6.078132152557373047e+00 1.837760925292968750e+00 1.814806312322616577e-01
4.947000000000000000e+03 5.618151092529296875e+01 2.113271522521972656e+01 3.478749692440032959e-01 2.239541530609130859e+00 7.762249708175659180e-01 1.239361286163330078e+00
4.948000000000000000e+03 6.820918273925781250e+01 1.689035606384277344e+01 -8.083778619766235352e-01 7.892166137695312500e+00 2.125136375427246094e+00 1.476060748100280762e-01
4.949000000000000000e+03 6.681044006347656250e+01 3.631090879440307617e+00 -8.692526072263717651e-02 6.354183673858642578e+00 1.880177497863769531e+00 2.729853391647338867e-01
4.950000000000000000e+03 6.837190246582031250e+01 2.018562698364257812e+01 -1.005967855453491211e+00 8.790499687194824219e+00 2.335359573364257812e+00 -3.449472412467002869e-02
4.951000000000000000e+03 6.787861633300781250e+01 2.005806350708007812e+01 -1.033560633659362793e+00 8.701306343078613281e+00 2.300323486328125000e+00 1.400715112686157227e-01
4.952000000000000000e+03 6.660473632812500000e+01 2.035280418395996094e+01 -1.078905344009399414e+00 8.539877891540527344e+00 2.238291740417480469e+00 5.850494503974914551e-01
4.953000000000000000e+03 6.142813110351562500e+01 -5.777085304260253906e+00 1.059186682105064392e-01 5.025970935821533203e+00 1.539566874504089355e+00 2.115816771984100342e-01
4.954000000000000000e+03 6.704032897949218750e+01 1.673670196533203125e+01 -8.275231719017028809e-01 7.658647537231445312e+00 2.049337387084960938e+00 4.228745996952056885e-01
4.955000000000000000e+03 5.087649917602539062e+01 1.483226418495178223e+00 2.819960713386535645e-01 2.670977115631103516e+00 8.858919739723205566e-01 1.521781831979751587e-01
4.956000000000000000e+03 3.826708602905273438e+01 8.658479690551757812e+00 2.414409071207046509e-01 3.419393599033355713e-01 1.750140786170959473e-01 -4.168031811714172363e-01
4.957000000000000000e+03 5.399060821533203125e+01 1.840894508361816406e+01 3.756143748760223389e-01 2.035336732864379883e+00 7.232853174209594727e-01 7.746127843856811523e-01
4.958000000000000000e+03 6.615056610107421875e+01 5.434384822845458984e+00 -1.332734227180480957e-01 6.235454082489013672e+00 1.830654263496398926e+00 3.285338282585144043e-01
4.959000000000000000e+03 6.444788360595703125e+01 1.118496131896972656e+01 -3.282263576984405518e-01 6.159417629241943359e+00 1.749357461929321289e+00 5.625266432762145996e-01
4.960000000000000000e+03 6.205017089843750000e+01 2.069478225708007812e+01 -4.795059263706207275e-01 6.149459838867187500e+00 1.700986146926879883e+00 1.945206284523010254e+00
4.961000000000000000e+03 6.267458724975585938e+01 2.144839859008789062e+01 -6.322630047798156738e-01 6.761519908905029297e+00 1.838776946067810059e+00 2.030523300170898438e+00
4.962000000000000000e+03 6.204884719848632812e+01 -4.780253410339355469e+00 8.510591089725494385e-02 5.162783145904541016e+00 1.574366688728332520e+00 2.386998534202575684e-01
4.963000000000000000e+03 4.049102783203125000e+01 2.211733627319335938e+01 -2.413692772388458252e-01 1.489423066377639771e-01 -2.772809192538261414e-02 -6.135739088058471680e-01
4.964000000000000000e+03 6.239036560058593750e+01 1.983865165710449219e+01 -5.348857045173645020e-01 6.240647792816162109e+00 1.711728692054748535e+00 1.721996545791625977e+00
4.965000000000000000e+03 6.313532257080078125e+01 1.965903282165527344e+01 -6.907664537429809570e-01 6.782434463500976562e+00 1.827500462532043457e+00 1.570789217948913574e+00
4.966000000000000000e+03 5.462328720092773438e+01 1.799906730651855469e+01 3.639840483665466309e-01 2.323261499404907227e+00 8.061736822128295898e-01 8.836513757705688477e-01
4.967000000000000000e+03 3.978912353515625000e+01 1.635717201232910156e+01 1.232192218303680420e-01 2.563175857067108154e-01 1.138610467314720154e-01 -5.498277544975280762e-01
4.968000000000000000e+03 6.202686309814453125e+01 1.783526992797851562e+01 -4.438630938529968262e-01 5.893734931945800781e+00 1.634961485862731934e+00 1.401004791259765625e+00
4.969000000000000000e+03 4.207056427001953125e+01 2.237935066223144531e+01 -2.604243755340576172e-01 2.000810056924819946e-01 -1.810301095247268677e-02 -5.838022828102111816e-01
4.970000000000000000e+03 4.554093170166015625e+01 2.113261032104492188e+01 -6.191573292016983032e-02 3.988403975963592529e-01 1.010774001479148865e-01 -4.006371200084686279e-01
4.971000000000000000e+03 5.647854232788085938e+01 4.982229232788085938e+00 1.823305785655975342e-01 3.807144641876220703e+00 1.196842551231384277e+00 4.125148355960845947e-01
4.972000000000000000e+03 6.304720306396484375e+01 1.596400928497314453e+01 -4.859451353549957275e-01 6.135027885437011719e+00 1.694724798202514648e+00 1.060802102088928223e+00
4.973000000000000000e+03 5.706128311157226562e+01 1.449113368988037109e+01 1.684920042753219604e-01 3.599181652069091797e+00 1.130302071571350098e+00 9.487749338150024414e-01
4.974000000000000000e+03 5.731998062133789062e+01 5.056548118591308594e+00 1.397619247436523438e-01 4.024755001068115234e+00 1.249355077743530273e+00 4.439128041267395020e-01
4.975000000000000000e+03 4.517524337768554688e+01 2.027316474914550781e+01 1.179243065416812897e-02 4.308561980724334717e-01 1.327945888042449951e-01 -4.019274413585662842e-01
4.976000000000000000e+03 4.394217300415039062e+01 1.460476493835449219e+01 2.892607748508453369e-01 7.211157083511352539e-01 3.031129539012908936e-01 -3.091047704219818115e-01
4.977000000000000000e+03 4.347896957397460938e+01 1.867664527893066406e+01 8.813379704952239990e-02 4.237447381019592285e-01 1.535635590553283691e-01 -4.557197093963623047e-01
4.978000000000000000e+03 4.402209091186523438e+01 1.835532760620117188e+01 1.322912126779556274e-01 4.829599857330322266e-01 1.845753639936447144e-01 -4.102715551853179932e-01
4.979000000000000000e+03 4.400854110717773438e+01 1.898171615600585938e+01 8.156660944223403931e-02 4.440658390522003174e-01 1.576897352933883667e-01 -4.318591058254241943e-01
4.980000000000000000e+03 4.277132034301757812e+01 1.497994232177734375e+01 2.485847175121307373e-01 5.595408678054809570e-01 2.424376755952835083e-01 -3.905871808528900146e-01
4.981000000000000000e+03 5.774067306518554688e+01 7.662369728088378906e+00 1.241410672664642334e-01 4.071665763854980469e+00 1.258741974830627441e+00 5.466938614845275879e-01
4.982000000000000000e+03 4.368321228027343750e+01 1.765896797180175781e+01 1.639728844165802002e-01 4.978122115135192871e-01 1.985355317592620850e-01 -4.090509414672851562e-01
4.983000000000000000e+03 5.633664321899414062e+01 1.182917690277099609e+01 2.011822760105133057e-01 3.523693799972534180e+00 1.117462873458862305e+00 7.171680927276611328e-01
4.984000000000000000e+03 4.528595352172851562e+01 1.560610961914062500e+01 2.980133593082427979e-01 7.933048009872436523e-01 3.273954391479492188e-01 -2.392666339874267578e-01
4.985000000000000000e+03 1.426702117919921875e+01 1.252673983573913574e+00 -2.764874625427182764e-05 3.665348913273192011e-07 -8.184662874555215240e-06 -1.878748662420548499e-05
4.986000000000000000e+03 1.462149238586425781e+01 1.164639949798583984e+00 5.224650158197619021e-05 -1.790006308510783128e-06 1.513694860477698967e-05 -9.030656656250357628e-06
4.987000000000000000e+03 1.332876110076904297e+01 1.093653082847595215e+00 -9.398336260346695781e-06 -1.418975989508908242e-05 -7.076429028529673815e-06 -8.865183190209791064e-06
4.988000000000000000e+03 1.406522464752197266e+01 3.572364747524261475e-01 -6.898512765474151820e-06 -8.879037523001898080e-06 -4.733265086542814970e-06 -1.435181957276654430e-06
4.989000000000000000e+03 1.336003494262695312e+01 3.511472940444946289e-01 3.466252337602782063e-06 1.411156063113594428e-05 5.273343958833720535e-06 3.689957338792737573e-06
4.990000000000000000e+03 1.476313018798828125e+01 5.016638040542602539e-01 3.173022378177847713e-06 4.901678948954213411e-06 2.422410489089088514e-06 2.363498197155422531e-06
4.991000000000000000e+03 1.414069938659667969e+01 9.322270154953002930e-01 3.263848702772520483e-05 -9.350890650239307433e-06 6.986279458942590281e-06 1.167274422186892480e-05
4.992000000000000000e+03 1.384797477722167969e+01 1.187353014945983887e+00 8.951141353463754058e-06 1.004131991066969931e-05 5.697738288290565833e-06 9.714885891298763454e-06
4.993000000000000000e+03 1.112969017028808594e+01 3.708996772766113281e-01 -4.663130312110297382e-06 -1.208183857670519501e-05 -5.023490757594117895e-06 2.261680492665618658e-06
4.994000000000000000e+03 1.113907623291015625e+01 1.110847473144531250e+00 1.487089411966735497e-05 8.369149327336344868e-06 6.972013125050580129e-06 -6.383847448887536302e-06
4.995000000000000000e+03 1.263169097900390625e+01 3.451149165630340576e-01 -3.683960585476597771e-06 -1.697455991234164685e-05 -6.197556103870738298e-06 -6.996669981162995100e-07
4.996000000000000000e+03 1.037880802154541016e+01 3.837110698223114014e-01 5.301950295688584447e-06 7.779284715070389211e-06 3.924370503227692097e-06 -1.923541503856540658e-06
4.997000000000000000e+03 1.188065242767333984e+01 3.580341637134552002e-01 3.876889877574285492e-06 1.589078783581499010e-05 5.930303359491517767e-06 -1.255159872926014941e-06
4.998000000000000000e+03 1.264514160156250000e+01 1.084993243217468262e+00 7.778701728966552764e-06 1.403500482410890982e-05 6.544112238771049306e-06 1.293206423724768683e-06
4.999000000000000000e+03 1.038616180419921875e+01 1.123693704605102539e+00 -1.664949922997038811e-05 -6.137966920505277812e-06 -6.836240117991110310e-06 4.512849955062847584e-06
5.000000000000000000e+03 1.189207077026367188e+01 1.097947120666503906e+00 -1.045211229211417958e-05 -1.216941109305480495e-05 -6.786457106500165537e-06 5.030315605836221948e-06
5.001000000000000000e+03 9.625078201293945312e+00 3.871397972106933594e-01 -5.582729954767273739e-06 -5.120678451930871233e-06 -3.211022658433648758e-06 5.709230777029006276e-07
5.002000000000000000e+03 8.868724822998046875e+00 3.828192353248596191e-01 5.402167971624294296e-06 4.723568963527213782e-06 3.037720944121247157e-06 4.881281938651227392e-07
5.003000000000000000e+03 9.644926071166992188e+00 1.127139806747436523e+00 1.753152901073917747e-05 5.457838597067166120e-06 6.896810646139783785e-06 -1.439788320567458868e-06
5.004000000000000000e+03 8.112174034118652344e+00 3.804100155830383301e-01 -5.307332685333676636e-06 -5.443150712380884215e-06 -3.225144837415427901e-06 -9.827261919781449251e-07
5.005000000000000000e+03 7.356014251708984375e+00 3.793691694736480713e-01 5.139374479767866433e-06 6.131645932327955961e-06 3.381306214578216895e-06 9.501162594460765831e-07
5.006000000000000000e+03 5.843623161315917969e+00 3.767499327659606934e-01 4.896110112895257771e-06 4.240032922098180279e-06 2.740842774073826149e-06 -4.149990502355649369e-07
5.007000000000000000e+03 5.088051319122314453e+00 3.757717311382293701e-01 -3.826787178695667535e-06 -1.118158365898125339e-06 -1.483483629272086546e-06 1.986860752367647365e-06
5.008000000000000000e+03 3.576755046844482422e+00 3.680583238601684570e-01 -5.473858436744194478e-06 5.326969130692305043e-06 -4.406672005075051857e-08 2.593651515780948102e-06
5.009000000000000000e+03 2.822042465209960938e+00 3.613462746143341064e-01 7.773732249916065484e-06 -4.718060154118575156e-06 9.167015377897769213e-07 -6.452422667280188762e-07
5.010000000000000000e+03 2.068703651428222656e+00 3.577998280525207520e-01 -6.120828402345068753e-06 2.192591864513815381e-06 -1.178470938612008467e-06 -2.921903217156796018e-07
5.011000000000000000e+03 2.358754634857177734e+00 1.097799897193908691e+00 1.860617157944943756e-05 1.473600885759651646e-08 5.586272436630679294e-06 4.048355094710132107e-06
5.012000000000000000e+03 1.327708005905151367e+00 3.658417165279388428e-01 1.042676785800722428e-06 -2.781244575089658611e-06 -5.215703708927321713e-07 -3.712967327373917215e-06
5.013000000000000000e+03 1.644779324531555176e+00 1.105841755867004395e+00 -1.023662389343371615e-05 -7.464273949153721333e-06 -5.310269443725701421e-06 -3.075361973969847895e-06
5.014000000000000000e+03 6.509408354759216309e-01 3.937322795391082764e-01 1.793883348000235856e-05 1.476928719057468697e-05 9.812436474021524191e-06 1.948002500284928828e-05
5.015000000000000000e+03 3.482567369937896729e-01 9.569563269615173340e-01 -2.777894587779883295e-05 -1.767419234965927899e-05 -1.363594128633849323e-05 -6.358694918162655085e-06
5.016000000000000000e+03 3.085073232650756836e+00 1.101346254348754883e+00 -2.125889659509994090e-05 2.305260977664147504e-06 -5.686090844392310828e-06 -1.141699158324627206e-06
5.017000000000000000e+03 3.812765598297119141e+00 1.108058333396911621e+00 1.840131699282210320e-05 -8.126280590659007430e-07 5.276606316328980029e-06 -3.268302180003956892e-06
5.018000000000000000e+03 4.332499980926513672e+00 3.732680678367614746e-01 4.955163603881374002e-06 -2.809995521602104418e-06 6.435503792090457864e-07 -2.997342335220309906e-06
5.019000000000000000e+03 5.998572826385498047e+00 1.116749882698059082e+00 -1.274410988116869703e-05 -5.422655704023782164e-06 -5.450029675557743758e-06 2.103090764649095945e-06
5.020000000000000000e+03 6.600036144256591797e+00 3.784387111663818359e-01 -4.893344339507166296e-06 -5.836430318595375866e-06 -3.218932533854967915e-06 -4.065318250923155574e-07
5.021000000000000000e+03 8.186062812805175781e+00 1.120409965515136719e+00 1.499561949458438903e-05 6.109759851824492216e-06 6.331613803922664374e-06 1.776391968633106444e-06
5.022000000000000000e+03 8.915593147277832031e+00 1.122819185256958008e+00 -1.619807881070300937e-05 -5.536773187486687675e-06 -6.520455826830584556e-06 -1.000118686533824075e-06
5.023000000000000000e+03 7.456923484802246094e+00 1.119369149208068848e+00 -1.412343135598348454e-05 -6.406429292837856337e-06 -6.158958058222196996e-06 -1.100027930078795180e-06
5.024000000000000000e+03 6.727965354919433594e+00 1.118438720703125000e+00 1.358433291898109019e-05 6.317087354545947164e-06 5.970426173007581383e-06 -9.412264034835970961e-08
5.025000000000000000e+03 5.270021438598632812e+00 1.115771770477294922e+00 1.238895038113696501e-05 4.193464519630651921e-06 4.974724561179755256e-06 -3.604599896789295599e-06
5.026000000000000000e+03 4.541490077972412109e+00 1.113268017768859863e+00 -1.361701379209989682e-05 -2.249615590699249879e-06 -4.759988769365008920e-06 4.854875442106276751e-06
5.027000000000000000e+03 9.950323700904846191e-01 1.133732318878173828e+00 -6.250718342926120386e-06 2.416031929897144437e-05 5.372880423237802461e-06 -6.307284365902887657e-06
5.028000000000000000e+03 7.951600551605224609e+00 -3.791473805904388428e-01 2.028316885116510093e-05 5.254903953755274415e-05 2.184966251661535352e-05 1.799500637389428448e-06
5.029000000000000000e+03 8.812386512756347656e+00 -1.121279358863830566e+00 4.645564331440255046e-05 5.932378917350433767e-05 3.173383083776570857e-05 1.094126309908460826e-05
5.030000000000000000e+03 9.587816238403320312e+00 -3.863115906715393066e-01 1.710582546365913004e-05 5.279809920466504991e-05 2.097117794619407505e-05 2.126197387042338960e-07
5.031000000000000000e+03 7.132064342498779297e+00 -3.779651820659637451e-01 -1.315398640144849196e-05 -4.846018418902531266e-05 -1.848425199568737298e-05 -8.447462391814042348e-07
5.032000000000000000e+03 6.306247234344482422e+00 -3.772793114185333252e-01 1.240081928699510172e-05 3.975346771767362952e-05 1.564628473715856671e-05 5.695430900232167915e-06
5.033000000000000000e+03 5.442752361297607422e+00 -3.835102021694183350e-01 -2.114486596838105470e-05 -3.083276533288881183e-05 -1.559329029987566173e-05 -3.895413556165294722e-06
5.034000000000000000e+03 4.552286148071289062e+00 -3.399353623390197754e-01 6.731237135682022199e-06 3.194182500010356307e-05 1.160191823146305978e-05 5.518509624380385503e-06
5.035000000000000000e+03 4.371328830718994141e+00 -8.708365559577941895e-01 6.781456613680347800e-05 4.299365900806151330e-05 3.324246790725737810e-05 7.363965414697304368e-05
5.036000000000000000e+03 2.785328388214111328e+00 -7.796061038970947266e-01 -6.930643576197326183e-05 -5.410729136201553047e-05 -3.702411777339875698e-05 2.794928150251507759e-05
5.037000000000000000e+03 1.180722951889038086e+00 -3.608860373497009277e-01 1.059556143445661291e-05 6.971698894631117582e-05 2.409376611467450857e-05 2.158439201593864709e-05
5.038000000000000000e+03 4.099212884902954102e-01 -5.526853203773498535e-01 -2.008118462981656194e-05 -4.663881554733961821e-05 -2.001600114454049617e-05 -2.805269286909606308e-05
5.039000000000000000e+03 7.477942705154418945e-01 -1.100885987281799316e+00 1.912706829898525029e-05 8.540959242964163423e-05 3.136099985567852855e-05 5.853265975019894540e-05
5.040000000000000000e+03 9.597747802734375000e+00 -1.126311540603637695e+00 -3.983889837400056422e-05 -5.653679909300990403e-05 -2.891270924010314047e-05 -4.954737505613593385e-06
5.041000000000000000e+03 8.026608467102050781e+00 -1.119147419929504395e+00 -4.823776907869614661e-05 -6.126983498688787222e-05 -3.285228012828156352e-05 -1.158721897809300572e-05
5.042000000000000000e+03 7.239610195159912109e+00 -1.117965221405029297e+00 5.211612733546644449e-05 6.588944233953952789e-05 3.540167017490603030e-05 4.359982995083555579e-06
5.043000000000000000e+03 6.446331024169921875e+00 -1.117279291152954102e+00 -4.831843398278579116e-05 -8.978054393082857132e-05 -4.142969191889278591e-05 1.338899528491310775e-05
5.044000000000000000e+03 5.615375041961669922e+00 -1.123510241508483887e+00 8.049664029385894537e-05 1.058617999660782516e-04 5.590753062278963625e-05 -3.038443355762865394e-05
5.045000000000000000e+03 4.879715442657470703e+00 -1.221276640892028809e+00 -1.335169217782095075e-04 -1.954450417542830110e-04 -9.868859342532232404e-05 -1.282154789805645123e-05
5.046000000000000000e+03 4.223337173461914062e+00 -1.290901184082031250e+00 3.805462620221078396e-05 1.565356797073036432e-04 5.837709250045008957e-05 -4.944763986713951454e-06
5.047000000000000000e+03 3.489140987396240234e+00 -1.263193726539611816e+00 -5.796418918180279434e-05 -8.474231435684487224e-05 -4.281195288058370352e-05 2.042568121396470815e-05
5.048000000000000000e+03 2.723763942718505859e+00 -1.258556365966796875e+00 1.057764166034758091e-04 1.953969876922201365e-05 3.759483661269769073e-05 1.726345544739160687e-05
5.049000000000000000e+03 1.357383847236633301e+00 -1.202877521514892578e+00 4.139562588534317911e-05 -1.574998022988438606e-04 -3.483124964986927807e-05 8.020551831577904522e-06
5.050000000000000000e+03 8.769917488098144531e+00 -3.812793791294097900e-01 -1.362122111459029838e-05 -5.525756205315701663e-05 -2.066363413177896291e-05 -2.740601303230505437e-06
5.051000000000000000e+03 3.581377506256103516e+00 -7.854385375976562500e-01 5.073947613709606230e-05 2.991122528328560293e-06 1.611917832633480430e-05 -3.555410512490198016e-05
5.052000000000000000e+03 3.695749998092651367e+00 -2.822447717189788818e-01 -3.646897312137298286e-05 -4.306979099055752158e-05 -2.386162850598338991e-05 -8.803366654319688678e-06
5.053000000000000000e+03 2.864297151565551758e+00 -2.810497581958770752e-01 9.822807442105840892e-06 5.301847340888343751e-05 1.885238452814519405e-05 1.094800518330885097e-05
5.054000000000000000e+03 1.994235515594482422e+00 -3.319245874881744385e-01 -2.789979953377041966e-05 -5.832176975673064590e-05 -2.586647133284714073e-05 -2.006771319429390132e-05
5.055000000000000000e+03 1.981270551681518555e+00 -1.274680376052856445e+00 -1.408388052368536592e-04 8.380795043194666505e-05 -1.710925789666362107e-05 -6.885679613333195448e-05
5.056000000000000000e+03 1.973554253578186035e+00 -8.466050028800964355e-01 1.025086385197937489e-04 8.533678919775411487e-05 5.635363049805164337e-05 -3.416625622776336968e-05
5.057000000000000000e+03 1.332448291778564453e+01 -3.621845245361328125e-01 -5.994768798700533807e-05 9.553952986607328057e-05 1.067755238182144240e-05 2.826989202731056139e-06
5.058000000000000000e+03 1.426397991180419922e+01 -1.317608714103698730e+00 1.764911139616742730e-04 7.443306094501167536e-05 7.527725392719730735e-05 1.115427221520803869e-04
5.059000000000000000e+03 1.327361392974853516e+01 -1.248556852340698242e+00 -8.556295506423339248e-05 2.569628850324079394e-05 -1.795999924070201814e-05 -8.639360748929902911e-05
5.060000000000000000e+03 1.480296707153320312e+01 -1.047354817390441895e+00 -1.694755483185872436e-04 -1.090616424335166812e-04 -8.356115722563117743e-05 -9.136743756243959069e-05
5.061000000000000000e+03 1.356446647644042969e+01 -7.579438090324401855e-01 2.245886716991662979e-04 3.994987127953208983e-05 7.936156180221587420e-05 1.025463716359809041e-04
5.062000000000000000e+03 1.393659019470214844e+01 -3.302382230758666992e-01 -4.145727507420815527e-05 -1.038271511788479984e-04 -4.358532896731048822e-05 -3.632135849329642951e-05
5.063000000000000000e+03 1.449034786224365234e+01 -4.399540424346923828e-01 1.887249236460775137e-04 1.409755495842546225e-04 9.891013905871659517e-05 1.598226372152566910e-04
5.064000000000000000e+03 1.380024147033691406e+01 -1.352263331413269043e+00 -1.106620620703324676e-04 2.771119761746376753e-05 -2.488525933586061001e-05 1.423706453351769596e-05
5.065000000000000000e+03 1.402595424652099609e+01 -9.610455632209777832e-01 -3.711112367454916239e-04 -4.900122439721599221e-05 -1.260337303392589092e-04 -1.566030696267262101e-04
5.066000000000000000e+03 1.185737037658691406e+01 -1.162281751632690430e+00 3.859812932205386460e-05 2.461339590809075162e-06 1.231783971888944507e-05 -2.625249908305704594e-05
5.067000000000000000e+03 1.112013435363769531e+01 -4.102526009082794189e-01 1.718994826660491526e-05 3.069182275794446468e-05 1.436453203496057540e-05 -4.928578619001200423e-06
5.068000000000000000e+03 1.261753940582275391e+01 -4.348734915256500244e-01 3.542955028024152853e-06 -4.839659595745615661e-05 -1.345609143754700199e-05 -3.366381133673712611e-05
5.069000000000000000e+03 1.037124824523925781e+01 -3.971002995967864990e-01 -1.482800053054234013e-05 -4.716863259091041982e-05 -1.859899020928423852e-05 1.919898295454913750e-06
5.070000000000000000e+03 1.036389350891113281e+01 -1.137082934379577637e+00 4.271027864888310432e-05 4.735379843623377383e-05 2.701922312553506345e-05 -1.038517530105309561e-05
5.071000000000000000e+03 1.260408973693847656e+01 -1.174751639366149902e+00 -5.048556431574979797e-06 -6.046735961717786267e-06 -3.328587808937299997e-06 5.032340413890779018e-05
5.072000000000000000e+03 1.111074829101562500e+01 -1.150200366973876953e+00 -4.821231050300411880e-05 -2.277253952343016863e-05 -2.129545464413240552e-05 1.902199437608942389e-05
5.073000000000000000e+03 1.186878871917724609e+01 -4.223687946796417236e-01 -1.155642348749097437e-05 -4.589251602737931535e-06 -4.843702299694996327e-06 1.214623716805363074e-05
5.074000000000000000e+03 6.377347564697265625e+01 3.089320182800292969e+01 3.105515480041503906e+01 5.404941082000732422e+00 1.093802833557128906e+01 1.100072288513183594e+01
5.075000000000000000e+03 6.377669906616210938e+01 3.087400245666503906e+01 2.914040374755859375e+01 1.678558540344238281e+01 1.377779674530029297e+01 2.242416191101074219e+01
5.076000000000000000e+03 6.378359985351562500e+01 3.085579872131347656e+01 2.718418121337890625e+01 2.839303779602050781e+01 1.667316627502441406e+01 2.661986160278320312e+01
5.077000000000000000e+03 6.379391098022460938e+01 3.083928489685058594e+01 2.354466056823730469e+01 4.048082351684570312e+01 1.920764541625976562e+01 2.819711303710937500e+01
5.078000000000000000e+03 6.380723953247070312e+01 3.082509613037109375e+01 2.026981353759765625e+01 5.178945541381835938e+01 2.161778068542480469e+01 2.675502014160156250e+01
5.079000000000000000e+03 6.382307815551757812e+01 3.081377220153808594e+01 1.697591018676757812e+01 6.165693664550781250e+01 2.358985328674316406e+01 2.283775329589843750e+01
5.080000000000000000e+03 6.384081268310546875e+01 3.080574989318847656e+01 1.510387706756591797e+01 6.903372192382812500e+01 2.524127960205078125e+01 1.701463508605957031e+01
5.081000000000000000e+03 6.385977554321289062e+01 3.080133247375488281e+01 1.485240650177001953e+01 7.346047210693359375e+01 2.649386405944824219e+01 9.968756675720214844e+00
5.082000000000000000e+03 6.387923049926757812e+01 3.080069160461425781e+01 1.662535095214843750e+01 7.469186401367187500e+01 2.739516639709472656e+01 2.869579076766967773e+00
5.083000000000000000e+03 6.389844131469726562e+01 3.080385017395019531e+01 2.017814636230468750e+01 7.299262237548828125e+01 2.795123100280761719e+01 -3.431848049163818359e+00
5.084000000000000000e+03 6.391667175292968750e+01 3.081068992614746094e+01 2.507576942443847656e+01 6.914029693603515625e+01 2.826482009887695312e+01 -8.023600578308105469e+00
5.085000000000000000e+03 6.393321609497070312e+01 3.082094573974609375e+01 3.052017784118652344e+01 6.392399597167968750e+01 2.833325195312500000e+01 -1.057410621643066406e+01
5.086000000000000000e+03 6.394745254516601562e+01 3.083422660827636719e+01 3.591239166259765625e+01 5.853464126586914062e+01 2.833411026000976562e+01 -1.092227458953857422e+01
5.087000000000000000e+03 6.395882797241210938e+01 3.085002517700195312e+01 4.038669204711914062e+01 5.352360153198242188e+01 2.817308807373046875e+01 -9.433979034423828125e+00
5.088000000000000000e+03 6.396691131591796875e+01 3.086773681640625000e+01 4.378893661499023438e+01 4.996329498291015625e+01 2.812567138671875000e+01 -6.442852020263671875e+00
5.089000000000000000e+03 6.397138977050781250e+01 3.088668251037597656e+01 4.561499786376953125e+01 4.775323104858398438e+01 2.801046943664550781e+01 -2.567024946212768555e+00
5.090000000000000000e+03 6.397209548950195312e+01 3.090613746643066406e+01 4.594911956787109375e+01 4.753096771240234375e+01 2.804402542114257812e+01 1.687124490737915039e+00
5.091000000000000000e+03 6.396899795532226562e+01 3.092535781860351562e+01 4.463253784179687500e+01 4.898938369750976562e+01 2.808657646179199219e+01 5.764544010162353516e+00
5.092000000000000000e+03 6.396222305297851562e+01 3.094360923767089844e+01 4.182518386840820312e+01 5.226236343383789062e+01 2.822626304626464844e+01 9.136942863464355469e+00
5.093000000000000000e+03 6.395202255249023438e+01 3.096018981933593750e+01 3.766092681884765625e+01 5.685289764404296875e+01 2.835414695739746094e+01 1.124561786651611328e+01
5.094000000000000000e+03 6.393878555297851562e+01 3.097446823120117188e+01 3.248540115356445312e+01 6.227523422241210938e+01 2.842819023132324219e+01 1.159971523284912109e+01
5.095000000000000000e+03 6.392302703857421875e+01 3.098589706420898438e+01 2.698174095153808594e+01 6.772592163085937500e+01 2.841229820251464844e+01 9.834624290466308594e+00
5.096000000000000000e+03 6.390534210205078125e+01 3.099403762817382812e+01 2.176019668579101562e+01 7.228598785400390625e+01 2.821385574340820312e+01 5.868868350982666016e+00
5.097000000000000000e+03 6.388641357421875000e+01 3.099858093261718750e+01 1.757248878479003906e+01 7.488273620605468750e+01 2.773656654357910156e+01 5.004034936428070068e-02
5.098000000000000000e+03 6.386695861816406250e+01 3.099935150146484375e+01 1.510874938964843750e+01 7.476278686523437500e+01 2.696146011352539062e+01 -6.925511837005615234e+00
5.099000000000000000e+03 6.384772872924804688e+01 3.099632072448730469e+01 1.476311397552490234e+01 7.150489807128906250e+01 2.588040161132812500e+01 -1.423626518249511719e+01
5.100000000000000000e+03 6.382945632934570312e+01 3.098960494995117188e+01 1.604536247253417969e+01 6.501393890380859375e+01 2.431778907775878906e+01 -2.069975090026855469e+01
5.101000000000000000e+03 6.381283950805664062e+01 3.097945785522460938e+01 1.913775444030761719e+01 5.584549713134765625e+01 2.249497604370117188e+01 -2.547086906433105469e+01
5.102000000000000000e+03 6.379851913452148438e+01 3.096627235412597656e+01 2.261777114868164062e+01 4.479019165039062500e+01 2.022238922119140625e+01 -2.785347938537597656e+01
5.103000000000000000e+03 6.378703689575195312e+01 3.095055007934570312e+01 2.680498695373535156e+01 3.242134475708007812e+01 1.776790046691894531e+01 -2.726046752929687500e+01
5.104000000000000000e+03 6.377883529663085938e+01 3.093289184570312500e+01 2.957184982299804688e+01 2.015906906127929688e+01 1.491927528381347656e+01 -2.385246467590332031e+01
5.105000000000000000e+03 6.377423095703125000e+01 3.091397666931152344e+01 3.326475524902343750e+01 7.261049747467041016e+00 1.215774154663085938e+01 -1.317973232269287109e+01
