# el_label, x, y, sXX, sYY, sZZ, sXY
1.000000000000000000e+00 9.702937126159667969e+00 -2.983934059739112854e-02 -3.116357564926147461e+00 -2.890211343765258789e+00 -1.801970720291137695e+00 -2.840907812118530273e+00
2.000000000000000000e+00 9.504896163940429688e+00 -4.973223432898521423e-02 1.095883727073669434e+00 1.150341272354125977e+00 6.738675236701965332e-01 9.359527826309204102e-01
3.000000000000000000e+00 9.306854248046875000e+00 -6.962513178586959839e-02 -4.422053992748260498e-01 -4.889924526214599609e-01 -2.793593704700469971e-01 4.633512347936630249e-02
4.000000000000000000e+00 9.108813285827636719e+00 -8.951802551746368408e-02 -8.490884900093078613e-01 2.791177630424499512e-01 -1.709912121295928955e-01 2.274010628461837769e-01
5.000000000000000000e+00 9.714455604553222656e+00 -8.718428760766983032e-02 1.340584373474121094e+01 -2.588509798049926758e+00 3.245200157165527344e+00 2.480252742767333984e+00
6.000000000000000000e+00 9.524093627929687500e+00 -1.453071534633636475e-01 5.136471271514892578e+00 4.587968289852142334e-01 1.678580403327941895e+00 1.698103189468383789e+00
7.000000000000000000e+00 9.333730697631835938e+00 -2.034300118684768677e-01 4.689368247985839844e+00 1.021277070045471191e+00 1.713193535804748535e+00 2.407143592834472656e+00
8.000000000000000000e+00 9.143367767333984375e+00 -2.615528702735900879e-01 3.097602844238281250e+00 2.031457871198654175e-01 9.902245402336120605e-01 1.583154201507568359e+00
9.000000000000000000e+00 9.736933708190917969e+00 -1.411830335855484009e-01 1.860563659667968750e+01 3.140138626098632812e+00 6.523732662200927734e+00 1.033827972412109375e+01
1.000000000000000000e+01 9.561555862426757812e+00 -2.353050708770751953e-01 1.122760486602783203e+01 1.912540674209594727e+00 3.942043781280517578e+00 5.951588630676269531e+00
1.100000000000000000e+01 9.386178970336914062e+00 -3.294270932674407959e-01 7.423803329467773438e+00 2.438752174377441406e+00 2.958766460418701172e+00 4.684596061706542969e+00
1.200000000000000000e+01 9.210802078247070312e+00 -4.235491156578063965e-01 6.256433486938476562e+00 2.202643632888793945e+00 2.537723064422607422e+00 4.375102996826171875e+00
1.300000000000000000e+01 9.769508361816406250e+00 -1.897630989551544189e-01 1.993945884704589844e+01 1.097434425354003906e+01 9.274141311645507812e+00 1.623375892639160156e+01
1.400000000000000000e+01 9.615847587585449219e+00 -3.162718117237091064e-01 1.263064289093017578e+01 6.854298591613769531e+00 5.845482349395751953e+00 1.046456050872802734e+01
1.500000000000000000e+01 9.462185859680175781e+00 -4.427805542945861816e-01 9.678023338317871094e+00 5.531868934631347656e+00 4.562967777252197266e+00 8.175852775573730469e+00
1.600000000000000000e+01 9.308525085449218750e+00 -5.692892670631408691e-01 7.457971572875976562e+00 4.941890716552734375e+00 3.719958782196044922e+00 6.829164028167724609e+00
1.700000000000000000e+01 9.810929298400878906e+00 -2.310599088668823242e-01 1.747505950927734375e+01 2.070523071289062500e+01 1.145408725738525391e+01 1.968248176574707031e+01
1.800000000000000000e+01 9.684882164001464844e+00 -3.850998580455780029e-01 1.226756000518798828e+01 1.335905551910400391e+01 7.687984466552734375e+00 1.369090843200683594e+01
1.900000000000000000e+01 9.558835029602050781e+00 -5.391398072242736816e-01 9.217900276184082031e+00 1.058742046356201172e+01 5.941596031188964844e+00 1.075081348419189453e+01
2.000000000000000000e+01 9.432787895202636719e+00 -6.931797266006469727e-01 7.488404273986816406e+00 9.025059700012207031e+00 4.954039096832275391e+00 9.219213485717773438e+00
2.100000000000000000e+01 9.859606742858886719e+00 -2.634885013103485107e-01 1.403733444213867188e+01 3.055715751647949219e+01 1.337834739685058594e+01 2.017613029479980469e+01
2.200000000000000000e+01 9.766011238098144531e+00 -4.391474723815917969e-01 1.001528358459472656e+01 2.074829673767089844e+01 9.229073524475097656e+00 1.474685573577880859e+01
2.300000000000000000e+01 9.672415733337402344e+00 -6.148064732551574707e-01 7.786552429199218750e+00 1.653607749938964844e+01 7.296788692474365234e+00 1.209729194641113281e+01
2.400000000000000000e+01 9.578820228576660156e+00 -7.904654741287231445e-01 6.032196521759033203e+00 1.411638355255126953e+01 6.044573783874511719e+00 1.020900726318359375e+01
2.500000000000000000e+01 9.913672447204589844e+00 -2.858042120933532715e-01 1.038461112976074219e+01 3.944047546386718750e+01 1.494752597808837891e+01 1.769678497314453125e+01
2.600000000000000000e+01 9.856121063232421875e+00 -4.763403236865997314e-01 7.716344356536865234e+00 2.783332443237304688e+01 1.066490077972412109e+01 1.380872535705566406e+01
2.700000000000000000e+01 9.798569679260253906e+00 -6.668764352798461914e-01 5.606211662292480469e+00 2.246596336364746094e+01 8.421652793884277344e+00 1.148425197601318359e+01
2.800000000000000000e+01 9.741018295288085938e+00 -8.574125766754150391e-01 4.351857185363769531e+00 1.942871475219726562e+01 7.134171485900878906e+00 1.001334381103515625e+01
2.900000000000000000e+01 9.971052169799804688e+00 -2.971505522727966309e-01 8.335868835449218750e+00 4.626308059692382812e+01 1.637968444824218750e+01 1.310956382751464844e+01
3.000000000000000000e+01 9.951753616333007812e+00 -4.952509105205535889e-01 5.725893020629882812e+00 3.368366622924804688e+01 1.182286739349365234e+01 1.095057201385498047e+01
3.100000000000000000e+01 9.932455062866210938e+00 -6.933512687683105469e-01 4.015242099761962891e+00 2.769867706298828125e+01 9.514176368713378906e+00 9.386500358581542969e+00
3.200000000000000000e+01 9.913155555725097656e+00 -8.914516568183898926e-01 2.764013767242431641e+00 2.381118965148925781e+01 7.972560882568359375e+00 8.152850151062011719e+00
3.300000000000000000e+01 1.002954196929931641e+01 -2.970920503139495850e-01 8.100603103637695312e+00 5.028661727905273438e+01 1.751616668701171875e+01 7.314984321594238281e+00
3.400000000000000000e+01 1.004923725128173828e+01 -4.951534271240234375e-01 5.177574634552001953e+00 3.783486938476562500e+01 1.290373325347900391e+01 6.988770484924316406e+00
3.500000000000000000e+01 1.006893157958984375e+01 -6.932148337364196777e-01 3.241580963134765625e+00 3.134609031677246094e+01 1.037630176544189453e+01 6.052073478698730469e+00
3.600000000000000000e+01 1.008862686157226562e+01 -8.912761807441711426e-01 2.060549974441528320e+00 2.726665496826171875e+01 8.798161506652832031e+00 5.265541076660156250e+00
3.700000000000000000e+01 1.008689880371093750e+01 -2.856309711933135986e-01 1.015170574188232422e+01 5.161207199096679688e+01 1.852913284301757812e+01 1.658901453018188477e+00
3.800000000000000000e+01 1.014483070373535156e+01 -4.760516285896301270e-01 6.069802284240722656e+00 3.981147766113281250e+01 1.376438426971435547e+01 2.548654794692993164e+00
3.900000000000000000e+01 1.020276355743408203e+01 -6.664722561836242676e-01 3.883177995681762695e+00 3.336290359497070312e+01 1.117382526397705078e+01 2.302791833877563477e+00
4.000000000000000000e+01 1.026069545745849609e+01 -8.568928837776184082e-01 2.435497045516967773e+00 2.906250953674316406e+01 9.449401855468750000e+00 1.929762601852416992e+00
4.100000000000000000e+01 1.014091968536376953e+01 -2.632071673870086670e-01 1.392048549652099609e+01 5.053776931762695312e+01 1.933747673034667969e+01 -2.995028257369995117e+00
4.200000000000000000e+01 1.023486614227294922e+01 -4.386786222457885742e-01 8.511657714843750000e+00 3.985369110107421875e+01 1.450960445404052734e+01 -1.442308068275451660e+00
4.300000000000000000e+01 1.032881259918212891e+01 -6.141500473022460938e-01 5.826817989349365234e+00 3.356470870971679688e+01 1.181745719909667969e+01 -1.194089531898498535e+00
4.400000000000000000e+01 1.042275905609130859e+01 -7.896215319633483887e-01 4.056808471679687500e+00 2.936470985412597656e+01 1.002645587921142578e+01 -1.229926347732543945e+00
4.500000000000000000e+01 1.018953227996826172e+01 -2.306813150644302368e-01 1.864536857604980469e+01 4.795040130615234375e+01 1.997873115539550781e+01 -5.929728031158447266e+00
4.600000000000000000e+01 1.031588745117187500e+01 -3.844688534736633301e-01 1.213808822631835938e+01 3.826611709594726562e+01 1.512126159667968750e+01 -4.362040996551513672e+00
4.700000000000000000e+01 1.044224262237548828e+01 -5.382564067840576172e-01 8.804714202880859375e+00 3.232315444946289062e+01 1.233836078643798828e+01 -3.786049604415893555e+00
4.800000000000000000e+01 1.056859779357910156e+01 -6.920439004898071289e-01 6.638733386993408203e+00 2.838419151306152344e+01 1.050687789916992188e+01 -3.551228046417236328e+00
4.900000000000000000e+01 1.023087024688720703e+01 -1.893017292022705078e-01 2.362520217895507812e+01 4.470541381835937500e+01 2.049918556213378906e+01 -6.943217277526855469e+00
5.000000000000000000e+01 1.038478469848632812e+01 -3.155028820037841797e-01 1.619382858276367188e+01 3.571020507812500000e+01 1.557120990753173828e+01 -5.774023532867431641e+00
5.100000000000000000e+01 1.053869819641113281e+01 -4.417040348052978516e-01 1.241470432281494141e+01 3.018892669677734375e+01 1.278108978271484375e+01 -5.065852642059326172e+00
5.200000000000000000e+01 1.069261169433593750e+01 -5.679051876068115234e-01 9.744771957397460938e+00 2.639713668823242188e+01 1.084257221221923828e+01 -4.635835647583007812e+00
5.300000000000000000e+01 1.026334762573242188e+01 -1.406566202640533447e-01 2.788495445251464844e+01 4.158568954467773438e+01 2.084119224548339844e+01 -6.238993644714355469e+00
5.400000000000000000e+01 1.043891334533691406e+01 -2.344277054071426392e-01 2.016603851318359375e+01 3.294791793823242188e+01 1.593418693542480469e+01 -5.523419380187988281e+00
5.500000000000000000e+01 1.061447906494140625e+01 -3.281987905502319336e-01 1.579914951324462891e+01 2.775409698486328125e+01 1.306597423553466797e+01 -4.896550178527832031e+00
5.600000000000000000e+01 1.079004383087158203e+01 -4.219698905944824219e-01 1.299012660980224609e+01 2.419752883911132812e+01 1.115629673004150391e+01 -4.502492904663085938e+00
5.700000000000000000e+01 1.028571796417236328e+01 -8.661302924156188965e-02 3.108013343811035156e+01 3.921191787719726562e+01 2.108761596679687500e+01 -4.129283428192138672e+00
5.800000000000000000e+01 1.047619628906250000e+01 -1.443550437688827515e-01 2.312847137451171875e+01 3.066823387145996094e+01 1.613901138305664062e+01 -3.876453399658203125e+00
5.900000000000000000e+01 1.066667461395263672e+01 -2.020970582962036133e-01 1.858233451843261719e+01 2.566721916198730469e+01 1.327486610412597656e+01 -3.419054269790649414e+00
6.000000000000000000e+01 1.085715293884277344e+01 -2.598390877246856689e-01 1.535382080078125000e+01 2.241686439514160156e+01 1.133120536804199219e+01 -3.156509160995483398e+00
6.100000000000000000e+01 1.029712104797363281e+01 -2.924515865743160248e-02 3.266408157348632812e+01 3.792988967895507812e+01 2.117819213867187500e+01 -1.274915695190429688e+00
6.200000000000000000e+01 1.049520206451416016e+01 -4.874193295836448669e-02 2.479082298278808594e+01 2.939685249328613281e+01 1.625630187988281250e+01 -1.158283591270446777e+00
6.300000000000000000e+01 1.069328308105468750e+01 -6.823870539665222168e-02 1.994587707519531250e+01 2.454339408874511719e+01 1.334678173065185547e+01 -1.152429819107055664e+00
6.400000000000000000e+01 1.089136409759521484e+01 -8.773547410964965820e-02 1.675998306274414062e+01 2.121740913391113281e+01 1.139321708679199219e+01 -8.787287473678588867e-01
6.500000000000000000e+01 1.029712104797363281e+01 2.924515865743160248e-02 3.259896850585937500e+01 3.795740890502929688e+01 2.116691398620605469e+01 1.954783439636230469e+00
6.600000000000000000e+01 1.049520206451416016e+01 4.874193295836448669e-02 2.473034667968750000e+01 2.939337921142578125e+01 1.623711776733398438e+01 1.773387551307678223e+00
6.700000000000000000e+01 1.069328308105468750e+01 6.823870539665222168e-02 1.985299110412597656e+01 2.462494659423828125e+01 1.334338188171386719e+01 1.623300194740295410e+00
6.800000000000000000e+01 1.089136409759521484e+01 8.773547410964965820e-02 1.659739112854003906e+01 2.109893035888671875e+01 1.130889606475830078e+01 1.414264678955078125e+00
6.900000000000000000e+01 1.028571796417236328e+01 8.661302924156188965e-02 3.088474845886230469e+01 3.927791213989257812e+01 2.104879760742187500e+01 4.824279785156250000e+00
7.000000000000000000e+01 1.047619628906250000e+01 1.443550437688827515e-01 2.292870903015136719e+01 3.069573593139648438e+01 1.608733367919921875e+01 4.440137863159179688e+00
7.100000000000000000e+01 1.066667461395263672e+01 2.020970582962036133e-01 1.834202194213867188e+01 2.580080223083496094e+01 1.324284744262695312e+01 3.942330837249755859e+00
7.200000000000000000e+01 1.085715293884277344e+01 2.598390877246856689e-01 1.510014629364013672e+01 2.228783988952636719e+01 1.121639537811279297e+01 3.658376693725585938e+00
7.300000000000000000e+01 1.026334762573242188e+01 1.406566202640533447e-01 2.753229904174804688e+01 4.160007858276367188e+01 2.073971366882324219e+01 6.927628040313720703e+00
7.400000000000000000e+01 1.043891334533691406e+01 2.344277054071426392e-01 1.984765052795410156e+01 3.309547424316406250e+01 1.588293647766113281e+01 6.021697521209716797e+00
7.500000000000000000e+01 1.061447906494140625e+01 3.281987905502319336e-01 1.548340320587158203e+01 2.776652717590332031e+01 1.297497940063476562e+01 5.426387310028076172e+00
7.600000000000000000e+01 1.079004383087158203e+01 4.219698905944824219e-01 1.283874225616455078e+01 2.428458023071289062e+01 1.113699722290039062e+01 4.938212871551513672e+00
7.700000000000000000e+01 1.023087024688720703e+01 1.893017292022705078e-01 2.318263435363769531e+01 4.481251144409179688e+01 2.039854431152343750e+01 7.554145336151123047e+00
7.800000000000000000e+01 1.038478469848632812e+01 3.155028820037841797e-01 1.573168659210205078e+01 3.580095672607421875e+01 1.545979309082031250e+01 6.264737129211425781e+00
7.900000000000000000e+01 1.053869819641113281e+01 4.417040348052978516e-01 1.211863327026367188e+01 3.024935722351074219e+01 1.271039772033691406e+01 5.460079669952392578e+00
8.000000000000000000e+01 1.069261169433593750e+01 5.679051876068115234e-01 9.535530090332031250e+00 2.639583206176757812e+01 1.077940845489501953e+01 5.025546550750732422e+00
8.100000000000000000e+01 1.018953227996826172e+01 2.306813150644302368e-01 1.801691055297851562e+01 4.806325149536132812e+01 1.982404899597167969e+01 6.484440326690673828e+00
8.200000000000000000e+01 1.031588745117187500e+01 3.844688534736633301e-01 1.166250610351562500e+01 3.833368301391601562e+01 1.499885654449462891e+01 4.769480705261230469e+00
8.300000000000000000e+01 1.044224262237548828e+01 5.382564067840576172e-01 8.422434806823730469e+00 3.237887573242187500e+01 1.224039363861083984e+01 4.111204624176025391e+00
8.400000000000000000e+01 1.056859779357910156e+01 6.920439004898071289e-01 6.385976314544677734e+00 2.834923362731933594e+01 1.042056274414062500e+01 3.790998697280883789e+00
8.500000000000000000e+01 1.014091968536376953e+01 2.632071673870086670e-01 1.320822429656982422e+01 5.062476348876953125e+01 1.914989662170410156e+01 3.467122793197631836e+00
8.600000000000000000e+01 1.023486614227294922e+01 4.386786222457885742e-01 7.982720851898193359e+00 3.987551879882812500e+01 1.435747146606445312e+01 1.768952012062072754e+00
8.700000000000000000e+01 1.032881259918212891e+01 6.141500473022460938e-01 5.405075550079345703e+00 3.356911087036132812e+01 1.169225597381591797e+01 1.465071558952331543e+00
8.800000000000000000e+01 1.042275905609130859e+01 7.896215319633483887e-01 3.748533964157104492e+00 2.940008735656738281e+01 9.944586753845214844e+00 1.403332114219665527e+00
8.900000000000000000e+01 1.008689880371093750e+01 2.856309711933135986e-01 9.369199752807617188e+00 5.163041687011718750e+01 1.829988479614257812e+01 -1.283141732215881348e+00
9.000000000000000000e+01 1.014483070373535156e+01 4.760516285896301270e-01 5.525364398956298828e+00 3.977069473266601562e+01 1.358881759643554688e+01 -2.266733169555664062e+00
9.100000000000000000e+01 1.020276355743408203e+01 6.664722561836242676e-01 3.422371625900268555e+00 3.331457901000976562e+01 1.102108573913574219e+01 -2.075369358062744141e+00
9.200000000000000000e+01 1.026069545745849609e+01 8.568928837776184082e-01 2.080557584762573242e+00 2.903743362426757812e+01 9.335397720336914062e+00 -1.775498509407043457e+00
9.300000000000000000e+01 1.002954196929931641e+01 2.970920503139495850e-01 7.334980487823486328e+00 5.021218490600585938e+01 1.726414871215820312e+01 -7.012215614318847656e+00
9.400000000000000000e+01 1.004923725128173828e+01 4.951534271240234375e-01 4.578688621520996094e+00 3.770815658569335938e+01 1.268605422973632812e+01 -6.725481510162353516e+00
9.500000000000000000e+01 1.006893157958984375e+01 6.932148337364196777e-01 2.794951200485229492e+00 3.124815750122070312e+01 1.021293258666992188e+01 -5.833703517913818359e+00
9.600000000000000000e+01 1.008862686157226562e+01 8.912761807441711426e-01 1.586110353469848633e+00 2.717377471923828125e+01 8.627964973449707031e+00 -5.129837512969970703e+00
9.700000000000000000e+01 9.971052169799804688e+00 2.971505522727966309e-01 7.533079147338867188e+00 4.605721282958984375e+01 1.607708740234375000e+01 -1.284274291992187500e+01
9.800000000000000000e+01 9.951753616333007812e+00 4.952509105205535889e-01 5.149608612060546875e+00 3.348883056640625000e+01 1.159153175354003906e+01 -1.067257499694824219e+01
9.900000000000000000e+01 9.932455062866210938e+00 6.933512687683105469e-01 3.495150327682495117e+00 2.752026748657226562e+01 9.304625511169433594e+00 -9.160009384155273438e+00
1.000000000000000000e+02 9.913155555725097656e+00 8.914516568183898926e-01 2.284543991088867188e+00 2.375097084045410156e+01 7.810654163360595703e+00 -7.937753200531005859e+00
1.010000000000000000e+02 9.913672447204589844e+00 2.858042120933532715e-01 9.566978454589843750e+00 3.913513565063476562e+01 1.461063480377197266e+01 -1.739100074768066406e+01
1.020000000000000000e+02 9.856121063232421875e+00 4.763403236865997314e-01 7.110679149627685547e+00 2.757268142700195312e+01 1.040500831604003906e+01 -1.352040100097656250e+01
1.030000000000000000e+02 9.798569679260253906e+00 6.668764352798461914e-01 5.052864551544189453e+00 2.225235557556152344e+01 8.191565513610839844e+00 -1.121103572845458984e+01
1.040000000000000000e+02 9.741018295288085938e+00 8.574125766754150391e-01 3.872991800308227539e+00 1.923650932312011719e+01 6.932850360870361328e+00 -9.711837768554687500e+00
1.050000000000000000e+02 9.859606742858886719e+00 2.634885013103485107e-01 1.319224643707275391e+01 3.019812393188476562e+01 1.301711082458496094e+01 -1.979573440551757812e+01
1.060000000000000000e+02 9.766011238098144531e+00 4.391474723815917969e-01 9.313650131225585938e+00 2.046669769287109375e+01 8.934103965759277344e+00 -1.444678306579589844e+01
1.070000000000000000e+02 9.672415733337402344e+00 6.148064732551574707e-01 7.251597404479980469e+00 1.629261779785156250e+01 7.063264369964599609e+00 -1.177437973022460938e+01
1.080000000000000000e+02 9.578820228576660156e+00 7.904654741287231445e-01 5.497282028198242188e+00 1.379708766937255859e+01 5.788311004638671875e+00 -9.928081512451171875e+00
1.090000000000000000e+02 9.810929298400878906e+00 2.310599088668823242e-01 1.650013732910156250e+01 2.033325004577636719e+01 1.105001640319824219e+01 -1.924477767944335938e+01
1.100000000000000000e+02 9.684882164001464844e+00 3.850998580455780029e-01 1.148242950439453125e+01 1.310814380645751953e+01 7.377171993255615234e+00 -1.334904575347900391e+01
1.110000000000000000e+02 9.558835029602050781e+00 5.391398072242736816e-01 8.615980148315429688e+00 1.032568359375000000e+01 5.682498931884765625e+00 -1.045354938507080078e+01
1.120000000000000000e+02 9.432787895202636719e+00 6.931797266006469727e-01 6.952360630035400391e+00 8.829835891723632812e+00 4.734658718109130859e+00 -8.959676742553710938e+00
1.130000000000000000e+02 9.769508361816406250e+00 1.897630989551544189e-01 1.875244522094726562e+01 1.069041633605957031e+01 8.832858085632324219e+00 -1.575892066955566406e+01
1.140000000000000000e+02 9.615847587585449219e+00 3.162718117237091064e-01 1.175265884399414062e+01 6.632077693939208984e+00 5.515420913696289062e+00 -1.012338829040527344e+01
1.150000000000000000e+02 9.462185859680175781e+00 4.427805542945861816e-01 8.948414802551269531e+00 5.333766937255859375e+00 4.284654617309570312e+00 -7.902413845062255859e+00
1.160000000000000000e+02 9.308525085449218750e+00 5.692892670631408691e-01 6.870318889617919922e+00 4.910062789916992188e+00 3.534114599227905273e+00 -6.563827037811279297e+00
1.170000000000000000e+02 9.736933708190917969e+00 1.411830335855484009e-01 1.723457908630371094e+01 2.991704225540161133e+00 6.067884922027587891e+00 -9.870072364807128906e+00
1.180000000000000000e+02 9.561555862426757812e+00 2.353050708770751953e-01 1.017172813415527344e+01 1.727888345718383789e+00 3.569885015487670898e+00 -5.668594360351562500e+00
1.190000000000000000e+02 9.386178970336914062e+00 3.294270932674407959e-01 6.602422237396240234e+00 2.348038673400878906e+00 2.685138225555419922e+00 -4.427129745483398438e+00
1.200000000000000000e+02 9.210802078247070312e+00 4.235491156578063965e-01 5.522685050964355469e+00 2.194260835647583008e+00 2.315083742141723633e+00 -4.098031520843505859e+00
1.210000000000000000e+02 9.714455604553222656e+00 8.718428760766983032e-02 1.178282260894775391e+01 -2.664057970046997070e+00 2.735629320144653320e+00 -2.138285875320434570e+00
1.220000000000000000e+02 9.524093627929687500e+00 1.453071534633636475e-01 3.953665733337402344e+00 3.760878145694732666e-01 1.298925995826721191e+00 -1.460553050041198730e+00
1.230000000000000000e+02 9.333730697631835938e+00 2.034300118684768677e-01 3.691948175430297852e+00 9.737212061882019043e-01 1.399700880050659180e+00 -2.233374595642089844e+00
1.240000000000000000e+02 9.143367767333984375e+00 2.615528702735900879e-01 2.331480503082275391e+00 2.062634527683258057e-01 7.613232135772705078e-01 -1.361978411674499512e+00
1.250000000000000000e+02 9.702937126159667969e+00 2.983934059739112854e-02 -4.947370529174804688e+00 -2.888700485229492188e+00 -2.350821495056152344e+00 3.010809898376464844e+00
1.260000000000000000e+02 9.504896163940429688e+00 4.973223432898521423e-02 -2.367306649684906006e-01 1.118820548057556152e+00 2.646269798278808594e-01 -8.242068886756896973e-01
1.270000000000000000e+02 9.306854248046875000e+00 6.962513178586959839e-02 -1.528153300285339355e+00 -4.793122112751007080e-01 -6.022396683692932129e-01 3.990966826677322388e-02
1.280000000000000000e+02 9.108813285827636719e+00 8.951802551746368408e-02 -1.779278993606567383e+00 2.594235539436340332e-01 -4.559566378593444824e-01 -1.534354388713836670e-01
1.290000000000000000e+02 1.158342361450195312e-01 -9.552106857299804688e-01 6.670768372714519501e-03 -5.131123214960098267e-02 -1.339213922619819641e-02 -1.489367429167032242e-02
1.300000000000000000e+02 9.452310949563980103e-02 -5.196542143821716309e-01 1.163049833849072456e-03 -3.554420778527855873e-03 -7.174113416112959385e-04 -4.461966920644044876e-03
1.310000000000000000e+02 8.047272264957427979e-02 -3.348883092403411865e-01 -3.537259297445416451e-03 3.648013575002551079e-03 3.322622433188371360e-05 6.641659419983625412e-04
1.320000000000000000e+02 6.704595088958740234e-01 -1.189597725868225098e+00 -3.694391995668411255e-02 -1.412044018507003784e-01 -5.344449728727340698e-02 -1.503252983093261719e-01
1.330000000000000000e+02 4.989198446273803711e-01 -1.392871141433715820e+00 -1.819192059338092804e-02 -1.863969117403030396e-01 -6.137664988636970520e-02 -1.360823959112167358e-01
1.340000000000000000e+02 6.919136643409729004e-01 -1.388064265251159668e+00 -3.765014186501502991e-02 -1.872446686029434204e-01 -6.746844202280044556e-02 -1.667284369468688965e-01
1.350000000000000000e+02 2.494502544403076172e+00 -1.354987144470214844e+00 -2.125074863433837891e-01 -5.784979462623596191e-02 -8.110718429088592529e-02 -3.718339502811431885e-01
1.360000000000000000e+02 2.919969081878662109e+00 -1.376239299774169922e+00 -2.443899512290954590e-01 -2.638444304466247559e-02 -8.123231679201126099e-02 -3.909055888652801514e-01
1.370000000000000000e+02 2.470916032791137695e+00 -1.059127449989318848e+00 -3.164977431297302246e-01 -4.124210029840469360e-02 -1.073219552636146545e-01 -3.394835889339447021e-01
1.380000000000000000e+02 2.876306295394897461e+00 -9.978117346763610840e-01 -4.098643362522125244e-01 -2.337997406721115112e-02 -1.299732923507690430e-01 -3.430036306381225586e-01
1.390000000000000000e+02 2.802544832229614258e+00 -6.208453774452209473e-01 -5.351602435111999512e-01 -1.906616613268852234e-02 -1.662679165601730347e-01 -2.490241527557373047e-01
1.400000000000000000e+02 3.299050569534301758e+00 -1.486306041479110718e-01 -9.737934470176696777e-01 2.436081413179636002e-03 -2.914072275161743164e-01 -7.151524722576141357e-02
1.410000000000000000e+02 3.092912435531616211e+00 -1.450943201780319214e-01 -8.811877369880676270e-01 -2.644155174493789673e-03 -2.651495635509490967e-01 -7.277049124240875244e-02
1.420000000000000000e+02 3.699659109115600586e+00 -1.269613206386566162e-01 -1.166624784469604492e+00 3.648500191047787666e-03 -3.488928675651550293e-01 -7.200986891984939575e-02
1.430000000000000000e+02 3.894185304641723633e+00 -1.247326359152793884e-01 -1.274314045906066895e+00 -4.466662649065256119e-04 -3.824282288551330566e-01 -6.811251491308212280e-02
1.440000000000000000e+02 5.521253585815429688e+00 -1.368425250053405762e+00 -6.733488291501998901e-02 1.965966820716857910e-01 3.877853974699974060e-02 -1.020319573581218719e-02
1.450000000000000000e+02 5.718832492828369141e+00 -1.378246426582336426e+00 3.041805326938629150e-02 2.315891385078430176e-01 7.860215753316879272e-02 5.902547016739845276e-02
1.460000000000000000e+02 5.892667293548583984e+00 -1.387828886508941650e-01 -2.148512363433837891e+00 7.107689976692199707e-03 -6.424214243888854980e-01 -6.889996677637100220e-02
1.470000000000000000e+02 5.484801769256591797e+00 -1.456770151853561401e-01 -2.001870632171630859e+00 2.247575437650084496e-03 -5.998868942260742188e-01 -7.187996804714202881e-02
1.480000000000000000e+02 6.314941406250000000e+00 -1.399257540702819824e+00 4.036586582660675049e-01 4.028937816619873047e-01 2.419657260179519653e-01 4.065206050872802734e-01
1.490000000000000000e+02 6.297612190246582031e+00 -1.303483098745346069e-01 -2.281018733978271484e+00 6.312032230198383331e-03 -6.824119687080383301e-01 -6.421973556280136108e-02
1.500000000000000000e+02 6.114730358123779297e+00 -1.392511487007141113e+00 2.880289852619171143e-01 2.855614125728607178e-01 1.720771193504333496e-01 2.524934411048889160e-01
1.510000000000000000e+02 6.672454357147216797e+00 -1.408431291580200195e+00 6.703575253486633301e-01 5.442986488342285156e-01 3.643968403339385986e-01 6.586699485778808594e-01
1.520000000000000000e+02 7.689256191253662109e+00 -1.350958108901977539e+00 1.862413883209228516e+00 1.292700052261352539e+00 9.465341567993164062e-01 1.863570690155029297e+00
1.530000000000000000e+02 8.410909652709960938e+00 -3.483122587203979492e-01 1.055406630039215088e-01 1.400617659091949463e-01 7.368072867393493652e-02 7.140883207321166992e-01
1.540000000000000000e+02 8.302818298339843750e+00 -1.324055194854736328e+00 2.958573341369628906e+00 2.655670642852783203e+00 1.684273123741149902e+00 3.403924703598022461e+00
1.550000000000000000e+02 9.688844680786132812e+00 -1.044457077980041504e+00 3.347469806671142578e+00 1.734925842285156250e+01 6.209018230438232422e+00 8.771265983581542969e+00
1.560000000000000000e+02 1.025903892517089844e+01 -1.133519649505615234e+00 9.980627894401550293e-01 2.480776977539062500e+01 7.741749763488769531e+00 2.525583982467651367e+00
1.570000000000000000e+02 1.073481464385986328e+01 -1.144141316413879395e+00 2.409257888793945312e+00 2.275319290161132812e+01 7.548735141754150391e+00 -2.214985609054565430e+00
1.580000000000000000e+02 1.108393096923828125e+01 -2.791437804698944092e-01 1.312552642822265625e+01 1.933086776733398438e+01 9.736918449401855469e+00 -2.589578628540039062e+00
1.590000000000000000e+02 1.110609245300292969e+01 -8.639926463365554810e-02 1.432940959930419922e+01 1.856707000732421875e+01 9.868943214416503906e+00 -7.572035789489746094e-01
1.600000000000000000e+02 1.125073242187500000e+01 3.355023860931396484e-01 1.114573383331298828e+01 1.733282089233398438e+01 8.543566703796386719e+00 2.811683416366577148e+00
1.610000000000000000e+02 1.096120643615722656e+01 5.763402581214904785e-01 9.840286254882812500e+00 2.180252647399902344e+01 9.492843627929687500e+00 4.757352352142333984e+00
1.620000000000000000e+02 1.065928459167480469e+01 8.806247115135192871e-01 4.262547016143798828e+00 2.554962730407714844e+01 8.943652153015136719e+00 3.093747854232788086e+00
1.630000000000000000e+02 9.162257194519042969e+00 1.101857781410217285e+00 4.298258781433105469e+00 7.439464092254638672e+00 3.521316766738891602e+00 -6.779204845428466797e+00
1.640000000000000000e+02 8.909451484680175781e+00 1.364026308059692383e+00 3.298152446746826172e+00 6.257829666137695312e+00 2.866794586181640625e+00 -5.607241630554199219e+00
1.650000000000000000e+02 8.948912620544433594e+00 3.158051371574401855e-01 1.663641095161437988e+00 4.624397754669189453e-01 6.378242373466491699e-01 -1.369936108589172363e+00
1.660000000000000000e+02 8.910804748535156250e+00 1.078275069594383240e-01 -2.066358089447021484e+00 -1.288059055805206299e-01 -6.585492491722106934e-01 -7.070774585008621216e-02
1.670000000000000000e+02 8.536369323730468750e+00 3.947198987007141113e-01 3.604448139667510986e-01 3.491681516170501709e-01 2.128838896751403809e-01 -8.438513278961181641e-01
1.680000000000000000e+02 9.712758064270019531e+00 1.387733101844787598e+00 1.254653215408325195e+00 1.670442199707031250e+01 5.387722492218017578e+00 -6.711151599884033203e+00
1.690000000000000000e+02 9.905720710754394531e+00 1.375819563865661621e+00 5.239924788475036621e-01 1.905581092834472656e+01 5.873940944671630859e+00 -5.586760997772216797e+00
1.700000000000000000e+02 8.702444076538085938e+00 1.370556354522705078e+00 3.352031469345092773e+00 4.660923957824707031e+00 2.403886556625366211e+00 -4.851241111755371094e+00
1.710000000000000000e+02 8.508754730224609375e+00 1.347165107727050781e-01 -2.441655158996582031e+00 -6.484069861471652985e-03 -7.344417572021484375e-01 -5.035305023193359375e-02
1.720000000000000000e+02 8.101596832275390625e+00 1.356433868408203125e+00 2.357886075973510742e+00 2.132834911346435547e+00 1.347216367721557617e+00 -2.686302900314331055e+00
1.730000000000000000e+02 8.103774070739746094e+00 1.460121721029281616e-01 -2.668018817901611328e+00 -1.601622998714447021e-02 -8.052104711532592773e-01 -4.132550954818725586e-02
1.740000000000000000e+02 5.695895671844482422e+00 1.386821031570434570e+00 -1.480642259120941162e-01 2.007381618022918701e-01 1.580218039453029633e-02 3.684266656637191772e-02
1.750000000000000000e+02 5.114307403564453125e+00 1.096266388893127441e+00 -6.343089938163757324e-01 5.839555338025093079e-02 -1.727740317583084106e-01 2.759485840797424316e-01
1.760000000000000000e+02 5.508736133575439453e+00 1.152617573738098145e+00 -5.054838657379150391e-01 1.081017926335334778e-01 -1.192146241664886475e-01 1.798703521490097046e-01
1.770000000000000000e+02 3.705371618270874023e+00 1.385451078414916992e+00 -3.660431504249572754e-01 1.216830406337976456e-02 -1.061624512076377869e-01 4.139877259731292725e-01
1.780000000000000000e+02 3.707933187484741211e+00 1.598374396562576294e-01 -1.224812388420104980e+00 1.458333572372794151e-04 -3.673999607563018799e-01 9.369054436683654785e-02
1.790000000000000000e+02 4.129785537719726562e+00 8.771088123321533203e-01 -7.958342432975769043e-01 1.218012440949678421e-02 -2.350962311029434204e-01 3.442702293395996094e-01
1.800000000000000000e+02 3.529339075088500977e+00 6.908538937568664551e-01 -7.850870490074157715e-01 -1.108955685049295425e-02 -2.388529777526855469e-01 2.958872914314270020e-01
1.810000000000000000e+02 3.317279100418090820e+00 1.370108008384704590e+00 -3.530916869640350342e-01 -1.126253884285688400e-02 -1.093062683939933777e-01 4.320073425769805908e-01
1.820000000000000000e+02 3.117893695831298828e+00 1.336868524551391602e+00 -3.487890958786010742e-01 -2.397931180894374847e-02 -1.118305251002311707e-01 4.261838793754577637e-01
1.830000000000000000e+02 3.043033838272094727e+00 8.875674605369567871e-01 -5.435608029365539551e-01 -1.933390647172927856e-02 -1.688684076070785522e-01 3.550695776939392090e-01
1.840000000000000000e+02 2.487853288650512695e+00 1.092489838600158691e+00 -3.489871025085449219e-01 -4.962924867868423462e-02 -1.195849105715751648e-01 3.748614192008972168e-01
1.850000000000000000e+02 2.895749568939208984e+00 1.686940938234329224e-01 -7.979952692985534668e-01 -2.358919737162068486e-04 -2.394693344831466675e-01 8.225927501916885376e-02
1.860000000000000000e+02 2.300387144088745117e+00 1.371603012084960938e+00 -2.332545071840286255e-01 -8.019365370273590088e-02 -9.403444826602935791e-02 4.089921414852142334e-01
1.870000000000000000e+02 9.027634263038635254e-01 1.380576014518737793e+00 -6.818189471960067749e-02 -1.704540252685546875e-01 -7.159077376127243042e-02 2.125698924064636230e-01
1.880000000000000000e+02 7.064817547798156738e-01 1.379356741905212402e+00 -3.454327955842018127e-02 -2.063812911510467529e-01 -7.227737456560134888e-02 1.753661781549453735e-01
1.890000000000000000e+02 5.074881911277770996e-01 1.412107199430465698e-01 -5.155256949365139008e-03 -6.724050268530845642e-03 -3.563792211934924126e-03 7.388886529952287674e-03
1.900000000000000000e+02 1.111962795257568359e+00 1.164401471614837646e-01 -6.995936483144760132e-02 -8.549455553293228149e-03 -2.355264686048030853e-02 2.011417038738727570e-02
1.910000000000000000e+02 3.042126297950744629e-01 1.387158036231994629e+00 -1.396057102829217911e-02 -2.051946520805358887e-01 -6.574656814336776733e-02 9.015705436468124390e-02
1.920000000000000000e+02 1.001381948590278625e-01 9.661881327629089355e-01 -4.594929050654172897e-03 -4.710884392261505127e-02 -1.551113184541463852e-02 1.573319174349308014e-02
1.930000000000000000e+02 9.696643054485321045e-02 7.573472261428833008e-01 -3.532528353389352560e-04 -1.800707355141639709e-02 -5.508098285645246506e-03 1.027336344122886658e-02
1.940000000000000000e+02 9.930790960788726807e-02 3.400205671787261963e-01 -7.168775773607194424e-04 2.820656169205904007e-03 6.311335600912570953e-04 -6.846300675533711910e-04
1.950000000000000000e+02 9.669021517038345337e-02 5.493029952049255371e-01 -4.455849062651395798e-03 -1.599440001882612705e-03 -1.816586707718670368e-03 4.589474294334650040e-03
1.960000000000000000e+02 3.021513521671295166e-01 1.321522593498229980e-01 1.450591022148728371e-03 -2.000896027311682701e-03 -1.650915073696523905e-04 3.719735250342637300e-04
1.970000000000000000e+02 9.223401546478271484e-01 1.477951705455780029e-01 -4.208618029952049255e-02 4.967695567756891251e-04 -1.247682329267263412e-02 1.536403410136699677e-02
1.980000000000000000e+02 1.470306277275085449e+00 1.393156498670578003e-01 -1.917255371809005737e-01 -1.051393989473581314e-02 -6.067184358835220337e-02 4.041472449898719788e-02
1.990000000000000000e+02 1.504559159278869629e+00 1.359539151191711426e+00 -1.271906644105911255e-01 -1.470832675695419312e-01 -8.228217810392379761e-02 3.054780662059783936e-01
2.000000000000000000e+02 1.882001399993896484e+00 1.690664887428283691e-01 -3.415597081184387207e-01 -4.041061736643314362e-03 -1.036802306771278381e-01 6.346053630113601685e-02
2.010000000000000000e+02 1.675266385078430176e+00 1.561140567064285278e-01 -2.640722393989562988e-01 -1.024393085390329361e-02 -8.229485154151916504e-02 5.519839003682136536e-02
2.020000000000000000e+02 2.088147163391113281e+00 1.728044748306274414e-01 -4.193173646926879883e-01 -2.563318004831671715e-03 -1.265642046928405762e-01 6.653578579425811768e-02
2.030000000000000000e+02 1.910987615585327148e+00 1.378558754920959473e+00 -1.788519024848937988e-01 -1.178063228726387024e-01 -8.899746835231781006e-02 3.669587075710296631e-01
2.040000000000000000e+02 3.938179492950439453e+00 4.657450318336486816e-01 -1.090538144111633301e+00 -7.141123991459608078e-03 -3.293037712574005127e-01 2.279174029827117920e-01
2.050000000000000000e+02 4.308200359344482422e+00 1.459887772798538208e-01 -1.556244134902954102e+00 5.171238444745540619e-03 -4.653218686580657959e-01 8.860193938016891479e-02
2.060000000000000000e+02 5.096124649047851562e+00 1.248127669095993042e-01 -1.988677501678466797e+00 4.710333421826362610e-03 -5.951901674270629883e-01 7.624202966690063477e-02
2.070000000000000000e+02 6.690669059753417969e+00 1.378771901130676270e+00 3.805820047855377197e-01 4.836059808731079102e-01 2.592563927173614502e-01 -4.795782566070556641e-01
2.080000000000000000e+02 7.113923072814941406e+00 3.806204199790954590e-01 -1.795936226844787598e+00 2.227901853621006012e-02 -5.320971608161926270e-01 3.348263725638389587e-02
2.090000000000000000e+02 7.700154304504394531e+00 1.426025778055191040e-01 -2.781708717346191406e+00 -1.861842162907123566e-02 -8.400981426239013672e-01 2.880952879786491394e-02
2.100000000000000000e+02 7.701015472412109375e+00 6.891489624977111816e-01 -6.874524801969528198e-02 2.512106001377105713e-01 5.473960936069488525e-02 -5.263838171958923340e-01
2.110000000000000000e+02 9.123010635375976562e+00 7.135878205299377441e-01 5.525856971740722656e+00 4.157222270965576172e+00 2.904923677444458008e+00 -5.715593814849853516e+00
2.120000000000000000e+02 9.280339241027832031e+00 8.688903450965881348e-01 5.469973087310791016e+00 7.604390144348144531e+00 3.922308921813964844e+00 -7.453088283538818359e+00
2.130000000000000000e+02 1.029301166534423828e+01 1.328771829605102539e+00 1.065994054079055786e-01 2.269340133666992188e+01 6.840000629425048828e+00 -2.245620489120483398e+00
2.140000000000000000e+02 1.085127162933349609e+01 -7.153082489967346191e-01 7.829717636108398438e+00 2.348915290832519531e+01 9.395661354064941406e+00 -4.524057865142822266e+00
2.150000000000000000e+02 1.038669395446777344e+01 -1.044695854187011719e+00 1.655935883522033691e+00 2.625257301330566406e+01 8.372552871704101562e+00 8.654168844223022461e-01
2.160000000000000000e+02 1.023865318298339844e+01 -1.373344063758850098e+00 2.468581944704055786e-01 2.191687774658203125e+01 6.649120807647705078e+00 3.033171176910400391e+00
2.170000000000000000e+02 8.705793380737304688e+00 -4.061450958251953125e-01 1.908710479736328125e+00 5.027905702590942383e-01 7.234503030776977539e-01 1.455586314201354980e+00
2.180000000000000000e+02 7.281956672668457031e+00 -1.351641416549682617e+00 1.281610608100891113e+00 7.884832620620727539e-01 6.210281252861022949e-01 1.203695535659790039e+00
2.190000000000000000e+02 6.853759765625000000e+00 -1.359755992889404297e+00 7.813268899917602539e-01 5.808395147323608398e-01 4.086499214172363281e-01 7.600717544555664062e-01
2.200000000000000000e+02 6.702738761901855469e+00 -1.331013590097427368e-01 -2.390389919281005859e+00 1.064547896385192871e-02 -7.139233350753784180e-01 -5.421970412135124207e-02
2.210000000000000000e+02 5.115441322326660156e+00 -1.330337047576904297e+00 -2.135074883699417114e-01 1.308766752481460571e-01 -2.478924207389354706e-02 -1.472229361534118652e-01
2.220000000000000000e+02 2.153861999511718750e+00 -1.689965426921844482e-01 -4.255903065204620361e-01 1.905859075486660004e-02 -1.219595149159431458e-01 -7.016900926828384399e-02
2.230000000000000000e+02 2.294748306274414062e+00 -1.361813902854919434e+00 -2.064165621995925903e-01 -6.791624426841735840e-02 -8.229984343051910400e-02 -3.664466738700866699e-01
2.240000000000000000e+02 1.729924559593200684e+00 -4.902286231517791748e-01 -2.625516653060913086e-01 -2.361158281564712524e-02 -8.584897965192794800e-02 -1.508889645338058472e-01
2.250000000000000000e+02 1.307962417602539062e+00 -1.655665636062622070e-01 -1.469752341508865356e-01 -7.089081220328807831e-03 -4.621929302811622620e-02 -4.241737350821495056e-02
2.260000000000000000e+02 1.026552543044090271e-01 -1.392542600631713867e+00 2.716047689318656921e-02 -9.217289090156555176e-02 -1.950372569262981415e-02 4.833428189158439636e-03
2.270000000000000000e+02 9.305203437805175781e+00 -8.744363784790039062e-01 6.006479740142822266e+00 8.201080322265625000e+00 4.262268066406250000e+00 8.024168968200683594e+00
2.280000000000000000e+02 1.704760074615478516e+00 -1.067720770835876465e+00 -1.913092732429504395e-01 -7.615065574645996094e-02 -8.023797720670700073e-02 -2.814114689826965332e-01
2.290000000000000000e+02 3.718739748001098633e+00 4.421119987964630127e-01 -1.012781977653503418e+00 -4.623616579920053482e-03 -3.052217066287994385e-01 2.228507548570632935e-01
2.300000000000000000e+02 9.469409942626953125e+00 9.639760851860046387e-01 4.659150123596191406e+00 1.223204421997070312e+01 5.067358016967773438e+00 -8.794030189514160156e+00
2.310000000000000000e+02 3.109212875366210938e+00 -1.420225858688354492e+00 -2.412706315517425537e-01 -8.643583860248327255e-04 -7.264050096273422241e-02 -3.979712426662445068e-01
2.320000000000000000e+02 3.673345804214477539e+00 -1.356542825698852539e+00 -3.024584949016571045e-01 2.674790471792221069e-02 -8.271317183971405029e-02 -3.543387949466705322e-01
2.330000000000000000e+02 9.901885986328125000e+00 -1.074750423431396484e+00 1.982585310935974121e+00 2.155981826782226562e+01 7.062720775604248047e+00 7.216256141662597656e+00
2.340000000000000000e+02 1.107758998870849609e+01 1.039674431085586548e-01 1.440602111816406250e+01 1.893636894226074219e+01 1.000271701812744141e+01 1.277571320533752441e+00
2.350000000000000000e+02 1.089429092407226562e+01 9.207270741462707520e-01 5.142657756805419922e+00 2.255496215820312500e+01 8.309286117553710938e+00 4.081639289855957031e+00
2.360000000000000000e+02 1.080690765380859375e+01 1.168788671493530273e+00 2.194423198699951172e+00 2.187635231018066406e+01 7.221232891082763672e+00 2.831287622451782227e+00
2.370000000000000000e+02 1.065894412994384766e+01 1.228479743003845215e+00 1.241940379142761230e+00 2.310951042175292969e+01 7.305435180664062500e+00 1.636349439620971680e+00
2.380000000000000000e+02 1.009926033020019531e+01 1.109326839447021484e+00 7.310847640037536621e-01 2.415782546997070312e+01 7.466673374176025391e+00 -4.585769653320312500e+00
2.390000000000000000e+02 9.517053604125976562e+00 1.392658829689025879e+00 2.143032312393188477e+00 1.354435443878173828e+01 4.706215858459472656e+00 -7.216564178466796875e+00
2.400000000000000000e+02 7.899786949157714844e+00 1.355904221534729004e+00 2.045434474945068359e+00 1.657816290855407715e+00 1.110975265502929688e+00 -2.195744037628173828e+00
2.410000000000000000e+02 7.492914676666259766e+00 1.346846580505371094e+00 1.282448530197143555e+00 1.053565979003906250e+00 7.008043527603149414e-01 -1.432904720306396484e+00
2.420000000000000000e+02 6.091519355773925781e+00 1.358504295349121094e+00 1.159466220997273922e-03 2.791459858417510986e-01 8.409163355827331543e-02 -1.182073727250099182e-01
2.430000000000000000e+02 4.462540626525878906e+00 1.066448926925659180e+00 -6.570219993591308594e-01 2.839306369423866272e-02 -1.885886788368225098e-01 3.474931418895721436e-01
2.440000000000000000e+02 4.094229698181152344e+00 1.372979164123535156e+00 -3.940396904945373535e-01 2.652574330568313599e-02 -1.102541834115982056e-01 3.937676846981048584e-01
2.450000000000000000e+02 1.286486506462097168e+00 1.162464618682861328e+00 -1.240360885858535767e-01 -1.292473524808883667e-01 -7.598502933979034424e-02 2.540975809097290039e-01
2.460000000000000000e+02 1.014702394604682922e-01 1.391971230506896973e+00 1.177209243178367615e-02 -1.174064427614212036e-01 -3.169030696153640747e-02 8.105925284326076508e-03
2.470000000000000000e+02 1.003239825367927551e-01 1.273108571767807007e-01 7.139112567529082298e-04 8.383766398765146732e-04 4.656863457057625055e-04 -9.110800456255674362e-04
2.480000000000000000e+02 7.329292297363281250e-01 4.319826960563659668e-01 -5.792510136961936951e-02 -2.781370282173156738e-02 -2.572164125740528107e-02 5.275028571486473083e-02
2.490000000000000000e+02 1.386239290237426758e+00 3.766362667083740234e-01 -1.785369366407394409e-01 -1.781837083399295807e-02 -5.890659242868423462e-02 1.065549775958061218e-01
2.500000000000000000e+02 2.292985677719116211e+00 1.655435413122177124e-01 -5.045469403266906738e-01 -1.067458931356668472e-02 -1.545664519071578979e-01 7.472801953554153442e-02
2.510000000000000000e+02 2.695286035537719727e+00 1.684379279613494873e-01 -7.019805908203125000e-01 -3.304897109046578407e-03 -2.115856409072875977e-01 8.119594305753707886e-02
2.520000000000000000e+02 3.501118183135986328e+00 4.493677020072937012e-01 -9.248840212821960449e-01 -7.544224150478839874e-03 -2.797284722328186035e-01 2.219104170799255371e-01
2.530000000000000000e+02 4.504174232482910156e+00 1.370491534471511841e-01 -1.663535118103027344e+00 -3.261477686464786530e-03 -5.000389814376831055e-01 8.528581261634826660e-02
2.540000000000000000e+02 5.468919277191162109e+00 4.039701819419860840e-01 -1.685117483139038086e+00 -5.048946477472782135e-03 -5.070499181747436523e-01 1.788943409919738770e-01
2.550000000000000000e+02 5.696718215942382812e+00 1.538996994495391846e-01 -2.258844375610351562e+00 -6.491718348115682602e-03 -6.796007752418518066e-01 8.877807110548019409e-02
2.560000000000000000e+02 6.107610225677490234e+00 1.532623320817947388e-01 -2.426287174224853516e+00 -6.209576968103647232e-03 -7.297490239143371582e-01 8.587574213743209839e-02
2.570000000000000000e+02 6.509176254272460938e+00 1.416981220245361328e-01 -2.590496778488159180e+00 2.459137002006173134e-03 -7.764112949371337891e-01 8.075679838657379150e-02
2.580000000000000000e+02 6.906415462493896484e+00 1.331113576889038086e-01 -2.717635393142700195e+00 -2.425916120409965515e-02 -8.225684165954589844e-01 7.023781538009643555e-02
2.590000000000000000e+02 8.711063385009765625e+00 1.229138299822807312e-01 -2.275623083114624023e+00 7.549291849136352539e-02 -6.600390672683715820e-01 -9.413974732160568237e-02
2.600000000000000000e+02 1.103953266143798828e+01 2.695617675781250000e-01 1.356600189208984375e+01 1.990717697143554688e+01 1.004195308685302734e+01 3.236042022705078125e+00
2.610000000000000000e+02 1.114456081390380859e+01 7.576981186866760254e-01 7.432239532470703125e+00 1.959926414489746094e+01 8.109451293945312500e+00 4.518739700317382812e+00
2.620000000000000000e+02 1.048062229156494141e+01 1.001647591590881348e+00 2.223203420639038086e+00 2.614954566955566406e+01 8.511824607849121094e+00 8.460236787796020508e-01
2.630000000000000000e+02 8.897590637207031250e+00 -1.108529567718505859e-01 -1.299161434173583984e+00 -1.740808188915252686e-01 -4.419726729393005371e-01 1.819046586751937866e-01
2.640000000000000000e+02 9.020002365112304688e+00 -6.818686127662658691e-01 5.553352832794189453e+00 2.905056238174438477e+00 2.537522792816162109e+00 4.770417213439941406e+00
2.650000000000000000e+02 9.486912727355957031e+00 -9.693363308906555176e-01 5.035982131958007812e+00 1.254795742034912109e+01 5.275181770324707031e+00 9.066303253173828125e+00
2.660000000000000000e+02 1.111808109283447266e+01 -4.630428850650787354e-01 1.088759517669677734e+01 1.964397430419921875e+01 9.159470558166503906e+00 -3.448900222778320312e+00
2.670000000000000000e+02 8.106524467468261719e+00 -1.612324267625808716e-01 -2.105722904205322266e+00 -1.325234323740005493e-01 -6.714739203453063965e-01 5.109267309308052063e-02
2.680000000000000000e+02 6.295588970184326172e+00 -3.674811720848083496e-01 -1.682605862617492676e+00 3.568192187231034040e-04 -5.046747326850891113e-01 -8.284882456064224243e-02
2.690000000000000000e+02 5.241594791412353516e+00 -4.145678877830505371e-01 -1.436457633972167969e+00 9.141850285232067108e-03 -4.281947314739227295e-01 -1.570882052183151245e-01
2.700000000000000000e+02 4.866126537322998047e+00 -3.414294123649597168e-01 -1.465459585189819336e+00 -2.031178300967440009e-04 -4.396988153457641602e-01 -1.564855873584747314e-01
2.710000000000000000e+02 2.643744945526123047e+00 -3.284434974193572998e-01 -5.918452739715576172e-01 -1.405344437807798386e-02 -1.817696243524551392e-01 -1.458667367696762085e-01
2.720000000000000000e+02 2.499970436096191406e+00 -9.817486256361007690e-02 -6.237864494323730469e-01 -4.749928601086139679e-03 -1.885609179735183716e-01 -3.767976164817810059e-02
2.730000000000000000e+02 1.716540455818176270e+00 -1.788551807403564453e-01 -2.754361927509307861e-01 -1.435421966016292572e-02 -8.693712949752807617e-02 -6.294693797826766968e-02
2.740000000000000000e+02 9.602549672126770020e-02 -1.283648163080215454e-01 1.699913758784532547e-03 1.106938580051064491e-03 8.420557132922112942e-04 1.188023947179317474e-03
2.750000000000000000e+02 1.071215724945068359e+01 -8.493782281875610352e-01 5.379329204559326172e+00 2.512706947326660156e+01 9.151919364929199219e+00 -3.355515480041503906e+00
2.760000000000000000e+02 8.993978500366210938e+00 -1.087878465652465820e+00 4.615221023559570312e+00 5.799390792846679688e+00 3.124383449554443359e+00 6.098003864288330078e+00
2.770000000000000000e+02 1.125597381591796875e+01 -6.092246174812316895e-01 8.507436752319335938e+00 1.809569931030273438e+01 7.980940818786621094e+00 -3.948266506195068359e+00
2.780000000000000000e+02 9.019884109497070312e+00 5.161942839622497559e-01 4.180984020233154297e+00 1.424034833908081055e+00 1.681505560874938965e+00 -3.211005449295043945e+00
2.790000000000000000e+02 1.082630920410156250e+01 7.334623932838439941e-01 7.366991519927978516e+00 2.366212081909179688e+01 9.308733940124511719e+00 4.671505451202392578e+00
2.800000000000000000e+02 9.552035331726074219e+00 1.194209575653076172e+00 2.850219011306762695e+00 1.391814708709716797e+01 5.030509948730468750e+00 -7.839561462402343750e+00
2.810000000000000000e+02 1.088972091674804688e+01 -1.027581930160522461e+00 3.979925870895385742e+00 2.221468353271484375e+01 7.858382701873779297e+00 -3.648409128189086914e+00
2.820000000000000000e+02 1.125513172149658203e+01 5.939059853553771973e-01 8.904140472412109375e+00 1.802802658081054688e+01 8.079649925231933594e+00 4.264953613281250000e+00
2.830000000000000000e+02 1.131819057464599609e+01 -4.570733904838562012e-01 1.019378089904785156e+01 1.673787117004394531e+01 8.079496383666992188e+00 -2.970172405242919922e+00
2.840000000000000000e+02 1.102915954589843750e+01 -8.932558894157409668e-01 5.797389030456542969e+00 2.130273818969726562e+01 8.130038261413574219e+00 -4.165012359619140625e+00
2.850000000000000000e+02 1.134174919128417969e+01 -2.807932198047637939e-01 1.112229442596435547e+01 1.641749763488769531e+01 8.261938095092773438e+00 -1.975441694259643555e+00
2.860000000000000000e+02 1.139057826995849609e+01 2.890876829624176025e-01 1.050740051269531250e+01 1.574170684814453125e+01 7.874732494354248047e+00 2.348801136016845703e+00
2.870000000000000000e+02 1.119312572479248047e+01 1.874526739120483398e-01 1.274558067321777344e+01 1.768519020080566406e+01 9.129231452941894531e+00 1.859038710594177246e+00
2.880000000000000000e+02 1.041065502166748047e+01 -1.317460656166076660e+00 6.182808279991149902e-01 2.340095138549804688e+01 7.205770015716552734e+00 1.008833885192871094e+00
2.890000000000000000e+02 1.009277725219726562e+01 -1.060697197914123535e+00 1.246929407119750977e+00 2.493943023681640625e+01 7.855907917022705078e+00 4.687030315399169922e+00
2.900000000000000000e+02 9.907473564147949219e+00 1.121070504188537598e+00 1.438872337341308594e+00 2.123801803588867188e+01 6.803067207336425781e+00 -6.772223472595214844e+00
2.910000000000000000e+02 1.048631954193115234e+01 1.271646022796630859e+00 6.040692925453186035e-01 2.307379341125488281e+01 7.103359222412109375e+00 -9.773547947406768799e-02
2.920000000000000000e+02 1.057286930084228516e+01 -1.239858627319335938e+00 1.257237315177917480e+00 2.329975700378417969e+01 7.367097854614257812e+00 -6.537041664123535156e-01
2.930000000000000000e+02 8.883888125419616699e-01 -1.356295228004455566e+00 -5.959817022085189819e-02 -1.591866463422775269e-01 -6.563544273376464844e-02 -2.041643857955932617e-01
2.940000000000000000e+02 3.040100336074829102e-01 -1.391423225402832031e+00 -2.279217168688774109e-02 -2.435680925846099854e-01 -7.990808039903640747e-02 -8.318565040826797485e-02
2.950000000000000000e+02 1.093045949935913086e+00 -1.335810899734497070e+00 -7.754537463188171387e-02 -1.495058387517929077e-01 -6.811536103487014771e-02 -2.319334596395492554e-01
2.960000000000000000e+02 1.500203132629394531e+00 -1.350065231323242188e+00 -1.254539489746093750e-01 -1.187313497066497803e-01 -7.325559109449386597e-02 -2.909979224205017090e-01
2.970000000000000000e+02 2.097192764282226562e+00 -1.366299629211425781e+00 -1.768432557582855225e-01 -7.645053416490554810e-02 -7.598813623189926147e-02 -3.511947989463806152e-01
2.980000000000000000e+02 2.692356586456298828e+00 -1.078049063682556152e+00 -3.383862376213073730e-01 -3.253311663866043091e-02 -1.112758070230484009e-01 -3.516656160354614258e-01
2.990000000000000000e+02 3.324770212173461914e+00 -1.174355626106262207e+00 -3.870317339897155762e-01 -1.423575216904282570e-03 -1.165365874767303467e-01 -3.642215132713317871e-01
3.000000000000000000e+02 4.124855041503906250e+00 -1.150144219398498535e+00 -4.710932970046997070e-01 2.097707428038120270e-02 -1.350348740816116333e-01 -3.221347630023956299e-01
3.010000000000000000e+02 4.673169612884521484e+00 -1.339155793190002441e+00 -3.151479065418243408e-01 9.427432715892791748e-02 -6.626207381486892700e-02 -2.374397516250610352e-01
3.020000000000000000e+02 6.360189914703369141e+00 -1.196414113044738770e+00 1.599751859903335571e-01 2.494564205408096313e-01 1.228294819593429565e-01 2.489139884710311890e-01
3.030000000000000000e+02 8.068883895874023438e+00 -1.039474606513977051e+00 2.301869869232177734e+00 1.292135953903198242e+00 1.078201770782470703e+00 2.125509738922119141e+00
3.040000000000000000e+02 8.091531753540039062e+00 -1.341143488883972168e+00 2.511815786361694336e+00 2.082648277282714844e+00 1.378339171409606934e+00 2.783280372619628906e+00
3.050000000000000000e+02 8.518143653869628906e+00 -1.328126549720764160e+00 3.386798381805419922e+00 3.512289762496948242e+00 2.069726467132568359e+00 4.140586376190185547e+00
3.060000000000000000e+02 9.530289649963378906e+00 -1.405190467834472656e+00 2.178470373153686523e+00 1.381471538543701172e+01 4.797955513000488281e+00 7.280755519866943359e+00
3.070000000000000000e+02 9.200761795043945312e+00 -1.108575105667114258e+00 4.703519821166992188e+00 8.190507888793945312e+00 3.868208169937133789e+00 7.275799274444580078e+00
3.080000000000000000e+02 9.713594436645507812e+00 -1.432682633399963379e+00 1.513270854949951172e+00 1.594784545898437500e+01 5.238334655761718750e+00 6.927433013916015625e+00
3.090000000000000000e+02 1.005361557006835938e+01 -1.406605482101440430e+00 3.112159371376037598e-01 1.997014236450195312e+01 6.084407329559326172e+00 4.423689842224121094e+00
3.100000000000000000e+02 8.696110725402832031e+00 1.115810751914978027e+00 3.564562320709228516e+00 3.352125406265258789e+00 2.075006246566772461e+00 -4.245973110198974609e+00
3.110000000000000000e+02 8.318943977355957031e+00 1.107985258102416992e+00 2.570225715637207031e+00 1.800604104995727539e+00 1.311248898506164551e+00 -2.727442026138305664e+00
3.120000000000000000e+02 8.301010131835937500e+00 1.368102073669433594e+00 2.667451620101928711e+00 2.637226343154907227e+00 1.591403365135192871e+00 -3.265252828598022461e+00
3.130000000000000000e+02 7.696302413940429688e+00 1.353312492370605469e+00 1.595983982086181641e+00 1.198051095008850098e+00 8.382105231285095215e-01 -1.712341666221618652e+00
3.140000000000000000e+02 7.086571216583251953e+00 1.363262772560119629e+00 7.376105189323425293e-01 6.662727594375610352e-01 4.211649894714355469e-01 -8.372575044631958008e-01
3.150000000000000000e+02 6.295311927795410156e+00 1.356781244277954102e+00 9.979046881198883057e-02 3.157268464565277100e-01 1.246551945805549622e-01 -1.992158293724060059e-01
3.160000000000000000e+02 6.853132724761962891e+00 1.123047709465026855e+00 1.228803843259811401e-01 3.404119312763214111e-01 1.389876902103424072e-01 -4.062586426734924316e-01
3.170000000000000000e+02 5.500124454498291016e+00 1.383009076118469238e+00 -2.176901847124099731e-01 1.860586404800415039e-01 -9.489464573562145233e-03 1.150075793266296387e-01
3.180000000000000000e+02 5.101686954498291016e+00 1.365977764129638672e+00 -3.287058174610137939e-01 1.320735961198806763e-01 -5.898967012763023376e-02 2.273005545139312744e-01
3.190000000000000000e+02 4.679098129272460938e+00 1.089977860450744629e+00 -6.566764116287231445e-01 3.293661028146743774e-02 -1.871219426393508911e-01 3.253955245018005371e-01
3.200000000000000000e+02 4.692054748535156250e+00 1.359875679016113281e+00 -3.975494205951690674e-01 7.202077656984329224e-02 -9.765858948230743408e-02 3.170517086982727051e-01
3.210000000000000000e+02 4.073109626770019531e+00 1.115261077880859375e+00 -5.667316317558288574e-01 1.329760160297155380e-02 -1.660301983356475830e-01 3.739186823368072510e-01
3.220000000000000000e+02 4.261375904083251953e+00 1.089777827262878418e+00 -6.401339769363403320e-01 1.622761599719524384e-02 -1.871719062328338623e-01 3.655440807342529297e-01
3.230000000000000000e+02 3.370482921600341797e+00 1.137103438377380371e+00 -4.724021852016448975e-01 -1.415641978383064270e-02 -1.459675878286361694e-01 4.015152752399444580e-01
3.240000000000000000e+02 3.355420589447021484e+00 8.239315748214721680e-01 -6.703519821166992188e-01 -1.015269663184881210e-02 -2.041514068841934204e-01 3.388221859931945801e-01
3.250000000000000000e+02 2.907274961471557617e+00 1.331713795661926270e+00 -3.269416689872741699e-01 -3.470294922590255737e-02 -1.084933876991271973e-01 4.224529564380645752e-01
3.260000000000000000e+02 2.497857809066772461e+00 1.363923430442810059e+00 -2.591634094715118408e-01 -6.698406487703323364e-02 -9.784424304962158203e-02 4.186285138130187988e-01
3.270000000000000000e+02 1.712112069129943848e+00 1.357282161712646484e+00 -1.577676534652709961e-01 -1.238297075033187866e-01 -8.447920531034469604e-02 3.390106260776519775e-01
3.280000000000000000e+02 5.158184766769409180e-01 1.148278355598449707e+00 -2.735101990401744843e-02 -1.473317295312881470e-01 -5.240482464432716370e-02 1.148308664560317993e-01
3.290000000000000000e+02 5.066074728965759277e-01 1.382435321807861328e+00 -2.682011201977729797e-02 -1.688618808984756470e-01 -5.870459601283073425e-02 1.232085525989532471e-01
3.300000000000000000e+02 1.299041390419006348e+00 -1.344434380531311035e+00 -9.605463594198226929e-02 -1.271850317716598511e-01 -6.697189807891845703e-02 -2.671385705471038818e-01
3.310000000000000000e+02 1.699975848197937012e+00 -1.355569839477539062e+00 -1.323294043540954590e-01 -1.043800786137580872e-01 -7.101283967494964600e-02 -3.110668957233428955e-01
3.320000000000000000e+02 1.902339577674865723e+00 -1.086406946182250977e+00 -2.028464972972869873e-01 -6.726980954408645630e-02 -8.103489130735397339e-02 -3.006826937198638916e-01
3.330000000000000000e+02 3.901492595672607422e+00 -1.116383552551269531e+00 -4.776811599731445312e-01 3.008712828159332275e-02 -1.342782080173492432e-01 -3.357690572738647461e-01
3.340000000000000000e+02 4.295088768005371094e+00 -1.396833062171936035e+00 -2.819297313690185547e-01 6.401768326759338379e-02 -6.537361443042755127e-02 -2.883945405483245850e-01
3.350000000000000000e+02 4.898310184478759766e+00 -1.326452493667602539e+00 -2.788418829441070557e-01 1.098162308335304260e-01 -5.070769414305686951e-02 -1.854750663042068481e-01
3.360000000000000000e+02 5.189235210418701172e+00 -1.027584314346313477e+00 -5.697554945945739746e-01 7.025524228811264038e-02 -1.498500704765319824e-01 -1.872121244668960571e-01
3.370000000000000000e+02 5.320949077606201172e+00 -1.354625225067138672e+00 -1.361272931098937988e-01 1.508560031652450562e-01 4.418612923473119736e-03 -9.625083953142166138e-02
3.380000000000000000e+02 5.764801025390625000e+00 -1.137822866439819336e+00 -2.558755576610565186e-01 1.555235683917999268e-01 -3.010559268295764923e-02 -1.421190984547138214e-02
3.390000000000000000e+02 7.065707683563232422e+00 -1.340578079223632812e+00 9.806087613105773926e-01 6.665706038475036621e-01 4.941537976264953613e-01 9.479408860206604004e-01
3.400000000000000000e+02 7.867691516876220703e+00 -1.045733809471130371e+00 1.812787652015686035e+00 9.256524443626403809e-01 8.215320706367492676e-01 1.668150424957275391e+00
3.410000000000000000e+02 8.726363182067871094e+00 -1.351821899414062500e+00 3.733189344406127930e+00 4.902167320251464844e+00 2.590606927871704102e+00 5.175288200378417969e+00
3.420000000000000000e+02 9.130440711975097656e+00 -1.369238615036010742e+00 3.468843460083007812e+00 8.511551856994628906e+00 3.594118833541870117e+00 6.593166351318359375e+00
3.430000000000000000e+02 9.318794250488281250e+00 1.382393121719360352e+00 2.736940622329711914e+00 1.056858634948730469e+01 3.991658210754394531e+00 -6.904391288757324219e+00
3.440000000000000000e+02 9.116800308227539062e+00 1.368067383766174316e+00 3.102814435958862305e+00 8.220410346984863281e+00 3.396967411041259766e+00 -6.321918487548828125e+00
3.450000000000000000e+02 7.289333343505859375e+00 1.351579427719116211e+00 1.035756826400756836e+00 8.405665755271911621e-01 5.628970265388488770e-01 -1.108867168426513672e+00
3.460000000000000000e+02 6.666684150695800781e+00 1.139312386512756348e+00 2.034321241080760956e-02 2.652235031127929688e-01 8.567001670598983765e-02 -2.881051599979400635e-01
3.470000000000000000e+02 5.690845012664794922e+00 1.169502496719360352e+00 -4.277425110340118408e-01 1.287123262882232666e-01 -8.970905095338821411e-02 1.248429641127586365e-01
3.480000000000000000e+02 4.897675514221191406e+00 1.088674783706665039e+00 -6.575509905815124512e-01 5.704739317297935486e-02 -1.801510751247406006e-01 3.032803535461425781e-01
3.490000000000000000e+02 3.899146795272827148e+00 1.380541920661926270e+00 -3.734002709388732910e-01 2.629711665213108063e-02 -1.041309460997581482e-01 4.037311971187591553e-01
3.500000000000000000e+02 3.887932062149047852e+00 1.137910962104797363e+00 -5.391064882278442383e-01 1.016459707170724869e-02 -1.586825698614120483e-01 3.862339556217193604e-01
3.510000000000000000e+02 1.941070795059204102e+00 1.156734108924865723e+00 -2.248020917177200317e-01 -8.667369186878204346e-02 -9.344273060560226440e-02 3.420386910438537598e-01
3.520000000000000000e+02 9.954800605773925781e+00 -1.239313125610351562e+00 1.144124746322631836e+00 2.066172409057617188e+01 6.541754722595214844e+00 5.928618907928466797e+00
3.530000000000000000e+02 5.880936145782470703e+00 -3.953866362571716309e-01 -1.603384971618652344e+00 4.645843990147113800e-03 -4.796217381954193115e-01 -1.252620667219161987e-01
3.540000000000000000e+02 7.868466854095458984e+00 -4.396730363368988037e-01 -6.113238930702209473e-01 4.780532792210578918e-02 -1.690555810928344727e-01 2.626703083515167236e-01
3.550000000000000000e+02 8.323198318481445312e+00 4.218527972698211670e-01 -1.534865796566009521e-01 1.662513017654418945e-01 3.829415189102292061e-03 -5.860383510589599609e-01
3.560000000000000000e+02 7.904225349426269531e+00 4.247169494628906250e-01 -9.128501415252685547e-01 1.224388480186462402e-01 -2.371233850717544556e-01 -2.929455339908599854e-01
3.570000000000000000e+02 4.701137542724609375e+00 1.260974556207656860e-01 -1.774443387985229492e+00 5.533900577574968338e-03 -5.306728482246398926e-01 8.226964622735977173e-02
3.580000000000000000e+02 7.303282260894775391e+00 1.354932188987731934e-01 -2.794350624084472656e+00 -9.615090675652027130e-03 -8.411897420883178711e-01 3.422682359814643860e-02
3.590000000000000000e+02 7.303153038024902344e+00 -1.278868615627288818e-01 -2.449227809906005859e+00 -1.634815149009227753e-02 -7.396727800369262695e-01 -1.244423259049654007e-02
3.600000000000000000e+02 6.533110141754150391e+00 4.080563485622406006e-01 -1.828557729721069336e+00 3.239956870675086975e-02 -5.388474464416503906e-01 1.024675741791725159e-01
3.610000000000000000e+02 7.104721069335937500e+00 1.325948536396026611e-01 -2.771152496337890625e+00 3.923553973436355591e-02 -8.195750713348388672e-01 6.085504218935966492e-02
3.620000000000000000e+02 8.112528800964355469e+00 4.328442811965942383e-01 -5.363894104957580566e-01 1.381605565547943115e-01 -1.194686517119407654e-01 -4.046270847320556641e-01
3.630000000000000000e+02 8.929835319519042969e+00 -3.179746866226196289e-01 2.253473281860351562e+00 4.537001848220825195e-01 8.121520280838012695e-01 1.498349666595458984e+00
3.640000000000000000e+02 8.596513748168945312e+00 -2.476141005754470825e-01 -5.336912870407104492e-01 2.460855543613433838e-01 -8.628172427415847778e-02 3.053987026214599609e-01
3.650000000000000000e+02 8.319588661193847656e+00 -1.394328922033309937e-01 -2.052652597427368164e+00 1.797135919332504272e-02 -6.104043722152709961e-01 -3.569645807147026062e-02
3.660000000000000000e+02 7.896694183349609375e+00 -1.483428627252578735e-01 -2.230667591094970703e+00 9.394989162683486938e-02 -6.410152912139892578e-01 7.695499807596206665e-02
3.670000000000000000e+02 4.690986156463623047e+00 -1.297260075807571411e-01 -1.648648023605346680e+00 4.731167573481798172e-03 -4.931750297546386719e-01 -7.118766754865646362e-02
3.680000000000000000e+02 2.994648516178131104e-01 3.495013415813446045e-01 -7.716561667621135712e-03 -1.142768003046512604e-02 -5.743272602558135986e-03 5.321215372532606125e-03
3.690000000000000000e+02 2.688107252120971680e+00 -1.198066771030426025e-01 -7.017576098442077637e-01 -5.619533360004425049e-03 -2.122131437063217163e-01 -4.799481853842735291e-02
3.700000000000000000e+02 3.072667360305786133e+00 -4.050358831882476807e-01 -7.249732017517089844e-01 -8.735509589314460754e-03 -2.201126068830490112e-01 -1.787737309932708740e-01
3.710000000000000000e+02 3.301852226257324219e+00 -4.238827824592590332e-01 -8.108374476432800293e-01 -4.053586162626743317e-03 -2.444673180580139160e-01 -1.950060874223709106e-01
3.720000000000000000e+02 3.299222469329833984e+00 1.583903282880783081e-01 -1.006926894187927246e+00 2.331681549549102783e-03 -3.013785481452941895e-01 8.877150714397430420e-02
3.730000000000000000e+02 3.911753177642822266e+00 1.607409417629241943e-01 -1.334352731704711914e+00 -3.715787082910537720e-03 -4.014205634593963623e-01 9.458407014608383179e-02
3.740000000000000000e+02 2.494956493377685547e+00 1.634936779737472534e-01 -6.045233011245727539e-01 5.596441915258765221e-04 -1.811891049146652222e-01 8.018826693296432495e-02
3.750000000000000000e+02 3.097318887710571289e+00 1.619818061590194702e-01 -8.969447612762451172e-01 -7.513133808970451355e-03 -2.713373899459838867e-01 8.648306876420974731e-02
3.760000000000000000e+02 3.199888706207275391e+00 6.661611199378967285e-01 -6.985868811607360840e-01 -1.299444399774074554e-02 -2.134744077920913696e-01 2.951649427413940430e-01
3.770000000000000000e+02 3.502358675003051758e+00 -1.408780515193939209e-01 -1.065798044204711914e+00 -4.794275853782892227e-03 -3.211776912212371826e-01 -7.224648445844650269e-02
3.780000000000000000e+02 2.450752735137939453e+00 -2.514180839061737061e-01 -5.398116707801818848e-01 -8.087618276476860046e-03 -1.643697917461395264e-01 -1.063051372766494751e-01
3.790000000000000000e+02 1.939509868621826172e+00 -1.946533620357513428e-01 -3.527602553367614746e-01 -1.769814291037619114e-03 -1.063590198755264282e-01 -7.381791621446609497e-02
3.800000000000000000e+02 1.963103652000427246e+00 -5.278034210205078125e-01 -3.240666389465332031e-01 -1.085940003395080566e-02 -1.004778146743774414e-01 -1.741317808628082275e-01
3.810000000000000000e+02 6.975221633911132812e-01 -1.828634589910507202e-01 -2.581700868904590607e-02 -8.253766223788261414e-03 -1.022123172879219055e-02 -1.968767493963241577e-02
3.820000000000000000e+02 2.311627268791198730e-01 -3.789996504783630371e-01 -6.496754474937915802e-03 -9.947327896952629089e-03 -4.933224525302648544e-03 -4.631811287254095078e-03
3.830000000000000000e+02 4.852280616760253906e-01 -1.750710308551788330e-01 -7.786618079990148544e-03 -8.672939613461494446e-03 -4.937867633998394012e-03 -1.003083959221839905e-02
3.840000000000000000e+02 1.108332395553588867e+00 -1.638900786638259888e-01 -9.728667140007019043e-02 -5.545609164983034134e-03 -3.084968402981758118e-02 -3.462969139218330383e-02
3.850000000000000000e+02 5.902637958526611328e+00 1.572605222463607788e-01 -2.343511104583740234e+00 6.173410918563604355e-03 -7.012013196945190430e-01 8.792006969451904297e-02
3.860000000000000000e+02 6.129099369049072266e+00 4.393589794635772705e-01 -1.736987948417663574e+00 2.027940005064010620e-02 -5.150125622749328613e-01 1.524719148874282837e-01
3.870000000000000000e+02 4.142144203186035156e+00 4.426609277725219727e-01 -1.168533682823181152e+00 7.636616937816143036e-04 -3.503310084342956543e-01 2.220339626073837280e-01
3.880000000000000000e+02 6.708186626434326172e+00 1.365282684564590454e-01 -2.658760547637939453e+00 1.517299655824899673e-02 -7.930762767791748047e-01 6.734762340784072876e-02
3.890000000000000000e+02 7.697260856628417969e+00 -1.324286907911300659e-01 -2.343248128890991211e+00 -1.356273237615823746e-02 -7.070432305335998535e-01 1.792309060692787170e-02
3.900000000000000000e+02 7.104060173034667969e+00 -1.367662101984024048e-01 -2.457056999206542969e+00 4.246149584650993347e-02 -7.243786454200744629e-01 -3.663765639066696167e-02
3.910000000000000000e+02 5.630605220794677734e+00 -8.765625953674316406e-01 -6.998853087425231934e-01 6.794142723083496094e-02 -1.895831674337387085e-01 -1.212790608406066895e-01
3.920000000000000000e+02 5.046647071838378906e+00 -3.743271827697753906e-01 -1.462249636650085449e+00 2.088066656142473221e-03 -4.380484819412231445e-01 -1.537136137485504150e-01
3.930000000000000000e+02 4.523074150085449219e+00 3.954443335533142090e-01 -1.384048819541931152e+00 -2.455553840263746679e-05 -4.152220189571380615e-01 2.028091251850128174e-01
3.940000000000000000e+02 4.711832046508789062e+00 3.474344015121459961e-01 -1.516984820365905762e+00 -7.419033208861947060e-04 -4.553180336952209473e-01 1.853711009025573730e-01
3.950000000000000000e+02 7.698516368865966797e+00 4.180117547512054443e-01 -1.286963105201721191e+00 1.224943548440933228e-01 -3.493406474590301514e-01 -1.713066846132278442e-01
3.960000000000000000e+02 6.700313091278076172e+00 -3.808155059814453125e-01 -1.574617266654968262e+00 2.033282816410064697e-02 -4.662853479385375977e-01 -5.072494223713874817e-02
3.970000000000000000e+02 6.088542938232421875e+00 -3.830642998218536377e-01 -1.654939651489257812e+00 2.338684350252151489e-02 -4.894658625125885010e-01 -1.041737571358680725e-01
3.980000000000000000e+02 4.089779376983642578e+00 -1.334567815065383911e-01 -1.372922420501708984e+00 -7.494899444282054901e-03 -4.141251742839813232e-01 -7.394142448902130127e-02
3.990000000000000000e+02 1.088611483573913574e-01 -1.175893902778625488e+00 -6.913874298334121704e-03 -8.052966743707656860e-02 -2.623306214809417725e-02 -1.541563402861356735e-02
4.000000000000000000e+02 1.197042241692543030e-01 -7.250900864601135254e-01 -8.847844786942005157e-03 -2.431911416351795197e-02 -9.950087405741214752e-03 -1.448542624711990356e-02
4.010000000000000000e+02 3.080295920372009277e-01 1.164847373962402344e+00 2.370251575484871864e-03 -1.160698309540748596e-01 -3.410987555980682373e-02 5.240274220705032349e-02
4.020000000000000000e+02 3.398019671440124512e-01 -9.332243800163269043e-01 -2.080706693232059479e-02 -8.018150925636291504e-02 -3.029657155275344849e-02 -5.255152285099029541e-02
4.030000000000000000e+02 1.505174279212951660e+00 -1.053133010864257812e+00 -1.562261134386062622e-01 -7.908429205417633057e-02 -7.059311866760253906e-02 -2.532887756824493408e-01
4.040000000000000000e+02 9.072464108467102051e-01 -1.675877422094345093e-01 -5.503812059760093689e-02 -4.741783253848552704e-03 -1.793397031724452972e-02 -2.779362350702285767e-02
4.050000000000000000e+02 3.997492194175720215e-01 -4.502246081829071045e-01 -2.419944293797016144e-02 -2.112300321459770203e-02 -1.359673403203487396e-02 -1.990467682480812073e-02
4.060000000000000000e+02 6.008073329925537109e+00 -9.523974061012268066e-01 -4.898544251918792725e-01 1.050358638167381287e-01 -1.154455691576004028e-01 -1.059498358517885208e-02
4.070000000000000000e+02 8.651900291442871094e+00 8.789014220237731934e-01 3.300521612167358398e+00 2.166282653808593750e+00 1.640041351318359375e+00 -3.342549800872802734e+00
4.080000000000000000e+02 1.731535434722900391e+00 7.469242811203002930e-01 -2.509289979934692383e-01 -5.337318032979965210e-02 -9.129065275192260742e-02 2.344541549682617188e-01
4.090000000000000000e+02 3.018066883087158203e-01 9.518908262252807617e-01 -1.288854237645864487e-02 -8.239635080099105835e-02 -2.858546935021877289e-02 5.192795768380165100e-02
4.100000000000000000e+02 6.622801303863525391e+00 9.074098467826843262e-01 -5.285692214965820312e-01 1.539841890335083008e-01 -1.123755201697349548e-01 -1.067371666431427002e-01
4.110000000000000000e+02 5.909246444702148438e+00 4.538686871528625488e-01 -1.664092302322387695e+00 3.076585009694099426e-03 -4.983046948909759521e-01 1.709418147802352905e-01
4.120000000000000000e+02 6.162439823150634766e+00 7.207787036895751953e-01 -1.097147345542907715e+00 5.473298951983451843e-02 -3.127243220806121826e-01 1.041984707117080688e-01
4.130000000000000000e+02 6.994360446929931641e+00 8.569750189781188965e-01 -3.239314556121826172e-01 2.085077315568923950e-01 -3.462712094187736511e-02 -2.369926422834396362e-01
4.140000000000000000e+02 5.450508117675781250e+00 -8.567239046096801758e-01 -7.655764818191528320e-01 6.371024996042251587e-02 -2.105598747730255127e-01 -1.702420413494110107e-01
4.150000000000000000e+02 2.871636390686035156e+00 7.811645865440368652e-01 -5.594828724861145020e-01 -1.852768100798130035e-02 -1.734031587839126587e-01 3.162822425365447998e-01
4.160000000000000000e+02 5.379126071929931641e+00 -1.084372639656066895e+00 -4.503937959671020508e-01 9.525029361248016357e-02 -1.065430492162704468e-01 -1.271097958087921143e-01
4.170000000000000000e+02 1.398319959640502930e+00 7.668839693069458008e-01 -1.758844703435897827e-01 -6.033272296190261841e-02 -7.086515426635742188e-02 2.013199627399444580e-01
4.180000000000000000e+02 6.539139270782470703e+00 -7.426691055297851562e-01 -6.788173913955688477e-01 9.828696399927139282e-02 -1.741591244935989380e-01 4.739586263895034790e-02
4.190000000000000000e+02 8.926049232482910156e+00 1.086104631423950195e+00 4.187932491302490234e+00 4.950882434844970703e+00 2.741644382476806641e+00 -5.504667282104492188e+00
4.200000000000000000e+02 8.306077003479003906e+00 -5.263161063194274902e-01 1.115878105163574219e+00 3.291872143745422363e-01 4.335196018218994141e-01 1.022596716880798340e+00
4.210000000000000000e+02 7.307789921760559082e-01 8.630416393280029297e-01 -5.681383982300758362e-02 -9.283817559480667114e-02 -4.489560425281524658e-02 1.157014593482017517e-01
4.220000000000000000e+02 1.100474834442138672e+00 1.160607099533081055e+00 -1.026659086346626282e-01 -1.209066286683082581e-01 -6.707175821065902710e-02 2.172479033470153809e-01
4.230000000000000000e+02 7.306941032409667969e+00 3.945715725421905518e-01 -1.682687163352966309e+00 8.749929815530776978e-02 -4.785563647747039795e-01 -4.065605811774730682e-03
4.240000000000000000e+02 7.039049625396728516e+00 -1.044562935829162598e+00 3.962948620319366455e-01 3.399602770805358887e-01 2.208765447139739990e-01 5.763888359069824219e-01
4.250000000000000000e+02 1.023482680320739746e-01 1.177505373954772949e+00 -4.597695078700780869e-05 -8.613924682140350342e-02 -2.585556730628013611e-02 2.084413357079029083e-02
4.260000000000000000e+02 2.894755125045776367e+00 4.842920303344726562e-01 -6.706677675247192383e-01 -1.517251227051019669e-02 -2.057520747184753418e-01 2.246075421571731567e-01
4.270000000000000000e+02 2.489332199096679688e+00 -7.762782573699951172e-01 -4.097920954227447510e-01 -2.335557527840137482e-02 -1.299442946910858154e-01 -2.794546186923980713e-01
4.280000000000000000e+02 2.900695800781250000e-01 7.499809861183166504e-01 -1.246572285890579224e-02 -4.597631469368934631e-02 -1.753261126577854156e-02 3.293864056468009949e-02
4.290000000000000000e+02 5.359550952911376953e+00 8.854522109031677246e-01 -8.840149641036987305e-01 4.037957638502120972e-02 -2.530906200408935547e-01 2.492449432611465454e-01
4.300000000000000000e+02 5.542640686035156250e+00 9.272234439849853516e-01 -8.054837584495544434e-01 7.748732715845108032e-02 -2.183989137411117554e-01 2.023818194866180420e-01
4.310000000000000000e+02 2.289767265319824219e+00 4.532178044319152832e-01 -4.612964391708374023e-01 -1.256920397281646729e-02 -1.421596854925155640e-01 1.866047382354736328e-01
4.320000000000000000e+02 5.462149143218994141e+00 -6.578353047370910645e-01 -1.078408837318420410e+00 2.751700766384601593e-02 -3.152675330638885498e-01 -1.602599918842315674e-01
4.330000000000000000e+02 2.269171953201293945e+00 -1.086358547210693359e+00 -2.747004926204681396e-01 -4.945896938443183899e-02 -9.724783897399902344e-02 -3.249517381191253662e-01
4.340000000000000000e+02 2.378907203674316406e+00 6.428192853927612305e-01 -4.471670389175415039e-01 -2.120135165750980377e-02 -1.405105143785476685e-01 2.565545141696929932e-01
4.350000000000000000e+02 6.141150951385498047e+00 -8.237398862838745117e-01 -6.725152134895324707e-01 9.830289334058761597e-02 -1.722636967897415161e-01 -2.425426058471202850e-02
4.360000000000000000e+02 6.323180675506591797e+00 1.092329025268554688e+00 -3.305349647998809814e-01 1.724333614110946655e-01 -4.743047803640365601e-02 -6.981511414051055908e-02
4.370000000000000000e+02 1.305986762046813965e+00 -1.038612484931945801e+00 -1.321879178285598755e-01 -9.380526840686798096e-02 -6.779795140027999878e-02 -2.254637628793716431e-01
4.380000000000000000e+02 8.587377548217773438e+00 -7.035877108573913574e-01 3.134756326675415039e+00 1.188137650489807129e+00 1.296868205070495605e+00 2.485305070877075195e+00
4.390000000000000000e+02 8.888291358947753906e+00 8.244770765304565430e-01 4.319670677185058594e+00 3.091070652008056641e+00 2.223222494125366211e+00 -4.407047748565673828e+00
4.400000000000000000e+02 9.206407070159912109e-01 -9.558174610137939453e-01 -7.991683483123779297e-02 -1.056241840124130249e-01 -5.566230416297912598e-02 -1.645731329917907715e-01
4.410000000000000000e+02 7.071588516235351562e+00 -7.870962619781494141e-01 -1.882834285497665405e-01 1.949094235897064209e-01 1.987797906622290611e-03 3.181153535842895508e-01
4.420000000000000000e+02 6.807122230529785156e+00 8.832761049270629883e-01 -4.400748312473297119e-01 1.568832397460937500e-01 -8.495748043060302734e-02 -1.574256569147109985e-01
4.430000000000000000e+02 2.893933951854705811e-01 5.528285503387451172e-01 -1.291055697947740555e-02 -2.341985329985618591e-02 -1.089912280440330505e-02 1.613673195242881775e-02
4.440000000000000000e+02 8.357096672058105469e+00 7.064750790596008301e-01 1.748166918754577637e+00 8.334047794342041016e-01 7.744715213775634766e-01 -1.671225786209106445e+00
4.450000000000000000e+02 8.270479202270507812e+00 -1.023632287979125977e+00 2.801224708557128906e+00 1.604602694511413574e+00 1.321748256683349609e+00 2.614405393600463867e+00
4.460000000000000000e+02 7.560356140136718750e+00 -5.348212122917175293e-01 -5.006347298622131348e-01 1.634022742509841919e-01 -1.011697351932525635e-01 2.639713585376739502e-01
4.470000000000000000e+02 7.259362220764160156e+00 1.051796913146972656e+00 3.571853041648864746e-01 4.472669959068298340e-01 2.413356900215148926e-01 -6.473737359046936035e-01
4.480000000000000000e+02 7.634734630584716797e+00 -7.674847245216369629e-01 4.887762367725372314e-01 2.917199432849884033e-01 2.341488450765609741e-01 6.974095106124877930e-01
4.490000000000000000e+02 7.500674247741699219e+00 -1.233047172427177429e-01 -2.410431623458862305e+00 3.369438648223876953e-02 -7.130211591720581055e-01 6.638105696765705943e-05
4.500000000000000000e+02 8.504671096801757812e+00 -5.204694271087646484e-01 1.797373652458190918e+00 7.574372291564941406e-01 7.664432525634765625e-01 1.467893481254577637e+00
4.510000000000000000e+02 8.111049652099609375e+00 1.055274009704589844e+00 1.983795285224914551e+00 1.336721658706665039e+00 9.961550831794738770e-01 -2.063076972961425781e+00
4.520000000000000000e+02 7.257553100585937500e+00 -1.072890400886535645e+00 7.427657842636108398e-01 5.289629697799682617e-01 3.815186321735382080e-01 8.386826515197753906e-01
4.530000000000000000e+02 7.485047340393066406e+00 1.028296947479248047e+00 6.767460703849792480e-01 5.285696983337402344e-01 3.615947365760803223e-01 -8.610994219779968262e-01
4.540000000000000000e+02 7.503221988677978516e+00 -3.444402813911437988e-01 -1.503551840782165527e+00 -3.945173230022192001e-03 -4.522491097450256348e-01 6.911257654428482056e-02
4.550000000000000000e+02 7.271910309791564941e-01 -4.768870770931243896e-01 -5.650504678487777710e-02 -3.063022531569004059e-02 -2.614058181643486023e-02 -5.937705561518669128e-02
4.560000000000000000e+02 5.073539614677429199e-01 3.733407557010650635e-01 -2.088121324777603149e-02 -1.758883707225322723e-02 -1.154101453721523285e-02 2.035322412848472595e-02
4.570000000000000000e+02 5.345447063446044922e-01 -5.940663814544677734e-01 -3.009575419127941132e-02 -4.717990383505821228e-02 -2.318269759416580200e-02 -4.905917495489120483e-02
4.580000000000000000e+02 8.786366462707519531e+00 -1.085190057754516602e+00 4.187421798706054688e+00 4.126849174499511719e+00 2.494281291961669922e+00 4.938810348510742188e+00
4.590000000000000000e+02 8.593629837036132812e+00 -1.034714937210083008e+00 3.768570661544799805e+00 2.600767612457275391e+00 1.910801529884338379e+00 3.865013122558593750e+00
4.600000000000000000e+02 6.814255237579345703e+00 -9.600764513015747070e-01 3.787432238459587097e-02 2.575607895851135254e-01 8.863053470849990845e-02 3.602028191089630127e-01
4.610000000000000000e+02 6.570720672607421875e+00 6.667274236679077148e-01 -1.119711279869079590e+00 4.931250214576721191e-02 -3.211196362972259521e-01 5.729336664080619812e-02
4.620000000000000000e+02 1.317675113677978516e+00 -7.443127632141113281e-01 -1.520808041095733643e-01 -5.158416554331779480e-02 -6.109949201345443726e-02 -1.761941611766815186e-01
4.630000000000000000e+02 1.223283410072326660e+00 8.314480781555175781e-01 -1.398948431015014648e-01 -8.135535567998886108e-02 -6.637506186962127686e-02 1.891937106847763062e-01
4.640000000000000000e+02 1.124009132385253906e+00 9.628332853317260742e-01 -1.189004033803939819e-01 -1.011678352952003479e-01 -6.602047383785247803e-02 2.014452219009399414e-01
4.650000000000000000e+02 1.105970025062561035e+00 -1.018557906150817871e+00 -1.003243029117584229e-01 -9.358410537242889404e-02 -5.817252025008201599e-02 -1.952316910028457642e-01
4.660000000000000000e+02 6.378637790679931641e+00 -9.857322573661804199e-01 -2.295910418033599854e-01 1.675889492034912109e-01 -1.860062591731548309e-02 1.403598487377166748e-01
4.670000000000000000e+02 5.866957187652587891e+00 1.163851737976074219e+00 -3.548408150672912598e-01 1.398055255413055420e-01 -6.451058387756347656e-02 7.117318361997604370e-02
4.680000000000000000e+02 1.514773011207580566e+00 -7.613509893417358398e-01 -1.931756287813186646e-01 -5.105795338749885559e-02 -7.327007502317428589e-02 -1.999616026878356934e-01
4.690000000000000000e+02 1.444802045822143555e+00 9.431028366088867188e-01 -1.710341721773147583e-01 -8.663582056760787964e-02 -7.730099558830261230e-02 2.373244017362594604e-01
4.700000000000000000e+02 5.619352817535400391e+00 7.003617882728576660e-01 -1.198430299758911133e+00 2.229329198598861694e-02 -3.528411090373992920e-01 2.105943411588668823e-01
4.710000000000000000e+02 5.872273445129394531e+00 -6.479326486587524414e-01 -1.074652075767517090e+00 4.890448972582817078e-02 -3.077242672443389893e-01 -1.141133680939674377e-01
4.720000000000000000e+02 1.927343726158142090e+00 -8.159897327423095703e-01 -2.838537991046905518e-01 -3.998796269297599792e-02 -9.715252369642257690e-02 -2.571719884872436523e-01
4.730000000000000000e+02 1.836697220802307129e+00 4.731300473213195801e-01 -3.092149794101715088e-01 -2.051150426268577576e-02 -9.891794621944427490e-02 1.695646941661834717e-01
4.740000000000000000e+02 4.484950065612792969e+00 -4.092569947242736816e-01 -1.246656060218811035e+00 2.902063075453042984e-03 -3.731262087821960449e-01 -1.779650151729583740e-01
4.750000000000000000e+02 5.682041645050048828e+00 4.423465132713317871e-01 -1.650155067443847656e+00 6.964788772165775299e-03 -4.929570853710174561e-01 1.742946207523345947e-01
4.760000000000000000e+02 2.226099729537963867e+00 -6.453637480735778809e-01 -3.835452497005462646e-01 -2.243093401193618774e-02 -1.217928528785705566e-01 -2.303631752729415894e-01
4.770000000000000000e+02 2.478810548782348633e+00 4.491901397705078125e-01 -5.330911278724670410e-01 -1.636097580194473267e-02 -1.648356169462203979e-01 1.911437958478927612e-01
4.780000000000000000e+02 5.702065944671630859e+00 9.720186591148376465e-01 -7.448655962944030762e-01 6.962656974792480469e-02 -2.025717049837112427e-01 1.798992007970809937e-01
4.790000000000000000e+02 9.861344695091247559e-01 4.200553297996520996e-01 -9.636215865612030029e-02 -2.610005065798759460e-02 -3.673866391181945801e-02 7.920661568641662598e-02
4.800000000000000000e+02 6.865882396697998047e+00 -6.946779489517211914e-01 -5.825858712196350098e-01 9.842971712350845337e-02 -1.452468484640121460e-01 1.408911198377609253e-01
4.810000000000000000e+02 2.091331005096435547e+00 -1.111598134040832520e+00 -2.343582063913345337e-01 -6.129803135991096497e-02 -8.869687467813491821e-02 -3.154080510139465332e-01
4.820000000000000000e+02 7.375257492065429688e+00 -5.870767831802368164e-01 -4.960956871509552002e-01 1.050548255443572998e-01 -1.173122599720954895e-01 2.493017911911010742e-01
4.830000000000000000e+02 8.118208885192871094e+00 7.375722527503967285e-01 1.075062394142150879e+00 5.760036110877990723e-01 4.953197836875915527e-01 -1.249561667442321777e+00
4.840000000000000000e+02 7.182654380798339844e+00 8.083785176277160645e-01 -2.821432054042816162e-01 1.946243643760681152e-01 -2.625565417110919952e-02 -2.938258945941925049e-01
4.850000000000000000e+02 8.061659812927246094e+00 -7.544200420379638672e-01 1.424618721008300781e+00 5.227965712547302246e-01 5.842245817184448242e-01 1.274403333663940430e+00
4.860000000000000000e+02 2.288366317749023438e+00 1.105708003044128418e+00 -2.989657521247863770e-01 -6.073921918869018555e-02 -1.079114899039268494e-01 3.623890578746795654e-01
4.870000000000000000e+02 1.893611550331115723e+00 8.765718936920166016e-01 -2.785086333751678467e-01 -5.182548612356185913e-02 -9.910023957490921021e-02 2.702277004718780518e-01
4.880000000000000000e+02 5.572792530059814453e+00 -1.114845037460327148e+00 -3.506450951099395752e-01 1.194034144282341003e-01 -6.937250494956970215e-02 -9.133560210466384888e-02
4.890000000000000000e+02 3.494744300842285156e+00 -7.762568593025207520e-01 -6.593437194824218750e-01 -3.733718302100896835e-03 -1.989232301712036133e-01 -2.941022813320159912e-01
4.900000000000000000e+02 4.491045475006103516e+00 -1.396871507167816162e-01 -1.558981776237487793e+00 -2.792014041915535927e-03 -4.685321450233459473e-01 -7.405864447355270386e-02
4.910000000000000000e+02 6.093074798583984375e+00 -6.247726082801818848e-01 -1.085079908370971680e+00 3.157836943864822388e-02 -3.160504698753356934e-01 -9.327217191457748413e-02
4.920000000000000000e+02 1.616156101226806641e+00 4.187647104263305664e-01 -2.403390854597091675e-01 -2.801545895636081696e-02 -8.050636202096939087e-02 1.375694423913955688e-01
4.930000000000000000e+02 8.265336036682128906e+00 -7.771984934806823730e-01 2.014707565307617188e+00 8.443289995193481445e-01 8.577109575271606445e-01 1.780594706535339355e+00
4.940000000000000000e+02 3.040254831314086914e+00 -6.597338318824768066e-01 -5.952010750770568848e-01 -1.569837331771850586e-02 -1.832698285579681396e-01 -2.699306905269622803e-01
4.950000000000000000e+02 3.182293653488159180e+00 -1.286990880966186523e+00 -3.022952675819396973e-01 -7.946704863570630550e-04 -9.092698246240615845e-02 -3.819633722305297852e-01
4.960000000000000000e+02 3.700124979019165039e+00 -8.394787311553955078e-01 -6.616307497024536133e-01 3.575481940060853958e-03 -1.974165886640548706e-01 -3.058272600173950195e-01
4.970000000000000000e+02 3.234292745590209961e+00 -8.975617885589599609e-01 -5.273319482803344727e-01 -1.012187823653221130e-02 -1.612361520528793335e-01 -3.208948671817779541e-01
4.980000000000000000e+02 4.274090766906738281e+00 6.616340279579162598e-01 -1.008540391921997070e+00 -5.114191677421331406e-03 -3.040963709354400635e-01 2.849606573581695557e-01
4.990000000000000000e+02 4.685798168182373047e+00 8.589065670967102051e-01 -8.804872632026672363e-01 3.165154531598091125e-02 -2.546507120132446289e-01 3.250581026077270508e-01
5.000000000000000000e+02 4.787053108215332031e+00 -5.285969376564025879e-01 -1.173542141914367676e+00 -4.296570550650358200e-03 -3.533515930175781250e-01 -1.996999979019165039e-01
5.010000000000000000e+02 5.083986759185791016e+00 3.485971391201019287e-01 -1.663055419921875000e+00 4.143286496400833130e-03 -4.976736605167388916e-01 1.707832217216491699e-01
5.020000000000000000e+02 3.631146907806396484e+00 8.523319959640502930e-01 -7.033370137214660645e-01 -8.960967883467674255e-03 -2.136893868446350098e-01 3.574766814708709717e-01
5.030000000000000000e+02 4.899170875549316406e+00 1.217303648591041565e-01 -1.885795831680297852e+00 -3.480895189568400383e-03 -5.667830109596252441e-01 7.871572673320770264e-02
5.040000000000000000e+02 4.058701515197753906e+00 -3.757579624652862549e-01 -1.132920861244201660e+00 -4.242646507918834686e-03 -3.411490619182586670e-01 -1.735449731349945068e-01
5.050000000000000000e+02 4.264520168304443359e+00 -4.013584554195404053e-01 -1.171050786972045898e+00 2.979572163894772530e-04 -3.512258529663085938e-01 -1.797574907541275024e-01
5.060000000000000000e+02 3.877544403076171875e+00 -3.376358151435852051e-01 -1.094754576683044434e+00 1.283302408410236239e-04 -3.283878862857818604e-01 -1.667557507753372192e-01
5.070000000000000000e+02 3.712341070175170898e+00 1.157479882240295410e+00 -4.977627098560333252e-01 3.872315865010023117e-03 -1.481671184301376343e-01 3.991060256958007812e-01
5.080000000000000000e+02 4.289303779602050781e+00 -1.402549445629119873e-01 -1.469111204147338867e+00 3.264063736423850060e-03 -4.397541284561157227e-01 -7.542093098163604736e-02
5.090000000000000000e+02 7.154691219329833984e-01 1.531558632850646973e-01 -2.121723815798759460e-02 -1.750080729834735394e-03 -6.890195421874523163e-03 1.455712784081697464e-02
5.100000000000000000e+02 1.283971667289733887e+00 1.132958233356475830e-01 -1.302035003900527954e-01 6.306163850240409374e-04 -3.887186199426651001e-02 2.910169400274753571e-02
5.110000000000000000e+02 1.194373726844787598e+00 2.879570126533508301e-01 -1.316588968038558960e-01 -1.336771156638860703e-02 -4.350798204541206360e-02 7.478773593902587891e-02
5.120000000000000000e+02 1.338330149650573730e+00 5.902330279350280762e-01 -1.672998219728469849e-01 -3.952389210462570190e-02 -6.204711645841598511e-02 1.426186859607696533e-01
5.130000000000000000e+02 2.866396605968475342e-01 -1.433311402797698975e-01 4.404245701152831316e-04 -3.011731663718819618e-03 -7.713921368122100830e-04 -1.090574543923139572e-03
5.140000000000000000e+02 9.295687675476074219e-01 -4.499128460884094238e-01 -8.833842724561691284e-02 -2.618733048439025879e-02 -3.435772657394409180e-02 -7.798580825328826904e-02
5.150000000000000000e+02 1.123660087585449219e+00 -4.487942457199096680e-01 -1.202095896005630493e-01 -2.376441657543182373e-02 -4.319220408797264099e-02 -9.656632691621780396e-02
5.160000000000000000e+02 1.509488821029663086e+00 -1.704776585102081299e-01 -2.074072360992431641e-01 -6.544581148773431778e-03 -6.418554484844207764e-02 -5.118305981159210205e-02
5.170000000000000000e+02 1.318691968917846680e+00 -4.570011496543884277e-01 -1.647640019655227661e-01 -2.464261464774608612e-02 -5.682198330760002136e-02 -1.152795404195785522e-01
5.180000000000000000e+02 1.519290566444396973e+00 -4.702608585357666016e-01 -2.099824249744415283e-01 -2.415713295340538025e-02 -7.024186849594116211e-02 -1.351807564496994019e-01
5.190000000000000000e+02 2.330801010131835938e+00 -1.092834845185279846e-01 -5.270992517471313477e-01 5.754916928708553314e-03 -1.564033031463623047e-01 -4.231149703264236450e-02
5.200000000000000000e+02 2.330002546310424805e+00 -4.076521396636962891e-01 -4.582406580448150635e-01 -7.722647394984960556e-03 -1.397890001535415649e-01 -1.692302823066711426e-01
5.210000000000000000e+02 2.854635238647460938e+00 -3.763575851917266846e-01 -6.650803685188293457e-01 -1.448206230998039246e-02 -2.038687318563461304e-01 -1.682887077331542969e-01
5.220000000000000000e+02 2.888637542724609375e+00 -1.353092640638351440e-01 -7.862878441810607910e-01 -1.194511353969573975e-02 -2.394698858261108398e-01 -6.277464330196380615e-02
5.230000000000000000e+02 3.525556325912475586e+00 -4.008805751800537109e-01 -9.084296226501464844e-01 -2.593684708699584007e-03 -2.733069956302642822e-01 -1.844729930162429810e-01
5.240000000000000000e+02 3.712824344635009766e+00 -3.425129950046539307e-01 -1.019890666007995605e+00 -1.694573555141687393e-03 -3.064755499362945557e-01 -1.623170822858810425e-01
5.250000000000000000e+02 3.153147101402282715e-01 -1.170158624649047852e+00 2.289222367107868195e-02 -1.285659819841384888e-01 -3.170212730765342712e-02 -5.075298249721527100e-02
5.260000000000000000e+02 1.098998665809631348e+00 1.383973240852355957e+00 -7.981903105974197388e-02 -1.750630140304565430e-01 -7.646461576223373413e-02 2.492727339267730713e-01
5.270000000000000000e+02 9.132696986198425293e-01 1.139184236526489258e+00 -6.661742180585861206e-02 -1.463267207145690918e-01 -6.388324499130249023e-02 1.882282495498657227e-01
5.280000000000000000e+02 1.297700524330139160e+00 1.380959510803222656e+00 -1.097308322787284851e-01 -1.493783444166183472e-01 -7.773274928331375122e-02 2.790719866752624512e-01
5.290000000000000000e+02 2.104677677154541016e+00 1.142934083938598633e+00 -2.571584582328796387e-01 -7.571624964475631714e-02 -9.986241161823272705e-02 3.542788922786712646e-01
5.300000000000000000e+02 2.105922222137451172e+00 1.380057573318481445e+00 -2.086068689823150635e-01 -9.333258867263793945e-02 -9.058183431625366211e-02 3.942316472530364990e-01
5.310000000000000000e+02 2.472120761871337891e+00 8.260114192962646484e-01 -4.268878102302551270e-01 -3.078890405595302582e-02 -1.373030096292495728e-01 3.160606324672698975e-01
5.320000000000000000e+02 2.684350728988647461e+00 1.070449829101562500e+00 -3.844911754131317139e-01 -3.800653666257858276e-02 -1.267493069171905518e-01 3.893634974956512451e-01
5.330000000000000000e+02 5.014388561248779297e-01 -1.180073738098144531e+00 -2.601929940283298492e-02 -1.633329540491104126e-01 -5.680567771196365356e-02 -1.190299019217491150e-01
5.340000000000000000e+02 1.898589730262756348e+00 -1.361667275428771973e+00 -1.623209863901138306e-01 -9.442762285470962524e-02 -7.702458649873733521e-02 -3.329929709434509277e-01
5.350000000000000000e+02 2.706937789916992188e+00 -1.351746082305908203e+00 -2.470786720514297485e-01 -4.679718241095542908e-02 -8.816275745630264282e-02 -3.834719657897949219e-01
5.360000000000000000e+02 3.278998136520385742e+00 -1.419653534889221191e+00 -2.589424848556518555e-01 9.006512351334095001e-03 -7.498079538345336914e-02 -3.909598886966705322e-01
5.370000000000000000e+02 3.459973573684692383e+00 -1.375302791595458984e+00 -3.014468252658843994e-01 1.105293910950422287e-02 -8.711817115545272827e-02 -3.759745061397552490e-01
5.380000000000000000e+02 3.894383430480957031e+00 -1.369561672210693359e+00 -2.931581437587738037e-01 3.251816704869270325e-02 -7.819198817014694214e-02 -3.442236483097076416e-01
5.390000000000000000e+02 4.101588249206542969e+00 -1.380870103836059570e+00 -2.757046222686767578e-01 5.799854546785354614e-02 -6.531182676553726196e-02 -3.262259364128112793e-01
5.400000000000000000e+02 4.473862648010253906e+00 -1.373406052589416504e+00 -2.977368831634521484e-01 7.296584546566009521e-02 -6.743131577968597412e-02 -2.696042358875274658e-01
5.410000000000000000e+02 4.413926601409912109e+00 -9.825900197029113770e-01 -6.147003173828125000e-01 2.188075706362724304e-02 -1.778458654880523682e-01 -2.897611856460571289e-01
5.420000000000000000e+02 4.651007652282714844e+00 -1.034792780876159668e+00 -5.507418513298034668e-01 3.945678472518920898e-02 -1.533855199813842773e-01 -2.707703113555908203e-01
5.430000000000000000e+02 2.698109626770019531e+00 1.353659868240356445e+00 -2.910013794898986816e-01 -5.004703626036643982e-02 -1.023145243525505066e-01 4.209880530834197998e-01
5.440000000000000000e+02 3.203837871551513672e+00 1.046766161918640137e+00 -4.918730854988098145e-01 -1.868370361626148224e-02 -1.531670391559600830e-01 3.922207653522491455e-01
5.450000000000000000e+02 3.536650180816650391e+00 1.156954050064086914e+00 -4.794785678386688232e-01 -5.228768102824687958e-03 -1.454121917486190796e-01 4.039748907089233398e-01
5.460000000000000000e+02 3.511688947677612305e+00 1.383489131927490234e+00 -3.611811697483062744e-01 4.109777044504880905e-03 -1.071214154362678528e-01 4.238414168357849121e-01
5.470000000000000000e+02 4.290624618530273438e+00 1.364819407463073730e+00 -3.828519880771636963e-01 4.434776306152343750e-02 -1.015512719750404358e-01 3.708321452140808105e-01
5.480000000000000000e+02 4.488964080810546875e+00 1.358513236045837402e+00 -3.999427855014801025e-01 6.498381495475769043e-02 -1.004876941442489624e-01 3.502644300460815430e-01
5.490000000000000000e+02 4.898042678833007812e+00 1.361506700515747070e+00 -3.739907741546630859e-01 9.187395125627517700e-02 -8.463504165410995483e-02 2.819392383098602295e-01
5.500000000000000000e+02 5.317640781402587891e+00 1.127145648002624512e+00 -5.684229135513305664e-01 9.865181148052215576e-02 -1.409313231706619263e-01 2.209964990615844727e-01
5.510000000000000000e+02 5.302229404449462891e+00 1.374965667724609375e+00 -2.806040048599243164e-01 1.422906070947647095e-01 -4.149401560425758362e-02 1.799337118864059448e-01
5.520000000000000000e+02 6.038267612457275391e+00 1.127481818199157715e+00 -3.536930978298187256e-01 1.788574010133743286e-01 -5.245070904493331909e-02 3.411898389458656311e-02
5.530000000000000000e+02 5.891308784484863281e+00 1.382144212722778320e+00 -7.241143286228179932e-02 2.455585449934005737e-01 5.194413661956787109e-02 -5.004440620541572571e-02
5.540000000000000000e+02 5.990163803100585938e+00 9.407597780227661133e-01 -7.385771274566650391e-01 8.079006522893905640e-02 -1.973361223936080933e-01 1.156267523765563965e-01
5.550000000000000000e+02 6.492058277130126953e+00 1.148414731025695801e+00 -6.720164418220520020e-02 2.707922160625457764e-01 6.107717379927635193e-02 -2.062457054853439331e-01
5.560000000000000000e+02 6.495021343231201172e+00 1.377065539360046387e+00 2.326255291700363159e-01 3.555751144886016846e-01 1.764601916074752808e-01 -3.262852430343627930e-01
5.570000000000000000e+02 6.886942863464355469e+00 1.372913599014282227e+00 5.423986315727233887e-01 5.472072958946228027e-01 3.268817961215972900e-01 -6.529379487037658691e-01
5.580000000000000000e+02 7.049162387847900391e+00 1.097934365272521973e+00 2.414335161447525024e-01 3.920914530754089355e-01 1.900574862957000732e-01 -5.238159894943237305e-01
5.590000000000000000e+02 7.699464797973632812e+00 1.070272088050842285e+00 1.104907989501953125e+00 8.091005086898803711e-01 5.742025375366210938e-01 -1.231186628341674805e+00
5.600000000000000000e+02 7.895280361175537109e+00 1.076510429382324219e+00 1.531177401542663574e+00 9.782168865203857422e-01 7.528182864189147949e-01 -1.598681688308715820e+00
5.610000000000000000e+02 8.438706398010253906e+00 9.416235089302062988e-01 2.630858421325683594e+00 1.661123156547546387e+00 1.287594437599182129e+00 -2.709060907363891602e+00
5.620000000000000000e+02 8.499334335327148438e+00 1.141542434692382812e+00 3.179623126983642578e+00 2.712448596954345703e+00 1.767621517181396484e+00 -3.574913978576660156e+00
5.630000000000000000e+02 8.500323295593261719e+00 1.375605583190917969e+00 2.967579603195190430e+00 3.442042350769042969e+00 1.922886610031127930e+00 -3.946729183197021484e+00
5.640000000000000000e+02 9.372192382812500000e+00 1.157221794128417969e+00 3.712322235107421875e+00 1.106310176849365234e+01 4.432627201080322266e+00 -7.743773937225341797e+00
5.650000000000000000e+02 1.009897041320800781e+01 1.360965251922607422e+00 1.756849437952041626e-01 2.134102630615234375e+01 6.455013275146484375e+00 -4.122991561889648438e+00
5.660000000000000000e+02 1.029183864593505859e+01 1.070809483528137207e+00 9.765372276306152344e-01 2.572505187988281250e+01 8.010476112365722656e+00 -1.950725436210632324e+00
5.670000000000000000e+02 1.094621753692626953e+01 1.065440058708190918e+00 3.084167242050170898e+00 2.138398933410644531e+01 7.340446949005126953e+00 3.491557836532592773e+00
5.680000000000000000e+02 1.105038261413574219e+01 9.287655949592590332e-01 5.568790435791015625e+00 2.079153823852539062e+01 7.908098220825195312e+00 4.446937561035156250e+00
5.690000000000000000e+02 1.134867191314697266e+01 4.438386559486389160e-01 9.984233856201171875e+00 1.640508842468261719e+01 7.916796684265136719e+00 3.365204095840454102e+00
5.700000000000000000e+02 1.137658119201660156e+01 1.111932620406150818e-01 1.170748901367187500e+01 1.594231510162353516e+01 8.294940948486328125e+00 1.080505251884460449e+00
5.710000000000000000e+02 1.135768222808837891e+01 -8.660465478897094727e-02 1.195098304748535156e+01 1.625223731994628906e+01 8.460966110229492188e+00 -3.529607057571411133e-01
5.720000000000000000e+02 1.114956474304199219e+01 -7.495307922363281250e-01 7.326955795288085938e+00 1.946464538574218750e+01 8.037480354309082031e+00 -4.148098945617675781e+00
5.730000000000000000e+02 1.055389499664306641e+01 -9.605528712272644043e-01 3.114702224731445312e+00 2.637875747680664062e+01 8.848037719726562500e+00 -1.495211362838745117e+00
5.740000000000000000e+02 9.789915084838867188e+00 -1.310788512229919434e+00 1.531207084655761719e+00 1.798538780212402344e+01 5.854978561401367188e+00 6.960057735443115234e+00
5.750000000000000000e+02 9.878663063049316406e+00 -1.433499455451965332e+00 5.463719367980957031e-01 1.866957855224609375e+01 5.764785289764404297e+00 5.651663303375244141e+00
5.760000000000000000e+02 9.613013267517089844e+00 -1.223307251930236816e+00 2.727319002151489258e+00 1.553852653503417969e+01 5.479753971099853516e+00 7.945563793182373047e+00
5.770000000000000000e+02 9.401084899902343750e+00 -1.164552330970764160e+00 4.033246994018554688e+00 1.162289524078369141e+01 4.696842670440673828e+00 8.152139663696289062e+00
5.780000000000000000e+02 9.330183982849121094e+00 -1.384363412857055664e+00 2.898186206817626953e+00 1.118057346343994141e+01 4.223627567291259766e+00 7.168194770812988281e+00
5.790000000000000000e+02 8.930303573608398438e+00 -1.360448479652404785e+00 3.788528442382812500e+00 6.597103595733642578e+00 3.115689516067504883e+00 5.993418693542480469e+00
5.800000000000000000e+02 8.432847976684570312e+00 -8.934742808341979980e-01 2.903451919555664062e+00 1.587797164916992188e+00 1.347374796867370605e+00 2.651236057281494141e+00
5.810000000000000000e+02 7.889681339263916016e+00 -1.347106099128723145e+00 2.213270664215087891e+00 1.683452129364013672e+00 1.169016838073730469e+00 2.320944786071777344e+00
5.820000000000000000e+02 7.666182994842529297e+00 -1.057257175445556641e+00 1.476382374763488770e+00 7.695104479789733887e-01 6.737678050994873047e-01 1.352942466735839844e+00
5.830000000000000000e+02 7.463826179504394531e+00 -1.071149468421936035e+00 1.069976091384887695e+00 5.666995644569396973e-01 4.910027086734771729e-01 1.010110497474670410e+00
5.840000000000000000e+02 7.487630367279052734e+00 -1.353373289108276367e+00 1.597448945045471191e+00 1.054223537445068359e+00 7.955017089843750000e-01 1.555349469184875488e+00
5.850000000000000000e+02 6.558133602142333984e+00 -1.260167956352233887e+00 4.000521898269653320e-01 3.768709003925323486e-01 2.330769300460815430e-01 4.427420794963836670e-01
5.860000000000000000e+02 6.502818107604980469e+00 -1.416561841964721680e+00 5.280002355575561523e-01 4.667419493198394775e-01 2.984226644039154053e-01 5.257046818733215332e-01
5.870000000000000000e+02 5.915615558624267578e+00 -1.386669874191284180e+00 1.427014023065567017e-01 2.728013992309570312e-01 1.246508359909057617e-01 1.623738706111907959e-01
5.880000000000000000e+02 6.147385597229003906e+00 -1.184150934219360352e+00 -4.589607566595077515e-02 2.162684351205825806e-01 5.111170560121536255e-02 1.507671922445297241e-01
5.890000000000000000e+02 5.952733516693115234e+00 -1.164222836494445801e+00 -1.530885845422744751e-01 1.638566851615905762e-01 3.230430884286761284e-03 5.391487106680870056e-02
5.900000000000000000e+02 2.070889949798583984e+00 4.941557049751281738e-01 -3.835321068763732910e-01 -2.054576575756072998e-02 -1.212233603000640869e-01 1.920650154352188110e-01
5.910000000000000000e+02 4.889294624328613281e+00 -1.243731975555419922e-01 -1.744350790977478027e+00 -6.135916803032159805e-03 -5.251460075378417969e-01 -7.166290283203125000e-02
5.920000000000000000e+02 5.086661815643310547e+00 -1.319323629140853882e-01 -1.839921832084655762e+00 -8.897724183043465018e-05 -5.520032048225402832e-01 -7.547445595264434814e-02
5.930000000000000000e+02 5.283787727355957031e+00 -1.421496123075485229e-01 -1.925474286079406738e+00 -3.866708138957619667e-04 -5.777582526206970215e-01 -7.436645030975341797e-02
5.940000000000000000e+02 5.454619407653808594e+00 -4.220358133316040039e-01 -1.461072802543640137e+00 3.451647216934361495e-06 -4.383208155632019043e-01 -1.583685576915740967e-01
5.950000000000000000e+02 5.032251358032226562e+00 -9.147278070449829102e-01 -6.952834725379943848e-01 5.196780338883399963e-02 -1.929946988821029663e-01 -2.216389030218124390e-01
5.960000000000000000e+02 5.672704696655273438e+00 -4.032779037952423096e-01 -1.541796088218688965e+00 1.439996063709259033e-02 -4.582188427448272705e-01 -1.404086053371429443e-01
5.970000000000000000e+02 5.689333438873291016e+00 -1.425580382347106934e-01 -2.075562715530395508e+00 -4.274070728570222855e-03 -6.239510774612426758e-01 -7.248640805482864380e-02
5.980000000000000000e+02 6.094984531402587891e+00 -1.345948725938796997e-01 -2.215587854385375977e+00 -5.021848715841770172e-03 -6.661828756332397461e-01 -6.626337021589279175e-02
5.990000000000000000e+02 6.499288082122802734e+00 -3.624794781208038330e-01 -1.670869588851928711e+00 1.782513223588466644e-02 -4.959133267402648926e-01 -7.327738404273986816e-02
6.000000000000000000e+02 6.500439167022705078e+00 -1.290287375450134277e-01 -2.340209007263183594e+00 -3.500794759020209312e-03 -7.031129598617553711e-01 -6.031490489840507507e-02
6.010000000000000000e+02 6.907692909240722656e+00 -4.148274362087249756e-01 -1.413416624069213867e+00 4.607623815536499023e-02 -4.102021157741546631e-01 7.608822546899318695e-03
6.020000000000000000e+02 6.903815746307373047e+00 -1.389468610286712646e-01 -2.430495500564575195e+00 -1.484270393848419189e-02 -7.336014509201049805e-01 -5.506631359457969666e-02
6.030000000000000000e+02 7.121029853820800781e+00 -4.067460894584655762e-01 -1.359651565551757812e+00 2.094629220664501190e-02 -4.016115963459014893e-01 1.567187160253524780e-02
6.040000000000000000e+02 7.673297882080078125e+00 -3.812748491764068604e-01 -1.066952586174011230e+00 1.469479650259017944e-01 -2.760013639926910400e-01 2.220293581485748291e-01
6.050000000000000000e+02 8.090831756591796875e+00 -4.654213786125183105e-01 1.531376391649246216e-01 1.832077354192733765e-01 1.009036153554916382e-01 5.779417157173156738e-01
6.060000000000000000e+02 8.513357162475585938e+00 -9.385216236114501953e-02 -2.043420553207397461e+00 1.152736414223909378e-02 -6.095679998397827148e-01 -4.440834745764732361e-03
6.070000000000000000e+02 8.694006919860839844e+00 -9.929644316434860229e-02 -1.675510168075561523e+00 1.699912250041961670e-01 -4.516556859016418457e-01 2.260117530822753906e-01
6.080000000000000000e+02 8.780900955200195312e+00 -5.805974006652832031e-01 3.626247167587280273e+00 1.294387340545654297e+00 1.476190328598022461e+00 2.594885349273681641e+00
6.090000000000000000e+02 9.002408027648925781e+00 -5.003924965858459473e-01 4.764144420623779297e+00 1.459758281707763672e+00 1.867170810699462891e+00 3.382447957992553711e+00
6.100000000000000000e+02 2.677865982055664062e+00 4.797182679176330566e-01 -5.897772908210754395e-01 -1.114778686314821243e-02 -1.802775263786315918e-01 2.113396376371383667e-01
6.110000000000000000e+02 3.502223491668701172e+00 1.595564931631088257e-01 -1.114301085472106934e+00 -6.472924724221229553e-03 -3.362321853637695312e-01 9.042005985975265503e-02
6.120000000000000000e+02 4.110939979553222656e+00 1.544675827026367188e-01 -1.443547368049621582e+00 2.042570151388645172e-03 -4.324514567852020264e-01 9.490570425987243652e-02
6.130000000000000000e+02 4.331385135650634766e+00 4.170958399772644043e-01 -1.289829373359680176e+00 1.016130205243825912e-03 -3.866439759731292725e-01 2.144924700260162354e-01
6.140000000000000000e+02 4.723761558532714844e+00 6.832276582717895508e-01 -1.094690799713134766e+00 6.804137490689754486e-03 -3.263660073280334473e-01 2.738119363784790039e-01
6.150000000000000000e+02 5.272310256958007812e+00 3.729754388332366943e-01 -1.688061356544494629e+00 4.634890239685773849e-03 -5.050279498100280762e-01 1.764317601919174194e-01
6.160000000000000000e+02 5.293497562408447266e+00 1.325630992650985718e-01 -2.081485748291015625e+00 -5.257238633930683136e-03 -6.260229349136352539e-01 7.561957836151123047e-02
6.170000000000000000e+02 5.232282638549804688e+00 6.048842072486877441e-01 -1.319822788238525391e+00 6.236320827156305313e-03 -3.940759301185607910e-01 2.359218001365661621e-01
6.180000000000000000e+02 8.746415138244628906e+00 3.600572347640991211e-01 9.611032605171203613e-01 2.308079749345779419e-01 3.575733602046966553e-01 -1.055962920188903809e+00
6.190000000000000000e+02 8.305797576904296875e+00 1.427644640207290649e-01 -2.559969425201416016e+00 1.843847148120403290e-02 -7.624592781066894531e-01 -3.985196352005004883e-02
6.200000000000000000e+02 7.901810646057128906e+00 1.449706256389617920e-01 -2.749253034591674805e+00 6.566366553306579590e-02 -8.050767779350280762e-01 -3.291573841124773026e-03
6.210000000000000000e+02 7.500181674957275391e+00 4.128713011741638184e-01 -1.529990673065185547e+00 1.296708174049854279e-02 -4.551070630550384521e-01 -6.968923658132553101e-02
6.220000000000000000e+02 7.501165390014648438e+00 1.396588683128356934e-01 -2.790759086608886719e+00 1.720609143376350403e-02 -8.320658802986145020e-01 2.923613972961902618e-02
6.230000000000000000e+02 6.921849727630615234e+00 3.830473423004150391e-01 -1.870967626571655273e+00 2.982332929968833923e-02 -5.523433089256286621e-01 5.108778178691864014e-02
6.240000000000000000e+02 6.729214191436767578e+00 3.933477997779846191e-01 -1.867921471595764160e+00 9.752154350280761719e-03 -5.574508309364318848e-01 9.282114356756210327e-02
6.250000000000000000e+02 6.333845615386962891e+00 4.256263971328735352e-01 -1.793122768402099609e+00 9.840852580964565277e-03 -5.349845886230468750e-01 1.222946718335151672e-01
6.260000000000000000e+02 6.309340953826904297e+00 1.476686298847198486e-01 -2.509172201156616211e+00 3.917855676263570786e-03 -7.515763044357299805e-01 8.709002286195755005e-02
6.270000000000000000e+02 5.493331432342529297e+00 1.431408077478408813e-01 -2.170094251632690430e+00 -4.668212495744228363e-03 -6.524287462234497070e-01 8.219901472330093384e-02
6.280000000000000000e+02 8.807046890258789062e+00 5.908421874046325684e-01 3.283563375473022461e+00 1.315098524093627930e+00 1.379598617553710938e+00 -2.696691274642944336e+00
6.290000000000000000e+02 9.641102790832519531e+00 1.027891039848327637e+00 3.257174968719482422e+00 1.646766471862792969e+01 5.917452335357666016e+00 -8.680395126342773438e+00
6.300000000000000000e+02 9.723552703857421875e+00 1.164067268371582031e+00 2.127547502517700195e+00 1.771763420104980469e+01 5.953554630279541016e+00 -7.749001026153564453e+00
6.310000000000000000e+02 9.169920921325683594e+00 -7.426183819770812988e-01 6.168301582336425781e+00 4.948622226715087891e+00 3.335077285766601562e+00 6.388642311096191406e+00
6.320000000000000000e+02 9.013514518737792969e+00 -8.671277761459350586e-01 5.306744098663330078e+00 4.800714492797851562e+00 3.032237529754638672e+00 5.826223373413085938e+00
6.330000000000000000e+02 1.013618946075439453e+01 -1.204873919486999512e+00 8.439822196960449219e-01 2.289128494262695312e+01 7.120580196380615234e+00 3.944798946380615234e+00
6.340000000000000000e+02 1.096621036529541016e+01 -5.681729912757873535e-01 1.013090610504150391e+01 2.174639701843261719e+01 9.563190460205078125e+00 -4.379500865936279297e+00
6.350000000000000000e+02 1.110134124755859375e+01 4.364140033721923828e-01 1.126525878906250000e+01 1.970337295532226562e+01 9.290589332580566406e+00 3.888875722885131836e+00
6.360000000000000000e+02 1.073451900482177734e+01 1.042677521705627441e+00 3.054025411605834961e+00 2.368475341796875000e+01 8.021634101867675781e+00 2.728587388992309570e+00
6.370000000000000000e+02 7.196813225746154785e-01 1.133157849311828613e+00 -5.396360531449317932e-02 -1.271046847105026245e-01 -5.432048812508583069e-02 1.463613808155059814e-01
6.380000000000000000e+02 5.095959901809692383e-01 9.234093427658081055e-01 -2.187467925250530243e-02 -8.817283809185028076e-02 -3.301425650715827942e-02 7.355258613824844360e-02
6.390000000000000000e+02 9.473596811294555664e-01 8.759135007858276367e-01 -9.090731292963027954e-02 -7.969138771295547485e-02 -5.117961019277572632e-02 1.429654806852340698e-01
6.400000000000000000e+02 8.585849761962890625e+00 6.451504826545715332e-01 2.436194896697998047e+00 9.515892267227172852e-01 1.016335248947143555e+00 -2.073014259338378906e+00
6.410000000000000000e+02 3.430184721946716309e-01 -6.891425848007202148e-01 -5.356234963983297348e-03 -4.727623239159584045e-02 -1.578973978757858276e-02 -3.477806225419044495e-02
6.420000000000000000e+02 8.211489915847778320e-01 -1.136243939399719238e+00 -5.440327152609825134e-02 -1.299074739217758179e-01 -5.529322475194931030e-02 -1.659979969263076782e-01
6.430000000000000000e+02 7.618465423583984375e-01 -8.771122694015502930e-01 -4.684260860085487366e-02 -9.133701026439666748e-02 -4.145388677716255188e-02 -1.129600107669830322e-01
6.440000000000000000e+02 1.128251910209655762e+00 -7.265512347221374512e-01 -1.224296465516090393e-01 -5.833959951996803284e-02 -5.423077568411827087e-02 -1.498457044363021851e-01
6.450000000000000000e+02 7.798145771026611328e+00 8.820459842681884766e-01 8.578758835792541504e-01 5.711549520492553711e-01 4.287092685699462891e-01 -1.040241956710815430e+00
6.460000000000000000e+02 7.292043209075927734e+00 6.492977738380432129e-01 -6.877387166023254395e-01 1.544201970100402832e-01 -1.599955558776855469e-01 -2.176900804042816162e-01
6.470000000000000000e+02 7.491149425506591797e+00 7.071627378463745117e-01 -2.871479690074920654e-01 2.375352084636688232e-01 -1.488383021205663681e-02 -3.923676609992980957e-01
6.480000000000000000e+02 7.897399425506591797e+00 6.969326734542846680e-01 3.700627982616424561e-01 4.100210070610046387e-01 2.340251356363296509e-01 -8.071535229682922363e-01
6.490000000000000000e+02 7.121828079223632812e+00 6.090865731239318848e-01 -1.076785564422607422e+00 9.265458583831787109e-02 -2.952392697334289551e-01 -8.627515286207199097e-02
6.500000000000000000e+02 6.947204589843750000e+00 6.253395080566406250e-01 -1.103395819664001465e+00 7.069796323776245117e-02 -3.098093569278717041e-01 -2.168642729520797729e-02
6.510000000000000000e+02 6.761960983276367188e+00 6.432615518569946289e-01 -1.115670680999755859e+00 8.097967505455017090e-02 -3.104073107242584229e-01 1.292674895375967026e-02
6.520000000000000000e+02 6.371105194091796875e+00 7.061058282852172852e-01 -1.075803875923156738e+00 6.097745150327682495e-02 -3.044479191303253174e-01 8.055433630943298340e-02
6.530000000000000000e+02 5.778918266296386719e+00 8.067899346351623535e-01 -1.040182471275329590e+00 5.092438682913780212e-02 -2.967774271965026855e-01 1.662499159574508667e-01
6.540000000000000000e+02 5.950025081634521484e+00 7.224904298782348633e-01 -1.129338145256042480e+00 4.662755131721496582e-02 -3.248131871223449707e-01 1.472367197275161743e-01
6.550000000000000000e+02 5.419727802276611328e+00 6.486015915870666504e-01 -1.281059384346008301e+00 2.002374269068241119e-02 -3.783107101917266846e-01 2.266800403594970703e-01
6.560000000000000000e+02 5.058570861816406250e+00 5.610458850860595703e-01 -1.341062426567077637e+00 1.824593730270862579e-02 -3.968449234962463379e-01 2.349648028612136841e-01
6.570000000000000000e+02 6.443637371063232422e+00 9.457973241806030273e-01 -5.455679297447204590e-01 1.322289556264877319e-01 -1.240016892552375793e-01 -5.526843294501304626e-02
6.580000000000000000e+02 8.837642669677734375e+00 -7.290750741958618164e-01 4.479513645172119141e+00 2.123063325881958008e+00 1.980773091316223145e+00 3.720359086990356445e+00
6.590000000000000000e+02 8.703968048095703125e+00 -8.356453180313110352e-01 3.936082839965820312e+00 2.268475055694580078e+00 1.861367344856262207e+00 3.532613515853881836e+00
6.600000000000000000e+02 8.839380264282226562e+00 -8.827289342880249023e-01 4.803441047668457031e+00 3.241517066955566406e+00 2.413487434387207031e+00 4.715751171112060547e+00
6.610000000000000000e+02 7.849783420562744141e+00 -7.420578598976135254e-01 8.998222351074218750e-01 4.195246100425720215e-01 3.958040475845336914e-01 9.229648113250732422e-01
6.620000000000000000e+02 7.432171344757080078e+00 -8.125846982002258301e-01 3.493433594703674316e-01 3.593986332416534424e-01 2.126226127147674561e-01 6.454069018363952637e-01
6.630000000000000000e+02 7.247812271118164062e+00 -8.348821401596069336e-01 1.947474032640457153e-01 2.685027122497558594e-01 1.389750391244888306e-01 4.807299971580505371e-01
6.640000000000000000e+02 6.707566261291503906e+00 -1.137985229492187500e+00 3.212027251720428467e-01 3.315054476261138916e-01 1.958124488592147827e-01 4.295862317085266113e-01
6.650000000000000000e+02 6.152390956878662109e+00 9.818547368049621582e-01 -5.646259188652038574e-01 1.363428831100463867e-01 -1.284849196672439575e-01 2.972896397113800049e-02
6.660000000000000000e+02 5.166089534759521484e+00 8.400604128837585449e-01 -9.538130164146423340e-01 3.298825025558471680e-02 -2.762474417686462402e-01 2.698675394058227539e-01
6.670000000000000000e+02 4.488036632537841797e+00 7.870783209800720215e-01 -9.424402713775634766e-01 1.076085399836301804e-02 -2.795038223266601562e-01 3.129268288612365723e-01
6.680000000000000000e+02 3.789488315582275391e+00 9.651583433151245117e-01 -6.369206309318542480e-01 -1.848226063884794712e-03 -1.916306614875793457e-01 3.790655136108398438e-01
6.690000000000000000e+02 3.485383033752441406e+00 9.789987802505493164e-01 -5.889008641242980957e-01 -6.640037987381219864e-03 -1.786622703075408936e-01 3.879028260707855225e-01
6.700000000000000000e+02 3.102208375930786133e+00 4.528451859951019287e-01 -7.589351534843444824e-01 -6.042784079909324646e-03 -2.294933795928955078e-01 2.178470343351364136e-01
6.710000000000000000e+02 2.668821096420288086e+00 7.853702306747436523e-01 -4.950828254222869873e-01 -2.593706175684928894e-02 -1.563059687614440918e-01 3.125809431076049805e-01
6.720000000000000000e+02 2.879905700683593750e+00 1.040180444717407227e+00 -4.278172552585601807e-01 -2.997008524835109711e-02 -1.373362094163894653e-01 3.913368582725524902e-01
6.730000000000000000e+02 2.283032178878784180e+00 8.337278962135314941e-01 -3.694046735763549805e-01 -4.217543825507164001e-02 -1.234740316867828369e-01 3.016309738159179688e-01
6.740000000000000000e+02 2.023591279983520508e+00 9.913223981857299805e-01 -2.873842418193817139e-01 -6.375505775213241577e-02 -1.053417921066284180e-01 3.267246186733245850e-01
6.750000000000000000e+02 1.773169398307800293e+00 1.094848155975341797e+00 -2.064713090658187866e-01 -9.298267215490341187e-02 -8.983619511127471924e-02 3.105139136314392090e-01
6.760000000000000000e+02 1.610540509223937988e+00 9.875396490097045898e-01 -1.937713474035263062e-01 -8.065301924943923950e-02 -8.232730627059936523e-02 2.679553627967834473e-01
6.770000000000000000e+02 7.322433948516845703e+00 -3.674551546573638916e-01 -1.461675643920898438e+00 7.356069236993789673e-02 -4.164344966411590576e-01 3.021924011409282684e-02
6.780000000000000000e+02 7.189186573028564453e+00 -6.365131139755249023e-01 -5.152995586395263672e-01 1.404274553060531616e-01 -1.124616265296936035e-01 2.434050887823104858e-01
6.790000000000000000e+02 6.494585990905761719e+00 -5.667870044708251953e-01 -1.180835962295532227e+00 8.030123077332973480e-03 -3.518417775630950928e-01 -3.976936265826225281e-02
6.800000000000000000e+02 6.665716648101806641e+00 -6.086487770080566406e-01 -9.523305296897888184e-01 9.375527501106262207e-02 -2.575725913047790527e-01 4.583135992288589478e-02
6.810000000000000000e+02 5.662438392639160156e+00 -6.451626420021057129e-01 -1.106751203536987305e+00 2.084767073392868042e-02 -3.257710635662078857e-01 -1.426229476928710938e-01
6.820000000000000000e+02 5.153976440429687500e+00 -6.769131422042846680e-01 -1.023652672767639160e+00 2.430771291255950928e-02 -2.998034656047821045e-01 -2.004653066396713257e-01
6.830000000000000000e+02 4.689115524291992188e+00 -3.678166568279266357e-01 -1.349563717842102051e+00 -2.817147877067327499e-03 -4.057142436504364014e-01 -1.660009473562240601e-01
6.840000000000000000e+02 4.881676197052001953e+00 -8.163195252418518066e-01 -8.412553668022155762e-01 2.513498254120349884e-02 -2.448361217975616455e-01 -2.388015538454055786e-01
6.850000000000000000e+02 4.461433410644531250e+00 -6.964415907859802246e-01 -9.250923395156860352e-01 6.381609011441469193e-03 -2.756132185459136963e-01 -2.540005445480346680e-01
6.860000000000000000e+02 4.224597930908203125e+00 -6.622968316078186035e-01 -9.022254943847656250e-01 5.238523706793785095e-03 -2.690961062908172607e-01 -2.523230016231536865e-01
6.870000000000000000e+02 3.801926136016845703e+00 -5.143706202507019043e-01 -9.160643219947814941e-01 -7.087270729243755341e-03 -2.769454717636108398e-01 -2.228489965200424194e-01
6.880000000000000000e+02 3.630661249160766602e+00 -6.272665858268737793e-01 -7.873166203498840332e-01 -9.084066259674727917e-04 -2.364675104618072510e-01 -2.615357041358947754e-01
6.890000000000000000e+02 2.568556547164916992e+00 -5.380747914314270020e-01 -5.033542513847351074e-01 -2.005670405924320221e-02 -1.570232808589935303e-01 -2.194164544343948364e-01
6.900000000000000000e+02 1.276379942893981934e+00 9.805626869201660156e-01 -1.454959213733673096e-01 -8.920994400978088379e-02 -7.041175663471221924e-02 2.210859358310699463e-01
6.910000000000000000e+02 1.473438262939453125e+00 1.130170464515686035e+00 -1.607445031404495239e-01 -1.060721054673194885e-01 -8.004498481750488281e-02 2.827011346817016602e-01
6.920000000000000000e+02 6.174290180206298828e+00 -9.929761886596679688e-01 -2.972007095813751221e-01 1.519934386014938354e-01 -4.356218129396438599e-02 5.701550841331481934e-02
6.930000000000000000e+02 5.829972267150878906e+00 -8.968052864074707031e-01 -6.226236820220947266e-01 7.721799612045288086e-02 -1.636217087507247925e-01 -7.758247107267379761e-02
6.940000000000000000e+02 5.305361270904541016e+00 -7.824894189834594727e-01 -9.060755968093872070e-01 2.875322476029396057e-02 -2.631967067718505859e-01 -1.902053952217102051e-01
6.950000000000000000e+02 4.869118213653564453e+00 -1.037578105926513672e+00 -5.695965886116027832e-01 5.808239057660102844e-02 -1.534542590379714966e-01 -2.481065094470977783e-01
6.960000000000000000e+02 4.970853805541992188e+00 -6.024886965751647949e-01 -1.110583901405334473e+00 1.441475469619035721e-02 -3.288507461547851562e-01 -2.096262127161026001e-01
6.970000000000000000e+02 6.597208976745605469e+00 -9.410620927810668945e-01 -2.020252496004104614e-01 1.632577329874038696e-01 -1.163025759160518646e-02 1.974140703678131104e-01
6.980000000000000000e+02 1.099483966827392578e+00 6.637505888938903809e-01 -1.245364844799041748e-01 -4.905939847230911255e-02 -5.207876488566398621e-02 1.370906531810760498e-01
6.990000000000000000e+02 4.873821258544921875e+00 8.694833517074584961e-01 -8.895493745803833008e-01 2.158687077462673187e-02 -2.603887617588043213e-01 3.121904134750366211e-01
7.000000000000000000e+02 4.735702037811279297e+00 5.310602784156799316e-01 -1.322716593742370605e+00 -2.974125090986490250e-03 -3.977072238922119141e-01 2.204269617795944214e-01
7.010000000000000000e+02 4.781222641468048096e-01 7.325435876846313477e-01 -3.240642696619033813e-02 -6.700193136930465698e-02 -2.982250787317752838e-02 6.310372054576873779e-02
7.020000000000000000e+02 6.524793505668640137e-01 6.480366587638854980e-01 -5.486002564430236816e-02 -4.707079753279685974e-02 -3.057924658060073853e-02 7.484456151723861694e-02
7.030000000000000000e+02 5.329104065895080566e-01 -9.645437002182006836e-01 -1.385040953755378723e-02 -9.716276079416275024e-02 -3.330394998192787170e-02 -8.259753137826919556e-02
7.040000000000000000e+02 7.783585786819458008e-01 -7.012048959732055664e-01 -6.380865722894668579e-02 -6.412045657634735107e-02 -3.837873414158821106e-02 -9.886743873357772827e-02
7.050000000000000000e+02 6.917028427124023438e-01 -1.030764341354370117e+00 -5.688434466719627380e-02 -1.180785968899726868e-01 -5.248888209462165833e-02 -1.418009251356124878e-01
7.060000000000000000e+02 6.293925642967224121e-01 -7.808761000633239746e-01 -4.747948423027992249e-02 -7.071648538112640381e-02 -3.545879200100898743e-02 -8.414909988641738892e-02
7.070000000000000000e+02 9.472883939743041992e-01 -7.062159180641174316e-01 -8.697476238012313843e-02 -5.634466186165809631e-02 -4.299582540988922119e-02 -1.218270957469940186e-01
7.080000000000000000e+02 4.776030778884887695e-01 5.666073560714721680e-01 -3.090810775756835938e-02 -3.355121240019798279e-02 -1.933779567480087280e-02 3.441862016916275024e-02
7.090000000000000000e+02 1.538459300994873047e+00 6.425859332084655762e-01 -2.152183055877685547e-01 -4.062232375144958496e-02 -7.675218582153320312e-02 1.829370558261871338e-01
7.100000000000000000e+02 5.843770027160644531e+00 9.733428359031677246e-01 -7.323715090751647949e-01 9.463194012641906738e-02 -1.913218796253204346e-01 1.470238119363784790e-01
7.110000000000000000e+02 4.688058853149414062e+00 -7.520776391029357910e-01 -9.235851764678955078e-01 1.785904727876186371e-02 -2.717178463935852051e-01 -2.513360679149627686e-01
7.120000000000000000e+02 1.718168497085571289e+00 -7.818244099617004395e-01 -2.334193885326385498e-01 -3.881607577204704285e-02 -8.167064189910888672e-02 -2.232545763254165649e-01
7.130000000000000000e+02 2.141017913818359375e+00 -8.937534093856811523e-01 -2.907958626747131348e-01 -3.835810348391532898e-02 -9.874618798494338989e-02 -2.882736325263977051e-01
7.140000000000000000e+02 3.295278072357177734e+00 4.408143162727355957e-01 -8.563249707221984863e-01 -9.421877562999725342e-03 -2.597240507602691650e-01 2.146041244268417358e-01
7.150000000000000000e+02 3.908945798873901367e+00 7.542336583137512207e-01 -8.532071113586425781e-01 -6.402356550097465515e-03 -2.578828334808349609e-01 3.191069066524505615e-01
7.160000000000000000e+02 4.898604869842529297e+00 3.364383876323699951e-01 -1.612318873405456543e+00 8.526418358087539673e-03 -4.811377227306365967e-01 1.745271086692810059e-01
7.170000000000000000e+02 4.172647476196289062e+00 -9.147674441337585449e-01 -6.695095300674438477e-01 1.433117408305406570e-02 -1.965535134077072144e-01 -2.995826005935668945e-01
7.180000000000000000e+02 4.341487407684326172e+00 -1.208051443099975586e+00 -4.086992442607879639e-01 4.418811574578285217e-02 -1.093533411622047424e-01 -3.026306331157684326e-01
7.190000000000000000e+02 3.930785894393920898e+00 -8.624976873397827148e-01 -6.817273497581481934e-01 8.746188133955001831e-03 -2.018943428993225098e-01 -3.029240369796752930e-01
7.200000000000000000e+02 3.666007995605468750e+00 -1.085257411003112793e+00 -4.865591526031494141e-01 6.618090905249118805e-03 -1.439823210239410400e-01 -3.472134172916412354e-01
7.210000000000000000e+02 3.434339046478271484e+00 -1.001948237419128418e+00 -4.960162937641143799e-01 -3.549635875970125198e-03 -1.498697847127914429e-01 -3.388567268848419189e-01
7.220000000000000000e+02 3.152985572814941406e+00 -1.041568875312805176e+00 -4.347412884235382080e-01 -1.197605766355991364e-02 -1.340152025222778320e-01 -3.522832989692687988e-01
7.230000000000000000e+02 3.014698266983032227e+00 -1.173652768135070801e+00 -3.567664921283721924e-01 -1.512623392045497894e-02 -1.115678176283836365e-01 -3.741787374019622803e-01
7.240000000000000000e+02 3.278838396072387695e+00 -6.853585243225097656e-01 -6.470504403114318848e-01 -4.838462453335523605e-03 -1.955666691064834595e-01 -2.784693837165832520e-01
7.250000000000000000e+02 5.003881931304931641e+00 7.624759674072265625e-01 -1.033416748046875000e+00 1.942853070795536041e-02 -3.041964471340179443e-01 2.771078348159790039e-01
7.260000000000000000e+02 4.868101119995117188e+00 7.044153809547424316e-01 -1.106502532958984375e+00 3.165429690852761269e-03 -3.310011327266693115e-01 2.648453116416931152e-01
7.270000000000000000e+02 2.721965551376342773e+00 -8.490000367164611816e-01 -4.501900374889373779e-01 -2.364116907119750977e-02 -1.421493589878082275e-01 -3.101064562797546387e-01
7.280000000000000000e+02 6.305780887603759766e+00 -5.861872434616088867e-01 -1.163617134094238281e+00 4.672599211335182190e-02 -3.350673317909240723e-01 -6.945060193538665771e-02
7.290000000000000000e+02 6.341193199157714844e+00 -7.839299440383911133e-01 -6.758029460906982422e-01 6.929237395524978638e-02 -1.819531768560409546e-01 1.867943070828914642e-02
7.300000000000000000e+02 2.076251029968261719e+00 7.923982143402099609e-01 -3.236047625541687012e-01 -4.330682381987571716e-02 -1.100734770298004150e-01 2.765302360057830811e-01
7.310000000000000000e+02 3.048688173294067383e+00 -8.854083418846130371e-01 -4.954127073287963867e-01 -1.406560093164443970e-02 -1.528434902429580688e-01 -3.208136558532714844e-01
7.320000000000000000e+02 3.992599487304687500e+00 -6.138769388198852539e-01 -8.855738639831542969e-01 -9.814604418352246284e-04 -2.659665942192077637e-01 -2.465975880622863770e-01
7.330000000000000000e+02 4.893347263336181641e+00 5.319082140922546387e-01 -1.337667226791381836e+00 6.536352913826704025e-03 -3.993392586708068848e-01 2.322714477777481079e-01
7.340000000000000000e+02 4.594274997711181641e+00 5.978508591651916504e-01 -1.179373979568481445e+00 5.543292500078678131e-03 -3.521492183208465576e-01 2.520067393779754639e-01
7.350000000000000000e+02 3.709774494171142578e+00 6.789032220840454102e-01 -8.609884977340698242e-01 -9.717127308249473572e-03 -2.612116932868957520e-01 2.900495827198028564e-01
7.360000000000000000e+02 5.712950229644775391e-01 -1.033338356018066406e+01 -1.628902368247509003e-02 -6.948929429054260254e-01 -2.133546024560928345e-01 6.020551547408103943e-02
7.370000000000000000e+02 1.319790077209472656e+01 -1.666599082946777344e+01 -7.521512452512979507e-03 8.487105369567871094e+00 2.543875217437744141e+00 1.461092196404933929e-02
7.380000000000000000e+02 1.446622753143310547e+01 -2.766502952575683594e+01 -7.110857963562011719e-02 8.996551513671875000e+00 2.677633047103881836e+00 2.627717703580856323e-02
7.390000000000000000e+02 1.425449657440185547e+01 -3.183076477050781250e+01 -3.763752058148384094e-02 8.609924316406250000e+00 2.571686267852783203e+00 2.157041281461715698e-01
7.400000000000000000e+02 1.399527740478515625e+01 -3.472787475585937500e+01 1.255074620246887207e+00 1.175451183319091797e+01 3.902875900268554688e+00 -6.882566213607788086e-01
7.410000000000000000e+02 1.408207893371582031e+01 -3.327583694458007812e+01 5.405246466398239136e-02 9.673813819885253906e+00 2.918359756469726562e+00 2.336050570011138916e-01
7.420000000000000000e+02 1.671455621719360352e+00 -1.166405200958251953e+01 -3.078018873929977417e-02 2.450519055128097534e-01 6.428151577711105347e-02 1.191515624523162842e-01
7.430000000000000000e+02 6.004921793937683105e-01 -1.715663719177246094e+01 5.071069113910198212e-03 -2.701081633567810059e-01 -7.951112836599349976e-02 2.282676286995410919e-02
7.440000000000000000e+02 1.326733398437500000e+01 -2.355752372741699219e+01 -2.994384616613388062e-02 8.362041473388671875e+00 2.499629259109497070e+00 4.390260204672813416e-02
7.450000000000000000e+02 1.317694473266601562e+01 -1.951469230651855469e+01 1.559706497937440872e-02 8.415513992309570312e+00 2.529333353042602539e+00 4.350520204752683640e-03
7.460000000000000000e+02 1.831158399581909180e+00 -1.839203071594238281e+01 9.560608887113630772e-04 6.102923154830932617e-01 1.833745092153549194e-01 4.715752601623535156e-02
7.470000000000000000e+02 6.294021606445312500e-01 -2.395783805847167969e+01 -6.213523447513580322e-04 -7.705232501029968262e-02 -2.330210432410240173e-02 1.536425575613975525e-02
7.480000000000000000e+02 1.132209968566894531e+01 -3.141993141174316406e+01 1.666447818279266357e-01 7.301131248474121094e+00 2.240332841873168945e+00 -3.579452633857727051e-01
7.490000000000000000e+02 1.325468158721923828e+01 -2.621846199035644531e+01 -5.860688164830207825e-02 8.309621810913085938e+00 2.475304365158081055e+00 6.347163021564483643e-02
7.500000000000000000e+02 1.912341952323913574e+00 -2.644176673889160156e+01 6.355097051709890366e-03 8.336725234985351562e-01 2.520082890987396240e-01 4.244756698608398438e-02
7.510000000000000000e+02 6.805773973464965820e-01 -3.073120498657226562e+01 4.326561465859413147e-03 1.513055264949798584e-01 4.668962582945823669e-02 3.627697005867958069e-02
7.520000000000000000e+02 1.583005046844482422e+01 -3.786975097656250000e+01 1.629130691289901733e-01 3.562433481216430664e+00 1.117604017257690430e+00 -1.550926685333251953e+00
7.530000000000000000e+02 1.418129062652587891e+01 -3.745366287231445312e+01 -6.291777640581130981e-02 7.269203662872314453e+00 2.161885738372802734e+00 -1.346312999725341797e+00
7.540000000000000000e+02 1.431839656829833984e+01 -3.599515151977539062e+01 1.659961462020874023e+00 9.666717529296875000e+00 3.398003816604614258e+00 -2.089224338531494141e+00
7.550000000000000000e+02 2.347723960876464844e+00 -3.443246841430664062e+01 4.974294453859329224e-02 1.411678910255432129e+00 4.384265542030334473e-01 2.279134392738342285e-01
7.560000000000000000e+02 8.835400342941284180e-01 -3.751935958862304688e+01 -2.369872527197003365e-03 9.559085965156555176e-01 2.860616147518157959e-01 1.640359908342361450e-01
7.570000000000000000e+02 2.712491035461425781e+00 -3.839065170288085938e+01 4.964311048388481140e-02 1.727554321289062500e+00 5.331591963768005371e-01 4.005556106567382812e-01
7.580000000000000000e+02 7.287000274658203125e+01 -3.768932342529296875e+01 -1.207927148789167404e-02 7.905749320983886719e+00 2.368101119995117188e+00 -1.385723333805799484e-02
7.590000000000000000e+02 7.791065979003906250e+01 -4.161676025390625000e+01 3.483223728835582733e-03 7.985062599182128906e+00 2.396563768386840820e+00 9.999702451750636101e-04
7.600000000000000000e+02 7.778194427490234375e+01 -3.678368759155273438e+01 -7.258237455971539021e-04 7.973526954650878906e+00 2.391840219497680664e+00 -3.746592439711093903e-03
7.610000000000000000e+02 7.793907165527343750e+01 -3.042364883422851562e+01 -1.974227605387568474e-03 7.951911926269531250e+00 2.384981393814086914e+00 -1.200343202799558640e-02
7.620000000000000000e+02 7.796434020996093750e+01 -2.371961975097656250e+01 4.502492083702236414e-05 7.910315990447998047e+00 2.373108148574829102e+00 -1.620691642165184021e-02
7.630000000000000000e+02 7.790189361572265625e+01 -1.670738220214843750e+01 -1.069791731424629688e-03 7.854225158691406250e+00 2.355946540832519531e+00 -2.011860907077789307e-02
7.640000000000000000e+02 7.791786193847656250e+01 -9.592288017272949219e+00 1.051155268214643002e-03 7.793054103851318359e+00 2.338231563568115234e+00 -2.029855363070964813e-02
7.650000000000000000e+02 7.801303863525390625e+01 -2.578653335571289062e+00 -4.283277085050940514e-04 7.733639240264892578e+00 2.319963455200195312e+00 -1.783117093145847321e-02
7.660000000000000000e+02 7.805223846435546875e+01 4.347718715667724609e+00 1.222937135025858879e-03 7.681694984436035156e+00 2.304875373840332031e+00 -1.484393887221813202e-02
7.670000000000000000e+02 7.798783111572265625e+01 1.125268077850341797e+01 1.647268363740295172e-04 7.640902042388916016e+00 2.292320013046264648e+00 -1.134856324642896652e-02
7.680000000000000000e+02 7.790986633300781250e+01 1.958245277404785156e+01 4.081694642081856728e-04 7.608364582061767578e+00 2.282631874084472656e+00 -6.906402297317981720e-03
7.690000000000000000e+02 7.643997192382812500e+01 2.243413543701171875e+01 1.547580235637724400e-03 7.614681243896484375e+00 2.284868717193603516e+00 -8.617437444627285004e-03
7.700000000000000000e+02 7.933309936523437500e+01 3.208940505981445312e+01 1.440716587239876390e-04 7.573277950286865234e+00 2.272026538848876953e+00 -4.002095083706080914e-04
7.710000000000000000e+02 7.693230438232421875e+01 3.740224075317382812e+01 6.351352931233122945e-05 7.593780994415283203e+00 2.278153419494628906e+00 1.441834261640906334e-03
7.720000000000000000e+02 7.895645141601562500e+01 3.758927536010742188e+01 -5.616240086965262890e-04 7.574519634246826172e+00 2.272187471389770508e+00 -1.903816300909966230e-04
7.730000000000000000e+02 6.772734069824218750e+01 3.772176361083984375e+01 4.791952203959226608e-03 7.676025390625000000e+00 2.304245233535766602e+00 -2.695499220862984657e-03
7.740000000000000000e+02 7.176852416992187500e+01 3.041630363464355469e+01 4.829251207411289215e-03 7.645350933074951172e+00 2.295054197311401367e+00 -6.743064150214195251e-03
7.750000000000000000e+02 7.183579254150390625e+01 2.370404624938964844e+01 6.132387090474367142e-03 7.649892807006835938e+00 2.296807527542114258e+00 -1.518431026488542557e-02
7.760000000000000000e+02 7.203232574462890625e+01 1.640654754638671875e+01 7.134776096791028976e-03 7.663492679595947266e+00 2.301188230514526367e+00 -2.712437883019447327e-02
7.770000000000000000e+02 7.295220947265625000e+01 8.291401863098144531e+00 5.360532552003860474e-03 7.685077190399169922e+00 2.307131290435791016e+00 -3.801171109080314636e-02
7.780000000000000000e+02 7.285952758789062500e+01 9.710938334465026855e-01 3.840411081910133362e-03 7.720267295837402344e+00 2.317232370376586914e+00 -4.911735653877258301e-02
7.790000000000000000e+02 7.273495483398437500e+01 -6.088125228881835938e+00 3.340592375025153160e-03 7.759780883789062500e+00 2.328936338424682617e+00 -5.637384206056594849e-02
7.800000000000000000e+02 7.176792144775390625e+01 -1.115819072723388672e+01 1.235248637385666370e-03 7.786387920379638672e+00 2.336287021636962891e+00 -6.410701572895050049e-02
7.810000000000000000e+02 7.259119415283203125e+01 -1.828547668457031250e+01 -2.583057153970003128e-03 7.829984188079833984e+00 2.348220348358154297e+00 -5.447799712419509888e-02
7.820000000000000000e+02 7.212351989746093750e+01 -2.447121620178222656e+01 -7.679546251893043518e-03 7.858113765716552734e+00 2.355130195617675781e+00 -4.859634116291999817e-02
7.830000000000000000e+02 7.477799987792968750e+01 -3.286307525634765625e+01 -8.316182531416416168e-03 7.918757915496826172e+00 2.373132467269897461e+00 -2.192455157637596130e-02
7.840000000000000000e+02 6.659182739257812500e+01 -3.758584594726562500e+01 -3.440881520509719849e-02 7.841675758361816406e+00 2.342180013656616211e+00 -2.232891507446765900e-02
7.850000000000000000e+02 7.157472991943359375e+01 -4.091610717773437500e+01 -1.309468783438205719e-02 7.898447036743164062e+00 2.365605831146240234e+00 -5.085468292236328125e-03
7.860000000000000000e+02 6.210961914062500000e+01 -4.038781738281250000e+01 -5.824536457657814026e-02 7.802294731140136719e+00 2.323214769363403320e+00 -1.184121239930391312e-02
7.870000000000000000e+02 6.681562042236328125e+01 -3.455253219604492188e+01 -3.204020112752914429e-02 7.841257095336914062e+00 2.342765092849731445e+00 -3.314800187945365906e-02
7.880000000000000000e+02 5.969095993041992188e+01 -2.697369003295898438e+01 -4.606021195650100708e-02 7.772361278533935547e+00 2.317890405654907227e+00 -7.583381980657577515e-02
7.890000000000000000e+02 5.141670608520507812e+01 -1.669751548767089844e+01 -2.855150587856769562e-02 7.715955734252929688e+00 2.306221246719360352e+00 -9.932804852724075317e-02
7.900000000000000000e+02 4.443127822875976562e+01 -1.236255073547363281e+01 -9.091453626751899719e-03 7.699471473693847656e+00 2.307113885879516602e+00 -7.920537143945693970e-02
7.910000000000000000e+02 3.597644805908203125e+01 -1.169970154762268066e+00 6.599813699722290039e-02 7.800387382507324219e+00 2.359915733337402344e+00 -2.100880816578865051e-02
7.920000000000000000e+02 2.905439758300781250e+01 3.700595855712890625e+00 1.282385885715484619e-01 7.952988624572753906e+00 2.424368143081665039e+00 5.253434926271438599e-02
7.930000000000000000e+02 2.105553245544433594e+01 7.606431007385253906e+00 2.151818200945854187e-02 8.524533271789550781e+00 2.563815593719482422e+00 5.528189614415168762e-02
7.940000000000000000e+02 2.209217262268066406e+01 1.845471382141113281e+00 -2.112632617354393005e-02 8.166330337524414062e+00 2.443561315536499023e+00 2.405630350112915039e-01
7.950000000000000000e+02 2.083628654479980469e+01 2.061970710754394531e+00 4.851828888058662415e-02 8.129911422729492188e+00 2.453528881072998047e+00 6.304164528846740723e-01
7.960000000000000000e+02 2.168786048889160156e+01 -5.013546466827392578e+00 -1.332287341356277466e-01 7.691552639007568359e+00 2.267497301101684570e+00 2.533215880393981934e-01
7.970000000000000000e+02 2.023338699340820312e+01 -1.172791004180908203e+01 -2.689422294497489929e-02 7.748521327972412109e+00 2.316488027572631836e+00 2.581651508808135986e-01
7.980000000000000000e+02 1.988713645935058594e+01 -1.725508117675781250e+01 -1.655195653438568115e-02 7.001141071319580078e+00 2.095376729965209961e+00 4.987432658672332764e-01
7.990000000000000000e+02 1.954462242126464844e+01 -2.548843574523925781e+01 4.003888741135597229e-02 7.107883930206298828e+00 2.144376754760742188e+00 5.582492798566818237e-02
8.000000000000000000e+02 1.995777130126953125e+01 -3.380492401123046875e+01 3.187042772769927979e-01 8.011652946472167969e+00 2.499107360839843750e+00 3.028601109981536865e-01
8.010000000000000000e+02 2.378223228454589844e+01 -3.876499938964843750e+01 -4.486155807971954346e-01 6.819595813751220703e+00 1.911293983459472656e+00 -9.255219995975494385e-02
8.020000000000000000e+02 1.709948730468750000e+01 -3.824430465698242188e+01 -1.905063986778259277e+00 -2.829644680023193359e-01 -6.564084887504577637e-01 9.324051439762115479e-03
8.030000000000000000e+02 4.719883728027343750e+01 -4.061631774902343750e+01 -1.501214057207107544e-01 7.665406703948974609e+00 2.254585504531860352e+00 -1.471122168004512787e-02
8.040000000000000000e+02 5.701675796508789062e+01 -4.031345748901367188e+01 -8.422290533781051636e-02 7.761671543121337891e+00 2.303234577178955078e+00 -1.364845968782901764e-02
8.050000000000000000e+02 5.591598510742187500e+01 -3.102195358276367188e+01 -7.286786288022994995e-02 7.744888305664062500e+00 2.301606178283691406e+00 -6.149638444185256958e-02
8.060000000000000000e+02 4.907511520385742188e+01 -2.135363769531250000e+01 -5.227979645133018494e-02 7.692759037017822266e+00 2.292143821716308594e+00 -8.937872201204299927e-02
8.070000000000000000e+02 4.426352310180664062e+01 -1.416224479675292969e+01 -1.437238045036792755e-02 7.691012382507324219e+00 2.302991867065429688e+00 -7.759777456521987915e-02
8.080000000000000000e+02 3.463514328002929688e+01 -9.607282638549804688e+00 6.456766277551651001e-05 7.704831123352050781e+00 2.311468839645385742e+00 7.059935946017503738e-03
8.090000000000000000e+02 2.795961189270019531e+01 -6.608321666717529297e+00 -5.335061810910701752e-03 7.766796588897705078e+00 2.328438520431518555e+00 1.432911157608032227e-01
8.100000000000000000e+02 2.063816642761230469e+01 -6.857367157936096191e-01 -1.464685890823602676e-02 7.721512317657470703e+00 2.312059640884399414e+00 3.261834979057312012e-01
8.110000000000000000e+02 5.207571411132812500e+01 -4.059953689575195312e+01 -1.161130592226982117e-01 7.716089725494384766e+00 2.279993057250976562e+00 -1.093891542404890060e-02
8.120000000000000000e+02 5.020871353149414062e+01 -3.336131286621093750e+01 -1.079158931970596313e-01 7.692627429962158203e+00 2.275413513183593750e+00 -5.599984154105186462e-02
8.130000000000000000e+02 4.378357315063476562e+01 -2.624156379699707031e+01 -8.505367487668991089e-02 7.630167961120605469e+00 2.263534307479858398e+00 -7.210418581962585449e-02
8.140000000000000000e+02 3.513466262817382812e+01 -1.573233509063720703e+01 -1.591687835752964020e-02 7.627558708190917969e+00 2.283492565155029297e+00 5.506421439349651337e-03
8.150000000000000000e+02 2.853880691528320312e+01 -1.059138298034667969e+01 1.190153509378433228e-02 7.666270256042480469e+00 2.303451538085937500e+00 1.262762993574142456e-01
8.160000000000000000e+02 5.856078720092773438e+01 4.028461837768554688e+01 7.533341646194458008e-03 7.753992557525634766e+00 2.328457832336425781e+00 -2.877247461583465338e-04
8.170000000000000000e+02 6.292125320434570312e+01 4.071944427490234375e+01 5.921313073486089706e-03 7.715709209442138672e+00 2.316489219665527344e+00 -1.197677222080528736e-03
8.180000000000000000e+02 6.483753204345703125e+01 3.350684738159179688e+01 9.530338458716869354e-03 7.699602603912353516e+00 2.312739849090576172e+00 -5.982763599604368210e-03
8.190000000000000000e+02 6.340373992919921875e+01 2.337990760803222656e+01 2.315727993845939636e-02 7.708155155181884766e+00 2.319393634796142578e+00 -2.285715565085411072e-02
8.200000000000000000e+02 6.752155303955078125e+01 9.890350341796875000e+00 1.724137365818023682e-02 7.701623916625976562e+00 2.315659523010253906e+00 -5.269650369882583618e-02
8.210000000000000000e+02 6.562284088134765625e+01 2.135111093521118164e+00 1.763240993022918701e-02 7.726275444030761719e+00 2.323172330856323242e+00 -7.536242157220840454e-02
8.220000000000000000e+02 6.716522979736328125e+01 -6.261297225952148438e+00 6.431692745536565781e-03 7.754086971282958984e+00 2.328155517578125000e+00 -8.294036239385604858e-02
8.230000000000000000e+02 6.506672668457031250e+01 -8.987977027893066406e+00 3.671535756438970566e-03 7.759506225585937500e+00 2.328953266143798828e+00 -9.195750206708908081e-02
8.240000000000000000e+02 6.631178283691406250e+01 -1.853462409973144531e+01 -1.242673676460981369e-02 7.794587612152099609e+00 2.334648370742797852e+00 -8.130431920289993286e-02
8.250000000000000000e+02 6.275767135620117188e+01 -2.319399833679199219e+01 -2.584813907742500305e-02 7.787015438079833984e+00 2.328350305557250977e+00 -8.192583918571472168e-02
8.260000000000000000e+02 6.751538848876953125e+01 -3.162965583801269531e+01 -2.843097038567066193e-02 7.839567184448242188e+00 2.343340873718261719e+00 -4.595211893320083618e-02
8.270000000000000000e+02 6.046888732910156250e+01 3.627906036376953125e+01 1.006592903286218643e-02 7.733827114105224609e+00 2.323168039321899414e+00 -1.976321218535304070e-03
8.280000000000000000e+02 5.949040985107421875e+01 3.186528396606445312e+01 1.864600181579589844e-02 7.738658905029296875e+00 2.327191591262817383e+00 -4.791696090251207352e-03
8.290000000000000000e+02 5.754390335083007812e+01 1.365262985229492188e+01 4.746005311608314514e-02 7.736517429351806641e+00 2.335193395614624023e+00 -5.098107457160949707e-02
8.300000000000000000e+02 5.792078018188476562e+01 7.749784469604492188e+00 4.405860602855682373e-02 7.736112594604492188e+00 2.334051370620727539e+00 -7.127384096384048462e-02
8.310000000000000000e+02 5.990604400634765625e+01 4.069536685943603516e+00 3.358349204063415527e-02 7.731141567230224609e+00 2.329417467117309570e+00 -8.095360547304153442e-02
8.320000000000000000e+02 5.698990631103515625e+01 -2.747111320495605469e+00 2.572375722229480743e-02 7.737746715545654297e+00 2.329041242599487305e+00 -9.829833358526229858e-02
8.330000000000000000e+02 5.828758239746093750e+01 -1.139133644104003906e+01 3.741253167390823364e-04 7.744863986968994141e+00 2.323571443557739258e+00 -1.056991368532180786e-01
8.340000000000000000e+02 5.801265716552734375e+01 -1.878168296813964844e+01 -2.867579273879528046e-02 7.749514579772949219e+00 2.316251516342163086e+00 -1.006321534514427185e-01
8.350000000000000000e+02 5.669534683227539062e+01 -2.236679840087890625e+01 -4.216277971863746643e-02 7.741862773895263672e+00 2.309910058975219727e+00 -9.425383061170578003e-02
8.360000000000000000e+02 5.162477493286132812e+01 4.040224075317382812e+01 3.979748580604791641e-03 7.807191848754882812e+00 2.343351602554321289e+00 2.702411264181137085e-03
8.370000000000000000e+02 5.102458190917968750e+01 3.212894058227539062e+01 2.444261498749256134e-02 7.801908493041992188e+00 2.347905397415161133e+00 8.449045009911060333e-03
8.380000000000000000e+02 5.004909133911132812e+01 2.212952423095703125e+01 6.385785341262817383e-02 7.790514945983886719e+00 2.356311798095703125e+00 -1.254242751747369766e-02
8.390000000000000000e+02 5.071817779541015625e+01 1.663096809387207031e+01 6.932762265205383301e-02 7.772633552551269531e+00 2.352588415145874023e+00 -3.260020911693572998e-02
8.400000000000000000e+02 4.692144012451171875e+01 7.680824756622314453e+00 7.984785735607147217e-02 7.772936820983886719e+00 2.355835437774658203e+00 -5.656202509999275208e-02
8.410000000000000000e+02 5.126063919067382812e+01 1.857149004936218262e+00 5.210027843713760376e-02 7.747239589691162109e+00 2.339802026748657227e+00 -8.427248150110244751e-02
8.420000000000000000e+02 5.410164642333984375e+01 -2.484324455261230469e+00 3.234239667654037476e-02 7.738320827484130859e+00 2.331198930740356445e+00 -9.660691767930984497e-02
8.430000000000000000e+02 4.772215652465820312e+01 -1.061588764190673828e+01 2.438131719827651978e-03 7.717129230499267578e+00 2.315870285034179688e+00 -9.336712211370468140e-02
8.440000000000000000e+02 5.222320556640625000e+01 -2.044956207275390625e+01 -4.265357181429862976e-02 7.714196205139160156e+00 2.301462888717651367e+00 -9.669729322195053101e-02
8.450000000000000000e+02 3.779040527343750000e+01 4.058195495605468750e+01 -6.760448217391967773e-02 7.926095485687255859e+00 2.357547283172607422e+00 1.886595040559768677e-02
8.460000000000000000e+02 4.255560302734375000e+01 4.082989883422851562e+01 -2.534696087241172791e-02 7.892834663391113281e+00 2.360246419906616211e+00 9.602309204638004303e-03
8.470000000000000000e+02 4.133721923828125000e+01 3.014775466918945312e+01 5.346715450286865234e-02 7.863673210144042969e+00 2.375142097473144531e+00 2.776770293712615967e-02
8.480000000000000000e+02 4.213290786743164062e+01 2.717061996459960938e+01 7.066556066274642944e-02 7.855748653411865234e+00 2.377924203872680664e+00 1.862435415387153625e-02
8.490000000000000000e+02 4.248276138305664062e+01 1.521100521087646484e+01 9.639928489923477173e-02 7.832818984985351562e+00 2.378765344619750977e+00 -1.728847809135913849e-02
8.500000000000000000e+02 4.267844009399414062e+01 9.134813308715820312e+00 1.008462235331535339e-01 7.809781074523925781e+00 2.373188257217407227e+00 -3.611413761973381042e-02
8.510000000000000000e+02 4.300802993774414062e+01 3.300128698348999023e+00 7.791867107152938843e-02 7.777271270751953125e+00 2.356556892395019531e+00 -5.731787160038948059e-02
8.520000000000000000e+02 3.997396087646484375e+01 -4.289105415344238281e+00 3.941044211387634277e-02 7.753815650939941406e+00 2.337967872619628906e+00 -4.728652536869049072e-02
8.530000000000000000e+02 4.197225952148437500e+01 -7.279828548431396484e+00 2.235677093267440796e-02 7.728162288665771484e+00 2.325155735015869141e+00 -6.366141140460968018e-02
8.540000000000000000e+02 3.618562316894531250e+01 2.799841880798339844e+01 9.314952790737152100e-02 7.892539978027343750e+00 2.395706892013549805e+00 1.904434338212013245e-02
8.550000000000000000e+02 3.754970550537109375e+01 2.548098373413085938e+01 9.476656466722488403e-02 7.901398181915283203e+00 2.398849487304687500e+00 9.047583676874637604e-03
8.560000000000000000e+02 3.508124923706054688e+01 1.662647438049316406e+01 1.032659858465194702e-01 7.944547176361083984e+00 2.414344072341918945e+00 7.870486937463283539e-03
8.570000000000000000e+02 3.476502990722656250e+01 1.274959182739257812e+01 1.065609082579612732e-01 7.926907062530517578e+00 2.410040378570556641e+00 1.472122035920619965e-02
8.580000000000000000e+02 3.406065750122070312e+01 -2.237181663513183594e+00 4.933755099773406982e-02 7.803823947906494141e+00 2.355948448181152344e+00 -3.472136158961802721e-04
8.590000000000000000e+02 3.293737030029296875e+01 4.057163619995117188e+01 -1.498853415250778198e-01 7.980941295623779297e+00 2.349316835403442383e+00 4.675948619842529297e-02
8.600000000000000000e+02 2.940247344970703125e+01 3.741880035400390625e+01 -8.424622006714344025e-03 7.913357257843017578e+00 2.371479749679565430e+00 1.429728716611862183e-01
8.610000000000000000e+02 2.949577713012695312e+01 3.217139434814453125e+01 1.893568933010101318e-01 7.917239665985107422e+00 2.431978940963745117e+00 -1.272117486223578453e-03
8.620000000000000000e+02 2.791581726074218750e+01 2.475619125366210938e+01 8.407976478338241577e-02 8.110018730163574219e+00 2.458229541778564453e+00 -6.623096764087677002e-02
8.630000000000000000e+02 2.773745727539062500e+01 1.822088623046875000e+01 4.055967926979064941e-02 8.121253013610839844e+00 2.448543787002563477e+00 9.776314720511436462e-03
8.640000000000000000e+02 2.747171974182128906e+01 1.088920783996582031e+01 9.917042404413223267e-02 8.114405632019042969e+00 2.464072942733764648e+00 8.814647793769836426e-02
8.650000000000000000e+02 2.747371292114257812e+01 2.457815408706665039e+00 1.108085513114929199e-01 7.975841522216796875e+00 2.425995111465454102e+00 6.856763362884521484e-02
8.660000000000000000e+02 2.300736427307128906e+01 3.638098526000976562e+01 4.789827466011047363e-01 7.346793174743652344e+00 2.347732782363891602e+00 2.783826887607574463e-01
8.670000000000000000e+02 2.118121910095214844e+01 3.532460021972656250e+01 8.188591003417968750e-01 1.004960632324218750e+01 3.260539770126342773e+00 -9.690020680427551270e-01
8.680000000000000000e+02 2.115733909606933594e+01 2.976995849609375000e+01 4.303322359919548035e-02 8.470290184020996094e+00 2.553997039794921875e+00 -5.656605586409568787e-02
8.690000000000000000e+02 2.259642982482910156e+01 3.243770980834960938e+01 1.229123845696449280e-01 8.485181808471679688e+00 2.582428216934204102e+00 -2.992309629917144775e-01
8.700000000000000000e+02 2.111348342895507812e+01 2.560198593139648438e+01 -2.190612442791461945e-02 8.291897773742675781e+00 2.480997562408447266e+00 -9.794890880584716797e-03
8.710000000000000000e+02 2.233761787414550781e+01 1.571753787994384766e+01 -3.501986619085073471e-03 8.237680435180664062e+00 2.470253467559814453e+00 1.902504079043865204e-02
8.720000000000000000e+02 2.231503677368164062e+01 8.794530868530273438e+00 4.176636785268783569e-02 8.386605262756347656e+00 2.528511524200439453e+00 9.838467836380004883e-02
8.730000000000000000e+02 2.711850166320800781e+00 3.757192611694335938e+01 -1.429695915430784225e-02 1.618136286735534668e+00 4.811517894268035889e-01 -2.415104955434799194e-01
8.740000000000000000e+02 7.706200480461120605e-01 3.327035522460937500e+01 3.284722194075584412e-02 4.478489756584167480e-01 1.442088484764099121e-01 -1.262208372354507446e-01
8.750000000000000000e+02 2.051219940185546875e+00 3.034076690673828125e+01 1.840931363403797150e-02 7.640274167060852051e-01 2.347310185432434082e-01 -2.504338324069976807e-01
8.760000000000000000e+02 6.595076918601989746e-01 2.762224197387695312e+01 1.269231550395488739e-02 -3.855541348457336426e-01 -1.118585467338562012e-01 -7.614999264478683472e-02
8.770000000000000000e+02 1.941514015197753906e+00 2.615533447265625000e+01 3.613476455211639404e-02 3.739911317825317383e-01 1.230377703905105591e-01 -1.605784446001052856e-01
8.780000000000000000e+02 1.190994548797607422e+01 1.659678840637207031e+01 3.161951154470443726e-02 8.070850372314453125e+00 2.430741071701049805e+00 1.474429219961166382e-01
8.790000000000000000e+02 1.432258796691894531e+01 1.108061313629150391e+01 -1.882286928594112396e-02 9.710409164428710938e+00 2.907475948333740234e+00 1.707618981599807739e-01
8.800000000000000000e+02 1.446507263183593750e+01 1.935593795776367188e+01 7.254575192928314209e-02 1.046271800994873047e+01 3.160579204559326172e+00 1.717771887779235840e-01
8.810000000000000000e+02 1.450209808349609375e+01 2.073754119873046875e+01 8.395047485828399658e-02 1.054258537292480469e+01 3.187960863113403320e+00 3.291452825069427490e-01
8.820000000000000000e+02 1.456935024261474609e+01 2.212194442749023438e+01 1.203767210245132446e-01 1.048988437652587891e+01 3.183078289031982422e+00 5.168920755386352539e-01
8.830000000000000000e+02 1.302918720245361328e+01 3.351913070678710938e+01 1.526561677455902100e-01 6.239771366119384766e+00 1.917728185653686523e+00 3.564643263816833496e-01
8.840000000000000000e+02 1.352970314025878906e+01 2.486307525634765625e+01 1.526581197977066040e-01 9.025336265563964844e+00 2.753398418426513672e+00 5.467532277107238770e-01
8.850000000000000000e+02 1.342527770996093750e+01 2.349263381958007812e+01 1.686704605817794800e-01 9.089281082153320312e+00 2.777385473251342773e+00 3.901050984859466553e-01
8.860000000000000000e+02 1.929950356483459473e+00 4.162860107421875000e+01 -1.908113658428192139e-01 1.629672288894653320e+00 4.316582977771759033e-01 -5.404043570160865784e-02
8.870000000000000000e+02 6.516674160957336426e-01 2.057598686218261719e+01 -2.809026511386036873e-03 -8.891668319702148438e-01 -2.675927579402923584e-01 -2.230818383395671844e-02
8.880000000000000000e+02 1.965241193771362305e+00 1.630054092407226562e+01 -1.721906475722789764e-02 9.796787053346633911e-02 2.422464080154895782e-02 -1.676290668547153473e-02
8.890000000000000000e+02 1.307492256164550781e+01 1.268593978881835938e+01 -4.733063653111457825e-02 8.918946266174316406e+00 2.661484718322753906e+00 1.609070748090744019e-01
8.900000000000000000e+02 1.437265586853027344e+01 9.636400222778320312e+00 -1.307898014783859253e-02 9.507364273071289062e+00 2.848285675048828125e+00 1.986126452684402466e-01
8.910000000000000000e+02 6.386964917182922363e-01 1.491610527038574219e+01 -1.486015412956476212e-02 -9.821362495422363281e-01 -2.990989089012145996e-01 -1.865283027291297913e-02
8.920000000000000000e+02 1.511906981468200684e+00 9.326294898986816406e+00 2.163064666092395782e-02 -3.747979104518890381e-01 -1.059501767158508301e-01 -6.033855304121971130e-02
8.930000000000000000e+02 1.091283512115478516e+01 1.342768788337707520e+00 1.624203085899353027e+00 2.064146232604980469e+01 6.679699420928955078e+00 2.692645311355590820e+00
8.940000000000000000e+02 1.464336204528808594e+01 1.341394305229187012e+00 2.896912097930908203e-01 -2.140167236328125000e+00 -5.551428198814392090e-01 1.126626729965209961e+00
8.950000000000000000e+02 1.465850830078125000e+01 -1.442166447639465332e+00 1.157077625393867493e-01 -2.356030941009521484e+00 -6.720969676971435547e-01 -9.798368215560913086e-01
8.960000000000000000e+02 1.463051223754882812e+01 -8.362353324890136719e+00 -2.365821599960327148e-02 8.856757164001464844e+00 2.649929761886596680e+00 -2.147180140018463135e-01
8.970000000000000000e+02 4.778448343276977539e-01 7.900332927703857422e+00 1.307031605392694473e-02 -1.245298504829406738e+00 -3.696684539318084717e-01 -1.578642055392265320e-02
8.980000000000000000e+02 3.626129031181335449e-01 2.836854219436645508e+00 6.890236982144415379e-04 -5.671850442886352539e-01 -1.699488013982772827e-01 1.046287044882774353e-01
8.990000000000000000e+02 9.512592315673828125e+00 -1.643365144729614258e+00 1.545354008674621582e+00 1.328139209747314453e+01 4.448023796081542969e+00 6.603722572326660156e+00
9.000000000000000000e+02 1.342197608947753906e+01 -1.092027091979980469e+01 -7.455908507108688354e-02 8.631011962890625000e+00 2.566935777664184570e+00 -2.093446105718612671e-01
9.010000000000000000e+02 1.237045383453369141e+01 -1.069240474700927734e+01 -1.877128779888153076e-01 7.955017566680908203e+00 2.330191373825073242e+00 -2.671887874603271484e-01
9.020000000000000000e+02 1.365248394012451172e+01 -8.414380073547363281e+00 -1.363500207662582397e-01 8.378905296325683594e+00 2.472766399383544922e+00 -5.039585232734680176e-01
9.030000000000000000e+02 1.445779132843017578e+01 -1.805208396911621094e+01 7.645297329872846603e-03 9.381855964660644531e+00 2.816850423812866211e+00 -2.056895941495895386e-02
9.040000000000000000e+02 1.446760749816894531e+01 -1.943869209289550781e+01 -1.953830011188983917e-02 9.327074050903320312e+00 2.792260646820068359e+00 -9.826999157667160034e-03
9.050000000000000000e+02 2.097303962707519531e+01 3.862052917480468750e+01 -2.567265629768371582e-01 6.055840969085693359e+00 1.739734292030334473e+00 -1.037485361099243164e+00
9.060000000000000000e+02 2.049311828613281250e+01 -3.447472810745239258e+00 4.189103469252586365e-02 7.716503620147705078e+00 2.327518463134765625e+00 4.877628982067108154e-01
9.070000000000000000e+02 2.153962707519531250e+01 -1.188769626617431641e+01 3.782184049487113953e-02 7.848155975341796875e+00 2.365793228149414062e+00 2.995166182518005371e-01
9.080000000000000000e+02 2.019822502136230469e+01 -1.311005973815917969e+01 8.367897570133209229e-02 8.044512748718261719e+00 2.438457489013671875e+00 2.947668731212615967e-01
9.090000000000000000e+02 1.972534370422363281e+01 -2.140267944335937500e+01 4.948321729898452759e-02 7.208425998687744141e+00 2.177372694015502930e+00 1.834999322891235352e-01
9.100000000000000000e+02 1.958589172363281250e+01 -2.956268882751464844e+01 -4.639375209808349609e-02 7.415390968322753906e+00 2.210699081420898438e+00 4.168362915515899658e-02
9.110000000000000000e+02 1.985628890991210938e+01 -3.541096115112304688e+01 3.888792097568511963e-01 7.910019874572753906e+00 2.489669799804687500e+00 6.627661585807800293e-01
9.120000000000000000e+02 1.919331550598144531e+01 -3.707027435302734375e+01 3.612850308418273926e-01 6.762573719024658203e+00 2.137157440185546875e+00 9.664570093154907227e-01
9.130000000000000000e+02 1.585831451416015625e+01 -3.961526870727539062e+01 -5.343158245086669922e-01 4.129831790924072266e+00 1.078654766082763672e+00 -1.403138637542724609e+00
9.140000000000000000e+02 1.676244544982910156e+01 -4.146408462524414062e+01 1.274128735531121492e-04 4.194737434387207031e+00 1.258459448814392090e+00 -1.926089078187942505e-01
9.150000000000000000e+02 1.442419242858886719e+01 -2.903820228576660156e+01 6.029316782951354980e-02 8.887915611267089844e+00 2.684462547302246094e+00 2.706759423017501831e-02
9.160000000000000000e+02 1.519715881347656250e+01 2.901881599426269531e+01 3.411645293235778809e-01 9.489761352539062500e+00 2.949277639389038086e+00 1.362538337707519531e+00
9.170000000000000000e+02 1.569176101684570312e+01 3.178479766845703125e+01 5.955444574356079102e-01 8.376728057861328125e+00 2.691681861877441406e+00 1.744291901588439941e+00
9.180000000000000000e+02 1.353796386718750000e+01 3.713542556762695312e+01 -4.024156928062438965e-01 5.478486537933349609e+00 1.522821187973022461e+00 2.282539755105972290e-01
9.190000000000000000e+02 1.140249919891357422e+01 3.034115791320800781e+01 3.183043897151947021e-01 6.171712875366210938e+00 1.947005271911621094e+00 1.031969487667083740e-01
9.200000000000000000e+02 1.604623031616210938e+01 3.315654373168945312e+01 4.516272842884063721e-01 7.323919296264648438e+00 2.332664012908935547e+00 1.767277002334594727e+00
9.210000000000000000e+02 1.729422950744628906e+01 3.680342483520507812e+01 2.772982716560363770e-01 5.251954555511474609e+00 1.658775806427001953e+00 1.626580119132995605e+00
9.220000000000000000e+02 1.865173530578613281e+01 3.844825363159179688e+01 2.102364972233772278e-02 2.494561195373535156e+00 7.546754479408264160e-01 1.930087655782699585e-01
9.230000000000000000e+02 1.703360939025878906e+01 3.984714508056640625e+01 6.961676478385925293e-02 4.511963844299316406e+00 1.374474167823791504e+00 5.876356363296508789e-01
9.240000000000000000e+02 1.966079521179199219e+01 -2.277846908569335938e+01 1.557984109967947006e-02 7.071887493133544922e+00 2.126240015029907227e+00 2.349638193845748901e-01
9.250000000000000000e+02 1.268398761749267578e+01 -3.169378471374511719e+01 -2.021793425083160400e-01 8.330729484558105469e+00 2.438565254211425781e+00 1.146058458834886551e-02
9.260000000000000000e+02 1.773529624938964844e+01 -3.906983947753906250e+01 3.808872103691101074e-01 2.189509868621826172e+00 7.711191773414611816e-01 1.133229255676269531e+00
9.270000000000000000e+02 3.105771446228027344e+01 -3.764870834350585938e+01 -2.513482272624969482e-01 7.339868068695068359e+00 2.126555919647216797e+00 -8.535470068454742432e-02
9.280000000000000000e+02 4.230170440673828125e+01 -4.050532150268554688e+01 -1.886778622865676880e-01 7.600123405456542969e+00 2.223433732986450195e+00 -1.518939249217510223e-02
9.290000000000000000e+02 4.283614349365234375e+01 -3.242175674438476562e+01 -1.400594562292098999e-01 7.596991062164306641e+00 2.237079620361328125e+00 -6.503569334745407104e-02
9.300000000000000000e+02 7.930904388427734375e+01 -3.334332656860351562e+01 1.908952544908970594e-04 7.985459804534912109e+00 2.395695209503173828e+00 -2.970951143652200699e-03
9.310000000000000000e+02 3.725342559814453125e+01 -4.042773818969726562e+01 -2.358081638813018799e-01 7.515818595886230469e+00 2.184003114700317383e+00 -2.436711452901363373e-02
9.320000000000000000e+02 3.729716873168945312e+01 -3.610902023315429688e+01 -1.867714375257492065e-01 7.496801853179931641e+00 2.193009138107299805e+00 -5.682553350925445557e-02
9.330000000000000000e+02 3.123481750488281250e+01 -2.356887817382812500e+01 -6.811042875051498413e-02 7.486409187316894531e+00 2.225489616394042969e+00 6.169413775205612183e-02
9.340000000000000000e+02 1.958447265625000000e+01 -2.413562393188476562e+01 -1.072099655866622925e-01 6.883066177368164062e+00 2.032756805419921875e+00 1.395540535449981689e-01
9.350000000000000000e+02 3.223714828491210938e+01 -4.074125671386718750e+01 -3.086804747581481934e-01 7.405145168304443359e+00 2.128939390182495117e+00 -3.843685239553451538e-02
9.360000000000000000e+02 3.043776512145996094e+01 -3.496301269531250000e+01 -1.437143683433532715e-01 7.261265277862548828e+00 2.135265350341796875e+00 -1.016686409711837769e-01
9.370000000000000000e+02 1.966633796691894531e+01 -3.092957687377929688e+01 7.188584655523300171e-02 7.532258987426757812e+00 2.281243324279785156e+00 7.524116337299346924e-02
9.380000000000000000e+02 7.080410003662109375e+01 -2.271870040893554688e+01 -7.744223810732364655e-03 7.839423656463623047e+00 2.349503755569458008e+00 -5.699974298477172852e-02
9.390000000000000000e+02 7.935028839111328125e+01 -2.644432067871093750e+01 -6.856450927443802357e-04 7.946419715881347656e+00 2.383720159530639648e+00 -5.466381553560495377e-03
9.400000000000000000e+02 5.789858627319335938e+01 -2.899847984313964844e+01 -6.240392848849296570e-02 7.759506225585937500e+00 2.309130668640136719e+00 -7.153827697038650513e-02
9.410000000000000000e+02 4.973950576782226562e+01 -3.042410278320312500e+01 -9.760806709527969360e-02 7.692954063415527344e+00 2.278603792190551758e+00 -6.691762059926986694e-02
9.420000000000000000e+02 3.980366516113281250e+01 -3.025514793395996094e+01 -1.092151850461959839e-01 7.553770065307617188e+00 2.233366489410400391e+00 -5.453504994511604309e-02
9.430000000000000000e+02 3.444527435302734375e+01 -2.618821334838867188e+01 -6.907499581575393677e-02 7.490983486175537109e+00 2.226572513580322266e+00 1.449336879886686802e-03
9.440000000000000000e+02 2.697158622741699219e+01 -1.776279640197753906e+01 -6.030581891536712646e-02 7.524291515350341797e+00 2.239195823669433594e+00 1.026209220290184021e-01
9.450000000000000000e+02 3.340387344360351562e+01 -3.557715225219726562e+01 -1.808999031782150269e-01 7.419458389282226562e+00 2.171567440032958984e+00 -7.076540589332580566e-02
9.460000000000000000e+02 7.264113616943359375e+01 -1.697449302673339844e+01 -3.680156078189611435e-03 7.822844982147216797e+00 2.345749378204345703e+00 -5.657592043280601501e-02
9.470000000000000000e+02 7.931302642822265625e+01 -2.230448150634765625e+01 3.728879091795533895e-04 7.913691520690917969e+00 2.374219179153442383e+00 -6.383095402270555496e-03
9.480000000000000000e+02 6.265545272827148438e+01 -1.702433395385742188e+01 -1.312686223536729813e-02 7.772227764129638672e+00 2.327730178833007812e+00 -9.450313448905944824e-02
9.490000000000000000e+02 4.227467346191406250e+01 -2.369095802307128906e+01 -6.951331347227096558e-02 7.627584457397460938e+00 2.267421245574951172e+00 -6.089256331324577332e-02
9.500000000000000000e+02 3.626211547851562500e+01 -2.455642890930175781e+01 -5.872610583901405334e-02 7.527622699737548828e+00 2.240669012069702148e+00 -1.359878014773130417e-02
9.510000000000000000e+02 6.938829803466796875e+01 -9.638517379760742188e+00 1.736807986162602901e-03 7.772106647491455078e+00 2.332153081893920898e+00 -7.607654482126235962e-02
9.520000000000000000e+02 7.928607177734375000e+01 -1.250734233856201172e+01 -9.003666345961391926e-04 7.824084281921386719e+00 2.346955060958862305e+00 -7.772558834403753281e-03
9.530000000000000000e+02 6.110925674438476562e+01 -1.834415817260742188e+01 -2.088012360036373138e-02 7.766245841979980469e+00 2.323609828948974609e+00 -9.582043439149856567e-02
9.540000000000000000e+02 4.300071716308593750e+01 -1.305844306945800781e+01 -1.200487371534109116e-02 7.692169666290283203e+00 2.304049491882324219e+00 -7.124628126621246338e-02
9.550000000000000000e+02 3.699473190307617188e+01 -1.369191265106201172e+01 -9.484053589403629303e-03 7.661428928375244141e+00 2.295583486557006836e+00 -1.469635497778654099e-02
9.560000000000000000e+02 2.712101745605468750e+01 -1.498485946655273438e+01 2.064729575067758560e-03 7.559077739715576172e+00 2.268342733383178711e+00 1.083594933152198792e-01
9.570000000000000000e+02 1.979974174499511719e+01 -1.863410377502441406e+01 -6.330981105566024780e-02 6.837224483489990234e+00 2.032174348831176758e+00 3.621177375316619873e-01
9.580000000000000000e+02 6.989810180664062500e+01 -4.580954074859619141e+00 4.769131075590848923e-03 7.748886585235595703e+00 2.326096773147583008e+00 -6.987025588750839233e-02
9.590000000000000000e+02 7.933042144775390625e+01 -5.506033897399902344e+00 9.429990896023809910e-04 7.757615089416503906e+00 2.327567338943481445e+00 -7.199133280664682388e-03
9.600000000000000000e+02 6.615154266357421875e+01 -7.710329532623291016e+00 4.554796032607555389e-03 7.757322311401367188e+00 2.328562974929809570e+00 -8.717147260904312134e-02
9.610000000000000000e+02 6.037524795532226562e+01 -8.895753860473632812e+00 6.471409928053617477e-03 7.748335838317871094e+00 2.326442241668701172e+00 -1.020872369408607483e-01
9.620000000000000000e+02 4.960774612426757812e+01 -6.414876937866210938e+00 2.205218002200126648e-02 7.733035564422607422e+00 2.326526403427124023e+00 -9.608283638954162598e-02
9.630000000000000000e+02 2.696314430236816406e+01 -9.311532020568847656e+00 6.946291308850049973e-03 7.697219371795654297e+00 2.311249732971191406e+00 1.787002831697463989e-01
9.640000000000000000e+02 7.307685852050781250e+01 4.516397476196289062e+00 5.593459587544202805e-03 7.701691150665283203e+00 2.312185287475585938e+00 -4.300629347562789917e-02
9.650000000000000000e+02 7.934395599365234375e+01 2.847907543182373047e+00 8.366658003069460392e-04 7.685978889465332031e+00 2.306044816970825195e+00 -5.982853472232818604e-03
9.660000000000000000e+02 5.452003860473632812e+01 -7.088440656661987305e-01 3.561143577098846436e-02 7.737683296203613281e+00 2.331988334655761719e+00 -9.424018114805221558e-02
9.670000000000000000e+02 4.791484832763671875e+01 2.379795759916305542e-01 5.458319187164306641e-02 7.750652790069580078e+00 2.341570854187011719e+00 -8.086401224136352539e-02
9.680000000000000000e+02 4.060464859008789062e+01 -1.891754627227783203e+00 5.628596246242523193e-02 7.766684055328369141e+00 2.346890926361083984e+00 -5.124836415052413940e-02
9.690000000000000000e+02 2.677008056640625000e+01 -4.222476482391357422e+00 -3.503363952040672302e-02 7.843620300292968750e+00 2.342576026916503906e+00 1.501125246286392212e-01
9.700000000000000000e+02 7.254415130615234375e+01 1.092999744415283203e+01 6.579998880624771118e-03 7.676346302032470703e+00 2.304877996444702148e+00 -3.526744246482849121e-02
9.710000000000000000e+02 7.933939361572265625e+01 8.405561447143554688e+00 6.705674459226429462e-04 7.646889686584472656e+00 2.294267892837524414e+00 -4.938107915222644806e-03
9.720000000000000000e+02 6.653327941894531250e+01 5.044739246368408203e+00 1.799839548766613007e-02 7.717858791351318359e+00 2.320757150650024414e+00 -6.698989868164062500e-02
9.730000000000000000e+02 5.882669830322265625e+01 2.118361711502075195e+00 3.282836452126502991e-02 7.734148502349853516e+00 2.330093145370483398e+00 -8.707035332918167114e-02
9.740000000000000000e+02 4.853443908691406250e+01 4.616028785705566406e+00 6.831324100494384766e-02 7.759452342987060547e+00 2.348329544067382812e+00 -7.092706114053726196e-02
9.750000000000000000e+02 4.288514709472656250e+01 7.241452693939208984e+00 9.252047538757324219e-02 7.796459197998046875e+00 2.366693973541259766e+00 -4.338078200817108154e-02
9.760000000000000000e+02 3.439462661743164062e+01 1.996921300888061523e+00 8.862551301717758179e-02 7.840097427368164062e+00 2.378617048263549805e+00 -5.484769586473703384e-03
9.770000000000000000e+02 7.173927307128906250e+01 1.822145271301269531e+01 8.329667150974273682e-03 7.661102771759033203e+00 2.300829648971557617e+00 -2.489916048943996429e-02
9.780000000000000000e+02 7.931338500976562500e+01 1.675281906127929688e+01 4.636304220184683800e-04 7.604835033416748047e+00 2.281589508056640625e+00 -3.234255826100707054e-03
9.790000000000000000e+02 6.725672149658203125e+01 1.149433422088623047e+01 1.825140416622161865e-02 7.699476242065429688e+00 2.315318346023559570e+00 -4.887871071696281433e-02
9.800000000000000000e+02 5.626215744018554688e+01 7.490458011627197266e+00 4.827513918280601501e-02 7.738410472869873047e+00 2.336005687713623047e+00 -7.102042436599731445e-02
9.810000000000000000e+02 4.899996948242187500e+01 8.233075141906738281e+00 7.500862330198287964e-02 7.768087387084960938e+00 2.352928876876831055e+00 -5.991382524371147156e-02
9.820000000000000000e+02 4.054039382934570312e+01 1.063259124755859375e+01 1.082956716418266296e-01 7.834691524505615234e+00 2.382896184921264648e+00 -2.191055007278919220e-02
9.830000000000000000e+02 3.341277313232421875e+01 9.667064666748046875e+00 1.241411641240119934e-01 7.929941654205322266e+00 2.416224956512451172e+00 2.748788893222808838e-02
9.840000000000000000e+02 2.618575477600097656e+01 1.238042926788330078e+01 6.792896986007690430e-02 8.165511131286621094e+00 2.470031976699829102e+00 7.347737997770309448e-02
9.850000000000000000e+02 7.166196441650390625e+01 2.531063079833984375e+01 5.207256879657506943e-03 7.648941993713378906e+00 2.296244859695434570e+00 -1.316908933222293854e-02
9.860000000000000000e+02 7.927562713623046875e+01 2.373426628112792969e+01 -7.046689279377460480e-05 7.584378719329833984e+00 2.275292634963989258e+00 -1.935623004101216793e-03
9.870000000000000000e+02 5.452074813842773438e+01 1.691847991943359375e+01 5.743781477212905884e-02 7.752933025360107422e+00 2.343111276626586914e+00 -3.734401613473892212e-02
9.880000000000000000e+02 4.954769515991210938e+01 1.887205696105957031e+01 7.206024974584579468e-02 7.787011623382568359e+00 2.357721567153930664e+00 -2.223939448595046997e-02
9.890000000000000000e+02 3.900332641601562500e+01 1.608073997497558594e+01 9.994384646415710449e-02 7.875338554382324219e+00 2.392584800720214844e+00 -6.762506905943155289e-03
9.900000000000000000e+02 3.425008392333984375e+01 1.839088630676269531e+01 9.311519563198089600e-02 7.957579612731933594e+00 2.415208339691162109e+00 3.462519031018018723e-03
9.910000000000000000e+02 2.630477714538574219e+01 1.933318519592285156e+01 2.591877058148384094e-02 8.152912139892578125e+00 2.453649282455444336e+00 7.070100982673466206e-04
9.920000000000000000e+02 2.114408683776855469e+01 2.837816047668457031e+01 -2.266769669950008392e-02 8.385222434997558594e+00 2.508766412734985352e+00 -2.885222248733043671e-02
9.930000000000000000e+02 2.106730842590332031e+01 1.729676818847656250e+01 -9.545682929456233978e-03 8.238047599792480469e+00 2.468550443649291992e+00 5.065110046416521072e-03
9.940000000000000000e+02 6.997238922119140625e+01 2.960929679870605469e+01 8.162242360413074493e-03 7.660110473632812500e+00 2.300481796264648438e+00 -8.391750045120716095e-03
9.950000000000000000e+02 7.927772521972656250e+01 2.932973289489746094e+01 2.000365384446922690e-05 7.575202941894531250e+00 2.272566795349121094e+00 -1.022763550281524658e-03
9.960000000000000000e+02 5.952175140380859375e+01 2.765590667724609375e+01 2.399412170052528381e-02 7.732576847076416016e+00 2.326971292495727539e+00 -1.275485288351774216e-02
9.970000000000000000e+02 4.695405197143554688e+01 2.457875442504882812e+01 6.686533987522125244e-02 7.815524101257324219e+00 2.364716768264770508e+00 1.890979823656380177e-03
9.980000000000000000e+02 4.269343185424804688e+01 2.439407730102539062e+01 7.863805443048477173e-02 7.844419956207275391e+00 2.376917362213134766e+00 6.739868782460689545e-03
9.990000000000000000e+02 3.564452743530273438e+01 2.430841064453125000e+01 9.825293719768524170e-02 7.917896270751953125e+00 2.404844760894775391e+00 -3.691218153107911348e-04
1.000000000000000000e+03 2.660537528991699219e+01 2.614356803894042969e+01 8.970008045434951782e-02 8.150283813476562500e+00 2.471995115280151367e+00 -9.735726565122604370e-02
1.001000000000000000e+03 5.767601013183593750e+01 3.474112319946289062e+01 1.393851824104785919e-02 7.753438949584960938e+00 2.330213308334350586e+00 -1.444636727683246136e-03
1.002000000000000000e+03 4.878694152832031250e+01 3.376644134521484375e+01 1.852717250585556030e-02 7.824029445648193359e+00 2.352766990661621094e+00 1.232630852609872818e-02
1.003000000000000000e+03 4.034704589843750000e+01 3.335998916625976562e+01 2.961886115372180939e-02 7.878115177154541016e+00 2.372320175170898438e+00 4.244875907897949219e-02
1.004000000000000000e+03 3.094888687133789062e+01 2.934514427185058594e+01 1.528530716896057129e-01 7.953598499298095703e+00 2.431935548782348633e+00 -2.860054001212120056e-02
1.005000000000000000e+03 1.313931083679199219e+01 1.797949218750000000e+01 6.130022183060646057e-02 9.157473564147949219e+00 2.765632152557373047e+00 1.878603696823120117e-01
1.006000000000000000e+03 1.308867549896240234e+01 9.281317710876464844e+00 -1.798050999641418457e-01 8.634484291076660156e+00 2.536403656005859375e+00 5.016331076622009277e-01
1.007000000000000000e+03 5.737895965576171875e-01 -1.726305723190307617e+00 -3.280451521277427673e-02 -2.369849681854248047e-01 -8.093684166669845581e-02 -1.661236733198165894e-01
1.008000000000000000e+03 7.632463574409484863e-01 -1.667482256889343262e+00 -3.887597844004631042e-02 -2.151963412761688232e-01 -7.622169703245162964e-02 -1.971614062786102295e-01
1.009000000000000000e+03 2.691222429275512695e+00 -1.656682729721069336e+00 -1.391725242137908936e-01 -5.409217625856399536e-02 -5.797941237688064575e-02 -3.891741633415222168e-01
1.010000000000000000e+03 1.997026681900024414e+00 -4.168766784667968750e+01 -2.894869744777679443e-01 1.603995084762573242e+00 3.943524360656738281e-01 7.909584790468215942e-02
1.011000000000000000e+03 1.279351234436035156e+00 -4.020866012573242188e+01 7.944647967815399170e-02 1.482313632965087891e+00 4.685280323028564453e-01 2.393987923860549927e-01
1.012000000000000000e+03 4.160263538360595703e+00 -3.826865768432617188e+01 3.484440967440605164e-02 2.312591552734375000e+00 7.042307853698730469e-01 7.039542496204376221e-02
1.013000000000000000e+03 8.301739692687988281e-01 -3.616600418090820312e+01 5.467462912201881409e-02 7.097194194793701172e-01 2.293182164430618286e-01 1.337445676326751709e-01
1.014000000000000000e+03 7.868733406066894531e-01 -3.480784606933593750e+01 -1.306233461946249008e-02 5.134437680244445801e-01 1.501144319772720337e-01 8.405257016420364380e-02
1.015000000000000000e+03 2.480282068252563477e+00 -3.578355789184570312e+01 3.979906439781188965e-02 1.540507674217224121e+00 4.740920066833496094e-01 2.464479357004165649e-01
1.016000000000000000e+03 7.457385063171386719e-01 -3.344794082641601562e+01 2.590084075927734375e-02 3.648935258388519287e-01 1.172383055090904236e-01 8.060450106859207153e-02
1.017000000000000000e+03 6.591462492942810059e-01 -2.937660217285156250e+01 4.734464455395936966e-03 8.308057487010955811e-02 2.634451165795326233e-02 2.763649076223373413e-02
1.018000000000000000e+03 6.450256109237670898e-01 -2.802414321899414062e+01 1.073920866474509239e-03 3.160797059535980225e-02 9.804568253457546234e-03 1.997715607285499573e-02
1.019000000000000000e+03 1.936139345169067383e+00 -2.776543617248535156e+01 5.135870538651943207e-03 8.783437013626098633e-01 2.650438845157623291e-01 5.142639204859733582e-02
1.020000000000000000e+03 6.368633508682250977e-01 -2.667073822021484375e+01 1.633188105188310146e-03 -9.699525311589241028e-03 -2.419901080429553986e-03 1.780100353062152863e-02
1.021000000000000000e+03 6.268323659896850586e-01 -2.259938240051269531e+01 3.322070115245878696e-04 -1.089027002453804016e-01 -3.257114812731742859e-02 1.498615927994251251e-02
1.022000000000000000e+03 6.218548417091369629e-01 -2.124059867858886719e+01 -2.348735230043530464e-03 -1.435268968343734741e-01 -4.376269131898880005e-02 1.743655651807785034e-02
1.023000000000000000e+03 1.861274242401123047e+00 -2.109120559692382812e+01 9.898334974423050880e-04 6.986405253410339355e-01 2.098891139030456543e-01 4.028315097093582153e-02
1.024000000000000000e+03 6.164795160293579102e-01 -1.988020515441894531e+01 1.710730371996760368e-03 -1.804638952016830444e-01 -5.362595245242118835e-02 1.775880716741085052e-02
1.025000000000000000e+03 5.871208906173706055e-01 -1.579686450958251953e+01 -1.185545604676008224e-02 -3.263901472091674805e-01 -1.014736816287040710e-01 2.930656634271144867e-02
1.026000000000000000e+03 5.718679428100585938e-01 -1.443924427032470703e+01 1.090079173445701599e-02 -3.932818770408630371e-01 -1.147143244743347168e-01 3.144074231386184692e-02
1.027000000000000000e+03 1.719197988510131836e+00 -1.435511970520019531e+01 -2.039329335093498230e-02 4.020798206329345703e-01 1.145059540867805481e-01 8.347613364458084106e-02
1.028000000000000000e+03 5.615648031234741211e-01 -1.308008193969726562e+01 -1.748860627412796021e-02 -4.708997309207916260e-01 -1.465165019035339355e-01 3.748153150081634521e-02
1.029000000000000000e+03 5.527055263519287109e-01 -8.954504966735839844e+00 1.407247409224510193e-02 -8.312010765075683594e-01 -2.451385855674743652e-01 6.467860192060470581e-02
1.030000000000000000e+03 5.064241290092468262e-01 -7.588357925415039062e+00 -4.849275574088096619e-03 -9.657570123672485352e-01 -2.911818921566009521e-01 4.979588091373443604e-02
1.031000000000000000e+03 1.352971315383911133e+00 -6.100197792053222656e+00 5.849333852529525757e-02 -3.962975740432739258e-01 -1.013412699103355408e-01 2.349987998604774475e-02
1.032000000000000000e+03 7.464736938476562500e+01 -4.014776992797851562e+01 -4.201681353151798248e-03 7.935142517089843750e+00 2.379282236099243164e+00 -8.685307577252388000e-03
1.033000000000000000e+03 7.869437408447265625e+01 4.035842895507812500e+01 1.013074303045868874e-03 7.579362392425537109e+00 2.274112462997436523e+00 4.463208373636007309e-03
1.034000000000000000e+03 7.809664154052734375e+01 4.176676177978515625e+01 -5.688738077878952026e-03 7.582633495330810547e+00 2.273083448410034180e+00 1.593351946212351322e-03
1.035000000000000000e+03 7.879679107666015625e+01 3.898827362060546875e+01 3.773936303332448006e-03 7.575794219970703125e+00 2.273870468139648438e+00 1.961375353857874870e-03
1.036000000000000000e+03 7.721459197998046875e+01 3.601124572753906250e+01 4.598726518452167511e-04 7.589392662048339844e+00 2.276955604553222656e+00 -4.358701698947697878e-04
1.037000000000000000e+03 7.921499633789062500e+01 3.481668853759765625e+01 9.808938484638929367e-04 7.573042392730712891e+00 2.272207021713256836e+00 2.909181639552116394e-04
1.038000000000000000e+03 7.803628540039062500e+01 3.338410949707031250e+01 5.884022903046570718e-05 7.584949016571044922e+00 2.275502204895019531e+00 -9.909304790198802948e-04
1.039000000000000000e+03 7.932169342041015625e+01 3.344427490234375000e+01 -2.178845461457967758e-04 7.572854042053222656e+00 2.271790742874145508e+00 -4.592286131810396910e-04
1.040000000000000000e+03 7.929125213623046875e+01 3.072511291503906250e+01 2.393153699813410640e-04 7.574005603790283203e+00 2.272273302078247070e+00 -7.826586952432990074e-04
1.041000000000000000e+03 7.639241027832031250e+01 2.816238594055175781e+01 1.947483047842979431e-03 7.605339527130126953e+00 2.282186031341552734e+00 -5.068658385425806046e-03
1.042000000000000000e+03 7.927059173583984375e+01 2.653040122985839844e+01 -8.684433851158246398e-06 7.579065322875976562e+00 2.273717164993286133e+00 -1.612738822586834431e-03
1.043000000000000000e+03 7.631551361083984375e+01 2.532884979248046875e+01 1.518312841653823853e-03 7.610090732574462891e+00 2.283482789993286133e+00 -7.153758779168128967e-03
1.044000000000000000e+03 7.926993560791015625e+01 2.513387870788574219e+01 2.094917872454971075e-04 7.581616401672363281e+00 2.274547815322875977e+00 -1.808053697459399700e-03
1.045000000000000000e+03 7.929585266113281250e+01 2.093450164794921875e+01 -1.121223976952023804e-04 7.591103076934814453e+00 2.277297258377075195e+00 -2.412952482700347900e-03
1.046000000000000000e+03 7.930345153808593750e+01 1.953721427917480469e+01 4.064689564984291792e-04 7.595197677612304688e+00 2.278681278228759766e+00 -2.713085850700736046e-03
1.047000000000000000e+03 7.930895233154296875e+01 1.814409637451171875e+01 -1.790657406672835350e-04 7.599750995635986328e+00 2.279871702194213867e+00 -2.935377880930900574e-03
1.048000000000000000e+03 7.932144165039062500e+01 1.397063732147216797e+01 5.465457215905189514e-04 7.616568088531494141e+00 2.285134315490722656e+00 -3.823264501988887787e-03
1.049000000000000000e+03 7.932498931884765625e+01 1.257845592498779297e+01 -2.904378925450146198e-04 7.623284816741943359e+00 2.286898374557495117e+00 -4.064392298460006714e-03
1.050000000000000000e+03 7.932936096191406250e+01 1.118762207031250000e+01 5.864863051101565361e-04 7.630611419677734375e+00 2.289359331130981445e+00 -4.397265147417783737e-03
1.051000000000000000e+03 7.934307861328125000e+01 7.015402317047119141e+00 -4.572111938614398241e-04 7.655843734741210938e+00 2.296616077423095703e+00 -5.113026592880487442e-03
1.052000000000000000e+03 7.934563446044921875e+01 5.625888824462890625e+00 7.428611279465258121e-04 7.665424823760986328e+00 2.299850225448608398e+00 -5.475721787661314011e-03
1.053000000000000000e+03 7.934524536132812500e+01 4.237547874450683594e+00 -5.586210754700005054e-04 7.675437927246093750e+00 2.302463769912719727e+00 -5.596860777586698532e-03
1.054000000000000000e+03 7.933627319335937500e+01 6.438954174518585205e-02 8.387312409467995167e-04 7.708421230316162109e+00 2.312777996063232422e+00 -6.481826771050691605e-03
1.055000000000000000e+03 7.933606719970703125e+01 -1.326883912086486816e+00 -6.811878993175923824e-04 7.720182895660400391e+00 2.315850496292114258e+00 -6.540424656122922897e-03
1.056000000000000000e+03 7.800700378417968750e+01 -3.970163345336914062e+00 1.178001170046627522e-03 7.745105743408203125e+00 2.323885202407836914e+00 -1.844139210879802704e-02
1.057000000000000000e+03 7.933371734619140625e+01 -4.112040042877197266e+00 -7.440802874043583870e-04 7.744809150695800781e+00 2.323219537734985352e+00 -6.872352212667465210e-03
1.058000000000000000e+03 7.931561279296875000e+01 -8.301589012145996094e+00 9.715226478874683380e-04 7.783954143524169922e+00 2.335477590560913086e+00 -7.536595687270164490e-03
1.059000000000000000e+03 7.787751007080078125e+01 -1.101813793182373047e+01 -9.415656677447259426e-04 7.805438518524169922e+00 2.341349124908447266e+00 -2.060990221798419952e-02
1.060000000000000000e+03 7.929343414306640625e+01 -1.110671234130859375e+01 9.794902289286255836e-04 7.810701847076416016e+00 2.343504428863525391e+00 -7.727152667939662933e-03
1.061000000000000000e+03 7.929272460937500000e+01 -1.530836200714111328e+01 -8.077434613369405270e-04 7.850701808929443359e+00 2.354968070983886719e+00 -7.684505544602870941e-03
1.062000000000000000e+03 7.791326904296875000e+01 -1.812824058532714844e+01 2.857744402717798948e-04 7.866347312927246094e+00 2.359989881515502930e+00 -1.915104500949382782e-02
1.063000000000000000e+03 7.930224609375000000e+01 -1.811563491821289062e+01 -6.842075381428003311e-04 7.876979351043701172e+00 2.362888574600219727e+00 -7.366075646132230759e-03
1.064000000000000000e+03 7.932554626464843750e+01 -2.368928146362304688e+01 -7.291977526620030403e-04 7.924959659576416016e+00 2.377269029617309570e+00 -6.112921051681041718e-03
1.065000000000000000e+03 7.801508331298828125e+01 -2.506519889831542969e+01 -1.277886214666068554e-03 7.920261859893798828e+00 2.375695228576660156e+00 -1.549423020333051682e-02
1.066000000000000000e+03 7.934040069580078125e+01 -2.506770324707031250e+01 4.159892851021140814e-04 7.935899734497070312e+00 2.380894660949707031e+00 -5.702384281903505325e-03
1.067000000000000000e+03 7.933120727539062500e+01 -2.920079421997070312e+01 -2.972019137814640999e-04 7.965455532073974609e+00 2.389547348022460938e+00 -4.884822294116020203e-03
1.068000000000000000e+03 7.789564514160156250e+01 -3.179380035400390625e+01 -1.736406586132943630e-03 7.959094047546386719e+00 2.387207269668579102e+00 -1.005992665886878967e-02
1.069000000000000000e+03 7.930606842041015625e+01 -3.196467971801757812e+01 -5.000226665288209915e-04 7.980016231536865234e+00 2.393854856491088867e+00 -3.281892742961645126e-03
1.070000000000000000e+03 7.931334686279296875e+01 -3.606766510009765625e+01 1.328745041973888874e-03 7.990954399108886719e+00 2.397684812545776367e+00 -1.404324546456336975e-03
1.071000000000000000e+03 7.919536590576171875e+01 -3.738152694702148438e+01 -2.433461602777242661e-03 7.990751743316650391e+00 2.396495580673217773e+00 6.015562103129923344e-04
1.072000000000000000e+03 7.893756103515625000e+01 -3.867248535156250000e+01 7.948374259285628796e-04 7.989166736602783203e+00 2.396988630294799805e+00 9.012074442580342293e-04
1.073000000000000000e+03 7.855157470703125000e+01 -4.002665328979492188e+01 -2.317791571840643883e-03 7.986369132995605469e+00 2.395215511322021484e+00 2.698601223528385162e-03
1.074000000000000000e+03 2.506078338623046875e+01 3.968481826782226562e+01 -3.923853337764739990e-01 7.850891590118408203e+00 2.237551927566528320e+00 9.898591786623001099e-02
1.075000000000000000e+03 4.665273284912109375e+01 3.743490219116210938e+01 -5.143212183611467481e-05 7.850519180297851562e+00 2.355140447616577148e+00 1.395487505942583084e-02
1.076000000000000000e+03 6.755165863037109375e+01 4.093349075317382812e+01 3.482713364064693451e-03 7.677648544311523438e+00 2.304339408874511719e+00 -3.252126043662428856e-04
1.077000000000000000e+03 6.524329185485839844e-01 1.936370253562927246e+00 -3.908901661634445190e-02 -3.019077777862548828e-01 -1.022990345954895020e-01 1.946297287940979004e-01
1.078000000000000000e+03 4.475239753723144531e+00 1.699712634086608887e+00 -1.200126409530639648e-01 1.194614544510841370e-01 -1.653541548876091838e-04 3.092517554759979248e-01
1.079000000000000000e+03 1.465725779533386230e+00 6.649266242980957031e+00 6.694938242435455322e-02 -5.209520459175109863e-01 -1.362008005380630493e-01 2.286033332347869873e-02
1.080000000000000000e+03 5.050325989723205566e-01 9.300981521606445312e+00 -2.876590704545378685e-03 -1.199590206146240234e+00 -3.607400357723236084e-01 -3.216065466403961182e-02
1.081000000000000000e+03 5.913116931915283203e-01 1.209804630279541016e+01 -1.767731644213199615e-02 -1.058733582496643066e+00 -3.229232728481292725e-01 -2.681547962129116058e-02
1.082000000000000000e+03 1.801361322402954102e+00 1.206240463256835938e+01 -1.378936972469091415e-02 -9.496474266052246094e-02 -3.262623399496078491e-02 -5.330796912312507629e-02
1.083000000000000000e+03 6.528427004814147949e-01 1.633031845092773438e+01 9.472289122641086578e-03 -9.574604034423828125e-01 -2.843964397907257080e-01 -1.338503044098615646e-02
1.084000000000000000e+03 6.596845984458923340e-01 1.774650573730468750e+01 -1.045697834342718124e-02 -9.391070604324340820e-01 -2.848691940307617188e-01 -1.224250346422195435e-02
1.085000000000000000e+03 6.463818550109863281e-01 2.198638916015625000e+01 1.269625872373580933e-02 -8.347460031509399414e-01 -2.466149181127548218e-01 -3.322384133934974670e-02
1.086000000000000000e+03 6.448062658309936523e-01 2.339415550231933594e+01 -4.703449551016092300e-03 -7.573541402816772461e-01 -2.286172807216644287e-01 -4.219390079379081726e-02
1.087000000000000000e+03 1.926096558570861816e+00 2.336435317993164062e+01 2.878334000706672668e-02 2.102307826280593872e-01 7.170423865318298340e-02 -1.073510497808456421e-01
1.088000000000000000e+03 6.464010477066040039e-01 2.480197334289550781e+01 1.272975280880928040e-02 -6.584987640380859375e-01 -1.937306970357894897e-01 -5.148873105645179749e-02
1.089000000000000000e+03 6.720811128616333008e-01 2.903128814697265625e+01 -1.912313629873096943e-03 -2.124818414449691772e-01 -6.431824713945388794e-02 -8.764578402042388916e-02
1.090000000000000000e+03 6.884455084800720215e-01 3.043855476379394531e+01 2.237840741872787476e-02 -5.091500002890825272e-03 5.186072085052728653e-03 -1.102273464202880859e-01
1.091000000000000000e+03 3.336471557617187500e+00 2.887816238403320312e+01 3.966762498021125793e-02 1.436422109603881836e+00 4.428269267082214355e-01 -3.128430545330047607e-01
1.092000000000000000e+03 7.175275087356567383e-01 3.184823417663574219e+01 -1.990382745862007141e-02 2.185108363628387451e-01 5.958210304379463196e-02 -1.106614843010902405e-01
1.093000000000000000e+03 8.698965311050415039e-01 3.612583160400390625e+01 2.733100950717926025e-02 8.731592297554016113e-01 2.701470553874969482e-01 -1.240449100732803345e-01
1.094000000000000000e+03 8.882590532302856445e-01 3.754219055175781250e+01 7.326129358261823654e-03 1.100368857383728027e+00 3.323085010051727295e-01 -1.533538550138473511e-01
1.095000000000000000e+03 8.580425381660461426e-01 3.889253997802734375e+01 -7.562931627035140991e-02 1.296123743057250977e+00 3.661483228206634521e-01 -9.839569777250289917e-02
1.096000000000000000e+03 1.081165194511413574e+00 4.014955139160156250e+01 1.168834343552589417e-01 1.539060831069946289e+00 4.967832863330841064e-01 -1.669385582208633423e-01
1.097000000000000000e+03 2.888591051101684570e+00 1.682733893394470215e+00 -1.776571124792098999e-01 -4.153217375278472900e-02 -6.575679033994674683e-02 4.634458720684051514e-01
1.098000000000000000e+03 2.256979465484619141e+00 1.685738205909729004e+00 -1.482292115688323975e-01 -1.065043509006500244e-01 -7.642006874084472656e-02 4.334566295146942139e-01
1.099000000000000000e+03 1.733930706977844238e+00 1.826068401336669922e+00 -9.627888351678848267e-02 -1.760981678962707520e-01 -8.171311765909194946e-02 3.988181948661804199e-01
1.100000000000000000e+03 1.499097466468811035e+00 1.631383657455444336e+00 -1.023902893066406250e-01 -1.788372695446014404e-01 -8.436826616525650024e-02 3.425396084785461426e-01
1.101000000000000000e+03 1.292043089866638184e+00 1.926005005836486816e+00 -4.305770993232727051e-02 -2.638301253318786621e-01 -9.206634759902954102e-02 3.283748924732208252e-01
1.102000000000000000e+03 8.338415622711181641e-01 1.823148965835571289e+00 -3.763205558061599731e-02 -2.643003165721893311e-01 -9.057971090078353882e-02 2.167456895112991333e-01
1.103000000000000000e+03 5.450003147125244141e-01 1.638440132141113281e+00 -3.265526145696640015e-02 -2.577162981033325195e-01 -8.711146563291549683e-02 1.485968977212905884e-01
1.104000000000000000e+03 3.571831285953521729e-01 1.644196987152099609e+00 -2.014082111418247223e-02 -2.228702008724212646e-01 -7.290330529212951660e-02 1.144375130534172058e-01
1.105000000000000000e+03 1.465736293792724609e+01 -2.820865154266357422e+00 5.461030825972557068e-02 1.257892966270446777e+00 3.937509953975677490e-01 -1.246034502983093262e+00
1.106000000000000000e+03 1.456545829772949219e+01 -4.227576255798339844e+00 -1.234880834817886353e-01 4.638450145721435547e+00 1.354488611221313477e+00 -1.130928754806518555e+00
1.107000000000000000e+03 1.148181819915771484e+01 -7.427089214324951172e-01 7.137156486511230469e+00 1.596235466003417969e+01 6.929853439331054688e+00 -3.927067756652832031e+00
1.108000000000000000e+03 1.141168212890625000e+01 -9.571020603179931641e-01 5.236721992492675781e+00 1.690341949462890625e+01 6.642042160034179688e+00 -4.036871433258056641e+00
1.109000000000000000e+03 1.156805324554443359e+01 -5.503671765327453613e-01 8.077509880065917969e+00 1.500739288330078125e+01 6.925470829010009766e+00 -3.022238254547119141e+00
1.110000000000000000e+03 1.162133121490478516e+01 3.421646058559417725e-01 9.415245056152343750e+00 1.401193428039550781e+01 7.028153896331787109e+00 2.253742456436157227e+00
1.111000000000000000e+03 1.462625789642333984e+01 2.738209486007690430e+00 -9.110207110643386841e-02 1.234421253204345703e+00 3.429957628250122070e-01 1.367912411689758301e+00
1.112000000000000000e+03 1.057161712646484375e+01 1.563964247703552246e+00 -3.535211980342864990e-01 2.061498451232910156e+01 6.078439235687255859e+00 1.159322634339332581e-01
1.113000000000000000e+03 2.114263153076171875e+01 3.394186019897460938e+01 -7.607374340295791626e-02 9.250427246093750000e+00 2.752305984497070312e+00 -1.922254562377929688e-01
1.114000000000000000e+03 2.116145324707031250e+01 3.116365242004394531e+01 -1.093814801424741745e-02 8.603981971740722656e+00 2.577913045883178711e+00 -8.171239495277404785e-02
1.115000000000000000e+03 2.110061454772949219e+01 2.421671867370605469e+01 2.343904785811901093e-02 8.267863273620605469e+00 2.487390518188476562e+00 -1.480168942362070084e-02
1.116000000000000000e+03 2.243746757507324219e+01 2.400365257263183594e+01 -1.058433484286069870e-02 8.250044822692871094e+00 2.471838235855102539e+00 -2.006537839770317078e-02
1.117000000000000000e+03 2.108308410644531250e+01 2.144684028625488281e+01 1.722900569438934326e-02 8.240281105041503906e+00 2.477253198623657227e+00 -7.542910985648632050e-03
1.118000000000000000e+03 2.107166099548339844e+01 1.867873382568359375e+01 1.307781040668487549e-02 8.234729766845703125e+00 2.474342346191406250e+00 -2.201974159106612206e-03
1.119000000000000000e+03 2.106460571289062500e+01 1.591392230987548828e+01 1.040599308907985687e-02 8.248184204101562500e+00 2.477576971054077148e+00 3.047179896384477615e-03
1.120000000000000000e+03 2.106451034545898438e+01 1.453003597259521484e+01 -6.816047243773937225e-03 8.262418746948242188e+00 2.476680994033813477e+00 9.535484015941619873e-03
1.121000000000000000e+03 2.106321716308593750e+01 1.314426422119140625e+01 9.281528182327747345e-03 8.284688949584960938e+00 2.488191127777099609e+00 9.878036566078662872e-03
1.122000000000000000e+03 2.106151390075683594e+01 1.037441444396972656e+01 1.057352125644683838e-02 8.359592437744140625e+00 2.511049747467041016e+00 2.233684994280338287e-02
1.123000000000000000e+03 2.105947494506835938e+01 8.989922523498535156e+00 -4.669534682761877775e-04 8.422292709350585938e+00 2.526547670364379883e+00 3.527132049202919006e-02
1.124000000000000000e+03 2.104728698730468750e+01 6.222966670989990234e+00 1.952578872442245483e-02 8.689284324645996094e+00 2.612643241882324219e+00 1.017187908291816711e-01
1.125000000000000000e+03 2.102748107910156250e+01 4.835862636566162109e+00 1.459162235260009766e-01 8.989395141601562500e+00 2.740593433380126953e+00 2.679063379764556885e-01
1.126000000000000000e+03 2.071284103393554688e+01 6.863054633140563965e-01 -8.244860172271728516e-02 7.598011493682861328e+00 2.254668712615966797e+00 4.906715154647827148e-01
1.127000000000000000e+03 2.033678436279296875e+01 -6.200680732727050781e+00 -6.643626838922500610e-02 7.251002311706542969e+00 2.155369758605957031e+00 2.157383561134338379e-01
1.128000000000000000e+03 2.032059669494628906e+01 -7.576455593109130859e+00 -1.404237654060125351e-02 7.553789615631103516e+00 2.261924266815185547e+00 1.208465173840522766e-01
1.129000000000000000e+03 2.028264999389648438e+01 -1.034289741516113281e+01 4.504617676138877869e-02 7.892970561981201172e+00 2.381404876708984375e+00 2.516898512840270996e-01
1.130000000000000000e+03 2.000753784179687500e+01 -1.587749958038330078e+01 1.574590615928173065e-02 7.413558959960937500e+00 2.228791475296020508e+00 6.172375082969665527e-01
1.131000000000000000e+03 2.013295555114746094e+01 -1.449489784240722656e+01 1.825512647628784180e-01 8.082753181457519531e+00 2.479591369628906250e+00 5.215921401977539062e-01
1.132000000000000000e+03 1.974889564514160156e+01 -2.001670265197753906e+01 -6.346338987350463867e-02 6.856667995452880859e+00 2.037961244583129883e+00 2.132506966590881348e-01
1.133000000000000000e+03 2.080430984497070312e+01 -2.557508277893066406e+01 -8.166841417551040649e-02 7.160373687744140625e+00 2.123611450195312500e+00 1.695810854434967041e-01
1.134000000000000000e+03 2.230407714843750000e+01 -2.453593826293945312e+01 -8.782140910625457764e-02 7.257490158081054688e+00 2.150900602340698242e+00 1.558931171894073486e-01
1.135000000000000000e+03 1.953823852539062500e+01 -2.820439720153808594e+01 4.741593077778816223e-02 7.319932937622070312e+00 2.210204601287841797e+00 4.405801743268966675e-02
1.136000000000000000e+03 2.091495704650878906e+01 -2.942325401306152344e+01 5.475381389260292053e-02 7.407468318939208984e+00 2.238666534423828125e+00 1.487519145011901855e-01
1.137000000000000000e+03 2.144434738159179688e+01 -3.206612396240234375e+01 1.522061228752136230e-01 7.602918624877929688e+00 2.326537609100341797e+00 3.129306733608245850e-01
1.138000000000000000e+03 1.435773372650146484e+01 -3.042430686950683594e+01 -1.081617325544357300e-01 8.749324798583984375e+00 2.592348814010620117e+00 8.724948018789291382e-02
1.139000000000000000e+03 1.449120044708251953e+01 -2.629665184020996094e+01 4.872630909085273743e-02 9.074564933776855469e+00 2.736987352371215820e+00 -4.861631430685520172e-03
1.140000000000000000e+03 1.450094127655029297e+01 -2.492693710327148438e+01 -4.326074570417404175e-02 9.135589599609375000e+00 2.727698564529418945e+00 4.211436957120895386e-03
1.141000000000000000e+03 1.448620510101318359e+01 -2.218106269836425781e+01 -3.344188258051872253e-02 9.236413002014160156e+00 2.760891437530517578e+00 -1.691150106489658356e-02
1.142000000000000000e+03 1.447540760040283203e+01 -2.081134033203125000e+01 3.043837100267410278e-02 9.274328231811523438e+00 2.791429996490478516e+00 -1.839162968099117279e-02
1.143000000000000000e+03 1.448297214508056641e+01 -1.666989707946777344e+01 -2.242149971425533295e-02 9.412048339843750000e+00 2.816888093948364258e+00 -3.842560574412345886e-02
1.144000000000000000e+03 1.444088459014892578e+01 -1.391928672790527344e+01 -7.852638140320777893e-03 9.388751029968261719e+00 2.814269542694091797e+00 -6.086395308375358582e-02
1.145000000000000000e+03 1.453647708892822266e+01 -1.106419181823730469e+01 -2.485835365951061249e-02 9.339514732360839844e+00 2.794396877288818359e+00 -8.137042075395584106e-02
1.146000000000000000e+03 1.463232231140136719e+01 -7.026718616485595703e+00 -4.498740658164024353e-02 8.219594955444335938e+00 2.452382326126098633e+00 -3.239081501960754395e-01
1.147000000000000000e+03 1.074907207489013672e+01 -1.556185960769653320e+00 2.328122556209564209e-01 2.008027267456054688e+01 6.093925476074218750e+00 -1.200522780418395996e+00
1.148000000000000000e+03 1.466075134277343750e+01 -5.030927062034606934e-02 4.713284969329833984e-01 -3.896682739257812500e+00 -1.027606248855590820e+00 -1.135758534073829651e-01
1.149000000000000000e+03 1.107584762573242188e+01 1.229300022125244141e+00 2.613405227661132812e+00 1.975482749938964844e+01 6.710469722747802734e+00 3.602270364761352539e+00
1.150000000000000000e+03 1.460362529754638672e+01 6.895223617553710938e+00 -7.957032322883605957e-02 8.438473701477050781e+00 2.507670879364013672e+00 4.028301239013671875e-01
1.151000000000000000e+03 1.454202365875244141e+01 8.244388580322265625e+00 -3.070809505879878998e-02 9.148117065429687500e+00 2.735222578048706055e+00 2.497485876083374023e-01
1.152000000000000000e+03 1.441949939727783203e+01 1.249770259857177734e+01 -2.420726232230663300e-02 9.891678810119628906e+00 2.960241317749023438e+00 1.276900768280029297e-01
1.153000000000000000e+03 1.446110916137695312e+01 1.387141132354736328e+01 -6.521032191812992096e-03 1.001096534729003906e+01 3.001333236694335938e+00 9.254325926303863525e-02
1.154000000000000000e+03 1.447387123107910156e+01 1.523917579650878906e+01 -8.158472155628260225e-06 1.009051322937011719e+01 3.027151584625244141e+00 8.377256989479064941e-02
1.155000000000000000e+03 1.446140193939208984e+01 1.798076057434082031e+01 7.942005060613155365e-03 1.024371051788330078e+01 3.075495719909667969e+00 8.599869161844253540e-02
1.156000000000000000e+03 1.477360630035400391e+01 2.487930107116699219e+01 5.144516378641128540e-02 9.898757934570312500e+00 2.985060930252075195e+00 7.391024231910705566e-01
1.157000000000000000e+03 1.364095783233642578e+01 2.623763275146484375e+01 2.477090805768966675e-01 8.802738189697265625e+00 2.715134143829345703e+00 7.017993330955505371e-01
1.158000000000000000e+03 1.376945018768310547e+01 2.761821365356445312e+01 3.944329321384429932e-01 8.561532020568847656e+00 2.686789512634277344e+00 7.488967776298522949e-01
1.159000000000000000e+03 1.501367855072021484e+01 2.764011764526367188e+01 2.694851756095886230e-01 9.948237419128417969e+00 3.065316677093505859e+00 1.097283601760864258e+00
1.160000000000000000e+03 1.542034530639648438e+01 3.040084457397460938e+01 3.607642054557800293e-01 8.975346565246582031e+00 2.800833225250244141e+00 1.541970849037170410e+00
1.161000000000000000e+03 1.695084762573242188e+01 3.575659942626953125e+01 8.535159826278686523e-01 6.424134254455566406e+00 2.183295011520385742e+00 1.927283048629760742e+00
1.162000000000000000e+03 2.058420944213867188e+01 -2.064548730850219727e+00 1.054892838001251221e-01 8.042838096618652344e+00 2.444498300552368164e+00 3.861422836780548096e-01
1.163000000000000000e+03 1.075226020812988281e+01 1.458318591117858887e+00 3.180049955844879150e-01 2.119377517700195312e+01 6.453534126281738281e+00 1.547021746635437012e+00
1.164000000000000000e+03 1.457691860198974609e+01 5.524319648742675781e+00 -1.518256217241287231e-01 6.981195926666259766e+00 2.048811197280883789e+00 7.416634559631347656e-01
1.165000000000000000e+03 1.220722198486328125e+01 7.974702119827270508e-01 5.393089771270751953e+00 1.111593532562255859e+01 4.952707767486572266e+00 3.298031568527221680e+00
1.166000000000000000e+03 1.150448894500732422e+01 7.294147014617919922e-01 7.138165473937988281e+00 1.578469944000244141e+01 6.876859664916992188e+00 3.889695167541503906e+00
1.167000000000000000e+03 1.126212787628173828e+01 1.123452663421630859e+00 3.924240589141845703e+00 1.817644882202148438e+01 6.630206584930419922e+00 4.179132461547851562e+00
1.168000000000000000e+03 1.109714031219482422e+01 -1.301339268684387207e+00 2.366196870803833008e+00 1.954224586486816406e+01 6.572532653808593750e+00 -3.276580095291137695e+00
1.169000000000000000e+03 1.167273235321044922e+01 -3.515402078628540039e-01 8.816191673278808594e+00 1.370975875854492188e+01 6.757785320281982422e+00 -1.589393734931945801e+00
1.170000000000000000e+03 1.171198463439941406e+01 -1.175065562129020691e-01 9.107275009155273438e+00 1.312927055358886719e+01 6.670963764190673828e+00 -4.644643962383270264e-01
1.171000000000000000e+03 1.168626308441162109e+01 1.332437992095947266e-01 9.455464363098144531e+00 1.332988071441650391e+01 6.835603237152099609e+00 1.115856885910034180e+00
1.172000000000000000e+03 1.091618537902832031e+01 -1.412816524505615234e+00 1.304041624069213867e+00 2.040884590148925781e+01 6.513866424560546875e+00 -2.701788663864135742e+00
1.173000000000000000e+03 9.549077987670898438e+00 -1.966996550559997559e+00 4.518101215362548828e-01 1.326826858520507812e+01 4.116023540496826172e+00 5.212626934051513672e+00
1.174000000000000000e+03 9.911112785339355469e+00 1.674068450927734375e+00 -1.752466559410095215e-01 1.725782012939453125e+01 5.124772071838378906e+00 -4.666140556335449219e+00
1.175000000000000000e+03 1.054039859771728516e+01 -1.669127225875854492e+00 -4.577767848968505859e-01 1.982853507995605469e+01 5.811227798461914062e+00 2.942756712436676025e-01
1.176000000000000000e+03 1.155056667327880859e+01 5.236002206802368164e-01 8.744436264038085938e+00 1.494744205474853516e+01 7.107563495635986328e+00 3.354508399963378906e+00
1.177000000000000000e+03 1.459852313995361328e+01 4.132677078247070312e+00 -9.479285031557083130e-02 4.880841255187988281e+00 1.435814619064331055e+00 1.058395385742187500e+00
1.178000000000000000e+03 7.648590803146362305e-01 -2.114952564239501953e+00 1.141890534199774265e-03 -3.027465045452117920e-01 -9.048138558864593506e-02 -2.006981372833251953e-01
1.179000000000000000e+03 3.728842139244079590e-01 -1.815703630447387695e+00 -5.244126077741384506e-03 -2.875188887119293213e-01 -8.782889693975448608e-02 -1.365827769041061401e-01
1.180000000000000000e+03 1.117121815681457520e+00 -4.894651889801025391e+00 7.615093886852264404e-02 -5.686742663383483887e-01 -1.477569937705993652e-01 -9.204857796430587769e-02
1.181000000000000000e+03 1.106154680252075195e+00 -1.607098340988159180e+00 -4.983782023191452026e-02 -1.869297623634338379e-01 -7.103027403354644775e-02 -2.595548629760742188e-01
1.182000000000000000e+03 1.515439748764038086e+00 -1.672949314117431641e+00 -6.744471192359924316e-02 -1.552134901285171509e-01 -6.679745763540267944e-02 -3.205342888832092285e-01
1.183000000000000000e+03 1.917560696601867676e+00 -1.643615126609802246e+00 -1.040358766913414001e-01 -1.105173081159591675e-01 -6.436595320701599121e-02 -3.613906502723693848e-01
1.184000000000000000e+03 2.294579505920410156e+00 -1.622423291206359863e+00 -1.272361874580383301e-01 -7.672139257192611694e-02 -6.118727475404739380e-02 -3.894000649452209473e-01
1.185000000000000000e+03 1.722174286842346191e+00 -1.658044815063476562e+00 -9.280218183994293213e-02 -1.371971964836120605e-01 -6.899981200695037842e-02 -3.442606925964355469e-01
1.186000000000000000e+03 2.486229181289672852e+00 -1.651327133178710938e+00 -1.548289954662322998e-01 -6.260869652032852173e-02 -6.523130834102630615e-02 -3.930040597915649414e-01
1.187000000000000000e+03 4.391110539436340332e-01 -6.244942188262939453e+00 2.697259373962879181e-02 -1.050365447998046875e+00 -3.070178627967834473e-01 2.134013734757900238e-02
1.188000000000000000e+03 3.072597503662109375e+00 -1.644191980361938477e+00 -1.503791511058807373e-01 -1.983470574487000704e-04 -4.517325013875961304e-02 -3.905172646045684814e-01
1.189000000000000000e+03 2.937836170196533203e+00 -1.872765302658081055e+00 -8.001438528299331665e-02 -2.086914703249931335e-02 -3.026505932211875916e-02 -4.000517129898071289e-01
1.190000000000000000e+03 2.891035795211791992e+00 -1.632856488227844238e+00 -1.511237770318984985e-01 -4.105236381292343140e-02 -5.765284225344657898e-02 -3.942125141620635986e-01
1.191000000000000000e+03 1.674825191497802734e+00 -8.815861701965332031e+00 -6.587937939912080765e-03 5.566016957163810730e-02 1.472166925668716431e-02 1.552023738622665405e-01
1.192000000000000000e+03 3.269712209701538086e+00 -1.709662199020385742e+00 -1.332400143146514893e-01 2.318543568253517151e-02 -3.301637247204780579e-02 -3.799067139625549316e-01
1.193000000000000000e+03 3.487654685974121094e+00 -1.706155180931091309e+00 -1.085691899061203003e-01 4.635201022028923035e-02 -1.866515353322029114e-02 -3.642609715461730957e-01
1.194000000000000000e+03 3.695145368576049805e+00 -1.687925815582275391e+00 -1.052079498767852783e-01 5.879588425159454346e-02 -1.392361987382173538e-02 -3.476955592632293701e-01
1.195000000000000000e+03 3.584901332855224609e+00 -2.009727478027343750e+00 2.973412536084651947e-02 7.398374378681182861e-02 3.111536055803298950e-02 -3.299071490764617920e-01
1.196000000000000000e+03 4.096889019012451172e+00 -1.701279640197753906e+00 -7.527580112218856812e-02 9.621282666921615601e-02 6.281107198446989059e-03 -2.875357866287231445e-01
1.197000000000000000e+03 4.533966541290283203e+00 -1.719421505928039551e+00 -1.955674961209297180e-02 1.558871567249298096e-01 4.089912027120590210e-02 -2.190530598163604736e-01
1.198000000000000000e+03 4.939430713653564453e+00 -1.661617636680603027e+00 5.787382647395133972e-02 1.986395120620727539e-01 7.695399969816207886e-02 -1.147322580218315125e-01
1.199000000000000000e+03 5.311209678649902344e+00 -1.650249361991882324e+00 1.555654853582382202e-01 2.722547352313995361e-01 1.283460706472396851e-01 3.895533457398414612e-02
1.200000000000000000e+03 5.124833106994628906e+00 -1.634071826934814453e+00 7.051733881235122681e-02 2.050688117742538452e-01 8.267584443092346191e-02 -5.436057224869728088e-02
1.201000000000000000e+03 5.511304855346679688e+00 -1.659320473670959473e+00 2.414674162864685059e-01 2.971788644790649414e-01 1.615938842296600342e-01 9.866373986005783081e-02
1.202000000000000000e+03 5.601474761962890625e+00 -1.940682649612426758e+00 5.077562332153320312e-01 4.670075178146362305e-01 2.924291193485260010e-01 2.645857334136962891e-01
1.203000000000000000e+03 5.745372295379638672e+00 -1.843720436096191406e+00 4.781256318092346191e-01 3.699798583984375000e-01 2.544316351413726807e-01 2.801017165184020996e-01
1.204000000000000000e+03 6.100120067596435547e+00 -1.626219153404235840e+00 4.799092710018157959e-01 4.631751477718353271e-01 2.829253077507019043e-01 3.975393176078796387e-01
1.205000000000000000e+03 6.297642707824707031e+00 -1.627056002616882324e+00 6.136260628700256348e-01 5.435931682586669922e-01 3.471657633781433105e-01 5.321906805038452148e-01
1.206000000000000000e+03 6.293656349182128906e+00 -1.883706927299499512e+00 8.452497720718383789e-01 7.282708287239074707e-01 4.720561802387237549e-01 6.894885301589965820e-01
1.207000000000000000e+03 6.697165966033935547e+00 -1.634679794311523438e+00 9.389972090721130371e-01 7.140274643898010254e-01 4.959073960781097412e-01 8.563882112503051758e-01
1.208000000000000000e+03 7.512458801269531250e+00 -1.677993893623352051e+00 1.833894491195678711e+00 1.612875819206237793e+00 1.034031152725219727e+00 1.987152338027954102e+00
1.209000000000000000e+03 7.550921440124511719e+00 -2.040118217468261719e+00 1.909259200096130371e+00 2.454631805419921875e+00 1.309167265892028809e+00 2.503106832504272461e+00
1.210000000000000000e+03 8.117486953735351562e+00 -1.639596939086914062e+00 2.675594091415405273e+00 2.928573608398437500e+00 1.681250333786010742e+00 3.351400852203369141e+00
1.211000000000000000e+03 8.693936347961425781e+00 -1.905336976051330566e+00 2.350825548171997070e+00 6.410114765167236328e+00 2.628282070159912109e+00 4.955735206604003906e+00
1.212000000000000000e+03 9.313449859619140625e+00 -1.631752610206604004e+00 1.975117087364196777e+00 1.152642631530761719e+01 4.050462722778320312e+00 6.403977394104003906e+00
1.213000000000000000e+03 9.884134292602539062e+00 -1.623200535774230957e+00 1.204659491777420044e-01 1.757299613952636719e+01 5.308038711547851562e+00 5.090672969818115234e+00
1.214000000000000000e+03 9.701975822448730469e+00 1.651513099670410156e+00 4.962694048881530762e-01 1.532943916320800781e+01 4.747712612152099609e+00 -5.687923908233642578e+00
1.215000000000000000e+03 9.501545906066894531e+00 1.633327960968017578e+00 1.253955006599426270e+00 1.309515857696533203e+01 4.304734230041503906e+00 -6.274253368377685547e+00
1.216000000000000000e+03 9.305004119873046875e+00 1.623776555061340332e+00 1.890961408615112305e+00 1.085832595825195312e+01 3.824786186218261719e+00 -6.304408073425292969e+00
1.217000000000000000e+03 8.914096832275390625e+00 1.659242033958435059e+00 2.477102518081665039e+00 7.264990329742431641e+00 2.922627925872802734e+00 -5.412376403808593750e+00
1.218000000000000000e+03 8.710219383239746094e+00 1.688404440879821777e+00 2.555202960968017578e+00 5.783503532409667969e+00 2.501611948013305664e+00 -4.877243518829345703e+00
1.219000000000000000e+03 8.498461723327636719e+00 1.701747059822082520e+00 2.604869127273559570e+00 4.647584915161132812e+00 2.175736188888549805e+00 -4.334561347961425781e+00
1.220000000000000000e+03 8.280201911926269531e+00 1.695527195930480957e+00 2.399177551269531250e+00 3.685305356979370117e+00 1.825344800949096680e+00 -3.609263420104980469e+00
1.221000000000000000e+03 8.050341606140136719e+00 1.680899858474731445e+00 2.184571981430053711e+00 2.803957462310791016e+00 1.496558904647827148e+00 -2.998683929443359375e+00
1.222000000000000000e+03 7.495700359344482422e+00 1.584764003753662109e+00 1.565065860748291016e+00 1.449104070663452148e+00 9.042509794235229492e-01 -1.762082815170288086e+00
1.223000000000000000e+03 7.326927185058593750e+00 1.593837618827819824e+00 1.315758943557739258e+00 1.243396520614624023e+00 7.677466273307800293e-01 -1.407339453697204590e+00
1.224000000000000000e+03 7.143808364868164062e+00 1.636618256568908691e+00 1.211799621582031250e+00 1.010319113731384277e+00 6.666356325149536133e-01 -1.217938542366027832e+00
1.225000000000000000e+03 7.269819259643554688e+00 1.892176628112792969e+00 1.440306186676025391e+00 1.634929299354553223e+00 9.225706458091735840e-01 -1.704045295715332031e+00
1.226000000000000000e+03 6.289498805999755859e+00 1.677312254905700684e+00 4.893760085105895996e-01 5.302322506904602051e-01 3.058824837207794189e-01 -4.417982101440429688e-01
1.227000000000000000e+03 6.057866096496582031e+00 1.845483064651489258e+00 4.869178235530853271e-01 5.088351964950561523e-01 2.987259030342102051e-01 -3.388087749481201172e-01
1.228000000000000000e+03 6.089634418487548828e+00 1.628297924995422363e+00 3.119120001792907715e-01 4.211508631706237793e-01 2.199188619852066040e-01 -2.748193144798278809e-01
1.229000000000000000e+03 5.508757114410400391e+00 1.627870678901672363e+00 4.929301142692565918e-02 2.627331614494323730e-01 9.360785782337188721e-02 3.411680459976196289e-02
1.230000000000000000e+03 4.903491497039794922e+00 1.693557739257812500e+00 -5.336843430995941162e-02 1.821994781494140625e-01 3.864930942654609680e-02 2.195890992879867554e-01
1.231000000000000000e+03 4.277750015258789062e+00 1.682476520538330078e+00 -1.740765422582626343e-01 8.222649246454238892e-02 -2.755501680076122284e-02 3.504549860954284668e-01
1.232000000000000000e+03 4.073580741882324219e+00 1.679891228675842285e+00 -1.864040940999984741e-01 6.352625787258148193e-02 -3.686334937810897827e-02 3.741114437580108643e-01
1.233000000000000000e+03 3.091307878494262695e+00 1.669889926910400391e+00 -1.990382671356201172e-01 -2.033565007150173187e-02 -6.581217795610427856e-02 4.591616690158843994e-01
1.234000000000000000e+03 2.679585456848144531e+00 1.700684070587158203e+00 -1.659361124038696289e-01 -6.507538259029388428e-02 -6.930344551801681519e-02 4.548213779926300049e-01
1.235000000000000000e+03 2.987376928329467773e+00 2.352859973907470703e+00 4.007462412118911743e-02 -1.307295635342597961e-02 8.100500330328941345e-03 4.339325129985809326e-01
1.236000000000000000e+03 2.460519075393676758e+00 1.717555761337280273e+00 -1.569910496473312378e-01 -8.532020449638366699e-02 -7.269337773323059082e-02 4.428935647010803223e-01
1.237000000000000000e+03 2.061619281768798828e+00 1.660336494445800781e+00 -1.375760138034820557e-01 -1.375668346881866455e-01 -8.254285156726837158e-02 4.050221443176269531e-01
1.238000000000000000e+03 1.870071530342102051e+00 1.639642357826232910e+00 -1.339056640863418579e-01 -1.411547362804412842e-01 -8.251812309026718140e-02 3.863389194011688232e-01
1.239000000000000000e+03 1.692253351211547852e+00 1.614932537078857422e+00 -1.128325536847114563e-01 -1.692753136157989502e-01 -8.463235944509506226e-02 3.601166903972625732e-01
1.240000000000000000e+03 7.440829277038574219e-01 2.357921123504638672e+00 7.951288484036922455e-03 -3.879170417785644531e-01 -1.139897331595420837e-01 2.125284820795059204e-01
1.241000000000000000e+03 7.237256169319152832e-01 1.611834406852722168e+00 -4.872290790081024170e-02 -2.280463278293609619e-01 -8.303076773881912231e-02 1.954652070999145508e-01
1.242000000000000000e+03 4.271366298198699951e-01 2.316083431243896484e+00 2.084283530712127686e-02 -4.080407917499542236e-01 -1.161593869328498840e-01 1.663038432598114014e-01
1.243000000000000000e+03 8.923163414001464844e+00 -1.663683891296386719e+00 2.656847238540649414e+00 7.423029899597167969e+00 3.023963212966918945e+00 5.696429729461669922e+00
1.244000000000000000e+03 2.263061523437500000e+01 -2.181800460815429688e+01 -1.099154502153396606e-01 7.302404880523681641e+00 2.157746791839599609e+00 1.968381702899932861e-01
1.245000000000000000e+03 2.114731979370117188e+01 -3.072998237609863281e+01 -1.692315004765987396e-02 7.452755928039550781e+00 2.230749845504760742e+00 1.440683454275131226e-01
1.246000000000000000e+03 1.820843696594238281e+01 -3.812883758544921875e+01 -9.339755177497863770e-01 3.247673511505126953e+00 6.941093802452087402e-01 1.259203910827636719e+00
1.247000000000000000e+03 1.760794258117675781e+01 4.150756072998046875e+01 1.371541023254394531e-01 4.567757606506347656e+00 1.411473512649536133e+00 1.196560636162757874e-01
1.248000000000000000e+03 1.542407226562500000e+01 3.723301315307617188e+01 -1.417983770370483398e-01 5.838407516479492188e+00 1.708982706069946289e+00 5.576205253601074219e-01
1.249000000000000000e+03 1.284748649597167969e+01 -3.663231658935546875e+01 3.435830771923065186e-01 7.743846893310546875e+00 2.426229000091552734e+00 6.886789798736572266e-01
1.250000000000000000e+03 2.176535034179687500e+01 4.118953704833984375e+01 -3.084788024425506592e-01 6.223381519317626953e+00 1.774470806121826172e+00 -2.645226120948791504e-01
1.251000000000000000e+03 2.106727790832519531e+01 3.668769836425781250e+01 7.349866032600402832e-01 8.178197860717773438e+00 2.673955202102661133e+00 -1.492875099182128906e+00
1.252000000000000000e+03 5.922575473785400391e+00 -3.860898590087890625e+01 -2.703586816787719727e-01 3.769324779510498047e+00 1.049689888954162598e+00 2.791123390197753906e-01
1.253000000000000000e+03 1.726596832275390625e+00 -1.024895668029785156e+01 -9.326966479420661926e-03 1.919110566377639771e-01 5.477523058652877808e-02 1.467579156160354614e-01
1.254000000000000000e+03 1.807232379913330078e+00 -1.703928756713867188e+01 -1.575437374413013458e-02 5.535383224487304688e-01 1.613351851701736450e-01 6.136625260114669800e-02
1.255000000000000000e+03 1.875850439071655273e+00 -2.243334007263183594e+01 -6.937398575246334076e-03 7.347157597541809082e-01 2.183335125446319580e-01 3.982930257916450500e-02
1.256000000000000000e+03 1.972951054573059082e+00 -2.908565330505371094e+01 1.480434183031320572e-02 9.399362206459045410e-01 2.864221632480621338e-01 6.138953566551208496e-02
1.257000000000000000e+03 2.591109514236450195e+00 -3.712070465087890625e+01 6.510712951421737671e-02 1.559906125068664551e+00 4.875039458274841309e-01 2.623065114021301270e-01
1.258000000000000000e+03 9.898427724838256836e-01 -3.886837005615234375e+01 6.047405768185853958e-03 1.206366777420043945e+00 3.637242615222930908e-01 1.678357273340225220e-01
1.259000000000000000e+03 3.285663604736328125e+00 -3.946745681762695312e+01 -4.288115352392196655e-02 1.765785217285156250e+00 5.168712139129638672e-01 2.362703233957290649e-01
1.260000000000000000e+03 2.218775987625122070e+00 -3.308583450317382812e+01 5.138316750526428223e-02 1.248537302017211914e+00 3.899761140346527100e-01 1.500889509916305542e-01
1.261000000000000000e+03 7.095236778259277344e-01 -3.208886337280273438e+01 5.398712120950222015e-03 2.360748201608657837e-01 7.244206219911575317e-02 4.687849432229995728e-02
1.262000000000000000e+03 2.029489994049072266e+00 -3.041101646423339844e+01 1.793466880917549133e-02 1.017069578170776367e+00 3.105012476444244385e-01 8.160887658596038818e-02
1.263000000000000000e+03 3.160746335983276367e+00 -2.490182685852050781e+01 1.013132464140653610e-02 1.637779951095581055e+00 4.943733811378479004e-01 5.493616685271263123e-02
1.264000000000000000e+03 6.317549347877502441e-01 -2.531534576416015625e+01 3.671827726066112518e-04 -4.454546049237251282e-02 -1.325348392128944397e-02 1.461648847907781601e-02
1.265000000000000000e+03 1.886075854301452637e+00 -2.377383041381835938e+01 2.950389636680483818e-03 7.650877237319946289e-01 2.304114401340484619e-01 3.561584651470184326e-02
1.266000000000000000e+03 6.098809838294982910e-01 -1.851845359802246094e+01 -5.699254572391510010e-03 -2.226689457893371582e-01 -6.851045787334442139e-02 2.188710682094097137e-02
1.267000000000000000e+03 3.030366659164428711e+00 -1.692983055114746094e+01 -1.143885124474763870e-02 1.403556823730468750e+00 4.176353812217712402e-01 7.841010391712188721e-02
1.268000000000000000e+03 3.086326837539672852e+00 -2.095069885253906250e+01 -1.981072500348091125e-02 1.532352685928344727e+00 4.537625908851623535e-01 6.693833321332931519e-02
1.269000000000000000e+03 5.628385543823242188e-01 -1.171228027343750000e+01 6.834830623120069504e-03 -5.706275105476379395e-01 -1.691378057003021240e-01 5.090761557221412659e-02
1.270000000000000000e+03 2.837629795074462891e+00 -1.039052772521972656e+01 -3.894581645727157593e-02 1.009641170501708984e+00 2.912086248397827148e-01 2.221985012292861938e-01
1.271000000000000000e+03 2.874221086502075195e+00 -1.427696037292480469e+01 -2.116722427308559418e-02 1.220771431922912598e+00 3.598812818527221680e-01 1.186306104063987732e-01
1.272000000000000000e+03 2.111329078674316406e+00 -1.633893609046936035e+00 -1.233847811818122864e-01 -1.034064516425132751e-01 -6.803736835718154907e-02 -3.741148114204406738e-01
1.273000000000000000e+03 3.653971254825592041e-01 -4.928717613220214844e+00 -2.085970947518944740e-03 -1.024669766426086426e+00 -3.080267310142517090e-01 -2.272359095513820648e-02
1.274000000000000000e+03 1.299623727798461914e+00 -1.638718366622924805e+00 -6.665319949388504028e-02 -1.787341237068176270e-01 -7.361619919538497925e-02 -2.871420979499816895e-01
1.275000000000000000e+03 3.286011815071105957e-01 -3.670637845993041992e+00 2.259613946080207825e-02 -8.099059462547302246e-01 -2.361929416656494141e-01 -6.660600006580352783e-02
1.276000000000000000e+03 1.292293834686279297e+01 -3.025260925292968750e+01 -9.909630753099918365e-03 8.082107543945312500e+00 2.421659231185913086e+00 9.312497824430465698e-02
1.277000000000000000e+03 2.284492111206054688e+01 -1.339227771759033203e+01 1.203283965587615967e-01 7.593320846557617188e+00 2.314094781875610352e+00 2.247688621282577515e-01
1.278000000000000000e+03 1.488102054595947266e+01 2.625864601135253906e+01 1.531789004802703857e-01 9.956644058227539062e+00 3.032946825027465820e+00 8.345755934715270996e-01
1.279000000000000000e+03 1.590821361541748047e+01 3.617957305908203125e+01 1.355719417333602905e-01 5.506318569183349609e+00 1.692567110061645508e+00 6.845284104347229004e-01
1.280000000000000000e+03 2.039476203918457031e+01 -4.825860977172851562e+00 -6.896475702524185181e-02 7.281461715698242188e+00 2.163749217987060547e+00 3.938980996608734131e-01
1.281000000000000000e+03 2.183384704589843750e+01 -2.259719610214233398e+00 9.799008816480636597e-02 7.699755191802978516e+00 2.339323520660400391e+00 3.421439826488494873e-01
1.282000000000000000e+03 1.233656406402587891e+01 -3.332233047485351562e+01 6.118198633193969727e-01 8.026692390441894531e+00 2.591553688049316406e+00 -6.553329229354858398e-01
1.283000000000000000e+03 1.466500949859619141e+01 2.350229644775390625e+01 1.163259893655776978e-01 1.020299053192138672e+01 3.095795154571533203e+00 6.854143738746643066e-01
1.284000000000000000e+03 1.430459403991699219e+01 3.188212966918945312e+01 4.000272154808044434e-01 7.335057258605957031e+00 2.320525407791137695e+00 8.739217519760131836e-01
1.285000000000000000e+03 1.332268619537353516e+01 2.211754417419433594e+01 2.276335805654525757e-01 9.136650085449218750e+00 2.809285163879394531e+00 3.364031612873077393e-01
1.286000000000000000e+03 2.266865730285644531e+01 -1.894591712951660156e+01 -1.354376971721649170e-01 7.403349399566650391e+00 2.180373668670654297e+00 2.526137828826904297e-01
1.287000000000000000e+03 2.095682525634765625e+01 3.446254014968872070e+00 1.389877647161483765e-01 8.788038253784179688e+00 2.678107738494873047e+00 5.386042594909667969e-01
1.288000000000000000e+03 2.228634643554687500e+01 6.029927730560302734e+00 1.463410407304763794e-01 8.516905784606933594e+00 2.598973989486694336e+00 2.434630542993545532e-01
1.289000000000000000e+03 2.143933486938476562e+01 -1.465521717071533203e+01 1.689245551824569702e-01 7.527781009674072266e+00 2.309011697769165039e+00 2.651286423206329346e-01
1.290000000000000000e+03 2.135981750488281250e+01 -1.604636573791503906e+01 1.205610763281583786e-02 7.530014991760253906e+00 2.262621402740478516e+00 2.385631501674652100e-01
1.291000000000000000e+03 2.175659179687500000e+01 -3.639565467834472656e+00 -8.941582404077053070e-03 7.703516483306884766e+00 2.308372497558593750e+00 2.243159711360931396e-01
1.292000000000000000e+03 1.952509498596191406e+01 -2.684599304199218750e+01 -5.050142854452133179e-02 7.213344573974609375e+00 2.148853063583374023e+00 4.786397144198417664e-02
1.293000000000000000e+03 2.128475379943847656e+01 -1.742709922790527344e+01 -1.227246373891830444e-01 7.349447250366210938e+00 2.168016672134399414e+00 3.062767386436462402e-01
1.294000000000000000e+03 1.392216205596923828e+01 2.901078605651855469e+01 3.855379521846771240e-01 8.343335151672363281e+00 2.618661880493164062e+00 8.027575612068176270e-01
1.295000000000000000e+03 1.409718036651611328e+01 3.042829895019531250e+01 4.385082423686981201e-01 7.928081989288330078e+00 2.509977102279663086e+00 9.355109333992004395e-01
1.296000000000000000e+03 2.122978401184082031e+01 -1.880900192260742188e+01 -1.427556276321411133e-01 7.232863903045654297e+00 2.127032518386840820e+00 2.832444608211517334e-01
1.297000000000000000e+03 2.191052627563476562e+01 -3.613380813598632812e+01 3.635809719562530518e-01 6.940264701843261719e+00 2.191153764724731445e+00 2.952307835221290588e-02
1.298000000000000000e+03 2.254850769042968750e+01 -3.038234329223632812e+01 6.851211190223693848e-02 7.427868843078613281e+00 2.248914241790771484e+00 2.597567737102508545e-01
1.299000000000000000e+03 2.031197547912597656e+01 -8.957379341125488281e+00 5.363843590021133423e-02 7.850852489471435547e+00 2.371347427368164062e+00 1.547147482633590698e-01
1.300000000000000000e+03 2.161560630798339844e+01 -7.739750385284423828e+00 -1.649660803377628326e-02 7.645176887512207031e+00 2.288604021072387695e+00 3.064114153385162354e-01
1.301000000000000000e+03 2.218349266052246094e+01 3.239570856094360352e+00 2.013597637414932251e-01 8.283346176147460938e+00 2.545411825180053711e+00 2.304361760616302490e-01
1.302000000000000000e+03 2.106636428833007812e+01 -2.298108482360839844e+01 -6.913802772760391235e-02 7.162660598754882812e+00 2.128056764602661133e+00 1.122695207595825195e-01
1.303000000000000000e+03 2.115368270874023438e+01 -2.160596275329589844e+01 1.228277198970317841e-02 7.068441390991210938e+00 2.124217271804809570e+00 2.516602575778961182e-01
1.304000000000000000e+03 1.173297691345214844e+01 1.935888671875000000e+01 1.634382605552673340e-01 7.857334613800048828e+00 2.406231880187988281e+00 1.873850226402282715e-01
1.305000000000000000e+03 1.314497566223144531e+01 1.934866714477539062e+01 1.407779902219772339e-01 9.138152122497558594e+00 2.783679008483886719e+00 2.267137467861175537e-01
1.306000000000000000e+03 1.647093009948730469e+01 3.450443649291992188e+01 4.921469986438751221e-01 6.495649337768554688e+00 2.096338987350463867e+00 1.642738938331604004e+00
1.307000000000000000e+03 1.458244800567626953e+01 3.337383270263671875e+01 2.203421294689178467e-01 6.907465934753417969e+00 2.138342380523681641e+00 8.552314043045043945e-01
1.308000000000000000e+03 2.296621131896972656e+01 -5.168045043945312500e+00 -9.318461269140243530e-02 7.761118412017822266e+00 2.300380229949951172e+00 2.383473217487335205e-01
1.309000000000000000e+03 2.199520492553710938e+01 4.700928926467895508e-01 -1.183978468179702759e-01 8.085704803466796875e+00 2.390192031860351562e+00 3.486793041229248047e-01
1.310000000000000000e+03 1.190765285491943359e+01 -2.739925575256347656e+01 -5.634299293160438538e-02 7.469083786010742188e+00 2.223822116851806641e+00 8.913893252611160278e-02
1.311000000000000000e+03 2.115077781677246094e+01 3.255399703979492188e+01 1.039337292313575745e-01 8.864755630493164062e+00 2.690606832504272461e+00 -1.821414977312088013e-01
1.312000000000000000e+03 2.251008796691894531e+01 3.379102325439453125e+01 4.454145729541778564e-01 8.847750663757324219e+00 2.787949800491333008e+00 -8.062784671783447266e-01
1.313000000000000000e+03 1.977498054504394531e+01 -3.231641769409179688e+01 -5.371472612023353577e-02 7.663363933563232422e+00 2.282894849777221680e+00 8.164568245410919189e-02
1.314000000000000000e+03 2.230538558959960938e+01 7.412290573120117188e+00 4.297830536961555481e-02 8.443869590759277344e+00 2.546054363250732422e+00 1.440352499485015869e-01
1.315000000000000000e+03 2.074105644226074219e+01 -2.685961914062500000e+01 2.961610443890094757e-02 7.256443023681640625e+00 2.185817718505859375e+00 1.214111223816871643e-01
1.316000000000000000e+03 2.538320350646972656e+01 2.775862312316894531e+01 1.086282506585121155e-01 8.193790435791015625e+00 2.490725517272949219e+00 -1.330717653036117554e-01
1.317000000000000000e+03 1.322348690032958984e+01 -2.220052719116210938e+01 8.683886379003524780e-03 8.402674674987792969e+00 2.523407459259033203e+00 3.594727069139480591e-02
1.318000000000000000e+03 1.207385540008544922e+01 -2.488737678527832031e+01 -4.986694455146789551e-02 7.573610782623291016e+00 2.257123231887817383e+00 7.650032639503479004e-02
1.319000000000000000e+03 2.077835845947265625e+01 -2.814248085021972656e+01 -4.378440231084823608e-02 7.313056945800781250e+00 2.180781841278076172e+00 1.173729449510574341e-01
1.320000000000000000e+03 2.093400382995605469e+01 -2.429406356811523438e+01 -6.396050751209259033e-02 7.240929126739501953e+00 2.153090715408325195e+00 1.835783869028091431e-01
1.321000000000000000e+03 2.164067459106445312e+01 -6.377407550811767578e+00 -1.289158612489700317e-01 7.656011581420898438e+00 2.258128881454467773e+00 3.058467507362365723e-01
1.322000000000000000e+03 2.360214614868164062e+01 1.275887775421142578e+01 3.175893425941467285e-02 8.245925903320312500e+00 2.483305454254150391e+00 5.287975817918777466e-02
1.323000000000000000e+03 2.112911605834960938e+01 2.698950767517089844e+01 3.158910199999809265e-02 8.330315589904785156e+00 2.508571386337280273e+00 -2.703823335468769073e-02
1.324000000000000000e+03 2.251665115356445312e+01 2.678049087524414062e+01 -8.203172124922275543e-03 8.300000190734863281e+00 2.487539052963256836e+00 -5.053403973579406738e-02
1.325000000000000000e+03 2.157520103454589844e+01 -1.049951839447021484e+01 5.733195692300796509e-02 7.713298320770263672e+00 2.331189155578613281e+00 2.125921100378036499e-01
1.326000000000000000e+03 2.106205558776855469e+01 1.175879859924316406e+01 -4.208473954349756241e-03 8.315263748168945312e+00 2.493316411972045898e+00 1.755857281386852264e-02
1.327000000000000000e+03 1.284627056121826172e+01 1.137647056579589844e+01 -9.202963858842849731e-02 8.644861221313476562e+00 2.565849304199218750e+00 2.527463734149932861e-01
1.328000000000000000e+03 1.154930877685546875e+01 1.185485935211181641e+01 -1.824897974729537964e-01 7.709273815155029297e+00 2.258035182952880859e+00 2.607712447643280029e-01
1.329000000000000000e+03 2.247201728820800781e+01 2.538767433166503906e+01 3.386518731713294983e-02 8.273365974426269531e+00 2.492169380187988281e+00 -4.782302677631378174e-02
1.330000000000000000e+03 2.260841560363769531e+01 2.959202003479003906e+01 1.185041479766368866e-02 8.390003204345703125e+00 2.520556211471557617e+00 -1.234912052750587463e-01
1.331000000000000000e+03 2.406390571594238281e+01 3.245657730102539062e+01 3.503858447074890137e-01 8.243661880493164062e+00 2.578214406967163086e+00 -3.243483901023864746e-01
1.332000000000000000e+03 1.318480873107910156e+01 1.662921524047851562e+01 4.694744478911161423e-03 9.099297523498535156e+00 2.731197834014892578e+00 1.291905343532562256e-01
1.333000000000000000e+03 1.446988105773925781e+01 1.660899925231933594e+01 -2.088481793180108070e-03 1.016222286224365234e+01 3.048040390014648438e+00 8.087455481290817261e-02
1.334000000000000000e+03 2.107590866088867188e+01 2.006147766113281250e+01 -1.296966522932052612e-02 8.233823776245117188e+00 2.466256141662597656e+00 1.705182832665741444e-03
1.335000000000000000e+03 2.109166336059570312e+01 2.283248329162597656e+01 -1.728711090981960297e-02 8.249260902404785156e+00 2.469592094421386719e+00 -2.352067036554217339e-03
1.336000000000000000e+03 2.241112518310546875e+01 2.262200736999511719e+01 2.293459884822368622e-02 8.239259719848632812e+00 2.478658199310302734e+00 -2.371105179190635681e-02
1.337000000000000000e+03 2.238677024841308594e+01 2.123485946655273438e+01 -8.683890104293823242e-03 8.227416992187500000e+00 2.465619802474975586e+00 -4.418410826474428177e-03
1.338000000000000000e+03 2.235948944091796875e+01 1.846856880187988281e+01 -6.451501511037349701e-03 8.223941802978515625e+00 2.465246915817260742e+00 7.183742243796586990e-03
1.339000000000000000e+03 2.234735107421875000e+01 1.709389495849609375e+01 1.515068206936120987e-02 8.230518341064453125e+00 2.473700523376464844e+00 6.094995420426130295e-03
1.340000000000000000e+03 2.236941337585449219e+01 1.984774017333984375e+01 1.746240258216857910e-02 8.226040840148925781e+00 2.473051071166992188e+00 -7.582366466522216797e-03
1.341000000000000000e+03 2.370600128173828125e+01 2.102729415893554688e+01 2.572033181786537170e-02 8.212020874023437500e+00 2.471322536468505859e+00 -1.981890387833118439e-02
1.342000000000000000e+03 2.233306503295898438e+01 1.433608531951904297e+01 1.563445851206779480e-02 8.252676010131835938e+00 2.480493068695068359e+00 2.204374596476554871e-02
1.343000000000000000e+03 2.232602691650390625e+01 1.294890975952148438e+01 9.862643200904130936e-04 8.271676063537597656e+00 2.481798648834228516e+00 3.649932518601417542e-02
1.344000000000000000e+03 1.194000720977783203e+01 -2.227403450012207031e+01 -3.472938761115074158e-02 7.503223896026611328e+00 2.240548372268676758e+00 7.234936952590942383e-02
1.345000000000000000e+03 1.225613307952880859e+01 1.026005458831787109e+01 -2.146563678979873657e-01 8.233358383178710938e+00 2.405610561370849609e+00 3.871808648109436035e-01
1.346000000000000000e+03 1.449712562561035156e+01 -2.355565643310546875e+01 2.964458428323268890e-02 9.194721221923828125e+00 2.767309665679931641e+00 -1.146043185144662857e-02
1.347000000000000000e+03 1.346988010406494141e+01 8.078280448913574219e+00 -2.074875682592391968e-01 8.638052940368652344e+00 2.529169559478759766e+00 6.742542386054992676e-01
1.348000000000000000e+03 1.200969409942626953e+01 -1.626331520080566406e+01 -3.371793776750564575e-02 7.677006721496582031e+00 2.292986631393432617e+00 3.527268394827842712e-02
1.349000000000000000e+03 1.452620792388916016e+01 -1.530553245544433594e+01 6.036872044205665588e-03 9.410017967224121094e+00 2.824816226959228516e+00 -5.549016967415809631e-02
1.350000000000000000e+03 1.344321250915527344e+01 -1.538692188262939453e+01 -2.476279251277446747e-02 8.749709129333496094e+00 2.617483854293823242e+00 8.146300911903381348e-03
1.351000000000000000e+03 1.378981113433837891e+01 1.166593909263610840e+00 1.043337821960449219e+00 2.556780338287353516e+00 1.080035448074340820e+00 2.308468818664550781e+00
1.352000000000000000e+03 1.190729427337646484e+01 -9.323422908782958984e-01 4.885324001312255859e+00 1.320492744445800781e+01 5.427075386047363281e+00 -3.511476993560791016e+00
1.353000000000000000e+03 1.357255649566650391e+01 -9.652112960815429688e+00 -1.314276754856109619e-01 8.566395759582519531e+00 2.530490398406982422e+00 -3.095365762710571289e-01
1.354000000000000000e+03 1.459845352172851562e+01 -9.704553604125976562e+00 -2.260979823768138885e-02 9.199770927429199219e+00 2.753148317337036133e+00 -1.445153951644897461e-01
1.355000000000000000e+03 1.367127895355224609e+01 -7.218806266784667969e+00 -2.275983095169067383e-01 7.918971538543701172e+00 2.307411909103393555e+00 -8.129668831825256348e-01
1.356000000000000000e+03 1.352736663818359375e+01 -6.046556949615478516e+00 -5.122563242912292480e-01 7.617706298828125000e+00 2.131634950637817383e+00 -1.430474281311035156e+00
1.357000000000000000e+03 1.456336307525634766e+01 -5.656396389007568359e+00 -2.124544680118560791e-01 6.747459888458251953e+00 1.960501670837402344e+00 -7.438607811927795410e-01
1.358000000000000000e+03 1.442073059082031250e+01 -1.248099040985107422e+01 6.828474346548318863e-03 9.373215675354003906e+00 2.814013242721557617e+00 -6.126295402646064758e-02
1.359000000000000000e+03 1.311600780487060547e+01 -1.809935188293457031e+01 -2.274742163717746735e-02 8.378716468811035156e+00 2.506790876388549805e+00 1.736973598599433899e-02
1.360000000000000000e+03 1.317974376678466797e+01 1.398778915405273438e+01 -2.930996194481849670e-02 9.025465011596679688e+00 2.698846340179443359e+00 1.380940377712249756e-01
1.361000000000000000e+03 2.232146072387695312e+01 1.156280517578125000e+01 2.126589603722095490e-02 8.299660682678222656e+00 2.496278047561645508e+00 4.685370996594429016e-02
1.362000000000000000e+03 2.231985282897949219e+01 1.017908191680908203e+01 1.006226893514394760e-02 8.335233688354492188e+00 2.503588914871215820e+00 6.868881732225418091e-02
1.363000000000000000e+03 7.800544738769531250e+01 3.222211074829101562e+01 2.101754362229257822e-04 7.586115360260009766e+00 2.275897502899169922e+00 -1.513604656793177128e-03
1.364000000000000000e+03 7.908164215087890625e+01 3.619590377807617188e+01 -5.486773443408310413e-04 7.574074745178222656e+00 2.272057771682739258e+00 6.119305035099387169e-04
1.365000000000000000e+03 7.709652709960937500e+01 -3.772168731689453125e+01 -4.455432295799255371e-03 7.966597557067871094e+00 2.388642787933349609e+00 -2.892927266657352448e-03
1.366000000000000000e+03 7.932159423828125000e+01 -3.471416473388671875e+01 -1.674033352173864841e-03 7.988790512084960938e+00 2.396134853363037109e+00 -1.255471142940223217e-03
1.367000000000000000e+03 7.934638214111328125e+01 -2.782219505310058594e+01 2.175123954657465219e-04 7.956303119659423828e+00 2.386956214904785156e+00 -4.916951991617679596e-03
1.368000000000000000e+03 7.930599212646484375e+01 -2.091397666931152344e+01 -6.747480947524309158e-04 7.901908397674560547e+00 2.370370149612426758e+00 -6.791415158659219742e-03
1.369000000000000000e+03 7.805515289306640625e+01 -2.639754295349121094e+01 -6.905206100782379508e-05 7.929512023925781250e+00 2.378832817077636719e+00 -1.409556902945041656e-02
1.370000000000000000e+03 7.931536102294921875e+01 -3.058214378356933594e+01 -3.745761059690266848e-04 7.973604202270507812e+00 2.391968965530395508e+00 -4.089809954166412354e-03
1.371000000000000000e+03 7.794675445556640625e+01 -3.450541687011718750e+01 -9.451620862819254398e-04 7.969827175140380859e+00 2.390664577484130859e+00 -6.543512921780347824e-03
1.372000000000000000e+03 7.789134216308593750e+01 -3.315917205810546875e+01 -2.292320597916841507e-03 7.963879108428955078e+00 2.388476133346557617e+00 -7.046806626021862030e-03
1.373000000000000000e+03 7.455818176269531250e+01 -3.702078247070312500e+01 -7.729002740234136581e-03 7.930781841278076172e+00 2.376915931701660156e+00 -1.632397808134555817e-02
1.374000000000000000e+03 7.612683105468750000e+01 -3.881255722045898438e+01 -3.220681333914399147e-03 7.962807178497314453e+00 2.387875795364379883e+00 -6.825268734246492386e-03
1.375000000000000000e+03 7.796218109130859375e+01 1.402731227874755859e+01 3.512999101076275110e-04 7.628057956695556641e+00 2.288522720336914062e+00 -9.845050983130931854e-03
1.376000000000000000e+03 7.931764984130859375e+01 1.536200904846191406e+01 -2.205711498390883207e-04 7.610394001007080078e+00 2.283051967620849609e+00 -3.469107905402779579e-03
1.377000000000000000e+03 7.789045715332031250e+01 2.098673629760742188e+01 8.897407678887248039e-04 7.604689598083496094e+00 2.281673669815063477e+00 -6.236887536942958832e-03
1.378000000000000000e+03 7.928572845458984375e+01 2.233399772644042969e+01 3.343409334775060415e-04 7.587533950805664062e+00 2.276360511779785156e+00 -2.201399067416787148e-03
1.379000000000000000e+03 7.782272338867187500e+01 3.091456794738769531e+01 3.186685207765549421e-04 7.588368892669677734e+00 2.276606321334838867e+00 -1.454211072996258736e-03
1.380000000000000000e+03 7.783029174804687500e+01 2.804216194152832031e+01 5.896191578358411789e-04 7.591464519500732422e+00 2.277616262435913086e+00 -3.315048757940530777e-03
1.381000000000000000e+03 7.927487945556640625e+01 2.792701148986816406e+01 3.000461438205093145e-04 7.576910972595214844e+00 2.273163318634033203e+00 -1.343960640951991081e-03
1.382000000000000000e+03 7.780424499511718750e+01 2.523487472534179688e+01 2.367226406931877136e-04 7.596013545989990234e+00 2.278875112533569336e+00 -4.447597544640302658e-03
1.383000000000000000e+03 7.782611846923828125e+01 2.381608581542968750e+01 7.212578202597796917e-04 7.598654747009277344e+00 2.279812812805175781e+00 -5.045329686254262924e-03
1.384000000000000000e+03 7.792147827148437500e+01 1.819108390808105469e+01 9.208366973325610161e-04 7.612631320953369141e+00 2.284065723419189453e+00 -7.668736390769481659e-03
1.385000000000000000e+03 7.794920349121093750e+01 1.541609287261962891e+01 1.063918811269104481e-03 7.622444629669189453e+00 2.287052631378173828e+00 -9.092748165130615234e-03
1.386000000000000000e+03 7.793413543701171875e+01 1.680426025390625000e+01 3.090219688601791859e-04 7.617252826690673828e+00 2.285268545150756836e+00 -8.303089067339897156e-03
1.387000000000000000e+03 7.797292327880859375e+01 1.263826274871826172e+01 1.103171496652066708e-03 7.634323120117187500e+00 2.290627717971801758e+00 -1.070069521665573120e-02
1.388000000000000000e+03 7.664049530029296875e+01 1.128174591064453125e+01 2.039525657892227173e-03 7.650633811950683594e+00 2.295801877975463867e+00 -1.786250993609428406e-02
1.389000000000000000e+03 7.802798461914062500e+01 8.479596138000488281e+00 1.038946211338043213e-04 7.655677795410156250e+00 2.296734571456909180e+00 -1.271978020668029785e-02
1.390000000000000000e+03 7.933483123779296875e+01 9.796443939208984375e+00 -3.733806661330163479e-04 7.638436794281005859e+00 2.291419029235839844e+00 -4.585252143442630768e-03
1.391000000000000000e+03 7.930338287353515625e+01 -1.951693153381347656e+01 3.885342448484152555e-04 7.889722347259521484e+00 2.367033243179321289e+00 -6.980264093726873398e-03
1.392000000000000000e+03 7.928654479980468750e+01 -1.390632915496826172e+01 7.997795473784208298e-04 7.837384700775146484e+00 2.351455450057983398e+00 -7.679499220103025436e-03
1.393000000000000000e+03 7.932449340820312500e+01 -6.902351379394531250e+00 -7.855927105993032455e-04 7.770654678344726562e+00 2.330960750579833984e+00 -7.243182975798845291e-03
1.394000000000000000e+03 7.802220916748046875e+01 1.958499699831008911e-01 -2.853365440387278795e-04 7.711848258972167969e+00 2.313468933105468750e+00 -1.682643219828605652e-02
1.395000000000000000e+03 7.934001159667968750e+01 1.456308603286743164e+00 -6.005748873576521873e-04 7.696987152099609375e+00 2.308915853500366211e+00 -6.135690025985240936e-03
1.396000000000000000e+03 7.677118682861328125e+01 7.146455764770507812e+00 8.260697359219193459e-04 7.671153545379638672e+00 2.301593780517578125e+00 -2.080804482102394104e-02
1.397000000000000000e+03 7.783671569824218750e+01 2.945934104919433594e+01 1.021461328491568565e-03 7.589763641357421875e+00 2.277235507965087891e+00 -2.320298226550221443e-03
1.398000000000000000e+03 7.487214660644531250e+01 3.747544479370117188e+01 1.816564239561557770e-03 7.610713958740234375e+00 2.283759117126464844e+00 -2.705861115828156471e-03
1.399000000000000000e+03 7.176913452148437500e+01 3.781170654296875000e+01 1.987504307180643082e-03 7.638933658599853516e+00 2.292276382446289062e+00 -2.463005017489194870e-03
1.400000000000000000e+03 7.800804138183593750e+01 9.866060256958007812e+00 1.132591976784169674e-03 7.648091793060302734e+00 2.294767379760742188e+00 -1.210211217403411865e-02
1.401000000000000000e+03 7.673513793945312500e+01 3.354024589061737061e-01 1.874057110399007797e-03 7.714822769165039062e+00 2.315009117126464844e+00 -2.621580474078655243e-02
1.402000000000000000e+03 7.804852294921875000e+01 2.968391418457031250e+00 -1.609409955563023686e-04 7.691265106201171875e+00 2.307331323623657227e+00 -1.541111152619123459e-02
1.403000000000000000e+03 7.801635742187500000e+01 -1.190731883049011230e+00 1.178416307084262371e-03 7.722665786743164062e+00 2.317153215408325195e+00 -1.746441982686519623e-02
1.404000000000000000e+03 7.933551025390625000e+01 -2.718780517578125000e+00 8.741306373849511147e-04 7.732374191284179688e+00 2.319974422454833984e+00 -6.854307837784290314e-03
1.405000000000000000e+03 7.795518493652343750e+01 -8.172921180725097656e+00 -7.233524229377508163e-04 7.780681610107421875e+00 2.333987474441528320e+00 -1.977202668786048889e-02
1.406000000000000000e+03 7.799799346923828125e+01 -5.363885402679443359e+00 -5.580534343607723713e-04 7.756661891937255859e+00 2.326831102371215820e+00 -1.875173859298229218e-02
1.407000000000000000e+03 7.930444335937500000e+01 -9.703447341918945312e+00 -8.636691491119563580e-04 7.797320365905761719e+00 2.338937044143676758e+00 -7.556105498224496841e-03
1.408000000000000000e+03 7.784897613525390625e+01 -1.385394763946533203e+01 -1.039695111103355885e-03 7.829638004302978516e+00 2.348579645156860352e+00 -2.092009037733078003e-02
1.409000000000000000e+03 7.784776306152343750e+01 -1.243773078918457031e+01 9.983400814235210419e-04 7.817470073699951172e+00 2.345540523529052734e+00 -2.068035863339900970e-02
1.410000000000000000e+03 7.929871368408203125e+01 -1.671261215209960938e+01 5.755237652920186520e-04 7.863946914672851562e+00 2.359356880187988281e+00 -7.405038923025131226e-03
1.411000000000000000e+03 7.791306304931640625e+01 -2.095310783386230469e+01 -1.220004851347766817e-04 7.889314174652099609e+00 2.366757631301879883e+00 -1.792635396122932434e-02
1.412000000000000000e+03 7.791252136230468750e+01 -1.954482460021972656e+01 -1.196332625113427639e-03 7.877889633178710938e+00 2.363008022308349609e+00 -1.905660331249237061e-02
1.413000000000000000e+03 2.622534036636352539e+00 3.609881591796875000e+01 -7.189947180449962616e-03 1.574902892112731934e+00 4.703138768672943115e-01 -3.291864097118377686e-01
1.414000000000000000e+03 8.406952619552612305e-01 3.469830322265625000e+01 -3.100661933422088623e-02 6.701012253761291504e-01 1.917283684015274048e-01 -1.262248754501342773e-01
1.415000000000000000e+03 6.502701640129089355e-01 2.621197509765625000e+01 -1.673735445365309715e-03 -5.356029868125915527e-01 -1.611830145120620728e-01 -6.370364129543304443e-02
1.416000000000000000e+03 1.970075249671936035e+00 2.755590057373046875e+01 1.499909721314907074e-02 4.895965456962585449e-01 1.513786911964416504e-01 -1.960076838731765747e-01
1.417000000000000000e+03 3.259067058563232422e+00 2.749067687988281250e+01 7.573833316564559937e-02 1.343476533889770508e+00 4.257644712924957275e-01 -2.701202034950256348e-01
1.418000000000000000e+03 3.189772129058837891e+00 2.473254585266113281e+01 5.914203822612762451e-02 1.172068476676940918e+00 3.693631291389465332e-01 -1.881237179040908813e-01
1.419000000000000000e+03 2.119350433349609375e+00 3.172498321533203125e+01 1.370228268206119537e-02 9.358794689178466797e-01 2.848745286464691162e-01 -2.910560071468353271e-01
1.420000000000000000e+03 2.259447574615478516e+00 3.313320159912109375e+01 -6.049681920558214188e-03 1.168731808662414551e+00 3.488046228885650635e-01 -2.976862192153930664e-01
1.421000000000000000e+03 5.922834873199462891e+00 3.808269119262695312e+01 -2.170156240463256836e-01 3.068063259124755859e+00 8.553142547607421875e-01 -2.961485385894775391e-01
1.422000000000000000e+03 2.558458566665649414e+00 3.911536026000976562e+01 -3.477657446637749672e-03 1.603076219558715820e+00 4.798795878887176514e-01 -2.944329082965850830e-01
1.423000000000000000e+03 6.574973464012145996e-01 1.916262626647949219e+01 1.106777600944042206e-02 -9.200673103332519531e-01 -2.726998627185821533e-01 -1.312673743814229965e-02
1.424000000000000000e+03 1.931351184844970703e+00 2.197185897827148438e+01 1.311123650521039963e-02 1.626244932413101196e-01 5.272071808576583862e-02 -8.014514297246932983e-02
1.425000000000000000e+03 6.192299723625183105e-01 1.350439167022705078e+01 1.248055603355169296e-02 -1.015755176544189453e+00 -3.009824156761169434e-01 -2.164162881672382355e-02
1.426000000000000000e+03 1.982636094093322754e+00 1.772925949096679688e+01 1.276184991002082825e-02 1.168801784515380859e-01 3.889260813593864441e-02 -1.392062660306692123e-02
1.427000000000000000e+03 4.988053441047668457e-01 6.457056522369384766e+00 6.389219779521226883e-03 -1.221894025802612305e+00 -3.646514415740966797e-01 1.272986922413110733e-02
1.428000000000000000e+03 1.669401288032531738e+00 1.068342208862304688e+01 -1.474803779274225235e-02 -2.247742861509323120e-01 -7.185669988393783569e-02 -5.984156951308250427e-02
1.429000000000000000e+03 4.299062788486480713e-01 5.013123989105224609e+00 1.171931251883506775e-02 -1.134474515914916992e+00 -3.368265628814697266e-01 3.646652400493621826e-02
1.430000000000000000e+03 3.873379707336425781e+00 1.650473833084106445e+00 -2.196601778268814087e-01 3.987068310379981995e-02 -5.393685027956962585e-02 4.020942449569702148e-01
1.431000000000000000e+03 5.502048730850219727e-01 1.069869232177734375e+01 7.622157689183950424e-03 -1.123700261116027832e+00 -3.348234295845031738e-01 -3.872168064117431641e-02
1.432000000000000000e+03 1.873433113098144531e+00 1.346508979797363281e+01 -1.696667633950710297e-02 3.496352350339293480e-03 -4.041097126901149750e-03 -3.256575018167495728e-02
1.433000000000000000e+03 1.970807313919067383e+00 1.915575599670410156e+01 6.560033652931451797e-03 1.244297549128532410e-01 3.929693624377250671e-02 -3.406233713030815125e-02
1.434000000000000000e+03 1.048313975334167480e+00 1.932530283927917480e+00 -2.637726254761219025e-02 -2.906121611595153809e-01 -9.509682655334472656e-02 2.674438655376434326e-01
1.435000000000000000e+03 4.158139526844024658e-01 1.913481831550598145e+00 -4.812913015484809875e-02 -3.720661103725433350e-01 -1.260585635900497437e-01 1.210008636116981506e-01
1.436000000000000000e+03 1.128346824645996094e+01 -1.150712609291076660e+00 3.834409236907958984e+00 1.790050697326660156e+01 6.520474910736083984e+00 -3.918204307556152344e+00
1.437000000000000000e+03 9.346895217895507812e-01 -1.614939212799072266e+00 -4.449208080768585205e-02 -1.993617713451385498e-01 -7.315615564584732056e-02 -2.235823571681976318e-01
1.438000000000000000e+03 4.683922767639160156e+00 1.722666263580322266e+00 -8.556113392114639282e-02 1.442064940929412842e-01 1.759360544383525848e-02 2.733932733535766602e-01
1.439000000000000000e+03 9.385408163070678711e-01 -1.971924304962158203e+00 -1.264218520373106003e-02 -2.542577087879180908e-01 -8.006997406482696533e-02 -2.386691570281982422e-01
1.440000000000000000e+03 4.229665696620941162e-01 -2.753228664398193359e+00 -6.993015762418508530e-03 -5.428474545478820801e-01 -1.649521440267562866e-01 -1.079888939857482910e-01
1.441000000000000000e+03 2.219948053359985352e+00 -1.834437251091003418e+00 -9.166309982538223267e-02 -1.026670858263969421e-01 -5.829905718564987183e-02 -3.793635368347167969e-01
1.442000000000000000e+03 1.486138701438903809e+00 -1.997460961341857910e+00 -3.763963654637336731e-02 -2.066438347101211548e-01 -7.328504323959350586e-02 -3.408154845237731934e-01
1.443000000000000000e+03 3.895668506622314453e+00 -1.685020208358764648e+00 -9.754602611064910889e-02 7.077538222074508667e-02 -8.031192235648632050e-03 -3.207103013992309570e-01
1.444000000000000000e+03 4.312857627868652344e+00 -1.737047433853149414e+00 -4.731411114335060120e-02 1.204273402690887451e-01 2.193396911025047302e-02 -2.660169601440429688e-01
1.445000000000000000e+03 4.740375041961669922e+00 -1.689907312393188477e+00 3.366545960307121277e-02 1.902129799127578735e-01 6.716353446245193481e-02 -1.686734855175018311e-01
1.446000000000000000e+03 5.903312683105468750e+00 -1.860528588294982910e+00 5.735629796981811523e-01 5.823410153388977051e-01 3.467712104320526123e-01 4.097697734832763672e-01
1.447000000000000000e+03 6.087892055511474609e+00 -1.893870115280151367e+00 7.430740594863891602e-01 6.377167105674743652e-01 4.142372310161590576e-01 5.586162209510803223e-01
1.448000000000000000e+03 6.682318687438964844e+00 -1.897126436233520508e+00 1.174008965492248535e+00 9.644812345504760742e-01 6.415470838546752930e-01 1.099995732307434082e+00
1.449000000000000000e+03 7.102024555206298828e+00 -1.668112635612487793e+00 1.419602155685424805e+00 1.117613554000854492e+00 7.611647248268127441e-01 1.368975877761840820e+00
1.450000000000000000e+03 7.306058406829833984e+00 -1.679802298545837402e+00 1.627580046653747559e+00 1.350788474082946777e+00 8.935105204582214355e-01 1.693094730377197266e+00
1.451000000000000000e+03 7.768359184265136719e+00 -1.987064003944396973e+00 2.070383310317993164e+00 2.774916172027587891e+00 1.453589916229248047e+00 2.819498777389526367e+00
1.452000000000000000e+03 8.507165908813476562e+00 -1.622069358825683594e+00 2.876864194869995117e+00 4.644094944000244141e+00 2.256287813186645508e+00 4.522938728332519531e+00
1.453000000000000000e+03 8.507369041442871094e+00 -1.845021247863769531e+00 2.538463354110717773e+00 5.205739498138427734e+00 2.323260784149169922e+00 4.476512432098388672e+00
1.454000000000000000e+03 8.311795234680175781e+00 -1.623938679695129395e+00 2.818079471588134766e+00 3.686410188674926758e+00 1.951346993446350098e+00 3.880223274230957031e+00
1.455000000000000000e+03 8.707167625427246094e+00 -1.637601733207702637e+00 2.849669933319091797e+00 5.846084117889404297e+00 2.608726263046264648e+00 5.078312397003173828e+00
1.456000000000000000e+03 9.278300285339355469e+00 -1.886785626411437988e+00 1.376526117324829102e+00 1.094141483306884766e+01 3.695382356643676758e+00 5.638425827026367188e+00
1.457000000000000000e+03 9.781387329101562500e+00 -1.851306557655334473e+00 -1.263252180069684982e-02 1.535756587982177734e+01 4.603479862213134766e+00 4.972359180450439453e+00
1.458000000000000000e+03 1.378160858154296875e+01 -2.830770015716552734e+00 -2.683981060981750488e-01 4.507859230041503906e+00 1.271838426589965820e+00 -3.020885229110717773e+00
1.459000000000000000e+03 1.014395046234130859e+01 1.700874209403991699e+00 -7.109288573265075684e-01 1.864826774597167969e+01 5.381201744079589844e+00 -3.212324142456054688e+00
1.460000000000000000e+03 9.110541343688964844e+00 1.632525563240051270e+00 2.270777225494384766e+00 8.880020141601562500e+00 3.345239400863647461e+00 -5.904168605804443359e+00
1.461000000000000000e+03 7.851707458496093750e+00 1.633638143539428711e+00 1.902197241783142090e+00 2.231774806976318359e+00 1.240191578865051270e+00 -2.478812932968139648e+00
1.462000000000000000e+03 7.677734851837158203e+00 1.596261382102966309e+00 1.799116253852844238e+00 1.530479192733764648e+00 9.988785982131958008e-01 -2.066039562225341797e+00
1.463000000000000000e+03 7.024885654449462891e+00 1.998057365417480469e+00 1.264216780662536621e+00 1.445559740066528320e+00 8.129329681396484375e-01 -1.420307517051696777e+00
1.464000000000000000e+03 6.722192287445068359e+00 1.694892764091491699e+00 8.295645117759704590e-01 7.637047171592712402e-01 4.779807627201080322e-01 -7.852349877357482910e-01
1.465000000000000000e+03 6.503688335418701172e+00 1.709452033042907715e+00 6.537086963653564453e-01 6.555308103561401367e-01 3.927718400955200195e-01 -6.068420410156250000e-01
1.466000000000000000e+03 5.702920436859130859e+00 1.617461204528808594e+00 1.088973879814147949e-01 3.165909945964813232e-01 1.276465207338333130e-01 -4.615072533488273621e-02
1.467000000000000000e+03 5.717660903930664062e+00 1.847602009773254395e+00 3.357637226581573486e-01 4.168958067893981934e-01 2.257978469133377075e-01 -1.488929241895675659e-01
1.468000000000000000e+03 5.354176521301269531e+00 1.922752857208251953e+00 2.591716945171356201e-01 3.547477722167968750e-01 1.841758489608764648e-01 -9.786206297576427460e-03
1.469000000000000000e+03 5.311737060546875000e+00 1.644599318504333496e+00 1.737669343128800392e-03 2.455642223358154297e-01 7.419056445360183716e-02 1.080269366502761841e-01
1.470000000000000000e+03 5.158658981323242188e+00 1.989482522010803223e+00 2.260583639144897461e-01 3.419721126556396484e-01 1.704091429710388184e-01 4.806964844465255737e-02
1.471000000000000000e+03 3.978301286697387695e+00 1.973611116409301758e+00 -2.156317792832851410e-02 9.100751578807830811e-02 2.083330042660236359e-02 3.688263297080993652e-01
1.472000000000000000e+03 3.678115367889404297e+00 1.644474267959594727e+00 -2.254596948623657227e-01 2.677088603377342224e-02 -5.960664525628089905e-02 4.160339236259460449e-01
1.473000000000000000e+03 3.483631610870361328e+00 1.646607756614685059e+00 -2.256162017583847046e-01 1.721862144768238068e-02 -6.251927465200424194e-02 4.287056922912597656e-01
1.474000000000000000e+03 3.905969858169555664e+00 2.315188646316528320e+00 1.260942667722702026e-01 1.354892849922180176e-01 7.847506552934646606e-02 3.277524709701538086e-01
1.475000000000000000e+03 3.287908792495727539e+00 1.657479524612426758e+00 -2.219331115484237671e-01 7.151663303375244141e-04 -6.636538356542587280e-02 4.422760903835296631e-01
1.476000000000000000e+03 1.848778843879699707e+00 2.507128953933715820e+00 -7.442936301231384277e-03 -2.471657693386077881e-01 -7.638261467218399048e-02 4.186689555644989014e-01
1.477000000000000000e+03 1.037189579010009766e+01 1.664372324943542480e+00 -6.914662122726440430e-01 1.956645774841308594e+01 5.662497520446777344e+00 -1.664200305938720703e+00
1.478000000000000000e+03 9.258637428283691406e+00 2.034770488739013672e+00 8.207825422286987305e-01 1.082694721221923828e+01 3.494318723678588867e+00 -5.267894744873046875e+00
1.479000000000000000e+03 1.022910881042480469e+01 -2.066076755523681641e+00 -1.125312447547912598e+00 1.685379600524902344e+01 4.718544960021972656e+00 2.299123287200927734e+00
1.480000000000000000e+03 1.007607364654541016e+01 -1.655297160148620605e+00 -2.650946676731109619e-01 1.859856224060058594e+01 5.500040531158447266e+00 3.962394237518310547e+00
1.481000000000000000e+03 1.209082794189453125e+01 -8.549054712057113647e-02 7.646595001220703125e+00 1.110550403594970703e+01 5.625629901885986328e+00 -9.105508774518966675e-02
1.482000000000000000e+03 1.315506649017333984e+01 1.015591502189636230e+00 2.498207330703735352e+00 6.199442386627197266e+00 2.609294891357421875e+00 2.665114641189575195e+00
1.483000000000000000e+03 1.381604957580566406e+01 -1.630404591560363770e+00 7.812643051147460938e-01 2.922745704650878906e+00 1.111202955245971680e+00 -2.561864137649536133e+00
1.484000000000000000e+03 1.029361724853515625e+01 -1.672151803970336914e+00 -5.825337767601013184e-01 1.933031845092773438e+01 5.624335289001464844e+00 2.195661544799804688e+00
1.485000000000000000e+03 1.277665138244628906e+01 -3.935327291488647461e+00 -1.135858774185180664e+00 8.474229812622070312e+00 2.201511144638061523e+00 -2.988372325897216797e+00
1.486000000000000000e+03 1.300830936431884766e+01 3.114637374877929688e+00 -5.449444055557250977e-01 8.220566749572753906e+00 2.302686691284179688e+00 3.530385494232177734e+00
1.487000000000000000e+03 1.059736442565917969e+01 1.995057344436645508e+00 -1.257598280906677246e+00 1.759477233886718750e+01 4.901152610778808594e+00 -3.173420727252960205e-01
1.488000000000000000e+03 1.361810970306396484e+01 6.888936996459960938e+00 -3.283497095108032227e-01 8.194623947143554688e+00 2.359882354736328125e+00 9.711320400238037109e-01
1.489000000000000000e+03 1.180828857421875000e+01 5.263401865959167480e-01 7.761762619018554688e+00 1.313613700866699219e+01 6.269370079040527344e+00 2.943002223968505859e+00
1.490000000000000000e+03 1.188207721710205078e+01 -1.423627734184265137e+00 2.599321842193603516e+00 1.379543113708496094e+01 4.918426036834716797e+00 -4.058980941772460938e+00
1.491000000000000000e+03 1.300506114959716797e+01 -3.911372423171997070e-01 3.330138921737670898e+00 6.223541259765625000e+00 2.866104125976562500e+00 -1.019909977912902832e+00
1.492000000000000000e+03 1.560475349426269531e+00 2.167472362518310547e+00 -3.073051385581493378e-02 -2.414455264806747437e-01 -8.165281265974044800e-02 3.894912302494049072e-01
1.493000000000000000e+03 1.064816832542419434e+00 2.315537452697753906e+00 -1.276417355984449387e-02 -3.665710091590881348e-01 -1.138005554676055908e-01 2.831772267818450928e-01
1.494000000000000000e+03 1.736411094665527344e+00 -2.139414072036743164e+00 -7.671532221138477325e-03 -1.692726463079452515e-01 -5.308325216174125671e-02 -3.735277652740478516e-01
1.495000000000000000e+03 1.249219799041748047e+01 2.758799171447753906e+01 3.554277420043945312e-01 7.546595096588134766e+00 2.370606899261474609e+00 4.442972838878631592e-01
1.496000000000000000e+03 5.702399253845214844e+00 2.477466583251953125e+01 1.635232120752334595e-01 2.921781301498413086e+00 9.255913496017456055e-01 -1.889069676399230957e-01
1.497000000000000000e+03 1.320850849151611328e+01 1.529923152923583984e+01 6.794176297262310982e-04 9.084965705871582031e+00 2.725693464279174805e+00 1.184112653136253357e-01
1.498000000000000000e+03 2.327305412292480469e+01 2.731921970844268799e-01 -2.573922649025917053e-02 8.030059814453125000e+00 2.401296138763427734e+00 2.618905603885650635e-01
1.499000000000000000e+03 2.191039466857910156e+01 -8.908196091651916504e-01 -1.709086820483207703e-02 7.906797409057617188e+00 2.366911888122558594e+00 4.525784254074096680e-01
1.500000000000000000e+03 1.314618682861328125e+01 -1.224152851104736328e+01 -5.961026251316070557e-02 8.474269866943359375e+00 2.524397850036621094e+00 -1.189302206039428711e-01
1.501000000000000000e+03 1.184131813049316406e+01 -1.837337112426757812e+01 6.345864385366439819e-03 7.571432590484619141e+00 2.273333549499511719e+00 5.832464993000030518e-02
1.502000000000000000e+03 2.309805297851562500e+01 -2.439817190170288086e+00 -2.179795317351818085e-02 7.836277008056640625e+00 2.344343662261962891e+00 2.608868777751922607e-01
1.503000000000000000e+03 2.269582557678222656e+01 -1.755337333679199219e+01 -8.659928292036056519e-02 7.453192710876464844e+00 2.209978103637695312e+00 1.764491647481918335e-01
1.504000000000000000e+03 2.119489479064941406e+01 -2.020325660705566406e+01 -9.436137229204177856e-02 7.234824180603027344e+00 2.142138957977294922e+00 3.224579393863677979e-01
1.505000000000000000e+03 1.501581954956054688e+01 3.492129516601562500e+01 1.916123926639556885e-01 6.385149955749511719e+00 1.973028779029846191e+00 9.455536603927612305e-01
1.506000000000000000e+03 2.287353515625000000e+01 -1.201291179656982422e+01 1.313088685274124146e-01 7.629429817199707031e+00 2.328221559524536133e+00 2.862074077129364014e-01
1.507000000000000000e+03 2.149801445007324219e+01 -1.326810836791992188e+01 1.770159602165222168e-01 7.698078632354736328e+00 2.362528324127197266e+00 3.936277925968170166e-01
1.508000000000000000e+03 2.265417098999023438e+01 -2.036752510070800781e+01 -7.405177503824234009e-02 7.275941371917724609e+00 2.160566806793212891e+00 2.309977412223815918e-01
1.509000000000000000e+03 2.176550292968750000e+01 -3.347698974609375000e+01 3.253706097602844238e-01 7.326285839080810547e+00 2.295496940612792969e+00 3.784604668617248535e-01
1.510000000000000000e+03 1.329567527770996094e+01 3.526257705688476562e+01 -6.558245420455932617e-02 5.807780265808105469e+00 1.722659349441528320e+00 2.686744630336761475e-01
1.511000000000000000e+03 1.215818023681640625e+01 2.349717521667480469e+01 2.433284968137741089e-01 7.983430862426757812e+00 2.468027830123901367e+00 2.720969319343566895e-01
1.512000000000000000e+03 1.229396533966064453e+01 -3.507939147949218750e+01 1.253857612609863281e+00 6.782528400421142578e+00 2.410915851593017578e+00 -2.382219284772872925e-01
1.513000000000000000e+03 4.738180160522460938e+00 -3.097193527221679688e+01 1.074962690472602844e-01 2.742426633834838867e+00 8.549768924713134766e-01 1.522682756185531616e-01
1.514000000000000000e+03 3.347365379333496094e+00 -3.006671905517578125e+01 4.703878238797187805e-02 1.855324983596801758e+00 5.707091689109802246e-01 1.109167113900184631e-01
1.515000000000000000e+03 4.829893589019775391e+00 -4.058774185180664062e+01 -2.880339920520782471e-01 2.890581607818603516e+00 7.807642817497253418e-01 -3.376867249608039856e-02
1.516000000000000000e+03 4.287046432495117188e+00 -3.682472991943359375e+01 -5.945910699665546417e-03 2.605794906616210938e+00 7.799546718597412109e-01 2.681843340396881104e-01
1.517000000000000000e+03 4.138687133789062500e+00 -3.538156127929687500e+01 6.403159350156784058e-02 2.447668552398681641e+00 7.535099983215332031e-01 3.183694779872894287e-01
1.518000000000000000e+03 1.543674111366271973e+00 -7.417943477630615234e+00 5.568611621856689453e-02 -1.825617551803588867e-01 -3.806269168853759766e-02 1.117935106158256531e-01
1.519000000000000000e+03 1.767924427986145020e+00 -1.569374656677246094e+01 -1.229023095220327377e-03 4.843114912509918213e-01 1.449247449636459351e-01 6.288091838359832764e-02
1.520000000000000000e+03 3.274834156036376953e+00 -2.877867698669433594e+01 2.065720595419406891e-02 1.772195696830749512e+00 5.378558635711669922e-01 8.680953830480575562e-02
1.521000000000000000e+03 4.288038253784179688e+00 -1.683164978027343750e+01 -4.306250065565109253e-02 2.272842407226562500e+00 6.689339280128479004e-01 1.115648150444030762e-01
1.522000000000000000e+03 3.846575021743774414e+00 -1.066423034667968750e+01 -5.409023538231849670e-02 1.858526229858398438e+00 5.413308143615722656e-01 2.630047500133514404e-01
1.523000000000000000e+03 2.724574089050292969e+00 -8.501452445983886719e+00 2.613287977874279022e-02 7.716715335845947266e-01 2.393413335084915161e-01 2.373941838741302490e-01
1.524000000000000000e+03 3.274941205978393555e+00 -9.362059593200683594e+00 -3.616753593087196350e-02 1.253709673881530762e+00 3.652626574039459229e-01 2.649788260459899902e-01
1.525000000000000000e+03 2.967659235000610352e+00 -1.559508323669433594e+01 -3.523417562246322632e-02 1.327495694160461426e+00 3.876784443855285645e-01 1.063761636614799500e-01
1.526000000000000000e+03 3.111263990402221680e+00 -2.226962280273437500e+01 -8.232938125729560852e-04 1.570328354835510254e+00 4.708515405654907227e-01 5.193716660141944885e-02
1.527000000000000000e+03 2.110795736312866211e+00 -3.174588012695312500e+01 3.073036670684814453e-02 1.136987328529357910e+00 3.503153026103973389e-01 1.171569004654884338e-01
1.528000000000000000e+03 1.896203994750976562e+00 -2.511091613769531250e+01 -3.326816076878458261e-04 7.940333485603332520e-01 2.381101995706558228e-01 4.088376089930534363e-02
1.529000000000000000e+03 3.188983440399169922e+00 -2.620738220214843750e+01 5.121042486280202866e-03 1.672132730484008789e+00 5.031761527061462402e-01 6.555202603340148926e-02
1.530000000000000000e+03 3.225347280502319336e+00 -2.749735069274902344e+01 1.881058700382709503e-02 1.720806121826171875e+00 5.218849778175354004e-01 7.133935391902923584e-02
1.531000000000000000e+03 1.845978856086730957e+00 -1.974528503417968750e+01 -9.319684468209743500e-03 6.548021435737609863e-01 1.936447471380233765e-01 4.849791526794433594e-02
1.532000000000000000e+03 1.678512573242187500e+00 -1.301956081390380859e+01 -6.877130828797817230e-03 3.090788125991821289e-01 9.066050499677658081e-02 9.683407098054885864e-02
1.533000000000000000e+03 3.877187490463256836e+00 -3.400684738159179688e+01 1.377341449260711670e-01 2.270214319229125977e+00 7.223845124244689941e-01 2.550908029079437256e-01
1.534000000000000000e+03 4.958835124969482422e+00 -3.221871948242187500e+01 1.206754297018051147e-01 2.864522933959960938e+00 8.955594897270202637e-01 2.034166306257247925e-01
1.535000000000000000e+03 2.159889030456542969e+01 -9.113251686096191406e+00 7.434571534395217896e-02 7.671828746795654297e+00 2.323852300643920898e+00 2.696608901023864746e-01
1.536000000000000000e+03 2.291372299194335938e+01 -7.875236511230468750e+00 -2.411837317049503326e-02 7.701368808746337891e+00 2.303175210952758789e+00 2.984320223331451416e-01
1.537000000000000000e+03 2.344809341430664062e+01 3.048132419586181641e+00 1.300371438264846802e-01 8.154182434082031250e+00 2.485265970230102539e+00 1.578563004732131958e-01
1.538000000000000000e+03 1.322311973571777344e+01 2.073261260986328125e+01 1.942702680826187134e-01 9.168481826782226562e+00 2.808825492858886719e+00 2.653737962245941162e-01
1.539000000000000000e+03 1.174759292602539062e+01 1.793583106994628906e+01 1.018406450748443604e-01 7.883286952972412109e+00 2.395538330078125000e+00 1.636070758104324341e-01
1.540000000000000000e+03 2.529493522644042969e+01 3.445433807373046875e+01 3.473946154117584229e-01 7.935733318328857422e+00 2.484938383102416992e+00 1.550025772303342819e-02
1.541000000000000000e+03 2.262843132019042969e+01 3.101828384399414062e+01 1.444613337516784668e-01 8.469163894653320312e+00 2.584087610244750977e+00 -2.234118431806564331e-01
1.542000000000000000e+03 2.253452873229980469e+01 -2.324175262451171875e+01 -5.094352364540100098e-02 7.258104324340820312e+00 2.162148237228393555e+00 2.242383211851119995e-01
1.543000000000000000e+03 2.359241867065429688e+01 1.137628173828125000e+01 2.258973568677902222e-02 8.263124465942382812e+00 2.485714435577392578e+00 7.555781304836273193e-02
1.544000000000000000e+03 2.411936569213867188e+01 3.091485595703125000e+01 1.292487978935241699e-01 8.238101005554199219e+00 2.510205030441284180e+00 -2.013149708509445190e-01
1.545000000000000000e+03 2.256390571594238281e+01 2.817948341369628906e+01 6.030413135886192322e-02 8.339054107666015625e+00 2.519807577133178711e+00 -9.494170546531677246e-02
1.546000000000000000e+03 1.201776981353759766e+01 -2.613797760009765625e+01 5.209392867982387543e-03 7.527107238769531250e+00 2.259695053100585938e+00 5.004535615444183350e-02
1.547000000000000000e+03 1.328321743011474609e+01 -2.489353561401367188e+01 2.971630915999412537e-02 8.359204292297363281e+00 2.516675949096679688e+00 1.718883030116558075e-02
1.548000000000000000e+03 1.185976982116699219e+01 -1.959796714782714844e+01 -2.162462100386619568e-02 7.547851085662841797e+00 2.257868051528930664e+00 6.927350163459777832e-02
1.549000000000000000e+03 1.203849506378173828e+01 -2.361058998107910156e+01 3.698395192623138428e-02 7.596985816955566406e+00 2.290190935134887695e+00 4.498971626162528992e-02
1.550000000000000000e+03 2.383304023742675781e+01 2.516903495788574219e+01 8.093913085758686066e-03 8.234394073486328125e+00 2.472746372222900391e+00 -4.634646326303482056e-02
1.551000000000000000e+03 2.378613471984863281e+01 2.378918457031250000e+01 3.629900887608528137e-02 8.227592468261718750e+00 2.479167461395263672e+00 -4.835692420601844788e-02
1.552000000000000000e+03 2.499632835388183594e+01 1.532445716857910156e+01 1.991545408964157104e-02 8.189248085021972656e+00 2.462749004364013672e+00 3.836190328001976013e-02
1.553000000000000000e+03 2.368762207031250000e+01 1.963563728332519531e+01 1.601190306246280670e-03 8.205410957336425781e+00 2.462103605270385742e+00 2.051156945526599884e-03
1.554000000000000000e+03 2.362275123596191406e+01 1.414443683624267578e+01 9.499829262495040894e-03 8.229521751403808594e+00 2.471706628799438477e+00 4.172688350081443787e-02
1.555000000000000000e+03 2.374397468566894531e+01 2.241309928894042969e+01 2.549566095694899559e-03 8.212841987609863281e+00 2.464617490768432617e+00 -1.800177432596683502e-02
1.556000000000000000e+03 2.368197822570800781e+01 1.825483322143554688e+01 2.262450940907001495e-02 8.209609031677246094e+00 2.469670057296752930e+00 2.028009155765175819e-03
1.557000000000000000e+03 2.366646957397460938e+01 1.688872146606445312e+01 3.731613280251622200e-03 8.210494041442871094e+00 2.464267492294311523e+00 2.021549455821514130e-02
1.558000000000000000e+03 1.177801990509033203e+01 -2.090819168090820312e+01 -1.522890408523380756e-03 7.446740627288818359e+00 2.233565330505371094e+00 6.522709131240844727e-02
1.559000000000000000e+03 1.372683906555175781e+01 2.870613098144531250e+00 -1.724426299333572388e-01 5.047226428985595703e+00 1.462435126304626465e+00 3.006405353546142578e+00
1.560000000000000000e+03 1.369255542755126953e+01 3.987539529800415039e+00 -5.616784691810607910e-01 6.145373344421386719e+00 1.675108551979064941e+00 2.536261081695556641e+00
1.561000000000000000e+03 1.254964065551757812e+01 -9.561144828796386719e+00 -2.685670554637908936e-01 8.067916870117187500e+00 2.339805126190185547e+00 -4.155252575874328613e-01
1.562000000000000000e+03 1.262209892272949219e+01 -7.180419564247131348e-01 3.526427745819091797e+00 8.443680763244628906e+00 3.591032505035400391e+00 -2.197568416595458984e+00
1.563000000000000000e+03 1.304116439819335938e+01 -5.187223434448242188e+00 -9.053847193717956543e-01 7.831707477569580078e+00 2.077896833419799805e+00 -1.927107334136962891e+00
1.564000000000000000e+03 1.356788063049316406e+01 -4.113364696502685547e+00 -5.629526972770690918e-01 6.579792022705078125e+00 1.805051803588867188e+00 -2.460489511489868164e+00
1.565000000000000000e+03 1.054160785675048828e+01 -2.229498386383056641e+00 -1.405708789825439453e+00 1.690900230407714844e+01 4.650987625122070312e+00 6.603388190269470215e-01
1.566000000000000000e+03 1.266270542144775391e+01 -6.538422584533691406e+00 -8.315111398696899414e-01 8.248270034790039062e+00 2.225027799606323242e+00 -1.295490622520446777e+00
1.567000000000000000e+03 1.355391693115234375e+01 5.702592372894287109e+00 -4.715968370437622070e-01 7.739420890808105469e+00 2.180347204208374023e+00 1.572680115699768066e+00
1.568000000000000000e+03 1.255167961120605469e+01 -1.512081623077392578e+01 -4.660265520215034485e-02 8.039670944213867188e+00 2.397920608520507812e+00 -1.157936360687017441e-02
1.569000000000000000e+03 1.317999935150146484e+01 -2.085639572143554688e+01 -2.255512401461601257e-02 8.434647560119628906e+00 2.523627758026123047e+00 2.684829197824001312e-02
1.570000000000000000e+03 1.253314304351806641e+01 7.798729419708251953e+00 -5.137161016464233398e-01 8.285480499267578125e+00 2.331529378890991211e+00 9.054129719734191895e-01
1.571000000000000000e+03 2.389743232727050781e+01 2.656298446655273438e+01 6.206412240862846375e-02 8.252993583679199219e+00 2.494517326354980469e+00 -9.250560402870178223e-02
1.572000000000000000e+03 2.397939491271972656e+01 2.797372817993164062e+01 3.237119317054748535e-02 8.263571739196777344e+00 2.488782882690429688e+00 -9.950459748506546021e-02
1.573000000000000000e+03 2.358485603332519531e+01 8.609609603881835938e+00 5.930266529321670532e-02 8.303512573242187500e+00 2.508844375610351562e+00 1.343928277492523193e-01
1.574000000000000000e+03 2.357649803161621094e+01 7.228779315948486328e+00 1.280619204044342041e-01 8.322663307189941406e+00 2.535217523574829102e+00 1.899918466806411743e-01
1.575000000000000000e+03 2.406655502319335938e+01 2.941850280761718750e+01 1.359061449766159058e-01 8.277290344238281250e+00 2.523959159851074219e+00 -1.774142384529113770e-01
1.576000000000000000e+03 2.293051147460937500e+01 -6.522869586944580078e+00 -8.265908807516098022e-02 7.734451293945312500e+00 2.295537710189819336e+00 2.766705155372619629e-01
1.577000000000000000e+03 2.224947357177734375e+01 4.639405250549316406e+00 2.362170815467834473e-01 8.397043228149414062e+00 2.589978218078613281e+00 2.875139117240905762e-01
1.578000000000000000e+03 2.203152465820312500e+01 -2.571530342102050781e+01 -3.727154433727264404e-02 7.299673080444335938e+00 2.178720474243164062e+00 1.826431900262832642e-01
1.579000000000000000e+03 7.802674102783203125e+01 -3.575827407836914062e+01 -3.022694261744618416e-03 7.974208354949951172e+00 2.391355752944946289e+00 -3.421672154217958450e-03
1.580000000000000000e+03 7.501966857910156250e+01 -3.136472702026367188e+01 -6.156406365334987640e-03 7.917395114898681641e+00 2.373371601104736328e+00 -2.318697236478328705e-02
1.581000000000000000e+03 7.691661071777343750e+01 -3.581187057495117188e+01 -3.933227621018886566e-03 7.958064556121826172e+00 2.386239290237426758e+00 -7.676855660974979401e-03
1.582000000000000000e+03 7.512591552734375000e+01 -2.401070022583007812e+01 -3.022593911737203598e-03 7.884421825408935547e+00 2.364419698715209961e+00 -3.398785367608070374e-02
1.583000000000000000e+03 7.799800872802734375e+01 -2.906884574890136719e+01 -3.603248333092778921e-04 7.945432186126708984e+00 2.383521556854248047e+00 -1.254594698548316956e-02
1.584000000000000000e+03 7.519841766357421875e+01 1.542053318023681641e+01 3.815284231677651405e-03 7.644513130187988281e+00 2.294498682022094727e+00 -1.939760334789752960e-02
1.585000000000000000e+03 7.657325744628906250e+01 1.543764400482177734e+01 1.501628197729587555e-03 7.633614063262939453e+00 2.290534734725952148e+00 -1.425952184945344925e-02
1.586000000000000000e+03 7.765620422363281250e+01 3.464700317382812500e+01 1.604120479896664619e-03 7.587462425231933594e+00 2.276720046997070312e+00 -7.989346631802618504e-04
1.587000000000000000e+03 7.700179290771484375e+01 3.292274856567382812e+01 5.168267525732517242e-04 7.594666957855224609e+00 2.278555154800415039e+00 -1.439267885871231556e-03
1.588000000000000000e+03 7.792787933349609375e+01 -2.234610748291015625e+01 -1.176192774437367916e-03 7.899861335754394531e+00 2.369605541229248047e+00 -1.731840521097183228e-02
1.589000000000000000e+03 7.656903076171875000e+01 -2.382056999206542969e+01 -1.962686888873577118e-03 7.896552562713623047e+00 2.368376970291137695e+00 -2.562830783426761627e-02
1.590000000000000000e+03 7.656266784667968750e+01 -3.023244667053222656e+01 -2.605439163744449615e-03 7.932732582092285156e+00 2.379038095474243164e+00 -1.886476017534732819e-02
1.591000000000000000e+03 7.804880523681640625e+01 -2.773113441467285156e+01 -1.326363300904631615e-03 7.938121795654296875e+00 2.381038665771484375e+00 -1.397006679326295853e-02
1.592000000000000000e+03 7.667501831054687500e+01 -2.890899848937988281e+01 -2.780743408948183060e-03 7.926964282989501953e+00 2.377254962921142578e+00 -2.074506320059299469e-02
1.593000000000000000e+03 7.677957916259765625e+01 -2.764319992065429688e+01 -8.228634251281619072e-04 7.921511173248291016e+00 2.376206398010253906e+00 -2.037711814045906067e-02
1.594000000000000000e+03 7.677979278564453125e+01 -2.639886474609375000e+01 -2.609213581308722496e-03 7.914535522460937500e+00 2.373577833175659180e+00 -2.271649427711963654e-02
1.595000000000000000e+03 7.639619445800781250e+01 -3.301485824584960938e+01 -4.646902903914451599e-03 7.944614410400390625e+00 2.381990194320678711e+00 -1.474145613610744476e-02
1.596000000000000000e+03 7.652563476562500000e+01 -3.445910263061523438e+01 -4.255055449903011322e-03 7.950772762298583984e+00 2.383955240249633789e+00 -1.022514700889587402e-02
1.597000000000000000e+03 7.785979461669921875e+01 2.239899635314941406e+01 3.769631730392575264e-04 7.601441383361816406e+00 2.280545473098754883e+00 -5.545888561755418777e-03
1.598000000000000000e+03 7.651439666748046875e+01 1.960580825805664062e+01 2.015673322603106499e-03 7.620772838592529297e+00 2.286836624145507812e+00 -1.103025954216718674e-02
1.599000000000000000e+03 7.502631378173828125e+01 2.242757034301757812e+01 2.267630770802497864e-03 7.626530647277832031e+00 2.288639545440673828e+00 -1.159702520817518234e-02
1.600000000000000000e+03 7.649564361572265625e+01 2.101165771484375000e+01 1.504704006947577000e-03 7.617194175720214844e+00 2.285609722137451172e+00 -9.600090794265270233e-03
1.601000000000000000e+03 7.660826110839843750e+01 1.266772747039794922e+01 1.194803160615265369e-03 7.644610881805419922e+00 2.293741703033447266e+00 -1.677847839891910553e-02
1.602000000000000000e+03 7.546245574951171875e+01 8.493398666381835938e+00 2.172733889892697334e-03 7.671473503112792969e+00 2.302093982696533203e+00 -2.638386189937591553e-02
1.603000000000000000e+03 7.659517669677734375e+01 1.405027770996093750e+01 2.248362870886921883e-03 7.638977527618408203e+00 2.292367696762084961e+00 -1.568035222589969635e-02
1.604000000000000000e+03 7.637051391601562500e+01 2.387180900573730469e+01 9.614793816581368446e-04 7.612335205078125000e+00 2.283988952636718750e+00 -7.945208810269832611e-03
1.605000000000000000e+03 7.780758666992187500e+01 2.664324569702148438e+01 6.693006143905222416e-04 7.593755245208740234e+00 2.278327465057373047e+00 -3.961130976676940918e-03
1.606000000000000000e+03 7.651677703857421875e+01 -2.243404197692871094e+01 -1.234693219885230064e-03 7.887369155883789062e+00 2.365840435028076172e+00 -2.696410380303859711e-02
1.607000000000000000e+03 7.377621459960937500e+01 -1.555891609191894531e+01 -2.130562905222177505e-03 7.821305274963378906e+00 2.345752477645874023e+00 -5.080489069223403931e-02
1.608000000000000000e+03 7.651095581054687500e+01 -2.101843452453613281e+01 -2.198832109570503235e-03 7.876923084259033203e+00 2.362417221069335938e+00 -2.888818085193634033e-02
1.609000000000000000e+03 7.529257965087890625e+01 -7.841592311859130859e+00 -1.620956318220123649e-04 7.773931980133056641e+00 2.332130908966064453e+00 -4.038167744874954224e-02
1.610000000000000000e+03 7.787636566162109375e+01 -1.527930927276611328e+01 6.009197677485644817e-04 7.841937065124511719e+00 2.352761507034301758e+00 -2.012119628489017487e-02
1.611000000000000000e+03 7.541530609130859375e+01 -8.858512043952941895e-01 2.561590634286403656e-03 7.726280212402343750e+00 2.318652629852294922e+00 -3.589359298348426819e-02
1.612000000000000000e+03 7.665700531005859375e+01 -6.608074665069580078e+00 -3.155083395540714264e-04 7.766307830810546875e+00 2.329797744750976562e+00 -2.993186376988887787e-02
1.613000000000000000e+03 7.805377960205078125e+01 5.721080780029296875e+00 -8.774687012191861868e-05 7.672494411468505859e+00 2.301722049713134766e+00 -1.400450244545936584e-02
1.614000000000000000e+03 7.555001068115234375e+01 5.826794624328613281e+00 1.802931772544980049e-03 7.684780597686767578e+00 2.305974960327148438e+00 -2.880634553730487823e-02
1.615000000000000000e+03 7.622871398925781250e+01 3.416336059570312500e+01 1.145057496614754200e-03 7.602123260498046875e+00 2.280980587005615234e+00 -1.937315682880580425e-03
1.616000000000000000e+03 7.804460144042968750e+01 7.097505092620849609e+00 1.165308291092514992e-03 7.663948059082031250e+00 2.299534082412719727e+00 -1.349385734647512436e-02
1.617000000000000000e+03 7.679078674316406250e+01 5.792551994323730469e+00 1.989139011129736900e-03 7.679027557373046875e+00 2.304305076599121094e+00 -2.191471308469772339e-02
1.618000000000000000e+03 7.670110321044921875e+01 -2.430182456970214844e+00 1.698153209872543812e-03 7.734742641448974609e+00 2.320932149887084961e+00 -2.797869034111499786e-02
1.619000000000000000e+03 7.654296112060546875e+01 -9.453834533691406250e+00 -7.424594368785619736e-04 7.788476467132568359e+00 2.336320161819458008e+00 -3.165512159466743469e-02
1.620000000000000000e+03 7.652111816406250000e+01 -1.673089408874511719e+01 1.228886976605281234e-04 7.845502853393554688e+00 2.353687763214111328e+00 -3.056099079549312592e-02
1.621000000000000000e+03 7.600100708007812500e+01 3.231412506103515625e+01 1.213800394907593727e-03 7.603205204010009766e+00 2.281325578689575195e+00 -2.529273740947246552e-03
1.622000000000000000e+03 7.129113769531250000e+01 3.490150833129882812e+01 3.574388334527611732e-03 7.645000934600830078e+00 2.294572591781616211e+00 -3.565029939636588097e-03
1.623000000000000000e+03 7.633472442626953125e+01 3.096613502502441406e+01 1.041267649270594120e-03 7.601617813110351562e+00 2.280797719955444336e+00 -3.453127108514308929e-03
1.624000000000000000e+03 7.651422882080078125e+01 1.821703529357910156e+01 1.209902577102184296e-03 7.624799728393554688e+00 2.287802934646606445e+00 -1.211619284003973007e-02
1.625000000000000000e+03 7.668942260742187500e+01 9.894216537475585938e+00 1.178577775135636330e-03 7.656889438629150391e+00 2.297420263290405273e+00 -1.889717392623424530e-02
1.626000000000000000e+03 7.645970153808593750e+01 -1.527966308593750000e+01 -1.451128628104925156e-03 7.833637237548828125e+00 2.349655866622924805e+00 -3.233294934034347534e-02
1.627000000000000000e+03 7.798184967041015625e+01 -6.763681411743164062e+00 1.212651841342449188e-03 7.768583297729492188e+00 2.330938816070556641e+00 -1.936643198132514954e-02
1.628000000000000000e+03 7.661472320556640625e+01 -8.020949363708496094e+00 1.543576130643486977e-03 7.777314662933349609e+00 2.333657503128051758e+00 -3.082071244716644287e-02
1.629000000000000000e+03 7.803752136230468750e+01 1.582924246788024902e+00 1.244684099219739437e-03 7.701423168182373047e+00 2.310800313949584961e+00 -1.621773280203342438e-02
1.630000000000000000e+03 7.671267700195312500e+01 -1.046139597892761230e+00 2.349887072341516614e-04 7.724523067474365234e+00 2.317427396774291992e+00 -2.709747478365898132e-02
1.631000000000000000e+03 7.679654693603515625e+01 4.442249774932861328e+00 6.191397551447153091e-04 7.687152385711669922e+00 2.306331396102905273e+00 -2.279455214738845825e-02
1.632000000000000000e+03 7.679295349121093750e+01 3.082172632217407227e+00 2.025462454184889793e-03 7.695923805236816406e+00 2.309384822845458984e+00 -2.396189980208873749e-02
1.633000000000000000e+03 7.667819213867187500e+01 -5.209190368652343750e+00 1.649042591452598572e-03 7.755591869354248047e+00 2.327172279357910156e+00 -2.944943495094776154e-02
1.634000000000000000e+03 7.669044494628906250e+01 -3.818019390106201172e+00 4.826582426176173612e-06 7.744895935058593750e+00 2.323470115661621094e+00 -2.857970632612705231e-02
1.635000000000000000e+03 7.636531829833984375e+01 -1.236019420623779297e+01 -1.252432120963931084e-03 7.811302661895751953e+00 2.343015193939208984e+00 -3.305150195956230164e-02
1.636000000000000000e+03 7.637587738037109375e+01 -1.381601524353027344e+01 7.800909806974232197e-04 7.821901798248291016e+00 2.346804618835449219e+00 -3.230434656143188477e-02
1.637000000000000000e+03 7.644764709472656250e+01 -1.090606880187988281e+01 1.110796467401087284e-03 7.799842834472656250e+00 2.340286016464233398e+00 -3.250693157315254211e-02
1.638000000000000000e+03 7.652632141113281250e+01 -1.959272384643554688e+01 -6.221408839337527752e-04 7.867101669311523438e+00 2.359943866729736328e+00 -2.901317924261093140e-02
1.639000000000000000e+03 2.336373329162597656e+01 1.649575352668762207e+00 2.880705334246158600e-02 8.129484176635742188e+00 2.447487354278564453e+00 1.815631240606307983e-01
1.640000000000000000e+03 2.355559349060058594e+01 5.845134258270263672e+00 1.888078004121780396e-01 8.252508163452148438e+00 2.532394886016845703e+00 2.071110457181930542e-01
1.641000000000000000e+03 1.205395698547363281e+00 4.701369285583496094e+00 7.535672932863235474e-02 -6.305184960365295410e-01 -1.665485203266143799e-01 1.750417202711105347e-01
1.642000000000000000e+03 1.516236543655395508e+00 2.495582818984985352e+00 7.337800343520939350e-05 -3.139626085758209229e-01 -9.416676312685012817e-02 3.858213424682617188e-01
1.643000000000000000e+03 4.154247283935546875e+00 3.678160095214843750e+01 -7.220873981714248657e-02 2.235359668731689453e+00 6.489452719688415527e-01 -2.572095990180969238e-01
1.644000000000000000e+03 2.564862966537475586e+00 3.460680770874023438e+01 -2.292214427143335342e-03 1.424939632415771484e+00 4.267942011356353760e-01 -3.184959888458251953e-01
1.645000000000000000e+03 3.388602495193481445e+00 3.024432182312011719e+01 6.148699298501014709e-02 1.559266209602355957e+00 4.862259626388549805e-01 -3.480771183967590332e-01
1.646000000000000000e+03 1.928815841674804688e+00 2.475787353515625000e+01 9.834910742938518524e-03 2.831914722919464111e-01 8.790791034698486328e-02 -1.334182471036911011e-01
1.647000000000000000e+03 3.188288211822509766e+00 2.335988235473632812e+01 4.397252202033996582e-02 1.135193109512329102e+00 3.537496924400329590e-01 -1.437644213438034058e-01
1.648000000000000000e+03 2.008217573165893555e+00 2.895357131958007812e+01 3.455487638711929321e-02 6.345605850219726562e-01 2.007346302270889282e-01 -2.305415570735931396e-01
1.649000000000000000e+03 4.040555477142333984e+00 3.407048416137695312e+01 2.720451913774013519e-03 2.106822729110717773e+00 6.328629851341247559e-01 -3.735992908477783203e-01
1.650000000000000000e+03 3.578691244125366211e+00 3.287635421752929688e+01 -2.500723488628864288e-02 1.717769384384155273e+00 5.078286528587341309e-01 -3.564710021018981934e-01
1.651000000000000000e+03 4.782667636871337891e+00 3.149299621582031250e+01 4.120894894003868103e-02 2.408054828643798828e+00 7.347791194915771484e-01 -3.950724899768829346e-01
1.652000000000000000e+03 3.463320493698120117e+00 3.157942962646484375e+01 2.222605235874652863e-02 1.660658955574035645e+00 5.048655271530151367e-01 -3.679545819759368896e-01
1.653000000000000000e+03 4.590083122253417969e+00 4.027797698974609375e+01 -2.066576629877090454e-01 2.367599010467529297e+00 6.482824087142944336e-01 -4.818816110491752625e-02
1.654000000000000000e+03 3.293763875961303711e+00 1.626983070373535156e+01 9.127256460487842560e-03 1.144836902618408203e+00 3.461892306804656982e-01 -6.042980123311281204e-03
1.655000000000000000e+03 1.948460578918457031e+00 2.057025718688964844e+01 2.987116761505603790e-02 1.406813263893127441e-01 5.116574838757514954e-02 -5.402280762791633606e-02
1.656000000000000000e+03 1.420425653457641602e+00 7.990871906280517578e+00 3.973315935581922531e-03 -5.253025889396667480e-01 -1.563987880945205688e-01 -5.045539513230323792e-02
1.657000000000000000e+03 2.828249454498291016e+00 1.056956768035888672e+01 -1.502513885498046875e-02 7.506423592567443848e-01 2.206851691007614136e-01 -9.724169969558715820e-02
1.658000000000000000e+03 3.141576766967773438e+00 8.071012496948242188e+00 6.018981337547302246e-02 8.416278958320617676e-01 2.705453038215637207e-01 -1.253430694341659546e-01
1.659000000000000000e+03 1.924504280090332031e+00 1.487925720214843750e+01 1.851419336162507534e-03 5.938007682561874390e-02 1.836944930255413055e-02 -2.178090065717697144e-02
1.660000000000000000e+03 3.221670389175415039e+00 1.483039951324462891e+01 -2.805710397660732269e-02 1.116792798042297363e+00 3.266206979751586914e-01 -5.217003636062145233e-03
1.661000000000000000e+03 2.482036113739013672e+00 9.273369789123535156e+00 8.669879753142595291e-04 3.829003274440765381e-01 1.151301935315132141e-01 -1.093960925936698914e-01
1.662000000000000000e+03 3.229841709136962891e+00 2.060273170471191406e+01 3.677664697170257568e-02 1.131195783615112305e+00 3.503917157649993896e-01 -7.273149490356445312e-02
1.663000000000000000e+03 3.085662603378295898e+00 1.197306728363037109e+01 -4.626001045107841492e-02 9.685865044593811035e-01 2.766979634761810303e-01 -7.456400990486145020e-02
1.664000000000000000e+03 3.153788089752197266e+00 1.341184329986572266e+01 -3.344263508915901184e-02 1.063801288604736328e+00 3.091076016426086426e-01 -4.441804438829421997e-02
1.665000000000000000e+03 3.198545694351196289e+00 2.198898315429687500e+01 5.922485142946243286e-02 1.124215602874755859e+00 3.550321161746978760e-01 -1.025961637496948242e-01
1.666000000000000000e+03 3.320168256759643555e+00 1.773274040222167969e+01 4.222465213388204575e-03 1.172608375549316406e+00 3.530492484569549561e-01 -2.811934053897857666e-02
1.667000000000000000e+03 4.645707607269287109e+00 1.622711372375488281e+01 -6.425226107239723206e-03 2.271442651748657227e+00 6.795052289962768555e-01 -1.209265203215181828e-03
1.668000000000000000e+03 2.302317619323730469e+01 -3.804691314697265625e+00 -4.054025933146476746e-02 7.764195919036865234e+00 2.317096710205078125e+00 2.351057827472686768e-01
1.669000000000000000e+03 2.274287986755371094e+01 -1.616959953308105469e+01 6.973782554268836975e-03 7.462666988372802734e+00 2.240892171859741211e+00 1.856177300214767456e-01
1.670000000000000000e+03 2.280023193359375000e+01 -1.477817726135253906e+01 8.808241039514541626e-02 7.556490898132324219e+00 2.293372154235839844e+00 2.190128862857818604e-01
1.671000000000000000e+03 2.289322471618652344e+01 -1.062629318237304688e+01 5.616192519664764404e-02 7.707611560821533203e+00 2.329132080078125000e+00 2.808445990085601807e-01
1.672000000000000000e+03 2.197492218017578125e+01 -2.802998352050781250e+01 2.706708014011383057e-02 7.341356277465820312e+00 2.210526943206787109e+00 1.782687902450561523e-01
1.673000000000000000e+03 2.190645599365234375e+01 -2.687318229675292969e+01 -5.506215244531631470e-02 7.265739440917968750e+00 2.163203239440917969e+00 1.848865300416946411e-01
1.674000000000000000e+03 1.117102813720703125e+01 -3.791906356811523438e+01 -1.394836008548736572e-01 6.179530620574951172e+00 1.812014102935791016e+00 2.389961034059524536e-01
1.675000000000000000e+03 1.060402870178222656e+01 2.090063667297363281e+01 2.182437628507614136e-01 6.887420177459716797e+00 2.131699085235595703e+00 1.144497916102409363e-01
1.676000000000000000e+03 1.139037990570068359e+01 3.346701431274414062e+01 7.405778020620346069e-02 5.536742210388183594e+00 1.683239936828613281e+00 -5.963329598307609558e-02
1.677000000000000000e+03 1.205263805389404297e+01 -1.180558967590332031e+01 -1.582446843385696411e-01 7.750676631927490234e+00 2.277729511260986328e+00 -1.583370566368103027e-01
1.678000000000000000e+03 2.406008148193359375e+01 -3.674805068969726562e+01 -9.714747220277786255e-02 6.979103088378906250e+00 2.064586639404296875e+00 -1.520350128412246704e-01
1.679000000000000000e+03 2.100754165649414062e+01 -3.814468765258789062e+01 -4.756031036376953125e-01 6.710870265960693359e+00 1.870580196380615234e+00 8.446904271841049194e-02
1.680000000000000000e+03 1.275232601165771484e+01 3.041032981872558594e+01 3.771428763866424561e-01 6.978919029235839844e+00 2.206818580627441406e+00 4.021939933300018311e-01
1.681000000000000000e+03 1.180213260650634766e+01 1.295241069793701172e+01 -8.391825854778289795e-02 7.916296482086181641e+00 2.349713563919067383e+00 1.937580108642578125e-01
1.682000000000000000e+03 1.084762477874755859e+01 -3.296301651000976562e+01 6.501635313034057617e-01 6.420644283294677734e+00 2.121242284774780273e+00 -2.239060699939727783e-01
1.683000000000000000e+03 1.262379264831542969e+01 2.897848892211914062e+01 4.213108718395233154e-01 7.289215564727783203e+00 2.313157796859741211e+00 4.607387483119964600e-01
1.684000000000000000e+03 2.281085968017578125e+01 -3.454666137695312500e+01 2.585726082324981689e-01 7.104637622833251953e+00 2.208963155746459961e+00 1.903050392866134644e-01
1.685000000000000000e+03 1.153993129730224609e+01 -1.287099647521972656e+01 -1.182089745998382568e-01 7.416262626647949219e+00 2.189415931701660156e+00 -8.007952570915222168e-02
1.686000000000000000e+03 1.252547168731689453e+01 -1.344867324829101562e+01 -4.869424924254417419e-02 8.113965034484863281e+00 2.419581174850463867e+00 -6.846904009580612183e-02
1.687000000000000000e+03 1.705980491638183594e+01 3.779684066772460938e+01 -3.572023212909698486e-01 4.400949954986572266e+00 1.213124275207519531e+00 1.256674885749816895e+00
1.688000000000000000e+03 1.495806980133056641e+01 4.077170562744140625e+01 -4.967949688434600830e-01 4.864610195159912109e+00 1.310344457626342773e+00 2.579887211322784424e-01
1.689000000000000000e+03 1.958233642578125000e+01 -4.028761291503906250e+01 -6.111912131309509277e-01 5.084325790405273438e+00 1.341940402984619141e+00 4.705170691013336182e-01
1.690000000000000000e+03 2.302757263183593750e+01 -4.121212768554687500e+01 -6.250633597373962402e-01 6.615182876586914062e+00 1.797035813331604004e+00 -2.414355613291263580e-02
1.691000000000000000e+03 1.193231678009033203e+01 1.412757205963134766e+01 -4.742259904742240906e-02 8.073470115661621094e+00 2.407814264297485352e+00 1.481765508651733398e-01
1.692000000000000000e+03 2.347443580627441406e+01 3.792798233032226562e+01 -6.447241455316543579e-02 7.806382656097412109e+00 2.322573184967041016e+00 3.720905184745788574e-01
1.693000000000000000e+03 4.563397407531738281e+00 2.723121643066406250e+00 4.183128178119659424e-01 4.140150845050811768e-01 2.496983706951141357e-01 7.588207721710205078e-02
1.694000000000000000e+03 5.903855323791503906e+00 2.030810356140136719e+00 6.040466427803039551e-01 5.977804660797119141e-01 3.605481386184692383e-01 -3.763990998268127441e-01
1.695000000000000000e+03 6.307156085968017578e+00 2.190880298614501953e+00 8.695441484451293945e-01 9.678004980087280273e-01 5.512033700942993164e-01 -7.511350512504577637e-01
1.696000000000000000e+03 7.083103656768798828e+00 -2.016325473785400391e+00 1.517799496650695801e+00 1.576607704162597656e+00 9.283221960067749023e-01 1.688996195793151855e+00
1.697000000000000000e+03 7.668152332305908203e+00 1.790438294410705566e+00 1.810674190521240234e+00 2.062826156616210938e+00 1.162050127983093262e+00 -2.271215915679931641e+00
1.698000000000000000e+03 5.661922931671142578e+00 -2.467731952667236328e+00 8.196754455566406250e-01 8.235702514648437500e-01 4.929737150669097900e-01 5.564159750938415527e-01
1.699000000000000000e+03 7.691439628601074219e+00 2.038502931594848633e+00 1.778123378753662109e+00 2.616851568222045898e+00 1.318492531776428223e+00 -2.504446744918823242e+00
1.700000000000000000e+03 5.234908580780029297e+00 -1.878688573837280273e+00 3.149426877498626709e-01 3.277828395366668701e-01 1.928176581859588623e-01 5.114724859595298767e-02
1.701000000000000000e+03 5.437861442565917969e+00 -2.135167360305786133e+00 5.633876323699951172e-01 5.042505860328674316e-01 3.202914595603942871e-01 2.747641205787658691e-01
1.702000000000000000e+03 8.501700401306152344e+00 2.120439052581787109e+00 1.722104549407958984e+00 5.804830551147460938e+00 2.258080482482910156e+00 -4.192687511444091797e+00
1.703000000000000000e+03 5.041013240814208984e+00 -2.222208261489868164e+00 4.265941381454467773e-01 4.362146258354187012e-01 2.588426172733306885e-01 9.917048364877700806e-02
1.704000000000000000e+03 8.978526115417480469e+00 1.964803695678710938e+00 1.599181532859802246e+00 8.358592987060546875e+00 2.987332582473754883e+00 -5.148586273193359375e+00
1.705000000000000000e+03 9.681365013122558594e+00 1.946166038513183594e+00 -1.626474037766456604e-02 1.419715785980224609e+01 4.254268169403076172e+00 -4.772975444793701172e+00
1.706000000000000000e+03 4.851491451263427734e+00 -2.046996593475341797e+00 3.038842082023620605e-01 3.073757886886596680e-01 1.833779960870742798e-01 -2.983694523572921753e-02
1.707000000000000000e+03 9.149905204772949219e+00 1.872969985008239746e+00 1.511792778968811035e+00 9.697002410888671875e+00 3.362638711929321289e+00 -5.516442775726318359e+00
1.708000000000000000e+03 8.292559623718261719e+00 -2.150555849075317383e+00 2.072677850723266602e+00 4.909339427947998047e+00 2.094605207443237305e+00 3.990538120269775391e+00
1.709000000000000000e+03 4.244363784790039062e+00 -7.292461872100830078e+00 1.256046742200851440e-01 1.853612065315246582e+00 5.937650203704833984e-01 4.680879414081573486e-01
1.710000000000000000e+03 1.014779090881347656e+01 2.070254325866699219e+00 -1.232742071151733398e+00 1.688034820556640625e+01 4.694282054901123047e+00 -2.702533483505249023e+00
1.711000000000000000e+03 4.371222496032714844e+00 -2.220868349075317383e+00 2.757820785045623779e-01 2.640185952186584473e-01 1.619402021169662476e-01 -1.360460817813873291e-01
1.712000000000000000e+03 3.813167572021484375e+00 -2.189790010452270508e+00 1.216245070099830627e-01 1.452108174562454224e-01 8.005060255527496338e-02 -2.570883035659790039e-01
1.713000000000000000e+03 3.101554870605468750e+00 -2.097820520401000977e+00 1.743000000715255737e-02 2.269767224788665771e-02 1.203830167651176453e-02 -3.849522769451141357e-01
1.714000000000000000e+03 5.263590335845947266e+00 2.283311843872070312e+00 4.385648369789123535e-01 4.818302989006042480e-01 2.761185467243194580e-01 -1.010714992880821228e-01
1.715000000000000000e+03 2.427927255630493164e+00 -1.969379901885986328e+00 -3.117279335856437683e-02 -8.364762365818023682e-02 -3.444612398743629456e-02 -3.980609178543090820e-01
1.716000000000000000e+03 4.459142684936523438e+00 2.298062086105346680e+00 2.082929760217666626e-01 2.589115798473358154e-01 1.401613652706146240e-01 2.057289034128189087e-01
1.717000000000000000e+03 4.110175609588623047e+00 2.159421920776367188e+00 8.688621968030929565e-02 1.474071145057678223e-01 7.028799504041671753e-02 3.260992765426635742e-01
1.718000000000000000e+03 8.937837600708007812e+00 2.436512947082519531e+00 6.588712334632873535e-01 8.474221229553222656e+00 2.739927768707275391e+00 -4.331110954284667969e+00
1.719000000000000000e+03 9.263242721557617188e+00 -2.430309772491455078e+00 3.259485065937042236e-01 1.043310260772705078e+01 3.227715253829956055e+00 4.604996204376220703e+00
1.720000000000000000e+03 1.232725715637207031e+01 8.805084973573684692e-02 6.638689994812011719e+00 9.592774391174316406e+00 4.869439601898193359e+00 6.473243236541748047e-01
1.721000000000000000e+03 1.247053527832031250e+01 3.713937997817993164e-01 5.484301090240478516e+00 9.213632583618164062e+00 4.409379959106445312e+00 1.436140060424804688e+00
1.722000000000000000e+03 1.281868076324462891e+01 2.102475762367248535e-01 4.955316543579101562e+00 7.328736782073974609e+00 3.685215950012207031e+00 8.360804915428161621e-01
1.723000000000000000e+03 1.181474018096923828e+01 -7.094770669937133789e-01 6.320792675018310547e+00 1.354903984069824219e+01 5.960949897766113281e+00 -2.977297544479370117e+00
1.724000000000000000e+03 1.225993537902832031e+01 1.180724740028381348e+00 3.558195829391479492e+00 1.090186882019042969e+01 4.338019371032714844e+00 3.720164299011230469e+00
1.725000000000000000e+03 1.152803802490234375e+01 -1.504573225975036621e+00 2.185745477676391602e+00 1.589213943481445312e+01 5.423365592956542969e+00 -3.904094457626342773e+00
1.726000000000000000e+03 1.220799732208251953e+01 -9.038155078887939453e-01 4.284435272216796875e+00 1.114319801330566406e+01 4.628290176391601562e+00 -3.236363887786865234e+00
1.727000000000000000e+03 1.206290245056152344e+01 3.347561120986938477e+00 -1.493438363075256348e+00 1.120256328582763672e+01 2.912737607955932617e+00 2.864215850830078125e+00
1.728000000000000000e+03 1.184135150909423828e+01 8.099209070205688477e-01 5.994341850280761719e+00 1.321639060974121094e+01 5.763219833374023438e+00 3.644366979598999023e+00
1.729000000000000000e+03 1.121974277496337891e+01 1.843904614448547363e+00 -4.733232036232948303e-02 1.681335639953613281e+01 5.029807090759277344e+00 2.775503396987915039e+00
1.730000000000000000e+03 2.664317846298217773e+00 2.113122463226318359e+00 -6.198568642139434814e-02 -8.066616952419281006e-02 -4.279555752873420715e-02 4.504876136779785156e-01
1.731000000000000000e+03 1.958904266357421875e+00 -2.615840911865234375e+00 8.306840807199478149e-02 -1.658883243799209595e-01 -2.484597265720367432e-02 -3.649796247482299805e-01
1.732000000000000000e+03 1.811595201492309570e+00 2.096478939056396484e+00 -4.176085814833641052e-02 -2.044165432453155518e-01 -7.385322451591491699e-02 4.065391123294830322e-01
1.733000000000000000e+03 2.081079006195068359e+00 1.949789285659790039e+00 -8.459680527448654175e-02 -1.544127017259597778e-01 -7.170285284519195557e-02 4.387849867343902588e-01
1.734000000000000000e+03 3.093052387237548828e+00 2.025312900543212891e+00 -5.227316170930862427e-02 6.046422757208347321e-03 -1.386802177876234055e-02 4.517919719219207764e-01
1.735000000000000000e+03 1.867532253265380859e+00 -4.738312721252441406e+00 1.434977054595947266e-01 -2.078088372945785522e-01 -1.929333806037902832e-02 -1.269409209489822388e-01
1.736000000000000000e+03 2.684547185897827148e+00 -1.997409462928771973e+00 -5.024984106421470642e-02 -5.787236988544464111e-02 -3.243666514754295349e-02 -4.081139564514160156e-01
1.737000000000000000e+03 1.141727256774902344e+01 9.553984999656677246e-01 5.290247917175292969e+00 1.690947341918945312e+01 6.659916400909423828e+00 4.234693527221679688e+00
1.738000000000000000e+03 8.040229678153991699e-01 2.919596433639526367e+00 2.397718839347362518e-02 -5.607725977897644043e-01 -1.610386371612548828e-01 2.395023852586746216e-01
1.739000000000000000e+03 2.430472612380981445e+00 2.139621973037719727e+00 -5.092691257596015930e-02 -9.658214449882507324e-02 -4.425271973013877869e-02 4.497871696949005127e-01
1.740000000000000000e+03 1.024280428886413574e+00 -3.804266214370727539e+00 4.527365043759346008e-02 -5.463504195213317871e-01 -1.503230184316635132e-01 -1.999725401401519775e-01
1.741000000000000000e+03 1.348726940155029297e+01 -7.931911945343017578e-01 1.558768630027770996e+00 3.613428115844726562e+00 1.551659107208251953e+00 -1.808147788047790527e+00
1.742000000000000000e+03 1.383174705505371094e+01 2.722568064928054810e-02 1.640506029129028320e+00 1.524664759635925293e+00 9.495512247085571289e-01 4.049563407897949219e-02
1.743000000000000000e+03 1.160878086090087891e+01 -3.002335929870605469e+01 -8.549576997756958008e-02 7.380616664886474609e+00 2.188536167144775391e+00 4.111099615693092346e-02
1.744000000000000000e+03 8.389123916625976562e+00 -3.464011764526367188e+01 3.381887376308441162e-01 4.765310287475585938e+00 1.531049728393554688e+00 3.235737085342407227e-01
1.745000000000000000e+03 1.333016204833984375e+01 2.019060611724853516e+00 2.431055307388305664e-01 5.851778984069824219e+00 1.828465342521667480e+00 3.484783887863159180e+00
1.746000000000000000e+03 1.286926364898681641e+01 1.521903753280639648e+00 1.256198644638061523e+00 7.986290454864501953e+00 2.772746562957763672e+00 3.695382356643676758e+00
1.747000000000000000e+03 1.228103637695312500e+01 2.942442178726196289e+00 -1.005235433578491211e+00 1.095182800292968750e+01 2.983977556228637695e+00 3.415565252304077148e+00
1.748000000000000000e+03 1.226065731048583984e+01 2.485490417480468750e+01 2.541721761226654053e-01 7.884447097778320312e+00 2.441585779190063477e+00 3.355454802513122559e-01
1.749000000000000000e+03 1.252450180053710938e+01 3.797363042831420898e+00 -1.257534861564636230e+00 9.446115493774414062e+00 2.456574440002441406e+00 3.015307664871215820e+00
1.750000000000000000e+03 1.806499361991882324e+00 5.538427829742431641e+00 9.032014757394790649e-02 -3.343146443367004395e-01 -7.319834083318710327e-02 1.035164967179298401e-01
1.751000000000000000e+03 1.273038196563720703e+01 -7.374891757965087891e+00 -5.921698808670043945e-01 8.078374862670898438e+00 2.245861530303955078e+00 -1.014971852302551270e+00
1.752000000000000000e+03 1.101259422302246094e+01 -2.328250646591186523e+00 -1.223480582237243652e+00 1.584001064300537109e+01 4.384959220886230469e+00 -1.185322165489196777e+00
1.753000000000000000e+03 2.218724441528320312e+01 -2.918540763854980469e+01 -2.664108527824282646e-03 7.330170154571533203e+00 2.198251724243164062e+00 1.795765757560729980e-01
1.754000000000000000e+03 9.600141525268554688e+00 2.220876932144165039e+00 -3.117173910140991211e-01 1.269287395477294922e+01 3.714347124099731445e+00 -4.233328819274902344e+00
1.755000000000000000e+03 2.318343925476074219e+01 -1.083020091056823730e+00 -6.157399155199527740e-03 7.906661033630371094e+00 2.370151042938232422e+00 2.678911685943603516e-01
1.756000000000000000e+03 2.465888404846191406e+01 1.460107922554016113e+00 5.462844669818878174e-02 8.040497779846191406e+00 2.428537845611572266e+00 1.469350308179855347e-01
1.757000000000000000e+03 2.421145248413085938e+01 -6.629805088043212891e+00 -5.637472122907638550e-02 7.760320186614990234e+00 2.311183691024780273e+00 2.484531998634338379e-01
1.758000000000000000e+03 2.547791290283203125e+01 -5.382649421691894531e+00 -5.287514254450798035e-02 7.808216094970703125e+00 2.326602458953857422e+00 1.983483135700225830e-01
1.759000000000000000e+03 2.371987152099609375e+01 -2.499726486206054688e+01 -4.278564080595970154e-02 7.310101032257080078e+00 2.180194616317749023e+00 2.015159726142883301e-01
1.760000000000000000e+03 2.412186622619628906e+01 -1.764094543457031250e+01 -7.288093119859695435e-02 7.476745605468750000e+00 2.221159458160400391e+00 1.668667048215866089e-01
1.761000000000000000e+03 2.415660095214843750e+01 -1.625399780273437500e+01 -7.373744156211614609e-03 7.516828536987304688e+00 2.252836465835571289e+00 1.466218233108520508e-01
1.762000000000000000e+03 1.038251876831054688e+01 1.222793388366699219e+01 -1.951098293066024780e-01 6.903116226196289062e+00 2.012401819229125977e+00 1.981059163808822632e-01
1.763000000000000000e+03 1.210473918914794922e+01 8.672030448913574219e+00 -4.556673765182495117e-01 8.091024398803710938e+00 2.290606975555419922e+00 6.590244174003601074e-01
1.764000000000000000e+03 2.424291801452636719e+01 -1.070834541320800781e+01 7.928685843944549561e-02 7.633848667144775391e+00 2.313940525054931641e+00 2.539163231849670410e-01
1.765000000000000000e+03 2.290524101257324219e+01 -9.242058753967285156e+00 3.421238809823989868e-02 7.671986579895019531e+00 2.311859607696533203e+00 2.688884735107421875e-01
1.766000000000000000e+03 2.410925865173339844e+01 -1.904157447814941406e+01 -7.784626632928848267e-02 7.423965454101562500e+00 2.203835725784301758e+00 1.648351550102233887e-01
1.767000000000000000e+03 1.139029026031494141e+01 -1.046219158172607422e+01 -3.203288912773132324e-01 7.430543899536132812e+00 2.133064508438110352e+00 -2.493657022714614868e-01
1.768000000000000000e+03 1.109280490875244141e+01 -1.142639636993408203e+01 -2.493834942579269409e-01 7.178618907928466797e+00 2.078770637512207031e+00 -1.406186223030090332e-01
1.769000000000000000e+03 2.446406364440917969e+01 -1.268670082092285156e+00 -2.173600532114505768e-02 7.930599212646484375e+00 2.372658967971801758e+00 1.986259073019027710e-01
1.770000000000000000e+03 1.064614772796630859e+01 -1.237147903442382812e+01 -1.942108720541000366e-01 6.848495960235595703e+00 1.996285438537597656e+00 -7.178226113319396973e-02
1.771000000000000000e+03 4.376461982727050781e+00 -2.339040565490722656e+01 3.044652286916971207e-03 2.442566394805908203e+00 7.336832880973815918e-01 6.162864342331886292e-02
1.772000000000000000e+03 3.136442422866821289e+00 -2.358702468872070312e+01 -5.214347969740629196e-03 1.601573586463928223e+00 4.789077937602996826e-01 5.678311362862586975e-02
1.773000000000000000e+03 4.565267562866210938e+00 -2.847342300415039062e+01 4.051826149225234985e-02 2.607698440551757812e+00 7.944650053977966309e-01 9.419767558574676514e-02
1.774000000000000000e+03 3.055875301361083984e+00 -1.827933692932128906e+01 -1.819344237446784973e-02 1.448086619377136230e+00 4.289679527282714844e-01 7.980994880199432373e-02
1.775000000000000000e+03 3.067832231521606445e+00 -1.962401390075683594e+01 9.444011375308036804e-04 1.492505073547363281e+00 4.480348229408264160e-01 6.866334378719329834e-02
1.776000000000000000e+03 4.471396923065185547e+00 -2.596868324279785156e+01 2.288223989307880402e-02 2.521604061126708984e+00 7.633458971977233887e-01 7.322926074266433716e-02
1.777000000000000000e+03 4.520527839660644531e+00 -2.722733879089355469e+01 1.690294407308101654e-02 2.557535409927368164e+00 7.723314762115478516e-01 8.705653250217437744e-02
1.778000000000000000e+03 8.722184181213378906e+00 -2.625630569458007812e+01 2.044642344117164612e-02 5.372679233551025391e+00 1.617937803268432617e+00 7.803872227668762207e-02
1.779000000000000000e+03 4.289779186248779297e+00 -1.819137001037597656e+01 -2.321911277249455452e-03 2.320432186126708984e+00 6.954330801963806152e-01 9.567381441593170166e-02
1.780000000000000000e+03 4.332936763763427734e+00 -2.210403442382812500e+01 -2.205571345984935760e-02 2.388678073883056641e+00 7.099866867065429688e-01 7.754141837358474731e-02
1.781000000000000000e+03 4.300424575805664062e+00 -2.082214355468750000e+01 -7.681840565055608749e-03 2.350552558898925781e+00 7.028611898422241211e-01 6.918276101350784302e-02
1.782000000000000000e+03 4.285593509674072266e+00 -1.952529525756835938e+01 -3.144445642828941345e-02 2.334234237670898438e+00 6.908369064331054688e-01 9.096807241439819336e-02
1.783000000000000000e+03 3.463124990463256836e+00 -3.136680221557617188e+01 6.185243278741836548e-02 1.948685526847839355e+00 6.031613945960998535e-01 1.494740396738052368e-01
1.784000000000000000e+03 2.748518466949462891e+00 -1.168802070617675781e+01 -4.309403896331787109e-02 1.014820575714111328e+00 2.915179431438446045e-01 1.790346503257751465e-01
1.785000000000000000e+03 4.035121917724609375e+00 -1.418512916564941406e+01 -6.405373662710189819e-02 2.089956998825073242e+00 6.077709197998046875e-01 1.440377682447433472e-01
1.786000000000000000e+03 3.639230966567993164e+00 -3.267493438720703125e+01 8.298018574714660645e-02 2.117736816406250000e+00 6.602150797843933105e-01 1.968237757682800293e-01
1.787000000000000000e+03 6.549117565155029297e+00 -3.284363174438476562e+01 1.942852437496185303e-01 3.751762151718139648e+00 1.183814287185668945e+00 2.025726288557052612e-01
1.788000000000000000e+03 5.835999488830566406e+00 -3.489497375488281250e+01 2.079489082098007202e-01 3.426826477050781250e+00 1.090432643890380859e+00 3.466709554195404053e-01
1.789000000000000000e+03 2.785058498382568359e+00 -1.297888565063476562e+01 -4.369574040174484253e-02 1.120463132858276367e+00 3.230302035808563232e-01 1.449572890996932983e-01
1.790000000000000000e+03 3.796900749206542969e+00 -1.174207210540771484e+01 -9.233223646879196167e-02 1.837774395942687988e+00 5.236326456069946289e-01 2.313397079706192017e-01
1.791000000000000000e+03 4.201641082763671875e+00 -1.549059677124023438e+01 -3.564688190817832947e-02 2.199279308319091797e+00 6.490896940231323242e-01 1.138101667165756226e-01
1.792000000000000000e+03 3.879255771636962891e+00 -1.293099975585937500e+01 -6.795959919691085815e-02 1.934696674346923828e+00 5.600211024284362793e-01 1.845724582672119141e-01
1.793000000000000000e+03 2.841620922088623047e+00 -6.326846122741699219e+00 1.756486743688583374e-01 5.622273683547973633e-01 2.213628143072128296e-01 1.618267446756362915e-01
1.794000000000000000e+03 2.574901819229125977e+00 -7.331238746643066406e+00 8.256319165229797363e-02 5.063198208808898926e-01 1.766649037599563599e-01 1.900281459093093872e-01
1.795000000000000000e+03 2.423195266723632812e+01 -5.290850639343261719e+00 -6.135924533009529114e-02 7.784514904022216797e+00 2.316946744918823242e+00 2.252219617366790771e-01
1.796000000000000000e+03 8.098870277404785156e+00 2.112409400939941406e+01 1.713245660066604614e-01 4.852094650268554688e+00 1.507025718688964844e+00 9.301250975113362074e-05
1.797000000000000000e+03 2.730673789978027344e+01 3.060588836669921875e+01 2.043664455413818359e-01 7.999957084655761719e+00 2.461297035217285156e+00 -9.029479324817657471e-02
1.798000000000000000e+03 1.204826831817626953e+01 2.214204406738281250e+01 2.392543405294418335e-01 8.004063606262207031e+00 2.472995281219482422e+00 2.116422504186630249e-01
1.799000000000000000e+03 1.191073799133300781e+01 2.077250671386718750e+01 2.312230169773101807e-01 7.936438083648681641e+00 2.450298309326171875e+00 2.131058573722839355e-01
1.800000000000000000e+03 2.487392044067382812e+01 1.119897556304931641e+01 6.263837963342666626e-02 8.217467308044433594e+00 2.484031677246093750e+00 8.987384289503097534e-02
1.801000000000000000e+03 2.358895301818847656e+01 9.993516921997070312e+00 5.499093234539031982e-02 8.287484169006347656e+00 2.502742767333984375e+00 1.013971790671348572e-01
1.802000000000000000e+03 2.565941047668457031e+01 3.081510162353515625e+01 2.295656055212020874e-01 8.125270843505859375e+00 2.506450891494750977e+00 -1.914491206407546997e-01
1.803000000000000000e+03 2.364468765258789062e+01 1.552288913726806641e+01 2.363346144556999207e-02 8.220615386962890625e+00 2.473274707794189453e+00 2.388082444667816162e-02
1.804000000000000000e+03 5.606952667236328125e+00 -2.318066215515136719e+01 -1.696379855275154114e-02 3.259726047515869141e+00 9.728286862373352051e-01 8.881108462810516357e-02
1.805000000000000000e+03 1.057952022552490234e+01 -2.723699378967285156e+01 -4.292428493499755859e-03 6.613054275512695312e+00 1.982628583908081055e+00 5.945916846394538879e-02
1.806000000000000000e+03 2.505074882507324219e+01 1.668634986877441406e+01 3.336912393569946289e-02 8.188310623168945312e+00 2.466503858566284180e+00 1.839815638959407806e-02
1.807000000000000000e+03 1.262345981597900391e+01 -1.203872859477996826e-01 5.351490497589111328e+00 8.354246139526367188e+00 4.111721038818359375e+00 6.267189234495162964e-02
1.808000000000000000e+03 1.322105979919433594e+01 1.238489672541618347e-01 3.467162132263183594e+00 5.546786308288574219e+00 2.704184532165527344e+00 3.388800919055938721e-01
1.809000000000000000e+03 2.493488883972167969e+01 1.394718551635742188e+01 4.126248881220817566e-02 8.199333190917968750e+00 2.472178697586059570e+00 4.840417578816413879e-02
1.810000000000000000e+03 2.655184364318847656e+01 1.649974060058593750e+01 3.311700001358985901e-02 8.146697998046875000e+00 2.453944444656372070e+00 3.024974092841148376e-02
1.811000000000000000e+03 2.487099075317382812e+01 9.821347236633300781e+00 6.651654839515686035e-02 8.217141151428222656e+00 2.485097169876098633e+00 1.146712675690650940e-01
1.812000000000000000e+03 2.489206886291503906e+01 1.257020187377929688e+01 3.358300402760505676e-02 8.205888748168945312e+00 2.471841335296630859e+00 7.046225666999816895e-02
1.813000000000000000e+03 2.553753852844238281e+01 2.923210906982421875e+01 1.142192035913467407e-01 8.152371406555175781e+00 2.479977369308471680e+00 -1.236599683761596680e-01
1.814000000000000000e+03 2.503227996826171875e+01 2.084174919128417969e+01 1.529196556657552719e-02 8.180401802062988281e+00 2.458708047866821289e+00 -9.624160826206207275e-03
1.815000000000000000e+03 2.504995155334472656e+01 1.805347061157226562e+01 1.403949968516826630e-02 8.181328773498535156e+00 2.458610296249389648e+00 1.521603856235742569e-02
1.816000000000000000e+03 2.650244522094726562e+01 2.202444648742675781e+01 3.769426792860031128e-02 8.144249916076660156e+00 2.454583168029785156e+00 -2.158741280436515808e-02
1.817000000000000000e+03 2.519179344177246094e+01 2.496433830261230469e+01 5.983196571469306946e-02 8.197587966918945312e+00 2.477226018905639648e+00 -7.616978138685226440e-02
1.818000000000000000e+03 6.911328792572021484e+00 -1.694512176513671875e+01 -6.569453328847885132e-02 4.132467269897460938e+00 1.220031857490539551e+00 1.187714710831642151e-01
1.819000000000000000e+03 2.509913063049316406e+01 2.221760749816894531e+01 3.925295174121856689e-02 8.190980911254882812e+00 2.469070196151733398e+00 -3.809704259037971497e-02
1.820000000000000000e+03 2.515450859069824219e+01 2.358875083923339844e+01 2.224837988615036011e-02 8.185759544372558594e+00 2.462402343750000000e+00 -3.485679253935813904e-02
1.821000000000000000e+03 2.487600517272949219e+01 8.441162109375000000e+00 1.145761236548423767e-01 8.220129966735839844e+00 2.500411987304687500e+00 1.469438076019287109e-01
1.822000000000000000e+03 1.262216472625732422e+01 -8.420409202575683594e+00 -4.027272164821624756e-01 8.038438796997070312e+00 2.290713548660278320e+00 -6.625295281410217285e-01
1.823000000000000000e+03 1.155829715728759766e+01 -9.480345726013183594e+00 -4.191206395626068115e-01 7.591711521148681641e+00 2.151777267456054688e+00 -3.891122639179229736e-01
1.824000000000000000e+03 2.482023429870605469e+01 4.272830963134765625e+00 1.705934405326843262e-01 8.101195335388183594e+00 2.481536626815795898e+00 1.343604624271392822e-01
1.825000000000000000e+03 2.312380027770996094e+01 -2.598072814941406250e+01 -5.316933244466781616e-02 7.296515464782714844e+00 2.173003911972045898e+00 1.821208745241165161e-01
1.826000000000000000e+03 1.119878196716308594e+01 2.757043838500976562e+01 3.531026542186737061e-01 6.584837913513183594e+00 2.081382274627685547e+00 1.824947744607925415e-01
1.827000000000000000e+03 1.318678283691406250e+01 -2.754264068603515625e+01 3.068244643509387970e-02 8.235435485839843750e+00 2.479835510253906250e+00 4.497366398572921753e-02
1.828000000000000000e+03 7.521092987060546875e+01 1.404839706420898438e+01 2.923132851719856262e-03 7.649376869201660156e+00 2.295690059661865234e+00 -2.093702927231788635e-02
1.829000000000000000e+03 7.546584320068359375e+01 4.920640289783477783e-01 1.286237733438611031e-03 7.717103004455566406e+00 2.315516710281372070e+00 -3.456242382526397705e-02
1.830000000000000000e+03 7.404531097412109375e+01 -4.883638858795166016e+00 2.987643005326390266e-03 7.753099918365478516e+00 2.326826095581054688e+00 -4.762324318289756775e-02
1.831000000000000000e+03 7.398712921142578125e+01 -7.635609149932861328e+00 2.383203245699405670e-03 7.770630836486816406e+00 2.331904172897338867e+00 -4.949055612087249756e-02
1.832000000000000000e+03 7.506938171386718750e+01 -1.535256481170654297e+01 -1.645737938815727830e-04 7.827167987823486328e+00 2.348101139068603516e+00 -4.136849567294120789e-02
1.833000000000000000e+03 7.534455871582031250e+01 -6.437660217285156250e+00 2.113062189891934395e-03 7.764059543609619141e+00 2.329851627349853516e+00 -3.977502882480621338e-02
1.834000000000000000e+03 7.538848114013671875e+01 -2.271007776260375977e+00 9.476034902036190033e-04 7.735146522521972656e+00 2.320828199386596680e+00 -3.696605935692787170e-02
1.835000000000000000e+03 7.404753112792968750e+01 -3.498324632644653320e+00 1.635743305087089539e-03 7.744149684906005859e+00 2.323735713958740234e+00 -4.642629623413085938e-02
1.836000000000000000e+03 7.500942230224609375e+01 -1.073364925384521484e+01 -1.028236234560608864e-03 7.793760776519775391e+00 2.337819576263427734e+00 -4.315510019659996033e-02
1.837000000000000000e+03 7.477399444580078125e+01 -1.225763797760009766e+01 1.221324666403234005e-03 7.803703308105468750e+00 2.341477394104003906e+00 -4.472876712679862976e-02
1.838000000000000000e+03 7.518511962890625000e+01 -9.270627021789550781e+00 1.801208127290010452e-03 7.783842563629150391e+00 2.335693120956420898e+00 -4.175866022706031799e-02
1.839000000000000000e+03 7.677058410644531250e+01 1.712177872657775879e+00 5.130014033056795597e-04 7.705101013183593750e+00 2.311684131622314453e+00 -2.502600289881229401e-02
1.840000000000000000e+03 7.553335571289062500e+01 1.849643230438232422e+00 3.024850506335496902e-03 7.708383083343505859e+00 2.313422441482543945e+00 -3.302825987339019775e-02
1.841000000000000000e+03 7.551648712158203125e+01 7.148791313171386719e+00 3.221549326553940773e-03 7.678098201751708984e+00 2.304395914077758789e+00 -2.768979035317897797e-02
1.842000000000000000e+03 7.324175262451171875e+01 3.247689819335937500e+01 3.091333899646997452e-03 7.631487846374511719e+00 2.290373802185058594e+00 -4.978852346539497375e-03
1.843000000000000000e+03 7.488376617431640625e+01 3.088903617858886719e+01 2.659517340362071991e-03 7.616201877593994141e+00 2.285658359527587891e+00 -4.957335069775581360e-03
1.844000000000000000e+03 7.519029998779296875e+01 -1.821519088745117188e+01 -9.610668057575821877e-04 7.847445487976074219e+00 2.353945255279541016e+00 -3.895609453320503235e-02
1.845000000000000000e+03 7.508408355712890625e+01 -2.256092834472656250e+01 -3.758917562663555145e-03 7.874155044555664062e+00 2.361118793487548828e+00 -3.702642023563385010e-02
1.846000000000000000e+03 7.438404846191406250e+01 3.278709650039672852e+00 4.415212664753198624e-03 7.703412055969238281e+00 2.312348127365112305e+00 -3.829102590680122375e-02
1.847000000000000000e+03 7.557476806640625000e+01 3.187164068222045898e+00 1.661431277170777321e-03 7.699879646301269531e+00 2.310462474822998047e+00 -3.137741610407829285e-02
1.848000000000000000e+03 7.673679351806640625e+01 8.513695716857910156e+00 2.082813065499067307e-03 7.663966178894042969e+00 2.299814701080322266e+00 -2.000589482486248016e-02
1.849000000000000000e+03 7.537738037109375000e+01 9.864466667175292969e+00 3.503468586131930351e-03 7.665623188018798828e+00 2.300738096237182617e+00 -2.540955320000648499e-02
1.850000000000000000e+03 7.517990875244140625e+01 -1.679505729675292969e+01 -2.236975822597742081e-03 7.837549686431884766e+00 2.350593805313110352e+00 -4.117878898978233337e-02
1.851000000000000000e+03 7.515518951416015625e+01 -1.965001106262207031e+01 -2.994559006765484810e-03 7.856299400329589844e+00 2.355991363525390625e+00 -3.939799964427947998e-02
1.852000000000000000e+03 7.653800964355468750e+01 -1.816363525390625000e+01 -1.781939296051859856e-03 7.856406688690185547e+00 2.356387376785278320e+00 -3.059661760926246643e-02
1.853000000000000000e+03 7.527291870117187500e+01 1.126414775848388672e+01 2.746186451986432076e-03 7.659587383270263672e+00 2.298700094223022461e+00 -2.402371354401111603e-02
1.854000000000000000e+03 7.408235931396484375e+01 9.760159492492675781e+00 3.956562373787164688e-03 7.673272132873535156e+00 2.303168535232543945e+00 -3.111790493130683899e-02
1.855000000000000000e+03 7.534367370605468750e+01 -2.867715644836425781e+01 -1.992388861253857613e-03 7.910906314849853516e+00 2.372674226760864258e+00 -2.650126069784164429e-02
1.856000000000000000e+03 7.365112304687500000e+01 -2.269362449645996094e+01 -4.312614444643259048e-03 7.862670898437500000e+00 2.357507467269897461e+00 -4.405532404780387878e-02
1.857000000000000000e+03 7.653588104248046875e+01 1.682968330383300781e+01 1.867467421106994152e-03 7.629113197326660156e+00 2.289294242858886719e+00 -1.314414292573928833e-02
1.858000000000000000e+03 7.505578613281250000e+01 1.823781013488769531e+01 3.072605235502123833e-03 7.636291503906250000e+00 2.291809082031250000e+00 -1.640361174941062927e-02
1.859000000000000000e+03 7.512283325195312500e+01 2.101168060302734375e+01 3.335355548188090324e-03 7.629285335540771484e+00 2.289786338806152344e+00 -1.287749130278825760e-02
1.860000000000000000e+03 7.511049652099609375e+01 1.962851715087890625e+01 3.204568987712264061e-03 7.632476329803466797e+00 2.290704250335693359e+00 -1.456081680953502655e-02
1.861000000000000000e+03 7.360403442382812500e+01 1.673024177551269531e+01 5.368407350033521652e-03 7.651511669158935547e+00 2.297064065933227539e+00 -2.249708026647567749e-02
1.862000000000000000e+03 7.528890228271484375e+01 -2.536528205871582031e+01 -3.050053957849740982e-03 7.893157958984375000e+00 2.367032527923583984e+00 -3.141669929027557373e-02
1.863000000000000000e+03 7.667236328125000000e+01 -2.513932800292968750e+01 -7.105746772140264511e-04 7.905489444732666016e+00 2.371433734893798828e+00 -2.373491413891315460e-02
1.864000000000000000e+03 7.449541473388671875e+01 -2.706422805786132812e+01 -3.821082646027207375e-03 7.892669677734375000e+00 2.366654634475708008e+00 -3.379753977060317993e-02
1.865000000000000000e+03 7.309667968750000000e+01 2.701127624511718750e+01 3.695501247420907021e-03 7.636230945587158203e+00 2.291977882385253906e+00 -1.008909568190574646e-02
1.866000000000000000e+03 7.340421295166015625e+01 2.382743072509765625e+01 3.821506397798657417e-03 7.637494087219238281e+00 2.292394638061523438e+00 -1.255651656538248062e-02
1.867000000000000000e+03 7.631455993652343750e+01 2.677428245544433594e+01 1.050069811753928661e-03 7.607530117034912109e+00 2.282574176788330078e+00 -6.078084465116262436e-03
1.868000000000000000e+03 7.472056579589843750e+01 2.698364830017089844e+01 2.617659745737910271e-03 7.622596263885498047e+00 2.287564277648925781e+00 -8.224911056458950043e-03
1.869000000000000000e+03 7.642391204833984375e+01 2.954041099548339844e+01 1.702559064142405987e-03 7.603171348571777344e+00 2.281462192535400391e+00 -4.010509699583053589e-03
1.870000000000000000e+03 7.494203186035156250e+01 2.837304115295410156e+01 3.107143333181738853e-03 7.618995189666748047e+00 2.286630630493164062e+00 -6.912496872246265411e-03
1.871000000000000000e+03 7.268050384521484375e+01 -2.990698242187500000e+01 -9.591284207999706268e-03 7.885709762573242188e+00 2.362835645675659180e+00 -3.602723404765129089e-02
1.872000000000000000e+03 7.358589935302734375e+01 -3.510556793212890625e+01 -8.146341890096664429e-03 7.912069797515869141e+00 2.371176958084106445e+00 -1.821197383105754852e-02
1.873000000000000000e+03 7.516369628906250000e+01 3.336038208007812500e+01 1.058296649716794491e-03 7.610445499420166016e+00 2.283451080322265625e+00 -2.872783690690994263e-03
1.874000000000000000e+03 7.508686065673828125e+01 2.957431602478027344e+01 2.118679694831371307e-03 7.615554332733154297e+00 2.285301923751831055e+00 -6.026352290064096451e-03
1.875000000000000000e+03 7.645542144775390625e+01 -3.161018180847167969e+01 -5.250995513051748276e-03 7.936774253845214844e+00 2.379456996917724609e+00 -1.723508350551128387e-02
1.876000000000000000e+03 7.520610046386718750e+01 -2.998604393005371094e+01 -6.569292396306991577e-03 7.913269519805908203e+00 2.372010231018066406e+00 -2.569738402962684631e-02
1.877000000000000000e+03 7.500295257568359375e+01 -3.459505462646484375e+01 -7.485135924071073532e-03 7.929821968078613281e+00 2.376701116561889648e+00 -1.837837696075439453e-02
1.878000000000000000e+03 2.351407051086425781e+01 4.451588630676269531e+00 2.162147760391235352e-01 8.218689918518066406e+00 2.530471324920654297e+00 1.763851493597030640e-01
1.879000000000000000e+03 2.486463165283203125e+01 5.675201416015625000e+00 1.877667903900146484e-01 8.156084060668945312e+00 2.503155231475830078e+00 1.524819731712341309e-01
1.880000000000000000e+03 1.060583591461181641e+01 1.320512676239013672e+01 -1.270305663347244263e-01 7.010694503784179688e+00 2.065099239349365234e+00 1.888496577739715576e-01
1.881000000000000000e+03 2.448741912841796875e+01 -3.083276557922363281e+01 9.461970627307891846e-02 7.209731101989746094e+00 2.191305160522460938e+00 1.730388253927230835e-01
1.882000000000000000e+03 2.338206100463867188e+01 -2.884308624267578125e+01 3.719774633646011353e-02 7.355401039123535156e+00 2.217779636383056641e+00 2.141134440898895264e-01
1.883000000000000000e+03 4.446030616760253906e+00 2.204775619506835938e+01 7.523814588785171509e-02 2.048623561859130859e+00 6.371585130691528320e-01 -1.058686748147010803e-01
1.884000000000000000e+03 5.688417911529541016e+00 2.344875717163085938e+01 1.424913555383682251e-01 2.942978858947753906e+00 9.256411194801330566e-01 -1.452764868736267090e-01
1.885000000000000000e+03 5.690641403198242188e+00 2.610113906860351562e+01 1.401615738868713379e-01 2.860066175460815430e+00 9.000683426856994629e-01 -2.607469558715820312e-01
1.886000000000000000e+03 3.208876371383666992e+00 2.610691070556640625e+01 4.317214712500572205e-02 1.244763970375061035e+00 3.863808512687683105e-01 -2.267627269029617310e-01
1.887000000000000000e+03 4.690793514251708984e+00 2.882569313049316406e+01 9.664638340473175049e-02 2.300951957702636719e+00 7.192795276641845703e-01 -3.634426593780517578e-01
1.888000000000000000e+03 3.281038284301757812e+00 1.918471527099609375e+01 4.685937240719795227e-02 1.165988683700561523e+00 3.638544082641601562e-01 -4.018688946962356567e-02
1.889000000000000000e+03 4.438794136047363281e+00 2.473432350158691406e+01 9.529358893632888794e-02 2.031435251235961914e+00 6.380186676979064941e-01 -2.135089933872222900e-01
1.890000000000000000e+03 4.436175346374511719e+00 2.338890266418457031e+01 1.068712994456291199e-01 2.030893325805664062e+00 6.413294076919555664e-01 -1.487031877040863037e-01
1.891000000000000000e+03 4.693438529968261719e+00 1.777322387695312500e+01 4.164161160588264465e-02 2.275022506713867188e+00 6.949992775917053223e-01 -3.275359515100717545e-03
1.892000000000000000e+03 4.582653045654296875e+00 1.927728652954101562e+01 5.760947614908218384e-02 2.170455932617187500e+00 6.684195995330810547e-01 -4.304807633161544800e-02
1.893000000000000000e+03 5.233445644378662109e+00 3.515213012695312500e+01 -9.987931698560714722e-02 2.679668664932250977e+00 7.739367485046386719e-01 -4.009457230567932129e-01
1.894000000000000000e+03 3.800977945327758789e+00 1.016277885437011719e+01 -3.523805364966392517e-02 1.548364639282226562e+00 4.539379775524139404e-01 -1.127788648009300232e-01
1.895000000000000000e+03 4.463404655456542969e+00 1.339465522766113281e+01 -6.982003897428512573e-02 2.061265468597412109e+00 5.974335670471191406e-01 -2.495872788131237030e-02
1.896000000000000000e+03 6.772366046905517578e+00 2.959648895263671875e+01 1.327933967113494873e-01 3.495794057846069336e+00 1.088576197624206543e+00 -3.658981621265411377e-01
1.897000000000000000e+03 6.080868721008300781e+00 1.131743812561035156e+01 -1.415172219276428223e-01 3.444047927856445312e+00 9.907592535018920898e-01 -9.369985759258270264e-02
1.898000000000000000e+03 2.318233728408813477e+00 8.066888809204101562e+00 4.087011888623237610e-02 1.878963857889175415e-01 6.862995028495788574e-02 -8.666868507862091064e-02
1.899000000000000000e+03 4.525911808013916016e+00 9.602078437805175781e+00 -4.913924634456634521e-02 2.238596916198730469e+00 6.568373441696166992e-01 -2.152084857225418091e-01
1.900000000000000000e+03 2.344449281692504883e+00 6.946302890777587891e+00 1.144510135054588318e-01 1.407389193773269653e-01 7.655698060989379883e-02 -2.862859703600406647e-02
1.901000000000000000e+03 3.838418245315551758e+00 7.210944175720214844e+00 1.289294809103012085e-01 1.303743243217468262e+00 4.298018217086791992e-01 -1.966282278299331665e-01
1.902000000000000000e+03 3.127681016921997070e+00 7.118784904479980469e+00 1.417926996946334839e-01 7.231908440589904785e-01 2.594950795173645020e-01 -1.169343441724777222e-01
1.903000000000000000e+03 2.428429412841796875e+01 -3.948251008987426758e+00 -6.138673424720764160e-02 7.829909801483154297e+00 2.330556869506835938e+00 2.090828120708465576e-01
1.904000000000000000e+03 2.436582565307617188e+01 -2.608212709426879883e+00 -2.545076049864292145e-02 7.857513427734375000e+00 2.349618673324584961e+00 1.971267014741897583e-01
1.905000000000000000e+03 8.515882492065429688e+00 3.898997497558593750e+01 -4.229935705661773682e-01 3.960370540618896484e+00 1.061213016510009766e+00 -2.446074932813644409e-01
1.906000000000000000e+03 2.554685783386230469e+01 -1.910017013549804688e+01 -1.020408347249031067e-01 7.483850479125976562e+00 2.214542865753173828e+00 1.383389979600906372e-01
1.907000000000000000e+03 2.424803352355957031e+01 -1.209204292297363281e+01 8.134215325117111206e-02 7.615174293518066406e+00 2.308954954147338867e+00 2.175694257020950317e-01
1.908000000000000000e+03 2.423049163818359375e+01 -9.328252792358398438e+00 1.492952834814786911e-02 7.698916912078857422e+00 2.314153909683227539e+00 2.664020359516143799e-01
1.909000000000000000e+03 1.196511459350585938e+01 1.534195995330810547e+01 -6.837495602667331696e-03 8.103350639343261719e+00 2.428953886032104492e+00 1.353549659252166748e-01
1.910000000000000000e+03 2.456372070312500000e+01 8.278010785579681396e-02 1.577938906848430634e-02 7.991220951080322266e+00 2.402100086212158203e+00 1.621423363685607910e-01
1.911000000000000000e+03 2.487933540344238281e+01 7.063055992126464844e+00 1.487640738487243652e-01 8.175706863403320312e+00 2.497341156005859375e+00 1.598259508609771729e-01
1.912000000000000000e+03 2.474756240844726562e+01 2.862240076065063477e+00 1.240821257233619690e-01 8.091169357299804688e+00 2.464575529098510742e+00 1.198595389723777771e-01
1.913000000000000000e+03 2.598407745361328125e+01 1.261026263236999512e+00 7.182081043720245361e-02 7.995717048645019531e+00 2.420261383056640625e+00 9.871288388967514038e-02
1.914000000000000000e+03 2.420238304138183594e+01 -1.486433792114257812e+01 4.925560578703880310e-02 7.524739265441894531e+00 2.272198438644409180e+00 1.549302190542221069e-01
1.915000000000000000e+03 2.423620605468750000e+01 -1.347541427612304688e+01 9.541428834199905396e-02 7.567785263061523438e+00 2.298959970474243164e+00 2.039720714092254639e-01
1.916000000000000000e+03 9.433075904846191406e+00 3.491828918457031250e+01 -1.371441781520843506e-01 4.578732967376708984e+00 1.332476735115051270e+00 -3.256300389766693115e-01
1.917000000000000000e+03 1.075906276702880859e+01 2.220323371887207031e+01 2.581029832363128662e-01 6.903847694396972656e+00 2.148585319519042969e+00 1.391127407550811768e-01
1.918000000000000000e+03 1.144248867034912109e+01 9.433489799499511719e+00 -4.393134117126464844e-01 7.787515640258789062e+00 2.204460620880126953e+00 4.647009074687957764e-01
1.919000000000000000e+03 1.113267517089843750e+01 1.088515663146972656e+01 -2.677935957908630371e-01 7.510817050933837891e+00 2.172907114028930664e+00 2.954410314559936523e-01
1.920000000000000000e+03 2.381822967529296875e+01 -2.660995674133300781e+01 -1.824815571308135986e-02 7.277736663818359375e+00 2.177846670150756836e+00 2.183398455381393433e-01
1.921000000000000000e+03 2.294052886962890625e+01 -2.687400817871093750e+01 -2.408966794610023499e-02 7.346385002136230469e+00 2.196688652038574219e+00 1.926497071981430054e-01
1.922000000000000000e+03 7.600945281982421875e+01 4.059507751464843750e+01 -3.838983247987926006e-04 7.594511508941650391e+00 2.278238296508789062e+00 -3.772458760067820549e-03
1.923000000000000000e+03 2.607293891906738281e+01 -3.152197074890136719e+01 1.100412458181381226e-01 7.224001884460449219e+00 2.200212955474853516e+00 1.104214563965797424e-01
1.924000000000000000e+03 1.173046016693115234e+01 -1.450243568420410156e+01 -7.285266369581222534e-02 7.502093791961669922e+00 2.228772401809692383e+00 -2.905772626399993896e-02
1.925000000000000000e+03 1.082353591918945312e+01 -2.374573516845703125e+01 -2.820162288844585419e-02 6.823431968688964844e+00 2.038568973541259766e+00 9.632140398025512695e-02
1.926000000000000000e+03 1.287664794921875000e+01 3.191810226440429688e+01 2.618987858295440674e-01 6.650738239288330078e+00 2.073791027069091797e+00 3.726858794689178467e-01
1.927000000000000000e+03 7.680905818939208984e+00 3.430084609985351562e+01 -8.443883061408996582e-02 3.845619678497314453e+00 1.128354310989379883e+00 -4.298132359981536865e-01
1.928000000000000000e+03 9.523404121398925781e+00 1.537415409088134766e+01 4.336019512265920639e-03 6.098945617675781250e+00 1.830984473228454590e+00 1.436417847871780396e-01
1.929000000000000000e+03 1.102171897888183594e+01 -1.553278255462646484e+01 -9.673669934272766113e-02 6.968509197235107422e+00 2.061531782150268555e+00 -1.256062998436391354e-03
1.930000000000000000e+03 1.117863273620605469e+01 -1.732711982727050781e+01 -3.707346692681312561e-02 7.158209800720214844e+00 2.136340856552124023e+00 2.746521122753620148e-02
1.931000000000000000e+03 1.236984729766845703e+01 2.621920394897460938e+01 3.084482550621032715e-01 7.752230167388916016e+00 2.418203592300415039e+00 4.038191735744476318e-01
1.932000000000000000e+03 1.086639785766601562e+01 2.351824188232421875e+01 2.573060095310211182e-01 6.899904727935791016e+00 2.147163152694702148e+00 1.326385885477066040e-01
1.933000000000000000e+03 8.565439224243164062e+00 -3.874794006347656250e+01 -3.636505305767059326e-01 4.807343006134033203e+00 1.333107709884643555e+00 5.821732878684997559e-01
1.934000000000000000e+03 1.394877719879150391e+01 3.897745895385742188e+01 -5.212602615356445312e-01 5.302530765533447266e+00 1.434381127357482910e+00 2.395163774490356445e-01
1.935000000000000000e+03 4.712599277496337891e+00 2.157240152359008789e+00 2.046520709991455078e-01 2.658673226833343506e-01 1.411558240652084351e-01 1.631165295839309692e-01
1.936000000000000000e+03 7.919521331787109375e+00 -1.652415156364440918e+00 2.359922885894775391e+00 2.456830739974975586e+00 1.445026159286499023e+00 2.851863384246826172e+00
1.937000000000000000e+03 4.639755249023437500e+00 -2.151813745498657227e+00 3.210742175579071045e-01 3.036613464355468750e-01 1.874206662178039551e-01 -6.508387625217437744e-02
1.938000000000000000e+03 4.506310462951660156e+00 -2.656590700149536133e+00 4.455532133579254150e-01 4.477139413356781006e-01 2.679801583290100098e-01 2.397087961435317993e-02
1.939000000000000000e+03 5.041595935821533203e+00 -1.965443134307861328e+00 3.217249512672424316e-01 3.276895880699157715e-01 1.948243528604507446e-01 1.481838617473840714e-02
1.940000000000000000e+03 5.240542411804199219e+00 -2.818815946578979492e+00 7.202816605567932129e-01 8.217771649360656738e-01 4.626176357269287109e-01 4.090713560581207275e-01
1.941000000000000000e+03 8.160744667053222656e+00 2.427174091339111328e+00 1.491006731986999512e+00 4.740440845489501953e+00 1.869434356689453125e+00 -3.457636833190917969e+00
1.942000000000000000e+03 8.429820060729980469e+00 2.532132863998413086e+00 1.196307063102722168e+00 6.077025413513183594e+00 2.181999683380126953e+00 -3.812526941299438477e+00
1.943000000000000000e+03 6.115099430084228516e+00 -2.187833070755004883e+00 9.225946664810180664e-01 8.408281207084655762e-01 5.290268063545227051e-01 7.367185354232788086e-01
1.944000000000000000e+03 7.144543170928955078e+00 2.296169519424438477e+00 1.371370196342468262e+00 2.018960714340209961e+00 1.017099261283874512e+00 -1.781706690788269043e+00
1.945000000000000000e+03 6.313440799713134766e+00 -2.146944999694824219e+00 1.024827003479003906e+00 9.859833717346191406e-01 6.032431125640869141e-01 8.747256994247436523e-01
1.946000000000000000e+03 6.484287738800048828e+00 -2.119104623794555664e+00 1.163641929626464844e+00 1.060087800025939941e+00 6.671189069747924805e-01 1.062855243682861328e+00
1.947000000000000000e+03 7.514452457427978516e+00 -2.661039590835571289e+00 1.451499938964843750e+00 3.384344577789306641e+00 1.450753331184387207e+00 2.639427423477172852e+00
1.948000000000000000e+03 7.575832843780517578e+00 -2.381497859954833984e+00 1.786222100257873535e+00 3.035399675369262695e+00 1.446486592292785645e+00 2.715247631072998047e+00
1.949000000000000000e+03 3.257858276367187500e+00 6.285149097442626953e+00 2.035391479730606079e-01 6.938188672065734863e-01 2.692074179649353027e-01 -9.706632047891616821e-02
1.950000000000000000e+03 6.623503684997558594e+00 2.550060272216796875e+00 1.119792103767395020e+00 1.661461353302001953e+00 8.343760371208190918e-01 -1.277154803276062012e+00
1.951000000000000000e+03 7.921550273895263672e+00 -2.198503732681274414e+00 2.005149126052856445e+00 3.652626276016235352e+00 1.697332620620727539e+00 3.292602539062500000e+00
1.952000000000000000e+03 7.350373268127441406e+00 -2.437131643295288086e+00 1.639301061630249023e+00 2.631559610366821289e+00 1.281258225440979004e+00 2.344713211059570312e+00
1.953000000000000000e+03 5.598276138305664062e+00 2.115068435668945312e+00 4.875389039516448975e-01 5.415828227996826172e-01 3.087365031242370605e-01 -2.262068986892700195e-01
1.954000000000000000e+03 5.240209102630615234e+00 2.736753463745117188e+00 6.256933212280273438e-01 7.033305764198303223e-01 3.987071812152862549e-01 -2.484383285045623779e-01
1.955000000000000000e+03 5.433365821838378906e+00 2.167244195938110352e+00 4.338741898536682129e-01 5.088511705398559570e-01 2.828176021575927734e-01 -1.379742324352264404e-01
1.956000000000000000e+03 9.136242866516113281e+00 -2.098932981491088867e+00 1.177543401718139648e+00 9.793739318847656250e+00 3.291384696960449219e+00 5.172543525695800781e+00
1.957000000000000000e+03 8.936565399169921875e+00 -2.204866886138916016e+00 1.176830172538757324e+00 8.392243385314941406e+00 2.870722055435180664e+00 4.768954277038574219e+00
1.958000000000000000e+03 1.269984722137451172e+01 4.266617774963378906e+00 -1.373140096664428711e+00 8.646209716796875000e+00 2.181921005249023438e+00 2.833937644958496094e+00
1.959000000000000000e+03 1.271990013122558594e+01 6.866951465606689453e+00 -6.708538532257080078e-01 8.360639572143554688e+00 2.306935548782348633e+00 1.251811504364013672e+00
1.960000000000000000e+03 1.302877330780029297e+01 -2.658853054046630859e+00 -2.236193567514419556e-01 7.823347568511962891e+00 2.279918432235717773e+00 -3.613296985626220703e+00
1.961000000000000000e+03 1.204049301147460938e+01 1.703803241252899170e-01 7.843051433563232422e+00 1.151025581359863281e+01 5.805992126464843750e+00 1.034730792045593262e+00
1.962000000000000000e+03 1.231494045257568359e+01 -3.679583668708801270e-01 5.979322910308837891e+00 1.009013652801513672e+01 4.820837974548339844e+00 -1.089846849441528320e+00
1.963000000000000000e+03 1.095532226562500000e+01 1.670132756233215332e+00 -2.399750519543886185e-03 1.925927925109863281e+01 5.777063846588134766e+00 1.978232145309448242e+00
1.964000000000000000e+03 1.303520011901855469e+01 3.781049489974975586e+00 -9.633594155311584473e-01 8.067946434020996094e+00 2.131376266479492188e+00 3.192419052124023438e+00
1.965000000000000000e+03 1.249730396270751953e+01 -1.862052321434020996e+00 1.138615727424621582e+00 1.014274024963378906e+01 3.384406805038452148e+00 -3.921354532241821289e+00
1.966000000000000000e+03 1.100392723083496094e+01 2.424486160278320312e+00 -1.589520335197448730e+00 1.551780605316162109e+01 4.178485870361328125e+00 1.281195521354675293e+00
1.967000000000000000e+03 1.127451133728027344e+01 1.580541133880615234e+00 1.083565115928649902e+00 1.706202507019042969e+01 5.443676948547363281e+00 3.299694061279296875e+00
1.968000000000000000e+03 1.230984687805175781e+01 1.656792283058166504e+00 1.277033805847167969e+00 1.088134479522705078e+01 3.647513389587402344e+00 3.939649581909179688e+00
1.969000000000000000e+03 1.175698280334472656e+01 1.533228039741516113e+00 1.888391733169555664e+00 1.458515262603759766e+01 4.942063331604003906e+00 4.038583755493164062e+00
1.970000000000000000e+03 1.270482063293457031e+01 2.529864072799682617e+00 -3.000655770301818848e-01 9.347815513610839844e+00 2.714324951171875000e+00 3.895490884780883789e+00
1.971000000000000000e+03 2.194839477539062500e+00 -5.691300392150878906e+00 1.712885200977325439e-01 9.693851321935653687e-02 8.046811074018478394e-02 3.947945311665534973e-02
1.972000000000000000e+03 3.407107830047607422e+00 2.226197242736816406e+00 3.986716642975807190e-02 5.246718972921371460e-02 2.770030684769153595e-02 4.117629528045654297e-01
1.973000000000000000e+03 1.176250934600830078e+00 -2.432096242904663086e+00 1.309367362409830093e-02 -3.488205373287200928e-01 -1.007180586457252502e-01 -2.737757265567779541e-01
1.974000000000000000e+03 1.489643692970275879e+00 3.399779796600341797e+00 6.329149752855300903e-02 -4.092800021171569824e-01 -1.037965565919876099e-01 3.422264754772186279e-01
1.975000000000000000e+03 1.211396884918212891e+01 4.624874889850616455e-01 6.709827423095703125e+00 1.134421443939208984e+01 5.416212558746337891e+00 2.314001798629760742e+00
1.976000000000000000e+03 3.062623023986816406e+00 -3.775214672088623047e+00 3.154184818267822266e-01 2.613351643085479736e-01 1.730260998010635376e-01 -1.341299712657928467e-01
1.977000000000000000e+03 4.080983161926269531e+00 -2.265264749526977539e+00 2.167821973562240601e-01 2.079357653856277466e-01 1.274153888225555420e-01 -1.874521374702453613e-01
1.978000000000000000e+03 1.858924150466918945e+00 -1.883616924285888672e+00 -7.557997107505798340e-02 -1.371520459651947021e-01 -6.381960213184356689e-02 -3.606968522071838379e-01
1.979000000000000000e+03 1.236606025695800781e+01 -1.340477824211120605e+00 2.648686170578002930e+00 1.051326751708984375e+01 3.948586225509643555e+00 -3.698611736297607422e+00
1.980000000000000000e+03 2.079954624176025391e+00 -2.024196624755859375e+00 -3.368626534938812256e-02 -1.277957260608673096e-01 -4.844459518790245056e-02 -3.889568746089935303e-01
1.981000000000000000e+03 2.765099763870239258e+00 -2.387819290161132812e+00 6.825412809848785400e-02 -2.981404401361942291e-02 1.153202541172504425e-02 -3.744887113571166992e-01
1.982000000000000000e+03 3.236266613006591797e+00 2.645303249359130859e+00 1.540278792381286621e-01 6.861837953329086304e-02 6.679388135671615601e-02 3.761407434940338135e-01
1.983000000000000000e+03 1.290971755981445312e+01 -1.170332551002502441e+00 2.251142024993896484e+00 7.325239181518554688e+00 2.872914314270019531e+00 -3.100177049636840820e+00
1.984000000000000000e+03 1.269802284240722656e+01 1.096618533134460449e+00 3.648866653442382812e+00 8.939901351928710938e+00 3.776630163192749023e+00 3.288807868957519531e+00
1.985000000000000000e+03 9.157600998878479004e-01 3.680492877960205078e+00 2.812329307198524475e-02 -6.859912276268005371e-01 -1.973603814840316772e-01 2.332266867160797119e-01
1.986000000000000000e+03 1.248614120483398438e+01 3.309019804000854492e+00 -1.108971953392028809e+00 1.003445720672607422e+01 2.677645683288574219e+00 3.325910329818725586e+00
1.987000000000000000e+03 1.162886524200439453e+01 2.010776758193969727e+00 -2.933826483786106110e-02 1.461804294586181641e+01 4.376611232757568359e+00 3.456962823867797852e+00
1.988000000000000000e+03 1.154662227630615234e+01 -2.362107038497924805e+00 -5.678103566169738770e-01 1.408431720733642578e+01 4.054952144622802734e+00 -2.850855112075805664e+00
1.989000000000000000e+03 1.317096805572509766e+01 4.797058105468750000e+00 -8.346611261367797852e-01 7.749029636383056641e+00 2.074310541152954102e+00 2.265579700469970703e+00
1.990000000000000000e+03 1.264906215667724609e+01 5.956234931945800781e+00 -9.680360555648803711e-01 8.513257980346679688e+00 2.263566493988037109e+00 1.627435445785522461e+00
1.991000000000000000e+03 1.303456592559814453e+01 5.372855663299560547e-01 3.175967931747436523e+00 6.550048828125000000e+00 2.917804956436157227e+00 1.531954646110534668e+00
1.992000000000000000e+03 1.238086605072021484e+01 5.179835319519042969e+00 -1.273730993270874023e+00 8.951350212097167969e+00 2.303285598754882812e+00 1.913789153099060059e+00
1.993000000000000000e+03 1.239789390563964844e+01 -4.729155063629150391e+00 -1.385456204414367676e+00 8.787158012390136719e+00 2.220510482788085938e+00 -2.212756633758544922e+00
1.994000000000000000e+03 1.390070319175720215e+00 -2.831019639968872070e+00 4.496866464614868164e-02 -3.341139853000640869e-01 -8.674360066652297974e-02 -3.094094097614288330e-01
1.995000000000000000e+03 1.145244598388671875e+01 2.507061481475830078e+00 -1.390966296195983887e+00 1.415828323364257812e+01 3.830195188522338867e+00 2.638638734817504883e+00
1.996000000000000000e+03 1.006444644927978516e+01 1.133941364288330078e+01 -2.808489501476287842e-01 6.707160949707031250e+00 1.927893638610839844e+00 1.951413899660110474e-01
1.997000000000000000e+03 1.199652004241943359e+01 -1.883830428123474121e+00 9.292955994606018066e-01 1.276056575775146484e+01 4.106958389282226562e+00 -3.883330821990966797e+00
1.998000000000000000e+03 3.607884645462036133e+00 -8.114333152770996094e+00 4.973367974162101746e-02 1.482956051826477051e+00 4.598069190979003906e-01 3.482203781604766846e-01
1.999000000000000000e+03 3.492109298706054688e+00 -7.331545829772949219e+00 1.344311237335205078e-01 1.287450909614562988e+00 4.265646040439605713e-01 3.144106864929199219e-01
2.000000000000000000e+03 1.227321815490722656e+01 -5.894893169403076172e+00 -1.097516179084777832e+00 8.540947914123535156e+00 2.233029603958129883e+00 -1.441786527633666992e+00
2.001000000000000000e+03 2.559021472930908203e+00 5.992953300476074219e+00 1.681488007307052612e-01 1.790667772293090820e-01 1.041646748781204224e-01 1.639600470662117004e-02
2.002000000000000000e+03 2.379203796386718750e+00 3.584048986434936523e+00 1.788977831602096558e-01 -9.537832438945770264e-02 2.505583874881267548e-02 3.255701959133148193e-01
2.003000000000000000e+03 1.189243412017822266e+01 6.110353946685791016e+00 -1.202271699905395508e+00 8.786866188049316406e+00 2.275378465652465820e+00 1.292070388793945312e+00
2.004000000000000000e+03 9.355048179626464844e+00 2.897432565689086914e+00 -6.945129036903381348e-01 1.071441745758056641e+01 3.005971193313598633e+00 -3.338220119476318359e+00
2.005000000000000000e+03 3.878808021545410156e+00 8.007422447204589844e+00 6.988064199686050415e-02 1.423102617263793945e+00 4.478949606418609619e-01 -1.954048126935958862e-01
2.006000000000000000e+03 4.797896862030029297e+00 -1.174005031585693359e+01 -1.068521216511726379e-01 2.623929977416992188e+00 7.551233768463134766e-01 2.389611899852752686e-01
2.007000000000000000e+03 1.086856079101562500e+01 -1.387727642059326172e+01 -8.611936122179031372e-02 6.935485363006591797e+00 2.054809808731079102e+00 -2.292225323617458344e-02
2.008000000000000000e+03 5.781992912292480469e+00 1.222293567657470703e+01 -1.183562204241752625e-01 3.222391843795776367e+00 9.312106966972351074e-01 -6.084009259939193726e-02
2.009000000000000000e+03 9.032558441162109375e+00 1.170085906982421875e+01 -2.519222199916839600e-01 5.945862293243408203e+00 1.708182096481323242e+00 1.025865823030471802e-01
2.010000000000000000e+03 2.673367691040039062e+01 -6.698695182800292969e+00 -2.945403195917606354e-02 7.774993896484375000e+00 2.323662042617797852e+00 1.795534193515777588e-01
2.011000000000000000e+03 1.177005004882812500e+01 7.457905292510986328e+00 -8.290340900421142578e-01 8.203791618347167969e+00 2.212427377700805664e+00 8.923479318618774414e-01
2.012000000000000000e+03 1.835983514785766602e+00 4.133964538574218750e+00 1.547744870185852051e-01 -2.750729620456695557e-01 -3.608954325318336487e-02 2.672664821147918701e-01
2.013000000000000000e+03 2.476800727844238281e+01 -2.602826499938964844e+01 -4.147399961948394775e-02 7.369796276092529297e+00 2.198496818542480469e+00 1.849777847528457642e-01
2.014000000000000000e+03 2.558444213867187500e+01 -2.053611564636230469e+01 -7.048167288303375244e-02 7.435989856719970703e+00 2.209652423858642578e+00 1.589438170194625854e-01
2.015000000000000000e+03 1.072542858123779297e+01 1.426071166992187500e+01 -5.738592520356178284e-02 7.094562053680419922e+00 2.111152887344360352e+00 1.686308979988098145e-01
2.016000000000000000e+03 2.608745193481445312e+01 2.670469045639038086e+00 1.119093820452690125e-01 8.013466835021972656e+00 2.437612771987915039e+00 9.951230138540267944e-02
2.017000000000000000e+03 1.131963443756103516e+01 2.893803977966308594e+01 3.473914861679077148e-01 6.398627281188964844e+00 2.023805618286132812e+00 1.420842856168746948e-01
2.018000000000000000e+03 2.559173011779785156e+01 -1.631633567810058594e+01 -2.039329893887042999e-02 7.520809173583984375e+00 2.250124692916870117e+00 1.242993324995040894e-01
2.019000000000000000e+03 2.555094718933105469e+01 -1.770426750183105469e+01 -4.191773012280464172e-02 7.497488975524902344e+00 2.236671447753906250e+00 1.259793341159820557e-01
2.020000000000000000e+03 2.421607780456542969e+01 -7.969123840332031250e+00 -1.588376425206661224e-02 7.715418815612792969e+00 2.309860467910766602e+00 2.548356652259826660e-01
2.021000000000000000e+03 2.548166656494140625e+01 -6.692158222198486328e+00 -3.017436899244785309e-02 7.760431289672851562e+00 2.319077014923095703e+00 2.105430215597152710e-01
2.022000000000000000e+03 1.048026371002197266e+01 -1.025588417053222656e+01 -4.240545034408569336e-01 6.929965972900390625e+00 1.951773405075073242e+00 -1.576369255781173706e-01
2.023000000000000000e+03 1.016889762878417969e+01 -1.818040466308593750e+01 -1.851252466440200806e-02 6.329604148864746094e+00 1.893327474594116211e+00 3.603299334645271301e-02
2.024000000000000000e+03 1.071739578247070312e+01 -2.247061347961425781e+01 1.478657964617013931e-02 6.777583122253417969e+00 2.037710905075073242e+00 5.318587273359298706e-02
2.025000000000000000e+03 2.375456809997558594e+01 -2.987145042419433594e+01 9.984834492206573486e-02 7.242942810058593750e+00 2.202837228775024414e+00 2.515571117401123047e-01
2.026000000000000000e+03 5.308938980102539062e+00 -3.349848175048828125e+01 1.679510027170181274e-01 3.102933645248413086e+00 9.812653660774230957e-01 2.440366595983505249e-01
2.027000000000000000e+03 4.622262477874755859e+00 -2.972381210327148438e+01 5.905837938189506531e-02 2.644044399261474609e+00 8.109308481216430664e-01 1.152744889259338379e-01
2.028000000000000000e+03 5.913129329681396484e+00 -1.265546131134033203e+01 -1.389593780040740967e-01 3.456986188888549805e+00 9.954080581665039062e-01 1.968651264905929565e-01
2.029000000000000000e+03 3.952492237091064453e+00 -8.754627227783203125e+00 -2.104118466377258301e-02 1.754360556602478027e+00 5.199958086013793945e-01 3.609408438205718994e-01
2.030000000000000000e+03 5.763236522674560547e+00 -2.572653388977050781e+01 1.367895398288965225e-02 3.390138864517211914e+00 1.021145343780517578e+00 7.345320284366607666e-02
2.031000000000000000e+03 2.857357406616210938e+01 2.850012207031250000e+01 1.534418314695358276e-01 8.021553993225097656e+00 2.452498674392700195e+00 -7.207912951707839966e-02
2.032000000000000000e+03 2.743858909606933594e+01 3.250326538085937500e+01 2.336748391389846802e-01 7.950296878814697266e+00 2.455191373825073242e+00 -4.986939579248428345e-02
2.033000000000000000e+03 4.422410011291503906e+00 -2.468458747863769531e+01 3.920994233340024948e-03 2.478032827377319336e+00 7.445861697196960449e-01 7.049664855003356934e-02
2.034000000000000000e+03 5.523118019104003906e+00 -1.815258598327636719e+01 -3.344416618347167969e-02 3.183864116668701172e+00 9.451259374618530273e-01 9.612945467233657837e-02
2.035000000000000000e+03 5.619715213775634766e+00 -1.675200271606445312e+01 -3.690166026353836060e-02 3.259058713912963867e+00 9.666471481323242188e-01 1.033065021038055420e-01
2.036000000000000000e+03 1.090200424194335938e+01 -2.493058967590332031e+01 3.875254653394222260e-03 6.847387790679931641e+00 2.055378913879394531e+00 8.133688569068908691e-02
2.037000000000000000e+03 5.673186302185058594e+00 -2.445677185058593750e+01 1.143132057040929794e-02 3.339919090270996094e+00 1.005405068397521973e+00 7.209084182977676392e-02
2.038000000000000000e+03 9.697591781616210938e+00 -2.000463867187500000e+01 -2.028921619057655334e-02 6.046271800994873047e+00 1.807794809341430664e+00 8.906216919422149658e-02
2.039000000000000000e+03 9.438362121582031250e+00 -1.730588531494140625e+01 -2.505296282470226288e-02 5.884366989135742188e+00 1.757794260978698730e+00 6.801150739192962646e-02
2.040000000000000000e+03 9.848419189453125000e+00 -3.426108169555664062e+01 5.014719367027282715e-01 5.593111515045166016e+00 1.828374981880187988e+00 1.892610341310501099e-01
2.041000000000000000e+03 6.147978305816650391e+00 -3.172810363769531250e+01 1.853852272033691406e-01 3.594871997833251953e+00 1.134077191352844238e+00 1.537575125694274902e-01
2.042000000000000000e+03 5.561707019805908203e+00 -2.192947578430175781e+01 -8.713486604392528534e-03 3.213508605957031250e+00 9.614385366439819336e-01 7.476560026407241821e-02
2.043000000000000000e+03 5.502596855163574219e+00 -1.945680618286132812e+01 -1.260978728532791138e-02 3.147309541702270508e+00 9.404098987579345703e-01 8.311283588409423828e-02
2.044000000000000000e+03 5.869968414306640625e+00 -2.819717407226562500e+01 4.705732688307762146e-02 3.419252634048461914e+00 1.039892911911010742e+00 9.796497225761413574e-02
2.045000000000000000e+03 9.847557067871093750e+00 -1.192323875427246094e+01 -2.562979459762573242e-01 6.339351177215576172e+00 1.824916005134582520e+00 -2.021849527955055237e-02
2.046000000000000000e+03 2.563203811645507812e+01 -1.073327732086181641e+01 3.964737802743911743e-02 7.650779247283935547e+00 2.307127952575683594e+00 2.064110487699508667e-01
2.047000000000000000e+03 7.476799774169921875e+01 3.223395156860351562e+01 2.132452325895428658e-03 7.615528106689453125e+00 2.285298109054565430e+00 -4.059208091348409653e-03
2.048000000000000000e+03 5.504528999328613281e+00 -1.533891010284423828e+01 -8.593437820672988892e-02 3.178624868392944336e+00 9.278071522712707520e-01 1.334851533174514771e-01
2.049000000000000000e+03 6.166358470916748047e+00 -3.661907196044921875e+01 -1.451905071735382080e-02 3.625821828842163086e+00 1.083390831947326660e+00 4.220152497291564941e-01
2.050000000000000000e+03 1.034383487701416016e+01 1.959618759155273438e+01 1.725555658340454102e-01 6.701835155487060547e+00 2.062317371368408203e+00 1.284254193305969238e-01
2.051000000000000000e+03 2.654603576660156250e+01 2.481116485595703125e+01 5.264790356159210205e-02 8.141963005065917969e+00 2.458383083343505859e+00 -5.186186730861663818e-02
2.052000000000000000e+03 2.526255798339843750e+01 2.634795379638671875e+01 4.451035708189010620e-02 8.189884185791015625e+00 2.470318317413330078e+00 -7.176952064037322998e-02
2.053000000000000000e+03 7.365562438964843750e+01 -3.090932083129882812e+01 -1.201117783784866333e-02 7.899150371551513672e+00 2.366141796112060547e+00 -2.976757660508155823e-02
2.054000000000000000e+03 4.933583259582519531e+00 -1.283433246612548828e+01 -1.290339231491088867e-01 2.729731321334838867e+00 7.802091836929321289e-01 2.033992409706115723e-01
2.055000000000000000e+03 2.501811218261718750e+01 1.944755935668945312e+01 3.304814174771308899e-02 8.184432983398437500e+00 2.465244293212890625e+00 -7.462948095053434372e-03
2.056000000000000000e+03 2.648749732971191406e+01 1.793084144592285156e+01 4.748069122433662415e-02 8.150585174560546875e+00 2.459419727325439453e+00 8.114974945783615112e-03
2.057000000000000000e+03 2.632623672485351562e+01 2.067259597778320312e+01 4.394927620887756348e-02 8.161491394042968750e+00 2.461632251739501953e+00 -2.044975012540817261e-02
2.058000000000000000e+03 7.557096099853515625e+01 -2.753055572509765625e+01 -4.183636512607336044e-03 7.907483577728271484e+00 2.370990037918090820e+00 -2.771158516407012939e-02
2.059000000000000000e+03 7.394285583496093750e+01 -2.829887962341308594e+01 -6.440571043640375137e-03 7.891603946685791016e+00 2.365549087524414062e+00 -3.327520191669464111e-02
2.060000000000000000e+03 2.747296333312988281e+01 9.552190780639648438e+00 1.094415187835693359e-01 8.088042259216308594e+00 2.459244966506958008e+00 9.714137017726898193e-02
2.061000000000000000e+03 2.616559028625488281e+01 1.103446006774902344e+01 7.026760280132293701e-02 8.158185005187988281e+00 2.468535900115966797e+00 9.400507807731628418e-02
2.062000000000000000e+03 2.637325477600097656e+01 1.509897041320800781e+01 5.080614238977432251e-02 8.156422615051269531e+00 2.462168455123901367e+00 3.853856027126312256e-02
2.063000000000000000e+03 2.703661155700683594e+01 2.896283149719238281e+01 1.505841910839080811e-01 8.095169067382812500e+00 2.473726034164428711e+00 -1.286485940217971802e-01
2.064000000000000000e+03 2.624554443359375000e+01 1.373162364959716797e+01 4.352218285202980042e-02 8.158527374267578125e+00 2.460614919662475586e+00 6.041124835610389709e-02
2.065000000000000000e+03 2.619451522827148438e+01 8.295530319213867188e+00 1.243544742465019226e-01 8.124699592590332031e+00 2.474716186523437500e+00 1.254220455884933472e-01
2.066000000000000000e+03 2.657709503173828125e+01 2.343350028991699219e+01 6.133589148521423340e-02 8.152568817138671875e+00 2.464171409606933594e+00 -5.621511861681938171e-02
2.067000000000000000e+03 2.676351165771484375e+01 2.750798797607421875e+01 1.014273911714553833e-01 8.110621452331542969e+00 2.463614702224731445e+00 -8.197121322154998779e-02
2.068000000000000000e+03 7.360390472412109375e+01 2.234218978881835938e+01 4.417362622916698456e-03 7.638170719146728516e+00 2.292776584625244141e+00 -1.419516094028949738e-02
2.069000000000000000e+03 7.490225982666015625e+01 2.388285827636718750e+01 2.445397665724158287e-03 7.625089645385742188e+00 2.288260698318481445e+00 -1.033878326416015625e-02
2.070000000000000000e+03 7.364735412597656250e+01 -2.426814079284667969e+01 -6.150184664875268936e-03 7.870141983032226562e+00 2.359197616577148438e+00 -4.324170947074890137e-02
2.071000000000000000e+03 7.510921478271484375e+01 -2.110066604614257812e+01 -2.133676316589117050e-03 7.865797519683837891e+00 2.359099149703979492e+00 -3.732610121369361877e-02
2.072000000000000000e+03 7.372881317138671875e+01 -2.116865730285644531e+01 -4.907289985567331314e-03 7.854047298431396484e+00 2.354742050170898438e+00 -4.681216180324554443e-02
2.073000000000000000e+03 7.519955444335937500e+01 1.267076396942138672e+01 3.419872839003801346e-03 7.654356479644775391e+00 2.297333002090454102e+00 -2.251112833619117737e-02
2.074000000000000000e+03 7.387017059326171875e+01 1.535128307342529297e+01 4.402015823870897293e-03 7.653478145599365234e+00 2.297363996505737305e+00 -2.344206720590591431e-02
2.075000000000000000e+03 7.510131072998046875e+01 1.682151031494140625e+01 2.711767097935080528e-03 7.640059947967529297e+00 2.292831420898437500e+00 -1.780388318002223969e-02
2.076000000000000000e+03 7.420285797119140625e+01 8.413013458251953125e+00 4.896763712167739868e-03 7.678772926330566406e+00 2.305100917816162109e+00 -3.247813880443572998e-02
2.077000000000000000e+03 7.325643157958984375e+01 2.537724113464355469e+01 3.495031502097845078e-03 7.636563301086425781e+00 2.292017459869384766e+00 -1.125542633235454559e-02
2.078000000000000000e+03 7.479332733154296875e+01 2.539650726318359375e+01 2.187044592574238777e-03 7.624141216278076172e+00 2.287898540496826172e+00 -9.286372922360897064e-03
2.079000000000000000e+03 7.389541625976562500e+01 -1.689705848693847656e+01 -1.215281081385910511e-03 7.830687522888183594e+00 2.348841667175292969e+00 -4.770477116107940674e-02
2.080000000000000000e+03 7.481272125244140625e+01 -1.383002471923828125e+01 -1.813168521039187908e-03 7.814673900604248047e+00 2.343858242034912109e+00 -4.502789676189422607e-02
2.081000000000000000e+03 7.336630249023437500e+01 -1.420478057861328125e+01 -9.583776118233799934e-04 7.810307979583740234e+00 2.342804908752441406e+00 -5.247982218861579895e-02
2.082000000000000000e+03 7.418804931640625000e+01 6.871396303176879883e-01 3.825906896963715553e-03 7.719182014465332031e+00 2.316902399063110352e+00 -4.205610975623130798e-02
2.083000000000000000e+03 7.557229614257812500e+01 4.512163639068603516e+00 3.065299242734909058e-03 7.692109584808349609e+00 2.308552503585815430e+00 -3.012161143124103546e-02
2.084000000000000000e+03 7.431752777099609375e+01 2.007814407348632812e+00 2.802777104079723358e-03 7.711227893829345703e+00 2.314209222793579102e+00 -4.015733674168586731e-02
2.085000000000000000e+03 7.385314178466796875e+01 -9.025006294250488281e+00 -1.867120590759441257e-04 7.779408454895019531e+00 2.333766460418701172e+00 -5.024294555187225342e-02
2.086000000000000000e+03 7.536386871337890625e+01 -5.046202182769775391e+00 4.649722832255065441e-04 7.754179954528808594e+00 2.326393365859985352e+00 -3.872860968112945557e-02
2.087000000000000000e+03 7.403730773925781250e+01 -6.259313106536865234e+00 8.402814855799078941e-04 7.761626720428466797e+00 2.328740119934082031e+00 -4.815583303570747375e-02
2.088000000000000000e+03 7.388983154296875000e+01 1.117298793792724609e+01 5.603462457656860352e-03 7.668959617614746094e+00 2.302368879318237305e+00 -2.995942719280719757e-02
2.089000000000000000e+03 7.537429046630859375e+01 -3.658362388610839844e+00 2.356634475290775299e-03 7.744817256927490234e+00 2.324151992797851562e+00 -3.811514377593994141e-02
2.090000000000000000e+03 7.406185913085937500e+01 -2.101963996887207031e+00 3.458953928202390671e-03 7.735961437225341797e+00 2.321826219558715820e+00 -4.545840248465538025e-02
2.091000000000000000e+03 7.318809509277343750e+01 -1.184285259246826172e+01 -1.567624974995851517e-03 7.795904159545898438e+00 2.338300943374633789e+00 -5.449584126472473145e-02
2.092000000000000000e+03 7.434995269775390625e+01 4.548399925231933594e+00 3.139441600069403648e-03 7.696462631225585938e+00 2.309880495071411133e+00 -3.665763884782791138e-02
2.093000000000000000e+03 7.388031768798828125e+01 -1.826449012756347656e+01 -3.501074388623237610e-03 7.838298320770263672e+00 2.350439071655273438e+00 -4.857778549194335938e-02
2.094000000000000000e+03 7.345928955078125000e+01 1.831707191467285156e+01 4.863307345658540726e-03 7.648386001586914062e+00 2.295974731445312500e+00 -2.029862254858016968e-02
2.095000000000000000e+03 7.556064605712890625e+01 -2.650894165039062500e+01 -2.695988398045301437e-03 7.900467395782470703e+00 2.369331359863281250e+00 -2.844723500311374664e-02
2.096000000000000000e+03 7.389950561523437500e+01 2.924402427673339844e+01 3.175776218995451927e-03 7.628027915954589844e+00 2.289361000061035156e+00 -6.784678902477025986e-03
2.097000000000000000e+03 7.426588439941406250e+01 7.106575012207031250e+00 3.453248878940939903e-03 7.684307098388671875e+00 2.306328058242797852e+00 -3.383583948016166687e-02
2.098000000000000000e+03 7.379178619384765625e+01 1.410267829895019531e+01 6.006940267980098724e-03 7.658918380737304688e+00 2.299477577209472656e+00 -2.611274458467960358e-02
2.099000000000000000e+03 7.382432556152343750e+01 2.098635101318359375e+01 4.239054396748542786e-03 7.638732433319091797e+00 2.292891502380371094e+00 -1.563028432428836823e-02
2.100000000000000000e+03 7.368705749511718750e+01 1.975353050231933594e+01 5.750748794525861740e-03 7.643877983093261719e+00 2.294888496398925781e+00 -1.818243227899074554e-02
2.101000000000000000e+03 2.566696929931640625e+01 -1.212495899200439453e+01 7.120826840400695801e-02 7.598907947540283203e+00 2.301034927368164062e+00 1.915032863616943359e-01
2.102000000000000000e+03 1.077679824829101562e+01 -2.603274726867675781e+01 -3.243469446897506714e-02 6.719993114471435547e+00 2.006267547607421875e+00 9.888807684183120728e-02
2.103000000000000000e+03 9.225236892700195312e+00 -2.958466911315917969e+01 1.256083250045776367e-01 5.667019367218017578e+00 1.737788319587707520e+00 1.669121906161308289e-02
2.104000000000000000e+03 7.340247344970703125e+01 3.077120399475097656e+01 3.779714694246649742e-03 7.631674289703369141e+00 2.290636062622070312e+00 -5.944406613707542419e-03
2.105000000000000000e+03 5.822407722473144531e+00 3.081188774108886719e+01 5.436265468597412109e-02 2.951913595199584961e+00 9.018828868865966797e-01 -4.044214189052581787e-01
2.106000000000000000e+03 8.728595733642578125e+00 3.134413719177246094e+01 1.335595548152923584e-01 4.530363082885742188e+00 1.399176836013793945e+00 -3.116893172264099121e-01
2.107000000000000000e+03 4.498973846435546875e+00 2.742304801940917969e+01 1.005338355898857117e-01 2.140370845794677734e+00 6.722713708877563477e-01 -3.107397258281707764e-01
2.108000000000000000e+03 5.907595634460449219e+00 2.849337196350097656e+01 1.385026425123214722e-01 3.012281894683837891e+00 9.452353119850158691e-01 -3.431932628154754639e-01
2.109000000000000000e+03 9.741176605224609375e+00 2.624200630187988281e+01 3.234312534332275391e-01 5.741404533386230469e+00 1.819450736045837402e+00 -1.292511634528636932e-02
2.110000000000000000e+03 1.107037830352783203e+01 2.621457290649414062e+01 3.148407638072967529e-01 6.708781719207763672e+00 2.107086896896362305e+00 1.711599975824356079e-01
2.111000000000000000e+03 7.929716110229492188e+00 1.623167991638183594e+01 -3.064419887959957123e-02 4.820420265197753906e+00 1.436932802200317383e+00 6.673611700534820557e-02
2.112000000000000000e+03 8.348973274230957031e+00 1.815134429931640625e+01 1.473281085491180420e-01 5.171382427215576172e+00 1.595613121986389160e+00 4.943114519119262695e-02
2.113000000000000000e+03 5.639266490936279297e+00 2.734454345703125000e+01 1.333796083927154541e-01 2.816138267517089844e+00 8.848553299903869629e-01 -3.050419092178344727e-01
2.114000000000000000e+03 4.448838710784912109e+00 2.607653427124023438e+01 9.086727350950241089e-02 2.062462568283081055e+00 6.459989547729492188e-01 -2.664141356945037842e-01
2.115000000000000000e+03 4.489443302154541016e+00 2.068876266479492188e+01 8.086518198251724243e-02 2.100038528442382812e+00 6.542711257934570312e-01 -6.855415552854537964e-02
2.116000000000000000e+03 4.518558979034423828e+00 1.476862144470214844e+01 -3.266979381442070007e-02 2.124357938766479492e+00 6.275064349174499512e-01 -2.040471509099006653e-02
2.117000000000000000e+03 4.459612846374511719e+00 1.201724910736083984e+01 -6.934003531932830811e-02 2.100729942321777344e+00 6.094169616699218750e-01 -6.131918355822563171e-02
2.118000000000000000e+03 6.906796932220458984e+00 3.188487434387207031e+01 5.920855328440666199e-02 3.517576456069946289e+00 1.073035478591918945e+00 -4.545005559921264648e-01
2.119000000000000000e+03 4.810409545898437500e+00 3.286548995971679688e+01 -3.032351844012737274e-02 2.474748373031616211e+00 7.333274483680725098e-01 -4.115648567676544189e-01
2.120000000000000000e+03 5.682142257690429688e+00 2.214247322082519531e+01 1.280432343482971191e-01 2.949024915695190430e+00 9.231204390525817871e-01 -9.567776322364807129e-02
2.121000000000000000e+03 6.081407070159912109e+00 1.804333496093750000e+01 7.060329616069793701e-02 3.350695371627807617e+00 1.026389598846435547e+00 1.269675884395837784e-02
2.122000000000000000e+03 5.721868991851806641e+00 2.083820152282714844e+01 1.040405184030532837e-01 2.997280836105346680e+00 9.303964376449584961e-01 -5.192622914910316467e-02
2.123000000000000000e+03 6.461741924285888672e+00 1.685944366455078125e+01 1.209620200097560883e-02 3.632177829742431641e+00 1.093282222747802734e+00 1.964497193694114685e-02
2.124000000000000000e+03 5.817433834075927734e+00 1.341022968292236328e+01 -9.093494713306427002e-02 3.212500572204589844e+00 9.364697337150573730e-01 -2.783328294754028320e-02
2.125000000000000000e+03 5.830658912658691406e+00 1.470093154907226562e+01 -7.476507127285003662e-02 3.183208465576171875e+00 9.325330257415771484e-01 2.472210302948951721e-02
2.126000000000000000e+03 2.552498054504394531e+01 -8.009871482849121094e+00 -1.837034896016120911e-02 7.735445022583007812e+00 2.315122365951538086e+00 2.255195081233978271e-01
2.127000000000000000e+03 4.633796691894531250e+00 1.088174724578857422e+01 -9.537439793348312378e-02 2.228397369384765625e+00 6.399068832397460938e-01 -1.311460733413696289e-01
2.128000000000000000e+03 3.349479436874389648e+00 9.099345207214355469e+00 2.264261478558182716e-03 1.060168385505676270e+00 3.187298178672790527e-01 -1.296499371528625488e-01
2.129000000000000000e+03 2.414870452880859375e+01 -2.200584983825683594e+01 -6.986495107412338257e-02 7.352160453796386719e+00 2.184688568115234375e+00 2.003532201051712036e-01
2.130000000000000000e+03 2.587538719177246094e+01 -1.208569929003715515e-01 2.105406299233436584e-02 7.956901550292968750e+00 2.393386840820312500e+00 1.272623240947723389e-01
2.131000000000000000e+03 9.288810729980468750e+00 1.252954673767089844e+01 -1.782612204551696777e-01 6.039144039154052734e+00 1.758264780044555664e+00 1.281209737062454224e-01
2.132000000000000000e+03 5.544835567474365234e+00 1.075909042358398438e+01 -1.668075025081634521e-01 2.979803323745727539e+00 8.438987135887145996e-01 -7.493341714143753052e-02
2.133000000000000000e+03 1.308258152008056641e+01 -2.887998962402343750e+01 -8.380264788866043091e-02 8.152926445007324219e+00 2.420737266540527344e+00 9.694661945104598999e-02
2.134000000000000000e+03 1.069869422912597656e+01 1.646279335021972656e+01 3.737350180745124817e-02 7.113969326019287109e+00 2.145402908325195312e+00 1.424541324377059937e-01
2.135000000000000000e+03 7.617146968841552734e+00 -3.211533355712890625e+01 2.461027204990386963e-01 4.549639701843261719e+00 1.438722729682922363e+00 1.172378510236740112e-01
2.136000000000000000e+03 1.042839527130126953e+01 -3.583456420898437500e+01 4.860925674438476562e-01 5.910830020904541016e+00 1.919076681137084961e+00 3.975112140178680420e-01
2.137000000000000000e+03 2.558113861083984375e+01 -9.356726646423339844e+00 2.967610023915767670e-02 7.677463054656982422e+00 2.312141656875610352e+00 2.231950610876083374e-01
2.138000000000000000e+03 1.030196666717529297e+01 -2.122710609436035156e+01 -2.792545408010482788e-02 6.439126968383789062e+00 1.923360466957092285e+00 7.218390703201293945e-02
2.139000000000000000e+03 8.001606941223144531e+00 -2.399264144897460938e+01 -2.780656097456812859e-03 4.843875408172607422e+00 1.452328324317932129e+00 8.347772061824798584e-02
2.140000000000000000e+03 2.622821235656738281e+01 6.919816493988037109e+00 1.600981801748275757e-01 8.108222961425781250e+00 2.480496168136596680e+00 1.266319453716278076e-01
2.141000000000000000e+03 9.760106086730957031e+00 1.851488685607910156e+01 1.325875222682952881e-01 6.327032566070556641e+00 1.937886118888854980e+00 1.258630603551864624e-01
2.142000000000000000e+03 2.412245750427246094e+01 -2.361766815185546875e+01 -9.694878011941909790e-02 7.341636657714843750e+00 2.173406362533569336e+00 1.718581318855285645e-01
2.143000000000000000e+03 6.989516735076904297e+00 2.485197448730468750e+01 2.058735042810440063e-01 3.871423006057739258e+00 1.223188996315002441e+00 -1.647662520408630371e-01
2.144000000000000000e+03 2.553441810607910156e+01 -4.079085350036621094e+00 -3.690181672573089600e-02 7.832540988922119141e+00 2.338691711425781250e+00 1.747608035802841187e-01
2.145000000000000000e+03 2.563946151733398438e+01 -2.783051967620849609e+00 -3.624028339982032776e-02 7.881597042083740234e+00 2.353606939315795898e+00 1.634217500686645508e-01
2.146000000000000000e+03 1.012995719909667969e+01 -1.482571887969970703e+01 -1.016978174448013306e-01 6.376002311706542969e+00 1.882291316986083984e+00 3.771342337131500244e-02
2.147000000000000000e+03 2.567233085632324219e+01 -1.352398586273193359e+01 4.866627231240272522e-02 7.570205211639404297e+00 2.285661458969116211e+00 1.510330885648727417e-01
2.148000000000000000e+03 2.617512512207031250e+01 4.096158027648925781e+00 1.544954776763916016e-01 8.051034927368164062e+00 2.461659193038940430e+00 9.959562122821807861e-02
2.149000000000000000e+03 1.007548618316650391e+01 3.023572540283203125e+01 2.572474181652069092e-01 5.414924144744873047e+00 1.701651453971862793e+00 -1.145668625831604004e-01
2.150000000000000000e+03 9.552981376647949219e+00 2.354309272766113281e+01 2.598087191581726074e-01 5.836355209350585938e+00 1.828849196434020996e+00 2.758950740098953247e-02
2.151000000000000000e+03 2.343545532226562500e+01 -3.311417388916015625e+01 2.367068082094192505e-01 7.219004631042480469e+00 2.236713409423828125e+00 1.629246175289154053e-01
2.152000000000000000e+03 2.463304138183593750e+01 -3.517168045043945312e+01 2.217780500650405884e-01 7.016974449157714844e+00 2.171625852584838867e+00 -1.754740439355373383e-02
2.153000000000000000e+03 1.142555046081542969e+01 3.183896064758300781e+01 2.162548899650573730e-01 5.882513046264648438e+00 1.829630374908447266e+00 4.084118828177452087e-02
2.154000000000000000e+03 7.226780700683593750e+01 4.093730926513671875e+01 9.631097200326621532e-04 7.634893894195556641e+00 2.290757179260253906e+00 -1.165034715086221695e-03
2.155000000000000000e+03 7.522049713134765625e+01 3.557356262207031250e+01 1.989665208384394646e-03 7.611900329589843750e+00 2.284167051315307617e+00 -2.399877645075321198e-03
2.156000000000000000e+03 5.059249401092529297e+00 2.419535636901855469e+00 4.304475486278533936e-01 4.973590373992919922e-01 2.783419787883758545e-01 -6.006342172622680664e-02
2.157000000000000000e+03 8.148311614990234375e+00 -2.339097499847412109e+00 1.742635250091552734e+00 4.704178333282470703e+00 1.934044122695922852e+00 3.629140853881835938e+00
2.158000000000000000e+03 5.045947074890136719e+00 -2.521993398666381836e+00 6.284335851669311523e-01 5.995381474494934082e-01 3.683915138244628906e-01 2.384659647941589355e-01
2.159000000000000000e+03 5.254652976989746094e+00 -2.360719680786132812e+00 6.386414766311645508e-01 6.117783784866333008e-01 3.751259446144104004e-01 2.982226610183715820e-01
2.160000000000000000e+03 9.139554023742675781e+00 2.221574783325195312e+00 7.111407518386840820e-01 9.801945686340332031e+00 3.153925895690917969e+00 -4.777046680450439453e+00
2.161000000000000000e+03 7.980864048004150391e+00 2.030263662338256836e+00 1.929144024848937988e+00 3.338141679763793945e+00 1.580185770988464355e+00 -3.084597110748291016e+00
2.162000000000000000e+03 7.812091350555419922e+00 -2.452494144439697266e+00 1.693370819091796875e+00 3.773322820663452148e+00 1.640008091926574707e+00 3.059499025344848633e+00
2.163000000000000000e+03 5.891050815582275391e+00 -2.283816099166870117e+00 8.570238947868347168e-01 7.901484370231628418e-01 4.941517114639282227e-01 6.190160512924194336e-01
2.164000000000000000e+03 6.899791240692138672e+00 2.460861444473266602e+00 1.242895126342773438e+00 1.867812395095825195e+00 9.332122802734375000e-01 -1.531789660453796387e+00
2.165000000000000000e+03 7.808897972106933594e+00 2.623978376388549805e+00 1.335222721099853516e+00 4.002996444702148438e+00 1.601465821266174316e+00 -2.841120481491088867e+00
2.166000000000000000e+03 6.430264472961425781e+00 -2.335336923599243164e+00 1.153791904449462891e+00 1.277405261993408203e+00 7.293591499328613281e-01 1.142627954483032227e+00
2.167000000000000000e+03 7.822055339813232422e+00 3.047218561172485352e+00 9.396842122077941895e-01 4.568540096282958984e+00 1.652467370033264160e+00 -2.751368522644042969e+00
2.168000000000000000e+03 7.398737907409667969e+00 2.142153978347778320e+00 1.554022789001464844e+00 2.134170532226562500e+00 1.106458067893981934e+00 -2.062145948410034180e+00
2.169000000000000000e+03 6.116157531738281250e+00 -2.787245512008666992e+00 1.069765806198120117e+00 1.439751148223876953e+00 7.528550624847412109e-01 1.075455665588378906e+00
2.170000000000000000e+03 6.231113910675048828e+00 -3.214107036590576172e+00 1.052489161491394043e+00 1.916858434677124023e+00 8.908042311668395996e-01 1.303940773010253906e+00
2.171000000000000000e+03 6.825549602508544922e+00 -2.182913303375244141e+00 1.393389821052551270e+00 1.396516561508178711e+00 8.369719386100769043e-01 1.439676403999328613e+00
2.172000000000000000e+03 7.628643035888671875e+00 2.866558074951171875e+00 1.170575618743896484e+00 3.838778257369995117e+00 1.502806186676025391e+00 -2.570530414581298828e+00
2.173000000000000000e+03 8.344758987426757812e+00 -1.851310491561889648e+00 2.513892889022827148e+00 4.456239700317382812e+00 2.091039896011352539e+00 4.100028514862060547e+00
2.174000000000000000e+03 5.881054878234863281e+00 2.215605735778808594e+00 6.731293201446533203e-01 7.242409586906433105e-01 4.192110896110534668e-01 -4.534013569355010986e-01
2.175000000000000000e+03 1.013225841522216797e+01 2.416938066482543945e+00 -1.494234204292297363e+00 1.475889396667480469e+01 3.979398012161254883e+00 -2.166088104248046875e+00
2.176000000000000000e+03 1.014976501464843750e+01 3.330749988555908203e+00 -1.898099899291992188e+00 1.223562908172607422e+01 3.101258754730224609e+00 -1.289687514305114746e+00
2.177000000000000000e+03 1.054662990570068359e+01 -3.184064388275146484e+00 -1.993484139442443848e+00 1.320972347259521484e+01 3.364871978759765625e+00 3.894964158535003662e-01
2.178000000000000000e+03 1.166076564788818359e+01 3.187553644180297852e+00 -1.729661107063293457e+00 1.221325492858886719e+01 3.145078182220458984e+00 2.420754432678222656e+00
2.179000000000000000e+03 3.945405244827270508e+00 2.880641460418701172e+00 3.547098636627197266e-01 3.067913055419921875e-01 1.984503567218780518e-01 2.132454067468643188e-01
2.180000000000000000e+03 1.108259868621826172e+01 -3.008567810058593750e+00 -1.928128004074096680e+00 1.361486625671386719e+01 3.506021261215209961e+00 -9.461765885353088379e-01
2.181000000000000000e+03 1.217637348175048828e+01 -2.814696073532104492e+00 -8.602510094642639160e-01 1.106935501098632812e+01 3.062731027603149414e+00 -3.265033960342407227e+00
2.182000000000000000e+03 9.518511772155761719e+00 -3.510658979415893555e+00 -1.103891968727111816e+00 1.027542018890380859e+01 2.751458406448364258e+00 2.405503511428833008e+00
2.183000000000000000e+03 9.856300354003906250e+00 -3.112803220748901367e+00 -1.398316025733947754e+00 1.197789382934570312e+01 3.173873186111450195e+00 2.317766904830932617e+00
2.184000000000000000e+03 1.065339183807373047e+01 2.573120117187500000e+00 -1.896370410919189453e+00 1.546281433105468750e+01 4.069932937622070312e+00 -1.293494850397109985e-01
2.185000000000000000e+03 1.103415679931640625e+01 3.374651432037353516e+00 -2.063818693161010742e+00 1.255519580841064453e+01 3.147413253784179688e+00 9.812293052673339844e-01
2.186000000000000000e+03 1.127540206909179688e+01 2.970311641693115234e+00 -1.887992262840270996e+00 1.318275070190429688e+01 3.388427734375000000e+00 1.677157044410705566e+00
2.187000000000000000e+03 1.202105331420898438e+01 -2.351772546768188477e+00 -1.439509540796279907e-01 1.219975090026855469e+01 3.616739988327026367e+00 -3.551944255828857422e+00
2.188000000000000000e+03 1.189816474914550781e+01 2.701967716217041016e+00 -1.142300724983215332e+00 1.227349090576171875e+01 3.339357137680053711e+00 3.288776874542236328e+00
2.189000000000000000e+03 1.157254219055175781e+01 -1.880823969841003418e+00 4.851098656654357910e-01 1.507125377655029297e+01 4.666909217834472656e+00 -3.479591608047485352e+00
2.190000000000000000e+03 9.395877838134765625e+00 2.342237234115600586e+00 -4.388107731938362122e-02 1.135106182098388672e+01 3.392154216766357422e+00 -4.372815132141113281e+00
2.191000000000000000e+03 9.828150749206542969e+00 2.356170654296875000e+00 -1.015809774398803711e+00 1.391985893249511719e+01 3.871214866638183594e+00 -3.380867958068847656e+00
2.192000000000000000e+03 4.273351669311523438e+00 2.840439319610595703e+00 3.899147510528564453e-01 3.608743846416473389e-01 2.252367436885833740e-01 1.327053159475326538e-01
2.193000000000000000e+03 1.999036312103271484e+00 -2.262814760208129883e+00 -8.851650170981884003e-03 -1.388262361288070679e-01 -4.430336505174636841e-02 -3.766975700855255127e-01
2.194000000000000000e+03 1.758836984634399414e+00 -3.825076580047607422e+00 1.376253515481948853e-01 -2.649872303009033203e-01 -3.820855915546417236e-02 -2.341129034757614136e-01
2.195000000000000000e+03 2.877346515655517578e+00 3.112925529479980469e+00 1.981411129236221313e-01 1.964053325355052948e-02 6.533449888229370117e-02 3.529753386974334717e-01
2.196000000000000000e+03 3.334259271621704102e+00 -5.615720748901367188e+00 2.879502177238464355e-01 7.701349258422851562e-01 3.174255490303039551e-01 2.116090655326843262e-01
2.197000000000000000e+03 1.260840892791748047e+01 -3.270155191421508789e+00 -1.194335579872131348e+00 9.227519989013671875e+00 2.409955263137817383e+00 -3.224959850311279297e+00
2.198000000000000000e+03 2.688807249069213867e+00 2.590989589691162109e+00 6.917133182287216187e-02 -6.836363673210144043e-02 2.423096593702211976e-04 4.292658269405364990e-01
2.199000000000000000e+03 4.342648506164550781e+00 -7.876848697662353516e+00 7.832564413547515869e-02 2.027369260787963867e+00 6.317084431648254395e-01 4.386061131954193115e-01
2.200000000000000000e+03 3.636250972747802734e+00 -6.561693668365478516e+00 1.755935102701187134e-01 1.210309982299804688e+00 4.157710373401641846e-01 3.259622752666473389e-01
2.201000000000000000e+03 3.934293985366821289e+00 6.477678775787353516e+00 2.135904878377914429e-01 1.258463978767395020e+00 4.416163265705108643e-01 -2.201577872037887573e-01
2.202000000000000000e+03 4.779739856719970703e+00 -1.077992725372314453e+01 -1.266640126705169678e-01 2.571354627609252930e+00 7.334071397781372070e-01 2.904609739780426025e-01
2.203000000000000000e+03 4.859078884124755859e+00 -9.991516113281250000e+00 -1.083042249083518982e-01 2.614600658416748047e+00 7.518889307975769043e-01 3.516514301300048828e-01
2.204000000000000000e+03 1.206731128692626953e+01 4.510919094085693359e+00 -1.703273534774780273e+00 9.745862960815429688e+00 2.412776947021484375e+00 2.131788253784179688e+00
2.205000000000000000e+03 1.011562061309814453e+01 2.845011472702026367e+00 -1.711729884147644043e+00 1.349627685546875000e+01 3.535364151000976562e+00 -1.856476068496704102e+00
2.206000000000000000e+03 1.186132240295410156e+01 -4.359323501586914062e+00 -1.809773087501525879e+00 1.007115173339843750e+01 2.478413820266723633e+00 -1.876752018928527832e+00
2.207000000000000000e+03 2.433142423629760742e+00 -3.105855941772460938e+00 1.717798113822937012e-01 -4.661681503057479858e-02 3.754889965057373047e-02 -3.041990399360656738e-01
2.208000000000000000e+03 1.140153408050537109e+01 6.929859638214111328e+00 -1.079188704490661621e+00 8.368874549865722656e+00 2.186905860900878906e+00 8.419008255004882812e-01
2.209000000000000000e+03 1.130167579650878906e+01 8.091732978820800781e+00 -7.585949301719665527e-01 7.940524101257324219e+00 2.154578685760498047e+00 6.466243267059326172e-01
2.210000000000000000e+03 1.001952266693115234e+01 6.257515907287597656e+00 -1.305119156837463379e+00 8.190973281860351562e+00 2.065756320953369141e+00 -2.055245265364646912e-02
2.211000000000000000e+03 1.198732566833496094e+01 6.821003913879394531e+00 -9.541838169097900391e-01 8.470013618469238281e+00 2.254748821258544922e+00 1.155521035194396973e+00
2.212000000000000000e+03 7.502863407135009766e+00 1.719618225097656250e+01 -2.871312433853745461e-03 4.429512500762939453e+00 1.327992320060729980e+00 6.157792732119560242e-02
2.213000000000000000e+03 1.046847152709960938e+01 1.760948181152343750e+01 9.796586632728576660e-02 6.860207080841064453e+00 2.087451934814453125e+00 1.419665366411209106e-01
2.214000000000000000e+03 6.121019363403320312e+00 8.941036224365234375e+00 -1.872501075267791748e-01 3.592309713363647461e+00 1.021517872810363770e+00 -2.631801366806030273e-01
2.215000000000000000e+03 1.059351539611816406e+01 1.004121589660644531e+01 -3.901784718036651611e-01 7.223204612731933594e+00 2.049907684326171875e+00 3.139157891273498535e-01
2.216000000000000000e+03 5.084799289703369141e+00 7.860745429992675781e+00 2.061946503818035126e-02 2.531672000885009766e+00 7.656874060630798340e-01 -3.497725725173950195e-01
2.217000000000000000e+03 4.098334312438964844e+00 8.836910247802734375e+00 -1.892608404159545898e-02 1.742700576782226562e+00 5.171323418617248535e-01 -1.746973097324371338e-01
2.218000000000000000e+03 1.085091495513916016e+01 -1.913869667053222656e+01 -2.135163173079490662e-02 6.828479766845703125e+00 2.042138576507568359e+00 3.984424471855163574e-02
2.219000000000000000e+03 8.159418106079101562e+00 -2.165224838256835938e+01 -1.810904243029654026e-03 4.986892700195312500e+00 1.495524525642395020e+00 7.495011389255523682e-02
2.220000000000000000e+03 1.181764602661132812e+01 -5.373914718627929688e+00 -1.516733765602111816e+00 9.058214187622070312e+00 2.262444019317626953e+00 -1.410883665084838867e+00
2.221000000000000000e+03 2.880992174148559570e+00 5.237186431884765625e+00 2.199990004301071167e-01 2.754463553428649902e-01 1.486336141824722290e-01 6.608352065086364746e-02
2.222000000000000000e+03 1.075090599060058594e+01 1.535424995422363281e+01 -1.701826229691505432e-02 7.169937133789062500e+00 2.145875692367553711e+00 1.556406617164611816e-01
2.223000000000000000e+03 1.119257545471191406e+01 -5.891339302062988281e+00 -1.425885438919067383e+00 8.820795059204101562e+00 2.218472957611083984e+00 -7.775712013244628906e-01
2.224000000000000000e+03 1.096206188201904297e+01 2.485917663574218750e+01 2.953777611255645752e-01 6.832294464111328125e+00 2.138301610946655273e+00 1.523066312074661255e-01
2.225000000000000000e+03 1.022959899902343750e+01 -1.109355831146240234e+01 -3.286207020282745361e-01 6.678889751434326172e+00 1.905080795288085938e+00 -9.150014072656631470e-02
2.226000000000000000e+03 6.420972347259521484e+00 -9.947347640991210938e+00 -2.556025683879852295e-01 3.907240390777587891e+00 1.095491290092468262e+00 3.601076304912567139e-01
2.227000000000000000e+03 2.318891048431396484e+00 4.769086837768554688e+00 2.145072817802429199e-01 -6.254144757986068726e-02 4.558974876999855042e-02 1.814950406551361084e-01
2.228000000000000000e+03 1.073351669311523438e+01 8.740242958068847656e+00 -6.611393094062805176e-01 7.501110076904296875e+00 2.051991224288940430e+00 4.254700541496276855e-01
2.229000000000000000e+03 2.817025947570800781e+01 -7.848044395446777344e+00 -9.547013789415359497e-03 7.741645812988281250e+00 2.319629669189453125e+00 1.425954252481460571e-01
2.230000000000000000e+03 9.302382469177246094e+00 -1.272561264038085938e+01 -2.008298039436340332e-01 5.925181865692138672e+00 1.717305660247802734e+00 2.643122337758541107e-02
2.231000000000000000e+03 8.240361213684082031e+00 2.354907608032226562e+01 2.275591939687728882e-01 4.834716796875000000e+00 1.518682718276977539e+00 -7.598524540662765503e-02
2.232000000000000000e+03 2.704278182983398438e+01 -1.638706207275390625e+01 -1.159635931253433228e-02 7.540378570556640625e+00 2.258634805679321289e+00 1.080278977751731873e-01
2.233000000000000000e+03 1.059471893310546875e+01 7.587007045745849609e+00 -9.702125787734985352e-01 7.810678958892822266e+00 2.052139997482299805e+00 4.571153521537780762e-01
2.234000000000000000e+03 9.574391365051269531e+00 1.633829116821289062e+01 1.724369265139102936e-02 6.108720302581787109e+00 1.837789177894592285e+00 1.601835936307907104e-01
2.235000000000000000e+03 8.574335098266601562e+00 -1.654975509643554688e+01 -6.806859374046325684e-02 5.271409988403320312e+00 1.561002373695373535e+00 8.100232481956481934e-02
2.236000000000000000e+03 8.652101516723632812e+00 -1.797865486145019531e+01 -3.737138584256172180e-02 5.355574607849121094e+00 1.595460891723632812e+00 8.916337788105010986e-02
2.237000000000000000e+03 5.859325885772705078e+00 -2.942702865600585938e+01 8.361931145191192627e-02 3.451942205429077148e+00 1.060668468475341797e+00 1.174017637968063354e-01
2.238000000000000000e+03 4.408298015594482422e+00 -9.197719573974609375e+00 -8.939977735280990601e-02 2.137643575668334961e+00 6.144731640815734863e-01 3.500009775161743164e-01
2.239000000000000000e+03 7.053461456298828125e+01 -2.449333763122558594e+01 -1.198561023920774460e-02 7.843870639801025391e+00 2.349565505981445312e+00 -5.696654319763183594e-02
2.240000000000000000e+03 7.963624954223632812e+00 -2.284116363525390625e+01 -4.015466943383216858e-02 4.814275741577148438e+00 1.432236313819885254e+00 9.206273406744003296e-02
2.241000000000000000e+03 5.526271820068359375e+00 -2.070081138610839844e+01 -3.630490228533744812e-02 3.174073934555053711e+00 9.413306713104248047e-01 9.750724583864212036e-02
2.242000000000000000e+03 6.712816238403320312e+00 -1.820313835144042969e+01 -2.555633336305618286e-02 3.975425243377685547e+00 1.184960603713989258e+00 8.488363772630691528e-02
2.243000000000000000e+03 5.847312450408935547e+00 -2.696540451049804688e+01 3.804861754179000854e-02 3.423253297805786133e+00 1.038390636444091797e+00 7.208526879549026489e-02
2.244000000000000000e+03 7.243981361389160156e+00 -2.801181983947753906e+01 5.049763619899749756e-02 4.378573894500732422e+00 1.328721404075622559e+00 4.921051859855651855e-02
2.245000000000000000e+03 5.175263881683349609e+00 -1.403003692626953125e+01 -8.400037884712219238e-02 2.917417287826538086e+00 8.500250577926635742e-01 1.686583757400512695e-01
2.246000000000000000e+03 5.723806381225585938e+00 -1.165784931182861328e+01 -1.726991236209869385e-01 3.322149753570556641e+00 9.448351860046386719e-01 2.412461489439010620e-01
2.247000000000000000e+03 6.733303546905517578e+00 -1.487661933898925781e+01 -9.531345963478088379e-02 4.020019054412841797e+00 1.177411675453186035e+00 1.329519450664520264e-01
2.248000000000000000e+03 7.302255249023437500e+01 -3.222296142578125000e+01 -1.001950912177562714e-02 7.898482799530029297e+00 2.366539001464843750e+00 -2.724794857203960419e-02
2.249000000000000000e+03 2.700227355957031250e+01 -1.913016700744628906e+01 -5.482650548219680786e-02 7.494839191436767578e+00 2.232003688812255859e+00 1.200398951768875122e-01
2.250000000000000000e+03 2.956494331359863281e+01 1.848529815673828125e+01 6.365364044904708862e-02 8.074117660522460938e+00 2.441331386566162109e+00 2.522277878597378731e-03
2.251000000000000000e+03 7.734252929687500000e+00 3.065267944335937500e+01 1.445039659738540649e-01 4.062644481658935547e+00 1.262144565582275391e+00 -3.804124295711517334e-01
2.252000000000000000e+03 7.562818050384521484e+00 -1.583732509613037109e+01 -8.711097389459609985e-02 4.561977863311767578e+00 1.342460155487060547e+00 1.000160574913024902e-01
2.253000000000000000e+03 1.025454711914062500e+01 -1.647816848754882812e+01 -5.016228929162025452e-02 6.434050083160400391e+00 1.915166258811950684e+00 4.539881274104118347e-02
2.254000000000000000e+03 2.855890846252441406e+01 -6.155932545661926270e-01 3.674740344285964966e-02 7.898239135742187500e+00 2.380496025085449219e+00 7.061275094747543335e-02
2.255000000000000000e+03 2.889575576782226562e+01 2.202322959899902344e+00 9.653302282094955444e-02 7.930558204650878906e+00 2.408127307891845703e+00 5.389833450317382812e-02
2.256000000000000000e+03 2.616895484924316406e+01 9.670247077941894531e+00 1.051012426614761353e-01 8.156792640686035156e+00 2.478568077087402344e+00 1.144092455506324768e-01
2.257000000000000000e+03 2.747931289672851562e+01 1.220112705230712891e+01 7.429483532905578613e-02 8.114027023315429688e+00 2.456496715545654297e+00 7.583966851234436035e-02
2.258000000000000000e+03 7.207748889923095703e+00 -3.397772979736328125e+01 3.086281716823577881e-01 4.220491886138916016e+00 1.358736038208007812e+00 2.578351795673370361e-01
2.259000000000000000e+03 7.222783660888671875e+01 -2.276975631713867188e+01 -7.699971552938222885e-03 7.850133895874023438e+00 2.352730274200439453e+00 -5.275657400488853455e-02
2.260000000000000000e+03 2.904430770874023438e+01 2.421322059631347656e+01 9.875523298978805542e-02 8.066364288330078125e+00 2.449535846710205078e+00 -5.404865369200706482e-02
2.261000000000000000e+03 2.854887962341308594e+01 2.245969200134277344e+01 7.777423411607742310e-02 8.095456123352050781e+00 2.451969146728515625e+00 -3.698248416185379028e-02
2.262000000000000000e+03 2.713224029541015625e+01 -1.211611557006835938e+01 3.099089115858078003e-02 7.616924762725830078e+00 2.294374704360961914e+00 1.443171203136444092e-01
2.263000000000000000e+03 7.016178894042968750e+01 1.830965042114257812e+01 1.101648807525634766e-02 7.670938014984130859e+00 2.304586410522460938e+00 -2.824687957763671875e-02
2.264000000000000000e+03 7.270068359375000000e+01 1.485749053955078125e+01 6.759365554898977280e-03 7.663664817810058594e+00 2.301127195358276367e+00 -2.784453891217708588e-02
2.265000000000000000e+03 7.383859252929687500e+01 -2.586775207519531250e+01 -5.618134979158639908e-03 7.881580352783203125e+00 2.362788677215576172e+00 -3.825920075178146362e-02
2.266000000000000000e+03 7.127539062500000000e+01 1.049727439880371094e+01 9.530474431812763214e-03 7.684564113616943359e+00 2.308228492736816406e+00 -4.044610261917114258e-02
2.267000000000000000e+03 7.264518737792968750e+01 -1.581564044952392578e+01 -1.462125335820019245e-03 7.816519260406494141e+00 2.344516992568969727e+00 -5.598910152912139893e-02
2.268000000000000000e+03 7.257009887695312500e+01 -8.724222183227539062e+00 2.269868506118655205e-03 7.775057315826416016e+00 2.333198070526123047e+00 -5.877590924501419067e-02
2.269000000000000000e+03 7.226509857177734375e+01 -9.988039016723632812e+00 -5.151988007128238678e-04 7.781948566436767578e+00 2.334429979324340820e+00 -6.013418361544609070e-02
2.270000000000000000e+03 7.359985351562500000e+01 -1.042517089843750000e+01 1.683236681856215000e-03 7.787821769714355469e+00 2.336851596832275391e+00 -5.250126868486404419e-02
2.271000000000000000e+03 7.121321868896484375e+01 2.395064115524291992e+00 7.047729566693305969e-03 7.716699123382568359e+00 2.317124128341674805e+00 -5.505555123090744019e-02
2.272000000000000000e+03 7.312129974365234375e+01 2.240366220474243164e+00 6.015584804117679596e-03 7.713247299194335938e+00 2.315778732299804688e+00 -4.684955999255180359e-02
2.273000000000000000e+03 7.270485687255859375e+01 -3.348042964935302734e+00 4.385672044008970261e-03 7.744003295898437500e+00 2.324516773223876953e+00 -5.441677570343017578e-02
2.274000000000000000e+03 7.271479797363281250e+01 -4.734899997711181641e+00 2.260142471641302109e-03 7.751529216766357422e+00 2.326136827468872070e+00 -5.534393712878227234e-02
2.275000000000000000e+03 7.239215850830078125e+01 -1.307269477844238281e+01 1.360674796160310507e-04 7.799694061279296875e+00 2.339949131011962891e+00 -5.986395105719566345e-02
2.276000000000000000e+03 7.410243988037109375e+01 -7.002386450767517090e-01 2.276487881317734718e-03 7.727065086364746094e+00 2.318802356719970703e+00 -4.387806355953216553e-02
2.277000000000000000e+03 7.277043914794921875e+01 -4.992243051528930664e-01 5.020015873014926910e-03 7.728603363037109375e+00 2.320086956024169922e+00 -5.125240609049797058e-02
2.278000000000000000e+03 1.001117515563964844e+01 3.164232254028320312e+01 1.741769164800643921e-01 5.153898239135742188e+00 1.598422527313232422e+00 -1.974194496870040894e-01
2.279000000000000000e+03 7.430597686767578125e+01 5.821151256561279297e+00 4.513981286436319351e-03 7.690446376800537109e+00 2.308488130569458008e+00 -3.527844697237014771e-02
2.280000000000000000e+03 7.025109100341796875e+01 3.723592042922973633e+00 9.762660600244998932e-03 7.713014602661132812e+00 2.316833257675170898e+00 -5.667742714285850525e-02
2.281000000000000000e+03 7.381643676757812500e+01 -1.969032287597656250e+01 -2.575486432760953903e-03 7.846762657165527344e+00 2.353256225585937500e+00 -4.630126804113388062e-02
2.282000000000000000e+03 7.367754364013671875e+01 1.269073677062988281e+01 4.724900238215923309e-03 7.664066314697265625e+00 2.300637245178222656e+00 -2.828931994736194611e-02
2.283000000000000000e+03 7.283068847656250000e+01 9.571206092834472656e+00 6.985089741647243500e-03 7.680696487426757812e+00 2.306304454803466797e+00 -3.649812191724777222e-02
2.284000000000000000e+03 7.159955596923828125e+01 2.680355262756347656e+01 5.127809476107358932e-03 7.648938179016113281e+00 2.296219825744628906e+00 -1.153871603310108185e-02
2.285000000000000000e+03 7.218957519531250000e+01 -2.633107948303222656e+01 -9.533902630209922791e-03 7.866614341735839844e+00 2.357124090194702148e+00 -4.565160349011421204e-02
2.286000000000000000e+03 2.912734031677246094e+01 2.643661117553710938e+01 1.239714846014976501e-01 8.048570632934570312e+00 2.451762676239013672e+00 -6.823176145553588867e-02
2.287000000000000000e+03 9.462254524230957031e+00 2.226938247680664062e+01 2.303930968046188354e-01 5.874570369720458984e+00 1.831489086151123047e+00 2.955263666808605194e-02
2.288000000000000000e+03 2.564276123046875000e+01 -1.492439556121826172e+01 3.098589368164539337e-02 7.548527717590332031e+00 2.273854255676269531e+00 1.396244913339614868e-01
2.289000000000000000e+03 5.846836566925048828e+00 1.599683570861816406e+01 6.113754585385322571e-03 3.186662673950195312e+00 9.578329324722290039e-01 3.756693750619888306e-02
2.290000000000000000e+03 8.359170913696289062e+00 2.633937644958496094e+01 2.588725090026855469e-01 4.746836662292480469e+00 1.501712679862976074e+00 -1.626380980014801025e-01
2.291000000000000000e+03 6.699260711669921875e+00 2.759211921691894531e+01 1.804307550191879272e-01 3.584305286407470703e+00 1.129420876502990723e+00 -2.747094631195068359e-01
2.292000000000000000e+03 7.036258697509765625e+00 1.989091682434082031e+01 1.274157911539077759e-01 4.032476902008056641e+00 1.247967720031738281e+00 -2.393851801753044128e-02
2.293000000000000000e+03 5.891438007354736328e+00 1.948848342895507812e+01 8.969774842262268066e-02 3.164649963378906250e+00 9.763042926788330078e-01 -1.419296860694885254e-02
2.294000000000000000e+03 7.089762687683105469e+00 1.488878822326660156e+01 -5.602182820439338684e-02 4.205427169799804688e+00 1.244821667671203613e+00 1.690212450921535492e-02
2.295000000000000000e+03 6.240729331970214844e+00 -1.373066329956054688e+01 -1.400086879730224609e-01 3.660206794738769531e+00 1.056059479713439941e+00 1.554833203554153442e-01
2.296000000000000000e+03 6.870310783386230469e+00 1.593157386779785156e+01 1.122350076911970973e-04 4.022970676422119141e+00 1.206924915313720703e+00 -5.540537647902965546e-03
2.297000000000000000e+03 6.819842815399169922e+00 -2.297498512268066406e+01 -5.232033785432577133e-03 4.097459316253662109e+00 1.227668285369873047e+00 9.383985400199890137e-02
2.298000000000000000e+03 9.883376121520996094e+00 -2.544913673400878906e+01 -2.785966172814369202e-02 6.175509929656982422e+00 1.844295144081115723e+00 8.038847148418426514e-02
2.299000000000000000e+03 2.706502532958984375e+01 -1.069543838500976562e+01 3.966910392045974731e-02 7.646258831024169922e+00 2.305778264999389648e+00 1.707359850406646729e-01
2.300000000000000000e+03 2.693622589111328125e+01 -2.997509717941284180e+00 -1.051318366080522537e-02 7.865000724792480469e+00 2.356346130371093750e+00 1.230214685201644897e-01
2.301000000000000000e+03 2.969066047668457031e+01 -2.486256790161132812e+01 -5.982664600014686584e-02 7.426218032836914062e+00 2.209917306900024414e+00 8.232923597097396851e-02
2.302000000000000000e+03 2.578887176513671875e+01 -2.379508209228515625e+01 -5.352795124053955078e-02 7.395663738250732422e+00 2.202640771865844727e+00 1.816175132989883423e-01
2.303000000000000000e+03 2.684319305419921875e+01 -7.980223655700683594e+00 2.442857483401894569e-03 7.725294589996337891e+00 2.318321228027343750e+00 1.834601014852523804e-01
2.304000000000000000e+03 9.332552909851074219e+00 2.105940055847167969e+01 2.297354489564895630e-01 5.794962406158447266e+00 1.807409286499023438e+00 5.456085875630378723e-02
2.305000000000000000e+03 9.670645713806152344e+00 1.051791095733642578e+01 -3.722072541713714600e-01 6.525467395782470703e+00 1.845978021621704102e+00 1.642416119575500488e-01
2.306000000000000000e+03 5.129679203033447266e+00 9.143979072570800781e+00 -7.190018892288208008e-02 2.609283924102783203e+00 7.612150907516479492e-01 -2.832714319229125977e-01
2.307000000000000000e+03 1.010734558105468750e+01 8.132354736328125000e+00 -8.201904296875000000e-01 7.315416812896728516e+00 1.948567986488342285e+00 2.602001428604125977e-01
2.308000000000000000e+03 9.634992599487304688e+00 2.487632369995117188e+01 2.667464017868041992e-01 5.793168544769287109e+00 1.817974448204040527e+00 -6.139660399639979005e-05
2.309000000000000000e+03 2.492445373535156250e+01 -2.949065589904785156e+01 6.691659986972808838e-02 7.296486377716064453e+00 2.209020853042602539e+00 1.646716594696044922e-01
2.310000000000000000e+03 2.788124656677246094e+01 -2.538711738586425781e+01 -3.309416025876998901e-02 7.401459217071533203e+00 2.210509538650512695e+00 1.347231715917587280e-01
2.311000000000000000e+03 2.708206558227539062e+01 -1.706576466560363770e+00 -8.956862147897481918e-04 7.899640560150146484e+00 2.369623422622680664e+00 1.121948510408401489e-01
2.312000000000000000e+03 2.575999259948730469e+01 -1.469156146049499512e+00 3.673982428153976798e-05 7.913588047027587891e+00 2.374087333679199219e+00 1.358959823846817017e-01
2.313000000000000000e+03 2.566561317443847656e+01 -2.208253669738769531e+01 -1.154286190867424011e-01 7.422872066497802734e+00 2.192233085632324219e+00 1.464864611625671387e-01
2.314000000000000000e+03 2.412058067321777344e+01 -2.048473548889160156e+01 -1.315873563289642334e-01 7.419499874114990234e+00 2.186373710632324219e+00 1.836110353469848633e-01
2.315000000000000000e+03 9.674139022827148438e+00 -3.232587814331054688e+01 3.010091781616210938e-01 5.706012248992919922e+00 1.802106380462646484e+00 2.427766099572181702e-02
2.316000000000000000e+03 1.179073524475097656e+01 -2.868930435180664062e+01 -5.923321004956960678e-03 7.408117294311523438e+00 2.220658302307128906e+00 5.297376215457916260e-02
2.317000000000000000e+03 2.622785949707031250e+01 5.520012855529785156e+00 1.642305999994277954e-01 8.061896324157714844e+00 2.467838048934936523e+00 1.169715300202369690e-01
2.318000000000000000e+03 2.777960777282714844e+01 2.164087677001953125e+01 5.094988644123077393e-02 8.131507873535156250e+00 2.454737186431884766e+00 -2.814445085823535919e-02
2.319000000000000000e+03 7.372129058837890625e+01 3.433295440673828125e+01 1.936296001076698303e-03 7.624928951263427734e+00 2.288059473037719727e+00 -3.364400705322623253e-03
2.320000000000000000e+03 6.832123565673828125e+01 2.801088714599609375e+01 1.073524728417396545e-02 7.673568725585937500e+00 2.305291175842285156e+00 -1.183131057769060135e-02
2.321000000000000000e+03 2.312889480590820312e+01 -3.166687583923339844e+01 1.602969020605087280e-01 7.238223552703857422e+00 2.219556093215942383e+00 2.440091520547866821e-01
2.322000000000000000e+03 2.510628128051757812e+01 -2.744819641113281250e+01 -1.253898954018950462e-03 7.269615650177001953e+00 2.180508613586425781e+00 1.798828840255737305e-01
2.323000000000000000e+03 1.133913993835449219e+01 3.523665618896484375e+01 -1.732627451419830322e-01 5.224073410034179688e+00 1.515243172645568848e+00 -1.242348700761795044e-01
2.324000000000000000e+03 7.238473510742187500e+01 -2.119208335876464844e+01 -4.602902103215456009e-03 7.844196319580078125e+00 2.351878166198730469e+00 -5.230663716793060303e-02
2.325000000000000000e+03 2.808929443359375000e+01 1.607309913635253906e+01 5.937929451465606689e-02 8.114068984985351562e+00 2.452034473419189453e+00 2.630344592034816742e-02
2.326000000000000000e+03 7.227039337158203125e+01 -1.487701511383056641e+01 -1.639898400753736496e-03 7.808798313140869141e+00 2.342147588729858398e+00 -6.093602254986763000e-02
2.327000000000000000e+03 2.846563148498535156e+01 -2.965357017517089844e+01 2.354808151721954346e-02 7.307993412017822266e+00 2.199462413787841797e+00 8.537252992391586304e-02
2.328000000000000000e+03 9.898701667785644531e+00 2.758361434936523438e+01 2.892269492149353027e-01 5.653764247894287109e+00 1.782897353172302246e+00 -3.558045998215675354e-02
2.329000000000000000e+03 2.755051612854003906e+01 8.201307296752929688e+00 1.397575289011001587e-01 8.071767807006835938e+00 2.463457822799682617e+00 1.016966104507446289e-01
2.330000000000000000e+03 7.298970031738281250e+01 7.038987159729003906e+00 6.563995964825153351e-03 7.690193176269531250e+00 2.309027194976806641e+00 -3.963472694158554077e-02
2.331000000000000000e+03 7.138921356201171875e+01 2.004174423217773438e+01 8.511099964380264282e-03 7.659214973449707031e+00 2.300317764282226562e+00 -2.219876833260059357e-02
2.332000000000000000e+03 8.418312072753906250e+00 -2.819932556152343750e+01 8.359916508197784424e-02 5.094589233398437500e+00 1.553456544876098633e+00 6.948092579841613770e-02
2.333000000000000000e+03 1.054957008361816406e+01 -2.852010917663574219e+01 -2.291854843497276306e-02 6.568051338195800781e+00 1.963539838790893555e+00 5.236124992370605469e-02
2.334000000000000000e+03 7.108862304687500000e+01 2.812761878967285156e+01 7.016998715698719025e-03 7.652091979980468750e+00 2.297732591629028320e+00 -1.047285180538892746e-02
2.335000000000000000e+03 7.256413269042968750e+01 2.868392944335937500e+01 5.635585170239210129e-03 7.639456748962402344e+00 2.293527841567993164e+00 -8.552226237952709198e-03
2.336000000000000000e+03 7.744264602661132812e+00 -2.739706039428710938e+00 1.388929963111877441e+00 4.062875747680664062e+00 1.635541677474975586e+00 2.916485071182250977e+00
2.337000000000000000e+03 6.576567173004150391e+00 -2.725203990936279297e+00 1.240522384643554688e+00 1.820051193237304688e+00 9.181721210479736328e-01 1.474852204322814941e+00
2.338000000000000000e+03 6.324479579925537109e+00 -2.600254535675048828e+00 1.143072962760925293e+00 1.456474184989929199e+00 7.798641324043273926e-01 1.194019675254821777e+00
2.339000000000000000e+03 8.040163993835449219e+00 -2.573863983154296875e+00 1.521095156669616699e+00 4.710236549377441406e+00 1.869399428367614746e+00 3.419386863708496094e+00
2.340000000000000000e+03 5.682514190673828125e+00 2.743062019348144531e+00 7.653629779815673828e-01 9.764177203178405762e-01 5.225341916084289551e-01 -5.151442885398864746e-01
2.341000000000000000e+03 8.265831947326660156e+00 2.894603490829467773e+00 8.169749975204467773e-01 5.806522369384765625e+00 1.987049221992492676e+00 -3.278151750564575195e+00
2.342000000000000000e+03 7.114751815795898438e+00 -2.580378770828247070e+00 1.469384431838989258e+00 2.400637149810791016e+00 1.161006450653076172e+00 2.051376342773437500e+00
2.343000000000000000e+03 6.812724113464355469e+00 -2.404389142990112305e+00 1.404007911682128906e+00 1.746538758277893066e+00 9.451640248298645020e-01 1.614143490791320801e+00
2.344000000000000000e+03 7.296087265014648438e+00 2.540843725204467773e+00 1.417120575904846191e+00 2.567531585693359375e+00 1.195395708084106445e+00 -2.136251688003540039e+00
2.345000000000000000e+03 7.102540493011474609e+00 2.772633790969848633e+00 1.229546308517456055e+00 2.584710836410522461e+00 1.144277095794677734e+00 -1.892498135566711426e+00
2.346000000000000000e+03 4.719068050384521484e+00 3.208806037902832031e+00 5.579987764358520508e-01 7.083789110183715820e-01 3.799133002758026123e-01 -1.148922219872474670e-01
2.347000000000000000e+03 9.986214637756347656e+00 -2.335317850112915039e+00 -9.899154305458068848e-01 1.492155265808105469e+01 4.179491043090820312e+00 3.183229923248291016e+00
2.348000000000000000e+03 9.745649337768554688e+00 2.750355720520019531e+00 -1.193597197532653809e+00 1.238308334350585938e+01 3.356845617294311523e+00 -2.909691333770751953e+00
2.349000000000000000e+03 1.025422668457031250e+01 -2.716099977493286133e+00 -1.635489106178283691e+00 1.427635288238525391e+01 3.792259216308593750e+00 1.605800986289978027e+00
2.350000000000000000e+03 1.049314022064208984e+01 3.268447637557983398e+00 -2.104498863220214844e+00 1.292557907104492188e+01 3.246323823928833008e+00 -5.154423117637634277e-01
2.351000000000000000e+03 3.630511283874511719e+00 -3.023254632949829102e+00 3.273121118545532227e-01 2.904632091522216797e-01 1.853325963020324707e-01 -1.512033939361572266e-01
2.352000000000000000e+03 4.094993591308593750e+00 -3.440677881240844727e+00 5.132542848587036133e-01 5.977514982223510742e-01 3.333017528057098389e-01 1.000110208988189697e-01
2.353000000000000000e+03 2.835667133331298828e+00 -5.164372444152832031e+00 2.926023304462432861e-01 4.299292862415313721e-01 2.167594730854034424e-01 6.095170602202415466e-02
2.354000000000000000e+03 4.267257690429687500e+00 -2.870627880096435547e+00 4.405026137828826904e-01 4.179489910602569580e-01 2.575354874134063721e-01 -1.752812042832374573e-02
2.355000000000000000e+03 1.125252914428710938e+01 -3.566017866134643555e+00 -2.079567670822143555e+00 1.209543800354003906e+01 3.004760980606079102e+00 -1.265866398811340332e+00
2.356000000000000000e+03 1.009945106506347656e+01 -3.479247808456420898e+00 -1.751898765563964844e+00 1.195574283599853516e+01 3.061153173446655273e+00 1.471869349479675293e+00
2.357000000000000000e+03 1.165478801727294922e+01 -2.954240560531616211e+00 -1.574290394783020020e+00 1.253379249572753906e+01 3.287850618362426758e+00 -2.462378025054931641e+00
2.358000000000000000e+03 1.143429660797119141e+01 3.712565183639526367e+00 -2.015450954437255859e+00 1.154535675048828125e+01 2.858971595764160156e+00 1.651479363441467285e+00
2.359000000000000000e+03 1.046796989440917969e+01 2.901260375976562500e+00 -2.081418037414550781e+00 1.418823432922363281e+01 3.632044792175292969e+00 -7.262931466102600098e-01
2.360000000000000000e+03 3.597618818283081055e+00 3.339892864227294922e+00 3.252808451652526855e-01 2.572998404502868652e-01 1.747741997241973877e-01 2.165703773498535156e-01
2.361000000000000000e+03 5.437081813812255859e+00 2.533966302871704102e+00 6.093227267265319824e-01 7.029564976692199707e-01 3.936837613582611084e-01 -2.895096540451049805e-01
2.362000000000000000e+03 2.535731315612792969e+00 -4.514570236206054688e+00 2.506322562694549561e-01 1.561207622289657593e-01 1.220259070396423340e-01 -9.706684201955795288e-02
2.363000000000000000e+03 4.775001049041748047e+00 -2.574430465698242188e+00 5.176887512207031250e-01 5.241244435310363770e-01 3.125439584255218506e-01 1.309840083122253418e-01
2.364000000000000000e+03 2.460036516189575195e+00 -3.776176452636718750e+00 2.138660997152328491e-01 1.918909838423132896e-03 6.473550200462341309e-02 -2.236862033605575562e-01
2.365000000000000000e+03 3.207370996475219727e+00 3.635802268981933594e+00 2.917270660400390625e-01 1.869380623102188110e-01 1.435995399951934814e-01 2.410992681980133057e-01
2.366000000000000000e+03 3.963288068771362305e+00 3.304856538772583008e+00 4.010274708271026611e-01 4.101085960865020752e-01 2.433408200740814209e-01 1.302679181098937988e-01
2.367000000000000000e+03 4.525098323822021484e+00 7.920696735382080078e+00 4.778357967734336853e-02 2.003911495208740234e+00 6.155085563659667969e-01 -2.702754735946655273e-01
2.368000000000000000e+03 5.515707015991210938e+00 8.733935356140136719e+00 -8.572021126747131348e-02 2.925107955932617188e+00 8.518162965774536133e-01 -2.782309055328369141e-01
2.369000000000000000e+03 1.103070831298828125e+01 5.648261547088623047e+00 -1.588054418563842773e+00 9.219014167785644531e+00 2.289287805557250977e+00 7.973644137382507324e-01
2.370000000000000000e+03 1.137983512878417969e+01 -4.914195537567138672e+00 -1.783565402030944824e+00 9.717347145080566406e+00 2.380134582519531250e+00 -1.185420274734497070e+00
2.371000000000000000e+03 1.053516674041748047e+01 -7.895863056182861328e+00 -8.673284649848937988e-01 7.533724784851074219e+00 1.999918818473815918e+00 -2.833319902420043945e-01
2.372000000000000000e+03 3.655889987945556641e+00 -3.430321216583251953e+00 4.231859743595123291e-01 4.391216933727264404e-01 2.586922943592071533e-01 -4.530307650566101074e-02
2.373000000000000000e+03 1.166218090057373047e+01 5.417829036712646484e+00 -1.535600781440734863e+00 9.258042335510253906e+00 2.316732406616210938e+00 1.378978013992309570e+00
2.374000000000000000e+03 4.169641494750976562e+00 5.244310855865478516e+00 3.843098282814025879e-01 1.110714316368103027e+00 4.485072493553161621e-01 -2.397407293319702148e-01
2.375000000000000000e+03 1.147848224639892578e+01 -3.987380027770996094e+00 -1.877853035926818848e+00 1.079378604888916016e+01 2.674780130386352539e+00 -1.530881166458129883e+00
2.376000000000000000e+03 3.938588142395019531e+00 -5.890321731567382812e+00 2.823472619056701660e-01 1.247029662132263184e+00 4.588130712509155273e-01 3.487549126148223877e-01
2.377000000000000000e+03 5.861778259277343750e+00 -3.268633842468261719e+00 9.404658079147338867e-01 1.658980727195739746e+00 7.798339724540710449e-01 1.024090886116027832e+00
2.378000000000000000e+03 1.203655719757080078e+01 -7.086646556854248047e+00 -8.701444268226623535e-01 8.220068931579589844e+00 2.204977273941040039e+00 -9.468493461608886719e-01
2.379000000000000000e+03 5.100746154785156250e+00 7.293241024017333984e+00 6.895425170660018921e-02 2.473763942718505859e+00 7.628154754638671875e-01 -3.962310254573822021e-01
2.380000000000000000e+03 5.648500442504882812e+00 -1.077088356018066406e+01 -1.693464666604995728e-01 3.280940055847167969e+00 9.334780573844909668e-01 3.017078042030334473e-01
2.381000000000000000e+03 5.643154621124267578e+00 -1.000207233428955078e+01 -1.979217082262039185e-01 3.246994495391845703e+00 9.147218465805053711e-01 3.578515946865081787e-01
2.382000000000000000e+03 4.722229957580566406e+00 8.571958541870117188e+00 -2.723781764507293701e-02 2.291241645812988281e+00 6.792011260986328125e-01 -2.876216173171997070e-01
2.383000000000000000e+03 1.036684226989746094e+01 6.712296009063720703e+00 -1.211864471435546875e+00 8.105731010437011719e+00 2.068160057067871094e+00 2.771122157573699951e-01
2.384000000000000000e+03 1.126785087585449219e+01 6.271792411804199219e+00 -1.328619599342346191e+00 8.705999374389648438e+00 2.213213920593261719e+00 8.912187218666076660e-01
2.385000000000000000e+03 2.777405500411987305e+00 4.147857189178466797e+00 2.745021283626556396e-01 8.447867631912231445e-02 1.076942384243011475e-01 2.216001302003860474e-01
2.386000000000000000e+03 8.217918395996093750e+00 1.281695079803466797e+01 -1.399170458316802979e-01 5.281093597412109375e+00 1.542352914810180664e+00 7.623179256916046143e-02
2.387000000000000000e+03 1.003421497344970703e+01 9.291015625000000000e+00 -5.627474188804626465e-01 6.970872879028320312e+00 1.922437667846679688e+00 2.508237957954406738e-01
2.388000000000000000e+03 8.007690429687500000e+00 1.200926399230957031e+01 -2.147445380687713623e-01 5.089565753936767578e+00 1.462446451187133789e+00 7.025103271007537842e-02
2.389000000000000000e+03 8.731927871704101562e+00 1.090178394317626953e+01 -3.326747119426727295e-01 5.746011257171630859e+00 1.624001026153564453e+00 8.682379126548767090e-02
2.390000000000000000e+03 9.568165779113769531e+00 1.435970973968505859e+01 -8.047664910554885864e-02 6.180509090423583984e+00 1.830009698867797852e+00 1.357194632291793823e-01
2.391000000000000000e+03 7.093963623046875000e+00 1.319153690338134766e+01 -1.223392486572265625e-01 4.269114971160888672e+00 1.244032740592956543e+00 4.925927147269248962e-02
2.392000000000000000e+03 1.061884212493896484e+01 -9.418022155761718750e+00 -5.604330301284790039e-01 7.178828716278076172e+00 1.985518693923950195e+00 -2.541123628616333008e-01
2.393000000000000000e+03 6.458829879760742188e+00 -1.069538879394531250e+01 -2.505613863468170166e-01 3.910322904586791992e+00 1.097928404808044434e+00 2.827711403369903564e-01
2.394000000000000000e+03 8.301053047180175781e+00 2.489267349243164062e+01 2.378540933132171631e-01 4.789791107177734375e+00 1.508293628692626953e+00 -9.903325885534286499e-02
2.395000000000000000e+03 9.347265243530273438e+00 -1.571038532257080078e+01 -1.070606634020805359e-01 5.810761928558349609e+00 1.711110353469848633e+00 5.235596373677253723e-02
2.396000000000000000e+03 7.320487022399902344e+00 -1.132713890075683594e+01 -2.722285389900207520e-01 4.559105396270751953e+00 1.286063075065612793e+00 1.910668015480041504e-01
2.397000000000000000e+03 7.192198753356933594e+00 -1.329218387603759766e+01 -1.566751450300216675e-01 4.395379543304443359e+00 1.271611213684082031e+00 1.231259778141975403e-01
2.398000000000000000e+03 9.489391326904296875e+00 1.341085624694824219e+01 -1.269987225532531738e-01 6.160391807556152344e+00 1.810017943382263184e+00 1.448088139295578003e-01
2.399000000000000000e+03 2.872553253173828125e+01 7.724962830543518066e-01 7.537219673395156860e-02 7.919044494628906250e+00 2.398324966430664062e+00 5.171742662787437439e-02
2.400000000000000000e+03 2.721145439147949219e+01 -3.529843091964721680e-01 3.986395150423049927e-02 7.926496505737304688e+00 2.389908075332641602e+00 8.493164926767349243e-02
2.401000000000000000e+03 5.102583408355712891e+00 1.017781543731689453e+01 -1.015294119715690613e-01 2.576369524002075195e+00 7.424520254135131836e-01 -1.854885816574096680e-01
2.402000000000000000e+03 2.867993927001953125e+01 -1.357895469665527344e+01 5.944492295384407043e-03 7.600689411163330078e+00 2.281990051269531250e+00 9.613346308469772339e-02
2.403000000000000000e+03 2.864349937438964844e+01 -1.207048225402832031e+01 2.696591988205909729e-02 7.627779960632324219e+00 2.296423673629760742e+00 1.179257482290267944e-01
2.404000000000000000e+03 8.470990180969238281e+00 1.358866310119628906e+01 -1.336120665073394775e-01 5.360464096069335938e+00 1.568055629730224609e+00 9.008394181728363037e-02
2.405000000000000000e+03 9.490367889404296875e+00 1.715019607543945312e+01 6.759398430585861206e-02 6.047729969024658203e+00 1.834597110748291016e+00 1.323316991329193115e-01
2.406000000000000000e+03 6.885577201843261719e+00 -2.422309303283691406e+01 -2.645213529467582703e-02 4.138739585876464844e+00 1.233686327934265137e+00 8.762237429618835449e-02
2.407000000000000000e+03 9.303335189819335938e+00 -2.457937812805175781e+01 -8.872206672094762325e-04 5.743812084197998047e+00 1.722877502441406250e+00 9.576586633920669556e-02
2.408000000000000000e+03 7.270864105224609375e+01 -7.414193153381347656e+00 1.041129115037620068e-03 7.767196178436279297e+00 2.330471277236938477e+00 -5.679823830723762512e-02
2.409000000000000000e+03 7.105932617187500000e+01 -9.495806694030761719e+00 2.095363801345229149e-03 7.775676727294921875e+00 2.333331584930419922e+00 -6.777621805667877197e-02
2.410000000000000000e+03 7.347488403320312500e+00 1.824413490295410156e+01 1.308299005031585693e-01 4.342380046844482422e+00 1.341962933540344238e+00 4.305331408977508545e-02
2.411000000000000000e+03 7.324214172363281250e+01 3.324757575988769531e+00 4.634848330169916153e-03 7.706197738647460938e+00 2.313249826431274414e+00 -4.368820041418075562e-02
2.412000000000000000e+03 7.271914672851562500e+01 -1.932815551757812500e+00 3.207714064046740532e-03 7.735765933990478516e+00 2.321692228317260742e+00 -5.281634628772735596e-02
2.413000000000000000e+03 2.833771896362304688e+01 -1.783804130554199219e+01 -3.388196602463722229e-02 7.533574104309082031e+00 2.249907732009887695e+00 9.435692429542541504e-02
2.414000000000000000e+03 2.851923370361328125e+01 -1.652840805053710938e+01 -3.429874405264854431e-02 7.554419994354248047e+00 2.256036520004272461e+00 8.144095540046691895e-02
2.415000000000000000e+03 2.668522453308105469e+01 -5.445367336273193359e+00 -2.425881288945674896e-02 7.798066139221191406e+00 2.332142114639282227e+00 1.620269119739532471e-01
2.416000000000000000e+03 2.797883415222167969e+01 -4.462734222412109375e+00 -9.046004153788089752e-03 7.823504924774169922e+00 2.344337701797485352e+00 1.130093112587928772e-01
2.417000000000000000e+03 2.870247650146484375e+01 -2.048173713684082031e+01 -5.691254138946533203e-02 7.503506660461425781e+00 2.233978271484375000e+00 1.077162772417068481e-01
2.418000000000000000e+03 2.850655555725097656e+01 -1.907305908203125000e+01 -6.997672468423843384e-02 7.517261981964111328e+00 2.234185457229614258e+00 8.105345815420150757e-02
2.419000000000000000e+03 7.251809692382812500e+01 -1.970126152038574219e+01 -5.855044815689325333e-03 7.836787700653076172e+00 2.349279642105102539e+00 -5.517803505063056946e-02
2.420000000000000000e+03 6.984653949737548828e+00 -3.034147262573242188e+01 1.318756937980651855e-01 4.114923477172851562e+00 1.274039745330810547e+00 1.146858632564544678e-01
2.421000000000000000e+03 1.009740829467773438e+01 -3.107344627380371094e+01 2.999176681041717529e-01 6.133332729339599609e+00 1.929975032806396484e+00 -9.841835498809814453e-02
2.422000000000000000e+03 8.204611778259277344e+00 -2.043791198730468750e+01 -3.268523141741752625e-02 5.016320228576660156e+00 1.495090484619140625e+00 9.424424171447753906e-02
2.423000000000000000e+03 6.801935672760009766e+00 -2.057861137390136719e+01 -1.146716810762882233e-02 4.006116390228271484e+00 1.198394656181335449e+00 8.331981301307678223e-02
2.424000000000000000e+03 7.300889587402343750e+01 5.777202606201171875e+00 5.368228070437908173e-03 7.695869922637939453e+00 2.310371398925781250e+00 -4.185705631971359253e-02
2.425000000000000000e+03 6.786126708984375000e+01 4.771187305450439453e+00 1.468915119767189026e-02 7.716054916381835938e+00 2.319223165512084961e+00 -6.319686025381088257e-02
2.426000000000000000e+03 7.144420623779296875e+01 -5.962093830108642578e+00 2.568694297224283218e-03 7.757370471954345703e+00 2.327981710433959961e+00 -6.319252401590347290e-02
2.427000000000000000e+03 6.727634429931640625e+00 -1.940607261657714844e+01 -2.947618812322616577e-02 3.983515739440917969e+00 1.186211943626403809e+00 9.222980588674545288e-02
2.428000000000000000e+03 7.049118041992187500e+00 -2.546539115905761719e+01 2.779343537986278534e-02 4.268984317779541016e+00 1.289033293724060059e+00 7.224705070257186890e-02
2.429000000000000000e+03 8.479287147521972656e+00 -1.496937561035156250e+01 -1.085590347647666931e-01 5.230196952819824219e+00 1.536491274833679199e+00 9.948720037937164307e-02
2.430000000000000000e+03 7.134836578369140625e+01 -1.690579605102539062e+01 -2.055373974144458771e-03 7.814742565155029297e+00 2.343806266784667969e+00 -6.307277828454971313e-02
2.431000000000000000e+03 7.129328918457031250e+01 -1.827192306518554688e+01 -6.571053527295589447e-03 7.821173667907714844e+00 2.344380855560302734e+00 -6.312204897403717041e-02
2.432000000000000000e+03 7.140648651123046875e+01 1.401930332183837891e+01 8.950695395469665527e-03 7.672578811645507812e+00 2.304458856582641602e+00 -3.308706730604171753e-02
2.433000000000000000e+03 8.024969100952148438e+00 2.010297966003417969e+01 1.678676009178161621e-01 4.835602283477783203e+00 1.501040935516357422e+00 3.200545161962509155e-02
2.434000000000000000e+03 7.133798980712890625e+01 -3.219572305679321289e+00 4.214924294501543045e-03 7.743422508239746094e+00 2.324291229248046875e+00 -6.189035624265670776e-02
2.435000000000000000e+03 6.953718185424804688e+00 2.351479339599609375e+01 1.883734464645385742e-01 3.866922378540039062e+00 1.216588735580444336e+00 -1.191969141364097595e-01
2.436000000000000000e+03 7.212779998779296875e+01 1.243119335174560547e+01 8.174873888492584229e-03 7.673720359802246094e+00 2.304568529129028320e+00 -3.361110761761665344e-02
2.437000000000000000e+03 8.262426376342773438e+00 -2.510715675354003906e+01 -1.280250027775764465e-02 5.026241779327392578e+00 1.504031777381896973e+00 1.021923348307609558e-01
2.438000000000000000e+03 6.800000667572021484e+00 -1.239024066925048828e+01 -1.922208666801452637e-01 4.117404937744140625e+00 1.177555203437805176e+00 1.690831184387207031e-01
2.439000000000000000e+03 6.977934265136718750e+01 -1.142744159698486328e+01 7.606121362186968327e-04 7.781602859497070312e+00 2.334708929061889648e+00 -7.409957796335220337e-02
2.440000000000000000e+03 7.106410980224609375e+01 -1.223569583892822266e+01 -2.107966458424925804e-03 7.790174484252929688e+00 2.336419820785522461e+00 -6.608858704566955566e-02
2.441000000000000000e+03 9.043870925903320312e+00 1.780860137939453125e+01 8.075261861085891724e-02 5.786578178405761719e+00 1.760199189186096191e+00 5.412042886018753052e-02
2.442000000000000000e+03 8.779124259948730469e+00 1.668597030639648438e+01 5.695652216672897339e-04 5.506712913513183594e+00 1.652184724807739258e+00 5.792279541492462158e-02
2.443000000000000000e+03 7.267633819580078125e+01 2.059111022949218750e+01 6.409729365259408951e-03 7.649729251861572266e+00 2.296841621398925781e+00 -1.891527324914932251e-02
2.444000000000000000e+03 2.980862617492675781e+01 -8.929777145385742188e+00 6.503883632831275463e-04 7.712553024291992188e+00 2.313961029052734375e+00 1.005777046084403992e-01
2.445000000000000000e+03 8.258923530578613281e+00 3.267564773559570312e+01 4.511417821049690247e-02 4.228547096252441406e+00 1.282098412513732910e+00 -3.866292238235473633e-01
2.446000000000000000e+03 7.129931640625000000e+01 -3.084260177612304688e+01 -1.715727709233760834e-02 7.872448444366455078e+00 2.356587409973144531e+00 -3.835824877023696899e-02
2.447000000000000000e+03 2.829714965820312500e+01 -3.321378469467163086e+00 -9.376657195389270782e-03 7.852851390838623047e+00 2.353042364120483398e+00 1.037752181291580200e-01
2.448000000000000000e+03 7.014141082763671875e+01 2.704922485351562500e+01 7.183308247476816177e-03 7.659233570098876953e+00 2.299925088882446289e+00 -1.250086259096860886e-02
2.449000000000000000e+03 7.217626953125000000e+01 2.210377883911132812e+01 6.825395859777927399e-03 7.650403022766113281e+00 2.297168493270874023e+00 -1.719444617629051208e-02
2.450000000000000000e+03 7.039155578613281250e+01 -2.878437423706054688e+01 -1.464783493429422379e-02 7.856529235839843750e+00 2.352564334869384766e+00 -4.666398093104362488e-02
2.451000000000000000e+03 2.734388351440429688e+01 1.036712527275085449e+00 6.712214648723602295e-02 7.948537826538085938e+00 2.404698133468627930e+00 8.082086592912673950e-02
2.452000000000000000e+03 2.873473930358886719e+01 1.729961585998535156e+01 6.241596117615699768e-02 8.091709136962890625e+00 2.446237564086914062e+00 2.155804820358753204e-02
2.453000000000000000e+03 7.157426452636718750e+01 1.124191999435424805e+00 6.999023258686065674e-03 7.722117424011230469e+00 2.318734884262084961e+00 -5.474340170621871948e-02
2.454000000000000000e+03 5.741005420684814453e+00 9.611609458923339844e+00 -1.465742290019989014e-01 3.210904121398925781e+00 9.192989468574523926e-01 -1.865745186805725098e-01
2.455000000000000000e+03 2.758835411071777344e+01 3.912214279174804688e+00 1.340648084878921509e-01 7.985463142395019531e+00 2.435858488082885742e+00 7.747349888086318970e-02
2.456000000000000000e+03 8.950523376464843750e+00 -2.377232742309570312e+01 -2.342664636671543121e-02 5.400125980377197266e+00 1.613009810447692871e+00 1.263964772224426270e-01
2.457000000000000000e+03 6.823895454406738281e+00 -2.175638389587402344e+01 -2.756474912166595459e-02 4.042268276214599609e+00 1.204411029815673828e+00 1.129385530948638916e-01
2.458000000000000000e+03 1.038320255279541016e+01 -2.979607772827148438e+01 7.523304224014282227e-02 6.564589023590087891e+00 1.991946578025817871e+00 -1.228427067399024963e-01
2.459000000000000000e+03 7.898759841918945312e+00 -3.044714546203613281e+01 1.748964190483093262e-01 4.734933376312255859e+00 1.472949028015136719e+00 5.284088850021362305e-02
2.460000000000000000e+03 2.715341186523437500e+01 -1.355280494689941406e+01 3.621884062886238098e-02 7.583664894104003906e+00 2.285965204238891602e+00 1.325587481260299683e-01
2.461000000000000000e+03 2.757126998901367188e+01 2.046853446960449219e+01 4.617581143975257874e-02 8.119660377502441406e+00 2.449750900268554688e+00 -1.110003795474767685e-02
2.462000000000000000e+03 2.986247634887695312e+01 2.300572776794433594e+01 7.430640608072280884e-02 8.050107002258300781e+00 2.437323808670043945e+00 -2.609185874462127686e-02
2.463000000000000000e+03 7.148910522460937500e+01 -7.220735073089599609e+00 3.462902735918760300e-03 7.764869689941406250e+00 2.330499887466430664e+00 -6.416905671358108521e-02
2.464000000000000000e+03 7.165754699707031250e+01 7.003358840942382812e+00 7.940710522234439850e-03 7.695008754730224609e+00 2.310884952545166016e+00 -4.538620263338088989e-02
2.465000000000000000e+03 7.167436981201171875e+01 8.203779220581054688e+00 8.900569751858711243e-03 7.690982818603515625e+00 2.309964895248413086e+00 -4.309511929750442505e-02
2.466000000000000000e+03 2.707304954528808594e+01 -2.052521705627441406e+01 -1.018334925174713135e-01 7.480494976043701172e+00 2.213598489761352539e+00 1.111896857619285583e-01
2.467000000000000000e+03 2.883313941955566406e+01 1.075873088836669922e+01 1.053609102964401245e-01 8.055265426635742188e+00 2.448187828063964844e+00 7.490374892950057983e-02
2.468000000000000000e+03 6.948063850402832031e+00 3.613035583496093750e+01 -1.852079480886459351e-01 3.474972486495971680e+00 9.869293570518493652e-01 -4.161306619644165039e-01
2.469000000000000000e+03 8.785026550292968750e+00 3.014852714538574219e+01 2.116208225488662720e-01 4.670773506164550781e+00 1.464718222618103027e+00 -2.616448104381561279e-01
2.470000000000000000e+03 8.742634773254394531e+00 2.891746711730957031e+01 2.407954931259155273e-01 4.754270553588867188e+00 1.498519778251647949e+00 -2.150550484657287598e-01
2.471000000000000000e+03 9.773663520812988281e+00 3.319315719604492188e+01 3.186924755573272705e-02 4.860570430755615234e+00 1.467731833457946777e+00 -2.726504206657409668e-01
2.472000000000000000e+03 8.290433883666992188e+00 1.525239467620849609e+01 1.096706604585051537e-03 5.197769165039062500e+00 1.559659719467163086e+00 9.614309668540954590e-02
2.473000000000000000e+03 6.984231948852539062e+00 2.627342224121093750e+01 2.024331688880920410e-01 3.814054012298583984e+00 1.204946160316467285e+00 -2.034163624048233032e-01
2.474000000000000000e+03 7.163485717773437500e+01 -1.572551059722900391e+01 -4.296938888728618622e-03 7.810618400573730469e+00 2.341896533966064453e+00 -6.258636713027954102e-02
2.475000000000000000e+03 7.137091827392578125e+01 -1.409062576293945312e+01 -2.565301256254315376e-03 7.801387786865234375e+00 2.339646577835083008e+00 -6.362050026655197144e-02
2.476000000000000000e+03 8.315447807312011719e+00 -3.642914199829101562e+01 2.064682394266128540e-01 4.751339912414550781e+00 1.487342357635498047e+00 4.623815119266510010e-01
2.477000000000000000e+03 7.229226589202880859e+00 -3.122375488281250000e+01 1.689981818199157715e-01 4.271635055541992188e+00 1.332189917564392090e+00 1.256205886602401733e-01
2.478000000000000000e+03 7.071085357666015625e+01 1.178945350646972656e+01 1.080795004963874817e-02 7.683238506317138672e+00 2.308213949203491211e+00 -3.958164900541305542e-02
2.479000000000000000e+03 8.009586334228515625e+00 -1.278007602691650391e+01 -2.026297599077224731e-01 5.025874614715576172e+00 1.446973443031311035e+00 1.031409353017807007e-01
2.480000000000000000e+03 8.596256256103515625e+00 -1.347029972076416016e+01 -1.524035781621932983e-01 5.378175258636474609e+00 1.567731499671936035e+00 8.303017169237136841e-02
2.481000000000000000e+03 2.751941871643066406e+01 1.349783229827880859e+01 7.171955704689025879e-02 8.123057365417480469e+00 2.458432912826538086e+00 5.676726251840591431e-02
2.482000000000000000e+03 3.204822921752929688e+01 1.511546325683593750e+01 9.607328474521636963e-02 8.004433631896972656e+00 2.430151939392089844e+00 2.376893907785415649e-02
2.483000000000000000e+03 7.128408813476562500e+01 -1.968608856201171875e+01 -4.540621768683195114e-03 7.828672885894775391e+00 2.347239732742309570e+00 -5.960411205887794495e-02
2.484000000000000000e+03 6.999229431152343750e+01 1.973691177368164062e+01 1.115414407104253769e-02 7.669365406036376953e+00 2.304155826568603516e+00 -2.467434853315353394e-02
2.485000000000000000e+03 2.873874855041503906e+01 9.479946136474609375e+00 1.244198530912399292e-01 8.053096771240234375e+00 2.453254938125610352e+00 8.377435058355331421e-02
2.486000000000000000e+03 2.880455589294433594e+01 1.208772373199462891e+01 9.483379870653152466e-02 8.078161239624023438e+00 2.451898574829101562e+00 6.538096070289611816e-02
2.487000000000000000e+03 2.765557098388671875e+01 6.823802471160888672e+00 1.480583846569061279e-01 8.033437728881835938e+00 2.454448699951171875e+00 9.830912202596664429e-02
2.488000000000000000e+03 2.956718826293945312e+01 1.535063838958740234e+01 7.455792278051376343e-02 8.064384460449218750e+00 2.441682815551757812e+00 3.443065285682678223e-02
2.489000000000000000e+03 2.885075759887695312e+01 2.020854759216308594e+01 6.296619772911071777e-02 8.096800804138183594e+00 2.447930097579956055e+00 -1.075849216431379318e-02
2.490000000000000000e+03 7.232042694091796875e+01 -2.825785446166992188e+01 -8.921592496335506439e-03 7.877489089965820312e+00 2.360570192337036133e+00 -4.024016112089157104e-02
2.491000000000000000e+03 6.910818576812744141e+00 2.102574729919433594e+01 1.371172368526458740e-01 3.877230405807495117e+00 1.204304218292236328e+00 -5.620231851935386658e-02
2.492000000000000000e+03 3.145981788635253906e+01 2.648839569091796875e+01 1.258778274059295654e-01 7.987025737762451172e+00 2.433871030807495117e+00 -3.800533711910247803e-02
2.493000000000000000e+03 2.795874977111816406e+01 2.597818183898925781e+01 8.745527267456054688e-02 8.082383155822753906e+00 2.450951337814331055e+00 -5.498715862631797791e-02
2.494000000000000000e+03 2.714067459106445312e+01 -2.201644134521484375e+01 -6.323240697383880615e-02 7.454125404357910156e+00 2.217267990112304688e+00 1.482594907283782959e-01
2.495000000000000000e+03 9.013360977172851562e+00 3.685607147216796875e+01 -2.900500893592834473e-01 4.250078678131103516e+00 1.188008666038513184e+00 -3.236452937126159668e-01
2.496000000000000000e+03 7.264602184295654297e+00 -2.671018218994140625e+01 2.040326967835426331e-02 4.393366336822509766e+00 1.324130892753601074e+00 7.540731132030487061e-02
2.497000000000000000e+03 9.238099098205566406e+00 -2.737718772888183594e+01 -2.275188453495502472e-02 5.715168476104736328e+00 1.707724928855895996e+00 6.124689057469367981e-02
2.498000000000000000e+03 8.533357620239257812e+00 3.088568449020385742e+00 3.837947845458984375e-01 6.823777675628662109e+00 2.162271738052368164e+00 -3.249429941177368164e+00
2.499000000000000000e+03 7.962145805358886719e+00 -2.817603826522827148e+00 1.269598960876464844e+00 4.787256240844726562e+00 1.817056536674499512e+00 3.208156347274780273e+00
2.500000000000000000e+03 6.301084518432617188e+00 2.911010503768920898e+00 9.829810857772827148e-01 1.616128921508789062e+00 7.797330021858215332e-01 -1.076312303543090820e+00
2.501000000000000000e+03 4.733965873718261719e+00 5.053695678710937500e+00 4.335330426692962646e-01 1.508240222930908203e+00 5.825319886207580566e-01 -3.853187859058380127e-01
2.502000000000000000e+03 8.347826957702636719e+00 3.405580520629882812e+00 2.686316967010498047e-01 6.406711101531982422e+00 2.002602815628051758e+00 -2.895787000656127930e+00
2.503000000000000000e+03 7.193706035614013672e+00 -2.985379219055175781e+00 1.277859449386596680e+00 3.148730039596557617e+00 1.327976822853088379e+00 2.287268161773681641e+00
2.504000000000000000e+03 6.910283565521240234e+00 -3.078125476837158203e+00 1.214885354042053223e+00 2.635360002517700195e+00 1.155073523521423340e+00 1.873954057693481445e+00
2.505000000000000000e+03 7.460245132446289062e+00 -2.969655275344848633e+00 1.310409069061279297e+00 3.606383085250854492e+00 1.475037693977355957e+00 2.575457811355590820e+00
2.506000000000000000e+03 5.001133441925048828e+00 2.956123352050781250e+00 6.143628358840942383e-01 7.381805777549743652e-01 4.057630300521850586e-01 -2.074692249298095703e-01
2.507000000000000000e+03 5.244356155395507812e+00 3.269434690475463867e+00 7.041796445846557617e-01 1.003343939781188965e+00 5.122570991516113281e-01 -3.894927799701690674e-01
2.508000000000000000e+03 4.953167438507080078e+00 -6.809201717376708984e+00 1.523824632167816162e-01 2.329227209091186523e+00 7.444829344749450684e-01 6.168304681777954102e-01
2.509000000000000000e+03 1.030507087707519531e+01 3.829859733581542969e+00 -1.958173990249633789e+00 1.125303363800048828e+01 2.788457870483398438e+00 -5.703673362731933594e-01
2.510000000000000000e+03 4.649985790252685547e+00 -4.075978279113769531e+00 6.259574294090270996e-01 1.131596088409423828e+00 5.272660851478576660e-01 4.386657476425170898e-01
2.511000000000000000e+03 1.063993549346923828e+01 -3.656135082244873047e+00 -2.040647268295288086e+00 1.206675910949707031e+01 3.007833480834960938e+00 -4.140207916498184204e-02
2.512000000000000000e+03 9.319823265075683594e+00 -3.269236087799072266e+00 -8.158509731292724609e-01 9.986291885375976562e+00 2.751132249832153320e+00 2.824354410171508789e+00
2.513000000000000000e+03 4.484849452972412109e+00 -3.264157056808471680e+00 5.927450656890869141e-01 6.845879554748535156e-01 3.831999003887176514e-01 2.080845236778259277e-01
2.514000000000000000e+03 4.110154628753662109e+00 -3.962930440902709961e+00 5.542080998420715332e-01 7.821474671363830566e-01 4.009066820144653320e-01 1.972639262676239014e-01
2.515000000000000000e+03 3.585298299789428711e+00 4.099081516265869141e+00 3.944100439548492432e-01 4.349713623523712158e-01 2.488144189119338989e-01 8.419862389564514160e-02
2.516000000000000000e+03 4.357190132141113281e+00 3.339614391326904297e+00 5.062238574028015137e-01 5.899952054023742676e-01 3.288657069206237793e-01 -8.933011442422866821e-03
2.517000000000000000e+03 3.585838317871093750e+00 -3.882184505462646484e+00 4.385986328125000000e-01 4.984684586524963379e-01 2.811201214790344238e-01 2.233004570007324219e-02
2.518000000000000000e+03 1.046417045593261719e+01 4.399164676666259766e+00 -1.933533787727355957e+00 1.043791484832763672e+01 2.551314353942871094e+00 -2.687781304121017456e-02
2.519000000000000000e+03 9.095520973205566406e+00 -3.152033805847167969e+00 -3.311128318309783936e-01 9.260083198547363281e+00 2.678691148757934570e+00 3.405158281326293945e+00
2.520000000000000000e+03 8.441210746765136719e+00 -2.834145545959472656e+00 9.376323223114013672e-01 6.471344470977783203e+00 2.222692966461181641e+00 3.671635389328002930e+00
2.521000000000000000e+03 9.167268753051757812e+00 3.537827014923095703e+00 -8.159540295600891113e-01 9.115510940551757812e+00 2.489867210388183594e+00 -2.547706842422485352e+00
2.522000000000000000e+03 9.269145965576171875e+00 3.161086320877075195e+00 -7.773548960685729980e-01 9.999886512756347656e+00 2.766759395599365234e+00 -2.889960289001464844e+00
2.523000000000000000e+03 4.311853885650634766e+00 3.916450023651123047e+00 5.018545985221862793e-01 7.499146461486816406e-01 3.755307793617248535e-01 -1.095247790217399597e-01
2.524000000000000000e+03 1.246932506561279297e+01 -2.413287878036499023e+00 6.785310804843902588e-02 1.022268009185791016e+01 3.087159872055053711e+00 -3.743843317031860352e+00
2.525000000000000000e+03 1.083856296539306641e+01 6.994670391082763672e+00 -1.142306685447692871e+00 8.199977874755859375e+00 2.117301464080810547e+00 5.983088016510009766e-01
2.526000000000000000e+03 5.609518527984619141e+00 8.326854705810546875e+00 -4.745380952954292297e-02 3.093369245529174805e+00 9.137746691703796387e-01 -3.189182877540588379e-01
2.527000000000000000e+03 5.194009780883789062e+00 8.366456985473632812e+00 -3.042049705982208252e-03 2.608932733535766602e+00 7.817671895027160645e-01 -3.335721194744110107e-01
2.528000000000000000e+03 4.830406188964843750e+00 -7.280282497406005859e+00 1.047120243310928345e-01 2.334172725677490234e+00 7.316654324531555176e-01 5.533827543258666992e-01
2.529000000000000000e+03 4.341397762298583984e+00 -6.687301158905029297e+00 1.901238411664962769e-01 1.807814359664916992e+00 5.993814468383789062e-01 4.859476387500762939e-01
2.530000000000000000e+03 1.137753868103027344e+01 4.746139049530029297e+00 -1.874840140342712402e+00 1.016411590576171875e+01 2.486782550811767578e+00 1.300065398216247559e+00
2.531000000000000000e+03 1.043562316894531250e+01 -4.130804061889648438e+00 -1.983904361724853516e+00 1.098294734954833984e+01 2.699712991714477539e+00 2.457245439291000366e-01
2.532000000000000000e+03 1.071799373626708984e+01 5.026675701141357422e+00 -1.805794119834899902e+00 9.774637222290039062e+00 2.390652894973754883e+00 3.984555900096893311e-01
2.533000000000000000e+03 3.462828874588012695e+00 5.580422878265380859e+00 2.820881605148315430e-01 7.114107012748718262e-01 2.980496585369110107e-01 -7.516919821500778198e-02
2.534000000000000000e+03 3.716101169586181641e+00 4.976048469543457031e+00 3.390662968158721924e-01 7.536103129386901855e-01 3.278029859066009521e-01 -6.157766655087471008e-02
2.535000000000000000e+03 1.159491539001464844e+01 -6.458313941955566406e+00 -1.202130675315856934e+00 8.465209960937500000e+00 2.178923845291137695e+00 -9.055295586585998535e-01
2.536000000000000000e+03 4.882325649261474609e+00 -8.867834091186523438e+00 -7.813186198472976685e-02 2.502289533615112305e+00 7.272472977638244629e-01 4.232369065284729004e-01
2.537000000000000000e+03 6.363844394683837891e+00 -7.943217277526855469e+00 -1.918917149305343628e-01 3.790289163589477539e+00 1.079519271850585938e+00 6.386844515800476074e-01
2.538000000000000000e+03 1.070575714111328125e+01 -3.986182928085327148e+00 -2.021190166473388672e+00 1.117797088623046875e+01 2.747034311294555664e+00 -8.473831415176391602e-02
2.539000000000000000e+03 3.233971357345581055e+00 4.611120700836181641e+00 3.472443819046020508e-01 3.765621483325958252e-01 2.171419560909271240e-01 8.795333653688430786e-02
2.540000000000000000e+03 9.238397598266601562e+00 9.750421524047851562e+00 -4.660970866680145264e-01 6.297848224639892578e+00 1.749525308609008789e+00 1.221839338541030884e-01
2.541000000000000000e+03 4.576776027679443359e+00 5.412648200988769531e+00 3.566696345806121826e-01 1.473005294799804688e+00 5.489025115966796875e-01 -3.420736193656921387e-01
2.542000000000000000e+03 6.087598800659179688e+00 8.351766586303710938e+00 -1.443348377943038940e-01 3.615669012069702148e+00 1.041400313377380371e+00 -3.769975304603576660e-01
2.543000000000000000e+03 8.386606216430664062e+00 1.013062858581542969e+01 -3.814930319786071777e-01 5.529463768005371094e+00 1.544391155242919922e+00 7.995466585271060467e-04
2.544000000000000000e+03 1.001221656799316406e+01 7.130836963653564453e+00 -1.098995089530944824e+00 7.677129745483398438e+00 1.973440408706665039e+00 1.184053122997283936e-01
2.545000000000000000e+03 4.568594932556152344e+00 -6.093327522277832031e+00 2.655066847801208496e-01 1.827522516250610352e+00 6.279087662696838379e-01 5.490878224372863770e-01
2.546000000000000000e+03 7.803959369659423828e+00 1.121615886688232422e+01 -2.653120458126068115e-01 4.945963382720947266e+00 1.404195308685302734e+00 1.586706191301345825e-02
2.547000000000000000e+03 8.698414802551269531e+00 -1.061925601959228516e+01 -3.926845490932464600e-01 5.697106838226318359e+00 1.591326713562011719e+00 9.018315374851226807e-02
2.548000000000000000e+03 6.565948009490966797e+00 -1.150897884368896484e+01 -2.092782109975814819e-01 3.985476016998291016e+00 1.132859349250793457e+00 2.246750891208648682e-01
2.549000000000000000e+03 7.962209224700927734e+00 -1.737454223632812500e+01 -2.942983433604240417e-02 4.894738674163818359e+00 1.459592700004577637e+00 9.588143229484558105e-02
2.550000000000000000e+03 1.094797801971435547e+01 -6.920304775238037109e+00 -1.140340089797973633e+00 8.160624504089355469e+00 2.106085538864135742e+00 -5.203210115432739258e-01
2.551000000000000000e+03 4.542841911315917969e+00 6.667755603790283203e+00 1.770624816417694092e-01 1.804235696792602539e+00 5.943894386291503906e-01 -3.247326910495758057e-01
2.552000000000000000e+03 5.635877609252929688e+00 -9.312936782836914062e+00 -1.737975031137466431e-01 3.230221509933471680e+00 9.169272184371948242e-01 4.281068742275238037e-01
2.553000000000000000e+03 5.542267799377441406e+00 -8.677163124084472656e+00 -1.434771716594696045e-01 3.093018293380737305e+00 8.848623633384704590e-01 4.871038496494293213e-01
2.554000000000000000e+03 9.621224403381347656e+00 -1.007457828521728516e+01 -4.813763499259948730e-01 6.427886009216308594e+00 1.783952951431274414e+00 -2.927820011973381042e-02
2.555000000000000000e+03 9.440785408020019531e+00 -1.081484413146972656e+01 -3.762748539447784424e-01 6.182621479034423828e+00 1.741903901100158691e+00 3.019641153514385223e-03
2.556000000000000000e+03 8.672868728637695312e+00 -1.219875144958496094e+01 -2.387107163667678833e-01 5.501433372497558594e+00 1.578816890716552734e+00 7.409522682428359985e-02
2.557000000000000000e+03 8.619023323059082031e+00 3.688555955886840820e+00 -2.453722953796386719e-01 7.308265209197998047e+00 2.118867874145507812e+00 -2.617352962493896484e+00
2.558000000000000000e+03 7.522549152374267578e+00 1.045812606811523438e+01 -2.967080175876617432e-01 4.743432044982910156e+00 1.334017157554626465e+00 -4.012005776166915894e-02
2.559000000000000000e+03 7.135482025146484375e+01 -1.775854110717773438e+00 6.510157138109207153e-03 7.735770702362060547e+00 2.322684288024902344e+00 -5.994217842817306519e-02
2.560000000000000000e+03 6.769351196289062500e+01 -3.464576721191406250e+00 8.542279712855815887e-03 7.743744850158691406e+00 2.325686216354370117e+00 -7.814909517765045166e-02
2.561000000000000000e+03 8.188512802124023438e+00 -1.170729732513427734e+01 -2.780190408229827881e-01 5.208899974822998047e+00 1.479264259338378906e+00 1.146187409758567810e-01
2.562000000000000000e+03 9.146723747253417969e+00 -1.153577804565429688e+01 -3.046241402626037598e-01 5.915798664093017578e+00 1.683352351188659668e+00 3.048283234238624573e-02
2.563000000000000000e+03 9.109200477600097656e+00 1.993987655639648438e+01 1.364552676677703857e-01 5.629339218139648438e+00 1.729738354682922363e+00 5.551234260201454163e-02
2.564000000000000000e+03 6.950636291503906250e+01 -8.182399749755859375e+00 2.666164888069033623e-03 7.765068054199218750e+00 2.330320358276367188e+00 -7.377118617296218872e-02
2.565000000000000000e+03 7.135287475585937500e+01 -4.623313903808593750e+00 4.720695316791534424e-03 7.751027107238769531e+00 2.326724290847778320e+00 -6.277603656053543091e-02
2.566000000000000000e+03 7.779865741729736328e+00 -1.826024246215820312e+01 -7.903136312961578369e-02 4.741774082183837891e+00 1.398822903633117676e+00 1.288837939500808716e-01
2.567000000000000000e+03 7.167933654785156250e+01 4.359096050262451172e+00 7.079522125422954559e-03 7.706439971923828125e+00 2.314055919647216797e+00 -5.010946840047836304e-02
2.568000000000000000e+03 7.050094604492187500e+01 -1.046853733062744141e+01 -6.172383436933159828e-04 7.779302597045898438e+00 2.333605527877807617e+00 -6.925291568040847778e-02
2.569000000000000000e+03 6.942668914794921875e+01 -1.756466484069824219e+01 -5.497592967003583908e-03 7.808670520782470703e+00 2.340951919555664062e+00 -7.286502420902252197e-02
2.570000000000000000e+03 6.937191772460937500e+01 -2.246863174438476562e+01 -1.321025006473064423e-02 7.827634334564208984e+00 2.344327211380004883e+00 -6.504340469837188721e-02
2.571000000000000000e+03 6.810361480712890625e+01 -2.882733535766601562e+01 -1.978305727243423462e-02 7.840059757232666016e+00 2.346083164215087891e+00 -5.092994496226310730e-02
2.572000000000000000e+03 6.997844696044921875e+01 -7.072752714157104492e-02 8.716755546629428864e-03 7.729665279388427734e+00 2.321514606475830078e+00 -6.422086805105209351e-02
2.573000000000000000e+03 7.222459411621093750e+01 3.002367973327636719e+00 6.762803066521883011e-03 7.712174415588378906e+00 2.315681219100952148e+00 -4.994783177971839905e-02
2.574000000000000000e+03 6.948461151123046875e+01 1.097670745849609375e+01 1.368802413344383240e-02 7.692243099212646484e+00 2.311779260635375977e+00 -4.517611861228942871e-02
2.575000000000000000e+03 3.046228790283203125e+01 -2.083670616149902344e+01 -7.197497040033340454e-02 7.515574932098388672e+00 2.233079910278320312e+00 6.148673966526985168e-02
2.576000000000000000e+03 3.018973922729492188e+01 -1.199708080291748047e+01 2.282581990584731102e-03 7.645644664764404297e+00 2.294378280639648438e+00 7.985346764326095581e-02
2.577000000000000000e+03 7.138845825195312500e+01 -8.412220954895019531e+00 9.599326876923441887e-04 7.770642280578613281e+00 2.331480741500854492e+00 -6.466751545667648315e-02
2.578000000000000000e+03 7.606562614440917969e+00 1.400770187377929688e+01 -9.313032776117324829e-02 4.609613895416259766e+00 1.354945063591003418e+00 6.508634239435195923e-02
2.579000000000000000e+03 7.067150878906250000e+01 8.748348236083984375e+00 9.576141834259033203e-03 7.693014621734619141e+00 2.310777187347412109e+00 -4.560306295752525330e-02
2.580000000000000000e+03 7.166315460205078125e+01 9.319616317749023438e+00 7.441417779773473740e-03 7.686109066009521484e+00 2.308065176010131836e+00 -4.099122062325477600e-02
2.581000000000000000e+03 7.050559997558593750e+01 -1.521963214874267578e+01 -1.881086616776883602e-03 7.803228855133056641e+00 2.340404272079467773e+00 -6.910528987646102905e-02
2.582000000000000000e+03 7.963496208190917969e+00 -1.928099632263183594e+01 -1.395590789616107941e-02 4.866667270660400391e+00 1.455813407897949219e+00 9.046146273612976074e-02
2.583000000000000000e+03 9.139236450195312500e+00 -1.888751983642578125e+01 -6.460691988468170166e-02 5.660056114196777344e+00 1.678634762763977051e+00 1.037766486406326294e-01
2.584000000000000000e+03 7.747102737426757812e+00 -1.416809749603271484e+01 -1.286352127790451050e-01 4.797863006591796875e+00 1.400768280029296875e+00 1.058022677898406982e-01
2.585000000000000000e+03 3.034892463684082031e+01 1.882065892219543457e+00 9.644448012113571167e-02 7.903448104858398438e+00 2.399967908859252930e+00 3.173302114009857178e-02
2.586000000000000000e+03 3.143163490295410156e+01 1.661027908325195312e+01 8.212166279554367065e-02 8.019388198852539062e+00 2.430453062057495117e+00 1.878033578395843506e-02
2.587000000000000000e+03 2.897298812866210938e+01 2.138757324218750000e+01 6.472332030534744263e-02 8.077153205871582031e+00 2.442563056945800781e+00 -1.823462732136249542e-02
2.588000000000000000e+03 3.028951644897460938e+01 1.059692096710205078e+01 1.166846007108688354e-01 8.014983177185058594e+00 2.439500331878662109e+00 5.869393050670623779e-02
2.589000000000000000e+03 3.181278038024902344e+01 1.015341377258300781e+01 1.186432763934135437e-01 7.964500904083251953e+00 2.424943208694458008e+00 4.101009294390678406e-02
2.590000000000000000e+03 2.875255393981933594e+01 -5.195197105407714844e+00 -1.335035427473485470e-03 7.802578926086425781e+00 2.340373039245605469e+00 1.117094531655311584e-01
2.591000000000000000e+03 2.842708587646484375e+01 -1.982976675033569336e+00 2.064028941094875336e-02 7.873958587646484375e+00 2.368379592895507812e+00 7.757842540740966797e-02
2.592000000000000000e+03 7.048629760742187500e+01 1.564701080322265625e+01 1.074711792171001434e-02 7.673974514007568359e+00 2.305416345596313477e+00 -3.204561024904251099e-02
2.593000000000000000e+03 6.992115020751953125e+01 1.319581508636474609e+01 1.216960232704877853e-02 7.683663845062255859e+00 2.308749914169311523e+00 -3.901402652263641357e-02
2.594000000000000000e+03 6.915996074676513672e+00 2.224134635925292969e+01 1.680359542369842529e-01 3.870942592620849609e+00 1.211693525314331055e+00 -8.357169479131698608e-02
2.595000000000000000e+03 7.572047233581542969e+00 -1.206402969360351562e+01 -2.283673137426376343e-01 4.732241153717041016e+00 1.351162195205688477e+00 1.344000399112701416e-01
2.596000000000000000e+03 3.004378318786621094e+01 -1.041987895965576172e+01 1.687591336667537689e-02 7.674752235412597656e+00 2.307488441467285156e+00 9.674504399299621582e-02
2.597000000000000000e+03 2.837488365173339844e+01 -9.175977706909179688e+00 1.741151139140129089e-02 7.695460796356201172e+00 2.313861608505249023e+00 1.412141472101211548e-01
2.598000000000000000e+03 2.855517387390136719e+01 -2.193771743774414062e+01 -8.891697227954864502e-02 7.475695610046386719e+00 2.216033697128295898e+00 9.112222492694854736e-02
2.599000000000000000e+03 3.126395606994628906e+01 2.381555747985839844e+01 1.023776903748512268e-01 8.019652366638183594e+00 2.436609029769897461e+00 -3.255059197545051575e-02
2.600000000000000000e+03 6.944248199462890625e+00 1.223928642272949219e+01 -1.541479080915451050e-01 4.194116115570068359e+00 1.211990356445312500e+00 1.382112037390470505e-02
2.601000000000000000e+03 6.915338993072509766e+00 1.143858718872070312e+01 -2.112681865692138672e-01 4.173957347869873047e+00 1.188806772232055664e+00 -1.620948128402233124e-02
2.602000000000000000e+03 8.999375343322753906e+00 -3.342874526977539062e+01 4.834154844284057617e-01 5.179354190826416016e+00 1.698830842971801758e+00 1.232590451836585999e-01
2.603000000000000000e+03 7.055644035339355469e+00 -2.926605606079101562e+01 1.051265671849250793e-01 4.170575141906738281e+00 1.282710552215576172e+00 6.855621933937072754e-02
2.604000000000000000e+03 8.151828765869140625e+00 -2.935775756835937500e+01 1.019506677985191345e-01 4.937638759613037109e+00 1.511876821517944336e+00 7.417530566453933716e-02
2.605000000000000000e+03 9.411814689636230469e+00 -2.844628334045410156e+01 7.055427879095077515e-02 5.949882030487060547e+00 1.806130886077880859e+00 -8.052609860897064209e-03
2.606000000000000000e+03 9.249519348144531250e+00 -2.195031547546386719e+01 -1.461043767631053925e-02 5.678505897521972656e+00 1.699168562889099121e+00 1.042675822973251343e-01
2.607000000000000000e+03 7.141703796386718750e+01 -3.089202940464019775e-01 5.258043762296438217e-03 7.728401184082031250e+00 2.320097684860229492e+00 -5.746893957257270813e-02
2.608000000000000000e+03 6.860991668701171875e+01 -2.045866966247558594e+01 -1.233464758843183517e-02 7.814819812774658203e+00 2.340745687484741211e+00 -7.066497951745986938e-02
2.609000000000000000e+03 9.309682846069335938e+00 -1.414680194854736328e+01 -1.165560707449913025e-01 5.846056461334228516e+00 1.718850135803222656e+00 4.500077292323112488e-02
2.610000000000000000e+03 2.977087020874023438e+01 -2.232580661773681641e+00 1.900156773626804352e-02 7.854172706604003906e+00 2.361952304840087891e+00 6.452729552984237671e-02
2.611000000000000000e+03 7.047430419921875000e+01 6.452996253967285156e+00 9.874067269265651703e-03 7.702475070953369141e+00 2.313704729080200195e+00 -5.111446604132652283e-02
2.612000000000000000e+03 2.895527839660644531e+01 8.272153854370117188e+00 1.299317777156829834e-01 8.015254020690917969e+00 2.443555831909179688e+00 7.813049852848052979e-02
2.613000000000000000e+03 2.745768737792968750e+01 1.932334136962890625e+01 5.109617859125137329e-02 8.134618759155273438e+00 2.455714464187622070e+00 -2.457184949889779091e-03
2.614000000000000000e+03 3.045680809020996094e+01 2.148492240905761719e+01 8.320824056863784790e-02 8.052042961120605469e+00 2.440575361251831055e+00 -2.041197940707206726e-02
2.615000000000000000e+03 7.071701049804687500e+01 2.175199890136718750e+01 9.628152474761009216e-03 7.661285400390625000e+00 2.301274061203002930e+00 -2.051549591124057770e-02
2.616000000000000000e+03 6.922642517089843750e+01 2.129562950134277344e+01 1.131488569080829620e-02 7.672316074371337891e+00 2.305089235305786133e+00 -2.310676313936710358e-02
2.617000000000000000e+03 8.621172904968261719e+00 -3.191082572937011719e+01 2.850402891635894775e-01 5.106218338012695312e+00 1.617377519607543945e+00 1.067570224404335022e-01
2.618000000000000000e+03 7.108244323730468750e+01 -2.113818550109863281e+01 -8.876184001564979553e-03 7.834212303161621094e+00 2.347600698471069336e+00 -6.060174107551574707e-02
2.619000000000000000e+03 6.982149505615234375e+01 -2.093496513366699219e+01 -7.037618663161993027e-03 7.824591159820556641e+00 2.345266103744506836e+00 -6.434980779886245728e-02
2.620000000000000000e+03 6.990528106689453125e+01 2.538094902038574219e+01 7.846081629395484924e-03 7.662485599517822266e+00 2.301099538803100586e+00 -1.489945314824581146e-02
2.621000000000000000e+03 7.016605377197265625e+01 2.352675628662109375e+01 9.422828443348407745e-03 7.662672996520996094e+00 2.301628828048706055e+00 -1.781223900616168976e-02
2.622000000000000000e+03 2.975219154357910156e+01 -3.585416555404663086e+00 1.513905543833971024e-02 7.826854705810546875e+00 2.352598190307617188e+00 7.240257412195205688e-02
2.623000000000000000e+03 2.988247680664062500e+01 -9.006296992301940918e-01 5.121691524982452393e-02 7.873319625854492188e+00 2.377360820770263672e+00 4.333159700036048889e-02
2.624000000000000000e+03 3.073621177673339844e+01 1.425384902954101562e+01 8.836999535560607910e-02 8.029003143310546875e+00 2.435212135314941406e+00 3.861353918910026550e-02
2.625000000000000000e+03 2.891814041137695312e+01 1.431870937347412109e+01 7.588557898998260498e-02 8.083429336547851562e+00 2.447794437408447266e+00 4.273263737559318542e-02
2.626000000000000000e+03 8.125773429870605469e+00 -3.289133834838867188e+01 3.153170347213745117e-01 4.843111991882324219e+00 1.547528743743896484e+00 1.600034236907958984e-01
2.627000000000000000e+03 7.013734436035156250e+01 -3.268004226684570312e+01 -1.748078316450119019e-02 7.867775917053222656e+00 2.355088710784912109e+00 -3.412076085805892944e-02
2.628000000000000000e+03 3.009307479858398438e+01 1.657700920104980469e+01 7.413088530302047729e-02 8.061694145202636719e+00 2.440747499465942383e+00 2.131819166243076324e-02
2.629000000000000000e+03 7.021717834472656250e+01 -1.329784488677978516e+01 -7.967988494783639908e-04 7.793249130249023438e+00 2.337735652923583984e+00 -7.075309008359909058e-02
2.630000000000000000e+03 6.815238189697265625e+01 -1.517800521850585938e+01 -5.792056210339069366e-03 7.791969776153564453e+00 2.335853338241577148e+00 -7.935943454504013062e-02
2.631000000000000000e+03 7.035597229003906250e+01 -2.649665260314941406e+01 -1.322479359805583954e-02 7.850778102874755859e+00 2.351265907287597656e+00 -5.146728456020355225e-02
2.632000000000000000e+03 6.844854736328125000e+01 -2.634226799011230469e+01 -1.931136101484298706e-02 7.833489418029785156e+00 2.344253540039062500e+00 -5.934755504131317139e-02
2.633000000000000000e+03 6.899992370605468750e+01 1.474036979675292969e+01 1.433883793652057648e-02 7.684902667999267578e+00 2.309772491455078125e+00 -3.784338012337684631e-02
2.634000000000000000e+03 6.723061370849609375e+01 -2.368559074401855469e+01 -1.920823007822036743e-02 7.816673278808593750e+00 2.339239597320556641e+00 -6.907646358013153076e-02
2.635000000000000000e+03 8.616917610168457031e+00 2.768976020812988281e+01 2.691262364387512207e-01 4.786697864532470703e+00 1.516747236251831055e+00 -1.840776503086090088e-01
2.636000000000000000e+03 1.131066131591796875e+01 3.717193603515625000e+01 -3.796130120754241943e-01 5.000549793243408203e+00 1.386281132698059082e+00 -1.001622080802917480e-01
2.637000000000000000e+03 8.172602653503417969e+00 2.229122352600097656e+01 2.095400989055633545e-01 4.830821514129638672e+00 1.512108564376831055e+00 -3.664604574441909790e-02
2.638000000000000000e+03 2.924439048767089844e+01 6.857843875885009766e+00 1.452617198228836060e-01 7.994980335235595703e+00 2.442072629928588867e+00 6.952723115682601929e-02
2.639000000000000000e+03 3.135129737854003906e+01 8.461338996887207031e+00 1.308616250753402710e-01 7.965255260467529297e+00 2.428835153579711914e+00 4.741093888878822327e-02
2.640000000000000000e+03 7.225675964355468750e+01 -3.372821426391601562e+01 -1.488631684333086014e-02 7.893103599548339844e+00 2.363465309143066406e+00 -2.832653187215328217e-02
2.641000000000000000e+03 6.664929199218750000e+01 2.247354888916015625e+01 1.637396961450576782e-02 7.687029361724853516e+00 2.311021089553833008e+00 -2.315722219645977020e-02
2.642000000000000000e+03 1.080548191070556641e+01 -5.359800338745117188e+00 -1.713706374168395996e+00 9.315176010131835938e+00 2.280440807342529297e+00 -4.611143767833709717e-01
2.643000000000000000e+03 4.836047172546386719e+00 6.277331352233886719e+00 2.125407308340072632e-01 1.987328529357910156e+00 6.599608063697814941e-01 -4.078615307807922363e-01
2.644000000000000000e+03 7.653567314147949219e+00 3.374237537384033203e+00 7.817105650901794434e-01 4.492207050323486328e+00 1.582175374031066895e+00 -2.455397367477416992e+00
2.645000000000000000e+03 7.303089618682861328e+00 3.290805816650390625e+00 9.320256710052490234e-01 3.580484151840209961e+00 1.353752970695495605e+00 -2.127604722976684570e+00
2.646000000000000000e+03 6.589326381683349609e+00 -3.153399705886840820e+00 1.138951897621154785e+00 2.212193489074707031e+00 1.005343556404113770e+00 1.582660794258117676e+00
2.647000000000000000e+03 9.128815650939941406e+00 -3.833611488342285156e+00 -8.070203661918640137e-01 8.785147666931152344e+00 2.393438100814819336e+00 2.419848442077636719e+00
2.648000000000000000e+03 8.630929946899414062e+00 -2.973397970199584961e+00 5.110411047935485840e-01 7.487792968750000000e+00 2.399650335311889648e+00 3.639077663421630859e+00
2.649000000000000000e+03 9.899409294128417969e+00 3.880529403686523438e+00 -1.760321021080017090e+00 1.072954845428466797e+01 2.690768241882324219e+00 -1.121555089950561523e+00
2.650000000000000000e+03 4.742631435394287109e+00 -2.944288969039916992e+00 6.300529837608337402e-01 6.589626669883728027e-01 3.867047131061553955e-01 2.265350520610809326e-01
2.651000000000000000e+03 5.123661518096923828e+00 -3.980949401855468750e+00 7.111538648605346680e-01 1.408031344413757324e+00 6.357555389404296875e-01 6.376234292984008789e-01
2.652000000000000000e+03 5.079260826110839844e+00 -3.178205490112304688e+00 7.176535725593566895e-01 9.258071184158325195e-01 4.930382072925567627e-01 4.389711618423461914e-01
2.653000000000000000e+03 3.510340929031372070e+00 -4.359850406646728516e+00 4.303698837757110596e-01 5.913153290748596191e-01 3.065055608749389648e-01 8.145567029714584351e-02
2.654000000000000000e+03 9.393304824829101562e+00 4.193951606750488281e+00 -1.247973442077636719e+00 9.066013336181640625e+00 2.345412015914916992e+00 -1.664785265922546387e+00
2.655000000000000000e+03 5.674408435821533203e+00 3.270035743713378906e+00 7.911069393157958984e-01 1.326896667480468750e+00 6.354010701179504395e-01 -6.453116536140441895e-01
2.656000000000000000e+03 3.870222330093383789e+00 3.697859764099121094e+00 4.019271731376647949e-01 4.562116563320159912e-01 2.574416399002075195e-01 8.258333802223205566e-02
2.657000000000000000e+03 1.075485992431640625e+01 6.439296722412109375e+00 -1.331021308898925781e+00 8.555670738220214844e+00 2.167394876480102539e+00 5.615338683128356934e-01
2.658000000000000000e+03 1.048830032348632812e+01 5.918389797210693359e+00 -1.487743616104125977e+00 8.787787437438964844e+00 2.190013170242309570e+00 3.174041509628295898e-01
2.659000000000000000e+03 4.408463954925537109e+00 4.791354179382324219e+00 4.496455788612365723e-01 1.123507857322692871e+00 4.719460308551788330e-01 -2.546507418155670166e-01
2.660000000000000000e+03 3.724999427795410156e+00 -5.051152706146240234e+00 4.116454422473907471e-01 8.795324563980102539e-01 3.873533606529235840e-01 2.337943166494369507e-01
2.661000000000000000e+03 4.260866165161132812e+00 -5.284327983856201172e+00 4.059288501739501953e-01 1.322909712791442871e+00 5.186516046524047852e-01 4.238578975200653076e-01
2.662000000000000000e+03 1.103458595275878906e+01 4.148703098297119141e+00 -2.061565399169921875e+00 1.104651641845703125e+01 2.695485353469848633e+00 9.206930994987487793e-01
2.663000000000000000e+03 9.968595504760742188e+00 -4.142535686492919922e+00 -1.709315657615661621e+00 1.041886329650878906e+01 2.612864255905151367e+00 1.115142107009887695e+00
2.664000000000000000e+03 9.735353469848632812e+00 -3.824419021606445312e+00 -1.443937420845031738e+00 1.039612102508544922e+01 2.685654878616333008e+00 1.799792170524597168e+00
2.665000000000000000e+03 6.619939327239990234e+00 2.961852312088012695e+00 1.065708637237548828e+00 2.014521598815917969e+00 9.240690469741821289e-01 -1.394085168838500977e+00
2.666000000000000000e+03 5.171404838562011719e+00 -6.293318271636962891e+00 2.183423340320587158e-01 2.428192377090454102e+00 7.939603924751281738e-01 6.795634031295776367e-01
2.667000000000000000e+03 5.254930973052978516e+00 -8.138559341430664062e+00 -3.649082779884338379e-02 2.813901662826538086e+00 8.332232236862182617e-01 5.345399379730224609e-01
2.668000000000000000e+03 8.006159782409667969e+00 7.678726673126220703e+00 -5.374225974082946777e-01 5.525012493133544922e+00 1.496276974678039551e+00 -4.054692685604095459e-01
2.669000000000000000e+03 1.057804870605468750e+01 -6.324626445770263672e+00 -1.367242097854614258e+00 8.403968811035156250e+00 2.111017942428588867e+00 -3.031812608242034912e-01
2.670000000000000000e+03 1.103001213073730469e+01 -4.580219745635986328e+00 -1.969703435897827148e+00 1.031099224090576172e+01 2.502386569976806641e+00 -8.459430336952209473e-01
2.671000000000000000e+03 5.092093944549560547e+00 6.734394550323486328e+00 1.313373744487762451e-01 2.359739780426025391e+00 7.473230957984924316e-01 -4.403915405273437500e-01
2.672000000000000000e+03 6.036411285400390625e+00 7.506827831268310547e+00 -8.019831031560897827e-02 3.466786146163940430e+00 1.015976428985595703e+00 -4.918543398380279541e-01
2.673000000000000000e+03 6.339060783386230469e+00 -8.568090438842773438e+00 -2.144697010517120361e-01 3.809324741363525391e+00 1.078456521034240723e+00 5.225675702095031738e-01
2.674000000000000000e+03 4.920416831970214844e+00 -7.703153133392333984e+00 3.195193409919738770e-02 2.482662200927734375e+00 7.543842196464538574e-01 5.442056059837341309e-01
2.675000000000000000e+03 9.506031990051269531e+00 8.614443778991699219e+00 -6.824384927749633789e-01 6.731355190277099609e+00 1.814674973487854004e+00 1.084921807050704956e-01
2.676000000000000000e+03 9.682034492492675781e+00 5.783525466918945312e+00 -1.296098828315734863e+00 8.137454032897949219e+00 2.052406549453735352e+00 -4.218354523181915283e-01
2.677000000000000000e+03 7.226250171661376953e+00 -1.060273742675781250e+01 -3.069475591182708740e-01 4.538526535034179688e+00 1.269473671913146973e+00 2.514662444591522217e-01
2.678000000000000000e+03 8.810355186462402344e+00 9.035972595214843750e+00 -5.350268483161926270e-01 6.072257518768310547e+00 1.661169171333312988e+00 -9.643620811402797699e-03
2.679000000000000000e+03 9.582210540771484375e+00 6.639530658721923828e+00 -1.094804286956787109e+00 7.512361049652099609e+00 1.925266981124877930e+00 -2.139264345169067383e-01
2.680000000000000000e+03 7.267051219940185547e+00 3.741197347640991211e+00 6.784323453903198242e-01 3.890539646148681641e+00 1.370691537857055664e+00 -1.969865918159484863e+00
2.681000000000000000e+03 6.306659221649169922e+00 1.016130924224853516e+01 -2.135539650917053223e-01 3.767852544784545898e+00 1.066289544105529785e+00 -1.462035626173019409e-01
2.682000000000000000e+03 9.809900283813476562e+00 -8.035469055175781250e+00 -8.384713530540466309e-01 7.028127670288085938e+00 1.856896877288818359e+00 -1.286057475954294205e-02
2.683000000000000000e+03 6.394834995269775391e+00 -9.243421554565429688e+00 -2.674410939216613770e-01 3.867310047149658203e+00 1.079960703849792480e+00 4.322977364063262939e-01
2.684000000000000000e+03 7.193416595458984375e+00 -8.526258468627929688e+00 -3.776162564754486084e-01 4.657891750335693359e+00 1.284082651138305664e+00 5.245134830474853516e-01
2.685000000000000000e+03 9.565015792846679688e+00 7.567565441131591797e+00 -9.096475839614868164e-01 7.107827663421630859e+00 1.859454035758972168e+00 2.343556145206093788e-03
2.686000000000000000e+03 7.972465991973876953e+00 -1.117560863494873047e+01 -3.147739768028259277e-01 5.079127311706542969e+00 1.429306030273437500e+00 1.452033072710037231e-01
2.687000000000000000e+03 8.798629760742187500e+00 -9.938083648681640625e+00 -4.745652973651885986e-01 5.838470935821533203e+00 1.609171748161315918e+00 1.148577854037284851e-01
2.688000000000000000e+03 6.719265460968017578e+00 1.079016971588134766e+01 -2.239844650030136108e-01 4.048382759094238281e+00 1.147319555282592773e+00 -1.052478477358818054e-01
2.689000000000000000e+03 2.911966705322265625e+01 -6.349341392517089844e+00 -1.109124999493360519e-02 7.778902053833007812e+00 2.330343246459960938e+00 1.059131398797035217e-01
2.690000000000000000e+03 2.779719924926757812e+01 -5.475588798522949219e+00 -2.505308389663696289e-02 7.806067943572998047e+00 2.334304332733154297e+00 1.394389420747756958e-01
2.691000000000000000e+03 6.851401519775390625e+01 -8.470644950866699219e+00 3.589710686355829239e-03 7.764499187469482422e+00 2.330426692962646484e+00 -7.846897095441818237e-02
2.692000000000000000e+03 6.895053863525390625e+01 -1.248602485656738281e+01 -3.125788643956184387e-03 7.783737659454345703e+00 2.334183454513549805e+00 -7.697661966085433960e-02
2.693000000000000000e+03 1.020267581939697266e+01 -5.773733139038085938e+00 -1.469456434249877930e+00 8.645462989807128906e+00 2.152801990509033203e+00 6.952015310525894165e-02
2.694000000000000000e+03 9.973634719848632812e+00 -6.708838939666748047e+00 -1.164527058601379395e+00 7.812767505645751953e+00 1.994472026824951172e+00 6.921619176864624023e-02
2.695000000000000000e+03 6.411279678344726562e+00 8.068126678466796875e+00 -1.902005970478057861e-01 3.908649921417236328e+00 1.115534782409667969e+00 -4.105694591999053955e-01
2.696000000000000000e+03 7.158358097076416016e+00 9.716938972473144531e+00 -2.871500253677368164e-01 4.463174343109130859e+00 1.252807259559631348e+00 -1.582807898521423340e-01
2.697000000000000000e+03 6.854893493652343750e+01 1.225071620941162109e+01 1.521632447838783264e-02 7.692468643188476562e+00 2.312305450439453125e+00 -4.466773569583892822e-02
2.698000000000000000e+03 7.014137268066406250e+01 9.922632217407226562e+00 1.089073717594146729e-02 7.691977024078369141e+00 2.310860157012939453e+00 -4.519036784768104553e-02
2.699000000000000000e+03 6.926371002197265625e+01 -1.926808166503906250e+01 -7.214519195258617401e-03 7.814027786254882812e+00 2.342044115066528320e+00 -7.108186930418014526e-02
2.700000000000000000e+03 7.017922210693359375e+01 -1.963999748229980469e+01 -8.889286778867244720e-03 7.821654796600341797e+00 2.343829631805419922e+00 -6.637326627969741821e-02
2.701000000000000000e+03 6.557827758789062500e+01 -2.274447059631347656e+01 -1.773952692747116089e-02 7.803958892822265625e+00 2.335865736007690430e+00 -7.616959512233734131e-02
2.702000000000000000e+03 6.647711181640625000e+01 -2.570389938354492188e+01 -1.981538534164428711e-02 7.818600654602050781e+00 2.339635610580444336e+00 -6.565614789724349976e-02
2.703000000000000000e+03 6.892593383789062500e+01 1.911019134521484375e+01 1.444921363145112991e-02 7.678219795227050781e+00 2.307800531387329102e+00 -2.843646146357059479e-02
2.704000000000000000e+03 6.808101654052734375e+01 1.639030075073242188e+01 1.594378612935543060e-02 7.686619281768798828e+00 2.310768842697143555e+00 -3.574281930923461914e-02
2.705000000000000000e+03 7.019378662109375000e+01 -5.965367317199707031e+00 5.008577369153499603e-03 7.756884098052978516e+00 2.328567743301391602e+00 -7.010080665349960327e-02
2.706000000000000000e+03 7.036756896972656250e+01 -7.127905368804931641e+00 2.243128372356295586e-03 7.762693881988525391e+00 2.329481124877929688e+00 -6.970787048339843750e-02
2.707000000000000000e+03 3.275828933715820312e+01 2.494577217102050781e+01 1.016948074102401733e-01 7.966603755950927734e+00 2.420489549636840820e+00 -1.343567576259374619e-02
2.708000000000000000e+03 3.015656089782714844e+01 2.523847389221191406e+01 9.206581115722656250e-02 8.029465675354003906e+00 2.436459541320800781e+00 -3.685147315263748169e-02
2.709000000000000000e+03 3.098462867736816406e+01 6.738109588623046875e+00 1.319252848625183105e-01 7.942302703857421875e+00 2.422268390655517578e+00 4.630888253450393677e-02
2.710000000000000000e+03 3.175690460205078125e+01 -1.189836025238037109e+01 8.335217833518981934e-03 7.656480312347412109e+00 2.299444675445556641e+00 5.718266591429710388e-02
2.711000000000000000e+03 3.174291801452636719e+01 1.895697975158691406e+01 7.992701232433319092e-02 8.019104957580566406e+00 2.429709672927856445e+00 2.472988562658429146e-03
2.712000000000000000e+03 6.951235198974609375e+01 7.973934650421142578e+00 1.280182786285877228e-02 7.700424194335937500e+00 2.313967704772949219e+00 -5.169972404837608337e-02
2.713000000000000000e+03 2.882846450805664062e+01 -2.327416419982910156e+01 -6.019423902034759521e-02 7.463320732116699219e+00 2.220937967300415039e+00 1.183525174856185913e-01
2.714000000000000000e+03 2.985628128051757812e+01 -2.237556648254394531e+01 -5.365077033638954163e-02 7.475908756256103516e+00 2.226677417755126953e+00 8.977389335632324219e-02
2.715000000000000000e+03 3.109004020690917969e+01 -5.131515979766845703e+00 1.410016883164644241e-02 7.789988994598388672e+00 2.341226816177368164e+00 5.264867469668388367e-02
2.716000000000000000e+03 3.109924125671386719e+01 -1.236758232116699219e+00 4.360919818282127380e-02 7.852854728698730469e+00 2.368939161300659180e+00 3.766971826553344727e-02
2.717000000000000000e+03 2.919149017333984375e+01 5.254133224487304688e+00 1.366391777992248535e-01 7.961231231689453125e+00 2.429361104965209961e+00 6.172933802008628845e-02
2.718000000000000000e+03 3.076993942260742188e+01 5.043814659118652344e+00 1.331447362899780273e-01 7.933322906494140625e+00 2.419940233230590820e+00 3.904458507895469666e-02
2.719000000000000000e+03 3.031552886962890625e+01 1.986742019653320312e+01 7.397770136594772339e-02 8.045225143432617188e+00 2.435760736465454102e+00 -5.406281445175409317e-03
2.720000000000000000e+03 2.972332000732421875e+01 1.349827480316162109e+01 8.962751179933547974e-02 8.056567192077636719e+00 2.443858623504638672e+00 4.606721550226211548e-02
2.721000000000000000e+03 3.281321334838867188e+01 1.361859512329101562e+01 1.009115427732467651e-01 7.969527244567871094e+00 2.421131610870361328e+00 2.669042535126209259e-02
2.722000000000000000e+03 7.041569519042968750e+01 1.446031808853149414e+00 8.243117481470108032e-03 7.721596717834472656e+00 2.318951845169067383e+00 -6.000080332159996033e-02
2.723000000000000000e+03 6.780350494384765625e+01 2.562229919433593750e+01 1.200072653591632843e-02 7.677867889404296875e+00 2.306960582733154297e+00 -1.599246077239513397e-02
2.724000000000000000e+03 6.840617370605468750e+01 2.321124839782714844e+01 1.338356919586658478e-02 7.676291942596435547e+00 2.306902647018432617e+00 -2.056708559393882751e-02
2.725000000000000000e+03 8.063070297241210938e+00 4.758365631103515625e+00 -3.162429928779602051e-01 5.995624542236328125e+00 1.703814506530761719e+00 -1.727978348731994629e+00
2.726000000000000000e+03 5.958561897277832031e+00 3.221025466918945312e+00 8.668953180313110352e-01 1.539661169052124023e+00 7.219669222831726074e-01 -8.594548106193542480e-01
2.727000000000000000e+03 6.947699546813964844e+00 3.126224756240844727e+00 1.063211083412170410e+00 2.708076000213623047e+00 1.131386160850524902e+00 -1.764319777488708496e+00
2.728000000000000000e+03 7.917197704315185547e+00 -3.290013790130615234e+00 7.975873947143554688e-01 5.118888854980468750e+00 1.774942874908447266e+00 2.854498386383056641e+00
2.729000000000000000e+03 5.481582641601562500e+00 3.008302927017211914e+00 7.451084852218627930e-01 1.023685097694396973e+00 5.306380987167358398e-01 -4.781359434127807617e-01
2.730000000000000000e+03 6.708496093750000000e+00 -3.659633159637451172e+00 9.294855594635009766e-01 2.913657903671264648e+00 1.152943015098571777e+00 1.737573027610778809e+00
2.731000000000000000e+03 4.792368888854980469e+00 4.658997535705566406e+00 4.723973572254180908e-01 1.348369121551513672e+00 5.462299585342407227e-01 -3.693765103816986084e-01
2.732000000000000000e+03 9.779251098632812500e+00 3.447752237319946289e+00 -1.520674109458923340e+00 1.113166046142578125e+01 2.883296012878417969e+00 -1.888242006301879883e+00
2.733000000000000000e+03 9.698629379272460938e+00 4.928596496582031250e+00 -1.492946028709411621e+00 8.983324050903320312e+00 2.247113227844238281e+00 -7.480778098106384277e-01
2.734000000000000000e+03 5.516054630279541016e+00 -3.726397991180419922e+00 7.941914200782775879e-01 1.607400298118591309e+00 7.204775214195251465e-01 8.359845876693725586e-01
2.735000000000000000e+03 4.824787616729736328e+00 -3.595220804214477539e+00 6.864882707595825195e-01 9.859622716903686523e-01 5.017351508140563965e-01 4.128274619579315186e-01
2.736000000000000000e+03 8.969686508178710938e+00 3.963909387588500977e+00 -7.511402368545532227e-01 8.213761329650878906e+00 2.238786220550537109e+00 -2.213149070739746094e+00
2.737000000000000000e+03 7.926573753356933594e+00 -3.058673620223999023e+00 1.034522533416748047e+00 5.013460636138916016e+00 1.814394950866699219e+00 3.012765169143676758e+00
2.738000000000000000e+03 7.503148555755615234e+00 -3.311042785644531250e+00 9.903125762939453125e-01 4.025203227996826172e+00 1.504654645919799805e+00 2.499700546264648438e+00
2.739000000000000000e+03 7.936709880828857422e+00 3.472663640975952148e+00 5.291358232498168945e-01 5.305237770080566406e+00 1.750312089920043945e+00 -2.620936393737792969e+00
2.740000000000000000e+03 5.310139656066894531e+00 6.007317543029785156e+00 2.451608777046203613e-01 2.376544952392578125e+00 7.865117192268371582e-01 -5.768463015556335449e-01
2.741000000000000000e+03 4.036997318267822266e+00 4.453428745269775391e+00 4.636365771293640137e-01 7.935259342193603516e-01 3.771487474441528320e-01 -1.057853773236274719e-01
2.742000000000000000e+03 7.999769687652587891e+00 -4.206064701080322266e+00 5.619468539953231812e-02 5.835521697998046875e+00 1.767514944076538086e+00 2.296230792999267578e+00
2.743000000000000000e+03 9.890754699707031250e+00 4.400959968566894531e+00 -1.668194651603698730e+00 9.835243225097656250e+00 2.450114727020263672e+00 -8.397607207298278809e-01
2.744000000000000000e+03 5.658071517944335938e+00 6.547782421112060547e+00 9.789387136697769165e-02 2.863796949386596680e+00 8.885072469711303711e-01 -6.025128960609436035e-01
2.745000000000000000e+03 4.565741062164306641e+00 5.844387531280517578e+00 3.121778368949890137e-01 1.645792126655578613e+00 5.873909592628479004e-01 -3.751800358295440674e-01
2.746000000000000000e+03 9.015415191650390625e+00 -3.484561204910278320e+00 -4.713941216468811035e-01 8.666439056396484375e+00 2.458513498306274414e+00 2.899107694625854492e+00
2.747000000000000000e+03 1.007886791229248047e+01 -4.818792819976806641e+00 -1.700700044631958008e+00 9.552258491516113281e+00 2.355467557907104492e+00 5.205026865005493164e-01
2.748000000000000000e+03 9.368506431579589844e+00 -7.070125102996826172e+00 -9.743169546127319336e-01 7.147826671600341797e+00 1.852052927017211914e+00 3.165563046932220459e-01
2.749000000000000000e+03 1.014927101135253906e+01 5.370380401611328125e+00 -1.581211686134338379e+00 9.046440124511718750e+00 2.239568471908569336e+00 -1.264094561338424683e-01
2.750000000000000000e+03 7.997770786285400391e+00 -9.879309654235839844e+00 -4.179647266864776611e-01 5.227164268493652344e+00 1.442759752273559570e+00 2.297479659318923950e-01
2.751000000000000000e+03 7.203997135162353516e+00 -9.198567390441894531e+00 -3.628425598144531250e-01 4.623539924621582031e+00 1.278209209442138672e+00 4.062824845314025879e-01
2.752000000000000000e+03 7.649322986602783203e+00 4.109692573547363281e+00 2.482310831546783447e-01 4.946146011352539062e+00 1.558313131332397461e+00 -2.024623394012451172e+00
2.753000000000000000e+03 5.573849678039550781e+00 7.879216194152832031e+00 -3.407892212271690369e-02 3.019246339797973633e+00 8.955501914024353027e-01 -4.035109281539916992e-01
2.754000000000000000e+03 5.130905628204345703e+00 5.273196220397949219e+00 3.875988423824310303e-01 1.890880107879638672e+00 6.835436820983886719e-01 -5.284471511840820312e-01
2.755000000000000000e+03 5.610897541046142578e+00 5.580946922302246094e+00 3.060538470745086670e-01 2.552425622940063477e+00 8.575438261032104492e-01 -7.121307253837585449e-01
2.756000000000000000e+03 9.679542541503906250e+00 -4.520686626434326172e+00 -1.467165470123291016e+00 9.353344917297363281e+00 2.365853786468505859e+00 1.236514806747436523e+00
2.757000000000000000e+03 8.307209968566894531e+00 -3.020691156387329102e+00 8.571054935455322266e-01 6.105673313140869141e+00 2.088833570480346680e+00 3.464379787445068359e+00
2.758000000000000000e+03 6.015199661254882812e+00 -6.064853191375732422e+00 1.667046397924423218e-01 3.244564771652221680e+00 1.023380875587463379e+00 9.615997672080993652e-01
2.759000000000000000e+03 4.852193832397460938e+00 4.133985996246337891e+00 5.927527546882629395e-01 1.187868475914001465e+00 5.341863632202148438e-01 -3.416520059108734131e-01
2.760000000000000000e+03 6.011672496795654297e+00 7.925919055938720703e+00 -1.075604185461997986e-01 3.471174478530883789e+00 1.009084224700927734e+00 -4.714497923851013184e-01
2.761000000000000000e+03 8.407750129699707031e+00 8.355496406555175781e+00 -5.769356489181518555e-01 5.832677841186523438e+00 1.576722621917724609e+00 -1.802972853183746338e-01
2.762000000000000000e+03 8.033485412597656250e+00 -9.183367729187011719e+00 -4.805168211460113525e-01 5.345705509185791016e+00 1.459556698799133301e+00 2.980407774448394775e-01
2.763000000000000000e+03 1.028696155548095703e+01 -7.263636112213134766e+00 -1.056397795677185059e+00 7.691497325897216797e+00 1.990529775619506836e+00 -1.713522523641586304e-01
2.764000000000000000e+03 5.271629810333251953e+00 -7.422949790954589844e+00 5.362891778349876404e-02 2.706084966659545898e+00 8.279141783714294434e-01 6.183325648307800293e-01
2.765000000000000000e+03 5.710725784301757812e+00 -6.537165164947509766e+00 1.161458790302276611e-01 3.010650396347045898e+00 9.380388855934143066e-01 8.154379129409790039e-01
2.766000000000000000e+03 9.023290634155273438e+00 7.980436325073242188e+00 -7.347072362899780273e-01 6.490104198455810547e+00 1.726619005203247070e+00 -1.090623214840888977e-01
2.767000000000000000e+03 9.328587532043457031e+00 5.361771583557128906e+00 -1.205380558967590332e+00 8.012701034545898438e+00 2.042196035385131836e+00 -8.131358623504638672e-01
2.768000000000000000e+03 4.849789142608642578e+00 -5.508536815643310547e+00 3.866307735443115234e-01 1.849305868148803711e+00 6.707810163497924805e-01 6.041486263275146484e-01
2.769000000000000000e+03 5.957099437713623047e+00 -7.248219013214111328e+00 -2.616174519062042236e-02 3.409784317016601562e+00 1.015086770057678223e+00 7.482326030731201172e-01
2.770000000000000000e+03 5.478298664093017578e+00 -7.001108646392822266e+00 7.795069366693496704e-02 2.892276287078857422e+00 8.910681009292602539e-01 6.678503155708312988e-01
2.771000000000000000e+03 6.930121898651123047e+00 8.927653312683105469e+00 -2.822601497173309326e-01 4.294099330902099609e+00 1.203551650047302246e+00 -2.690168917179107666e-01
2.772000000000000000e+03 9.782958984375000000e+00 -8.642585754394531250e+00 -7.181697487831115723e-01 6.884503364562988281e+00 1.849900126457214355e+00 -4.915764182806015015e-02
2.773000000000000000e+03 8.031636238098144531e+00 9.397550582885742188e+00 -4.179590940475463867e-01 5.335328578948974609e+00 1.475210785865783691e+00 -9.658001363277435303e-02
2.774000000000000000e+03 9.177352905273437500e+00 -7.917856693267822266e+00 -7.718966603279113770e-01 6.576497554779052734e+00 1.741380333900451660e+00 2.523214817047119141e-01
2.775000000000000000e+03 8.764880180358886719e+00 6.491073608398437500e+00 -8.488836288452148438e-01 6.671641349792480469e+00 1.746827363967895508e+00 -6.130653619766235352e-01
2.776000000000000000e+03 9.119702339172363281e+00 7.017557621002197266e+00 -9.146552085876464844e-01 6.904315948486328125e+00 1.796898245811462402e+00 -3.029198646545410156e-01
2.777000000000000000e+03 6.708090972900390625e+01 1.393940091133117676e+00 1.424672268331050873e-02 7.728144168853759766e+00 2.322717189788818359e+00 -7.280854880809783936e-02
2.778000000000000000e+03 6.770312500000000000e+01 3.084500789642333984e+00 1.375828962773084641e-02 7.720320701599121094e+00 2.320223808288574219e+00 -6.714333593845367432e-02
2.779000000000000000e+03 2.766642951965332031e+01 5.382859706878662109e+00 1.542837619781494141e-01 8.019840240478515625e+00 2.452237129211425781e+00 8.556510508060455322e-02
2.780000000000000000e+03 3.054575729370117188e+01 3.432284355163574219e+00 1.117549985647201538e-01 7.910993099212646484e+00 2.406824350357055664e+00 3.695295378565788269e-02
2.781000000000000000e+03 3.183739852905273438e+01 1.499287486076354980e+00 8.337884396314620972e-02 7.869765281677246094e+00 2.385943174362182617e+00 2.075627446174621582e-02
2.782000000000000000e+03 3.201055908203125000e+01 3.113380908966064453e+00 1.106750816106796265e-01 7.888528823852539062e+00 2.399761199951171875e+00 1.692090369760990143e-02
2.783000000000000000e+03 6.813532257080078125e+01 -1.375488281250000000e+01 -1.737653859890997410e-03 7.785787582397460938e+00 2.335215091705322266e+00 -8.004217594861984253e-02
2.784000000000000000e+03 3.355741500854492188e+01 1.587425708770751953e+01 9.538873285055160522e-02 7.964813709259033203e+00 2.418060779571533203e+00 1.377794798463582993e-02
2.785000000000000000e+03 3.278217697143554688e+01 1.746186637878417969e+01 9.341318905353546143e-02 7.993953704833984375e+00 2.426210165023803711e+00 1.015361212193965912e-02
2.786000000000000000e+03 6.906905364990234375e+01 -6.261454105377197266e+00 4.275024402886629105e-03 7.756633281707763672e+00 2.328272581100463867e+00 -7.612104713916778564e-02
2.787000000000000000e+03 6.855159759521484375e+01 -1.045792007446289062e+01 -1.648265606490895152e-04 7.773732185363769531e+00 2.332070350646972656e+00 -7.828526198863983154e-02
2.788000000000000000e+03 3.156908416748046875e+01 -1.018356990814208984e+01 -9.435748506803065538e-05 7.689884185791015625e+00 2.306936979293823242e+00 5.926395207643508911e-02
2.789000000000000000e+03 3.126079177856445312e+01 -8.553914070129394531e+00 1.283080317080020905e-02 7.719759941101074219e+00 2.319777250289916992e+00 7.272103428840637207e-02
2.790000000000000000e+03 2.948788642883300781e+01 -7.571902751922607422e+00 8.966080844402313232e-03 7.737753868103027344e+00 2.324016094207763672e+00 1.098860800266265869e-01
2.791000000000000000e+03 2.991901397705078125e+01 9.079904556274414062e+00 1.277296841144561768e-01 7.996115207672119141e+00 2.437153577804565430e+00 6.333205848932266235e-02
2.792000000000000000e+03 6.758186340332031250e+01 1.391698837280273438e+01 1.769643276929855347e-02 7.693395137786865234e+00 2.313327550888061523e+00 -4.252319410443305969e-02
2.793000000000000000e+03 3.019723129272460938e+01 1.216993045806884766e+01 9.953476488590240479e-02 8.022875785827636719e+00 2.436723232269287109e+00 5.430794507265090942e-02
2.794000000000000000e+03 3.152036476135253906e+01 1.276837921142578125e+01 1.049696952104568481e-01 8.000642776489257812e+00 2.431683778762817383e+00 3.691806644201278687e-02
2.795000000000000000e+03 2.864164543151855469e+01 -1.508260631561279297e+01 2.424447331577539444e-03 7.575278759002685547e+00 2.273310899734497070e+00 9.260825812816619873e-02
2.796000000000000000e+03 2.807497787475585938e+01 2.718179702758789062e+01 1.127132698893547058e-01 8.080950736999511719e+00 2.458099126815795898e+00 -9.089289605617523193e-02
2.797000000000000000e+03 6.781455230712890625e+01 2.050712776184082031e+01 1.492571830749511719e-02 7.682405948638916016e+00 2.309199571609497070e+00 -2.670650370419025421e-02
2.798000000000000000e+03 3.388155746459960938e+01 2.313076210021972656e+01 1.021556779742240906e-01 7.967242717742919922e+00 2.420819520950317383e+00 -1.172334700822830200e-02
2.799000000000000000e+03 3.005986595153808594e+01 2.768819808959960938e+01 1.182088404893875122e-01 8.001874923706054688e+00 2.436025142669677734e+00 -4.122484847903251648e-02
2.800000000000000000e+03 8.323407173156738281e+00 3.942350387573242188e+00 -1.170183867216110229e-01 6.532668113708496094e+00 1.924695014953613281e+00 -2.370462894439697266e+00
2.801000000000000000e+03 6.537254810333251953e+00 3.297506093978881836e+00 1.008028864860534668e+00 2.267365932464599609e+00 9.826184511184692383e-01 -1.410546898841857910e+00
2.802000000000000000e+03 9.642406463623046875e+00 -6.205050945281982422e+00 -1.233759522438049316e+00 7.845085144042968750e+00 1.983397722244262695e+00 4.051492512226104736e-01
2.803000000000000000e+03 7.904247760772705078e+00 3.742106437683105469e+00 3.368262648582458496e-01 5.405574798583984375e+00 1.722720384597778320e+00 -2.394848823547363281e+00
2.804000000000000000e+03 5.977231502532958984e+00 3.569358110427856445e+00 8.266816139221191406e-01 1.877350687980651855e+00 8.112096786499023438e-01 -9.732121825218200684e-01
2.805000000000000000e+03 6.260757923126220703e+00 3.252855300903320312e+00 9.538496136665344238e-01 1.879562258720397949e+00 8.500235676765441895e-01 -1.145534873008728027e+00
2.806000000000000000e+03 5.439829349517822266e+00 -4.400827407836914062e+00 6.806778907775878906e-01 1.935902476310729980e+00 7.849740982055664062e-01 8.712701797485351562e-01
2.807000000000000000e+03 6.278369426727294922e+00 -3.713432073593139648e+00 9.009916186332702637e-01 2.412163496017456055e+00 9.939465522766113281e-01 1.397615909576416016e+00
2.808000000000000000e+03 8.807806968688964844e+00 4.398504257202148438e+00 -7.481236457824707031e-01 7.603469848632812500e+00 2.056603908538818359e+00 -1.884144306182861328e+00
2.809000000000000000e+03 3.980421304702758789e+00 -4.515219211578369141e+00 4.821785092353820801e-01 8.763355016708374023e-01 4.075542092323303223e-01 2.479510456323623657e-01
2.810000000000000000e+03 9.378455162048339844e+00 -4.181567192077636719e+00 -1.154406547546386719e+00 9.081362724304199219e+00 2.378086805343627930e+00 1.852392792701721191e+00
2.811000000000000000e+03 5.364567279815673828e+00 4.398994922637939453e+00 5.953083634376525879e-01 1.782415986061096191e+00 7.133172750473022461e-01 -6.402099728584289551e-01
2.812000000000000000e+03 8.437156677246093750e+00 -3.235491752624511719e+00 4.485907554626464844e-01 6.729012012481689453e+00 2.153280735015869141e+00 3.267421245574951172e+00
2.813000000000000000e+03 5.908321380615234375e+00 7.082830905914306641e+00 -1.518513727933168411e-02 3.254849433898925781e+00 9.718992710113525391e-01 -5.556230545043945312e-01
2.814000000000000000e+03 7.152900695800781250e+00 -7.887784004211425781e+00 -3.407728075981140137e-01 4.658757209777832031e+00 1.295395374298095703e+00 6.210814118385314941e-01
2.815000000000000000e+03 7.606990814208984375e+00 3.744959592819213867e+00 5.103003382682800293e-01 4.629751205444335938e+00 1.542015433311462402e+00 -2.205732822418212891e+00
2.816000000000000000e+03 5.254416465759277344e+00 4.846178054809570312e+00 4.844861924648284912e-01 1.855880260467529297e+00 7.021099328994750977e-01 -5.827412605285644531e-01
2.817000000000000000e+03 9.232852935791015625e+00 6.159131526947021484e+00 -1.063443183898925781e+00 7.397858142852783203e+00 1.900324463844299316e+00 -5.262442231178283691e-01
2.818000000000000000e+03 8.654550552368164062e+00 5.334044933319091797e+00 -8.059892654418945312e-01 6.955922603607177734e+00 1.844980001449584961e+00 -1.188852906227111816e+00
2.819000000000000000e+03 6.435983180999755859e+00 7.004943370819091797e+00 -1.293719708919525146e-01 3.782006025314331055e+00 1.095790266990661621e+00 -6.442099213600158691e-01
2.820000000000000000e+03 5.466652870178222656e+00 -5.748715400695800781e+00 3.012226223945617676e-01 2.556835412979125977e+00 8.574174642562866211e-01 8.449815511703491211e-01
2.821000000000000000e+03 1.058051776885986328e+01 -4.855628490447998047e+00 -1.836779117584228516e+00 9.847666740417480469e+00 2.403266191482543945e+00 -1.646735072135925293e-01
2.822000000000000000e+03 7.205674171447753906e+00 -9.894352912902832031e+00 -3.471120595932006836e-01 4.553626060485839844e+00 1.261954188346862793e+00 3.145691156387329102e-01
2.823000000000000000e+03 8.070445060729980469e+00 -8.464461326599121094e+00 -5.280176401138305664e-01 5.504897594451904297e+00 1.493064045906066895e+00 3.958591520786285400e-01
2.824000000000000000e+03 6.905254364013671875e+00 8.203619003295898438e+00 -2.787433266639709473e-01 4.298692226409912109e+00 1.205984592437744141e+00 -3.724919259548187256e-01
2.825000000000000000e+03 9.086017608642578125e+00 -6.586169719696044922e+00 -9.504312276840209961e-01 7.041878223419189453e+00 1.827434182167053223e+00 5.504978895187377930e-01
2.826000000000000000e+03 8.596770286560058594e+00 7.366201877593994141e+00 -7.248086929321289062e-01 6.233587265014648438e+00 1.652633666992187500e+00 -3.752510547637939453e-01
2.827000000000000000e+03 7.727613925933837891e+00 8.687897682189941406e+00 -4.188119471073150635e-01 5.168648719787597656e+00 1.424951076507568359e+00 -2.354345768690109253e-01
2.828000000000000000e+03 7.596057891845703125e+00 -3.604285955429077148e+00 7.055994272232055664e-01 4.591735363006591797e+00 1.589200496673583984e+00 2.464448928833007812e+00
2.829000000000000000e+03 8.871454238891601562e+00 -9.238598823547363281e+00 -5.591728687286376953e-01 6.013271808624267578e+00 1.636229634284973145e+00 1.549958735704421997e-01
2.830000000000000000e+03 3.236463165283203125e+01 4.690553665161132812e+00 1.170985400676727295e-01 7.894503116607666016e+00 2.403480529785156250e+00 2.103043906390666962e-02
2.831000000000000000e+03 6.918965911865234375e+01 2.325795888900756836e+00 1.095665246248245239e-02 7.721045494079589844e+00 2.319600582122802734e+00 -6.325567513704299927e-02
2.832000000000000000e+03 6.926553344726562500e+01 5.372478008270263672e+00 1.211691927164793015e-02 7.709385395050048828e+00 2.316450595855712891e+00 -5.761300027370452881e-02
2.833000000000000000e+03 6.996223449707031250e+01 -1.663918375968933105e+00 7.086991332471370697e-03 7.735556602478027344e+00 2.322793245315551758e+00 -6.635259091854095459e-02
2.834000000000000000e+03 3.393314361572265625e+01 4.152673244476318359e+00 1.132166534662246704e-01 7.869610786437988281e+00 2.394848346710205078e+00 3.864037105813622475e-03
2.835000000000000000e+03 6.835337829589843750e+01 -7.141848087310791016e+00 3.239207202568650246e-03 7.758654594421386719e+00 2.328568220138549805e+00 -7.905135303735733032e-02
2.836000000000000000e+03 6.993617248535156250e+01 -3.109375000000000000e+00 7.128799334168434143e-03 7.743638992309570312e+00 2.325230360031127930e+00 -6.836407631635665894e-02
2.837000000000000000e+03 3.241495513916015625e+01 1.154929637908935547e+01 1.128518730401992798e-01 7.969054698944091797e+00 2.424571990966796875e+00 3.727826103568077087e-02
2.838000000000000000e+03 6.839469909667968750e+01 -1.846254158020019531e+01 -9.696615859866142273e-03 7.806564331054687500e+00 2.339060306549072266e+00 -7.346773147583007812e-02
2.839000000000000000e+03 6.744275665283203125e+01 -1.964760971069335938e+01 -1.025090366601943970e-02 7.805380821228027344e+00 2.338538885116577148e+00 -7.677865773439407349e-02
2.840000000000000000e+03 6.943984222412109375e+01 1.704688835144042969e+01 1.160759944468736649e-02 7.676415920257568359e+00 2.306407213211059570e+00 -3.136875107884407043e-02
2.841000000000000000e+03 6.622214508056640625e+01 1.067717456817626953e+01 2.137409150600433350e-02 7.706087589263916016e+00 2.318238496780395508e+00 -5.356554687023162842e-02
2.842000000000000000e+03 6.894853973388671875e+01 9.647511482238769531e+00 1.445659156888723373e-02 7.698573589324951172e+00 2.313909053802490234e+00 -4.986084252595901489e-02
2.843000000000000000e+03 6.635723876953125000e+01 -1.031294918060302734e+01 5.327407852746546268e-04 7.766663074493408203e+00 2.330158710479736328e+00 -8.730159699916839600e-02
2.844000000000000000e+03 3.129826545715332031e+01 -3.766723394393920898e+00 1.561487372964620590e-02 7.810788154602050781e+00 2.347920894622802734e+00 4.891466721892356873e-02
2.845000000000000000e+03 3.021163177490234375e+01 -5.935204982757568359e+00 9.793864563107490540e-03 7.770667076110839844e+00 2.334138154983520508e+00 8.721581846475601196e-02
2.846000000000000000e+03 3.287731170654296875e+01 -3.468183040618896484e+00 3.709222003817558289e-02 7.801283359527587891e+00 2.351512670516967773e+00 2.283603139221668243e-02
2.847000000000000000e+03 3.103382873535156250e+01 -2.367219448089599609e+00 4.114663973450660706e-02 7.832839488983154297e+00 2.362195968627929688e+00 3.779285773634910583e-02
2.848000000000000000e+03 3.334419631958007812e+01 -1.177767753601074219e+01 -8.547106757760047913e-03 7.668502330780029297e+00 2.297986507415771484e+00 2.525067329406738281e-02
2.849000000000000000e+03 3.310122680664062500e+01 -9.900661468505859375e+00 1.136410143226385117e-02 7.696226119995117188e+00 2.312277078628540039e+00 3.776161000132560730e-02
2.850000000000000000e+03 3.423172760009765625e+01 1.429087638854980469e+01 1.076061800122261047e-01 7.951660156250000000e+00 2.417779922485351562e+00 1.568436808884143829e-02
2.851000000000000000e+03 3.235639953613281250e+01 3.393053436279296875e+01 9.827182441949844360e-02 7.901964187622070312e+00 2.400070905685424805e+00 6.217881292104721069e-02
2.852000000000000000e+03 2.909473228454589844e+01 3.016420745849609375e+01 1.570895463228225708e-01 7.982595920562744141e+00 2.441905736923217773e+00 -5.095957964658737183e-02
2.853000000000000000e+03 6.515912628173828125e+01 1.771490478515625000e+01 2.271138131618499756e-02 7.699499130249023438e+00 2.316663026809692383e+00 -3.602050617337226868e-02
2.854000000000000000e+03 6.652809143066406250e+01 1.919067192077636719e+01 1.873893849551677704e-02 7.690815925598144531e+00 2.312866449356079102e+00 -3.104346990585327148e-02
2.855000000000000000e+03 3.670120620727539062e+01 1.735773086547851562e+01 9.922824800014495850e-02 7.911869525909423828e+00 2.403329372406005859e+00 6.367986206896603107e-04
2.856000000000000000e+03 3.490951156616210938e+01 2.121338653564453125e+01 9.466116130352020264e-02 7.942561626434326172e+00 2.411166906356811523e+00 -3.424288472160696983e-03
2.857000000000000000e+03 3.275881195068359375e+01 2.807454490661621094e+01 1.133204549551010132e-01 7.936552047729492188e+00 2.414961814880371094e+00 -1.102365087717771530e-03
2.858000000000000000e+03 3.211429595947265625e+01 -6.308728218078613281e+00 1.680518500506877899e-02 7.764014720916748047e+00 2.334246158599853516e+00 4.985241591930389404e-02
2.859000000000000000e+03 3.182796478271484375e+01 -1.365207290649414062e+01 -1.393328700214624405e-02 7.629895210266113281e+00 2.284788608551025391e+00 4.359707236289978027e-02
2.860000000000000000e+03 3.345371627807617188e+01 -1.367829799652099609e+01 -3.818912431597709656e-03 7.640684127807617188e+00 2.291059494018554688e+00 2.696579322218894958e-02
2.861000000000000000e+03 3.216625976562500000e+01 2.205497741699218750e+01 8.735895156860351562e-02 7.996608734130859375e+00 2.425190210342407227e+00 -1.193886715918779373e-02
2.862000000000000000e+03 2.957031822204589844e+01 -1.830912208557128906e+01 -5.737401545047760010e-02 7.547033309936523438e+00 2.246897935867309570e+00 6.981227546930313110e-02
2.863000000000000000e+03 3.018937492370605469e+01 -1.523905372619628906e+01 -2.047592587769031525e-02 7.589768409729003906e+00 2.270787715911865234e+00 6.211869046092033386e-02
2.864000000000000000e+03 2.739040946960449219e+01 -2.362559509277343750e+01 -8.358837664127349854e-02 7.417280197143554688e+00 2.200107574462890625e+00 1.213836446404457092e-01
2.865000000000000000e+03 3.294474792480468750e+01 -2.471879196166992188e+01 -4.232158139348030090e-02 7.475924015045166016e+00 2.230080604553222656e+00 3.418929874897003174e-02
2.866000000000000000e+03 1.318101978302001953e+01 -3.934700393676757812e+01 -1.065105080604553223e+00 6.362854957580566406e+00 1.589324951171875000e+00 -1.290699243545532227e-01
2.867000000000000000e+03 8.100996017456054688e+00 -4.124833297729492188e+01 -6.865454316139221191e-01 4.777431011199951172e+00 1.227265596389770508e+00 2.758808732032775879e-01
2.868000000000000000e+03 5.882761001586914062e+00 -3.671694040298461914e+00 8.927288651466369629e-01 1.869212031364440918e+00 8.285822868347167969e-01 1.076461076736450195e+00
2.869000000000000000e+03 5.036071300506591797e+00 3.626005887985229492e+00 6.355188488960266113e-01 1.059530735015869141e+00 5.085148811340332031e-01 -3.615249991416931152e-01
2.870000000000000000e+03 8.669820785522460938e+00 -3.452661514282226562e+00 -6.151165068149566650e-02 7.654153823852539062e+00 2.277792692184448242e+00 3.076602458953857422e+00
2.871000000000000000e+03 7.696743488311767578e+00 5.185997962951660156e+00 -2.101372033357620239e-01 5.320225715637207031e+00 1.533026576042175293e+00 -1.446870088577270508e+00
2.872000000000000000e+03 7.287809848785400391e+00 -3.664887428283691406e+00 7.769097089767456055e-01 3.964891672134399414e+00 1.422540426254272461e+00 2.199611186981201172e+00
2.873000000000000000e+03 6.918610095977783203e+00 -4.166771411895751953e+00 6.083029508590698242e-01 3.656107187271118164e+00 1.279323101043701172e+00 1.778486728668212891e+00
2.874000000000000000e+03 4.533356189727783203e+00 -4.681064605712890625e+00 5.450621247291564941e-01 1.292535781860351562e+00 5.512793660163879395e-01 4.562904834747314453e-01
2.875000000000000000e+03 8.058755874633789062e+00 -3.644641637802124023e+00 3.887900114059448242e-01 5.817240715026855469e+00 1.861809134483337402e+00 2.801146507263183594e+00
2.876000000000000000e+03 8.410354614257812500e+00 4.332662582397460938e+00 -3.975618481636047363e-01 6.737534523010253906e+00 1.901991844177246094e+00 -2.051095962524414062e+00
2.877000000000000000e+03 8.980036735534667969e+00 5.023344039916992188e+00 -1.009198784828186035e+00 7.699283123016357422e+00 2.007025241851806641e+00 -1.285525083541870117e+00
2.878000000000000000e+03 5.727674007415771484e+00 5.075242042541503906e+00 4.097863435745239258e-01 2.497510194778442383e+00 8.721889853477478027e-01 -8.128755688667297363e-01
2.879000000000000000e+03 9.222496986389160156e+00 4.631659507751464844e+00 -1.168811917304992676e+00 8.456601142883300781e+00 2.186336755752563477e+00 -1.453966736793518066e+00
2.880000000000000000e+03 8.452225685119628906e+00 5.015779495239257812e+00 -6.468575596809387207e-01 6.715384006500244141e+00 1.820557951927185059e+00 -1.473408341407775879e+00
2.881000000000000000e+03 7.483467102050781250e+00 6.342948436737060547e+00 -3.369861841201782227e-01 5.034594058990478516e+00 1.409282326698303223e+00 -9.052628278732299805e-01
2.882000000000000000e+03 7.707163810729980469e+00 4.773077964782714844e+00 -6.261458992958068848e-02 5.224820613861083984e+00 1.548661828041076660e+00 -1.664284586906433105e+00
2.883000000000000000e+03 6.274241447448730469e+00 6.404972553253173828e+00 2.321002259850502014e-02 3.524783849716186523e+00 1.064398169517517090e+00 -7.506482005119323730e-01
2.884000000000000000e+03 6.458151340484619141e+00 -6.412534236907958984e+00 -1.722235418856143951e-02 3.859918355941772461e+00 1.152808785438537598e+00 1.006525874137878418e+00
2.885000000000000000e+03 7.017834663391113281e+00 7.639678955078125000e+00 -2.914340198040008545e-01 4.501747608184814453e+00 1.263094067573547363e+00 -5.371708869934082031e-01
2.886000000000000000e+03 6.456036567687988281e+00 -7.434286117553710938e+00 -1.365752071142196655e-01 3.926012277603149414e+00 1.136831164360046387e+00 7.237018942832946777e-01
2.887000000000000000e+03 8.924146652221679688e+00 5.718115806579589844e+00 -9.636495709419250488e-01 7.195518016815185547e+00 1.869560599327087402e+00 -8.855121135711669922e-01
2.888000000000000000e+03 9.767621994018554688e+00 -5.309099674224853516e+00 -1.477285146713256836e+00 8.726747512817382812e+00 2.174838781356811523e+00 6.133904457092285156e-01
2.889000000000000000e+03 9.339499473571777344e+00 -4.924904823303222656e+00 -1.234021067619323730e+00 8.425048828125000000e+00 2.157308340072631836e+00 1.286235451698303223e+00
2.890000000000000000e+03 9.285264015197753906e+00 -5.741013050079345703e+00 -1.133398413658142090e+00 7.710947036743164062e+00 1.973264455795288086e+00 7.932416796684265137e-01
2.891000000000000000e+03 8.384244918823242188e+00 -3.858312845230102539e+00 -5.095501616597175598e-02 6.775739669799804688e+00 2.017435312271118164e+00 2.655477046966552734e+00
2.892000000000000000e+03 8.943328857421875000e+00 -8.531623840332031250e+00 -6.630892157554626465e-01 6.218988418579101562e+00 1.666769862174987793e+00 2.389709353446960449e-01
2.893000000000000000e+03 8.750134468078613281e+00 -7.471537590026855469e+00 -7.357775568962097168e-01 6.353404998779296875e+00 1.685288310050964355e+00 4.383712112903594971e-01
2.894000000000000000e+03 6.936193847656250000e+01 -7.212256431579589844e+00 3.190548392012715340e-03 7.763167381286621094e+00 2.329907417297363281e+00 -7.375762611627578735e-02
2.895000000000000000e+03 2.615527725219726562e+01 -2.562119865417480469e+01 -6.020720303058624268e-02 7.344428062438964844e+00 2.185266256332397461e+00 1.594101935625076294e-01
2.896000000000000000e+03 2.831624031066894531e+01 -2.740088081359863281e+01 -3.436910733580589294e-02 7.341123104095458984e+00 2.192026138305664062e+00 1.118169873952865601e-01
2.897000000000000000e+03 3.334972000122070312e+01 2.762855529785156250e+00 9.779054671525955200e-02 7.862303733825683594e+00 2.388028383255004883e+00 7.590294349938631058e-03
2.898000000000000000e+03 6.881700134277343750e+01 -2.315078020095825195e+00 8.199220523238182068e-03 7.739761352539062500e+00 2.324388265609741211e+00 -7.229179888963699341e-02
2.899000000000000000e+03 6.837866973876953125e+01 -5.015408039093017578e+00 7.121910806745290756e-03 7.749867916107177734e+00 2.327096939086914062e+00 -7.679666578769683838e-02
2.900000000000000000e+03 3.012311363220214844e+01 4.435866177082061768e-01 6.544954329729080200e-02 7.888154029846191406e+00 2.386081218719482422e+00 4.123474657535552979e-02
2.901000000000000000e+03 3.283784103393554688e+01 -9.547625184059143066e-01 5.793307349085807800e-02 7.833987236022949219e+00 2.367576122283935547e+00 1.500579807907342911e-02
2.902000000000000000e+03 3.321995925903320312e+01 1.436367392539978027e+00 8.924213051795959473e-02 7.851485252380371094e+00 2.382218360900878906e+00 4.089073743671178818e-03
2.903000000000000000e+03 6.400999450683593750e+01 -1.027028179168701172e+01 6.304247071966528893e-04 7.760011196136474609e+00 2.328192472457885742e+00 -9.461499005556106567e-02
2.904000000000000000e+03 6.763678741455078125e+01 -1.152870178222656250e+01 5.227946094237267971e-04 7.774813652038574219e+00 2.332600831985473633e+00 -8.278810232877731323e-02
2.905000000000000000e+03 6.875220489501953125e+01 -1.653603744506835938e+01 -5.510806571692228317e-03 7.799801826477050781e+00 2.338287353515625000e+00 -7.488247007131576538e-02
2.906000000000000000e+03 6.936992645263671875e+01 -1.443246364593505859e+01 -3.544091247022151947e-03 7.794724941253662109e+00 2.337354421615600586e+00 -7.345925271511077881e-02
2.907000000000000000e+03 3.204395675659179688e+01 -2.006961107254028320e+00 4.133864492177963257e-02 7.835376262664794922e+00 2.363014459609985352e+00 2.197207510471343994e-02
2.908000000000000000e+03 3.317853164672851562e+01 2.018074035644531250e+01 9.481219202280044556e-02 7.989369392395019531e+00 2.425254583358764648e+00 -4.605128895491361618e-03
2.909000000000000000e+03 6.821407318115234375e+01 7.079408168792724609e+00 1.530118938535451889e-02 7.707392215728759766e+00 2.316807985305786133e+00 -5.743607133626937866e-02
2.910000000000000000e+03 3.626736831665039062e+01 1.321161651611328125e+01 1.138364672660827637e-01 7.907670021057128906e+00 2.406451940536499023e+00 7.059069816023111343e-03
2.911000000000000000e+03 3.024173355102539062e+01 -1.361428070068359375e+01 7.384051568806171417e-03 7.614717006683349609e+00 2.286630392074584961e+00 7.546843588352203369e-02
2.912000000000000000e+03 6.627249145507812500e+01 1.301801395416259766e+01 2.033714950084686279e-02 7.700516223907470703e+00 2.316256046295166016e+00 -4.680327326059341431e-02
2.913000000000000000e+03 3.272525024414062500e+01 -8.065830230712890625e+00 4.494921304285526276e-03 7.731315135955810547e+00 2.320743083953857422e+00 3.589415177702903748e-02
2.914000000000000000e+03 3.495662689208984375e+01 -1.163179874420166016e+01 3.692422527819871902e-03 7.675619125366210938e+00 2.303793430328369141e+00 9.587524458765983582e-03
2.915000000000000000e+03 3.616879272460937500e+01 -9.328696250915527344e+00 1.396681554615497589e-02 7.708211421966552734e+00 2.316653490066528320e+00 -5.617460235953330994e-03
2.916000000000000000e+03 6.653073883056640625e+01 1.575201320648193359e+01 1.938190124928951263e-02 7.694888591766357422e+00 2.314281225204467773e+00 -3.940491750836372375e-02
2.917000000000000000e+03 6.806824493408203125e+01 1.792937850952148438e+01 1.581755466759204865e-02 7.684151172637939453e+00 2.309990644454956055e+00 -3.198248893022537231e-02
2.918000000000000000e+03 3.363313293457031250e+01 1.109538841247558594e+01 1.133713200688362122e-01 7.934079647064208984e+00 2.414235353469848633e+00 2.347360737621784210e-02
2.919000000000000000e+03 7.004387664794921875e+01 -1.651782226562500000e+01 -6.574622821062803268e-03 7.806015014648437500e+00 2.339832067489624023e+00 -6.915551424026489258e-02
2.920000000000000000e+03 2.728366661071777344e+01 3.466349029541015625e+01 1.921458989381790161e-01 7.876356601715087891e+00 2.420550823211669922e+00 3.499170765280723572e-02
2.921000000000000000e+03 7.051796436309814453e+00 7.044335365295410156e+00 -2.778575122356414795e-01 4.511131286621093750e+00 1.269982099533081055e+00 -6.701847910881042480e-01
2.922000000000000000e+03 7.330727100372314453e+00 4.175896167755126953e+00 3.642809092998504639e-01 4.286133289337158203e+00 1.395124316215515137e+00 -1.785874485969543457e+00
2.923000000000000000e+03 6.926010608673095703e+00 3.815539598464965820e+00 7.169284820556640625e-01 3.301248788833618164e+00 1.205453157424926758e+00 -1.690622210502624512e+00
2.924000000000000000e+03 5.714987754821777344e+00 3.546012401580810547e+00 7.744026184082031250e-01 1.637949228286743164e+00 7.237055301666259766e-01 -7.940781712532043457e-01
2.925000000000000000e+03 5.536156177520751953e+00 4.073468685150146484e+00 6.719312667846679688e-01 1.742033839225769043e+00 7.241895794868469238e-01 -7.155246138572692871e-01
2.926000000000000000e+03 8.113356590270996094e+00 5.135866641998291016e+00 -4.471693634986877441e-01 6.107581138610839844e+00 1.698123455047607422e+00 -1.464393019676208496e+00
2.927000000000000000e+03 8.598980903625488281e+00 -4.904363155364990234e+00 -6.878657937049865723e-01 7.078585624694824219e+00 1.917215943336486816e+00 1.717085957527160645e+00
2.928000000000000000e+03 8.702178001403808594e+00 -4.175117015838623047e+00 -5.108408331871032715e-01 7.540908813476562500e+00 2.109020471572875977e+00 2.316746234893798828e+00
2.929000000000000000e+03 8.923113822937011719e+00 -5.310794830322265625e+00 -9.809074401855468750e-01 7.521216869354248047e+00 1.962092876434326172e+00 1.270743966102600098e+00
2.930000000000000000e+03 8.999368667602539062e+00 -4.547041893005371094e+00 -9.348322153091430664e-01 8.059315681457519531e+00 2.137345075607299805e+00 1.798438549041748047e+00
2.931000000000000000e+03 6.720324039459228516e+00 -4.760957241058349609e+00 3.901283740997314453e-01 3.670723676681518555e+00 1.218255639076232910e+00 1.512214303016662598e+00
2.932000000000000000e+03 6.198837757110595703e+00 5.782613277435302734e+00 1.571723669767379761e-01 3.273149013519287109e+00 1.029096484184265137e+00 -8.615674376487731934e-01
2.933000000000000000e+03 6.908501148223876953e+00 6.398275852203369141e+00 -1.574436575174331665e-01 4.331196308135986328e+00 1.252125740051269531e+00 -8.678742647171020508e-01
2.934000000000000000e+03 5.812794685363769531e+00 4.627525329589843750e+00 5.341591238975524902e-01 2.369079113006591797e+00 8.709714412689208984e-01 -8.792008757591247559e-01
2.935000000000000000e+03 5.393287181854248047e+00 3.776072978973388672e+00 6.748883724212646484e-01 1.455579996109008789e+00 6.391404867172241211e-01 -5.596888065338134766e-01
2.936000000000000000e+03 5.121937274932861328e+00 -4.916495800018310547e+00 5.238261222839355469e-01 1.854289174079895020e+00 7.134345769882202148e-01 7.213954925537109375e-01
2.937000000000000000e+03 8.254962921142578125e+00 6.769571781158447266e+00 -6.529937982559204102e-01 5.995745658874511719e+00 1.602825641632080078e+00 -6.326268911361694336e-01
2.938000000000000000e+03 8.788617134094238281e+00 -6.111487388610839844e+00 -8.994549512863159180e-01 6.887194156646728516e+00 1.796321749687194824e+00 8.807991147041320801e-01
2.939000000000000000e+03 8.522065162658691406e+00 -6.917498111724853516e+00 -7.400726675987243652e-01 6.255319595336914062e+00 1.654574036598205566e+00 6.782262921333312988e-01
2.940000000000000000e+03 6.879900932312011719e+00 -6.711747646331787109e+00 -1.667043566703796387e-01 4.299698829650878906e+00 1.239898324012756348e+00 9.382488727569580078e-01
2.941000000000000000e+03 7.451412200927734375e+00 8.017272949218750000e+00 -4.069030582904815674e-01 4.878387928009033203e+00 1.341445446014404297e+00 -3.895348012447357178e-01
2.942000000000000000e+03 8.314304351806640625e+00 -6.424110889434814453e+00 -6.633549928665161133e-01 6.158451080322265625e+00 1.648528814315795898e+00 9.353206753730773926e-01
2.943000000000000000e+03 7.993812561035156250e+00 -7.750946998596191406e+00 -5.536342859268188477e-01 5.532201766967773438e+00 1.493570208549499512e+00 5.793322920799255371e-01
2.944000000000000000e+03 6.520478820800781250e+01 5.809020519256591797e+00 2.116549015045166016e-02 7.719755172729492188e+00 2.322276115417480469e+00 -6.806449592113494873e-02
2.945000000000000000e+03 6.613355255126953125e+01 3.643284797668457031e+00 1.815505698323249817e-02 7.722890853881835938e+00 2.322313785552978516e+00 -7.083132863044738770e-02
2.946000000000000000e+03 6.660845184326171875e+01 -1.592574405670166016e+01 -7.423621136695146561e-03 7.787409305572509766e+00 2.333995819091796875e+00 -8.366628736257553101e-02
2.947000000000000000e+03 3.490896224975585938e+01 6.526684165000915527e-01 8.378154039382934570e-02 7.828758239746093750e+00 2.373761892318725586e+00 -1.292623952031135559e-02
2.948000000000000000e+03 6.774217224121093750e+01 -1.050281882286071777e+00 1.102275494486093521e-02 7.735530853271484375e+00 2.323966026306152344e+00 -7.472275942564010620e-02
2.949000000000000000e+03 6.640834045410156250e+01 -1.147688552737236023e-01 1.410682965070009232e-02 7.731849193572998047e+00 2.323786735534667969e+00 -7.726922631263732910e-02
2.950000000000000000e+03 6.632598114013671875e+01 -3.576815605163574219e+00 1.032847072929143906e-02 7.745328426361083984e+00 2.326697111129760742e+00 -8.339858800172805786e-02
2.951000000000000000e+03 6.310644912719726562e+01 9.197285652160644531e+00 2.886758744716644287e-02 7.718457221984863281e+00 2.324197530746459961e+00 -6.265615671873092651e-02
2.952000000000000000e+03 6.851217651367187500e+01 5.468129515647888184e-01 1.097684632986783981e-02 7.728550910949707031e+00 2.321858406066894531e+00 -6.937559694051742554e-02
2.953000000000000000e+03 6.686067962646484375e+01 -2.290108919143676758e+00 1.147059258073568344e-02 7.738609313964843750e+00 2.325023889541625977e+00 -7.886062562465667725e-02
2.954000000000000000e+03 3.155432128906250000e+01 -2.399773150682449341e-02 6.943458318710327148e-02 7.862483978271484375e+00 2.379575490951538086e+00 2.038479596376419067e-02
2.955000000000000000e+03 3.500811386108398438e+01 7.724711418151855469e+00 1.223456189036369324e-01 7.884498596191406250e+00 2.402053356170654297e+00 6.756616756319999695e-03
2.956000000000000000e+03 3.343842315673828125e+01 1.231789588928222656e+01 1.142203360795974731e-01 7.954234600067138672e+00 2.420536518096923828e+00 2.465881966054439545e-02
2.957000000000000000e+03 3.366916275024414062e+01 -5.455218791961669922e+00 1.843618042767047882e-02 7.770197868347167969e+00 2.336590051651000977e+00 1.485302485525608063e-02
2.958000000000000000e+03 3.473001861572265625e+01 -7.662085890769958496e-01 5.901265516877174377e-02 7.813832283020019531e+00 2.361853361129760742e+00 -7.614424917846918106e-03
2.959000000000000000e+03 6.716913604736328125e+01 6.109403610229492188e+00 1.654222980141639709e-02 7.713012695312500000e+00 2.318866491317749023e+00 -6.185568124055862427e-02
2.960000000000000000e+03 3.423046112060546875e+01 -7.582531929016113281e+00 1.985074952244758606e-02 7.732238292694091797e+00 2.325626611709594727e+00 1.836222596466541290e-02
2.961000000000000000e+03 3.574415206909179688e+01 1.490308189392089844e+01 1.015538796782493591e-01 7.920245647430419922e+00 2.406539916992187500e+00 6.571698468178510666e-03
2.962000000000000000e+03 3.734349060058593750e+01 1.550596809387207031e+01 1.079975813627243042e-01 7.901315689086914062e+00 2.402794122695922852e+00 2.403507241979241371e-03
2.963000000000000000e+03 3.505067825317382812e+01 1.119851493835449219e+01 1.206032559275627136e-01 7.914361000061035156e+00 2.410489320755004883e+00 1.516645122319459915e-02
2.964000000000000000e+03 7.011067199707031250e+01 -1.850490760803222656e+01 -5.939728580415248871e-03 7.815239429473876953e+00 2.342789888381958008e+00 -6.640960276126861572e-02
2.965000000000000000e+03 6.408356475830078125e+01 -1.570907974243164062e+01 -1.003283821046352386e-02 7.775262355804443359e+00 2.329568862915039062e+00 -9.191839396953582764e-02
2.966000000000000000e+03 6.292848968505859375e+01 -1.422100162506103516e+01 -6.530497223138809204e-03 7.766830444335937500e+00 2.328089952468872070e+00 -9.650482982397079468e-02
2.967000000000000000e+03 3.508613967895507812e+01 -1.787638282775878906e+01 -4.812176525592803955e-02 7.603050231933593750e+00 2.266478538513183594e+00 -4.305182956159114838e-03
2.968000000000000000e+03 3.177471733093261719e+01 -1.543529701232910156e+01 -1.203421689569950104e-02 7.602507114410400391e+00 2.277142047882080078e+00 4.557625204324722290e-02
2.969000000000000000e+03 6.569898223876953125e+01 -1.481920123100280762e+00 1.322936732321977615e-02 7.738224029541015625e+00 2.325436115264892578e+00 -8.150448650121688843e-02
2.970000000000000000e+03 6.261507987976074219e+00 4.747003555297851562e+00 4.501925110816955566e-01 2.949902057647705078e+00 1.020028352737426758e+00 -1.104922056198120117e+00
2.971000000000000000e+03 7.446677207946777344e+00 4.569952964782714844e+00 1.439036577939987183e-01 4.732988834381103516e+00 1.463067770004272461e+00 -1.692532062530517578e+00
2.972000000000000000e+03 6.533222198486328125e+00 3.581647872924804688e+00 8.274964690208435059e-01 2.571620225906372070e+00 1.019734978675842285e+00 -1.396398305892944336e+00
2.973000000000000000e+03 7.363256454467773438e+00 -4.036849021911621094e+00 5.478018522262573242e-01 4.356745719909667969e+00 1.471364259719848633e+00 2.119964361190795898e+00
2.974000000000000000e+03 7.198189258575439453e+00 -5.120507717132568359e+00 6.755616515874862671e-02 4.582172393798828125e+00 1.394918560981750488e+00 1.542389988899230957e+00
2.975000000000000000e+03 6.277419090270996094e+00 4.325817584991455078e+00 5.928055644035339355e-01 2.729907035827636719e+00 9.968137741088867188e-01 -1.156207323074340820e+00
2.976000000000000000e+03 5.958499431610107422e+00 3.908467054367065430e+00 7.410771250724792480e-01 2.079979658126831055e+00 8.463170528411865234e-01 -9.765164852142333984e-01
2.977000000000000000e+03 6.275354385375976562e+00 3.943065404891967773e+00 7.033202648162841797e-01 2.494858980178833008e+00 9.594537615776062012e-01 -1.185425996780395508e+00
2.978000000000000000e+03 6.653502941131591797e+00 4.323184490203857422e+00 5.420945286750793457e-01 3.244412183761596680e+00 1.135951995849609375e+00 -1.405455231666564941e+00
2.979000000000000000e+03 8.446197509765625000e+00 -5.655153751373291016e+00 -6.759548187255859375e-01 6.551770210266113281e+00 1.762744665145874023e+00 1.282296657562255859e+00
2.980000000000000000e+03 8.173283576965332031e+00 -5.212101459503173828e+00 -4.737286269664764404e-01 6.219961643218994141e+00 1.723869919776916504e+00 1.574228525161743164e+00
2.981000000000000000e+03 6.330463886260986328e+00 -4.784852027893066406e+00 4.842464327812194824e-01 3.032052278518676758e+00 1.054889559745788574e+00 1.286925077438354492e+00
2.982000000000000000e+03 5.902476310729980469e+00 -4.649539947509765625e+00 5.546495914459228516e-01 2.575786590576171875e+00 9.391308426856994629e-01 1.113640427589416504e+00
2.983000000000000000e+03 7.686022758483886719e+00 6.989427566528320312e+00 -4.599688649177551270e-01 5.236490726470947266e+00 1.432956576347351074e+00 -6.507012844085693359e-01
2.984000000000000000e+03 5.708767890930175781e+00 -5.179778099060058594e+00 4.345859885215759277e-01 2.611640214920043945e+00 9.138678312301635742e-01 9.699332714080810547e-01
2.985000000000000000e+03 7.489254951477050781e+00 -6.597821712493896484e+00 -3.687254190444946289e-01 5.126387596130371094e+00 1.427298665046691895e+00 9.205186367034912109e-01
2.986000000000000000e+03 6.283732891082763672e+00 -5.248198986053466797e+00 3.349146544933319092e-01 3.261568307876586914e+00 1.078944921493530273e+00 1.199606537818908691e+00
2.987000000000000000e+03 8.259045600891113281e+00 5.548124790191650391e+00 -6.050229072570800781e-01 6.239803791046142578e+00 1.690434217453002930e+00 -1.187946200370788574e+00
2.988000000000000000e+03 8.481243133544921875e+00 5.998720645904541016e+00 -7.446116805076599121e-01 6.467566013336181641e+00 1.716886281967163086e+00 -8.915644288063049316e-01
2.989000000000000000e+03 7.608727455139160156e+00 -5.722712993621826172e+00 -2.879527807235717773e-01 5.261696815490722656e+00 1.492123246192932129e+00 1.349705815315246582e+00
2.990000000000000000e+03 7.878019332885742188e+00 -6.629251480102539062e+00 -4.979322552680969238e-01 5.538707733154296875e+00 1.512232661247253418e+00 9.778159260749816895e-01
2.991000000000000000e+03 6.155706405639648438e+01 5.763660907745361328e+00 3.166823461651802063e-02 7.726295948028564453e+00 2.327389240264892578e+00 -7.440510392189025879e-02
2.992000000000000000e+03 6.504486846923828125e+01 6.625008583068847656e-01 1.739781722426414490e-02 7.732298851013183594e+00 2.324908971786499023e+00 -7.981658726930618286e-02
2.993000000000000000e+03 6.332467651367187500e+01 -5.190996646881103516e+00 1.123705133795738220e-02 7.745809078216552734e+00 2.327113866806030273e+00 -9.289607405662536621e-02
2.994000000000000000e+03 6.472903442382812500e+01 -6.422720432281494141e+00 8.102068677544593811e-03 7.751349925994873047e+00 2.327835559844970703e+00 -9.142545610666275024e-02
2.995000000000000000e+03 3.313017654418945312e+01 8.030609130859375000e+00 1.242446005344390869e-01 7.912811279296875000e+00 2.411116838455200195e+00 2.433497272431850433e-02
2.996000000000000000e+03 3.460520935058593750e+01 5.844103813171386719e+00 1.151976957917213440e-01 7.869263172149658203e+00 2.395338296890258789e+00 3.293093061074614525e-03
2.997000000000000000e+03 3.374906921386718750e+01 1.072539538145065308e-01 7.167960703372955322e-02 7.834571838378906250e+00 2.371875524520874023e+00 2.531091682612895966e-03
2.998000000000000000e+03 6.453182220458984375e+01 8.138210296630859375e+00 2.447076514363288879e-02 7.716239929199218750e+00 2.322213172912597656e+00 -6.305925548076629639e-02
2.999000000000000000e+03 6.685557556152343750e+01 8.396762847900390625e+00 1.860798895359039307e-02 7.707834243774414062e+00 2.317932605743408203e+00 -5.740812793374061584e-02
3.000000000000000000e+03 3.663186645507812500e+01 1.151149463653564453e+01 1.103208214044570923e-01 7.885999202728271484e+00 2.398895978927612305e+00 1.202200190164148808e-03
3.001000000000000000e+03 3.658671569824218750e+01 -1.142902374267578125e+01 -8.028647862374782562e-03 7.684762001037597656e+00 2.303020000457763672e+00 -1.777680031955242157e-02
3.002000000000000000e+03 3.579721832275390625e+01 -7.251695632934570312e+00 1.121103391051292419e-02 7.736656188964843750e+00 2.324360132217407227e+00 -8.606481365859508514e-03
3.003000000000000000e+03 6.373432159423828125e+01 1.630353164672851562e+01 2.717322111129760742e-02 7.708380222320556641e+00 2.320666074752807617e+00 -4.131452366709709167e-02
3.004000000000000000e+03 7.141364097595214844e+00 -4.650517940521240234e+00 2.700930237770080566e-01 4.408001422882080078e+00 1.403428435325622559e+00 1.708344936370849609e+00
3.005000000000000000e+03 6.799395561218261719e+00 5.809746265411376953e+00 -6.422070786356925964e-03 4.099817276000976562e+00 1.228018522262573242e+00 -1.033796072006225586e+00
3.006000000000000000e+03 8.388037681579589844e+00 4.709496021270751953e+00 -5.240235924720764160e-01 6.656607151031494141e+00 1.839775085449218750e+00 -1.732609748840332031e+00
3.007000000000000000e+03 5.897721767425537109e+00 4.250397682189941406e+00 6.181362271308898926e-01 2.249300956726074219e+00 8.602312207221984863e-01 -9.391223788261413574e-01
3.008000000000000000e+03 7.815593242645263672e+00 5.685184955596923828e+00 -3.868639171123504639e-01 5.523844242095947266e+00 1.541094183921813965e+00 -1.171208500862121582e+00
3.009000000000000000e+03 6.450930595397949219e+00 -5.706275939941406250e+00 1.642020791769027710e-01 3.627857685089111328e+00 1.137617945671081543e+00 1.160529017448425293e+00
3.010000000000000000e+03 6.235340118408203125e+00 5.227014064788818359e+00 3.117362856864929199e-01 3.129081964492797852e+00 1.032245397567749023e+00 -1.011517167091369629e+00
3.011000000000000000e+03 7.684612274169921875e+00 -5.257519721984863281e+00 -1.730375736951828003e-01 5.385367870330810547e+00 1.563699126243591309e+00 1.577511548995971680e+00
3.012000000000000000e+03 7.333516597747802734e+00 5.771741390228271484e+00 -1.983080357313156128e-01 4.827434062957763672e+00 1.388737797737121582e+00 -1.129428386688232422e+00
3.013000000000000000e+03 7.585395812988281250e+00 -4.479820251464843750e+00 1.319293975830078125e-01 5.074802398681640625e+00 1.562019586563110352e+00 1.985302329063415527e+00
3.014000000000000000e+03 7.405022621154785156e+00 -6.064055442810058594e+00 -2.898047566413879395e-01 5.063025474548339844e+00 1.431966185569763184e+00 1.126891136169433594e+00
3.015000000000000000e+03 6.621390819549560547e+00 -7.052682399749755859e+00 -1.520378291606903076e-01 4.114195823669433594e+00 1.188647389411926270e+00 8.759335279464721680e-01
3.016000000000000000e+03 7.904451847076416016e+00 -7.118626117706298828e+00 -5.182524919509887695e-01 5.527948379516601562e+00 1.502908706665039062e+00 7.704274058341979980e-01
3.017000000000000000e+03 3.277451705932617188e+01 6.337157726287841797e+00 1.278073936700820923e-01 7.910908222198486328e+00 2.411614656448364258e+00 2.325597591698169708e-02
3.018000000000000000e+03 3.508825302124023438e+01 9.546378135681152344e+00 1.159339770674705505e-01 7.893948554992675781e+00 2.402964830398559570e+00 9.259510785341262817e-03
3.019000000000000000e+03 3.675007629394531250e+01 2.170761346817016602e+00 9.017965942621231079e-02 7.821636676788330078e+00 2.373544931411743164e+00 -2.259426005184650421e-02
3.020000000000000000e+03 6.371240234375000000e+01 -7.682495117187500000e+00 5.816821940243244171e-03 7.752687931060791016e+00 2.327551364898681641e+00 -9.411901980638504028e-02
3.021000000000000000e+03 6.310044479370117188e+01 -2.912256717681884766e+00 1.697613298892974854e-02 7.740241050720214844e+00 2.327165126800537109e+00 -9.083533287048339844e-02
3.022000000000000000e+03 3.773171997070312500e+01 4.603193759918212891e+00 9.789789468050003052e-02 7.823881149291992188e+00 2.376533746719360352e+00 -2.593879587948322296e-02
3.023000000000000000e+03 3.731364440917968750e+01 -1.367493391036987305e+00 5.667999014258384705e-02 7.789952754974365234e+00 2.353989839553833008e+00 -3.010443039238452911e-02
3.024000000000000000e+03 3.079899787902832031e+01 -7.095641136169433594e+00 -5.695844811270944774e-05 7.753117561340332031e+00 2.325918197631835938e+00 7.439331710338592529e-02
3.025000000000000000e+03 3.551031875610351562e+01 -5.088603973388671875e+00 3.665231913328170776e-02 7.765002727508544922e+00 2.340496540069580078e+00 -6.090169306844472885e-03
3.026000000000000000e+03 3.768634796142578125e+01 -9.043023109436035156e+00 5.742517765611410141e-03 7.712338924407958984e+00 2.315424442291259766e+00 -2.820362709462642670e-02
3.027000000000000000e+03 3.735317993164062500e+01 -7.086277484893798828e+00 2.602523379027843475e-02 7.734236717224121094e+00 2.328078508377075195e+00 -2.330786548554897308e-02
3.028000000000000000e+03 3.514915084838867188e+01 -1.368273448944091797e+01 -2.131925150752067566e-02 7.651085853576660156e+00 2.288929939270019531e+00 -1.984323374927043915e-03
3.029000000000000000e+03 6.539046478271484375e+01 9.469367027282714844e+00 2.279166691005229950e-02 7.710478305816650391e+00 2.319980859756469727e+00 -5.813629552721977234e-02
3.030000000000000000e+03 3.741200256347656250e+01 -3.114526271820068359e+00 5.089512094855308533e-02 7.773020744323730469e+00 2.347174882888793945e+00 -2.849366888403892517e-02
3.031000000000000000e+03 3.836376953125000000e+01 1.199252986907958984e+01 1.145663484930992126e-01 7.868908405303955078e+00 2.395042419433593750e+00 -5.603688769042491913e-03
3.032000000000000000e+03 3.789555358886718750e+01 1.374791812896728516e+01 1.038520336151123047e-01 7.879910945892333984e+00 2.395128965377807617e+00 -3.875670954585075378e-03
3.033000000000000000e+03 3.587268066406250000e+01 1.927597427368164062e+01 1.016332656145095825e-01 7.935328483581542969e+00 2.411088466644287109e+00 6.350312614813446999e-04
3.034000000000000000e+03 7.130457401275634766e+00 -6.368812561035156250e+00 -2.091525197029113770e-01 4.665816783905029297e+00 1.336999297142028809e+00 1.034232378005981445e+00
3.035000000000000000e+03 6.770661830902099609e+00 -5.139729976654052734e+00 2.474846243858337402e-01 3.930118799209594727e+00 1.253280997276306152e+00 1.466198682785034180e+00
3.036000000000000000e+03 6.745604038238525391e+00 5.267725944519042969e+00 1.535887271165847778e-01 3.819520235061645508e+00 1.191932678222656250e+00 -1.166155338287353516e+00
3.037000000000000000e+03 8.294609069824218750e+00 -4.537161827087402344e+00 -3.121559917926788330e-01 6.440277576446533203e+00 1.838436484336853027e+00 2.068433046340942383e+00
3.038000000000000000e+03 6.701134681701660156e+00 4.771656036376953125e+00 3.502251505851745605e-01 3.579563140869140625e+00 1.178936481475830078e+00 -1.315463066101074219e+00
3.039000000000000000e+03 7.167752265930175781e+00 -5.782844066619873047e+00 -9.613224864006042480e-02 4.654274463653564453e+00 1.367442727088928223e+00 1.285941720008850098e+00
3.040000000000000000e+03 7.119909286499023438e+00 4.717762470245361328e+00 2.115161269903182983e-01 4.209759712219238281e+00 1.326382756233215332e+00 -1.500252842903137207e+00
3.041000000000000000e+03 8.001840591430664062e+00 6.206084728240966797e+00 -5.385578274726867676e-01 5.732309341430664062e+00 1.558125495910644531e+00 -9.052438735961914062e-01
3.042000000000000000e+03 3.623168182373046875e+01 5.444211959838867188e-01 7.454420626163482666e-02 7.814855575561523438e+00 2.366819858551025391e+00 -2.068652771413326263e-02
3.043000000000000000e+03 3.561426162719726562e+01 -2.997326850891113281e+00 3.964576870203018188e-02 7.785434722900390625e+00 2.347524166107177734e+00 -1.147188898175954819e-02
3.044000000000000000e+03 3.542089843750000000e+01 3.250211477279663086e+00 9.887456148862838745e-02 7.839948654174804688e+00 2.381646871566772461e+00 -1.205088384449481964e-02
3.045000000000000000e+03 3.683406448364257812e+01 9.747525215148925781e+00 1.193125322461128235e-01 7.875999450683593750e+00 2.398593425750732422e+00 -3.536712320055812597e-04
3.046000000000000000e+03 6.416217041015625000e+01 2.838453769683837891e+00 2.172237634658813477e-02 7.728147029876708984e+00 2.324960947036743164e+00 -7.727134227752685547e-02
3.047000000000000000e+03 6.389609146118164062e+01 -1.992401123046875000e+00 1.531654503196477890e-02 7.739919185638427734e+00 2.326570749282836914e+00 -8.715753257274627686e-02
3.048000000000000000e+03 3.917447280883789062e+01 -8.665858268737792969e+00 1.506571937352418900e-02 7.719816207885742188e+00 2.320464611053466797e+00 -4.005977883934974670e-02
3.049000000000000000e+03 3.875699996948242188e+01 -7.006499290466308594e+00 1.990617066621780396e-02 7.732341289520263672e+00 2.325674295425415039e+00 -3.903481364250183105e-02
3.050000000000000000e+03 6.427464294433593750e+01 -4.035175323486328125e+00 1.239896006882190704e-02 7.744410514831542969e+00 2.327042818069458008e+00 -9.024576842784881592e-02
3.051000000000000000e+03 6.594117736816406250e+01 7.134453296661376953e+00 2.006281353533267975e-02 7.713804244995117188e+00 2.320160150527954102e+00 -6.305465847253799438e-02
3.052000000000000000e+03 6.511416625976562500e+01 1.463132762908935547e+01 2.386070415377616882e-02 7.703732490539550781e+00 2.318277835845947266e+00 -4.470019415020942688e-02
3.053000000000000000e+03 6.270831680297851562e+01 1.189118957519531250e+01 3.113520145416259766e-02 7.717045783996582031e+00 2.324454307556152344e+00 -5.569916218519210815e-02
3.054000000000000000e+03 3.819732666015625000e+01 -1.106804370880126953e+01 2.265296643599867821e-03 7.695059776306152344e+00 2.309197425842285156e+00 -2.689396403729915619e-02
3.055000000000000000e+03 3.866549682617187500e+01 1.016669559478759766e+01 1.080912426114082336e-01 7.849808216094970703e+00 2.387369871139526367e+00 -1.392874773591756821e-02
3.056000000000000000e+03 3.736301803588867188e+01 -5.095930099487304688e+00 2.914298325777053833e-02 7.755417823791503906e+00 2.335368156433105469e+00 -2.955696545541286469e-02
3.057000000000000000e+03 1.144620037078857422e+01 3.924367904663085938e+01 -5.745909214019775391e-01 4.834547519683837891e+00 1.277987003326416016e+00 -2.962000109255313873e-02
3.058000000000000000e+03 6.148975372314453125e+00 3.346797561645507812e+01 -1.128253713250160217e-02 3.119246959686279297e+00 9.323893189430236816e-01 -4.648166298866271973e-01
3.059000000000000000e+03 6.740783691406250000e+01 -9.149353027343750000e+00 2.846268005669116974e-03 7.764680862426757812e+00 2.330258131027221680e+00 -8.363088220357894897e-02
3.060000000000000000e+03 6.883348846435546875e+01 3.171948051452636719e+01 6.329519674181938171e-03 7.666692733764648438e+00 2.301906585693359375e+00 -7.065543439239263535e-03
3.061000000000000000e+03 7.124380493164062500e+01 3.243848800659179688e+01 4.495307337492704391e-03 7.648494720458984375e+00 2.295897006988525391e+00 -5.403010640293359756e-03
3.062000000000000000e+03 1.002285099029541016e+01 2.890484428405761719e+01 3.078196048736572266e-01 5.557763099670410156e+00 1.759674787521362305e+00 -6.541867554187774658e-02
3.063000000000000000e+03 7.007095813751220703e+00 4.260369300842285156e+00 4.806515276432037354e-01 3.788969516754150391e+00 1.280886292457580566e+00 -1.653003215789794922e+00
3.064000000000000000e+03 6.938022136688232422e+00 -5.466376304626464844e+00 7.363390177488327026e-02 4.307661056518554688e+00 1.314388394355773926e+00 1.381248474121093750e+00
3.065000000000000000e+03 7.233154296875000000e+00 5.226864814758300781e+00 3.079478046856820583e-04 4.578693389892578125e+00 1.373700499534606934e+00 -1.350704193115234375e+00
3.066000000000000000e+03 3.910573577880859375e+01 -2.682547807693481445e+00 4.987824708223342896e-02 7.764040946960449219e+00 2.344175815582275391e+00 -4.640735313296318054e-02
3.067000000000000000e+03 3.763438415527343750e+01 5.964502692222595215e-02 7.727529108524322510e-02 7.795999526977539062e+00 2.361982345581054688e+00 -3.258999064564704895e-02
3.068000000000000000e+03 6.292374801635742188e+01 -1.153981876373291016e+01 -6.744398851878941059e-04 7.760198593139648438e+00 2.327857255935668945e+00 -9.788420796394348145e-02
3.069000000000000000e+03 6.667879486083984375e+01 -1.292822837829589844e+01 -3.631813684478402138e-03 7.776991844177246094e+00 2.332007884979248047e+00 -8.538591116666793823e-02
3.070000000000000000e+03 7.874338150024414062e+00 4.129915618896484375e+01 -4.389945268630981445e-01 3.726429462432861328e+00 9.862304329872131348e-01 -9.642589092254638672e-02
3.071000000000000000e+03 6.201041793823242188e+01 -3.840811014175415039e+00 1.554767228662967682e-02 7.742244720458984375e+00 2.327337741851806641e+00 -9.470187127590179443e-02
3.072000000000000000e+03 3.811309051513671875e+01 1.502690076828002930e+00 7.594763487577438354e-02 7.801545143127441406e+00 2.363247871398925781e+00 -3.508307412266731262e-02
3.073000000000000000e+03 3.918919754028320312e+01 6.617797851562500000e+00 1.024193614721298218e-01 7.824254512786865234e+00 2.378002166748046875e+00 -2.683991566300392151e-02
3.074000000000000000e+03 6.572061157226562500e+01 -5.055941104888916016e+00 8.908322080969810486e-03 7.747741699218750000e+00 2.326995134353637695e+00 -8.653964847326278687e-02
3.075000000000000000e+03 6.269407653808593750e+01 -8.935792922973632812e+00 5.021997727453708649e-03 7.753671646118164062e+00 2.327608108520507812e+00 -9.797247499227523804e-02
3.076000000000000000e+03 3.977556991577148438e+01 -1.048881816864013672e+01 2.287929411977529526e-03 7.696988105773925781e+00 2.309782981872558594e+00 -4.723156243562698364e-02
3.077000000000000000e+03 3.697074890136718750e+01 7.873894214630126953e+00 1.111267134547233582e-01 7.855000019073486328e+00 2.389837980270385742e+00 -9.517313912510871887e-03
3.078000000000000000e+03 4.135884094238281250e+01 -3.379337310791015625e+00 4.599684476852416992e-02 7.751495361328125000e+00 2.339247703552246094e+00 -6.148133799433708191e-02
3.079000000000000000e+03 4.232405090332031250e+01 -4.840796947479248047e+00 3.652191534638404846e-02 7.742170333862304688e+00 2.333607673645019531e+00 -6.404161453247070312e-02
3.080000000000000000e+03 3.992525863647460938e+01 -6.580814838409423828e+00 2.545447833836078644e-02 7.736887454986572266e+00 2.328702688217163086e+00 -4.985061660408973694e-02
3.081000000000000000e+03 3.740962600708007812e+01 6.173316478729248047e+00 1.123629882931709290e-01 7.843266487121582031e+00 2.386688947677612305e+00 -1.523981429636478424e-02
3.082000000000000000e+03 3.942932510375976562e+01 4.911513805389404297e+00 1.001638248562812805e-01 7.814793586730957031e+00 2.374487161636352539e+00 -3.193320706486701965e-02
3.083000000000000000e+03 6.078208160400390625e+01 -2.568857908248901367e+00 2.008281275629997253e-02 7.739220142364501953e+00 2.327790737152099609e+00 -9.382775425910949707e-02
3.084000000000000000e+03 6.272933578491210938e+01 3.468395471572875977e+00 2.618802525103092194e-02 7.727419853210449219e+00 2.326082468032836914e+00 -7.869019359350204468e-02
3.085000000000000000e+03 5.997136688232421875e+01 -1.203863263130187988e+00 2.372051216661930084e-02 7.736688613891601562e+00 2.328122615814208984e+00 -9.273348003625869751e-02
3.086000000000000000e+03 3.967168426513671875e+01 1.461544394493103027e+00 8.167907595634460449e-02 7.792103290557861328e+00 2.362134695053100586e+00 -4.000464826822280884e-02
3.087000000000000000e+03 3.796337890625000000e+01 3.030783653259277344e+00 9.614354372024536133e-02 7.815625667572021484e+00 2.373530864715576172e+00 -2.800458483397960663e-02
3.088000000000000000e+03 3.859568405151367188e+01 -9.766154885292053223e-01 6.371778249740600586e-02 7.784646034240722656e+00 2.354509115219116211e+00 -3.740502893924713135e-02
3.089000000000000000e+03 5.957772827148437500e+01 -3.586263179779052734e+00 1.915516890585422516e-02 7.740239620208740234e+00 2.327818393707275391e+00 -9.785416722297668457e-02
3.090000000000000000e+03 6.130950927734375000e+01 -7.619185924530029297e+00 7.394723128527402878e-03 7.747903347015380859e+00 2.326589345932006836e+00 -9.927671402692794800e-02
3.091000000000000000e+03 6.230576324462890625e+01 -6.382086277008056641e+00 1.038027554750442505e-02 7.747368335723876953e+00 2.327324628829956055e+00 -9.726187586784362793e-02
3.092000000000000000e+03 6.131155776977539062e+01 3.933429479598999023e+00 2.980395779013633728e-02 7.731312274932861328e+00 2.328334808349609375e+00 -8.010607957839965820e-02
3.093000000000000000e+03 6.177146530151367188e+01 -1.277216911315917969e+01 -5.583953112363815308e-03 7.759047031402587891e+00 2.326039075851440430e+00 -9.973604232072830200e-02
3.094000000000000000e+03 4.078599166870117188e+01 8.762258529663085938e+00 1.013662815093994141e-01 7.820024967193603516e+00 2.376417398452758789e+00 -2.873807027935981750e-02
3.095000000000000000e+03 4.366601181030273438e+01 -1.058797168731689453e+01 4.876075778156518936e-03 7.709872245788574219e+00 2.314424514770507812e+00 -7.551338523626327515e-02
3.096000000000000000e+03 3.342500686645507812e+01 -1.561475849151611328e+01 -3.144143894314765930e-02 7.616552352905273438e+00 2.275533199310302734e+00 1.749696210026741028e-02
3.097000000000000000e+03 3.327459716796875000e+01 -1.763185501098632812e+01 -2.850745618343353271e-02 7.586727142333984375e+00 2.267466068267822266e+00 2.502116747200489044e-02
3.098000000000000000e+03 3.293244934082031250e+01 -1.970743942260742188e+01 -6.051003932952880859e-02 7.555603981018066406e+00 2.248528242111206055e+00 2.559408172965049744e-02
3.099000000000000000e+03 3.254218673706054688e+01 -2.682324600219726562e+01 -6.433940678834915161e-02 7.436446189880371094e+00 2.211632013320922852e+00 2.654986642301082611e-02
3.100000000000000000e+03 6.499552154541015625e+01 2.119343185424804688e+01 2.119015902280807495e-02 7.697997570037841797e+00 2.315756320953369141e+00 -2.765769511461257935e-02
3.101000000000000000e+03 6.348162078857421875e+01 1.962408447265625000e+01 2.606089226901531219e-02 7.707635402679443359e+00 2.320108890533447266e+00 -3.232522308826446533e-02
3.102000000000000000e+03 6.503393554687500000e+01 -2.803247213363647461e+00 1.344043016433715820e-02 7.740440368652343750e+00 2.326164245605468750e+00 -8.571847528219223022e-02
3.103000000000000000e+03 4.464297485351562500e+01 9.590966224670410156e+00 9.097652137279510498e-02 7.792797088623046875e+00 2.365132093429565430e+00 -4.159732535481452942e-02
3.104000000000000000e+03 3.039731025695800781e+01 -2.705896949768066406e+01 -2.737373486161231995e-02 7.404910087585449219e+00 2.213260889053344727e+00 7.349639385938644409e-02
3.105000000000000000e+03 5.897275924682617188e+01 -7.758210182189941406e+00 8.826654404401779175e-03 7.742856025695800781e+00 2.325504779815673828e+00 -1.024055480957031250e-01
3.106000000000000000e+03 6.166524887084960938e+01 -1.018572807312011719e+01 1.115538179874420166e-03 7.753273487091064453e+00 2.326316833496093750e+00 -9.993204474449157715e-02
3.107000000000000000e+03 6.175481796264648438e+01 3.953332901000976562e-01 2.335948124527931213e-02 7.734031677246093750e+00 2.327217340469360352e+00 -8.731960505247116089e-02
3.108000000000000000e+03 6.137387466430664062e+01 -1.212238669395446777e+00 2.174586430191993713e-02 7.738593101501464844e+00 2.328101634979248047e+00 -9.147362411022186279e-02
3.109000000000000000e+03 6.111777496337890625e+01 2.391542673110961914e+00 2.820806950330734253e-02 7.731203556060791016e+00 2.327823638916015625e+00 -8.357566595077514648e-02
3.110000000000000000e+03 6.232178878784179688e+01 1.904544591903686523e+00 2.473887801170349121e-02 7.732597827911376953e+00 2.327200889587402344e+00 -8.326254785060882568e-02
3.111000000000000000e+03 6.465100097656250000e+01 4.352774143218994141e+00 2.215856499969959259e-02 7.722681045532226562e+00 2.323451757431030273e+00 -7.293385267257690430e-02
3.112000000000000000e+03 4.158257675170898438e+01 2.200973033905029297e-01 6.817126274108886719e-02 7.773369312286376953e+00 2.352462291717529297e+00 -5.519794672727584839e-02
3.113000000000000000e+03 4.122922134399414062e+01 1.663272380828857422e+00 7.521459460258483887e-02 7.781327247619628906e+00 2.356962680816650391e+00 -5.385703220963478088e-02
3.114000000000000000e+03 3.999836730957031250e+01 -2.834624350070953369e-01 6.482745707035064697e-02 7.775573730468750000e+00 2.352120399475097656e+00 -4.992971569299697876e-02
3.115000000000000000e+03 6.218133163452148438e+01 7.591557502746582031e+00 3.078660555183887482e-02 7.724177837371826172e+00 2.326489448547363281e+00 -6.812704354524612427e-02
3.116000000000000000e+03 6.001782226562500000e+01 2.460960626602172852e+00 3.121665120124816895e-02 7.734776973724365234e+00 2.329797983169555664e+00 -8.541175723075866699e-02
3.117000000000000000e+03 4.481195068359375000e+01 -2.746267795562744141e+00 4.679789766669273376e-02 7.748757839202880859e+00 2.338666677474975586e+00 -7.616838067770004272e-02
3.118000000000000000e+03 4.354444122314453125e+01 -1.393146157264709473e+00 5.740405991673469543e-02 7.757946968078613281e+00 2.344605445861816406e+00 -6.929565221071243286e-02
3.119000000000000000e+03 6.090575027465820312e+01 1.616023254394531250e+01 3.603761643171310425e-02 7.721950531005859375e+00 2.327396392822265625e+00 -4.306263849139213562e-02
3.120000000000000000e+03 6.384253692626953125e+01 1.333721160888671875e+01 2.737984806299209595e-02 7.711015701293945312e+00 2.321518659591674805e+00 -4.942053183913230896e-02
3.121000000000000000e+03 6.167910766601562500e+01 2.148570251464843750e+01 2.937048301100730896e-02 7.718417167663574219e+00 2.324336290359497070e+00 -2.715226262807846069e-02
3.122000000000000000e+03 4.060650634765625000e+01 -8.074666023254394531e+00 1.782520860433578491e-02 7.718690395355224609e+00 2.320954561233520508e+00 -5.527856573462486267e-02
3.123000000000000000e+03 4.567403411865234375e+01 -7.044855117797851562e+00 2.186277508735656738e-02 7.727225303649902344e+00 2.324726343154907227e+00 -8.445613086223602295e-02
3.124000000000000000e+03 3.691315460205078125e+01 -1.583678340911865234e+01 -3.657414391636848450e-02 7.641524791717529297e+00 2.281485319137573242e+00 -2.355379797518253326e-02
3.125000000000000000e+03 3.885638427734375000e+01 -1.328847599029541016e+01 -1.349382754415273666e-02 7.667124748229980469e+00 2.296089172363281250e+00 -4.072219133377075195e-02
3.126000000000000000e+03 3.621437072753906250e+01 4.997679233551025391e+00 1.080439612269401550e-01 7.846885204315185547e+00 2.386478900909423828e+00 -1.175526343286037445e-02
3.127000000000000000e+03 4.207208633422851562e+01 -1.206850051879882812e+00 5.684810131788253784e-02 7.761430263519287109e+00 2.345483541488647461e+00 -6.300427764654159546e-02
3.128000000000000000e+03 5.938457107543945312e+01 4.406208693981170654e-01 2.864558808505535126e-02 7.736907958984375000e+00 2.329666137695312500e+00 -9.057344496250152588e-02
3.129000000000000000e+03 6.056887817382812500e+01 1.204513788223266602e+00 2.662099897861480713e-02 7.734891891479492188e+00 2.328453779220581055e+00 -8.734399080276489258e-02
3.130000000000000000e+03 5.823388290405273438e+01 -9.022523880004882812e+00 6.483255885541439056e-03 7.743297100067138672e+00 2.324934005737304688e+00 -1.054443791508674622e-01
3.131000000000000000e+03 4.220237731933593750e+01 1.303563213348388672e+01 1.034952998161315918e-01 7.829431533813476562e+00 2.379878044128417969e+00 -2.274015918374061584e-02
3.132000000000000000e+03 4.025378417968750000e+01 1.264292526245117188e+01 1.031484380364418030e-01 7.845028877258300781e+00 2.384453296661376953e+00 -1.537892967462539673e-02
3.133000000000000000e+03 5.986629104614257812e+01 5.990571498870849609e+00 3.658948466181755066e-02 7.731839656829833984e+00 2.330528736114501953e+00 -7.544597983360290527e-02
3.134000000000000000e+03 5.851697540283203125e+01 3.891554832458496094e+00 3.796160221099853516e-02 7.735607147216796875e+00 2.332070589065551758e+00 -8.243815600872039795e-02
3.135000000000000000e+03 6.170683670043945312e+01 1.034466457366943359e+01 3.328059986233711243e-02 7.722187042236328125e+00 2.326640367507934570e+00 -6.040044128894805908e-02
3.136000000000000000e+03 6.079723358154296875e+01 8.759849548339843750e+00 3.560947254300117493e-02 7.726034641265869141e+00 2.328493118286132812e+00 -6.700953841209411621e-02
3.137000000000000000e+03 2.827686309814453125e+01 -3.199621963500976562e+01 5.947831552475690842e-03 7.210498332977294922e+00 2.164933919906616211e+00 2.786923944950103760e-02
3.138000000000000000e+03 3.071652603149414062e+01 -2.962973022460937500e+01 -3.954030200839042664e-02 7.337757587432861328e+00 2.189465284347534180e+00 2.726647630333900452e-02
3.139000000000000000e+03 4.132597732543945312e+01 -9.737497329711914062e+00 8.297828026115894318e-03 7.711296558380126953e+00 2.315878391265869141e+00 -5.977553129196166992e-02
3.140000000000000000e+03 4.282297134399414062e+01 -8.899508476257324219e+00 1.243651285767555237e-02 7.714679718017578125e+00 2.318134784698486328e+00 -7.059524953365325928e-02
3.141000000000000000e+03 4.117968368530273438e+01 5.141460418701171875e+00 9.107726067304611206e-02 7.799068927764892578e+00 2.367043972015380859e+00 -4.253349825739860535e-02
3.142000000000000000e+03 6.315681076049804688e+01 5.088180541992187500e+00 2.591711096465587616e-02 7.725614070892333984e+00 2.325459241867065430e+00 -7.377412915229797363e-02
3.143000000000000000e+03 5.786854171752929688e+01 -8.065877854824066162e-02 2.985523827373981476e-02 7.736352443695068359e+00 2.329862356185913086e+00 -9.262968599796295166e-02
3.144000000000000000e+03 4.468222808837890625e+01 3.459484100341796875e+00 7.622674107551574707e-02 7.773936748504638672e+00 2.355049133300781250e+00 -6.205943226814270020e-02
3.145000000000000000e+03 4.463805770874023438e+01 -5.406437397003173828e+00 3.150830045342445374e-02 7.737392902374267578e+00 2.330670356750488281e+00 -7.783701270818710327e-02
3.146000000000000000e+03 4.669846343994140625e+01 -8.779589653015136719e+00 1.233653351664543152e-02 7.723630428314208984e+00 2.320790052413940430e+00 -8.823058754205703735e-02
3.147000000000000000e+03 5.947597885131835938e+01 -1.258715248107910156e+01 -6.032662000507116318e-03 7.750528335571289062e+00 2.323348760604858398e+00 -1.028818562626838684e-01
3.148000000000000000e+03 5.938650512695312500e+01 -1.015792751312255859e+01 1.830773660913109779e-03 7.747020721435546875e+00 2.324655294418334961e+00 -1.027933731675148010e-01
3.149000000000000000e+03 5.747336578369140625e+01 -7.676000118255615234e+00 1.120852120220661163e-02 7.742306709289550781e+00 2.326054573059082031e+00 -1.030066087841987610e-01
3.150000000000000000e+03 6.088816833496093750e+01 -5.040192127227783203e+00 1.461818907409906387e-02 7.742892742156982422e+00 2.327253341674804688e+00 -9.738463163375854492e-02
3.151000000000000000e+03 6.508521270751953125e+01 1.193927192687988281e+01 2.411761693656444550e-02 7.707744121551513672e+00 2.319558620452880859e+00 -5.251663550734519958e-02
3.152000000000000000e+03 5.855102920532226562e+01 -1.922096252441406250e+00 2.586467750370502472e-02 7.738930225372314453e+00 2.329438447952270508e+00 -9.549331665039062500e-02
3.153000000000000000e+03 5.539217376708984375e+01 -3.950447320938110352e+00 2.500802837312221527e-02 7.738702774047851562e+00 2.329113245010375977e+00 -9.985609352588653564e-02
3.154000000000000000e+03 4.483543777465820312e+01 7.502436161041259766e+00 8.945156633853912354e-02 7.788166999816894531e+00 2.363285541534423828e+00 -4.990215972065925598e-02
3.155000000000000000e+03 4.239141845703125000e+01 1.101090717315673828e+01 9.752713888883590698e-02 7.816282749176025391e+00 2.374143123626708984e+00 -2.848155237734317780e-02
3.156000000000000000e+03 4.100937652587890625e+01 6.951562881469726562e+00 1.024193987250328064e-01 7.812693595886230469e+00 2.374533891677856445e+00 -3.459142521023750305e-02
3.157000000000000000e+03 5.715864944458007812e+01 3.581845521926879883e+00 3.993741795420646667e-02 7.736418247222900391e+00 2.332906723022460938e+00 -8.360006660223007202e-02
3.158000000000000000e+03 5.606506347656250000e+01 1.569657087326049805e+00 3.779156133532524109e-02 7.737589836120605469e+00 2.332614421844482422e+00 -8.996544033288955688e-02
3.159000000000000000e+03 6.130698776245117188e+01 1.315835857391357422e+01 3.518442064523696899e-02 7.721695899963378906e+00 2.327064037322998047e+00 -5.191506445407867432e-02
3.160000000000000000e+03 6.404722595214843750e+01 1.064441871643066406e+01 2.695221453905105591e-02 7.713724613189697266e+00 2.322203159332275391e+00 -5.704313144087791443e-02
3.161000000000000000e+03 4.415381240844726562e+01 1.139616394042968750e+01 9.778396040201187134e-02 7.806069374084472656e+00 2.371155977249145508e+00 -3.569012135267257690e-02
3.162000000000000000e+03 3.958489990234375000e+01 3.213157653808593750e+00 8.683589845895767212e-02 7.802035331726074219e+00 2.366661310195922852e+00 -4.064457118511199951e-02
3.163000000000000000e+03 4.393891525268554688e+01 1.302861309051513672e+01 9.494020789861679077e-02 7.811165809631347656e+00 2.371831893920898438e+00 -2.880765497684478760e-02
3.164000000000000000e+03 5.748428726196289062e+01 1.763864040374755859e+00 3.641224652528762817e-02 7.737812519073486328e+00 2.332267522811889648e+00 -8.820513635873794556e-02
3.165000000000000000e+03 5.618393325805664062e+01 -4.911877214908599854e-01 3.402136638760566711e-02 7.739707469940185547e+00 2.332118749618530273e+00 -9.321941435337066650e-02
3.166000000000000000e+03 4.262562942504882812e+01 -2.547462701797485352e+00 4.976151883602142334e-02 7.752958297729492188e+00 2.340816020965576172e+00 -6.349961459636688232e-02
3.167000000000000000e+03 4.530041885375976562e+01 2.003190040588378906e+00 6.969135999679565430e-02 7.764768123626708984e+00 2.350337743759155273e+00 -6.986116617918014526e-02
3.168000000000000000e+03 5.602743148803710938e+01 -8.719591140747070312e+00 8.719346486032009125e-03 7.738194942474365234e+00 2.324074268341064453e+00 -1.051874980330467224e-01
3.169000000000000000e+03 5.709832763671875000e+01 -1.014510250091552734e+01 2.197533147409558296e-03 7.742122650146484375e+00 2.323296070098876953e+00 -1.042474061250686646e-01
3.170000000000000000e+03 5.974756240844726562e+01 -6.316911220550537109e+00 1.329785864800214767e-02 7.743520736694335938e+00 2.327045679092407227e+00 -1.011574193835258484e-01
3.171000000000000000e+03 5.586373519897460938e+01 -1.150522136688232422e+01 -6.776959053240716457e-04 7.738687992095947266e+00 2.321403026580810547e+00 -1.063115969300270081e-01
3.172000000000000000e+03 3.890665435791015625e+01 8.356165885925292969e+00 1.111604124307632446e-01 7.840266704559326172e+00 2.385428190231323242e+00 -1.930627413094043732e-02
3.173000000000000000e+03 4.297429275512695312e+01 5.312582015991210938e+00 9.064117074012756348e-02 7.790672302246093750e+00 2.364393949508666992e+00 -4.889853298664093018e-02
3.174000000000000000e+03 4.426564407348632812e+01 -8.011506080627441406e+00 1.770236156880855560e-02 7.724823951721191406e+00 2.322757959365844727e+00 -7.742983847856521606e-02
3.175000000000000000e+03 5.885206222534179688e+01 1.272339248657226562e+01 4.330273717641830444e-02 7.731276035308837891e+00 2.332373619079589844e+00 -5.408853292465209961e-02
3.176000000000000000e+03 4.270033264160156250e+01 1.364099979400634766e+00 7.330927252769470215e-02 7.773036479949951172e+00 2.353903770446777344e+00 -5.930249392986297607e-02
3.177000000000000000e+03 4.212228775024414062e+01 -1.144574832916259766e+01 -2.756503177806735039e-03 7.696136951446533203e+00 2.308014154434204102e+00 -6.447571516036987305e-02
3.178000000000000000e+03 4.816843414306640625e+01 -7.665503025054931641e+00 1.730333827435970306e-02 7.726874351501464844e+00 2.323253154754638672e+00 -9.349862486124038696e-02
3.179000000000000000e+03 5.823085784912109375e+01 -4.732135295867919922e+00 1.824178174138069153e-02 7.740658283233642578e+00 2.327669858932495117e+00 -1.003132387995719910e-01
3.180000000000000000e+03 5.664837646484375000e+01 -5.901977062225341797e+00 1.659915409982204437e-02 7.738725185394287109e+00 2.326597452163696289e+00 -1.029074862599372864e-01
3.181000000000000000e+03 4.674126434326171875e+01 5.391706943511962891e+00 7.689324021339416504e-02 7.770191192626953125e+00 2.354125261306762695e+00 -6.369397789239883423e-02
3.182000000000000000e+03 4.360289764404296875e+01 -3.864804029464721680e+00 4.155235737562179565e-02 7.744303703308105469e+00 2.335756778717041016e+00 -7.231988012790679932e-02
3.183000000000000000e+03 4.428210830688476562e+01 3.908034265041351318e-01 6.168622523546218872e-02 7.761086940765380859e+00 2.346832036972045898e+00 -6.880921125411987305e-02
3.184000000000000000e+03 5.347582626342773438e+01 -8.435527801513671875e+00 1.105193421244621277e-02 7.733165264129638672e+00 2.323265314102172852e+00 -1.038360893726348877e-01
3.185000000000000000e+03 5.716610717773437500e+01 -1.275020122528076172e+01 -6.987203843891620636e-03 7.743335723876953125e+00 2.320904493331909180e+00 -1.039669960737228394e-01
3.186000000000000000e+03 5.499178314208984375e+01 -7.097364902496337891e+00 1.454791147261857986e-02 7.737603664398193359e+00 2.325645446777343750e+00 -1.038551852107048035e-01
3.187000000000000000e+03 5.841979598999023438e+01 -1.372609138488769531e+01 -5.706507246941328049e-03 7.746160984039306641e+00 2.322136402130126953e+00 -1.049570143222808838e-01
3.188000000000000000e+03 4.665451431274414062e+01 9.952331542968750000e+00 8.664749562740325928e-02 7.786256790161132812e+00 2.361871242523193359e+00 -4.708856344223022461e-02
3.189000000000000000e+03 4.128004837036132812e+01 1.770752716064453125e+01 9.737743437290191650e-02 7.853182792663574219e+00 2.385168075561523438e+00 -7.428337819874286652e-03
3.190000000000000000e+03 3.959553146362304688e+01 1.441880321502685547e+01 1.086876243352890015e-01 7.862004756927490234e+00 2.391207695007324219e+00 -7.787143345922231674e-03
3.191000000000000000e+03 5.588088226318359375e+01 3.221725702285766602e+00 4.435772821307182312e-02 7.739747524261474609e+00 2.335231542587280273e+00 -8.384083956480026245e-02
3.192000000000000000e+03 5.045885086059570312e+01 -1.937587022781372070e+00 4.081486165523529053e-02 7.742285728454589844e+00 2.334930181503295898e+00 -9.103087335824966431e-02
3.193000000000000000e+03 5.775268173217773438e+01 9.857924461364746094e+00 4.587655887007713318e-02 7.734238624572753906e+00 2.334034442901611328e+00 -6.361173838376998901e-02
3.194000000000000000e+03 4.603490066528320312e+01 -1.896509408950805664e+00 4.809202626347541809e-02 7.747541427612304688e+00 2.338690042495727539e+00 -7.960970699787139893e-02
3.195000000000000000e+03 5.929695510864257812e+01 -1.485865974426269531e+01 -1.275753881782293320e-02 7.753716945648193359e+00 2.322287797927856445e+00 -1.021514162421226501e-01
3.196000000000000000e+03 6.058858871459960938e+01 -1.141306686401367188e+01 -1.055263928719796240e-04 7.752017498016357422e+00 2.325573444366455078e+00 -1.027269735932350159e-01
3.197000000000000000e+03 5.457384490966796875e+01 -1.306626605987548828e+01 -8.914832957088947296e-03 7.733443737030029297e+00 2.317358493804931641e+00 -1.047712564468383789e-01
3.198000000000000000e+03 5.481945800781250000e+01 2.383485078811645508e+00 4.406669363379478455e-02 7.740195274353027344e+00 2.335278749465942383e+00 -8.620502799749374390e-02
3.199000000000000000e+03 4.985037994384765625e+01 1.317914199829101562e+01 7.502608001232147217e-02 7.770332336425781250e+00 2.353607416152954102e+00 -4.389765486121177673e-02
3.200000000000000000e+03 6.417797851562500000e+01 -1.294659423828125000e+01 -4.652839619666337967e-03 7.767869472503662109e+00 2.328964948654174805e+00 -9.372586756944656372e-02
3.201000000000000000e+03 6.055542755126953125e+01 -1.391658973693847656e+01 -7.114322390407323837e-03 7.755448818206787109e+00 2.324500322341918945e+00 -1.019170135259628296e-01
3.202000000000000000e+03 6.245611190795898438e+01 1.477389907836914062e+01 3.130447864532470703e-02 7.715794563293457031e+00 2.324129819869995117e+00 -4.708778858184814453e-02
3.203000000000000000e+03 5.984550476074218750e+01 1.439034080505371094e+01 3.937416151165962219e-02 7.727362155914306641e+00 2.330020904541015625e+00 -4.963977634906768799e-02
3.204000000000000000e+03 5.671605300903320312e+01 5.473820686340332031e+00 4.648258537054061890e-02 7.738715648651123047e+00 2.335559368133544922e+00 -7.819060981273651123e-02
3.205000000000000000e+03 5.524228286743164062e+01 4.985647201538085938e+00 4.752429574728012085e-02 7.740275382995605469e+00 2.336339950561523438e+00 -7.948015630245208740e-02
3.206000000000000000e+03 5.463533401489257812e+01 -1.004721450805664062e+01 3.608181606978178024e-03 7.735598564147949219e+00 2.321762084960937500e+00 -1.051324307918548584e-01
3.207000000000000000e+03 4.591873550415039062e+01 -4.391335487365722656e+00 3.599809482693672180e-02 7.737962245941162109e+00 2.332188129425048828e+00 -8.332148939371109009e-02
3.208000000000000000e+03 4.662222671508789062e+01 1.142124652862548828e+00 6.080739572644233704e-02 7.756089687347412109e+00 2.345069169998168945e+00 -7.514651119709014893e-02
3.209000000000000000e+03 5.810897064208984375e+01 -1.698331451416015625e+01 -1.817811466753482819e-02 7.749566078186035156e+00 2.319416522979736328e+00 -1.012227833271026611e-01
3.210000000000000000e+03 5.781278228759765625e+01 -1.515366649627685547e+01 -1.571746729314327240e-02 7.745549678802490234e+00 2.318949699401855469e+00 -1.041045561432838440e-01
3.211000000000000000e+03 5.383303070068359375e+01 4.154989242553710938e+00 5.099891498684883118e-02 7.744200229644775391e+00 2.338559627532958984e+00 -8.086693286895751953e-02
3.212000000000000000e+03 5.823640060424804688e+01 5.783015251159667969e+00 4.114005342125892639e-02 7.733614444732666016e+00 2.332426309585571289e+00 -7.642769813537597656e-02
3.213000000000000000e+03 5.967925643920898438e+01 -1.989218902587890625e+01 -2.549146302044391632e-02 7.761307239532470703e+00 2.320744752883911133e+00 -9.496340900659561157e-02
3.214000000000000000e+03 4.331040191650390625e+01 -6.381039142608642578e+00 2.678990177810192108e-02 7.729859352111816406e+00 2.326994895935058594e+00 -7.274861633777618408e-02
3.215000000000000000e+03 4.480540847778320312e+01 5.450641632080078125e+00 8.216799050569534302e-02 7.777400970458984375e+00 2.357870817184448242e+00 -5.728339403867721558e-02
3.216000000000000000e+03 4.616150283813476562e+01 3.433223962783813477e+00 7.025118172168731689e-02 7.764038562774658203e+00 2.350286960601806641e+00 -6.772257387638092041e-02
3.217000000000000000e+03 4.753655624389648438e+01 2.732224941253662109e+00 6.678628176450729370e-02 7.759641170501708984e+00 2.347928285598754883e+00 -7.366471737623214722e-02
3.218000000000000000e+03 4.125969696044921875e+01 3.338106632232666016e+00 8.735773712396621704e-02 7.792436122894287109e+00 2.363938093185424805e+00 -4.582247510552406311e-02
3.219000000000000000e+03 4.704388809204101562e+01 -5.996256351470947266e+00 2.633432298898696899e-02 7.733629703521728516e+00 2.327989101409912109e+00 -8.805267512798309326e-02
3.220000000000000000e+03 6.530805969238281250e+01 -1.162088680267333984e+01 -6.284264964051544666e-04 7.768157482147216797e+00 2.330258607864379883e+00 -9.139177203178405762e-02
3.221000000000000000e+03 4.823164367675781250e+01 -2.211323499679565430e+00 4.422014206647872925e-02 7.743756771087646484e+00 2.336393117904663086e+00 -8.610584586858749390e-02
3.222000000000000000e+03 5.011913681030273438e+01 5.407331585884094238e-01 5.049178004264831543e-02 7.746231079101562500e+00 2.339016914367675781e+00 -8.570809662342071533e-02
3.223000000000000000e+03 5.367830276489257812e+01 1.294764280319213867e+00 4.404690116643905640e-02 7.742136478424072266e+00 2.335855007171630859e+00 -8.847519755363464355e-02
3.224000000000000000e+03 6.155799484252929688e+01 -1.543644332885742188e+01 -1.212710794061422348e-02 7.763896465301513672e+00 2.325530767440795898e+00 -9.837355464696884155e-02
3.225000000000000000e+03 6.548556518554687500e+01 -1.438592529296875000e+01 -5.032074172049760818e-03 7.778047561645507812e+00 2.331904649734497070e+00 -8.935035765171051025e-02
3.226000000000000000e+03 5.954850006103515625e+01 7.906414031982421875e+00 3.884232416749000549e-02 7.729852199554443359e+00 2.330608367919921875e+00 -6.952720880508422852e-02
3.227000000000000000e+03 5.612876892089843750e+01 -1.442325878143310547e+01 -1.001181453466415405e-02 7.740024089813232422e+00 2.319003582000732422e+00 -1.050188690423965454e-01
3.228000000000000000e+03 5.998462677001953125e+01 -1.652555084228515625e+01 -1.541707012802362442e-02 7.757013320922851562e+00 2.322478771209716797e+00 -1.002558693289756775e-01
3.229000000000000000e+03 4.887374114990234375e+01 1.723675489425659180e+00 5.839372798800468445e-02 7.751791000366210938e+00 2.343055486679077148e+00 -8.063358813524246216e-02
3.230000000000000000e+03 4.836751556396484375e+01 -4.832673072814941406e+00 3.092092834413051605e-02 7.735535144805908203e+00 2.329936742782592773e+00 -9.146781265735626221e-02
3.231000000000000000e+03 5.260759735107421875e+01 -3.713981628417968750e+00 2.953999675810337067e-02 7.738802433013916016e+00 2.330502748489379883e+00 -9.766919165849685669e-02
3.232000000000000000e+03 4.713673782348632812e+01 -3.366739273071289062e+00 4.021811857819557190e-02 7.741981506347656250e+00 2.334660053253173828e+00 -8.546686917543411255e-02
3.233000000000000000e+03 5.284368133544921875e+01 6.073213100433349609e+00 5.825532972812652588e-02 7.747429370880126953e+00 2.341705322265625000e+00 -7.327937334775924683e-02
3.234000000000000000e+03 5.131317520141601562e+01 4.709030628204345703e+00 6.036932021379470825e-02 7.751254081726074219e+00 2.343487024307250977e+00 -7.615683227777481079e-02
3.235000000000000000e+03 5.487691879272460938e+01 -1.628652763366699219e+01 -2.307487279176712036e-02 7.734056949615478516e+00 2.313294649124145508e+00 -1.026981621980667114e-01
3.236000000000000000e+03 4.915649032592773438e+01 -8.585273623466491699e-01 4.726961627602577209e-02 7.744797706604003906e+00 2.337620258331298828e+00 -8.767600357532501221e-02
3.237000000000000000e+03 4.962838745117187500e+01 -3.477076530456542969e+00 3.532366082072257996e-02 7.739167213439941406e+00 2.332347154617309570e+00 -9.300976246595382690e-02
3.238000000000000000e+03 6.118310546875000000e+01 -2.156507110595703125e+01 -2.859349921345710754e-02 7.772698402404785156e+00 2.323231458663940430e+00 -8.933934569358825684e-02
3.239000000000000000e+03 6.253736877441406250e+01 -1.999915695190429688e+01 -2.037340588867664337e-02 7.778531074523925781e+00 2.327447414398193359e+00 -8.960808813571929932e-02
3.240000000000000000e+03 5.250907135009765625e+01 3.056413888931274414e+00 5.261531844735145569e-02 7.744617938995361328e+00 2.339169979095458984e+00 -8.219760656356811523e-02
3.241000000000000000e+03 6.453958892822265625e+01 -2.461729240417480469e+01 -2.715256437659263611e-02 7.800371170043945312e+00 2.331965684890747070e+00 -7.417294383049011230e-02
3.242000000000000000e+03 5.185575485229492188e+01 -2.058967351913452148e+00 3.811245411634445190e-02 7.737729549407958984e+00 2.332752704620361328e+00 -9.456463158130645752e-02
3.243000000000000000e+03 4.999216461181640625e+01 3.274842262268066406e+00 6.048463657498359680e-02 7.751304149627685547e+00 2.343536615371704102e+00 -7.776897400617599487e-02
3.244000000000000000e+03 5.229774093627929688e+01 -6.740881919860839844e+00 1.790271326899528503e-02 7.734538555145263672e+00 2.325732469558715820e+00 -1.016969382762908936e-01
3.245000000000000000e+03 4.997212219238281250e+01 6.304936408996582031e+00 6.731842458248138428e-02 7.757589340209960938e+00 2.347472429275512695e+00 -6.886228173971176147e-02
3.246000000000000000e+03 5.316317749023437500e+01 -1.220309972763061523e+00 3.741808608174324036e-02 7.741075038909912109e+00 2.333547830581665039e+00 -9.453111886978149414e-02
3.247000000000000000e+03 5.382980346679687500e+01 -5.385835170745849609e+00 2.196937985718250275e-02 7.735910892486572266e+00 2.327363967895507812e+00 -1.016324907541275024e-01
3.248000000000000000e+03 5.104741668701171875e+01 -5.004799842834472656e+00 2.748269028961658478e-02 7.735118389129638672e+00 2.328780412673950195e+00 -9.723512083292007446e-02
3.249000000000000000e+03 5.198111724853515625e+01 -9.840351104736328125e+00 5.126507487148046494e-03 7.729770183563232422e+00 2.320468902587890625e+00 -1.031068712472915649e-01
3.250000000000000000e+03 4.519435501098632812e+01 -9.755560874938964844e+00 6.942545995116233826e-03 7.714974880218505859e+00 2.316575288772583008e+00 -8.356240391731262207e-02
3.251000000000000000e+03 5.080018615722656250e+01 -8.111971855163574219e+00 1.408795546740293503e-02 7.728812217712402344e+00 2.322870016098022461e+00 -9.991456568241119385e-02
3.252000000000000000e+03 3.845449829101562500e+01 -2.283353805541992188e+01 -6.407741457223892212e-02 7.583992958068847656e+00 2.255974531173706055e+00 -3.294770419597625732e-02
3.253000000000000000e+03 6.387495422363281250e+01 -1.854662132263183594e+01 -1.653800532221794128e-02 7.781372070312500000e+00 2.329450130462646484e+00 -8.908513188362121582e-02
3.254000000000000000e+03 6.521009063720703125e+01 -1.717980003356933594e+01 -1.025402918457984924e-02 7.785060882568359375e+00 2.332442045211791992e+00 -8.774785697460174561e-02
3.255000000000000000e+03 5.944723129272460938e+01 9.709020614624023438e+00 4.105778783559799194e-02 7.730767250061035156e+00 2.331547498703002930e+00 -6.341344118118286133e-02
3.256000000000000000e+03 5.750714492797851562e+01 1.188740158081054688e+01 4.788319393992424011e-02 7.737075328826904297e+00 2.335487604141235352e+00 -5.721650272607803345e-02
3.257000000000000000e+03 3.175230026245117188e+01 3.139761734008789062e+01 1.169490814208984375e-01 7.910090923309326172e+00 2.408112049102783203e+00 2.891951426863670349e-02
3.258000000000000000e+03 5.453947830200195312e+01 7.048432826995849609e+00 5.586982145905494690e-02 7.745211124420166016e+00 2.340324163436889648e+00 -7.205440104007720947e-02
3.259000000000000000e+03 4.857362365722656250e+01 1.037994384765625000e+01 7.936875522136688232e-02 7.771256446838378906e+00 2.355187654495239258e+00 -5.141030997037887573e-02
3.260000000000000000e+03 3.994965744018554688e+01 -1.550719451904296875e+01 -2.767066285014152527e-02 7.662503719329833984e+00 2.290449857711791992e+00 -4.550019651651382446e-02
3.261000000000000000e+03 4.160189437866210938e+01 -1.425210952758789062e+01 -1.640204712748527527e-02 7.675281524658203125e+00 2.297663927078247070e+00 -6.073970347642898560e-02
3.262000000000000000e+03 3.000125312805175781e+01 -1.683114814758300781e+01 -2.309350483119487762e-02 7.565037727355957031e+00 2.262583255767822266e+00 6.807981431484222412e-02
3.263000000000000000e+03 5.738419723510742188e+01 1.835670471191406250e+01 4.717544093728065491e-02 7.740531921386718750e+00 2.336312294006347656e+00 -3.488972038030624390e-02
3.264000000000000000e+03 1.255892181396484375e+01 -4.141559600830078125e+01 -1.002147793769836426e+00 5.771267414093017578e+00 1.430735945701599121e+00 -1.782866716384887695e-01
3.265000000000000000e+03 6.380330276489257812e+01 2.789475631713867188e+01 1.693033427000045776e-02 7.704811096191406250e+00 2.316522598266601562e+00 -1.278346497565507889e-02
3.266000000000000000e+03 5.313332366943359375e+01 -1.478364467620849609e+01 -1.380187459290027618e-02 7.727443695068359375e+00 2.314092636108398438e+00 -1.038298159837722778e-01
3.267000000000000000e+03 4.928535079956054688e+01 -9.423926353454589844e+00 7.997442036867141724e-03 7.725652217864990234e+00 2.320094823837280273e+00 -9.645561873912811279e-02
3.268000000000000000e+03 5.321577835083007812e+01 -1.151847553253173828e+01 -1.159972744062542915e-03 7.730258464813232422e+00 2.318729639053344727e+00 -1.045074984431266785e-01
3.269000000000000000e+03 4.878920745849609375e+01 -1.254085254669189453e+01 -6.682807113975286484e-03 7.716360569000244141e+00 2.312903404235839844e+00 -9.427966177463531494e-02
3.270000000000000000e+03 6.030750274658203125e+01 1.946324920654296875e+01 3.560131043195724487e-02 7.724651813507080078e+00 2.328075885772705078e+00 -3.259006887674331665e-02
3.271000000000000000e+03 6.565148162841796875e+01 -2.799714088439941406e+01 -3.025643527507781982e-02 7.816374778747558594e+00 2.335835456848144531e+00 -6.139080971479415894e-02
3.272000000000000000e+03 6.978846740722656250e+01 -3.522272491455078125e+01 -2.316068112850189209e-02 7.868345737457275391e+00 2.353555440902709961e+00 -2.706090547144412994e-02
3.273000000000000000e+03 6.400440979003906250e+01 -2.148536682128906250e+01 -2.207642421126365662e-02 7.789419174194335938e+00 2.330202817916870117e+00 -8.291792124509811401e-02
3.274000000000000000e+03 7.023303985595703125e+01 -3.793738555908203125e+01 -2.051379159092903137e-02 7.880777835845947266e+00 2.358079195022583008e+00 -1.651627756655216217e-02
3.275000000000000000e+03 5.965303802490234375e+01 -2.320502853393554688e+01 -3.437050804495811462e-02 7.766872882843017578e+00 2.319750785827636719e+00 -8.708257228136062622e-02
3.276000000000000000e+03 6.336150741577148438e+01 -2.669954109191894531e+01 -3.161971271038055420e-02 7.798374652862548828e+00 2.330026388168334961e+00 -7.016239315271377563e-02
3.277000000000000000e+03 6.808648681640625000e+01 3.452326202392578125e+01 5.810848437249660492e-03 7.671914577484130859e+00 2.303317546844482422e+00 -5.640854593366384506e-03
3.278000000000000000e+03 5.824903488159179688e+01 1.543415641784667969e+01 4.512936249375343323e-02 7.735035896301269531e+00 2.334049463272094727e+00 -4.503002762794494629e-02
3.279000000000000000e+03 5.400097274780273438e+01 1.183760166168212891e+01 6.095113605260848999e-02 7.751554012298583984e+00 2.343751430511474609e+00 -5.527717620134353638e-02
3.280000000000000000e+03 6.516548156738281250e+01 -1.992853927612304688e+01 -1.486951019614934921e-02 7.793360710144042969e+00 2.333547353744506836e+00 -8.330236375331878662e-02
3.281000000000000000e+03 2.542880821228027344e+01 -3.347834777832031250e+01 1.196469068527221680e-01 7.081559181213378906e+00 2.160361766815185547e+00 7.711752504110336304e-02
3.282000000000000000e+03 4.053765869140625000e+01 2.387504196166992188e+01 8.868908137083053589e-02 7.869525432586669922e+00 2.387464284896850586e+00 6.460102740675210953e-03
3.283000000000000000e+03 3.760763549804687500e+01 3.241384887695312500e+01 4.640584439039230347e-02 7.893261432647705078e+00 2.381900310516357422e+00 4.063555970788002014e-02
3.284000000000000000e+03 3.436470031738281250e+01 2.634824371337890625e+01 1.106014251708984375e-01 7.941625118255615234e+00 2.415668010711669922e+00 -6.394525058567523956e-03
3.285000000000000000e+03 3.667935562133789062e+01 2.220124053955078125e+01 1.007697880268096924e-01 7.920587062835693359e+00 2.406407117843627930e+00 -4.009314870927482843e-04
3.286000000000000000e+03 6.749359893798828125e+01 -1.736840629577636719e+01 -7.607304491102695465e-03 7.797284603118896484e+00 2.336903095245361328e+00 -7.994464039802551270e-02
3.287000000000000000e+03 3.845693969726562500e+01 1.805271339416503906e+01 1.043280735611915588e-01 7.891843318939208984e+00 2.398851394653320312e+00 -1.293301931582391262e-03
3.288000000000000000e+03 4.067366790771484375e+01 1.584653759002685547e+01 1.024014726281166077e-01 7.853986263275146484e+00 2.386916160583496094e+00 -1.032340899109840393e-02
3.289000000000000000e+03 7.582721710205078125e+01 -3.632200241088867188e+01 -5.593119654804468155e-03 7.949933528900146484e+00 2.383302211761474609e+00 -1.053171604871749878e-02
3.290000000000000000e+03 4.303791046142578125e+01 -1.591565036773681641e+01 -3.073486872017383575e-02 7.674880027770996094e+00 2.293243646621704102e+00 -7.000035792589187622e-02
3.291000000000000000e+03 5.165098190307617188e+01 7.625910282135009766e+00 6.465549021959304810e-02 7.754226207733154297e+00 2.345664501190185547e+00 -6.676450371742248535e-02
3.292000000000000000e+03 3.757910919189453125e+01 2.011984443664550781e+01 9.626940637826919556e-02 7.900706291198730469e+00 2.399092674255371094e+00 -1.486462424509227276e-03
3.293000000000000000e+03 2.965085601806640625e+01 3.457630538940429688e+01 1.079113557934761047e-01 7.880650043487548828e+00 2.396568298339843750e+00 7.073619961738586426e-02
3.294000000000000000e+03 4.531715774536132812e+01 1.253548812866210938e+01 9.098069369792938232e-02 7.799397945404052734e+00 2.367113590240478516e+00 -3.350585699081420898e-02
3.295000000000000000e+03 4.669843673706054688e+01 1.195530700683593750e+01 8.732338249683380127e-02 7.787450313568115234e+00 2.362432241439819336e+00 -4.069420322775840759e-02
3.296000000000000000e+03 3.414485931396484375e+01 3.008560752868652344e+01 1.086539253592491150e-01 7.916775226593017578e+00 2.407628774642944336e+00 1.797271892428398132e-02
3.297000000000000000e+03 3.431069564819335938e+01 -2.273246574401855469e+01 -7.030723243951797485e-02 7.536618232727050781e+00 2.239893198013305664e+00 1.120939385145902634e-02
3.298000000000000000e+03 2.750381660461425781e+01 -4.117454910278320312e+01 -4.683080613613128662e-01 7.235802650451660156e+00 2.030248403549194336e+00 -5.481197312474250793e-02
3.299000000000000000e+03 2.723960113525390625e+01 -3.848057174682617188e+01 -3.262836635112762451e-01 7.161786556243896484e+00 2.050650835037231445e+00 -1.534521281719207764e-01
3.300000000000000000e+03 2.832506370544433594e+01 4.071946716308593750e+01 -3.500291109085083008e-01 7.858526706695556641e+00 2.252549171447753906e+00 8.559966087341308594e-02
3.301000000000000000e+03 6.186268997192382812e+01 3.281083679199218750e+01 1.331088412553071976e-02 7.720796585083007812e+00 2.320232152938842773e+00 -5.556602030992507935e-03
3.302000000000000000e+03 6.627727508544921875e+01 3.013431549072265625e+01 1.125639677047729492e-02 7.687836647033691406e+00 2.309727907180786133e+00 -1.021295692771673203e-02
3.303000000000000000e+03 1.204323101043701172e+01 4.140205383300781250e+01 -6.083634495735168457e-01 4.870976924896240234e+00 1.278784036636352539e+00 2.403073757886886597e-02
3.304000000000000000e+03 6.705899047851562500e+01 -4.081766510009765625e+01 -3.237402811646461487e-02 7.848723888397216797e+00 2.344904899597167969e+00 -7.495359051972627640e-03
3.305000000000000000e+03 5.853107070922851562e+01 -3.416742706298828125e+01 -7.047576457262039185e-02 7.768158912658691406e+00 2.309304952621459961e+00 -4.637946188449859619e-02
3.306000000000000000e+03 5.537464904785156250e+01 -3.614495849609375000e+01 -8.716610074043273926e-02 7.746994972229003906e+00 2.297948598861694336e+00 -3.669408708810806274e-02
3.307000000000000000e+03 6.232460784912109375e+01 -3.656029891967773438e+01 -5.229970440268516541e-02 7.803907394409179688e+00 2.325482368469238281e+00 -2.902540564537048340e-02
3.308000000000000000e+03 6.385721588134765625e+01 3.715582656860351562e+01 7.985567674040794373e-03 7.709137439727783203e+00 2.315136909484863281e+00 -2.791019622236490250e-03
3.309000000000000000e+03 5.519459152221679688e+01 3.821876907348632812e+01 9.091267362236976624e-03 7.777691841125488281e+00 2.336035013198852539e+00 1.925964490510523319e-03
3.310000000000000000e+03 3.895793151855468750e+01 3.684723663330078125e+01 -1.965084113180637360e-02 7.912755489349365234e+00 2.367931365966796875e+00 4.466982930898666382e-02
3.311000000000000000e+03 4.283585739135742188e+01 3.743865585327148438e+01 -1.263983827084302902e-02 7.879232883453369141e+00 2.359977960586547852e+00 2.533023245632648468e-02
3.312000000000000000e+03 3.613030242919921875e+01 3.526598739624023438e+01 -4.972659517079591751e-03 7.916460514068603516e+00 2.373446464538574219e+00 6.998561322689056396e-02
3.313000000000000000e+03 3.298440551757812500e+01 3.699220275878906250e+01 -5.377255380153656006e-02 7.903070449829101562e+00 2.354789257049560547e+00 1.057347282767295837e-01
3.314000000000000000e+03 4.211260604858398438e+01 -3.635536956787109375e+01 -1.643651127815246582e-01 7.599311828613281250e+00 2.230484008789062500e+00 -4.399161040782928467e-02
3.315000000000000000e+03 4.671419143676757812e+01 -3.685687255859375000e+01 -1.416380107402801514e-01 7.655197620391845703e+00 2.254067897796630859e+00 -3.695956245064735413e-02
3.316000000000000000e+03 3.505270004272460938e+01 -2.032837104797363281e+01 -4.292444884777069092e-02 7.571586608886718750e+00 2.258598804473876953e+00 5.750458687543869019e-03
3.317000000000000000e+03 5.167466735839843750e+01 -1.308591938018798828e+01 -9.537547826766967773e-03 7.723908424377441406e+00 2.314311265945434570e+00 -1.026570871472358704e-01
3.318000000000000000e+03 3.853516006469726562e+01 2.311547851562500000e+01 9.262785315513610840e-02 7.885330200195312500e+00 2.393387317657470703e+00 3.269015578553080559e-03
3.319000000000000000e+03 5.342917251586914062e+01 -1.825543022155761719e+01 -2.836240641772747040e-02 7.725587368011474609e+00 2.309167623519897461e+00 -9.958660602569580078e-02
3.320000000000000000e+03 4.436214447021484375e+01 1.490677738189697266e+01 9.382417798042297363e-02 7.814130306243896484e+00 2.372386217117309570e+00 -2.390142902731895447e-02
3.321000000000000000e+03 4.303894805908203125e+01 1.732381057739257812e+01 9.621439129114151001e-02 7.833217144012451172e+00 2.378829479217529297e+00 -1.393662393093109131e-02
3.322000000000000000e+03 6.211865997314453125e+01 1.793656921386718750e+01 3.084608912467956543e-02 7.715866565704345703e+00 2.324013710021972656e+00 -3.749063611030578613e-02
3.323000000000000000e+03 5.040107727050781250e+01 1.108984088897705078e+01 7.192163169384002686e-02 7.766795158386230469e+00 2.351614952087402344e+00 -5.268885567784309387e-02
3.324000000000000000e+03 5.588728332519531250e+01 1.405909156799316406e+01 5.318073928356170654e-02 7.744219303131103516e+00 2.339220046997070312e+00 -4.822128638625144958e-02
3.325000000000000000e+03 5.449196243286132812e+01 -2.186043167114257812e+01 -4.060476273298263550e-02 7.731802463531494141e+00 2.307359218597412109e+00 -9.372298419475555420e-02
3.326000000000000000e+03 5.532855987548828125e+01 -1.955468940734863281e+01 -3.400218859314918518e-02 7.735436916351318359e+00 2.310430526733398438e+00 -9.898693114519119263e-02
3.327000000000000000e+03 6.156488418579101562e+01 2.556550407409667969e+01 2.582786604762077332e-02 7.720356464385986328e+00 2.323855161666870117e+00 -1.696055568754673004e-02
3.328000000000000000e+03 4.607685470581054688e+01 -1.170295619964599609e+01 -1.825108542107045650e-03 7.711215496063232422e+00 2.312817096710205078e+00 -8.603801578283309937e-02
3.329000000000000000e+03 6.351974868774414062e+01 -3.336280441284179688e+01 -4.592414200305938721e-02 7.808650493621826172e+00 2.328817844390869141e+00 -4.569775611162185669e-02
3.330000000000000000e+03 6.466273498535156250e+01 -3.054580497741699219e+01 -3.289380297064781189e-02 7.815030097961425781e+00 2.334640979766845703e+00 -5.311559885740280151e-02
3.331000000000000000e+03 5.919205093383789062e+01 1.739267349243164062e+01 4.076531156897544861e-02 7.731015682220458984e+00 2.331534385681152344e+00 -3.965328633785247803e-02
3.332000000000000000e+03 5.648028564453125000e+01 1.620569038391113281e+01 4.973620921373367310e-02 7.742335319519042969e+00 2.337621450424194336e+00 -4.226117581129074097e-02
3.333000000000000000e+03 4.004885864257812500e+01 1.889979743957519531e+01 9.704623371362686157e-02 7.865279674530029297e+00 2.388697862625122070e+00 -4.257349763065576553e-03
3.334000000000000000e+03 3.931481552124023438e+01 2.090819168090820312e+01 9.860353916883468628e-02 7.884550094604492188e+00 2.394946098327636719e+00 5.258830497041344643e-04
3.335000000000000000e+03 6.549219512939453125e+01 2.503400230407714844e+01 1.676904223859310150e-02 7.693152904510498047e+00 2.312976598739624023e+00 -1.844619959592819214e-02
3.336000000000000000e+03 3.362753295898437500e+01 -3.235565567016601562e+01 -1.147939488291740417e-01 7.394835472106933594e+00 2.184012413024902344e+00 -5.506122857332229614e-02
3.337000000000000000e+03 3.314538955688476562e+01 -2.940299797058105469e+01 -5.167633667588233948e-02 7.416307926177978516e+00 2.209389448165893555e+00 -2.954429015517234802e-03
3.338000000000000000e+03 4.054566192626953125e+01 -1.239416599273681641e+01 -8.676305413246154785e-03 7.689728736877441406e+00 2.304315567016601562e+00 -5.262690037488937378e-02
3.339000000000000000e+03 3.955376052856445312e+01 -1.901848411560058594e+01 -4.603048041462898254e-02 7.632047176361083984e+00 2.275804996490478516e+00 -4.484101012349128723e-02
3.340000000000000000e+03 5.705234527587890625e+01 -2.042582702636718750e+01 -2.962742745876312256e-02 7.744390964508056641e+00 2.314429044723510742e+00 -9.554032981395721436e-02
3.341000000000000000e+03 5.770863342285156250e+01 -2.469625282287597656e+01 -4.788192361593246460e-02 7.753100395202636719e+00 2.311565399169921875e+00 -8.666040748357772827e-02
3.342000000000000000e+03 6.133016204833984375e+01 -2.504844284057617188e+01 -3.755480051040649414e-02 7.779191970825195312e+00 2.322491168975830078e+00 -7.994810491800308228e-02
3.343000000000000000e+03 6.201189804077148438e+01 -2.896693038940429688e+01 -4.507329687476158142e-02 7.791385173797607422e+00 2.323893547058105469e+00 -6.452721357345581055e-02
3.344000000000000000e+03 4.709738540649414062e+01 -1.358071041107177734e+01 -1.311474014073610306e-02 7.706167221069335938e+00 2.307915687561035156e+00 -9.231805801391601562e-02
3.345000000000000000e+03 3.504619979858398438e+01 3.266878890991210938e+01 5.680461972951889038e-02 7.886276245117187500e+00 2.382924318313598633e+00 6.812072545289993286e-02
3.346000000000000000e+03 4.493296051025390625e+01 1.698882484436035156e+01 8.954081684350967407e-02 7.815223693847656250e+00 2.371429204940795898e+00 -1.867617852985858917e-02
3.347000000000000000e+03 4.153313446044921875e+01 1.945562362670898438e+01 9.549452364444732666e-02 7.853890895843505859e+00 2.384815692901611328e+00 -7.054791320115327835e-03
3.348000000000000000e+03 3.560959243774414062e+01 -2.869150543212890625e+01 -7.875436544418334961e-02 7.475689888000488281e+00 2.219080686569213867e+00 -2.921493537724018097e-02
3.349000000000000000e+03 3.738441085815429688e+01 -2.017397689819335938e+01 -5.159993469715118408e-02 7.588007926940917969e+00 2.260922431945800781e+00 -2.656690590083599091e-02
3.350000000000000000e+03 4.143462753295898438e+01 -1.755063056945800781e+01 -3.374981507658958435e-02 7.649222373962402344e+00 2.284641742706298828e+00 -6.038415804505348206e-02
3.351000000000000000e+03 6.147712707519531250e+01 2.994440269470214844e+01 1.756220124661922455e-02 7.720763683319091797e+00 2.321497917175292969e+00 -9.765640832483768463e-03
3.352000000000000000e+03 5.594505691528320312e+01 9.649202346801757812e+00 5.248967185616493225e-02 7.742663383483886719e+00 2.338545799255371094e+00 -6.433829665184020996e-02
3.353000000000000000e+03 5.220808029174804688e+01 1.163360214233398438e+01 6.458751857280731201e-02 7.755185127258300781e+00 2.345931768417358398e+00 -5.411890521645545959e-02
3.354000000000000000e+03 5.043208694458007812e+01 -1.125044631958007812e+01 6.227380072232335806e-05 7.720711231231689453e+00 2.316232204437255859e+00 -1.002939119935035706e-01
3.355000000000000000e+03 3.969834518432617188e+01 2.646506118774414062e+01 8.228857070207595825e-02 7.870947360992431641e+00 2.385970830917358398e+00 1.504625845700502396e-02
3.356000000000000000e+03 5.292861938476562500e+01 3.493349456787109375e+01 1.552448235452175140e-02 7.795312881469726562e+00 2.343251228332519531e+00 4.651608411222696304e-03
3.357000000000000000e+03 5.534985351562500000e+01 3.249441528320312500e+01 2.079377323389053345e-02 7.770237922668457031e+00 2.337309360504150391e+00 -5.879368400201201439e-04
3.358000000000000000e+03 4.986571884155273438e+01 -1.469398689270019531e+01 -1.721656322479248047e-02 7.710039138793945312e+00 2.307846784591674805e+00 -9.864274412393569946e-02
3.359000000000000000e+03 4.696788024902343750e+01 1.640980911254882812e+01 8.360797166824340820e-02 7.797810077667236328e+00 2.364425420761108398e+00 -2.572750858962535858e-02
3.360000000000000000e+03 4.603851699829101562e+01 1.438141822814941406e+01 8.847278356552124023e-02 7.798183441162109375e+00 2.365996837615966797e+00 -3.130488470196723938e-02
3.361000000000000000e+03 4.312001037597656250e+01 -1.959012794494628906e+01 -4.989146068692207336e-02 7.657997131347656250e+00 2.282431840896606445e+00 -6.865048408508300781e-02
3.362000000000000000e+03 3.155924224853515625e+01 -1.724772071838378906e+01 -4.282236099243164062e-02 7.577410697937011719e+00 2.260376453399658203e+00 4.168824851512908936e-02
3.363000000000000000e+03 3.105458831787109375e+01 -1.906183624267578125e+01 -4.112616181373596191e-02 7.545444011688232422e+00 2.251295328140258789e+00 5.807314440608024597e-02
3.364000000000000000e+03 3.790274429321289062e+01 -2.724450111389160156e+01 -9.146998077630996704e-02 7.537950515747070312e+00 2.233944177627563477e+00 -4.321349039673805237e-02
3.365000000000000000e+03 5.825624084472656250e+01 2.079573059082031250e+01 4.013022035360336304e-02 7.737568378448486328e+00 2.333309650421142578e+00 -2.759328112006187439e-02
3.366000000000000000e+03 5.391981887817382812e+01 1.441144180297851562e+01 5.974542349576950073e-02 7.752869129180908203e+00 2.343784332275390625e+00 -4.564217850565910339e-02
3.367000000000000000e+03 5.577948379516601562e+01 1.185875797271728516e+01 5.379427224397659302e-02 7.742272853851318359e+00 2.338820219039916992e+00 -5.650169402360916138e-02
3.368000000000000000e+03 4.779314804077148438e+01 -1.560152912139892578e+01 -2.053075097501277924e-02 7.703405857086181641e+00 2.304862499237060547e+00 -8.988358825445175171e-02
3.369000000000000000e+03 4.329571914672851562e+01 1.946719932556152344e+01 8.987165987491607666e-02 7.834773540496826172e+00 2.377393484115600586e+00 -7.377042435109615326e-03
3.370000000000000000e+03 3.078794288635253906e+01 -3.226949310302734375e+01 -3.895187005400657654e-02 7.305859088897705078e+00 2.180072307586669922e+00 -2.569507434964179993e-02
3.371000000000000000e+03 6.044625473022460938e+01 -3.143925857543945312e+01 -5.059226602315902710e-02 7.785303115844726562e+00 2.320413112640380859e+00 -5.601457506418228149e-02
3.372000000000000000e+03 5.569353103637695312e+01 -2.642697525024414062e+01 -5.747992545366287231e-02 7.739608287811279297e+00 2.304638385772705078e+00 -8.172814548015594482e-02
3.373000000000000000e+03 5.412729644775390625e+01 9.386331558227539062e+00 5.712645873427391052e-02 7.746200084686279297e+00 2.340997934341430664e+00 -6.367205828428268433e-02
3.374000000000000000e+03 4.083731842041015625e+01 -2.129901695251464844e+01 -5.552857741713523865e-02 7.619468212127685547e+00 2.269181966781616211e+00 -5.692774057388305664e-02
3.375000000000000000e+03 5.747174453735351562e+01 2.993538284301757812e+01 2.444729581475257874e-02 7.750446319580078125e+00 2.332468032836914062e+00 -5.623438395559787750e-03
3.376000000000000000e+03 3.690237426757812500e+01 -3.199993896484375000e+01 -1.251187771558761597e-01 7.502302169799804688e+00 2.213155031204223633e+00 -5.071366578340530396e-02
3.377000000000000000e+03 5.544932937622070312e+01 2.780400085449218750e+01 3.257715702056884766e-02 7.761684417724609375e+00 2.338278293609619141e+00 -8.114982396364212036e-03
3.378000000000000000e+03 5.958466339111328125e+01 2.329200363159179688e+01 3.263175860047340393e-02 7.730730533599853516e+00 2.329008817672729492e+00 -2.182211354374885559e-02
3.379000000000000000e+03 4.114563751220703125e+01 2.151020622253417969e+01 9.081782400608062744e-02 7.855645656585693359e+00 2.383939027786254883e+00 -1.923949312185868621e-04
3.380000000000000000e+03 3.687040328979492188e+01 -1.780425643920898438e+01 -3.219005092978477478e-02 7.616759777069091797e+00 2.275370836257934570e+00 -1.202717516571283340e-02
3.381000000000000000e+03 5.239552688598632812e+01 9.367520332336425781e+00 6.411319226026535034e-02 7.754919052124023438e+00 2.345709562301635742e+00 -6.225815042853355408e-02
3.382000000000000000e+03 5.179691314697265625e+01 1.414434242248535156e+01 6.828768551349639893e-02 7.764274120330810547e+00 2.349768638610839844e+00 -4.335459321737289429e-02
3.383000000000000000e+03 4.588945770263671875e+01 -1.510611629486083984e+01 -2.237326838076114655e-02 7.691684246063232422e+00 2.300793170928955078e+00 -8.500562608242034912e-02
3.384000000000000000e+03 4.734779739379882812e+01 -1.824706840515136719e+01 -4.078377038240432739e-02 7.687291145324707031e+00 2.293952226638793945e+00 -9.110961854457855225e-02
3.385000000000000000e+03 4.720312500000000000e+01 4.078697586059570312e+01 -4.832577425986528397e-03 7.847579479217529297e+00 2.352824211120605469e+00 3.936733119189739227e-03
3.386000000000000000e+03 4.312423706054687500e+01 2.182013893127441406e+01 8.655066788196563721e-02 7.841473579406738281e+00 2.378407239913940430e+00 -2.897369675338268280e-03
3.387000000000000000e+03 4.995150375366210938e+01 -1.901213455200195312e+01 -3.549627587199211121e-02 7.706039428710937500e+00 2.301162958145141602e+00 -9.279736876487731934e-02
3.388000000000000000e+03 5.430049896240234375e+01 2.014155578613281250e+01 5.261700227856636047e-02 7.757552146911621094e+00 2.343050718307495117e+00 -2.619566395878791809e-02
3.389000000000000000e+03 5.610314178466796875e+01 2.117752647399902344e+01 4.574708640575408936e-02 7.749413013458251953e+00 2.338547945022583008e+00 -2.479632012546062469e-02
3.390000000000000000e+03 4.875693893432617188e+01 1.512723445892333984e+01 7.929725944995880127e-02 7.784941673278808594e+00 2.359271764755249023e+00 -3.447616472840309143e-02
3.391000000000000000e+03 4.751815795898437500e+01 1.875337600708007812e+01 7.895018905401229858e-02 7.798438549041748047e+00 2.363216638565063477e+00 -1.923673786222934723e-02
3.392000000000000000e+03 4.534722900390625000e+01 1.933154487609863281e+01 8.553497493267059326e-02 7.817859172821044922e+00 2.371018171310424805e+00 -1.261108368635177612e-02
3.393000000000000000e+03 5.564281463623046875e+01 1.903330230712890625e+01 4.922031983733177185e-02 7.749066352844238281e+00 2.339486122131347656e+00 -3.165392205119132996e-02
3.394000000000000000e+03 4.790461730957031250e+01 -2.309255409240722656e+01 -5.943918973207473755e-02 7.678445816040039062e+00 2.285701990127563477e+00 -8.568357676267623901e-02
3.395000000000000000e+03 4.488993835449218750e+01 -1.743197441101074219e+01 -3.246836736798286438e-02 7.677146911621093750e+00 2.293403625488281250e+00 -7.766529917716979980e-02
3.396000000000000000e+03 4.429171371459960938e+01 3.075963020324707031e+01 4.224604368209838867e-02 7.845856189727783203e+00 2.366430521011352539e+00 2.429545484483242035e-02
3.397000000000000000e+03 4.695257186889648438e+01 -2.096422958374023438e+01 -5.037067458033561707e-02 7.681473255157470703e+00 2.289330720901489258e+00 -8.164177089929580688e-02
3.398000000000000000e+03 4.633464431762695312e+01 3.438486099243164062e+01 1.567324623465538025e-02 7.843124866485595703e+00 2.357639551162719727e+00 2.181578241288661957e-02
3.399000000000000000e+03 5.006482696533203125e+01 3.667141723632812500e+01 1.000365335494279861e-02 7.815632343292236328e+00 2.347690820693969727e+00 8.471533656120300293e-03
3.400000000000000000e+03 4.004416656494140625e+01 -2.541032981872558594e+01 -7.729363441467285156e-02 7.577554225921630859e+00 2.250078201293945312e+00 -5.247019603848457336e-02
3.401000000000000000e+03 4.461616516113281250e+01 -2.201929855346679688e+01 -5.674707889556884766e-02 7.651917457580566406e+00 2.278551101684570312e+00 -7.659309357404708862e-02
3.402000000000000000e+03 4.339393234252929688e+01 3.404482269287109375e+01 1.686260849237442017e-02 7.864803791046142578e+00 2.364499807357788086e+00 3.056142106652259827e-02
3.403000000000000000e+03 4.662003326416015625e+01 -3.324266052246093750e+01 -1.251089423894882202e-01 7.658282279968261719e+00 2.259951829910278320e+00 -5.477444455027580261e-02
3.404000000000000000e+03 5.745945358276367188e+01 2.540368461608886719e+01 3.458834439516067505e-02 7.745751380920410156e+00 2.334101915359497070e+00 -1.555413845926523209e-02
3.405000000000000000e+03 4.840528488159179688e+01 2.065690994262695312e+01 7.224716991186141968e-02 7.797221183776855469e+00 2.360840559005737305e+00 -1.305553596466779709e-02
3.406000000000000000e+03 5.339359283447265625e+01 -2.427363204956054688e+01 -6.019516661763191223e-02 7.721339225769042969e+00 2.298343181610107422e+00 -9.040971100330352783e-02
3.407000000000000000e+03 4.405649948120117188e+01 -2.909617805480957031e+01 -9.231904894113540649e-02 7.626395702362060547e+00 2.260222911834716797e+00 -6.275496631860733032e-02
3.408000000000000000e+03 4.862855911254882812e+01 2.371278381347656250e+01 6.225367262959480286e-02 7.799253463745117188e+00 2.358452081680297852e+00 -4.460619296878576279e-03
3.409000000000000000e+03 4.484139633178710938e+01 2.758486557006835938e+01 5.860732495784759521e-02 7.834823608398437500e+00 2.368029117584228516e+00 1.449936162680387497e-02
3.410000000000000000e+03 4.808936309814453125e+01 -2.690657806396484375e+01 -7.367505878210067749e-02 7.669033527374267578e+00 2.278607606887817383e+00 -7.803805917501449585e-02
3.411000000000000000e+03 4.701422882080078125e+01 3.175279998779296875e+01 3.163779154419898987e-02 7.829320907592773438e+00 2.358287572860717773e+00 1.833650097250938416e-02
3.412000000000000000e+03 4.972640228271484375e+01 -2.472874641418457031e+01 -7.151138782501220703e-02 7.693015098571777344e+00 2.286451101303100586e+00 -8.322183042764663696e-02
3.413000000000000000e+03 5.198045730590820312e+01 -2.991288185119628906e+01 -8.430888503789901733e-02 7.707714557647705078e+00 2.287021636962890625e+00 -6.903323531150817871e-02
3.414000000000000000e+03 4.697037506103515625e+01 -2.979527664184570312e+01 -1.082892566919326782e-01 7.655230998992919922e+00 2.264082431793212891e+00 -7.480869442224502563e-02
3.415000000000000000e+03 4.174528884887695312e+01 -2.778731918334960938e+01 -9.813892841339111328e-02 7.597311973571777344e+00 2.249751806259155273e+00 -6.227111071348190308e-02
3.416000000000000000e+03 5.168415069580078125e+01 2.388566398620605469e+01 5.228877812623977661e-02 7.779328823089599609e+00 2.349485158920288086e+00 -1.013937965035438538e-02
3.417000000000000000e+03 5.524124908447265625e+01 2.353080940246582031e+01 4.271266609430313110e-02 7.755765438079833984e+00 2.339543342590332031e+00 -1.765757240355014801e-02
3.418000000000000000e+03 5.386711120605468750e+01 -2.837735176086425781e+01 -7.932278513908386230e-02 7.726828098297119141e+00 2.294251441955566406e+00 -7.820737361907958984e-02
3.419000000000000000e+03 5.340256500244140625e+01 -3.260762786865234375e+01 -9.331052005290985107e-02 7.727120399475097656e+00 2.290143013000488281e+00 -5.976136028766632080e-02
3.420000000000000000e+03 4.718848800659179688e+01 2.240148162841796875e+01 7.277914881706237793e-02 7.810162067413330078e+00 2.364882469177246094e+00 -7.318952120840549469e-03
3.421000000000000000e+03 5.109846115112304688e+01 -2.266730499267578125e+01 -4.992991313338279724e-02 7.706387996673583984e+00 2.296937465667724609e+00 -9.012580662965774536e-02
3.422000000000000000e+03 4.603405380249023438e+01 -2.479210472106933594e+01 -7.658171653747558594e-02 7.661235332489013672e+00 2.275396108627319336e+00 -7.435650378465652466e-02
3.423000000000000000e+03 5.033616638183593750e+01 -2.820576667785644531e+01 -9.384592622518539429e-02 7.695407867431640625e+00 2.280468702316284180e+00 -8.063825964927673340e-02
3.424000000000000000e+03 5.182512664794921875e+01 -2.634160995483398438e+01 -6.645337492227554321e-02 7.705348014831542969e+00 2.291668415069580078e+00 -8.268249034881591797e-02
3.425000000000000000e+03 4.489953613281250000e+01 2.465174484252929688e+01 7.193419337272644043e-02 7.829527378082275391e+00 2.370438337326049805e+00 4.523458890616893768e-03
3.426000000000000000e+03 4.756428146362304688e+01 2.709631347656250000e+01 5.273614451289176941e-02 7.814975261688232422e+00 2.360313415527343750e+00 8.738209493458271027e-03
3.427000000000000000e+03 5.143462371826171875e+01 2.781240653991699219e+01 4.128639027476310730e-02 7.788809299468994141e+00 2.349028825759887695e+00 1.961719535756856203e-04
3.428000000000000000e+03 4.904162979125976562e+01 2.965623855590820312e+01 3.960113599896430969e-02 7.813802719116210938e+00 2.356021165847778320e+00 1.032355241477489471e-02
3.429000000000000000e+03 5.272638702392578125e+01 1.829793930053710938e+01 6.035184487700462341e-02 7.766104698181152344e+00 2.347936868667602539e+00 -3.103948757052421570e-02
3.430000000000000000e+03 5.136531829833984375e+01 2.028804016113281250e+01 6.422062218189239502e-02 7.774846076965332031e+00 2.351720094680786133e+00 -2.057865448296070099e-02
3.431000000000000000e+03 5.111656188964843750e+01 -3.684161758422851562e+01 -1.162245050072669983e-01 7.707091331481933594e+00 2.277260065078735352e+00 -3.587749227881431580e-02
3.432000000000000000e+03 1.986945271492004395e-01 1.688212990760803223e+00 -3.990304470062255859e-02 -2.723235785961151123e-01 -9.366798400878906250e-02 3.437279164791107178e-02
3.433000000000000000e+03 1.352082788944244385e-01 -2.029255151748657227e+00 -1.120815984904766083e-02 -4.043385386466979980e-01 -1.246640086174011230e-01 -4.334687441587448120e-02
3.434000000000000000e+03 5.931400060653686523e-01 -2.301736116409301758e+00 -1.989733427762985229e-03 -3.302757740020751953e-01 -9.967964887619018555e-02 -1.859986335039138794e-01
3.435000000000000000e+03 9.572831988334655762e-01 -2.978059768676757812e+00 4.146147891879081726e-02 -4.711163938045501709e-01 -1.288964748382568359e-01 -2.257201522588729858e-01
3.436000000000000000e+03 1.060840010643005371e+00 -1.794721722602844238e+00 -4.232290759682655334e-02 -2.244502156972885132e-01 -8.003193885087966919e-02 -2.507702708244323730e-01
3.437000000000000000e+03 1.259140372276306152e+00 -1.901744723320007324e+00 -2.003842964768409729e-02 -2.267917096614837646e-01 -7.404904067516326904e-02 -2.914803028106689453e-01
3.438000000000000000e+03 3.986314535140991211e+00 -1.957882046699523926e+00 5.338151007890701294e-02 1.196957230567932129e-01 5.192317068576812744e-02 -3.017521202564239502e-01
3.439000000000000000e+03 5.711821079254150391e+00 -1.626095652580261230e+00 3.220521509647369385e-01 3.425512015819549561e-01 1.993810087442398071e-01 1.886194646358489990e-01
3.440000000000000000e+03 5.906989097595214844e+00 -1.620616793632507324e+00 4.100848734378814697e-01 3.668752610683441162e-01 2.330880463123321533e-01 2.626228928565979004e-01
3.441000000000000000e+03 6.490096569061279297e+00 -1.879839777946472168e+00 9.884175062179565430e-01 8.508825302124023438e-01 5.517899990081787109e-01 8.714919090270996094e-01
3.442000000000000000e+03 6.497254371643066406e+00 -1.628066420555114746e+00 7.525156140327453613e-01 6.245893239974975586e-01 4.131314754486083984e-01 6.826812624931335449e-01
3.443000000000000000e+03 6.877683162689208984e+00 -1.937211871147155762e+00 1.303359985351562500e+00 1.191900491714477539e+00 7.485781311988830566e-01 1.322862744331359863e+00
3.444000000000000000e+03 6.898921489715576172e+00 -1.648744583129882812e+00 1.205737948417663574e+00 9.023239612579345703e-01 6.324185729026794434e-01 1.111981868743896484e+00
3.445000000000000000e+03 7.307879447937011719e+00 -2.056774377822875977e+00 1.682133793830871582e+00 1.971148014068603516e+00 1.095984578132629395e+00 2.006103754043579102e+00
3.446000000000000000e+03 7.717370033264160156e+00 -1.665495157241821289e+00 2.101290464401245117e+00 2.039916753768920898e+00 1.242362141609191895e+00 2.408738613128662109e+00
3.447000000000000000e+03 7.967677593231201172e+00 -1.950199723243713379e+00 2.275589704513549805e+00 3.321997642517089844e+00 1.679276227951049805e+00 3.289032459259033203e+00
3.448000000000000000e+03 8.169167518615722656e+00 -1.920571804046630859e+00 2.348540306091308594e+00 3.875354528427124023e+00 1.867168426513671875e+00 3.680636167526245117e+00
3.449000000000000000e+03 8.912584304809570312e+00 -1.955114603042602539e+00 2.066703081130981445e+00 8.163088798522949219e+00 3.068937540054321289e+00 5.433241367340087891e+00
3.450000000000000000e+03 9.126474380493164062e+00 -1.647894978523254395e+00 2.450505018234252930e+00 9.030278205871582031e+00 3.444234848022460938e+00 5.972548961639404297e+00
3.451000000000000000e+03 9.704854965209960938e+00 -1.620164752006530762e+00 9.078057408332824707e-01 1.524687862396240234e+01 4.846405506134033203e+00 6.175707817077636719e+00
3.452000000000000000e+03 1.129139804840087891e+01 -1.669240951538085938e+00 9.722477793693542480e-01 1.699984741210937500e+01 5.391628742218017578e+00 -2.991307497024536133e+00
3.453000000000000000e+03 1.201197338104248047e+01 -5.585812926292419434e-01 6.428395271301269531e+00 1.183882236480712891e+01 5.480165481567382812e+00 -2.200097799301147461e+00
3.454000000000000000e+03 1.181118774414062500e+01 1.133481740951538086e+00 4.013765811920166016e+00 1.388012218475341797e+01 5.368166446685791016e+00 4.020783424377441406e+00
3.455000000000000000e+03 1.120169162750244141e+01 1.416066288948059082e+00 2.306680202484130859e+00 1.869491195678710938e+01 6.300477504730224609e+00 3.779321193695068359e+00
3.456000000000000000e+03 1.107603931427001953e+01 1.513274431228637695e+00 9.345486760139465332e-01 1.874059295654296875e+01 5.902542591094970703e+00 2.557939529418945312e+00
3.457000000000000000e+03 1.077226352691650391e+01 1.821267008781433105e+00 -6.059924364089965820e-01 1.906080436706542969e+01 5.536443710327148438e+00 1.050287485122680664e+00
3.458000000000000000e+03 9.898204803466796875e+00 2.013037204742431641e+00 -7.081183791160583496e-01 1.572423171997070312e+01 4.504833698272705078e+00 -3.917982578277587891e+00
3.459000000000000000e+03 9.486785888671875000e+00 1.888878107070922852e+00 7.062588930130004883e-01 1.247087383270263672e+01 3.953139781951904297e+00 -5.495345592498779297e+00
3.460000000000000000e+03 9.309861183166503906e+00 1.851058363914489746e+00 1.196398973464965820e+00 1.113540458679199219e+01 3.699541091918945312e+00 -5.804624557495117188e+00
3.461000000000000000e+03 8.761335372924804688e+00 2.080745935440063477e+00 1.652962446212768555e+00 7.085438728332519531e+00 2.621520280838012695e+00 -4.712596893310546875e+00
3.462000000000000000e+03 8.238390922546386719e+00 2.074708461761474609e+00 1.935497403144836426e+00 4.403389453887939453e+00 1.901666045188903809e+00 -3.663054704666137695e+00
3.463000000000000000e+03 7.443371772766113281e+00 1.750637769699096680e+00 1.625407814979553223e+00 1.683756709098815918e+00 9.927493929862976074e-01 -1.845476150512695312e+00
3.464000000000000000e+03 6.935351371765136719e+00 1.671396017074584961e+00 1.013981103897094727e+00 8.939040303230285645e-01 5.723655223846435547e-01 -9.787600040435791016e-01
3.465000000000000000e+03 6.788103103637695312e+00 2.077276468276977539e+00 1.114100694656372070e+00 1.236266374588012695e+00 7.051100730895996094e-01 -1.156624197959899902e+00
3.466000000000000000e+03 6.546600341796875000e+00 2.126815319061279297e+00 9.936112761497497559e-01 1.052471280097961426e+00 6.138247251510620117e-01 -9.318277239799499512e-01
3.467000000000000000e+03 5.895784378051757812e+00 1.615120291709899902e+00 1.789799630641937256e-01 3.423387408256530762e-01 1.563956141471862793e-01 -1.432671546936035156e-01
3.468000000000000000e+03 5.539999008178710938e+00 1.877239108085632324e+00 2.914550304412841797e-01 3.936890363693237305e-01 2.055432200431823730e-01 -7.385204732418060303e-02
3.469000000000000000e+03 5.110766887664794922e+00 1.667172789573669434e+00 -2.998474240303039551e-02 2.007001191377639771e-01 5.121461302042007446e-02 1.746223270893096924e-01
3.470000000000000000e+03 4.946901321411132812e+00 2.068992376327514648e+00 2.066487371921539307e-01 2.987214922904968262e-01 1.516110748052597046e-01 1.146796345710754395e-01
3.471000000000000000e+03 4.333210468292236328e+00 1.979474782943725586e+00 3.202213719487190247e-02 1.380531936883926392e-01 5.102260038256645203e-02 3.038693666458129883e-01
3.472000000000000000e+03 3.816716670989990234e+00 1.920545458793640137e+00 -8.369266241788864136e-02 7.194909453392028809e-02 -3.523069666698575020e-03 3.997818529605865479e-01
3.473000000000000000e+03 3.639321565628051758e+00 1.931564927101135254e+00 -9.014627337455749512e-02 4.190060868859291077e-02 -1.447369903326034546e-02 4.252450466156005859e-01
3.474000000000000000e+03 3.463109731674194336e+00 1.934856534004211426e+00 -7.814701646566390991e-02 2.841581776738166809e-02 -1.491935923695564270e-02 4.320555031299591064e-01
3.475000000000000000e+03 2.887161254882812500e+00 2.043548583984375000e+00 -6.514237821102142334e-02 -4.751521348953247070e-02 -3.379727527499198914e-02 4.557252228260040283e-01
3.476000000000000000e+03 1.294656753540039062e+00 1.640471339225769043e+00 -7.353472709655761719e-02 -2.063853293657302856e-01 -8.397601544857025146e-02 3.024849593639373779e-01
3.477000000000000000e+03 1.090338230133056641e+00 1.637674331665039062e+00 -6.845847517251968384e-02 -2.033113837242126465e-01 -8.153095841407775879e-02 2.659948766231536865e-01
3.478000000000000000e+03 8.985280990600585938e-01 1.612047553062438965e+00 -4.702558368444442749e-02 -2.309499531984329224e-01 -8.339266479015350342e-02 2.340705394744873047e-01
3.479000000000000000e+03 3.108759522438049316e-01 3.695649623870849609e+00 3.304819343611598015e-03 -8.861870169639587402e-01 -2.648646533489227295e-01 6.670882552862167358e-02
3.480000000000000000e+03 2.274430847167968750e+01 3.501700973510742188e+01 8.181759715080261230e-01 7.924510478973388672e+00 2.622805833816528320e+00 -6.282107234001159668e-01
3.481000000000000000e+03 3.339914083480834961e+00 -2.386150121688842773e+00 1.396272331476211548e-01 1.106561794877052307e-01 7.508502155542373657e-02 -3.083623945713043213e-01
3.482000000000000000e+03 3.658004999160766602e+00 -2.593808889389038086e+00 2.487752586603164673e-01 1.866843402385711670e-01 1.306378841400146484e-01 -2.412934452295303345e-01
3.483000000000000000e+03 2.962555646896362305e+00 -2.839197635650634766e+00 1.920996159315109253e-01 7.575043290853500366e-02 8.035501837730407715e-02 -3.029887378215789795e-01
3.484000000000000000e+03 1.357584595680236816e-01 2.233414411544799805e+00 5.805084016174077988e-03 -4.415824413299560547e-01 -1.307332068681716919e-01 5.703688040375709534e-02
3.485000000000000000e+03 1.586495018005371094e+01 3.854554367065429688e+01 -7.231874465942382812e-01 4.916879653930664062e+00 1.258107662200927734e+00 7.746911048889160156e-01
3.486000000000000000e+03 8.938599228858947754e-01 -2.469404458999633789e+00 -2.225249633193016052e-02 -3.636438548564910889e-01 -1.157689094543457031e-01 -2.325897067785263062e-01
3.487000000000000000e+03 1.373345851898193359e+00 -2.273236036300659180e+00 9.704896248877048492e-03 -2.746722996234893799e-01 -7.949022203683853149e-02 -3.319492936134338379e-01
3.488000000000000000e+03 1.615593075752258301e+00 -2.476345539093017578e+00 3.359751030802726746e-02 -2.292015999555587769e-01 -5.868122726678848267e-02 -3.440087735652923584e-01
3.489000000000000000e+03 1.040907669067382812e+01 2.266454219818115234e+00 -1.639258384704589844e+00 1.631936454772949219e+01 4.404031753540039062e+00 -1.228989124298095703e+00
3.490000000000000000e+03 1.093599796295166016e+01 2.077501058578491211e+00 -1.115481615066528320e+00 1.693535041809082031e+01 4.745960712432861328e+00 1.403711915016174316e+00
3.491000000000000000e+03 1.139497661590576172e+01 1.417770624160766602e+00 2.262976169586181641e+00 1.693374252319335938e+01 5.759015560150146484e+00 3.884793281555175781e+00
3.492000000000000000e+03 7.698014259338378906e+00 2.305107593536376953e+00 1.614457607269287109e+00 3.137968778610229492e+00 1.425727844238281250e+00 -2.639467477798461914e+00
3.493000000000000000e+03 1.335091710090637207e+00 2.228777885437011719e+00 -1.030113361775875092e-02 -3.255866169929504395e-01 -1.007663235068321228e-01 3.452883064746856689e-01
3.494000000000000000e+03 1.517704367637634277e+00 1.891215443611145020e+00 -5.634190514683723450e-02 -2.274068444967269897e-01 -8.512462675571441650e-02 3.695224821567535400e-01
3.495000000000000000e+03 1.163735866546630859e+00 -2.143149852752685547e+00 -2.555441670119762421e-02 -2.891508936882019043e-01 -9.441158920526504517e-02 -2.798281311988830566e-01
3.496000000000000000e+03 5.786493301391601562e+00 -2.021274089813232422e+00 6.138911843299865723e-01 5.957717895507812500e-01 3.628988862037658691e-01 4.189824461936950684e-01
3.497000000000000000e+03 6.654363632202148438e+00 -2.147961139678955078e+00 1.252405285835266113e+00 1.221425533294677734e+00 7.421492338180541992e-01 1.220509767532348633e+00
3.498000000000000000e+03 6.985694885253906250e+00 -2.292632341384887695e+00 1.507907986640930176e+00 1.822919726371765137e+00 9.992482662200927734e-01 1.752194523811340332e+00
3.499000000000000000e+03 8.750613212585449219e+00 -2.278821945190429688e+00 1.362104654312133789e+00 7.519216060638427734e+00 2.664396286010742188e+00 4.600801944732666016e+00
3.500000000000000000e+03 1.218624782562255859e+01 2.193621873855590820e+00 -1.546547114849090576e-01 1.149290370941162109e+01 3.401474475860595703e+00 3.940056324005126953e+00
3.501000000000000000e+03 1.171733570098876953e+01 -8.598314523696899414e-01 6.157659053802490234e+00 1.493014812469482422e+01 6.326342105865478516e+00 -3.893921613693237305e+00
3.502000000000000000e+03 1.174134540557861328e+01 -1.073985576629638672e+00 4.518986225128173828e+00 1.448870754241943359e+01 5.702308177947998047e+00 -3.882357120513916016e+00
3.503000000000000000e+03 5.757606029510498047e+00 2.071078777313232422e+00 5.428629517555236816e-01 5.826597809791564941e-01 3.376568257808685303e-01 -2.942174077033996582e-01
3.504000000000000000e+03 4.824967384338378906e+00 2.568520545959472656e+00 4.198493361473083496e-01 4.716712832450866699e-01 2.674562036991119385e-01 1.790830120444297791e-02
3.505000000000000000e+03 6.060101985931396484e+00 2.024138450622558594e+00 7.185951471328735352e-01 6.767154335975646973e-01 4.185931682586669922e-01 -4.721768796443939209e-01
3.506000000000000000e+03 6.209635734558105469e+00 1.934482336044311523e+00 6.897336840629577637e-01 6.728719472885131836e-01 4.087817072868347168e-01 -5.156489014625549316e-01
3.507000000000000000e+03 6.084110736846923828e+00 2.244255065917968750e+00 7.370166182518005371e-01 8.753760457038879395e-01 4.837177991867065430e-01 -6.025097370147705078e-01
3.508000000000000000e+03 4.203750133514404297e+00 2.456074714660644531e+00 2.270183861255645752e-01 2.498156130313873291e-01 1.430501937866210938e-01 2.328814715147018433e-01
3.509000000000000000e+03 3.819675922393798828e+00 2.133504152297973633e+00 6.548424810171127319e-02 1.043963581323623657e-01 5.096418038010597229e-02 3.693511784076690674e-01
3.510000000000000000e+03 3.285008430480957031e+00 1.988639831542968750e+00 -5.179582536220550537e-02 2.397991903126239777e-02 -8.344772271811962128e-03 4.430468082427978516e-01
3.511000000000000000e+03 1.101379776000976562e+01 -1.777008295059204102e+00 1.850498914718627930e-01 1.827421188354492188e+01 5.537778854370117188e+00 -2.046081781387329102e+00
3.512000000000000000e+03 2.472350502014160156e+01 3.638910675048828125e+01 1.646475195884704590e-01 7.759022712707519531e+00 2.377101182937622070e+00 -5.989716947078704834e-02
3.513000000000000000e+03 3.989232063293457031e+00 -3.014869928359985352e+00 4.105274677276611328e-01 3.890472352504730225e-01 2.398724108934402466e-01 -5.366946756839752197e-02
3.514000000000000000e+03 2.257472276687622070e+00 -2.216952085494995117e+00 -8.299039909616112709e-04 -1.050599962472915649e-01 -3.176696971058845520e-02 -3.789176046848297119e-01
3.515000000000000000e+03 3.263107538223266602e+00 -3.243654966354370117e+00 3.049297928810119629e-01 2.073460072278976440e-01 1.536827385425567627e-01 -1.942782998085021973e-01
3.516000000000000000e+03 1.838783740997314453e+00 -3.110053300857543945e+00 7.368110120296478271e-02 -2.305084019899368286e-01 -4.704818874597549438e-02 -3.092765212059020996e-01
3.517000000000000000e+03 2.361472606658935547e+00 -2.573684692382812500e+00 6.612398475408554077e-02 -1.002183184027671814e-01 -1.022830046713352203e-02 -3.824469149112701416e-01
3.518000000000000000e+03 9.981913566589355469e+00 -1.974866390228271484e+00 -6.242344379425048828e-01 1.610857009887695312e+01 4.645300388336181641e+00 3.876702547073364258e+00
3.519000000000000000e+03 9.543459892272949219e+00 -2.887756109237670898e+00 -8.626109957695007324e-01 1.146811008453369141e+01 3.181649684906005859e+00 3.200494050979614258e+00
3.520000000000000000e+03 9.609718322753906250e+00 -2.406267404556274414e+00 -3.557402193546295166e-01 1.267198848724365234e+01 3.694874525070190430e+00 3.965735435485839844e+00
3.521000000000000000e+03 2.025918006896972656e+00 3.009800672531127930e+00 8.568666130304336548e-02 -2.008485347032546997e-01 -3.454856202006340027e-02 3.945333063602447510e-01
3.522000000000000000e+03 1.234910011291503906e+00 2.787348270416259766e+00 2.340006269514560699e-02 -4.217871427536010742e-01 -1.195161193609237671e-01 3.365051746368408203e-01
3.523000000000000000e+03 3.728241920471191406e+00 2.476811647415161133e+00 1.509099900722503662e-01 1.467654407024383545e-01 8.930262923240661621e-02 3.345970809459686279e-01
3.524000000000000000e+03 4.009857177734375000e+00 -2.657756328582763672e+00 3.419170379638671875e-01 2.899704575538635254e-01 1.895662546157836914e-01 -1.358281970024108887e-01
3.525000000000000000e+03 2.627298927307128906e+01 -3.628949737548828125e+01 -1.319664418697357178e-01 7.058638572692871094e+00 2.078001737594604492e+00 -1.293212324380874634e-01
3.526000000000000000e+03 5.807500362396240234e+00 -2.856901884078979492e+00 9.396166205406188965e-01 1.233633756637573242e+00 6.519751548767089844e-01 8.198038339614868164e-01
3.527000000000000000e+03 5.434394359588623047e+00 -2.623235702514648438e+00 7.723600864410400391e-01 7.891696095466613770e-01 4.684589207172393799e-01 4.619901478290557861e-01
3.528000000000000000e+03 3.624963998794555664e+00 2.234821319580078125e+00 7.052349299192428589e-02 8.782348036766052246e-02 4.750409349799156189e-02 3.864444792270660400e-01
3.529000000000000000e+03 2.177396774291992188e+00 2.273175239562988281e+00 -2.057170309126377106e-02 -1.437415033578872681e-01 -4.929396137595176697e-02 4.441345334053039551e-01
3.530000000000000000e+03 2.361111879348754883e+00 2.577275037765502930e+00 5.743363499641418457e-02 -1.151443272829055786e-01 -1.731320656836032867e-02 4.321429431438446045e-01
3.531000000000000000e+03 8.468421936035156250e+00 -2.304507017135620117e+00 1.551901698112487793e+00 6.068336009979248047e+00 2.286071300506591797e+00 4.131674766540527344e+00
3.532000000000000000e+03 8.438027381896972656e+00 -2.011046648025512695e+00 2.256605863571166992e+00 5.247346401214599609e+00 2.251185655593872070e+00 4.320719242095947266e+00
3.533000000000000000e+03 8.601726531982421875e+00 -2.125290870666503906e+00 1.926531314849853516e+00 6.462419986724853516e+00 2.516685485839843750e+00 4.622666835784912109e+00
3.534000000000000000e+03 6.620945453643798828e+00 -2.405012369155883789e+00 1.290968418121337891e+00 1.515226840972900391e+00 8.418585658073425293e-01 1.393026351928710938e+00
3.535000000000000000e+03 6.853192329406738281e+00 -2.695378065109252930e+00 1.302799940109252930e+00 2.173166036605834961e+00 1.042789816856384277e+00 1.748792171478271484e+00
3.536000000000000000e+03 1.092965888977050781e+01 2.785020112991333008e+00 -1.975670337677001953e+00 1.401772403717041016e+01 3.612616062164306641e+00 9.858653545379638672e-01
3.537000000000000000e+03 7.921977996826171875e+00 2.346535921096801758e+00 1.622690677642822266e+00 3.799611568450927734e+00 1.626690745353698730e+00 -3.040823698043823242e+00
3.538000000000000000e+03 8.020692825317382812e+00 2.749696969985961914e+00 1.205736517906188965e+00 4.800948143005371094e+00 1.802005290985107422e+00 -3.155912876129150391e+00
3.539000000000000000e+03 6.331348896026611328e+00 2.553581476211547852e+00 9.800965189933776855e-01 1.312567353248596191e+00 6.877991557121276855e-01 -9.621391892433166504e-01
3.540000000000000000e+03 5.984911441802978516e+00 2.866014003753662109e+00 8.709299564361572266e-01 1.273436665534973145e+00 6.433100104331970215e-01 -7.723714113235473633e-01
3.541000000000000000e+03 2.665064430236816406e+01 3.707096862792968750e+01 9.332811832427978516e-02 7.795561790466308594e+00 2.366667032241821289e+00 1.711058169603347778e-01
3.542000000000000000e+03 7.634770202636718750e+01 3.877986526489257812e+01 3.687631804496049881e-03 7.599203109741210938e+00 2.280867338180541992e+00 -2.224700438091531396e-04
3.543000000000000000e+03 1.328629493713378906e+01 -1.428539943695068359e+01 -1.340658590197563171e-02 8.594521522521972656e+00 2.574334621429443359e+00 -2.460350655019283295e-02
3.544000000000000000e+03 1.170563507080078125e+01 -3.528418540954589844e+00 -1.798238158226013184e+00 1.140388298034667969e+01 2.881693363189697266e+00 -2.120785236358642578e+00
3.545000000000000000e+03 9.001180648803710938e+00 -2.472737550735473633e+00 7.634953856468200684e-01 8.785641670227050781e+00 2.864741086959838867e+00 4.437704086303710938e+00
3.546000000000000000e+03 9.228147506713867188e+00 -2.811896800994873047e+00 -1.255298107862472534e-01 1.018783187866210938e+01 3.018690586090087891e+00 3.933811902999877930e+00
3.547000000000000000e+03 1.309750747680664062e+01 -1.820786833763122559e+00 1.193605661392211914e+00 6.965438842773437500e+00 2.447713375091552734e+00 -3.486255645751953125e+00
3.548000000000000000e+03 7.205078125000000000e+01 -3.549095153808593750e+01 -1.443706545978784561e-02 7.896021366119384766e+00 2.364475250244140625e+00 -2.254892513155937195e-02
3.549000000000000000e+03 3.953738451004028320e+00 2.538753509521484375e+00 1.957945376634597778e-01 2.031614184379577637e-01 1.196867898106575012e-01 2.779386639595031738e-01
3.550000000000000000e+03 8.352961540222167969e+00 -2.493626117706298828e+00 1.468670606613159180e+00 5.776435852050781250e+00 2.173532009124755859e+00 3.900646448135375977e+00
3.551000000000000000e+03 5.890553951263427734e+00 1.833769440650939941e+00 4.234367609024047852e-01 4.888646900653839111e-01 2.736904323101043701e-01 -2.492241859436035156e-01
3.552000000000000000e+03 8.965315818786621094e+00 -2.770890951156616211e+00 3.790479004383087158e-01 8.787900924682617188e+00 2.750084638595581055e+00 4.103777408599853516e+00
3.553000000000000000e+03 3.582408428192138672e+00 2.843697547912597656e+00 2.513330280780792236e-01 1.712942272424697876e-01 1.267881840467453003e-01 3.100952506065368652e-01
3.554000000000000000e+03 2.772064781188964844e+01 -3.441744232177734375e+01 -5.141468252986669540e-03 7.166464805603027344e+00 2.148396968841552734e+00 -7.364691048860549927e-02
3.555000000000000000e+03 8.846608161926269531e+00 -3.086440086364746094e+00 1.275011897087097168e-01 8.460201263427734375e+00 2.576310634613037109e+00 3.682369947433471680e+00
3.556000000000000000e+03 8.796728134155273438e+00 -2.482269525527954102e+00 9.304422140121459961e-01 7.894430160522460938e+00 2.647461652755737305e+00 4.322580337524414062e+00
3.557000000000000000e+03 1.260305023193359375e+01 7.066970467567443848e-01 4.324045181274414062e+00 8.919272422790527344e+00 3.972995281219482422e+00 2.728399276733398438e+00
3.558000000000000000e+03 6.057141780853271484e+00 2.532987833023071289e+00 8.579280972480773926e-01 1.050539255142211914e+00 5.725402235984802246e-01 -7.034825086593627930e-01
3.559000000000000000e+03 1.027726936340332031e+01 -3.837948083877563477e+00 -2.002837657928466797e+00 1.160837936401367188e+01 2.881662607192993164e+00 7.256135940551757812e-01
3.560000000000000000e+03 7.491181850433349609e+00 2.369589328765869141e+00 1.569687247276306152e+00 2.681172370910644531e+00 1.275257945060729980e+00 -2.362778186798095703e+00
3.561000000000000000e+03 9.429267883300781250e+00 2.113451480865478516e+00 3.728393912315368652e-01 1.177976322174072266e+01 3.645780801773071289e+00 -5.088273525238037109e+00
3.562000000000000000e+03 9.416243553161621094e+00 2.632999658584594727e+00 -4.806173443794250488e-01 1.099244976043701172e+01 3.153549671173095703e+00 -3.832983493804931641e+00
3.563000000000000000e+03 8.713027954101562500e+00 2.730328083038330078e+00 6.009303331375122070e-01 7.490957260131835938e+00 2.427566289901733398e+00 -3.774952888488769531e+00
3.564000000000000000e+03 9.155881881713867188e+00 2.718034982681274414e+00 -1.297945529222488403e-01 9.877103805541992188e+00 2.924192905426025391e+00 -3.869839906692504883e+00
3.565000000000000000e+03 8.981740951538085938e+00 2.983488559722900391e+00 -8.368459343910217285e-02 8.766553878784179688e+00 2.604860782623291016e+00 -3.504560232162475586e+00
3.566000000000000000e+03 8.631331443786621094e+00 -2.425879478454589844e+00 1.308631062507629395e+00 6.887604713439941406e+00 2.458870649337768555e+00 4.301144123077392578e+00
3.567000000000000000e+03 8.546053886413574219e+00 -2.620987415313720703e+00 1.063462018966674805e+00 6.764404296875000000e+00 2.348359823226928711e+00 3.931497573852539062e+00
3.568000000000000000e+03 6.095085620880126953e+00 -2.471518039703369141e+00 9.730800390243530273e-01 1.095314621925354004e+00 6.205183863639831543e-01 8.545822501182556152e-01
3.569000000000000000e+03 2.376579666137695312e+01 3.400959777832031250e+01 5.830247998237609863e-01 7.657925605773925781e+00 2.472285032272338867e+00 -2.248223721981048584e-01
3.570000000000000000e+03 7.624870300292968750e+00 2.514840364456176758e+00 1.470935702323913574e+00 3.266992330551147461e+00 1.421378374099731445e+00 -2.557859897613525391e+00
3.571000000000000000e+03 7.379860877990722656e+00 2.933907747268676758e+00 1.184999942779541016e+00 3.371107578277587891e+00 1.366832256317138672e+00 -2.296516418457031250e+00
3.572000000000000000e+03 5.510446548461914062e+00 -2.917110443115234375e+00 8.173135519027709961e-01 1.040810942649841309e+00 5.574373602867126465e-01 6.138947606086730957e-01
3.573000000000000000e+03 5.330109024047851562e+01 3.009119987487792969e+01 3.045446611940860748e-02 7.783581256866455078e+00 2.344210624694824219e+00 1.495315111242234707e-03
3.574000000000000000e+03 4.069465160369873047e+00 -9.801793098449707031e+00 -8.587178587913513184e-02 1.934932470321655273e+00 5.547181963920593262e-01 3.119564652442932129e-01
3.575000000000000000e+03 2.309851264953613281e+01 -2.784387397766113281e+01 -1.632470823824405670e-02 7.288884639739990234e+00 2.181767940521240234e+00 1.994888335466384888e-01
3.576000000000000000e+03 2.564029884338378906e+01 3.254930114746093750e+01 2.933517098426818848e-01 7.947052478790283203e+00 2.472121238708496094e+00 -1.402076929807662964e-01
3.577000000000000000e+03 3.066476821899414062e+00 -4.343677043914794922e+00 3.357142806053161621e-01 3.592866957187652588e-01 2.085002958774566650e-01 -2.059189043939113617e-02
3.578000000000000000e+03 1.219661808013916016e+01 -3.750890016555786133e+00 -1.523459792137145996e+00 1.033316802978515625e+01 2.642912626266479492e+00 -2.647427797317504883e+00
3.579000000000000000e+03 6.776856899261474609e+00 3.457768678665161133e+00 9.037433862686157227e-01 2.806037664413452148e+00 1.112934350967407227e+00 -1.621001482009887695e+00
3.580000000000000000e+03 5.799599647521972656e+00 2.449322223663330078e+00 7.075603008270263672e-01 8.516190648078918457e-01 4.677537977695465088e-01 -4.898343384265899658e-01
3.581000000000000000e+03 1.004171085357666016e+01 -1.328575801849365234e+01 -1.465619206428527832e-01 6.382538795471191406e+00 1.870792984962463379e+00 1.230623922310769558e-03
3.582000000000000000e+03 1.094465065002441406e+01 -3.789921045303344727e+00 -2.044841051101684570e+00 1.177389621734619141e+01 2.918716430664062500e+00 -6.241565942764282227e-01
3.583000000000000000e+03 3.854760360717773438e+01 2.933615875244140625e+01 7.125275582075119019e-02 7.885863304138183594e+00 2.387134790420532227e+00 3.160051628947257996e-02
3.584000000000000000e+03 1.113289737701416016e+01 -4.188431739807128906e+00 -2.028453588485717773e+00 1.086515235900878906e+01 2.651009559631347656e+00 -1.019290804862976074e+00
3.585000000000000000e+03 5.472791671752929688e+00 -3.299942970275878906e+00 8.339422345161437988e-01 1.276952385902404785e+00 6.332684159278869629e-01 6.965603828430175781e-01
3.586000000000000000e+03 8.248973846435546875e+00 -2.698564529418945312e+00 1.254925012588500977e+00 5.575492382049560547e+00 2.049125194549560547e+00 3.619688272476196289e+00
3.587000000000000000e+03 8.744341850280761719e+00 -2.714517116546630859e+00 7.348335385322570801e-01 7.777565002441406250e+00 2.553719520568847656e+00 4.074307441711425781e+00
3.588000000000000000e+03 3.288832187652587891e+00 -4.765348434448242188e+00 3.700779080390930176e-01 5.609725713729858398e-01 2.793151438236236572e-01 1.088773682713508606e-01
3.589000000000000000e+03 8.088706970214843750e+00 3.204166412353515625e+00 6.477311849594116211e-01 5.486849308013916016e+00 1.840374112129211426e+00 -2.891307592391967773e+00
3.590000000000000000e+03 1.022921085357666016e+01 -4.387807369232177734e+00 -1.895134329795837402e+00 1.047521209716796875e+01 2.574023246765136719e+00 4.744442105293273926e-01
3.591000000000000000e+03 1.197125148773193359e+01 3.881391048431396484e+00 -1.774372935295104980e+00 1.066592121124267578e+01 2.667464494705200195e+00 2.349363327026367188e+00
3.592000000000000000e+03 5.921769618988037109e+00 -3.060739135742187500e+01 1.091054081916809082e-01 3.472527742385864258e+00 1.074489951133728027e+00 1.250130087137222290e-01
3.593000000000000000e+03 4.959769248962402344e+00 -9.364591598510742188e+00 -1.401665061712265015e-01 2.628513097763061523e+00 7.465040087699890137e-01 3.996813595294952393e-01
3.594000000000000000e+03 7.717193126678466797e+00 -3.271571636199951172e+00 9.354250431060791016e-01 4.526138305664062500e+00 1.638468980789184570e+00 2.703851461410522461e+00
3.595000000000000000e+03 7.704501628875732422e+00 -3.013839006423950195e+00 1.201213598251342773e+00 4.266225814819335938e+00 1.640231847763061523e+00 2.806024074554443359e+00
3.596000000000000000e+03 7.031345844268798828e+00 -3.478788852691650391e+00 9.765349030494689941e-01 3.377241134643554688e+00 1.306132793426513672e+00 2.044091939926147461e+00
3.597000000000000000e+03 7.264027118682861328e+00 -3.352145671844482422e+00 1.056390523910522461e+00 3.648538351058959961e+00 1.411478638648986816e+00 2.344920158386230469e+00
3.598000000000000000e+03 1.070485591888427734e+01 3.669695615768432617e+00 -2.180632352828979492e+00 1.207779979705810547e+01 2.969150304794311523e+00 1.891586035490036011e-01
3.599000000000000000e+03 1.074325847625732422e+01 3.086106300354003906e+00 -2.156551599502563477e+00 1.367759132385253906e+01 3.456311941146850586e+00 4.086374044418334961e-01
3.600000000000000000e+03 9.568055152893066406e+00 3.095485210418701172e+00 -1.104951262474060059e+00 1.101934432983398438e+01 2.974318027496337891e+00 -2.644094944000244141e+00
3.601000000000000000e+03 8.822388648986816406e+00 3.324940443038940430e+00 -2.146838456392288208e-01 8.088177680969238281e+00 2.362048149108886719e+00 -3.076777696609497070e+00
3.602000000000000000e+03 1.083356285095214844e+01 -4.299173831939697266e+00 -2.002537488937377930e+00 1.078161144256591797e+01 2.633722305297851562e+00 -3.113972544670104980e-01
3.603000000000000000e+03 7.476016998291015625e+00 2.702287673950195312e+00 1.327636599540710449e+00 3.176063060760498047e+00 1.351109981536865234e+00 -2.417256116867065430e+00
3.604000000000000000e+03 5.485341548919677734e+00 3.465431928634643555e+00 7.008674740791320801e-01 1.275318741798400879e+00 5.928558707237243652e-01 -5.339685082435607910e-01
3.605000000000000000e+03 4.986576843261718750e+01 2.565346717834472656e+01 5.167461186647415161e-02 7.797625541687011719e+00 2.354789972305297852e+00 -2.111094305291771889e-03
3.606000000000000000e+03 5.349044418334960938e+01 2.577472305297851562e+01 4.217046126723289490e-02 7.773287773132324219e+00 2.344637393951416016e+00 -8.427300490438938141e-03
3.607000000000000000e+03 4.605237483978271484e+00 -8.401411056518554688e+00 -2.756979689002037048e-02 2.296613931655883789e+00 6.807132363319396973e-01 4.226871132850646973e-01
3.608000000000000000e+03 6.600605487823486328e+00 3.918110132217407227e+00 7.090720534324645996e-01 2.860778808593750000e+00 1.070955276489257812e+00 -1.407268404960632324e+00
3.609000000000000000e+03 8.910617828369140625e+00 -3.077782058715820312e+01 1.956795006990432739e-01 5.381050109863281250e+00 1.673018932342529297e+00 5.787109211087226868e-02
3.610000000000000000e+03 2.648118209838867188e+01 -2.951576042175292969e+01 1.547075714915990829e-02 7.256794452667236328e+00 2.181679487228393555e+00 1.434520184993743896e-01
3.611000000000000000e+03 1.053080844879150391e+01 -4.437244415283203125e+00 -1.944678425788879395e+00 1.048683929443359375e+01 2.562648296356201172e+00 4.074325412511825562e-02
3.612000000000000000e+03 5.668169498443603516e+00 3.826147317886352539e+00 7.556167244911193848e-01 1.750193238258361816e+00 7.517430186271667480e-01 -8.112062811851501465e-01
3.613000000000000000e+03 8.157835006713867188e+00 -2.896193265914916992e+00 1.094684600830078125e+00 5.523509502410888672e+00 1.985458254814147949e+00 3.406781196594238281e+00
3.614000000000000000e+03 5.578695774078369141e+00 2.332131385803222656e+00 5.988722443580627441e-01 6.557004451751708984e-01 3.763718008995056152e-01 -3.039081692695617676e-01
3.615000000000000000e+03 8.145881652832031250e+00 3.641898155212402344e+00 2.342152893543243408e-01 6.000655651092529297e+00 1.870461225509643555e+00 -2.623665094375610352e+00
3.616000000000000000e+03 6.258431911468505859e+00 3.589451789855957031e+00 8.542806506156921387e-01 2.183930397033691406e+00 9.114633202552795410e-01 -1.190565586090087891e+00
3.617000000000000000e+03 9.531300544738769531e+00 3.754670143127441406e+00 -1.274331092834472656e+00 9.923642158508300781e+00 2.594793319702148438e+00 -1.961138129234313965e+00
3.618000000000000000e+03 5.314402008056640625e+01 2.196094703674316406e+01 5.444047227501869202e-02 7.769369125366210938e+00 2.347142934799194336e+00 -1.880417391657829285e-02
3.619000000000000000e+03 7.663923263549804688e+00 2.841284942626953125e+01 2.229126095771789551e-01 4.160897254943847656e+00 1.315142989158630371e+00 -2.878991961479187012e-01
3.620000000000000000e+03 4.708466053009033203e+00 3.020241546630859375e+01 6.615540385246276855e-02 2.337397098541259766e+00 7.210657596588134766e-01 -3.930833339691162109e-01
3.621000000000000000e+03 8.719660758972167969e+00 1.896725273132324219e+01 1.387881040573120117e-01 5.402473449707031250e+00 1.662378430366516113e+00 5.272630602121353149e-02
3.622000000000000000e+03 7.676244735717773438e+00 1.922470283508300781e+01 1.063126698136329651e-01 4.530457019805908203e+00 1.391030907630920410e+00 2.419059164822101593e-02
3.623000000000000000e+03 8.167692184448242188e+00 -3.344974994659423828e+00 5.883739590644836426e-01 5.947688579559326172e+00 1.960818767547607422e+00 3.042549371719360352e+00
3.624000000000000000e+03 8.133282661437988281e+00 -3.092074871063232422e+00 8.859439492225646973e-01 5.671366214752197266e+00 1.967193007469177246e+00 3.257604122161865234e+00
3.625000000000000000e+03 1.135263729095458984e+01 -7.616445541381835938e+00 -8.997305631637573242e-01 7.964869499206542969e+00 2.119541645050048828e+00 -6.130408048629760742e-01
3.626000000000000000e+03 1.159075069427490234e+01 -8.491563796997070312e+00 -6.360607743263244629e-01 7.806836605072021484e+00 2.151232719421386719e+00 -5.712423920631408691e-01
3.627000000000000000e+03 2.454061698913574219e+01 -2.839625358581542969e+01 2.122805453836917877e-02 7.283496856689453125e+00 2.191417455673217773e+00 2.057437598705291748e-01
3.628000000000000000e+03 2.648472976684570312e+01 -2.751862335205078125e+01 1.008458528667688370e-02 7.342756271362304688e+00 2.205852270126342773e+00 1.558234840631484985e-01
3.629000000000000000e+03 4.522526168823242188e+01 2.193699645996093750e+01 7.884626090526580811e-02 7.820352077484130859e+00 2.369759559631347656e+00 -3.641002345830202103e-03
3.630000000000000000e+03 9.727603912353515625e+00 -9.338211059570312500e+00 -6.068995594978332520e-01 6.638011932373046875e+00 1.809333682060241699e+00 -2.734077721834182739e-02
3.631000000000000000e+03 1.064590740203857422e+01 -8.617878913879394531e+00 -7.218842506408691406e-01 7.349184513092041016e+00 1.988190054893493652e+00 -2.802316248416900635e-01
3.632000000000000000e+03 4.044486045837402344e+00 5.812840938568115234e+00 2.966921031475067139e-01 1.213055491447448730e+00 4.529242813587188721e-01 -2.267269492149353027e-01
3.633000000000000000e+03 7.978912353515625000e+00 4.050257205963134766e+00 9.174083173274993896e-02 5.618286132812500000e+00 1.713008046150207520e+00 -2.203044176101684570e+00
3.634000000000000000e+03 7.756179809570312500e+00 -3.893616914749145508e+00 4.003197252750396729e-01 5.242194175720214844e+00 1.692754149436950684e+00 2.422595500946044922e+00
3.635000000000000000e+03 8.374405860900878906e+00 1.741787910461425781e+01 2.624230831861495972e-02 5.148648738861083984e+00 1.552467226982116699e+00 3.401016071438789368e-02
3.636000000000000000e+03 5.718616485595703125e+00 -7.740125179290771484e+00 -5.832034721970558167e-02 3.217959642410278320e+00 9.478918313980102539e-01 6.037207245826721191e-01
3.637000000000000000e+03 7.822747230529785156e+00 -3.477212905883789062e+00 6.849377155303955078e-01 4.988000392913818359e+00 1.701881408691406250e+00 2.684710741043090820e+00
3.638000000000000000e+03 9.735316276550292969e+00 -2.275135040283203125e+01 -1.485449355095624924e-02 6.144216060638427734e+00 1.838808417320251465e+00 1.197556704282760620e-01
3.639000000000000000e+03 2.410940361022949219e+01 -2.754083633422851562e+01 -2.583247236907482147e-02 7.368849277496337891e+00 2.202904939651489258e+00 2.103038132190704346e-01
3.640000000000000000e+03 3.227434539794921875e+01 -2.169898414611816406e+01 -4.769990220665931702e-02 7.524193286895751953e+00 2.242948055267333984e+00 4.512418434023857117e-02
3.641000000000000000e+03 6.184386730194091797e+00 -6.806682586669921875e+00 -1.734202727675437927e-02 3.614459276199340820e+00 1.079135179519653320e+00 8.528841733932495117e-01
3.642000000000000000e+03 6.786368370056152344e+00 -6.072709083557128906e+00 -2.821905910968780518e-02 4.140697956085205078e+00 1.233743786811828613e+00 1.119525790214538574e+00
3.643000000000000000e+03 6.154785633087158203e+00 -4.190203189849853516e+00 7.373158931732177734e-01 2.561158657073974609e+00 9.895423650741577148e-01 1.298718452453613281e+00
3.644000000000000000e+03 5.759362697601318359e+00 -4.025952339172363281e+00 7.901839613914489746e-01 1.990969896316528320e+00 8.343461155891418457e-01 1.054930686950683594e+00
3.645000000000000000e+03 6.532188415527343750e+00 -4.414233684539794922e+00 6.057881116867065430e-01 3.165565490722656250e+00 1.131406068801879883e+00 1.481089711189270020e+00
3.646000000000000000e+03 6.889701080322265625e+01 -2.425827598571777344e+01 -1.224453561007976532e-02 7.830922603607177734e+00 2.345603466033935547e+00 -6.141623482108116150e-02
3.647000000000000000e+03 4.485881328582763672e+00 7.268518447875976562e+00 1.194542348384857178e-01 1.833102703094482422e+00 5.857670903205871582e-01 -2.956672608852386475e-01
3.648000000000000000e+03 3.840009307861328125e+01 -1.689363098144531250e+01 -2.801258675754070282e-02 7.630417346954345703e+00 2.280721426010131836e+00 -3.403839468955993652e-02
3.649000000000000000e+03 4.922851085662841797e+00 5.630083084106445312e+00 3.491189181804656982e-01 1.909313559532165527e+00 6.775297522544860840e-01 -4.827597439289093018e-01
3.650000000000000000e+03 9.797019004821777344e+00 -2.375141143798828125e+01 -2.190564945340156555e-02 6.167941570281982422e+00 1.843810796737670898e+00 6.335382163524627686e-02
3.651000000000000000e+03 8.920338630676269531e+00 -2.284839820861816406e+01 -4.145370330661535263e-03 5.369332790374755859e+00 1.609556198120117188e+00 8.159605413675308228e-02
3.652000000000000000e+03 9.664640426635742188e+00 -7.535856246948242188e+00 -9.097343087196350098e-01 7.141220092773437500e+00 1.869445800781250000e+00 1.228755190968513489e-01
3.653000000000000000e+03 7.967683315277099609e+00 -1.055296993255615234e+01 -3.637723624706268311e-01 5.107165336608886719e+00 1.423017978668212891e+00 1.823009252548217773e-01
3.654000000000000000e+03 7.897717952728271484e+00 -4.848596096038818359e+00 -1.631486862897872925e-01 5.674175262451171875e+00 1.653308033943176270e+00 1.856266260147094727e+00
3.655000000000000000e+03 8.043357849121093750e+00 4.397037029266357422e+00 -9.335488826036453247e-02 5.796735286712646484e+00 1.711014032363891602e+00 -2.000602722167968750e+00
3.656000000000000000e+03 8.501707077026367188e+00 1.435641574859619141e+01 -7.443849742412567139e-02 5.344554901123046875e+00 1.581034898757934570e+00 9.844256937503814697e-02
3.657000000000000000e+03 2.771756362915039062e+01 1.477515411376953125e+01 5.535585060715675354e-02 8.114713668823242188e+00 2.451020956039428711e+00 4.806729406118392944e-02
3.658000000000000000e+03 6.793478393554687500e+01 -2.193944931030273438e+01 -1.125196646898984909e-02 7.816077709197998047e+00 2.341447830200195312e+00 -7.034388929605484009e-02
3.659000000000000000e+03 8.545351028442382812e+00 -1.123798465728759766e+01 -3.210965692996978760e-01 5.505696296691894531e+00 1.555379986763000488e+00 9.544070810079574585e-02
3.660000000000000000e+03 5.838915252685546875e+01 -2.148882675170898438e+01 -3.660466894507408142e-02 7.755680561065673828e+00 2.315722703933715820e+00 -9.543499350547790527e-02
3.661000000000000000e+03 7.390550231933593750e+01 -2.971595191955566406e+01 -5.321095231920480728e-03 7.897119522094726562e+00 2.367539644241333008e+00 -3.154344484210014343e-02
3.662000000000000000e+03 5.616056919097900391e+00 7.401513576507568359e+00 6.399053148925304413e-03 2.990592241287231445e+00 8.990974426269531250e-01 -5.087444782257080078e-01
3.663000000000000000e+03 7.721271991729736328e+00 4.447654724121093750e+00 5.651390552520751953e-02 5.218202590942382812e+00 1.582414865493774414e+00 -1.891423702239990234e+00
3.664000000000000000e+03 8.678013801574707031e+00 4.781340599060058594e+00 -7.524349689483642578e-01 7.210924625396728516e+00 1.937546849250793457e+00 -1.580708026885986328e+00
3.665000000000000000e+03 7.704868793487548828e+00 -6.298350811004638672e+00 -3.860660791397094727e-01 5.318491458892822266e+00 1.479727625846862793e+00 1.072407007217407227e+00
3.666000000000000000e+03 8.025400161743164062e+00 -5.995444774627685547e+00 -5.111439228057861328e-01 5.848112583160400391e+00 1.601090669631958008e+00 1.224946379661560059e+00
3.667000000000000000e+03 6.977814197540283203e+00 -7.372075080871582031e+00 -2.926966249942779541e-01 4.509081363677978516e+00 1.264915466308593750e+00 7.492492198944091797e-01
3.668000000000000000e+03 7.331543922424316406e+00 -7.012294769287109375e+00 -3.417298197746276855e-01 4.873477458953857422e+00 1.359524250030517578e+00 8.180410861968994141e-01
3.669000000000000000e+03 4.742361831665039062e+01 1.356523704528808594e+01 8.418731391429901123e-02 7.789007663726806641e+00 2.361958503723144531e+00 -3.555217385292053223e-02
3.670000000000000000e+03 4.822071456909179688e+01 1.224456024169921875e+01 8.093703538179397583e-02 7.782692432403564453e+00 2.359088897705078125e+00 -4.320328682661056519e-02
3.671000000000000000e+03 2.847848892211914062e+01 1.907588958740234375e+01 5.929148569703102112e-02 8.091726303100585938e+00 2.445305109024047852e+00 1.314028049819171429e-03
3.672000000000000000e+03 6.652250671386718750e+01 -2.108448028564453125e+01 -1.650785095989704132e-02 7.803864955902099609e+00 2.336207151412963867e+00 -7.636169344186782837e-02
3.673000000000000000e+03 5.079014968872070312e+01 9.117700576782226562e+00 6.984672695398330688e-02 7.757273197174072266e+00 2.348135948181152344e+00 -6.063379719853401184e-02
3.674000000000000000e+03 5.646425247192382812e+01 -1.774672508239746094e+01 -2.224330604076385498e-02 7.739987373352050781e+00 2.315323114395141602e+00 -1.007737591862678528e-01
3.675000000000000000e+03 6.487715721130371094e+00 7.541664600372314453e+00 -1.612790971994400024e-01 3.938560724258422852e+00 1.133184552192687988e+00 -5.291033983230590820e-01
3.676000000000000000e+03 3.070049095153808594e+01 1.774313735961914062e+01 7.956751435995101929e-02 8.043625831604003906e+00 2.436958074569702148e+00 1.200118102133274078e-02
3.677000000000000000e+03 2.795218467712402344e+01 2.355398750305175781e+01 5.419226735830307007e-02 8.108178138732910156e+00 2.448711156845092773e+00 -3.283775597810745239e-02
3.678000000000000000e+03 6.020792388916015625e+01 1.148214721679687500e+01 3.874363377690315247e-02 7.726879119873046875e+00 2.329686880111694336e+00 -5.875176191329956055e-02
3.679000000000000000e+03 2.869988250732421875e+01 1.330298614501953125e+01 7.671013474464416504e-02 8.078955650329589844e+00 2.446699619293212891e+00 5.976467952132225037e-02
3.680000000000000000e+03 6.375210571289062500e+01 6.673390388488769531e+00 2.571602351963520050e-02 7.720353126525878906e+00 2.323820829391479492e+00 -6.903526186943054199e-02
3.681000000000000000e+03 7.037975311279296875e+01 -8.149113655090332031e+00 2.969561144709587097e-03 7.768006324768066406e+00 2.331292629241943359e+00 -6.997273117303848267e-02
3.682000000000000000e+03 4.106543350219726562e+01 -5.740445613861083984e+00 3.219016641378402710e-02 7.733835220336914062e+00 2.329807519912719727e+00 -5.937108397483825684e-02
3.683000000000000000e+03 7.006954193115234375e+01 -8.951712608337402344e+00 1.518090954050421715e-03 7.770130157470703125e+00 2.331494331359863281e+00 -7.120687514543533325e-02
3.684000000000000000e+03 5.121207809448242188e+01 -6.471502780914306641e-01 4.438050836324691772e-02 7.743790149688720703e+00 2.336451292037963867e+00 -9.015427529811859131e-02
3.685000000000000000e+03 5.236676406860351562e+01 3.473391830921173096e-01 4.466874524950981140e-02 7.741480827331542969e+00 2.335844755172729492e+00 -8.951675146818161011e-02
3.686000000000000000e+03 7.161754608154296875e+01 5.737898349761962891e+00 8.711630478501319885e-03 7.701797008514404297e+00 2.313152551651000977e+00 -4.811326041817665100e-02
3.687000000000000000e+03 2.981837081909179688e+01 -4.857350826263427734e+00 -3.466687398031353951e-03 7.811347484588623047e+00 2.342364072799682617e+00 8.305724710226058960e-02
3.688000000000000000e+03 3.893008041381835938e+01 -5.499512195587158203e+00 3.714690729975700378e-02 7.744774341583251953e+00 2.334576368331909180e+00 -4.114615917205810547e-02
3.689000000000000000e+03 6.366014099121093750e+01 1.333770394325256348e+00 2.099890634417533875e-02 7.730635166168212891e+00 2.325490236282348633e+00 -8.188381791114807129e-02
3.690000000000000000e+03 6.314045333862304688e+01 -1.243524476885795593e-01 2.026323229074478149e-02 7.735697746276855469e+00 2.326788187026977539e+00 -8.604034036397933960e-02
3.691000000000000000e+03 4.707745361328125000e+01 -1.055726051330566406e+00 5.026104673743247986e-02 7.748107910156250000e+00 2.339510679244995117e+00 -8.268953114748001099e-02
3.692000000000000000e+03 4.584564971923828125e+01 -3.611357212066650391e-01 5.844600126147270203e-02 7.753791809082031250e+00 2.343671321868896484e+00 -7.515979558229446411e-02
3.693000000000000000e+03 6.273054885864257812e+01 -1.578021168708801270e+00 1.786427944898605347e-02 7.737099170684814453e+00 2.326488971710205078e+00 -8.928713947534561157e-02
3.694000000000000000e+03 6.444915771484375000e+01 -7.264822125434875488e-01 1.648679375648498535e-02 7.735092639923095703e+00 2.325473785400390625e+00 -8.410430699586868286e-02
3.695000000000000000e+03 9.900979042053222656e+00 -9.946446865797042847e-03 3.989041900634765625e+01 7.084325313568115234e+00 1.409242248535156250e+01 1.383843421936035156e+01
3.696000000000000000e+03 9.904818534851074219e+00 -2.906142920255661011e-02 3.675199890136718750e+01 2.083991813659667969e+01 1.727757453918457031e+01 2.638431167602539062e+01
3.697000000000000000e+03 9.912311553955078125e+00 -4.706101492047309875e-02 3.389416885375976562e+01 3.430630111694335938e+01 2.046014213562011719e+01 3.084521865844726562e+01
3.698000000000000000e+03 9.923169136047363281e+00 -6.325436383485794067e-02 2.924441337585449219e+01 4.827095031738281250e+01 2.325461006164550781e+01 3.218333053588867188e+01
3.699000000000000000e+03 9.936976432800292969e+00 -7.701997458934783936e-02 2.506863594055175781e+01 6.093780899047851562e+01 2.580193328857421875e+01 3.010298347473144531e+01
3.700000000000000000e+03 9.953202247619628906e+00 -8.782950043678283691e-02 2.113265609741210938e+01 7.179418182373046875e+01 2.787804985046386719e+01 2.516911888122558594e+01
3.701000000000000000e+03 9.971223831176757812e+00 -9.526807069778442383e-02 1.902409553527832031e+01 7.965801239013671875e+01 2.960463333129882812e+01 1.815663337707519531e+01
3.702000000000000000e+03 9.990350723266601562e+00 -9.905018657445907593e-02 1.874707794189453125e+01 8.395124053955078125e+01 3.080949401855468750e+01 9.944771766662597656e+00
3.703000000000000000e+03 1.000984764099121094e+01 -9.903068840503692627e-02 2.100442504882812500e+01 8.467659759521484375e+01 3.170430755615234375e+01 1.870372295379638672e+00
3.704000000000000000e+03 1.002896595001220703e+01 -9.521032124757766724e-02 2.518063545227050781e+01 8.210634613037109375e+01 3.218609237670898438e+01 -5.119638442993164062e+00
3.705000000000000000e+03 1.004697322845458984e+01 -8.773572742938995361e-02 3.081448364257812500e+01 7.724509429931640625e+01 3.241787338256835938e+01 -1.003869819641113281e+01
3.706000000000000000e+03 1.006317710876464844e+01 -7.689376920461654663e-02 3.709553527832031250e+01 7.108184814453125000e+01 3.245321655273437500e+01 -1.253982067108154297e+01
3.707000000000000000e+03 1.007695674896240234e+01 -6.310057640075683594e-02 4.302481079101562500e+01 6.475873565673828125e+01 3.233506393432617188e+01 -1.259347152709960938e+01
3.708000000000000000e+03 1.008778285980224609e+01 -4.688554257154464722e-02 4.810973358154296875e+01 5.924502944946289062e+01 3.220642852783203125e+01 -1.047815704345703125e+01
3.709000000000000000e+03 1.009523963928222656e+01 -2.887100912630558014e-02 5.164962005615234375e+01 5.520305252075195312e+01 3.205580139160156250e+01 -6.822364807128906250e+00
3.710000000000000000e+03 1.009904003143310547e+01 -9.748386219143867493e-03 5.354300689697265625e+01 5.309922409057617188e+01 3.199267005920410156e+01 -2.103531837463378906e+00
3.711000000000000000e+03 1.009904003143310547e+01 9.748386219143867493e-03 5.353702545166015625e+01 5.308399200439453125e+01 3.198630523681640625e+01 2.864973545074462891e+00
3.712000000000000000e+03 1.009523963928222656e+01 2.887100912630558014e-02 5.163397598266601562e+01 5.517197418212890625e+01 3.204178619384765625e+01 7.592093467712402344e+00
3.713000000000000000e+03 1.008778285980224609e+01 4.688554257154464722e-02 4.806982421875000000e+01 5.930894088745117188e+01 3.221363067626953125e+01 1.128951644897460938e+01
3.714000000000000000e+03 1.007695674896240234e+01 6.310057640075683594e-02 4.282373046875000000e+01 6.478385925292968750e+01 3.228227615356445312e+01 1.347592735290527344e+01
3.715000000000000000e+03 1.006317710876464844e+01 7.689376920461654663e-02 3.680650329589843750e+01 7.113826751708984375e+01 3.238343048095703125e+01 1.343697166442871094e+01
3.716000000000000000e+03 1.004697322845458984e+01 8.773572742938995361e-02 3.032645034790039062e+01 7.731615447998046875e+01 3.229278182983398438e+01 1.093709754943847656e+01
3.717000000000000000e+03 1.002896595001220703e+01 9.521032124757766724e-02 2.450166320800781250e+01 8.215188598632812500e+01 3.199606513977050781e+01 6.005885601043701172e+00
3.718000000000000000e+03 1.000984764099121094e+01 9.903068840503692627e-02 2.007339859008789062e+01 8.464274597167968750e+01 3.141484451293945312e+01 -9.982288479804992676e-01
3.719000000000000000e+03 9.990350723266601562e+00 9.905018657445907593e-02 1.761713790893554688e+01 8.384412384033203125e+01 3.043837738037109375e+01 -9.069296836853027344e+00
3.720000000000000000e+03 9.971223831176757812e+00 9.526807069778442383e-02 1.763666152954101562e+01 7.945654296875000000e+01 2.912796211242675781e+01 -1.729099655151367188e+01
3.721000000000000000e+03 9.953202247619628906e+00 8.782950043678283691e-02 1.942508888244628906e+01 7.151855468750000000e+01 2.728309249877929688e+01 -2.430112648010253906e+01
3.722000000000000000e+03 9.936976432800292969e+00 7.701997458934783936e-02 2.304502677917480469e+01 6.067218399047851562e+01 2.511516380310058594e+01 -2.923727226257324219e+01
3.723000000000000000e+03 9.923169136047363281e+00 6.325436383485794067e-02 2.691317176818847656e+01 4.802391052246093750e+01 2.248112487792968750e+01 -3.137602806091308594e+01
3.724000000000000000e+03 9.912311553955078125e+00 4.706101492047309875e-02 3.120938682556152344e+01 3.410624694824218750e+01 1.959469032287597656e+01 -3.018181991577148438e+01
3.725000000000000000e+03 9.904818534851074219e+00 2.906142920255661011e-02 3.385979843139648438e+01 2.075491714477539062e+01 1.638441467285156250e+01 -2.589695167541503906e+01
3.726000000000000000e+03 9.900979042053222656e+00 9.946446865797042847e-03 3.688162994384765625e+01 7.046975135803222656e+00 1.317858219146728516e+01 -1.356342029571533203e+01
