# el_label, x, y, sXX, sYY, sZZ, sXY
1.000000000000000000e+00 4.272810745239257812e+01 3.323241043090820312e+01 -6.864881515502929688e+00 -1.737718105316162109e+00 -2.580779790878295898e+00 -2.085191726684570312e+00
2.000000000000000000e+00 4.252987670898437500e+01 3.325033569335937500e+01 -8.984798789024353027e-01 7.046948671340942383e-01 -5.813552066683769226e-02 1.072164773941040039e+00
3.000000000000000000e+00 4.233164215087890625e+01 3.326826477050781250e+01 -2.267467975616455078e+00 -4.972283840179443359e-01 -8.294088840484619141e-01 2.583560347557067871e-01
4.000000000000000000e+00 4.213341140747070312e+01 3.328619384765625000e+01 -2.308075428009033203e+00 1.204401254653930664e-01 -6.562905907630920410e-01 5.894480347633361816e-01
5.000000000000000000e+00 4.272856140136718750e+01 3.317400741577148438e+01 1.012024116516113281e+01 -2.653791427612304688e+00 2.239934921264648438e+00 -5.893846154212951660e-01
6.000000000000000000e+00 4.253063201904296875e+01 3.315299987792968750e+01 3.243207931518554688e+00 -1.018932759761810303e-01 9.423943758010864258e-01 6.293598413467407227e-01
7.000000000000000000e+00 4.233270263671875000e+01 3.313199234008789062e+01 3.553845643997192383e+00 2.325204163789749146e-01 1.135909795761108398e+00 1.471602439880371094e+00
8.000000000000000000e+00 4.213477325439453125e+01 3.311098480224609375e+01 2.088582992553710938e+00 -2.753382027149200439e-01 5.439733862876892090e-01 8.688321113586425781e-01
9.000000000000000000e+00 4.274037551879882812e+01 3.311680984497070312e+01 1.802813911437988281e+01 -3.121069967746734619e-01 5.314809799194335938e+00 5.985974788665771484e+00
1.000000000000000000e+01 4.255032348632812500e+01 3.305767059326171875e+01 1.061897563934326172e+01 4.231467470526695251e-02 3.198387145996093750e+00 3.363073587417602539e+00
1.100000000000000000e+01 4.236027145385742188e+01 3.299853134155273438e+01 7.219811439514160156e+00 6.251036524772644043e-01 2.353474617004394531e+00 2.991626977920532227e+00
1.200000000000000000e+01 4.217021942138671875e+01 3.293939590454101562e+01 6.390662670135498047e+00 6.667597889900207520e-01 2.117226839065551758e+00 2.974333286285400391e+00
1.300000000000000000e+01 4.276309967041015625e+01 3.306300735473632812e+01 2.200791549682617188e+01 4.762721061706542969e+00 8.031190872192382812e+00 1.204241275787353516e+01
1.400000000000000000e+01 4.258819961547851562e+01 3.296800231933593750e+01 1.396458148956298828e+01 2.682578325271606445e+00 4.994147777557373047e+00 7.791714191436767578e+00
1.500000000000000000e+01 4.241329574584960938e+01 3.287299346923828125e+01 1.099629688262939453e+01 2.450170993804931641e+00 4.033940315246582031e+00 6.043693542480468750e+00
1.600000000000000000e+01 4.223839187622070312e+01 3.277798843383789062e+01 8.799687385559082031e+00 1.971382021903991699e+00 3.231320858001708984e+00 5.273186206817626953e+00
1.700000000000000000e+01 4.279586410522460938e+01 3.301465988159179688e+01 2.167396926879882812e+01 1.183228015899658203e+01 1.005187511444091797e+01 1.716316795349121094e+01
1.800000000000000000e+01 4.264280700683593750e+01 3.288742065429687500e+01 1.544103908538818359e+01 7.528050422668457031e+00 6.890727043151855469e+00 1.170196628570556641e+01
1.900000000000000000e+01 4.248974227905273438e+01 3.276018142700195312e+01 1.198769187927246094e+01 5.861445903778076172e+00 5.354741096496582031e+00 9.292714118957519531e+00
2.000000000000000000e+01 4.233668518066406250e+01 3.263294219970703125e+01 1.036112308502197266e+01 5.033190727233886719e+00 4.618294239044189453e+00 7.965607166290283203e+00
2.100000000000000000e+01 4.283741378784179688e+01 3.297361373901367188e+01 1.955511856079101562e+01 2.044760513305664062e+01 1.200081634521484375e+01 1.994309425354003906e+01
2.200000000000000000e+01 4.271205520629882812e+01 3.281900787353515625e+01 1.432004451751708984e+01 1.351345539093017578e+01 8.350049972534179688e+00 1.440082836151123047e+01
2.300000000000000000e+01 4.258669281005859375e+01 3.266440582275390625e+01 1.183599090576171875e+01 1.084811019897460938e+01 6.805230140686035156e+00 1.178949832916259766e+01
2.400000000000000000e+01 4.246133422851562500e+01 3.250980377197265625e+01 9.966538429260253906e+00 9.195059776306152344e+00 5.748479366302490234e+00 1.006221294403076172e+01
2.500000000000000000e+01 4.288616180419921875e+01 3.294144058227539062e+01 1.592406082153320312e+01 2.894837760925292969e+01 1.346173191070556641e+01 2.021952056884765625e+01
2.600000000000000000e+01 4.279329681396484375e+01 3.276539230346679688e+01 1.254256725311279297e+01 2.033367919921875000e+01 9.862874031066894531e+00 1.530975532531738281e+01
2.700000000000000000e+01 4.270043182373046875e+01 3.258934020996093750e+01 1.014271640777587891e+01 1.621955871582031250e+01 7.908682823181152344e+00 1.284988403320312500e+01
2.800000000000000000e+01 4.260757064819335938e+01 3.241329193115234375e+01 8.906032562255859375e+00 1.423750877380371094e+01 6.943062305450439453e+00 1.121282958984375000e+01
2.900000000000000000e+01 4.294023513793945312e+01 3.291937637329101562e+01 1.300848484039306641e+01 3.687163543701171875e+01 1.496403598785400391e+01 1.786563682556152344e+01
3.000000000000000000e+01 4.288342285156250000e+01 3.272861480712890625e+01 1.011184978485107422e+01 2.639496803283691406e+01 1.095204544067382812e+01 1.450418472290039062e+01
3.100000000000000000e+01 4.282660675048828125e+01 3.253785705566406250e+01 8.433106422424316406e+00 2.199380302429199219e+01 9.128072738647460938e+00 1.234570217132568359e+01
3.200000000000000000e+01 4.276979827880859375e+01 3.234709548950195312e+01 7.082427978515625000e+00 1.881855392456054688e+01 7.770294666290283203e+00 1.085063362121582031e+01
3.300000000000000000e+01 4.299757385253906250e+01 3.290826034545898438e+01 1.081662178039550781e+01 4.255171203613281250e+01 1.601049995422363281e+01 1.388979911804199219e+01
3.400000000000000000e+01 4.297898483276367188e+01 3.271009063720703125e+01 8.699952125549316406e+00 3.177019309997558594e+01 1.214104366302490234e+01 1.191648006439208984e+01
3.500000000000000000e+01 4.296039581298828125e+01 3.251192092895507812e+01 6.750581264495849609e+00 2.640199470520019531e+01 9.945772171020507812e+00 1.068215274810791016e+01
3.600000000000000000e+01 4.294180679321289062e+01 3.231374740600585938e+01 5.592060089111328125e+00 2.370480537414550781e+01 8.789059638977050781e+00 9.304795265197753906e+00
3.700000000000000000e+01 4.305597686767578125e+01 3.290851974487304688e+01 1.086741065979003906e+01 4.604978942871093750e+01 1.707516098022460938e+01 8.897351264953613281e+00
3.800000000000000000e+01 4.307632446289062500e+01 3.271052169799804688e+01 7.930424213409423828e+00 3.536845779418945312e+01 1.298966503143310547e+01 8.528626441955566406e+00
3.900000000000000000e+01 4.309667205810546875e+01 3.251252365112304688e+01 6.393930435180664062e+00 2.977991485595703125e+01 1.085215377807617188e+01 7.658729553222656250e+00
4.000000000000000000e+01 4.311701965332031250e+01 3.231452560424804688e+01 4.897231101989746094e+00 2.643061828613281250e+01 9.398354530334472656e+00 7.528522014617919922e+00
4.100000000000000000e+01 4.311321258544921875e+01 3.292014694213867188e+01 1.259437084197998047e+01 4.715524673461914062e+01 1.792488479614257812e+01 4.130395889282226562e+00
4.200000000000000000e+01 4.317171859741210938e+01 3.272989654541015625e+01 8.689230918884277344e+00 3.711122131347656250e+01 1.374013614654541016e+01 4.675439834594726562e+00
4.300000000000000000e+01 4.323022460937500000e+01 3.253964614868164062e+01 6.914410114288330078e+00 3.173133277893066406e+01 1.159372329711914062e+01 4.493887901306152344e+00
4.400000000000000000e+01 4.328872680664062500e+01 3.234939956665039062e+01 5.855922222137451172e+00 2.754595947265625000e+01 1.002056407928466797e+01 4.307226181030273438e+00
4.500000000000000000e+01 4.316709136962890625e+01 3.294269180297851562e+01 1.552854728698730469e+01 4.615042114257812500e+01 1.850369071960449219e+01 2.496659904718399048e-01
4.600000000000000000e+01 4.326151275634765625e+01 3.276747131347656250e+01 1.089718818664550781e+01 3.736676025390625000e+01 1.447918415069580078e+01 1.321835994720458984e+00
4.700000000000000000e+01 4.335593795776367188e+01 3.259225082397460938e+01 8.460683822631835938e+00 3.173657417297363281e+01 1.205917739868164062e+01 1.390943646430969238e+00
4.800000000000000000e+01 4.345035934448242188e+01 3.241703414916992188e+01 7.398536682128906250e+00 2.862320518493652344e+01 1.080652236938476562e+01 1.351990461349487305e+00
4.900000000000000000e+01 4.321554946899414062e+01 3.297529602050781250e+01 1.978314971923828125e+01 4.417113113403320312e+01 1.918628501892089844e+01 -2.103917121887207031e+00
5.000000000000000000e+01 4.334227752685546875e+01 3.282181167602539062e+01 1.361339950561523438e+01 3.582448196411132812e+01 1.483136367797851562e+01 -1.094717860221862793e+00
5.100000000000000000e+01 4.346900558471679688e+01 3.266832733154296875e+01 1.106946754455566406e+01 3.119267463684082031e+01 1.267864227294921875e+01 -8.757972717285156250e-01
5.200000000000000000e+01 4.359573364257812500e+01 3.251483917236328125e+01 9.341492652893066406e+00 2.756328773498535156e+01 1.107143402099609375e+01 -6.151234507560729980e-01
5.300000000000000000e+01 4.325672912597656250e+01 3.301670455932617188e+01 2.318746948242187500e+01 4.132085037231445312e+01 1.935249710083007812e+01 -3.012694358825683594e+00
5.400000000000000000e+01 4.341091537475585938e+01 3.289083099365234375e+01 1.758025741577148438e+01 3.386534500122070312e+01 1.543368148803710938e+01 -2.172264337539672852e+00
5.500000000000000000e+01 4.356510162353515625e+01 3.276495361328125000e+01 1.344932365417480469e+01 2.933421134948730469e+01 1.283506011962890625e+01 -1.685607790946960449e+00
5.600000000000000000e+01 4.371928405761718750e+01 3.263908004760742188e+01 1.180223178863525391e+01 2.628100204467773438e+01 1.142497062683105469e+01 -1.868140101432800293e+00
5.700000000000000000e+01 4.328906631469726562e+01 3.306534194946289062e+01 2.725582695007324219e+01 3.906953811645507812e+01 1.989760971069335938e+01 -2.067336559295654297e+00
5.800000000000000000e+01 4.346480560302734375e+01 3.297189331054687500e+01 2.003105354309082031e+01 3.133082771301269531e+01 1.540856456756591797e+01 -2.147804260253906250e+00
5.900000000000000000e+01 4.364054489135742188e+01 3.287844467163085938e+01 1.716953277587890625e+01 2.742786598205566406e+01 1.337922000885009766e+01 -1.221516013145446777e+00
6.000000000000000000e+01 4.381628417968750000e+01 3.278499221801757812e+01 1.314862728118896484e+01 2.464933586120605469e+01 1.133938884735107422e+01 -1.270227670669555664e+00
6.100000000000000000e+01 4.331130981445312500e+01 3.311934280395507812e+01 2.914174270629882812e+01 3.669655609130859375e+01 1.975148963928222656e+01 -6.151142716407775879e-01
6.200000000000000000e+01 4.350188064575195312e+01 3.306189727783203125e+01 2.285904693603515625e+01 2.985745239257812500e+01 1.581494998931884766e+01 -2.374717146158218384e-01
6.300000000000000000e+01 4.369245147705078125e+01 3.300444793701171875e+01 1.858713722229003906e+01 2.543041419982910156e+01 1.320526504516601562e+01 -4.259312748908996582e-01
6.400000000000000000e+01 4.388302230834960938e+01 3.294699859619140625e+01 1.687218856811523438e+01 2.336778068542480469e+01 1.207199096679687500e+01 4.330491125583648682e-01
6.500000000000000000e+01 4.332261657714843750e+01 3.317664337158203125e+01 3.050234031677246094e+01 3.597478866577148438e+01 1.994313812255859375e+01 2.218283176422119141e+00
6.600000000000000000e+01 4.352072525024414062e+01 3.315739440917968750e+01 2.354190444946289062e+01 2.862900161743164062e+01 1.565127182006835938e+01 1.725749135017395020e+00
6.700000000000000000e+01 4.371883392333984375e+01 3.313814544677734375e+01 1.977936363220214844e+01 2.482603836059570312e+01 1.338162040710449219e+01 1.927352666854858398e+00
6.800000000000000000e+01 4.391694259643554688e+01 3.311889648437500000e+01 1.722392272949218750e+01 2.258007431030273438e+01 1.194119930267333984e+01 1.259500384330749512e+00
6.900000000000000000e+01 4.332255172729492188e+01 3.323505020141601562e+01 2.995134162902832031e+01 3.590982437133789062e+01 1.975835037231445312e+01 4.690238475799560547e+00
7.000000000000000000e+01 4.352061843872070312e+01 3.325473785400390625e+01 2.309528541564941406e+01 2.891053199768066406e+01 1.560174560546875000e+01 4.629184722900390625e+00
7.100000000000000000e+01 4.371868133544921875e+01 3.327442550659179688e+01 1.914217758178710938e+01 2.504396438598632812e+01 1.325584220886230469e+01 3.602711677551269531e+00
7.200000000000000000e+01 4.391674804687500000e+01 3.329410934448242188e+01 1.591412353515625000e+01 2.258901596069335938e+01 1.155094146728515625e+01 4.019349098205566406e+00
7.300000000000000000e+01 4.331111907958984375e+01 3.329232406616210938e+01 2.784389495849609375e+01 3.742453765869140625e+01 1.958053016662597656e+01 7.586212158203125000e+00
7.400000000000000000e+01 4.350156021118164062e+01 3.335019302368164062e+01 2.114145851135253906e+01 2.994058227539062500e+01 1.532461261749267578e+01 6.348535060882568359e+00
7.500000000000000000e+01 4.369200515747070312e+01 3.340806579589843750e+01 1.688641929626464844e+01 2.648508071899414062e+01 1.301144981384277344e+01 5.966346263885498047e+00
7.600000000000000000e+01 4.388244628906250000e+01 3.346593475341796875e+01 1.485125160217285156e+01 2.306539344787597656e+01 1.137499332427978516e+01 5.241496562957763672e+00
7.700000000000000000e+01 4.328875350952148438e+01 3.334627532958984375e+01 2.453385353088378906e+01 3.929515075683593750e+01 1.914870071411132812e+01 9.259981155395507812e+00
7.800000000000000000e+01 4.346428680419921875e+01 3.344011306762695312e+01 1.744520187377929688e+01 3.262354278564453125e+01 1.502062416076660156e+01 7.612448692321777344e+00
7.900000000000000000e+01 4.363981628417968750e+01 3.353395462036132812e+01 1.443926525115966797e+01 2.750752830505371094e+01 1.258403778076171875e+01 6.748297691345214844e+00
8.000000000000000000e+01 4.381535339355468750e+01 3.362779235839843750e+01 1.194958591461181641e+01 2.543335533142089844e+01 1.121488285064697266e+01 6.162034034729003906e+00
8.100000000000000000e+01 4.325631332397460938e+01 3.339484024047851562e+01 1.982395362854003906e+01 4.230506896972656250e+01 1.863870620727539062e+01 9.658761978149414062e+00
8.200000000000000000e+01 4.341021728515625000e+01 3.352105712890625000e+01 1.359428215026855469e+01 3.493521118164062500e+01 1.455884742736816406e+01 7.657832622528076172e+00
8.300000000000000000e+01 4.356412124633789062e+01 3.364727401733398438e+01 1.048449134826660156e+01 3.002421569824218750e+01 1.215261268615722656e+01 6.052587032318115234e+00
8.400000000000000000e+01 4.371802902221679688e+01 3.377349090576171875e+01 9.139639854431152344e+00 2.609732627868652344e+01 1.057108974456787109e+01 5.789793491363525391e+00
8.500000000000000000e+01 4.321503829956054688e+01 3.343616485595703125e+01 1.487073707580566406e+01 4.568431854248046875e+01 1.816651725769042969e+01 8.291994094848632812e+00
8.600000000000000000e+01 4.334142684936523438e+01 3.358992767333984375e+01 9.267113685607910156e+00 3.658147048950195312e+01 1.375457477569580078e+01 6.049319744110107422e+00
8.700000000000000000e+01 4.346781539916992188e+01 3.374369049072265625e+01 7.087578773498535156e+00 3.238405227661132812e+01 1.184148979187011719e+01 4.751733779907226562e+00
8.800000000000000000e+01 4.359420394897460938e+01 3.389745330810546875e+01 5.023594856262207031e+00 2.782045173645019531e+01 9.853214263916015625e+00 3.466269969940185547e+00
8.900000000000000000e+01 4.316650772094726562e+01 3.346865844726562500e+01 9.586280822753906250e+00 4.744547271728515625e+01 1.710952568054199219e+01 5.406130313873291016e+00
9.000000000000000000e+01 4.326054382324218750e+01 3.364408493041992188e+01 6.107416152954101562e+00 3.810859680175781250e+01 1.326480388641357422e+01 2.824857234954833984e+00
9.100000000000000000e+01 4.335457992553710938e+01 3.381951522827148438e+01 3.741566181182861328e+00 3.229337310791015625e+01 1.081048202514648438e+01 2.387416124343872070e+00
9.200000000000000000e+01 4.344861221313476562e+01 3.399494171142578125e+01 3.149018049240112305e+00 3.061160087585449219e+01 1.012818622589111328e+01 2.065012931823730469e+00
9.300000000000000000e+01 4.311257934570312500e+01 3.349108505249023438e+01 6.010432720184326172e+00 4.822711944580078125e+01 1.627126502990722656e+01 5.823513269424438477e-01
9.400000000000000000e+01 4.317066574096679688e+01 3.368146133422851562e+01 3.509932994842529297e+00 3.724518966674804688e+01 1.222653770446777344e+01 -9.041092395782470703e-01
9.500000000000000000e+01 4.322874832153320312e+01 3.387184143066406250e+01 2.039067506790161133e+00 3.187426948547363281e+01 1.017400074005126953e+01 -1.012655854225158691e+00
9.600000000000000000e+01 4.328683090209960938e+01 3.406221771240234375e+01 2.442413091659545898e+00 2.772764205932617188e+01 9.051016807556152344e+00 -4.581860005855560303e-01
9.700000000000000000e+01 4.305532073974609375e+01 3.350258255004882812e+01 4.348018646240234375e+00 4.643663406372070312e+01 1.523539543151855469e+01 -4.887517452239990234e+00
9.800000000000000000e+01 4.307522964477539062e+01 3.370062637329101562e+01 2.071169376373291016e+00 3.482109069824218750e+01 1.106767845153808594e+01 -5.168250560760498047e+00
9.900000000000000000e+01 4.309513854980468750e+01 3.389867019653320312e+01 2.132649421691894531e+00 2.897597312927246094e+01 9.332587242126464844e+00 -4.273073673248291016e+00
1.000000000000000000e+02 4.311504745483398438e+01 3.409671020507812500e+01 8.087590932846069336e-01 2.476032638549804688e+01 7.670725345611572266e+00 -4.761440753936767578e+00
1.010000000000000000e+02 4.299691390991210938e+01 3.350271224975585938e+01 3.672063827514648438e+00 4.170450210571289062e+01 1.361297035217285156e+01 -1.054346942901611328e+01
1.020000000000000000e+02 4.297788619995117188e+01 3.370083999633789062e+01 3.251319885253906250e+00 3.048545837402343750e+01 1.012103366851806641e+01 -8.448179244995117188e+00
1.030000000000000000e+02 4.295885848999023438e+01 3.389897155761718750e+01 1.816494345664978027e+00 2.453898048400878906e+01 7.906642436981201172e+00 -7.854587078094482422e+00
1.040000000000000000e+02 4.293983459472656250e+01 3.409710311889648438e+01 1.529029250144958496e+00 2.185827827453613281e+01 7.016192436218261719e+00 -6.667058467864990234e+00
1.050000000000000000e+02 4.293960189819335938e+01 3.349147033691406250e+01 6.141046047210693359e+00 3.507584381103515625e+01 1.236506652832031250e+01 -1.429616928100585938e+01
1.060000000000000000e+02 4.288236618041992188e+01 3.368210220336914062e+01 4.172173976898193359e+00 2.393928718566894531e+01 8.433438301086425781e+00 -1.124679660797119141e+01
1.070000000000000000e+02 4.282513427734375000e+01 3.387273788452148438e+01 3.391088008880615234e+00 1.979636764526367188e+01 6.956236839294433594e+00 -9.161150932312011719e+00
1.080000000000000000e+02 4.276789474487304688e+01 3.406337356567382812e+01 2.334457397460937500e+00 1.653162765502929688e+01 5.659825325012207031e+00 -8.311675071716308594e+00
1.090000000000000000e+02 4.288557815551757812e+01 3.346928405761718750e+01 8.575610160827636719e+00 2.563973808288574219e+01 1.026460456848144531e+01 -1.639903068542480469e+01
1.100000000000000000e+02 4.279232406616210938e+01 3.364512634277343750e+01 6.335609912872314453e+00 1.746584129333496094e+01 7.140435218811035156e+00 -1.158724117279052734e+01
1.110000000000000000e+02 4.269906997680664062e+01 3.382097244262695312e+01 4.560700416564941406e+00 1.335702896118164062e+01 5.375319004058837891e+00 -9.433368682861328125e+00
1.120000000000000000e+02 4.260581588745117188e+01 3.399681854248046875e+01 3.527890443801879883e+00 1.198115158081054688e+01 4.652712345123291016e+00 -8.020120620727539062e+00
1.130000000000000000e+02 4.283690261840820312e+01 3.343700408935546875e+01 1.167380905151367188e+01 1.639748191833496094e+01 8.421387672424316406e+00 -1.521163082122802734e+01
1.140000000000000000e+02 4.271119689941406250e+01 3.359133148193359375e+01 7.103322505950927734e+00 9.879179954528808594e+00 5.094750881195068359e+00 -1.014167404174804688e+01
1.150000000000000000e+02 4.258549499511718750e+01 3.374565505981445312e+01 5.608937263488769531e+00 8.439674377441406250e+00 4.214583396911621094e+00 -7.807733058929443359e+00
1.160000000000000000e+02 4.245979309082031250e+01 3.389997863769531250e+01 3.938018321990966797e+00 6.792572021484375000e+00 3.219177246093750000e+00 -6.676918506622314453e+00
1.170000000000000000e+02 4.279544448852539062e+01 3.339586639404296875e+01 1.189247608184814453e+01 6.645442008972167969e+00 5.561375617980957031e+00 -1.138876056671142578e+01
1.180000000000000000e+02 4.264210128784179688e+01 3.352276992797851562e+01 7.102332592010498047e+00 4.431651115417480469e+00 3.460195064544677734e+00 -6.581964492797851562e+00
1.190000000000000000e+02 4.248875808715820312e+01 3.364966964721679688e+01 4.268996715545654297e+00 3.686220407485961914e+00 2.386565208435058594e+00 -4.987941265106201172e+00
1.200000000000000000e+02 4.233541870117187500e+01 3.377656936645507812e+01 3.509599924087524414e+00 4.286750316619873047e+00 2.338905096054077148e+00 -4.555988311767578125e+00
1.210000000000000000e+02 4.276278686523437500e+01 3.334744644165039062e+01 9.681484222412109375e+00 -8.075348734855651855e-01 2.662184715270996094e+00 -4.627993583679199219e+00
1.220000000000000000e+02 4.258767318725585938e+01 3.344206619262695312e+01 2.728816986083984375e+00 8.076065182685852051e-01 1.060927033424377441e+00 -2.025666713714599609e+00
1.230000000000000000e+02 4.241255950927734375e+01 3.353668594360351562e+01 2.180592775344848633e+00 2.133034944534301758e+00 1.294088363647460938e+00 -2.639038562774658203e+00
1.240000000000000000e+02 4.223744964599609375e+01 3.363130569458007812e+01 1.117359280586242676e+00 8.590586185455322266e-01 5.929253697395324707e-01 -1.654656410217285156e+00
1.250000000000000000e+02 4.274018096923828125e+01 3.329359436035156250e+01 -3.493689537048339844e+00 -4.056305885314941406e+00 -2.264998674392700195e+00 2.909828186035156250e+00
1.260000000000000000e+02 4.254999923706054688e+01 3.335231399536132812e+01 -8.656361699104309082e-01 1.493566632270812988e+00 1.883791387081146240e-01 -4.819877743721008301e-01
1.270000000000000000e+02 4.235981750488281250e+01 3.341102981567382812e+01 -2.107614517211914062e+00 -6.158232092857360840e-01 -8.170312643051147461e-01 2.779219746589660645e-01
1.280000000000000000e+02 4.216963195800781250e+01 3.346974945068359375e+01 -2.485896587371826172e+00 3.275071978569030762e-01 -6.475167870521545410e-01 4.000056982040405273e-01
1.290000000000000000e+02 2.333872413635253906e+01 3.602074050903320312e+01 -8.272138983011245728e-02 -2.118120464729145169e-04 -2.487996034324169159e-02 -2.211529202759265900e-02
1.300000000000000000e+02 2.389290046691894531e+01 3.609888076782226562e+01 -1.202905476093292236e-01 -4.516769200563430786e-03 -3.744219616055488586e-02 -2.429297938942909241e-02
1.310000000000000000e+02 2.284308815002441406e+01 3.526721954345703125e+01 -8.022240549325942993e-02 -1.456381008028984070e-02 -2.843586541712284088e-02 -6.446846574544906616e-02
1.320000000000000000e+02 2.421754455566406250e+01 3.556056594848632812e+01 -1.646328568458557129e-01 -2.502392046153545380e-03 -5.014057457447052002e-02 -7.349714636802673340e-02
1.330000000000000000e+02 2.498613166809082031e+01 3.604191207885742188e+01 -2.175107896327972412e-01 2.517184009775519371e-03 -6.449808180332183838e-02 -2.064195089042186737e-02
1.340000000000000000e+02 2.485820960998535156e+01 3.530118560791015625e+01 -2.207067161798477173e-01 6.235502660274505615e-03 -6.434136629104614258e-02 -9.174981713294982910e-02
1.350000000000000000e+02 2.364893722534179688e+01 3.528245925903320312e+01 -1.315219253301620483e-01 -9.733583778142929077e-03 -4.237665235996246338e-02 -8.652196079492568970e-02
1.360000000000000000e+02 2.269410705566406250e+01 3.600639724731445312e+01 -4.775490611791610718e-02 1.027740188874304295e-03 -1.401815004646778107e-02 -2.351630665361881256e-02
1.370000000000000000e+02 2.440931320190429688e+01 3.610589981079101562e+01 -1.804519444704055786e-01 3.236904041841626167e-03 -5.316451564431190491e-02 -2.597041800618171692e-02
1.380000000000000000e+02 2.713174057006835938e+01 3.578996658325195312e+01 -4.969915449619293213e-01 3.598531708121299744e-03 -1.480178982019424438e-01 1.008358784019947052e-02
1.390000000000000000e+02 2.639669990539550781e+01 3.588855361938476562e+01 -3.874141871929168701e-01 7.496887352317571640e-03 -1.139751896262168884e-01 -2.108723390847444534e-03
1.400000000000000000e+02 2.560692596435546875e+01 3.524289321899414062e+01 -2.998422682285308838e-01 1.827869564294815063e-02 -8.446906507015228271e-02 -9.699226170778274536e-02
1.410000000000000000e+02 2.704477500915527344e+01 3.505500793457031250e+01 -4.570265412330627441e-01 3.011364303529262543e-02 -1.280738711357116699e-01 -9.552677720785140991e-02
1.420000000000000000e+02 2.786719703674316406e+01 3.568653869628906250e+01 -6.042304039001464844e-01 7.270686328411102295e-03 -1.790879070758819580e-01 2.654034458100795746e-02
1.430000000000000000e+02 2.776436805725097656e+01 3.495370483398437500e+01 -5.511250495910644531e-01 3.578490391373634338e-02 -1.546020358800888062e-01 -8.724091202020645142e-02
1.440000000000000000e+02 2.632559776306152344e+01 3.515146636962890625e+01 -3.736200332641601562e-01 2.431246638298034668e-02 -1.047922745347023010e-01 -1.001613885164260864e-01
1.450000000000000000e+02 2.566216468811035156e+01 3.598210525512695312e+01 -2.830324769020080566e-01 6.079967133700847626e-03 -8.308575302362442017e-02 -1.392338797450065613e-02
1.460000000000000000e+02 2.933965110778808594e+01 3.544803619384765625e+01 -8.625527024269104004e-01 5.952036590315401554e-04 -2.585872411727905273e-01 7.276452332735061646e-02
1.470000000000000000e+02 2.922042655944824219e+01 3.471769332885742188e+01 -7.429594397544860840e-01 4.070452228188514709e-02 -2.106764763593673706e-01 -6.942988187074661255e-02
1.480000000000000000e+02 2.848941230773925781e+01 3.484096145629882812e+01 -6.469423770904541016e-01 4.256106168031692505e-02 -1.813143938779830933e-01 -7.945338636636734009e-02
1.490000000000000000e+02 3.068212890625000000e+01 3.447154998779296875e+01 -9.494925141334533691e-01 4.599493369460105896e-02 -2.710492610931396484e-01 -2.855386584997177124e-02
1.500000000000000000e+02 2.995129966735839844e+01 3.459505081176757812e+01 -8.416798710823059082e-01 4.426565021276473999e-02 -2.392242699861526489e-01 -4.897090047597885132e-02
1.510000000000000000e+02 3.081263542175292969e+01 3.519998931884765625e+01 -1.126411557197570801e+00 -2.259050495922565460e-03 -3.386011719703674316e-01 1.246691346168518066e-01
1.520000000000000000e+02 2.860299301147460938e+01 3.557225799560546875e+01 -7.250181436538696289e-01 3.687148215249180794e-03 -2.163992971181869507e-01 4.876898601651191711e-02
1.530000000000000000e+02 3.007616424560546875e+01 3.532444381713867188e+01 -9.993125200271606445e-01 -5.274346098303794861e-03 -3.013760447502136230e-01 9.512039273977279663e-02
1.540000000000000000e+02 3.228277587890625000e+01 3.491655731201171875e+01 -1.429289460182189941e+00 -1.965831965208053589e-02 -4.346843659877777100e-01 1.945777237415313721e-01
1.550000000000000000e+02 3.141323661804199219e+01 3.433660507202148438e+01 -1.052977204322814941e+00 5.115021765232086182e-02 -3.005481064319610596e-01 -1.121902000159025192e-02
1.560000000000000000e+02 3.301699829101562500e+01 3.477141952514648438e+01 -1.587352037429809570e+00 -3.002134896814823151e-02 -4.852120280265808105e-01 2.237334549427032471e-01
1.570000000000000000e+02 3.287635040283203125e+01 3.404490280151367188e+01 -1.235230565071105957e+00 4.085071384906768799e-02 -3.583139777183532715e-01 3.273606300354003906e-02
1.580000000000000000e+02 3.360715103149414062e+01 3.390307235717773438e+01 -1.322049736976623535e+00 3.217747062444686890e-02 -3.869616687297821045e-01 5.510137602686882019e-02
1.590000000000000000e+02 3.375072097778320312e+01 3.462901306152343750e+01 -1.741768717765808105e+00 -2.854037843644618988e-02 -5.310927629470825195e-01 2.586951553821563721e-01
1.600000000000000000e+02 3.214505767822265625e+01 3.418946456909179688e+01 -1.144426822662353516e+00 4.202432930469512939e-02 -3.307207524776458740e-01 4.792324732989072800e-03
1.610000000000000000e+02 3.154802894592285156e+01 3.506427764892578125e+01 -1.267768502235412598e+00 -1.275161281228065491e-02 -3.841560482978820801e-01 1.596494764089584351e-01
1.620000000000000000e+02 3.448552703857421875e+01 3.448280334472656250e+01 -1.897622704505920410e+00 -4.388348013162612915e-02 -5.824518799781799316e-01 2.911055386066436768e-01
1.630000000000000000e+02 3.581328582763671875e+01 3.345945358276367188e+01 -1.458028316497802734e+00 2.962086908519268036e-02 -4.285222291946411133e-01 1.328166872262954712e-01
1.640000000000000000e+02 3.434083938598632812e+01 3.375708389282226562e+01 -1.391146183013916016e+00 3.594178706407546997e-02 -4.065613448619842529e-01 8.164080977439880371e-02
1.650000000000000000e+02 3.654941177368164062e+01 3.331057739257812500e+01 -1.438738703727722168e+00 -1.359523739665746689e-02 -4.357001781463623047e-01 1.411068290472030640e-01
1.660000000000000000e+02 3.595657730102539062e+01 3.418545532226562500e+01 -2.205649614334106445e+00 -5.794522166252136230e-02 -6.790784597396850586e-01 3.572869300842285156e-01
1.670000000000000000e+02 3.669200897216796875e+01 3.403672027587890625e+01 -2.358737945556640625e+00 -6.081716716289520264e-02 -7.258665561676025391e-01 3.838701844215393066e-01
1.680000000000000000e+02 3.522108078002929688e+01 3.433415222167968750e+01 -2.054580211639404297e+00 -4.316393285989761353e-02 -6.293232440948486328e-01 3.261566162109375000e-01
1.690000000000000000e+02 3.507709503173828125e+01 3.360829162597656250e+01 -1.438461422920227051e+00 1.988667063415050507e-02 -4.255724251270294189e-01 1.020888313651084900e-01
1.700000000000000000e+02 3.744128417968750000e+01 3.388891983032226562e+01 -2.511327981948852539e+00 -7.820028066635131836e-02 -7.768585085868835449e-01 3.884323239326477051e-01
1.710000000000000000e+02 3.826215362548828125e+01 3.324653625488281250e+01 -1.540618777275085449e+00 -2.027358300983905792e-02 -4.682677090167999268e-01 2.885480821132659912e-01
1.720000000000000000e+02 3.726236343383789062e+01 3.316965866088867188e+01 -1.299502372741699219e+00 1.156725455075502396e-02 -3.863805532455444336e-01 1.949771940708160400e-01
1.730000000000000000e+02 3.883818435668945312e+01 3.322181701660156250e+01 -1.545050740242004395e+00 -2.181529626250267029e-02 -4.700598120689392090e-01 3.254562318325042725e-01
1.740000000000000000e+02 3.933058547973632812e+01 3.273152542114257812e+01 -2.515917457640171051e-02 9.854517132043838501e-02 2.201580069959163666e-02 5.287644863128662109e-01
1.750000000000000000e+02 3.967393493652343750e+01 3.333672332763671875e+01 -1.944186568260192871e+00 1.133677065372467041e-01 -5.492456555366516113e-01 4.340558052062988281e-01
1.760000000000000000e+02 3.958551406860351562e+01 3.247394561767578125e+01 7.884213924407958984e-01 8.511470258235931396e-02 2.620608210563659668e-01 7.978920340538024902e-01
1.770000000000000000e+02 3.930666351318359375e+01 3.313682937622070312e+01 -1.310923933982849121e+00 -5.322732776403427124e-02 -4.092453718185424805e-01 3.981301486492156982e-01
1.780000000000000000e+02 3.940409088134765625e+01 3.352851867675781250e+01 -2.640014648437500000e+00 -1.014361977577209473e-01 -8.224352598190307617e-01 4.229788780212402344e-01
1.790000000000000000e+02 3.890108108520507812e+01 3.371945571899414062e+01 -2.877783775329589844e+00 -6.390780210494995117e-02 -8.825075030326843262e-01 4.541554152965545654e-01
1.800000000000000000e+02 3.978035354614257812e+01 3.368940353393554688e+01 -3.275772809982299805e+00 -1.684892177581787109e-02 -9.877865314483642578e-01 5.772766470909118652e-01
1.810000000000000000e+02 3.834242630004882812e+01 3.280391311645507812e+01 -5.275169014930725098e-01 9.671103954315185547e-02 -1.292417496442794800e-01 3.037167489528656006e-01
1.820000000000000000e+02 3.987396240234375000e+01 3.344767379760742188e+01 -2.395713329315185547e+00 9.864972531795501709e-02 -6.891191005706787109e-01 4.205654263496398926e-01
1.830000000000000000e+02 3.975838470458984375e+01 3.290003967285156250e+01 -3.159260749816894531e-01 -9.636064618825912476e-02 -1.236860156059265137e-01 5.732822418212890625e-01
1.840000000000000000e+02 3.887966156005859375e+01 3.273120117187500000e+01 -2.348743826150894165e-01 1.343119796365499496e-02 -6.643296033143997192e-02 4.365237057209014893e-01
1.850000000000000000e+02 3.784204101562500000e+01 3.296822738647460938e+01 -1.060690045356750488e+00 -3.763158991932868958e-02 -3.294965028762817383e-01 2.173064500093460083e-01
1.860000000000000000e+02 3.819874954223632812e+01 3.379726409912109375e+01 -2.667132854461669922e+00 -5.500700697302818298e-02 -8.166419267654418945e-01 4.028410315513610840e-01
1.870000000000000000e+02 3.987259674072265625e+01 3.326197433471679688e+01 -1.583684206008911133e+00 2.622016146779060364e-02 -4.672392308712005615e-01 3.334756791591644287e-01
1.880000000000000000e+02 3.983310699462890625e+01 3.307459259033203125e+01 -9.467537403106689453e-01 -4.933885112404823303e-02 -2.988277673721313477e-01 3.275515735149383545e-01
1.890000000000000000e+02 3.968369293212890625e+01 3.270006561279296875e+01 1.619948893785476685e-01 -6.946913897991180420e-02 2.775772660970687866e-02 5.754917860031127930e-01
1.900000000000000000e+02 3.961859893798828125e+01 3.310046768188476562e+01 -1.127253890037536621e+00 2.479121834039688110e-02 -3.307388126850128174e-01 4.722131192684173584e-01
1.910000000000000000e+02 4.017721176147460938e+01 3.360440826416015625e+01 -3.256630659103393555e+00 -3.025292754173278809e-01 -1.067747950553894043e+00 6.646112203598022461e-01
1.920000000000000000e+02 4.133053970336914062e+01 3.335907745361328125e+01 -2.732027292251586914e+00 -1.639684885740280151e-01 -8.687987327575683594e-01 6.467168927192687988e-01
1.930000000000000000e+02 4.154079818725585938e+01 3.333071136474609375e+01 -2.625084161758422852e+00 -2.485032528638839722e-01 -8.620762228965759277e-01 5.258556008338928223e-01
1.940000000000000000e+02 4.436519241333007812e+01 3.339434432983398438e+01 1.267140865325927734e+01 1.909707450866699219e+01 9.530545234680175781e+00 2.866762399673461914e+00
1.950000000000000000e+02 4.261342620849609375e+01 3.470309829711914062e+01 1.094066023826599121e+00 1.282441806793212891e+01 4.175545215606689453e+00 -5.942170619964599609e+00
1.960000000000000000e+02 4.284720230102539062e+01 3.443865966796875000e+01 6.277244091033935547e-01 1.742258071899414062e+01 5.415091514587402344e+00 -6.162860393524169922e+00
1.970000000000000000e+02 4.253853988647460938e+01 3.225157165527343750e+01 7.992784500122070312e+00 1.181192779541015625e+01 5.941413879394531250e+00 1.069503307342529297e+01
1.980000000000000000e+02 3.991350555419921875e+01 3.239900970458984375e+01 1.377958655357360840e+00 3.314273357391357422e-01 5.128158330917358398e-01 1.142346262931823730e+00
1.990000000000000000e+02 4.010632324218750000e+01 3.236551666259765625e+01 1.610807180404663086e+00 2.727069556713104248e-01 5.650542378425598145e-01 1.188946366310119629e+00
2.000000000000000000e+02 3.998957061767578125e+01 3.281093978881835938e+01 -3.273207694292068481e-02 9.782496094703674316e-02 1.952786557376384735e-02 5.480936169624328613e-01
2.010000000000000000e+02 4.148940658569335938e+01 3.212260437011718750e+01 5.683879852294921875e+00 2.412972211837768555e+00 2.429055452346801758e+00 4.646697044372558594e+00
2.020000000000000000e+02 4.262596130371093750e+01 3.204892730712890625e+01 6.393992424011230469e+00 1.383026313781738281e+01 6.067276954650878906e+00 9.709679603576660156e+00
2.030000000000000000e+02 4.244546890258789062e+01 3.210562515258789062e+01 6.966336727142333984e+00 1.179424953460693359e+01 5.628175735473632812e+00 9.409475326538085938e+00
2.040000000000000000e+02 4.198284149169921875e+01 3.289308166503906250e+01 4.966741561889648438e+00 2.733395397663116455e-01 1.572024345397949219e+00 2.449021577835083008e+00
2.050000000000000000e+02 4.174569702148437500e+01 3.332457733154296875e+01 -2.563687801361083984e+00 1.210594829171895981e-02 -7.654745578765869141e-01 4.864268302917480469e-01
2.060000000000000000e+02 4.044870376586914062e+01 3.513092803955078125e+01 1.421921402215957642e-01 1.646511673927307129e+00 5.366111397743225098e-01 -1.294283032417297363e+00
2.070000000000000000e+02 4.054587554931640625e+01 3.443003845214843750e+01 -1.281815648078918457e+00 4.342344403266906738e-01 -2.542743682861328125e-01 -2.015436738729476929e-01
2.080000000000000000e+02 4.162738800048828125e+01 3.484899902343750000e+01 1.349086284637451172e+00 3.856587886810302734e+00 1.561702251434326172e+00 -3.676333189010620117e+00
2.090000000000000000e+02 4.271026229858398438e+01 3.423684692382812500e+01 1.914826631546020508e+00 1.585934066772460938e+01 5.332250118255615234e+00 -7.418790817260742188e+00
2.100000000000000000e+02 4.020715713500976562e+01 3.388920211791992188e+01 -4.356800556182861328e+00 -2.616662383079528809e-01 -1.385540008544921875e+00 8.491399288177490234e-01
2.110000000000000000e+02 4.040771865844726562e+01 3.384449768066406250e+01 -4.283199310302734375e+00 -1.082315891981124878e-01 -1.317429304122924805e+00 8.952136039733886719e-01
2.120000000000000000e+02 4.106312561035156250e+01 3.474494171142578125e+01 4.547555148601531982e-01 1.691218256950378418e+00 6.437921524047851562e-01 -1.884207248687744141e+00
2.130000000000000000e+02 4.041427230834960938e+01 3.491576004028320312e+01 -6.961788535118103027e-01 9.280013442039489746e-01 6.954675912857055664e-02 -7.600705027580261230e-01
2.140000000000000000e+02 4.157420349121093750e+01 3.361223220825195312e+01 -3.210365533828735352e+00 -2.479247897863388062e-01 -1.037487149238586426e+00 5.719728469848632812e-01
2.150000000000000000e+02 4.212783050537109375e+01 3.393706893920898438e+01 2.291754484176635742e+00 2.814554214477539062e+00 1.531892657279968262e+00 -3.545898675918579102e+00
2.160000000000000000e+02 4.182783889770507812e+01 3.408143997192382812e+01 1.250724911689758301e+00 2.135563850402832031e+00 1.015886664390563965e+00 -2.548351526260375977e+00
2.170000000000000000e+02 4.197257232666015625e+01 3.352994537353515625e+01 -2.800294637680053711e+00 -2.892251014709472656e-01 -9.268559217453002930e-01 4.281084239482879639e-01
2.180000000000000000e+02 4.386688613891601562e+01 3.387497711181640625e+01 7.743367195129394531e+00 2.580467605590820312e+01 1.006441307067871094e+01 5.806066513061523438e+00
2.190000000000000000e+02 4.380670547485351562e+01 3.407470703125000000e+01 5.143893718719482422e+00 2.426182365417480469e+01 8.821715354919433594e+00 3.653196573257446289e+00
2.200000000000000000e+02 4.324924468994140625e+01 3.448751831054687500e+01 4.113209247589111328e-01 2.088017463684082031e+01 6.387448310852050781e+00 -2.501079082489013672e+00
2.210000000000000000e+02 4.193903732299804688e+01 3.330572128295898438e+01 -2.520666599273681641e+00 -2.045910358428955078e-01 -8.175773024559020996e-01 4.640752673149108887e-01
2.220000000000000000e+02 4.214088058471679688e+01 3.252346420288085938e+01 8.504455566406250000e+00 3.669009923934936523e+00 3.652039527893066406e+00 6.808948993682861328e+00
2.230000000000000000e+02 4.284603500366210938e+01 3.201148605346679688e+01 5.079254627227783203e+00 1.900875091552734375e+01 7.226401805877685547e+00 7.866793155670166016e+00
2.240000000000000000e+02 4.311122894287109375e+01 3.215155410766601562e+01 4.110817909240722656e+00 2.508188247680664062e+01 8.757809638977050781e+00 7.038988113403320312e+00
2.250000000000000000e+02 4.013966751098632812e+01 3.335957717895507812e+01 -2.185264825820922852e+00 -1.679224222898483276e-01 -7.059562206268310547e-01 4.048380255699157715e-01
2.260000000000000000e+02 4.395801544189453125e+01 3.267451095581054688e+01 1.222212696075439453e+01 2.246990203857421875e+01 1.040760898590087891e+01 -1.203052520751953125e+00
2.270000000000000000e+02 4.312743759155273438e+01 3.186564254760742188e+01 3.634377002716064453e+00 2.134113502502441406e+01 7.492653369903564453e+00 6.507631778717041016e+00
2.280000000000000000e+02 4.176138305664062500e+01 3.308948135375976562e+01 7.479274868965148926e-01 -2.151455134153366089e-01 1.598345935344696045e-01 9.645281434059143066e-01
2.290000000000000000e+02 4.212358093261718750e+01 3.199878120422363281e+01 7.142875671386718750e+00 7.335388183593750000e+00 4.343479156494140625e+00 8.208624839782714844e+00
2.300000000000000000e+02 4.272462081909179688e+01 3.184636878967285156e+01 5.006442070007324219e+00 1.494199275970458984e+01 5.984530448913574219e+00 8.158440589904785156e+00
2.310000000000000000e+02 4.395667648315429688e+01 3.248741149902343750e+01 1.067208194732666016e+01 2.340903091430664062e+01 1.022433376312255859e+01 -9.137423038482666016e-01
2.320000000000000000e+02 4.417866516113281250e+01 3.252460861206054688e+01 1.091541862487792969e+01 2.018803596496582031e+01 9.331036567687988281e+00 -1.193536758422851562e+00
2.330000000000000000e+02 4.204730987548828125e+01 3.269984817504882812e+01 7.704079627990722656e+00 1.780444622039794922e+00 2.845357179641723633e+00 4.746776103973388672e+00
2.340000000000000000e+02 4.311385726928710938e+01 3.202949523925781250e+01 3.920800685882568359e+00 2.396542549133300781e+01 8.365867614746093750e+00 6.913602352142333984e+00
2.350000000000000000e+02 4.413653564453125000e+01 3.284815597534179688e+01 1.296183872222900391e+01 2.062279319763183594e+01 1.007538890838623047e+01 -3.572301268577575684e-01
2.360000000000000000e+02 4.169248580932617188e+01 3.207609176635742188e+01 6.224771022796630859e+00 3.532268285751342773e+00 2.927111864089965820e+00 5.569009780883789062e+00
2.370000000000000000e+02 4.383423614501953125e+01 3.211272430419921875e+01 5.682380676269531250e+00 2.331852149963378906e+01 8.700270652770996094e+00 2.762904465198516846e-01
2.380000000000000000e+02 4.250890731811523438e+01 3.188380050659179688e+01 5.941264629364013672e+00 1.342955207824707031e+01 5.811244964599609375e+00 9.253158569335937500e+00
2.390000000000000000e+02 4.197034835815429688e+01 3.227368545532226562e+01 7.560971736907958984e+00 4.605840682983398438e+00 3.650043725967407227e+00 6.472779273986816406e+00
2.400000000000000000e+02 4.224459457397460938e+01 3.235958480834960938e+01 8.618695259094238281e+00 6.835959434509277344e+00 4.636396408081054688e+00 8.640770912170410156e+00
2.410000000000000000e+02 4.357996749877929688e+01 3.429430770874023438e+01 1.465425848960876465e+00 2.495660781860351562e+01 7.926609992980957031e+00 1.306786179542541504e+00
2.420000000000000000e+02 4.322565078735351562e+01 3.427063751220703125e+01 6.332899928092956543e-01 2.391852951049804688e+01 7.365545749664306641e+00 -2.213391304016113281e+00
2.430000000000000000e+02 4.394836807250976562e+01 3.369772338867187500e+01 1.085913658142089844e+01 2.288086509704589844e+01 1.012200069427490234e+01 5.015670299530029297e+00
2.440000000000000000e+02 4.203493499755859375e+01 3.373493194580078125e+01 3.905008137226104736e-01 1.066501379013061523e+00 4.371006488800048828e-01 -1.415805339813232422e+00
2.450000000000000000e+02 4.417719650268554688e+01 3.358430480957031250e+01 1.244878101348876953e+01 2.205265808105468750e+01 1.035043144226074219e+01 4.701684474945068359e+00
2.460000000000000000e+02 4.184040451049804688e+01 3.483225250244140625e+01 1.418502330780029297e+00 5.519763946533203125e+00 2.081479787826538086e+00 -4.151803970336914062e+00
2.470000000000000000e+02 4.229214096069335938e+01 3.409872055053710938e+01 3.201132297515869141e+00 6.424296855926513672e+00 2.887628793716430664e+00 -5.581301212310791016e+00
2.480000000000000000e+02 4.401345443725585938e+01 3.354280090332031250e+01 1.374162006378173828e+01 2.298742866516113281e+01 1.101871490478515625e+01 5.520923614501953125e+00
2.490000000000000000e+02 4.303348159790039062e+01 3.460465621948242188e+01 1.301888227462768555e-01 1.889212989807128906e+01 5.706695556640625000e+00 -5.061533927917480469e+00
2.500000000000000000e+02 4.265862655639648438e+01 3.440106582641601562e+01 1.662703037261962891e+00 1.407221984863281250e+01 4.720477104187011719e+00 -6.772987842559814453e+00
2.510000000000000000e+02 4.108376693725585938e+01 3.221299743652343750e+01 4.328648567199707031e+00 1.144974708557128906e+00 1.642086982727050781e+00 2.999239921569824219e+00
2.520000000000000000e+02 4.231021499633789062e+01 3.193194389343261719e+01 6.501759529113769531e+00 1.067085361480712891e+01 5.151783943176269531e+00 8.506049156188964844e+00
2.530000000000000000e+02 4.068553161621093750e+01 3.259002304077148438e+01 1.891367077827453613e+00 1.978272050619125366e-01 6.267582774162292480e-01 1.260074853897094727e+00
2.540000000000000000e+02 4.159482574462890625e+01 3.263913726806640625e+01 4.856630802154541016e+00 8.483529686927795410e-01 1.711495161056518555e+00 2.891371965408325195e+00
2.550000000000000000e+02 4.072313308715820312e+01 3.302489471435546875e+01 -2.369644939899444580e-01 -2.020538784563541412e-02 -7.715096324682235718e-02 6.202908754348754883e-01
2.560000000000000000e+02 4.066766738891601562e+01 3.338448715209960938e+01 -2.420532464981079102e+00 -6.581756472587585449e-02 -7.459049820899963379e-01 5.474836826324462891e-01
2.570000000000000000e+02 4.039599609375000000e+01 3.355374145507812500e+01 -3.223817586898803711e+00 -8.954949676990509033e-02 -9.940101504325866699e-01 5.461017489433288574e-01
2.580000000000000000e+02 4.112785339355468750e+01 3.341797256469726562e+01 -2.926751375198364258e+00 -1.212476193904876709e-01 -9.143997430801391602e-01 6.844377517700195312e-01
2.590000000000000000e+02 4.025315093994140625e+01 3.409333038330078125e+01 -3.331529855728149414e+00 -1.974111795425415039e-01 -1.058682322502136230e+00 5.265311002731323242e-01
2.600000000000000000e+02 4.155381393432617188e+01 3.382494735717773438e+01 -1.818348050117492676e+00 4.679891169071197510e-01 -4.051076769828796387e-01 -3.437461853027343750e-01
2.610000000000000000e+02 4.179595184326171875e+01 3.381704711914062500e+01 -5.477873682975769043e-01 5.558598041534423828e-01 2.421740442514419556e-03 -8.951243162155151367e-01
2.620000000000000000e+02 4.123401641845703125e+01 3.407100677490234375e+01 -1.234755516052246094e+00 4.705765247344970703e-01 -2.292537093162536621e-01 -4.783661663532257080e-01
2.630000000000000000e+02 4.129381942749023438e+01 3.474093246459960938e+01 8.371366262435913086e-01 2.488364934921264648e+00 9.976504445075988770e-01 -2.464997053146362305e+00
2.640000000000000000e+02 4.139775085449218750e+01 3.367640304565429688e+01 -3.333826303482055664e+00 1.472747512161731720e-02 -9.957296252250671387e-01 6.698741912841796875e-01
2.650000000000000000e+02 4.118799972534179688e+01 3.375801467895507812e+01 -3.483455896377563477e+00 -2.851254045963287354e-01 -1.130574345588684082e+00 5.701335072517395020e-01
2.660000000000000000e+02 4.166595458984375000e+01 3.453460311889648438e+01 1.466815948486328125e+00 3.153322458267211914e+00 1.386041522026062012e+00 -3.234168052673339844e+00
2.670000000000000000e+02 4.222908020019531250e+01 3.479187393188476562e+01 1.779600739479064941e+00 8.530858039855957031e+00 3.093137502670288086e+00 -5.181420803070068359e+00
2.680000000000000000e+02 4.282310104370117188e+01 3.465314102172851562e+01 8.340609669685363770e-01 1.616617393493652344e+01 5.100070476531982422e+00 -5.430846691131591797e+00
2.690000000000000000e+02 4.124640655517578125e+01 3.497161865234375000e+01 7.499408721923828125e-01 2.928611516952514648e+00 1.103565692901611328e+00 -2.712989807128906250e+00
2.700000000000000000e+02 4.186635208129882812e+01 3.457457733154296875e+01 1.954453110694885254e+00 4.919417381286621094e+00 2.062161207199096680e+00 -4.296725749969482422e+00
2.710000000000000000e+02 4.029729461669921875e+01 3.234218597412109375e+01 2.095789194107055664e+00 3.807733952999114990e-01 7.429687976837158203e-01 1.440263986587524414e+00
2.720000000000000000e+02 4.006453704833984375e+01 3.318371200561523438e+01 -1.347681283950805664e+00 -9.024922735989093781e-03 -4.070118367671966553e-01 2.134267538785934448e-01
2.730000000000000000e+02 4.035636138916015625e+01 3.309954833984375000e+01 -8.912926912307739258e-01 -8.830621093511581421e-02 -2.938796579837799072e-01 4.788148403167724609e-01
2.740000000000000000e+02 4.060062789916992188e+01 3.462980651855468750e+01 -9.110541939735412598e-01 6.813905239105224609e-01 -6.889911741018295288e-02 -6.643223762512207031e-01
2.750000000000000000e+02 4.037674331665039062e+01 3.470474243164062500e+01 -8.268644213676452637e-01 6.188800334930419922e-01 -6.239532306790351868e-02 -4.635105729103088379e-01
2.760000000000000000e+02 4.095529174804687500e+01 3.377703857421875000e+01 -3.699406862258911133e+00 2.275305427610874176e-02 -1.102996110916137695e+00 5.515518784523010254e-01
2.770000000000000000e+02 4.067497253417968750e+01 3.393758773803710938e+01 -3.402869462966918945e+00 -6.460748612880706787e-02 -1.040243029594421387e+00 5.339583158493041992e-01
2.780000000000000000e+02 4.059333038330078125e+01 3.378947448730468750e+01 -4.226595401763916016e+00 -1.859651207923889160e-01 -1.323768138885498047e+00 8.047775030136108398e-01
2.790000000000000000e+02 4.179405975341796875e+01 3.286770629882812500e+01 4.186288833618164062e+00 3.460960686206817627e-01 1.359715461730957031e+00 2.153802156448364258e+00
2.800000000000000000e+02 4.160818481445312500e+01 3.286614990234375000e+01 3.210887908935546875e+00 1.719546765089035034e-01 1.014852762222290039e+00 1.600232601165771484e+00
2.810000000000000000e+02 4.048897171020507812e+01 3.231781005859375000e+01 2.492207765579223633e+00 4.389656186103820801e-01 8.793520331382751465e-01 1.663786053657531738e+00
2.820000000000000000e+02 4.068452072143554688e+01 3.228866958618164062e+01 3.114879846572875977e+00 5.976762771606445312e-01 1.113766908645629883e+00 2.044462442398071289e+00
2.830000000000000000e+02 4.190726089477539062e+01 3.244645690917968750e+01 7.305328369140625000e+00 3.052563905715942383e+00 3.107367753982543945e+00 5.337746143341064453e+00
2.840000000000000000e+02 4.051486968994140625e+01 3.326248931884765625e+01 -1.665068507194519043e+00 -4.057074338197708130e-02 -5.116918087005615234e-01 5.288291573524475098e-01
2.850000000000000000e+02 4.142663955688476562e+01 3.491007995605468750e+01 1.141901373863220215e+00 3.312813758850097656e+00 1.336414575576782227e+00 -3.110880851745605469e+00
2.860000000000000000e+02 4.083764266967773438e+01 3.480608749389648438e+01 -7.711336761713027954e-02 1.220306873321533203e+00 3.429580330848693848e-01 -1.407591104507446289e+00
2.870000000000000000e+02 4.250804138183593750e+01 3.418489456176757812e+01 2.880581855773925781e+00 1.036756610870361328e+01 3.974444389343261719e+00 -6.988285064697265625e+00
2.880000000000000000e+02 4.062668609619140625e+01 3.485676956176757812e+01 -1.605671793222427368e-01 1.281767010688781738e+00 3.363599479198455811e-01 -1.175211310386657715e+00
2.890000000000000000e+02 4.065079116821289062e+01 3.508448028564453125e+01 4.043569043278694153e-02 1.437206268310546875e+00 4.432925879955291748e-01 -1.464825510978698730e+00
2.900000000000000000e+02 4.150959014892578125e+01 3.409679794311523438e+01 -1.068794950842857361e-01 9.685571789741516113e-01 2.585033178329467773e-01 -1.227993011474609375e+00
2.910000000000000000e+02 4.018392944335937500e+01 3.276739883422851562e+01 4.486667513847351074e-01 6.852546334266662598e-02 1.551576703786849976e-01 7.035868167877197266e-01
2.920000000000000000e+02 3.994949340820312500e+01 3.260821533203125000e+01 7.416836023330688477e-01 1.966055184602737427e-01 2.814867198467254639e-01 8.657077550888061523e-01
2.930000000000000000e+02 4.182735443115234375e+01 3.264246749877929688e+01 6.168558120727539062e+00 1.225720286369323730e+00 2.218283414840698242e+00 3.640074014663696289e+00
2.940000000000000000e+02 4.095080566406250000e+01 3.287194442749023438e+01 1.059409379959106445e+00 5.977240204811096191e-02 3.357545435428619385e-01 9.337185621261596680e-01
2.950000000000000000e+02 4.125450897216796875e+01 3.305417251586914062e+01 2.442978024482727051e-01 -5.614571645855903625e-02 5.644562467932701111e-02 6.745138168334960938e-01
2.960000000000000000e+02 4.155314636230468750e+01 3.238772201538085938e+01 5.587276935577392578e+00 1.662152528762817383e+00 2.174828767776489258e+00 3.815778017044067383e+00
2.970000000000000000e+02 4.111653137207031250e+01 3.250636291503906250e+01 3.386074304580688477e+00 5.656775832176208496e-01 1.185525536537170410e+00 2.063491582870483398e+00
2.980000000000000000e+02 4.104841995239257812e+01 3.314097595214843750e+01 -9.026708006858825684e-01 -3.838359564542770386e-02 -2.823163270950317383e-01 5.353969335556030273e-01
2.990000000000000000e+02 4.029703903198242188e+01 3.260643005371093750e+01 1.121124863624572754e+00 1.413964629173278809e-01 3.787564039230346680e-01 1.012987256050109863e+00
3.000000000000000000e+02 4.093198013305664062e+01 3.347787857055664062e+01 -3.119145870208740234e+00 -6.673203408718109131e-02 -9.557633399963378906e-01 6.572042703628540039e-01
3.010000000000000000e+02 4.102425003051757812e+01 3.418618774414062500e+01 -1.520684003829956055e+00 1.609906107187271118e-01 -4.079080224037170410e-01 -2.588867545127868652e-01
3.020000000000000000e+02 4.206468963623046875e+01 3.457928466796875000e+01 2.069711446762084961e+00 6.230746269226074219e+00 2.490137338638305664e+00 -4.622850418090820312e+00
3.030000000000000000e+02 4.101398468017578125e+01 3.452592468261718750e+01 -1.352171599864959717e-01 9.566705226898193359e-01 2.464359998703002930e-01 -1.226091742515563965e+00
3.040000000000000000e+02 4.142538070678710938e+01 3.444275665283203125e+01 6.453951597213745117e-01 1.819067716598510742e+00 7.393388748168945312e-01 -2.190390586853027344e+00
3.050000000000000000e+02 4.118547821044921875e+01 3.433837509155273438e+01 -2.286389023065567017e-01 1.021933913230895996e+00 2.379884868860244751e-01 -1.224136352539062500e+00
3.060000000000000000e+02 4.051158142089843750e+01 3.424244308471679688e+01 -2.354808568954467773e+00 1.086001992225646973e-01 -6.738625168800354004e-01 1.784894913434982300e-01
3.070000000000000000e+02 4.223328018188476562e+01 3.460400390625000000e+01 1.824597001075744629e+00 7.731146335601806641e+00 2.866723060607910156e+00 -5.696040153503417969e+00
3.080000000000000000e+02 4.383914947509765625e+01 3.253421020507812500e+01 1.039747047424316406e+01 2.521504783630371094e+01 1.068375587463378906e+01 -1.635121583938598633e+00
3.090000000000000000e+02 4.085244750976562500e+01 3.504055023193359375e+01 3.780545890331268311e-01 1.920512676239013672e+00 6.895701885223388672e-01 -1.814705967903137207e+00
3.100000000000000000e+02 4.105521011352539062e+01 3.499827957153320312e+01 5.165246129035949707e-01 2.447112560272216797e+00 8.890911340713500977e-01 -2.388393163681030273e+00
3.110000000000000000e+02 4.033381271362304688e+01 3.449985885620117188e+01 -1.710006237030029297e+00 3.053890168666839600e-01 -4.213851690292358398e-01 -1.650879681110382080e-01
3.120000000000000000e+02 4.029333114624023438e+01 3.429684829711914062e+01 -2.345795392990112305e+00 7.938577979803085327e-02 -6.799228787422180176e-01 3.778629004955291748e-01
3.130000000000000000e+02 4.047718048095703125e+01 3.404106140136718750e+01 -3.222899436950683594e+00 3.256118297576904297e-02 -9.571014642715454102e-01 5.393800735473632812e-01
3.140000000000000000e+02 4.203925323486328125e+01 3.481212615966796875e+01 1.482218861579895020e+00 6.630095481872558594e+00 2.433694124221801758e+00 -4.909243106842041016e+00
3.150000000000000000e+02 4.238343811035156250e+01 3.458689117431640625e+01 1.533730983734130859e+00 1.049124336242675781e+01 3.607492446899414062e+00 -5.966823101043701172e+00
3.160000000000000000e+02 4.241732788085937500e+01 3.475894546508789062e+01 1.460047483444213867e+00 1.117810630798339844e+01 3.791446208953857422e+00 -6.004636764526367188e+00
3.170000000000000000e+02 4.254730987548828125e+01 3.452183151245117188e+01 1.739525556564331055e+00 1.240455055236816406e+01 4.243223190307617188e+00 -6.345161437988281250e+00
3.180000000000000000e+02 4.304439163208007812e+01 3.440974807739257812e+01 1.550301313400268555e-01 1.924484252929687500e+01 5.819961547851562500e+00 -5.256259441375732422e+00
3.190000000000000000e+02 4.308390045166015625e+01 3.427062225341796875e+01 7.250848412513732910e-01 2.282565879821777344e+01 7.065223217010498047e+00 -4.358286380767822266e+00
3.200000000000000000e+02 4.421260070800781250e+01 3.386759567260742188e+01 7.783389568328857422e+00 2.193968582153320312e+01 8.916922569274902344e+00 4.997378826141357422e+00
3.210000000000000000e+02 4.404436111450195312e+01 3.370157241821289062e+01 1.139936542510986328e+01 2.236737632751464844e+01 1.013002204895019531e+01 5.369628429412841797e+00
3.220000000000000000e+02 4.076376724243164062e+01 3.376411819458007812e+01 -3.988756179809570312e+00 -8.026808500289916992e-02 -1.220707297325134277e+00 7.391456961631774902e-01
3.230000000000000000e+02 4.057984161376953125e+01 3.356754684448242188e+01 -3.268963813781738281e+00 -5.497090891003608704e-02 -9.971804022789001465e-01 5.853572487831115723e-01
3.240000000000000000e+02 4.001972961425781250e+01 3.300915145874023438e+01 -5.520743131637573242e-01 4.880939051508903503e-02 -1.509794741868972778e-01 5.140241980552673340e-01
3.250000000000000000e+02 4.019342422485351562e+01 3.298701477050781250e+01 -3.495061099529266357e-01 1.748280785977840424e-02 -9.960699081420898438e-02 5.306138396263122559e-01
3.260000000000000000e+02 4.074956512451171875e+01 3.354148483276367188e+01 -3.240578889846801758e+00 -1.353748738765716553e-01 -1.012786149978637695e+00 6.142946481704711914e-01
3.270000000000000000e+02 4.084563446044921875e+01 3.324592208862304688e+01 -1.603965163230895996e+00 -2.707513794302940369e-02 -4.893120825290679932e-01 5.619919300079345703e-01
3.280000000000000000e+02 4.012681961059570312e+01 3.257793807983398438e+01 1.083515167236328125e+00 2.367881387472152710e-01 3.960910141468048096e-01 1.027535915374755859e+00
3.290000000000000000e+02 4.084861373901367188e+01 3.404768753051757812e+01 -2.504078149795532227e+00 1.515204310417175293e-01 -7.057673335075378418e-01 2.652922272682189941e-01
3.300000000000000000e+02 4.176850509643554688e+01 3.358200836181640625e+01 -3.025259971618652344e+00 1.132755056023597717e-01 -8.735952973365783691e-01 5.301195383071899414e-01
3.310000000000000000e+02 4.048547363281250000e+01 3.260976791381835938e+01 1.389963746070861816e+00 2.132965624332427979e-01 4.809781014919281006e-01 1.109782099723815918e+00
3.320000000000000000e+02 4.088270187377929688e+01 3.225569915771484375e+01 3.590705871582031250e+00 8.760160803794860840e-01 1.340016603469848633e+00 2.413741588592529297e+00
3.330000000000000000e+02 4.089619827270507812e+01 3.257366180419921875e+01 2.538486719131469727e+00 3.395370244979858398e-01 8.634071350097656250e-01 1.585091710090637207e+00
3.340000000000000000e+02 4.194533538818359375e+01 3.309671401977539062e+01 1.521322369575500488e+00 1.312810331583023071e-01 4.957810044288635254e-01 1.005780935287475586e+00
3.350000000000000000e+02 4.128628158569335938e+01 3.216787338256835938e+01 5.011311531066894531e+00 1.766733884811401367e+00 2.033413648605346680e+00 3.722852945327758789e+00
3.360000000000000000e+02 4.132955932617187500e+01 3.244473266601562500e+01 4.488304615020751953e+00 8.452587723731994629e-01 1.600068926811218262e+00 2.867980480194091797e+00
3.370000000000000000e+02 4.191313552856445312e+01 3.204513931274414062e+01 6.928337574005126953e+00 5.013638496398925781e+00 3.582592964172363281e+00 6.870191574096679688e+00
3.380000000000000000e+02 4.290624237060546875e+01 3.214905929565429688e+01 5.087571620941162109e+00 2.133326530456542969e+01 7.926250934600830078e+00 8.658200263977050781e+00
3.390000000000000000e+02 4.329090881347656250e+01 3.215771484375000000e+01 4.727766036987304688e+00 2.490076637268066406e+01 8.888559341430664062e+00 5.282491683959960938e+00
3.400000000000000000e+02 4.354170989990234375e+01 3.203756332397460938e+01 5.057194709777832031e+00 2.310348892211914062e+01 8.448204994201660156e+00 2.029652833938598633e+00
3.410000000000000000e+02 4.230966186523437500e+01 3.444486999511718750e+01 2.482323646545410156e+00 8.762438774108886719e+00 3.373428821563720703e+00 -6.131069183349609375e+00
3.420000000000000000e+02 4.247623825073242188e+01 3.436771392822265625e+01 2.120012521743774414e+00 1.072582721710205078e+01 3.853751897811889648e+00 -6.574342250823974609e+00
3.430000000000000000e+02 4.290145874023437500e+01 3.427066040039062500e+01 1.139095306396484375e+00 1.871849632263183594e+01 5.957277297973632812e+00 -6.750234603881835938e+00
3.440000000000000000e+02 4.408695220947265625e+01 3.337484359741210938e+01 1.434558391571044922e+01 2.098819541931152344e+01 1.060013389587402344e+01 4.008639812469482422e+00
3.450000000000000000e+02 4.418894195556640625e+01 3.311845397949218750e+01 1.398383331298828125e+01 2.012394714355468750e+01 1.023233413696289062e+01 1.810603499412536621e+00
3.460000000000000000e+02 4.369496917724609375e+01 3.237594985961914062e+01 8.646304130554199219e+00 2.541073989868164062e+01 1.021711254119873047e+01 -9.899619221687316895e-01
3.470000000000000000e+02 4.348754882812500000e+01 3.222513961791992188e+01 5.840037345886230469e+00 2.521319961547851562e+01 9.315971374511718750e+00 2.469695329666137695e+00
3.480000000000000000e+02 4.378353118896484375e+01 3.226860427856445312e+01 7.486913681030273438e+00 2.539764022827148438e+01 9.865365982055664062e+00 -5.912265181541442871e-01
3.490000000000000000e+02 4.270839309692382812e+01 3.218691635131835938e+01 6.677132606506347656e+00 1.690950393676757812e+01 7.075991153717041016e+00 9.647438049316406250e+00
3.500000000000000000e+02 4.233052062988281250e+01 3.220878982543945312e+01 7.830418586730957031e+00 9.433506965637207031e+00 5.179177761077880859e+00 8.878176689147949219e+00
3.510000000000000000e+02 4.157294845581054688e+01 3.307234954833984375e+01 7.324836254119873047e-01 -5.898939073085784912e-02 2.020482718944549561e-01 1.001540184020996094e+00
3.520000000000000000e+02 4.143847274780273438e+01 3.294222259521484375e+01 1.683528304100036621e+00 4.111215844750404358e-02 5.173921585083007812e-01 1.171977639198303223e+00
3.530000000000000000e+02 4.175999832153320312e+01 3.231051635742187500e+01 6.680374145507812500e+00 2.450803995132446289e+00 2.739353418350219727e+00 5.163834571838378906e+00
3.540000000000000000e+02 4.116963577270507812e+01 3.278141021728515625e+01 2.267447710037231445e+00 1.736882925033569336e-01 7.323408126831054688e-01 1.443902373313903809e+00
3.550000000000000000e+02 4.137584686279296875e+01 3.270161056518554688e+01 3.300158739089965820e+00 3.386725783348083496e-01 1.091649413108825684e+00 1.856985211372375488e+00
3.560000000000000000e+02 4.056610870361328125e+01 3.283881759643554688e+01 6.402741074562072754e-01 1.050234213471412659e-01 2.235892564058303833e-01 8.210601806640625000e-01
3.570000000000000000e+02 4.213813781738281250e+01 3.434195327758789062e+01 2.109834194183349609e+00 5.705837726593017578e+00 2.344701528549194336e+00 -5.080152988433837891e+00
3.580000000000000000e+02 4.070260238647460938e+01 3.427997207641601562e+01 -1.812353849411010742e+00 2.740075588226318359e-01 -4.615038931369781494e-01 -1.613873094320297241e-01
3.590000000000000000e+02 4.399774932861328125e+01 3.399374771118164062e+01 6.724699497222900391e+00 2.299132537841796875e+01 8.914807319641113281e+00 4.703688621520996094e+00
3.600000000000000000e+02 4.187121582031250000e+01 3.433991622924804688e+01 1.703580617904663086e+00 3.558664083480834961e+00 1.578673481941223145e+00 -3.574749708175659180e+00
3.610000000000000000e+02 4.086964035034179688e+01 3.438957214355468750e+01 -1.040466189384460449e+00 5.775206089019775391e-01 -1.388836652040481567e-01 -5.450049042701721191e-01
3.620000000000000000e+02 4.081368255615234375e+01 3.458852767944335938e+01 -4.482355415821075439e-01 9.733908772468566895e-01 1.575465947389602661e-01 -9.559052586555480957e-01
3.630000000000000000e+02 3.999750137329101562e+01 3.415775680541992188e+01 -3.201149463653564453e+00 2.427096292376518250e-02 -9.530635476112365723e-01 8.040998578071594238e-01
3.640000000000000000e+02 3.978470611572265625e+01 3.469749450683593750e+01 -1.746960401535034180e+00 3.409725725650787354e-01 -4.217963516712188721e-01 1.247385591268539429e-01
3.650000000000000000e+02 3.828278732299804688e+01 3.527497482299804688e+01 -1.845001339912414551e+00 5.140058323740959167e-02 -5.380802154541015625e-01 4.072237908840179443e-01
3.660000000000000000e+02 3.981972885131835938e+01 3.504583740234375000e+01 -1.128716230392456055e+00 4.556456208229064941e-01 -2.019211947917938232e-01 -3.632238805294036865e-01
3.670000000000000000e+02 4.013177871704101562e+01 3.495929718017578125e+01 -7.281104922294616699e-01 5.783510208129882812e-01 -4.492784291505813599e-02 -4.431155025959014893e-01
3.680000000000000000e+02 4.011451339721679688e+01 3.519161605834960938e+01 -6.326500177383422852e-01 8.635211586952209473e-01 6.926133483648300171e-02 -8.530860543251037598e-01
3.690000000000000000e+02 3.766339492797851562e+01 3.539078903198242188e+01 -1.951858401298522949e+00 -5.190228298306465149e-02 -6.011282205581665039e-01 5.446733832359313965e-01
3.700000000000000000e+02 3.825157928466796875e+01 3.452770996093750000e+01 -3.507996320724487305e+00 -1.329047977924346924e-01 -1.092270374298095703e+00 7.326998114585876465e-01
3.710000000000000000e+02 3.968102645874023438e+01 3.419921875000000000e+01 -3.699134588241577148e+00 -3.007758855819702148e-01 -1.199973106384277344e+00 6.943755149841308594e-01
3.720000000000000000e+02 3.755816268920898438e+01 3.465755844116210938e+01 -3.345502376556396484e+00 -1.399189382791519165e-01 -1.045626401901245117e+00 7.405225038528442383e-01
3.730000000000000000e+02 3.984162902832031250e+01 3.396514511108398438e+01 -4.233024120330810547e+00 -1.470724046230316162e-01 -1.314028978347778320e+00 8.698114752769470215e-01
3.740000000000000000e+02 4.010179519653320312e+01 3.453089904785156250e+01 -1.673655271530151367e+00 1.858272850513458252e-01 -4.463483989238739014e-01 1.733656600117683411e-02
3.750000000000000000e+02 4.010189056396484375e+01 3.473611831665039062e+01 -1.245810747146606445e+00 3.237525224685668945e-01 -2.766174674034118652e-01 -2.594381570816040039e-01
3.760000000000000000e+02 4.006818771362304688e+01 3.435038375854492188e+01 -2.865472316741943359e+00 9.337814152240753174e-02 -8.316282629966735840e-01 2.981513142585754395e-01
3.770000000000000000e+02 3.942385864257812500e+01 3.513718032836914062e+01 -1.359130740165710449e+00 2.707294225692749023e-01 -3.265204131603240967e-01 -1.974387019872665405e-01
3.780000000000000000e+02 3.988095474243164062e+01 3.445360183715820312e+01 -2.413706302642822266e+00 1.136882901191711426e-01 -6.900054216384887695e-01 2.185690850019454956e-01
3.790000000000000000e+02 3.887782669067382812e+01 3.518804550170898438e+01 -1.472360253334045410e+00 1.178702041506767273e-01 -4.063470363616943359e-01 2.148879021406173706e-01
3.800000000000000000e+02 3.892063903808593750e+01 3.442674636840820312e+01 -3.555042982101440430e+00 -8.515848219394683838e-02 -1.092060446739196777e+00 6.784014105796813965e-01
3.810000000000000000e+02 3.943855667114257812e+01 3.452407073974609375e+01 -2.924071550369262695e+00 -2.034245133399963379e-01 -9.382488131523132324e-01 6.240847706794738770e-01
3.820000000000000000e+02 3.551680755615234375e+01 3.582569122314453125e+01 -1.707709550857543945e+00 -2.530587613582611084e-01 -5.882304906845092773e-01 7.097081542015075684e-01
3.830000000000000000e+02 3.610754394531250000e+01 3.495201110839843750e+01 -2.870352983474731445e+00 -1.616313606500625610e-01 -9.095953106880187988e-01 7.364768981933593750e-01
3.840000000000000000e+02 3.463803482055664062e+01 3.524788665771484375e+01 -2.198585987091064453e+00 -2.091321349143981934e-01 -7.223154306411743164e-01 5.915483832359313965e-01
3.850000000000000000e+02 3.684228134155273438e+01 3.480297470092773438e+01 -3.133107900619506836e+00 -1.471068263053894043e-01 -9.840644001960754395e-01 7.475233674049377441e-01
3.860000000000000000e+02 3.698487472534179688e+01 3.552911758422851562e+01 -1.901345491409301758e+00 -6.180476024746894836e-02 -5.889450907707214355e-01 6.349261403083801270e-01
3.870000000000000000e+02 3.478272247314453125e+01 3.597360992431640625e+01 -1.540672898292541504e+00 -1.978114545345306396e-01 -5.215452909469604492e-01 7.899957895278930664e-01
3.880000000000000000e+02 3.625083541870117188e+01 3.567801284790039062e+01 -1.756115317344665527e+00 -1.116520464420318604e-01 -5.603302121162414551e-01 7.530757784843444824e-01
3.890000000000000000e+02 3.537281799316406250e+01 3.509983062744140625e+01 -2.522970438003540039e+00 -1.604205220937728882e-01 -8.050172924995422363e-01 7.094089984893798828e-01
3.900000000000000000e+02 3.242737579345703125e+01 3.568672943115234375e+01 -1.307572960853576660e+00 -9.844740480184555054e-02 -4.218060970306396484e-01 3.817803859710693359e-01
3.910000000000000000e+02 3.169006347656250000e+01 3.583216094970703125e+01 -1.071212053298950195e+00 -9.289374947547912598e-02 -3.492317497730255127e-01 3.311886489391326904e-01
3.920000000000000000e+02 3.330534362792968750e+01 3.626757049560546875e+01 -1.096873402595520020e+00 -2.146953195333480835e-01 -3.934706151485443115e-01 5.780069231986999512e-01
3.930000000000000000e+02 3.316469573974609375e+01 3.554105377197265625e+01 -1.573147773742675781e+00 -1.688471287488937378e-01 -5.225984454154968262e-01 4.678498804569244385e-01
3.940000000000000000e+02 3.390202713012695312e+01 3.539514541625976562e+01 -1.889368653297424316e+00 -9.025508165359497070e-02 -5.938870906829833984e-01 5.437895059585571289e-01
3.950000000000000000e+02 3.404560089111328125e+01 3.612108612060546875e+01 -1.242244362831115723e+00 -3.032982647418975830e-01 -4.636628031730651855e-01 7.064370512962341309e-01
3.960000000000000000e+02 3.182485580444335938e+01 3.655983352661132812e+01 -7.137429714202880859e-01 -2.083820700645446777e-01 -2.766375243663787842e-01 4.449378550052642822e-01
3.970000000000000000e+02 3.256509399414062500e+01 3.641382217407226562e+01 -9.007710218429565430e-01 -2.171528488397598267e-01 -3.353771567344665527e-01 5.679682493209838867e-01
3.980000000000000000e+02 2.946516418457031250e+01 3.621912765502929688e+01 -5.151782035827636719e-01 -4.676722362637519836e-02 -1.685836315155029297e-01 1.586699336767196655e-01
3.990000000000000000e+02 2.958438682556152344e+01 3.694947052001953125e+01 -3.772069513797760010e-01 -1.024396345019340515e-01 -1.438939720392227173e-01 2.576751708984375000e-01
4.000000000000000000e+02 2.872264671325683594e+01 3.634394836425781250e+01 -3.875660300254821777e-01 -3.541122749447822571e-02 -1.268931776285171509e-01 1.251527070999145508e-01
4.010000000000000000e+02 3.020768547058105469e+01 3.609378433227539062e+01 -6.650546193122863770e-01 -5.036766082048416138e-02 -2.146266847848892212e-01 1.951661109924316406e-01
4.020000000000000000e+02 3.095018768310546875e+01 3.596792221069335938e+01 -8.516100645065307617e-01 -9.146939963102340698e-02 -2.829238474369049072e-01 2.552682757377624512e-01
4.030000000000000000e+02 3.108069419860839844e+01 3.669636154174804688e+01 -6.101251840591430664e-01 -1.694973409175872803e-01 -2.338867485523223877e-01 3.730054795742034912e-01
4.040000000000000000e+02 2.883622932434082031e+01 3.707524490356445312e+01 -2.849338054656982422e-01 -9.171546250581741333e-02 -1.129947826266288757e-01 2.141000628471374512e-01
4.050000000000000000e+02 3.033255004882812500e+01 3.682317352294921875e+01 -4.949438273906707764e-01 -1.365615576505661011e-01 -1.894516050815582275e-01 3.223640322685241699e-01
4.060000000000000000e+02 2.647223281860351562e+01 3.666142654418945312e+01 -1.146078780293464661e-01 -8.243523538112640381e-03 -3.685541823506355286e-02 4.563711956143379211e-02
4.070000000000000000e+02 2.572040748596191406e+01 3.676027679443359375e+01 -6.667952239513397217e-02 -1.779492199420928955e-02 -2.534233406186103821e-02 2.800104767084121704e-02
4.080000000000000000e+02 2.731099891662597656e+01 3.729562377929687500e+01 -1.566486358642578125e-01 -5.394169315695762634e-02 -6.317710131406784058e-02 1.446432024240493774e-01
4.090000000000000000e+02 2.722403526306152344e+01 3.656066131591796875e+01 -1.804489642381668091e-01 -2.441038377583026886e-02 -6.145780161023139954e-02 6.153490766882896423e-02
4.100000000000000000e+02 2.797564125061035156e+01 3.645804595947265625e+01 -2.725435793399810791e-01 -2.977299131453037262e-02 -9.069497138261795044e-02 9.493970125913619995e-02
4.110000000000000000e+02 2.807846832275390625e+01 3.719087982177734375e+01 -2.250791341066360474e-01 -7.758855074644088745e-02 -9.080030024051666260e-02 1.640817970037460327e-01
4.120000000000000000e+02 2.577564430236816406e+01 3.749948883056640625e+01 -5.798757821321487427e-02 -1.894860528409481049e-02 -2.308085560798645020e-02 6.396978348493576050e-02
4.130000000000000000e+02 2.654333496093750000e+01 3.739851379394531250e+01 -9.233430027961730957e-02 -6.350886076688766479e-02 -4.675294831395149231e-02 8.953500539064407349e-02
4.140000000000000000e+02 2.340743637084960938e+01 3.754123687744140625e+01 8.843059185892343521e-04 -2.753120288252830505e-02 -7.994069717824459076e-03 1.234283298254013062e-02
4.150000000000000000e+02 2.266618919372558594e+01 3.679620742797851562e+01 1.837620325386524200e-02 -1.734934747219085693e-02 3.080568858422338963e-04 2.104364801198244095e-03
4.160000000000000000e+02 2.419788742065429688e+01 3.680555725097656250e+01 -1.224592095240950584e-03 -1.528353244066238403e-02 -4.952437244355678558e-03 7.000739686191082001e-03
4.170000000000000000e+02 2.496211051940917969e+01 3.680892944335937500e+01 -2.804365940392017365e-02 3.857605392113327980e-03 -7.255816366523504257e-03 1.971417851746082306e-02
4.180000000000000000e+02 2.499495697021484375e+01 3.754912567138671875e+01 -4.262370616197586060e-02 -3.248538821935653687e-02 -2.253272756934165955e-02 3.682323545217514038e-02
4.190000000000000000e+02 2.261228370666503906e+01 3.753591537475585938e+01 -5.700813489966094494e-04 8.760633878409862518e-03 2.457165624946355820e-03 3.220466314814984798e-04
4.200000000000000000e+02 2.343242454528808594e+01 3.680136489868164062e+01 1.078969892114400864e-02 1.323264464735984802e-02 7.206703070551156998e-03 5.171110853552818298e-03
4.210000000000000000e+02 2.420181655883789062e+01 3.754558944702148438e+01 -2.404914237558841705e-02 4.752042237669229507e-03 -5.789129529148340225e-03 3.375216200947761536e-02
4.220000000000000000e+02 1.998039245605468750e+01 3.692026138305664062e+01 7.729189470410346985e-03 1.676012203097343445e-02 7.346793543547391891e-03 -4.563414491713047028e-03
4.230000000000000000e+02 2.062745285034179688e+01 3.732268142700195312e+01 1.270924508571624756e-02 -5.322406534105539322e-03 2.216051565483212471e-03 3.503914456814527512e-03
4.240000000000000000e+02 2.113145446777343750e+01 3.686664581298828125e+01 9.595494717359542847e-03 -1.142935268580913544e-02 -5.501576233655214310e-04 -8.258865214884281158e-03
4.250000000000000000e+02 2.021580696105957031e+01 3.715901565551757812e+01 1.880893483757972717e-02 6.432075053453445435e-03 7.572303060442209244e-03 -5.926956422626972198e-03
4.260000000000000000e+02 2.186282539367675781e+01 3.673282623291015625e+01 1.623472757637500763e-02 1.353337243199348450e-02 8.930429816246032715e-03 -1.721104781609028578e-04
4.270000000000000000e+02 2.186202239990234375e+01 3.748466491699218750e+01 4.721687640994787216e-03 -1.248856820166110992e-02 -2.330064075067639351e-03 3.016053931787610054e-03
4.280000000000000000e+02 2.119230079650878906e+01 3.743341445922851562e+01 1.405296381562948227e-02 1.974813640117645264e-03 4.808333236724138260e-03 -1.096908282488584518e-02
4.290000000000000000e+02 2.068652153015136719e+01 3.649208450317382812e+01 1.994027057662606239e-03 -1.147571019828319550e-02 -2.844505012035369873e-03 -1.690337317995727062e-03
4.300000000000000000e+02 2.102560424804687500e+01 3.579481887817382812e+01 -1.172139076516032219e-03 -6.644979584962129593e-04 -5.509910988621413708e-04 -3.899822942912578583e-03
4.310000000000000000e+02 2.197462081909179688e+01 3.519912338256835938e+01 -3.786847367882728577e-02 -2.546915970742702484e-02 -1.900129020214080811e-02 -4.354507848620414734e-02
4.320000000000000000e+02 2.189435958862304688e+01 3.593660354614257812e+01 -1.754979230463504791e-02 -1.044624391943216324e-02 -8.398811332881450653e-03 -1.279522012919187546e-02
4.330000000000000000e+02 2.057264900207519531e+01 3.514139175415039062e+01 2.068162575596943498e-04 -9.480398875894024968e-05 3.360367918503470719e-05 3.012636909261345863e-03
4.340000000000000000e+02 2.112965202331542969e+01 3.506163787841796875e+01 -1.187907066196203232e-02 -2.874805405735969543e-02 -1.218813750892877579e-02 -1.945331878960132599e-02
4.350000000000000000e+02 2.112760353088378906e+01 3.338484573364257812e+01 -1.455711200833320618e-02 -1.083543151617050171e-01 -3.687342628836631775e-02 -5.424456298351287842e-02
4.360000000000000000e+02 2.202674102783203125e+01 3.431886291503906250e+01 -4.368886724114418030e-02 -5.627461522817611694e-02 -2.998904511332511902e-02 -7.684978097677230835e-02
4.370000000000000000e+02 2.548756790161132812e+01 3.349185562133789062e+01 -2.236631512641906738e-01 3.193840850144624710e-03 -6.614079326391220093e-02 -2.490774989128112793e-01
4.380000000000000000e+02 2.699077033996582031e+01 3.427105712890625000e+01 -4.053218066692352295e-01 4.511192440986633301e-02 -1.080629676580429077e-01 -1.893161982297897339e-01
4.390000000000000000e+02 2.202131080627441406e+01 3.332258987426757812e+01 -3.217519074678421021e-02 -1.236079484224319458e-01 -4.673494398593902588e-02 -1.161545589566230774e-01
4.400000000000000000e+02 2.101356887817382812e+01 2.543613433837890625e+01 8.406979963183403015e-03 -9.487198591232299805e-01 -2.820938527584075928e-01 -3.280145674943923950e-02
4.410000000000000000e+02 2.604433059692382812e+01 1.684061431884765625e+01 1.197257861495018005e-01 8.081903457641601562e-01 2.783748507499694824e-01 5.309630036354064941e-01
4.420000000000000000e+02 3.333703231811523438e+01 1.273264503479003906e+01 -6.246418505907058716e-02 3.293567180633544922e+00 9.693308472633361816e-01 1.126712083816528320e+00
4.430000000000000000e+02 3.986469650268554688e+01 4.539971351623535156e+00 -5.498377680778503418e-01 5.114698886871337891e+00 1.369458317756652832e+00 6.942290663719177246e-01
4.440000000000000000e+02 5.075976943969726562e+01 -8.333317041397094727e-01 -6.656563282012939453e-01 6.692354202270507812e+00 1.808009386062622070e+00 -5.654969438910484314e-02
4.450000000000000000e+02 5.861232757568359375e+01 -9.851912498474121094e+00 -3.598368465900421143e-01 7.158978939056396484e+00 2.039742708206176758e+00 -2.605338096618652344e-01
4.460000000000000000e+02 6.622422027587890625e+01 -1.579186725616455078e+01 -1.467132121324539185e-01 7.894835472106933594e+00 2.324436664581298828e+00 -2.272960692644119263e-01
4.470000000000000000e+02 7.001704406738281250e+01 -2.341724777221679688e+01 -5.640522018074989319e-02 8.379687309265136719e+00 2.496984481811523438e+00 -1.150674819946289062e-01
4.480000000000000000e+02 7.793393707275390625e+01 -3.060006523132324219e+01 -5.758540704846382141e-03 9.494558334350585938e+00 2.846640110015869141e+00 -1.883238926529884338e-02
4.490000000000000000e+02 7.932316589355468750e+01 -2.645333671569824219e+01 2.824223600327968597e-03 9.658390045166015625e+00 2.898364305496215820e+00 -1.320982165634632111e-02
4.500000000000000000e+02 7.802776336669921875e+01 -2.357646369934082031e+01 -3.428602591156959534e-03 9.444692611694335938e+00 2.832379102706909180e+00 -2.995035797357559204e-02
4.510000000000000000e+02 7.934719848632812500e+01 -2.225496292114257812e+01 -1.896727015264332294e-03 9.614519119262695312e+00 2.883786916732788086e+00 -1.690845377743244171e-02
4.520000000000000000e+02 7.291169738769531250e+01 -1.241420745849609375e+01 -5.837634205818176270e-02 8.606000900268554688e+00 2.564287185668945312e+00 -2.084568589925765991e-01
4.530000000000000000e+02 6.545884704589843750e+01 -4.544781684875488281e+00 -2.897653877735137939e-01 7.823863029479980469e+00 2.260229349136352539e+00 -4.763914346694946289e-01
4.540000000000000000e+02 5.910207366943359375e+01 3.808760881423950195e+00 -6.059055328369140625e-01 7.646475791931152344e+00 2.112171173095703125e+00 -6.071613430976867676e-01
4.550000000000000000e+02 5.185920715332031250e+01 1.103156471252441406e+01 -8.616375327110290527e-01 7.797907352447509766e+00 2.080880880355834961e+00 -2.463123649358749390e-01
4.560000000000000000e+02 4.426627731323242188e+01 2.011739349365234375e+01 -5.321483016014099121e-01 8.074527740478515625e+00 2.262713909149169922e+00 1.293965339660644531e+00
4.570000000000000000e+02 3.615816879272460938e+01 2.883202362060546875e+01 1.735659599304199219e+00 1.174196958541870117e+00 8.729569911956787109e-01 1.252544760704040527e+00
4.580000000000000000e+02 3.206443786621093750e+01 3.280875778198242188e+01 -5.907939076423645020e-01 1.194648519158363342e-01 -1.413987129926681519e-01 -1.855619251728057861e-01
4.590000000000000000e+02 2.988781547546386719e+01 3.386555480957031250e+01 -6.874782443046569824e-01 7.799531519412994385e-02 -1.828448772430419922e-01 -1.640570759773254395e-01
4.600000000000000000e+02 2.378458786010742188e+01 -3.456201171875000000e+01 8.100008964538574219e-02 2.277853965759277344e+00 7.076562643051147461e-01 3.231160715222358704e-02
4.610000000000000000e+02 1.662505912780761719e+01 -3.861690139770507812e+01 -1.869555711746215820e-01 -3.395081683993339539e-02 -6.627191603183746338e-02 3.368350118398666382e-02
4.620000000000000000e+02 1.883130264282226562e+01 -3.915226364135742188e+01 -1.808823347091674805e-01 1.074199318885803223e+00 2.679950892925262451e-01 3.277438282966613770e-01
4.630000000000000000e+02 1.455712604522705078e+01 -3.648768234252929688e+01 -4.418520629405975342e-02 -3.003744781017303467e-02 -2.226679585874080658e-02 1.226464193314313889e-02
4.640000000000000000e+02 1.538197326660156250e+01 -3.760398483276367188e+01 -8.600296080112457275e-02 -1.676321774721145630e-02 -3.082985430955886841e-02 4.277895390987396240e-02
4.650000000000000000e+02 1.305532932281494141e+01 -3.157629394531250000e+01 -6.987383123487234116e-03 -3.007474821060895920e-03 -2.998457290232181549e-03 3.575773444026708603e-03
4.660000000000000000e+02 6.329660415649414062e-01 -2.472517967224121094e+01 -2.679994795471429825e-03 3.158386098220944405e-04 -7.092469022609293461e-04 -4.304678877815604210e-04
4.670000000000000000e+02 6.724617481231689453e-01 -3.034402275085449219e+01 -3.589130239561200142e-03 -5.973006773274391890e-05 -1.094658044166862965e-03 -8.985855965875089169e-04
4.680000000000000000e+02 6.977850198745727539e-01 -3.175290489196777344e+01 3.436826635152101517e-03 -5.886532017029821873e-04 8.544520242139697075e-04 2.059681282844394445e-04
4.690000000000000000e+02 8.639426231384277344e-01 -3.733459091186523438e+01 4.899488762021064758e-03 -6.487932521849870682e-03 -4.765331686940044165e-04 3.900001465808600187e-04
4.700000000000000000e+02 6.810601234436035156e+00 -3.859212112426757812e+01 1.654812716878950596e-03 -2.700106007978320122e-03 -3.135880106128752232e-04 -1.418019738048315048e-02
4.710000000000000000e+02 1.213182353973388672e+01 -4.145539093017578125e+01 7.024125009775161743e-02 8.898088708519935608e-03 2.374180033802986145e-02 -1.338314916938543320e-02
4.720000000000000000e+02 2.134128189086914062e+01 -3.357889556884765625e+01 7.170162349939346313e-02 2.083928585052490234e+00 6.466890573501586914e-01 1.011807769536972046e-01
4.730000000000000000e+02 1.966909217834472656e+01 -2.801209068298339844e+01 9.708111174404621124e-03 1.800552487373352051e+00 5.430781841278076172e-01 1.835194788873195648e-02
4.740000000000000000e+02 2.113371086120605469e+01 -3.083825492858886719e+01 -5.462478846311569214e-03 2.034560441970825195e+00 6.087293624877929688e-01 5.723517388105392456e-02
4.750000000000000000e+02 1.971484756469726562e+01 -3.503580856323242188e+01 5.080118775367736816e-02 2.060445070266723633e+00 6.333738565444946289e-01 1.757480204105377197e-01
4.760000000000000000e+02 1.952862358093261719e+01 -3.644178771972656250e+01 2.456876635551452637e-01 1.855251908302307129e+00 6.302818655967712402e-01 3.073199987411499023e-01
4.770000000000000000e+02 1.971017837524414062e+01 -2.380344772338867188e+01 -2.095906995236873627e-02 1.681592941284179688e+00 4.981901645660400391e-01 4.357469081878662109e-02
4.780000000000000000e+02 1.979125976562500000e+01 -2.098433303833007812e+01 4.449075553566217422e-03 1.705721974372863770e+00 5.130512714385986328e-01 5.282675474882125854e-02
4.790000000000000000e+02 2.126635360717773438e+01 -2.531139945983886719e+01 -2.302693575620651245e-02 1.949573397636413574e+00 5.779639482498168945e-01 6.111252307891845703e-02
4.800000000000000000e+02 2.066478538513183594e+01 -1.331624388694763184e+00 1.042298413813114166e-02 1.267484307289123535e+00 3.833721876144409180e-01 9.644590318202972412e-02
4.810000000000000000e+02 2.035687446594238281e+01 -6.936530590057373047e+00 -8.316371589899063110e-03 1.460141777992248535e+00 4.355476200580596924e-01 5.719068273901939392e-02
4.820000000000000000e+02 2.160864067077636719e+01 -1.116075897216796875e+01 4.615625366568565369e-03 1.863986492156982422e+00 5.605806708335876465e-01 1.150943711400032043e-01
4.830000000000000000e+02 2.662301063537597656e+01 -2.287882232666015625e+01 -3.966858983039855957e-02 2.667355775833129883e+00 7.883061170578002930e-01 1.147815212607383728e-01
4.840000000000000000e+02 3.627375793457031250e+01 -3.436248016357421875e+01 -8.177199959754943848e-02 3.965656280517578125e+00 1.165165305137634277e+00 2.262953110039234161e-02
4.850000000000000000e+02 4.696255493164062500e+01 -3.675289535522460938e+01 -1.095422059297561646e-01 5.407709121704101562e+00 1.589450120925903320e+00 1.799924648366868496e-03
4.860000000000000000e+02 5.224840927124023438e+01 -4.074534225463867188e+01 -1.034704446792602539e-01 6.104148387908935547e+00 1.800203323364257812e+00 -7.611321634612977505e-04
4.870000000000000000e+02 4.730685424804687500e+01 -4.063608169555664062e+01 -1.049630492925643921e-01 5.442903995513916016e+00 1.601382255554199219e+00 -2.896265359595417976e-04
4.880000000000000000e+02 6.199324035644531250e+01 -4.082115554809570312e+01 -6.143140420317649841e-02 7.381987094879150391e+00 2.196166753768920898e+00 -8.248080499470233917e-03
4.890000000000000000e+02 5.714057922363281250e+01 -4.083052062988281250e+01 -8.747484534978866577e-02 6.755794525146484375e+00 2.000495910644531250e+00 -9.105797857046127319e-03
4.900000000000000000e+02 5.596958923339843750e+01 -3.404827117919921875e+01 -1.003034412860870361e-01 6.614275932312011719e+00 1.954191684722900391e+00 -2.906852215528488159e-02
4.910000000000000000e+02 5.880057907104492188e+01 -2.298198127746582031e+01 -1.729734987020492554e-01 7.012604713439941406e+00 2.051889419555664062e+00 -1.000114530324935913e-01
4.920000000000000000e+02 5.949204254150390625e+01 -9.336122512817382812e+00 -3.463543057441711426e-01 7.272305965423583984e+00 2.077785491943359375e+00 -2.864488363265991211e-01
4.930000000000000000e+02 5.121640014648437500e+01 -1.302994537353515625e+01 -3.737855553627014160e-01 6.253794670104980469e+00 1.764002680778503418e+00 -5.120969563722610474e-02
4.940000000000000000e+02 5.402407455444335938e+01 -6.250019073486328125e+00 -5.019196867942810059e-01 6.795320034027099609e+00 1.888020038604736328e+00 -1.750750094652175903e-01
4.950000000000000000e+02 3.891594314575195312e+01 -4.602079868316650391e+00 -3.979008793830871582e-01 4.634737014770507812e+00 1.271050810813903809e+00 4.113735258579254150e-01
4.960000000000000000e+02 3.481737899780273438e+01 -1.644668698310852051e+00 -3.026503324508666992e-01 3.866371631622314453e+00 1.069116353988647461e+00 5.623727440834045410e-01
4.970000000000000000e+02 2.785899925231933594e+01 -2.006155014038085938e+00 -8.971396088600158691e-02 2.499779939651489258e+00 7.230198383331298828e-01 4.511148929595947266e-01
4.980000000000000000e+02 2.059046936035156250e+01 -2.738463878631591797e+00 1.985049247741699219e-02 1.353720307350158691e+00 4.120712280273437500e-01 1.163029670715332031e-01
4.990000000000000000e+02 2.031959533691406250e+01 -9.739991188049316406e+00 1.560993026942014694e-02 1.680787086486816406e+00 5.089191198348999023e-01 6.803519278764724731e-02
5.000000000000000000e+02 1.995832061767578125e+01 -1.676362228393554688e+01 -7.575436029583215714e-04 1.660455346107482910e+00 4.979093670845031738e-01 1.351203471422195435e-01
5.010000000000000000e+02 2.141410255432128906e+01 -1.679527282714843750e+01 -1.792201399803161621e-02 1.901915907859802246e+00 5.651981830596923828e-01 9.851517528295516968e-02
5.020000000000000000e+02 3.271467590332031250e+01 -3.066946220397949219e+01 -5.573538318276405334e-02 3.483557224273681641e+00 1.028346538543701172e+00 3.066766448318958282e-02
5.030000000000000000e+02 3.740484619140625000e+01 -4.089120864868164062e+01 -8.983526378870010376e-02 4.139945030212402344e+00 1.215032935142517090e+00 9.408356854692101479e-04
5.040000000000000000e+02 4.234334182739257812e+01 -4.068439865112304688e+01 -9.909784793853759766e-02 4.813744068145751953e+00 1.414393782615661621e+00 5.191493313759565353e-03
5.050000000000000000e+02 1.335346603393554688e+01 -3.583293914794921875e+01 -2.808425016701221466e-02 1.874145702458918095e-03 -7.863030768930912018e-03 2.059599384665489197e-02
5.060000000000000000e+02 1.395375633239746094e+01 -3.445635986328125000e+01 7.270923350006341934e-03 -8.819320239126682281e-03 -4.645192530006170273e-04 2.883347682654857635e-03
5.070000000000000000e+02 1.421862697601318359e+01 -3.310499572753906250e+01 -9.085204452276229858e-03 -2.370217349380254745e-03 -3.436626633629202843e-03 3.398112487047910690e-03
5.080000000000000000e+02 1.322766304016113281e+01 -2.629919242858886719e+01 -3.597474424168467522e-03 -3.336432273499667645e-04 -1.179335289634764194e-03 -4.500231589190661907e-04
5.090000000000000000e+02 1.911059617996215820e+00 -1.759307098388671875e+01 -1.731408410705626011e-03 -5.559569763136096299e-05 -5.361012299545109272e-04 -2.192083920817822218e-04
5.100000000000000000e+02 6.328521370887756348e-01 -2.332162284851074219e+01 2.480465453118085861e-03 4.274221428204327822e-04 8.723663049750030041e-04 4.330830124672502279e-04
5.110000000000000000e+02 1.444909000396728516e+01 -3.038684654235839844e+01 -6.035643164068460464e-03 4.857533785980194807e-04 -1.664966926909983158e-03 9.647655533626675606e-04
5.120000000000000000e+02 1.317407131195068359e+01 -2.899196434020996094e+01 -4.506436176598072052e-03 -9.899010183289647102e-04 -1.648901146836578846e-03 9.358081151731312275e-04
5.130000000000000000e+02 1.423276424407958984e+01 -2.201862525939941406e+01 -3.663279348984360695e-03 3.641336224973201752e-04 -9.897437412291765213e-04 -1.898840710055083036e-04
5.140000000000000000e+02 1.450201702117919922e+01 -1.348781776428222656e+01 -1.804111525416374207e-03 -6.712959293508902192e-05 -5.613723187707364559e-04 2.471210027579218149e-04
5.150000000000000000e+02 1.462792682647705078e+01 -6.545989036560058594e+00 1.149115734733641148e-03 3.548387758200988173e-05 3.553798887878656387e-04 3.960770300182048231e-06
5.160000000000000000e+02 1.461169624328613281e+01 -3.858796834945678711e+00 8.264589123427867889e-04 1.423549692844972014e-04 2.906441513914614916e-04 1.665963063715025783e-04
5.170000000000000000e+02 1.443084526062011719e+01 -2.837388277053833008e+00 -8.017381187528371811e-04 -1.671423087827861309e-04 -2.906641166191548109e-04 -3.900527954101562500e-04
5.180000000000000000e+02 1.032910823822021484e+01 -2.636410236358642578e+00 -3.214182506781071424e-04 -2.183753676945343614e-04 -1.619380782358348370e-04 2.184324112022295594e-04
5.190000000000000000e+02 1.344418525695800781e+01 -1.059809017181396484e+01 1.357909990474581718e-03 1.222030259668827057e-04 4.440338816493749619e-04 -1.841344346757978201e-04
5.200000000000000000e+02 1.285752964019775391e+01 -1.876892852783203125e+01 2.130249748006463051e-03 4.043295048177242279e-04 7.603738340549170971e-04 -9.600394405424594879e-04
5.210000000000000000e+02 1.321620178222656250e+01 -2.498008155822753906e+01 3.461527870967984200e-03 7.766957860440015793e-04 1.271467190235853195e-03 5.762622458860278130e-04
5.220000000000000000e+02 1.448356437683105469e+01 -2.623884773254394531e+01 4.114495590329170227e-03 8.384491084143519402e-04 1.485883491113781929e-03 1.829383254516869783e-04
5.230000000000000000e+02 1.109152507781982422e+01 -1.887522220611572266e+00 -3.543709171935915947e-04 -8.389032882405444980e-05 -1.314783730776980519e-04 1.896752510219812393e-04
5.240000000000000000e+02 4.273604393005371094e+00 -1.890452980995178223e+00 1.271470391657203436e-04 1.092642269213683903e-04 7.092337909853085876e-05 1.021215211949311197e-04
5.250000000000000000e+02 1.712481975555419922e+00 -1.058080959320068359e+01 1.142046996392309666e-03 5.181766755413264036e-05 3.581593919079750776e-04 1.218514080392196774e-04
5.260000000000000000e+02 6.363905072212219238e-01 -1.770412826538085938e+01 1.680471003055572510e-03 1.086973061319440603e-04 5.367504782043397427e-04 2.000553940888494253e-04
5.270000000000000000e+02 2.826210021972656250e+00 -3.799126052856445312e+01 4.675577394664287567e-03 -5.841796752065420151e-03 -3.498657024465501308e-04 -1.559049123898148537e-03
5.280000000000000000e+02 2.157394981384277344e+01 -3.658933258056640625e+01 9.737326949834823608e-02 1.904052138328552246e+00 6.004276275634765625e-01 -2.113169804215431213e-02
5.290000000000000000e+02 2.429118728637695312e+01 -3.644700622558593750e+01 8.203998208045959473e-03 2.321982145309448242e+00 6.990558505058288574e-01 -6.929090246558189392e-03
5.300000000000000000e+02 3.240813064575195312e+01 -3.821526336669921875e+01 -8.037759363651275635e-02 3.470641851425170898e+00 1.017079234123229980e+00 5.528718698769807816e-03
5.310000000000000000e+02 1.965556526184082031e+01 -3.080593681335449219e+01 1.916435547173023224e-02 1.881277322769165039e+00 5.701324939727783203e-01 2.632844075560569763e-02
5.320000000000000000e+02 6.230343246459960938e+01 -3.078739738464355469e+01 -8.930890262126922607e-02 7.425839424133300781e+00 2.200959205627441406e+00 -6.358867883682250977e-02
5.330000000000000000e+02 6.305813598632812500e+01 -2.334980010986328125e+01 -1.354551613330841064e-01 7.526215076446533203e+00 2.217227935791015625e+00 -1.226311922073364258e-01
5.340000000000000000e+02 6.496295166015625000e+01 -1.806677627563476562e+01 -1.486687213182449341e-01 7.763803005218505859e+00 2.284540414810180664e+00 -1.945575326681137085e-01
5.350000000000000000e+02 6.682633209228515625e+01 -4.064574813842773438e+01 -3.311864659190177917e-02 8.043903350830078125e+00 2.403235435485839844e+00 -1.063797902315855026e-02
5.360000000000000000e+02 7.099546051025390625e+01 -3.754141235351562500e+01 -2.854820527136325836e-02 8.559931755065917969e+00 2.559415102005004883e+00 -1.413861662149429321e-02
5.370000000000000000e+02 7.184481811523437500e+01 -3.059574699401855469e+01 -2.354405447840690613e-02 8.679605484008789062e+00 2.596818447113037109e+00 -4.487595707178115845e-02
5.380000000000000000e+02 7.098349761962890625e+01 -2.409484481811523438e+01 -4.149864986538887024e-02 8.517292022705078125e+00 2.542737960815429688e+00 -1.075221598148345947e-01
5.390000000000000000e+02 7.794673919677734375e+01 -4.162712097167968750e+01 4.586315155029296875e-02 9.546791076660156250e+00 2.877796411514282227e+00 1.286896970123052597e-02
5.400000000000000000e+02 7.794268035888671875e+01 -3.689468002319335938e+01 -8.224585093557834625e-03 9.523141860961914062e+00 2.854475259780883789e+00 2.202659286558628082e-02
5.410000000000000000e+02 7.933093261718750000e+01 -3.340591812133789062e+01 2.278345171362161636e-03 9.710436820983886719e+00 2.913814544677734375e+00 -7.258095312863588333e-03
5.420000000000000000e+02 7.810533142089843750e+01 -1.657894897460937500e+01 -4.477967508137226105e-03 9.340662002563476562e+00 2.800855159759521484e+00 -5.449959635734558105e-02
5.430000000000000000e+02 7.936828613281250000e+01 -1.250274658203125000e+01 4.462751385290175676e-04 9.399931907653808594e+00 2.820113420486450195e+00 -3.326234966516494751e-02
5.440000000000000000e+02 7.295048522949218750e+01 -5.613350391387939453e+00 -8.073986321687698364e-02 8.427909851074218750e+00 2.504151105880737305e+00 -3.313083648681640625e-01
5.450000000000000000e+02 6.622239685058593750e+01 4.345829010009765625e+00 -3.349371254444122314e-01 7.858318328857421875e+00 2.257014513015747070e+00 -7.751879096031188965e-01
5.460000000000000000e+02 6.030200576782226562e+01 9.320246696472167969e+00 -5.710830688476562500e-01 7.918900966644287109e+00 2.204345464706420898e+00 -8.756852746009826660e-01
5.470000000000000000e+02 4.828720092773437500e+01 1.930229187011718750e+01 -7.072649002075195312e-01 8.895836830139160156e+00 2.456571578979492188e+00 1.733631640672683716e-01
5.480000000000000000e+02 4.282608032226562500e+01 2.821807098388671875e+01 9.745762348175048828e-01 1.064562892913818359e+01 3.486061573028564453e+00 3.680058956146240234e+00
5.490000000000000000e+02 3.710712432861328125e+01 3.256112289428710938e+01 -3.996533155441284180e-01 6.650897115468978882e-02 -9.994330257177352905e-02 2.070835083723068237e-01
5.500000000000000000e+02 3.572024154663085938e+01 3.282272338867187500e+01 -8.175621032714843750e-01 5.769833177328109741e-02 -2.279591411352157593e-01 2.947027608752250671e-02
5.510000000000000000e+02 3.352625274658203125e+01 3.322440719604492188e+01 -9.263984560966491699e-01 8.736411482095718384e-02 -2.517102956771850586e-01 -6.592341512441635132e-02
5.520000000000000000e+02 7.809403991699218750e+01 -9.656091690063476562e+00 -8.324924856424331665e-03 9.130146980285644531e+00 2.736546516418457031e+00 -8.916348218917846680e-02
5.530000000000000000e+02 7.936519622802734375e+01 -5.540497779846191406e+00 -3.870048327371478081e-03 9.098391532897949219e+00 2.728356361389160156e+00 -4.962000995874404907e-02
5.540000000000000000e+02 7.296102142333984375e+01 1.451129198074340820e+00 -1.049606353044509888e-01 8.144670486450195312e+00 2.411912918090820312e+00 -5.025783777236938477e-01
5.550000000000000000e+02 6.614524841308593750e+01 9.242956161499023438e+00 -3.358920812606811523e-01 7.834202766418457031e+00 2.249493360519409180e+00 -9.743672609329223633e-01
5.560000000000000000e+02 5.982765579223632812e+01 1.785447311401367188e+01 -2.707169353961944580e-01 8.292375564575195312e+00 2.406497478485107422e+00 -1.214116692543029785e+00
5.570000000000000000e+02 4.847498703002929688e+01 2.835126113891601562e+01 1.693076014518737793e+00 1.155282688140869141e+01 3.973770856857299805e+00 -7.967877388000488281e-01
5.580000000000000000e+02 4.379620361328125000e+01 3.065237808227539062e+01 1.929868221282958984e+00 1.678021240234375000e+01 5.613023757934570312e+00 2.926616430282592773e+00
5.590000000000000000e+02 4.238661956787109375e+01 3.154155349731445312e+01 4.730849742889404297e+00 1.155411529541015625e+01 4.885489463806152344e+00 7.756867408752441406e+00
5.600000000000000000e+02 7.809504699707031250e+01 -2.695153236389160156e+00 -6.621478125452995300e-03 8.783314704895019531e+00 2.633008003234863281e+00 -1.397254317998886108e-01
5.610000000000000000e+02 7.936628723144531250e+01 2.825275421142578125e+00 -4.949912428855895996e-03 8.479339599609375000e+00 2.542316913604736328e+00 -7.544452697038650513e-02
5.620000000000000000e+02 7.297116851806640625e+01 9.956284523010253906e+00 -1.036147102713584900e-01 7.657681941986083984e+00 2.266220092773437500e+00 -7.327097654342651367e-01
5.630000000000000000e+02 6.555978393554687500e+01 1.592740440368652344e+01 -2.024333029985427856e-01 7.785270214080810547e+00 2.274851083755493164e+00 -1.205079913139343262e+00
5.640000000000000000e+02 5.661850738525390625e+01 2.813917922973632812e+01 1.177013635635375977e+00 9.011663436889648438e+00 3.056602954864501953e+00 -1.106331110000610352e+00
5.650000000000000000e+02 4.693730163574218750e+01 3.232664108276367188e+01 5.794683933258056641e+00 1.268607807159423828e+01 5.544228553771972656e+00 1.386487782001495361e-01
5.660000000000000000e+02 4.502035903930664062e+01 3.322380828857421875e+01 1.025777530670166016e+01 1.650784873962402344e+01 8.029686927795410156e+00 2.049702167510986328e+00
5.670000000000000000e+02 4.476386260986328125e+01 3.253932952880859375e+01 9.668137550354003906e+00 1.764705467224121094e+01 8.194558143615722656e+00 -5.538127422332763672e-01
5.680000000000000000e+02 4.482045364379882812e+01 3.193709373474121094e+01 7.055652141571044922e+00 1.791598129272460938e+01 7.491490364074707031e+00 -1.145542502403259277e+00
5.690000000000000000e+02 4.380916595458984375e+01 3.127574729919433594e+01 2.768100023269653320e+00 1.987805366516113281e+01 6.793846130371093750e+00 2.247279405593872070e+00
5.700000000000000000e+02 4.266311264038085938e+01 3.146621894836425781e+01 3.935502290725708008e+00 1.452223205566406250e+01 5.537320137023925781e+00 7.793632030487060547e+00
5.710000000000000000e+02 7.808905792236328125e+01 4.289312839508056641e+00 -1.312772650271654129e-02 8.243405342102050781e+00 2.469083309173583984e+00 -2.041895687580108643e-01
5.720000000000000000e+02 7.936611938476562500e+01 8.398652076721191406e+00 -5.334084853529930115e-03 7.870326519012451172e+00 2.359497547149658203e+00 -9.457251429557800293e-02
5.730000000000000000e+02 7.279262542724609375e+01 1.679148483276367188e+01 -4.241617023944854736e-02 7.146785259246826172e+00 2.131310701370239258e+00 -8.853924274444580078e-01
5.740000000000000000e+02 5.540351104736328125e+01 3.249649429321289062e+01 1.897603154182434082e+00 9.350830078125000000e+00 3.374530076980590820e+00 -4.087327122688293457e-01
5.750000000000000000e+02 5.267639923095703125e+01 4.093156051635742188e+01 4.718605875968933105e-01 1.166357040405273438e+01 3.640629529953002930e+00 3.452732563018798828e-01
5.760000000000000000e+02 4.090199279785156250e+01 3.533739471435546875e+01 7.935973405838012695e-01 2.820732831954956055e+00 1.084299087524414062e+00 -2.358321905136108398e+00
5.770000000000000000e+02 7.810468292236328125e+01 1.125516605377197266e+01 -4.206126090139150620e-03 7.485307216644287109e+00 2.244330406188964844e+00 -2.693542242050170898e-01
5.780000000000000000e+02 7.936530303955078125e+01 1.676085853576660156e+01 -6.718039046972990036e-03 6.660262584686279297e+00 1.996063351631164551e+00 -1.152599081397056580e-01
5.790000000000000000e+02 7.217046356201171875e+01 2.357333183288574219e+01 8.526024222373962402e-02 6.689936637878417969e+00 2.032559156417846680e+00 -9.304369091987609863e-01
5.800000000000000000e+02 5.348616790771484375e+01 3.785863876342773438e+01 1.178591489791870117e+00 1.091183376312255859e+01 3.627127408981323242e+00 6.862961649894714355e-01
5.810000000000000000e+02 4.800711822509765625e+01 4.090065002441406250e+01 -7.742395997047424316e-01 1.302523994445800781e+01 3.675300121307373047e+00 5.002731680870056152e-01
5.820000000000000000e+02 7.806094360351562500e+01 1.962125778198242188e+01 5.734222009778022766e-03 6.335979938507080078e+00 1.902514338493347168e+00 -3.219479918479919434e-01
5.830000000000000000e+02 7.933081054687500000e+01 2.373932266235351562e+01 5.375938024371862411e-03 5.519366741180419922e+00 1.657422900199890137e+00 -1.168925166130065918e-01
5.840000000000000000e+02 7.295123291015625000e+01 2.898120689392089844e+01 1.481132358312606812e-01 6.201582431793212891e+00 1.904908657073974609e+00 -7.163960337638854980e-01
5.850000000000000000e+02 6.225224685668945312e+01 4.086320877075195312e+01 9.071873426437377930e-01 8.240361213684082031e+00 2.744264602661132812e+00 -8.389221131801605225e-02
5.860000000000000000e+02 5.999907302856445312e+01 3.532360458374023438e+01 1.187493562698364258e+00 8.668933868408203125e+00 2.956928253173828125e+00 -3.706305027008056641e-01
5.870000000000000000e+02 7.664167022705078125e+01 2.249570846557617188e+01 1.154118590056896210e-02 6.132581233978271484e+00 1.843236804008483887e+00 -5.005669593811035156e-01
5.880000000000000000e+02 7.930490875244140625e+01 2.934404373168945312e+01 5.681214388459920883e-03 4.684669494628906250e+00 1.407105207443237305e+00 -9.846945106983184814e-02
5.890000000000000000e+02 7.115118408203125000e+01 3.765153884887695312e+01 3.257105946540832520e-01 6.167715549468994141e+00 1.948027849197387695e+00 -3.236710429191589355e-01
5.900000000000000000e+02 7.934017181396484375e+01 3.218105316162109375e+01 9.841879829764366150e-03 4.375096321105957031e+00 1.315481543540954590e+00 -6.254132837057113647e-02
5.910000000000000000e+02 7.889915466308593750e+01 3.735567474365234375e+01 1.834004302509129047e-03 4.098332881927490234e+00 1.230050086975097656e+00 -2.360563911497592926e-02
5.920000000000000000e+02 7.593463897705078125e+01 3.827951049804687500e+01 1.698962748050689697e-01 4.972402572631835938e+00 1.542689561843872070e+00 -1.474824398756027222e-01
5.930000000000000000e+02 3.652335357666015625e+01 3.643638229370117188e+01 -8.557724952697753906e-01 3.421463817358016968e-02 -2.464673519134521484e-01 5.914847254753112793e-01
5.940000000000000000e+02 3.587274932861328125e+01 3.679153442382812500e+01 -5.523903965950012207e-01 -8.189076930284500122e-02 -1.902843564748764038e-01 7.768137454986572266e-01
5.950000000000000000e+02 3.191107368469238281e+01 3.733276367187500000e+01 -4.182139933109283447e-01 -2.852244079113006592e-01 -2.110315263271331787e-01 4.774926006793975830e-01
5.960000000000000000e+02 2.977659797668457031e+01 3.763658523559570312e+01 -2.330904603004455566e-01 -1.798490732908248901e-01 -1.238818615674972534e-01 3.412265181541442871e-01
5.970000000000000000e+02 2.677251052856445312e+01 3.814477920532226562e+01 -7.788459211587905884e-02 -8.392997086048126221e-02 -4.854436963796615601e-02 1.528427749872207642e-01
5.980000000000000000e+02 2.239738464355468750e+01 3.845047378540039062e+01 -4.187489394098520279e-03 -1.322246994823217392e-02 -5.222987849265336990e-03 1.251370925456285477e-02
5.990000000000000000e+02 2.171066474914550781e+01 4.053989028930664062e+01 -5.106902681291103363e-03 -2.974935807287693024e-02 -1.045687776058912277e-02 1.387619413435459137e-02
6.000000000000000000e+02 1.942653274536132812e+01 3.769380187988281250e+01 2.909592352807521820e-02 1.529848389327526093e-02 1.331832259893417358e-02 -1.967195793986320496e-02
6.010000000000000000e+02 1.944285392761230469e+00 2.594698524475097656e+01 -6.184960366226732731e-04 -6.037750608811620623e-06 -1.873601431725546718e-04 4.464525045477785170e-05
6.020000000000000000e+02 1.897809028625488281e+00 3.016909790039062500e+01 6.290149176493287086e-04 -6.738551019225269556e-05 1.684888266026973724e-04 8.982387953437864780e-05
6.030000000000000000e+02 4.412848472595214844e+00 3.752785873413085938e+01 8.121357677737250924e-05 -1.368889497825875878e-04 -1.670261190156452358e-05 -1.788954687071964145e-04
6.040000000000000000e+02 2.008930921554565430e+00 4.162285232543945312e+01 -5.883691483177244663e-04 8.470071770716458559e-05 -1.511005248175933957e-04 -1.822432095650583506e-04
6.050000000000000000e+02 1.419605445861816406e+01 3.769297027587890625e+01 -1.376148778945207596e-03 2.458089438732713461e-04 -3.391019708942621946e-04 3.572485875338315964e-04
6.060000000000000000e+02 1.368247985839843750e+01 3.595925521850585938e+01 2.659020246937870979e-03 -1.236742478795349598e-03 4.266833420842885971e-04 1.366363867418840528e-04
6.070000000000000000e+02 1.306881427764892578e+01 3.355983352661132812e+01 1.555391703732311726e-03 3.138118772767484188e-04 5.607610801234841347e-04 -2.242459013359621167e-04
6.080000000000000000e+02 1.460761737823486328e+01 2.295256805419921875e+01 -1.170578529126942158e-03 -2.040411891357507557e-05 -3.572948044165968895e-04 6.957591540412977338e-05
6.090000000000000000e+02 1.442724895477294922e+01 1.740946197509765625e+01 -8.716869633644819260e-04 2.670738285814877599e-05 -2.534938685130327940e-04 1.518332192063098773e-05
6.100000000000000000e+02 1.454622077941894531e+01 1.043968677520751953e+01 4.934846074320375919e-04 1.111848905566148460e-05 1.513809256721287966e-04 8.123227416945155710e-06
6.110000000000000000e+02 1.367942523956298828e+01 1.822217583656311035e+00 4.501294824876822531e-05 1.732464988890569657e-05 1.870127925940323621e-05 5.953535946900956333e-05
6.120000000000000000e+02 1.317283535003662109e+01 1.769591689109802246e+00 -1.156707730842754245e-05 -5.026025610277429223e-05 -1.854820038715843111e-05 -2.427511026326101273e-05
6.130000000000000000e+02 6.684743762016296387e-01 3.461325836181640625e+01 5.044646095484495163e-04 -3.270698653068393469e-05 1.415272854501381516e-04 -1.261770667042583227e-04
6.140000000000000000e+02 6.331780552864074707e-01 2.755154037475585938e+01 -5.302723147906363010e-04 -2.849672819138504565e-05 -1.676307147135958076e-04 5.671211692970246077e-05
6.150000000000000000e+02 6.416791081428527832e-01 2.044972419738769531e+01 5.825316184200346470e-04 1.185157998406793922e-05 1.783149491529911757e-04 -7.278997509274631739e-05
6.160000000000000000e+02 1.810968399047851562e+00 1.601627349853515625e+01 6.215119501575827599e-04 -1.480726496083661914e-06 1.860093761933967471e-04 -1.026715690386481583e-04
6.170000000000000000e+02 1.219716453552246094e+01 1.170496177673339844e+01 -3.717478248290717602e-04 -1.341992028756067157e-04 -1.517841155873611569e-04 -1.669376506470143795e-04
6.180000000000000000e+02 1.289804077148437500e+01 1.609426879882812500e+01 -8.158627315424382687e-04 3.266022758907638490e-05 -2.349607530049979687e-04 -3.002079029101878405e-05
6.190000000000000000e+02 1.195713710784912109e+01 1.906416702270507812e+01 8.600112050771713257e-04 -4.982110840501263738e-05 2.430570311844348907e-04 1.263854210264980793e-05
6.200000000000000000e+02 1.342327308654785156e+01 2.441832542419433594e+01 -1.115977065637707710e-03 -4.545410774881020188e-05 -3.484293411020189524e-04 7.597118383273482323e-05
6.210000000000000000e+02 1.352131557464599609e+01 2.576748847961425781e+01 1.131401513703167439e-03 5.857350333826616406e-05 3.569925029296427965e-04 -6.822449358878657222e-05
6.220000000000000000e+02 1.237945461273193359e+01 2.963035392761230469e+01 1.140762935392558575e-03 1.791860559023916721e-04 3.959847090300172567e-04 1.045825629262253642e-04
6.230000000000000000e+02 5.913346409797668457e-01 1.482945823669433594e+01 6.340089603327214718e-04 1.774523661879356951e-05 1.955262705450877547e-04 -1.115678314818069339e-04
6.240000000000000000e+02 1.666456818580627441e+00 9.053189277648925781e+00 -3.792520437855273485e-04 -4.017322498839348555e-05 -1.258275733562186360e-04 1.040858478518202901e-04
6.250000000000000000e+02 8.923854827880859375e+00 2.598693132400512695e+00 1.153056291514076293e-04 5.832135866512544453e-05 5.208809670875780284e-05 3.610404382925480604e-05
6.260000000000000000e+02 9.652803421020507812e+00 1.862385869026184082e+00 1.054944441420957446e-04 2.848471922334283590e-05 4.019375046482309699e-05 1.535017327114474028e-05
6.270000000000000000e+02 1.116723418235778809e+00 3.770977258682250977e+00 4.958659337717108428e-05 -1.011568238027393818e-04 -1.547106876387260854e-05 1.990528253372758627e-04
6.280000000000000000e+02 5.240380167961120605e-01 6.387731552124023438e+00 3.000677388627082109e-04 3.167814065818674862e-05 9.952376422006636858e-05 -3.365113298059441149e-05
6.290000000000000000e+02 3.698452234268188477e+00 3.679186344146728516e+00 2.129190397681668401e-04 4.913858720101416111e-05 7.861728954594582319e-05 -4.064025415573269129e-05
6.300000000000000000e+02 1.342382049560546875e+01 1.045045089721679688e+01 -4.378192825242877007e-04 -4.760636875289492309e-05 -1.456276950193569064e-04 -6.864178430987522006e-05
6.310000000000000000e+02 1.448243045806884766e+01 2.019440078735351562e+01 -1.061616814695298672e-03 -1.035748482536291704e-06 -3.187957627233117819e-04 8.078173414105549455e-05
6.320000000000000000e+02 1.539160346984863281e+01 3.118216133117675781e+01 -2.107205335050821304e-03 -6.168013351270928979e-05 -6.506656645797193050e-04 -6.247994315344840288e-05
6.330000000000000000e+02 1.523690032958984375e+01 2.980060005187988281e+01 1.883373479358851910e-03 -8.263677591457962990e-05 5.402209935709834099e-04 6.985184882069006562e-05
6.340000000000000000e+02 1.800959587097167969e+01 3.783071136474609375e+01 1.035039033740758896e-02 1.080894190818071365e-02 6.347799673676490784e-03 -5.794005934149026871e-03
6.350000000000000000e+02 1.584649848937988281e+01 4.057649612426757812e+01 1.412604586221277714e-03 -9.349909960292279720e-04 1.432840654160827398e-04 -1.073153805918991566e-03
6.360000000000000000e+02 1.868154716491699219e+01 3.972874069213867188e+01 -5.419185850769281387e-03 1.203659176826477051e-02 1.985221635550260544e-03 -6.142765749245882034e-03
6.370000000000000000e+02 1.227108383178710938e+01 4.116275787353515625e+01 -1.694042352028191090e-03 1.845688442699611187e-03 4.549384175334125757e-05 -2.147854072973132133e-03
6.380000000000000000e+02 1.976503372192382812e+01 3.781739044189453125e+01 1.118424814194440842e-02 3.034336725249886513e-03 4.265575669705867767e-03 8.890787721611559391e-04
6.390000000000000000e+02 2.095970916748046875e+01 3.810158920288085938e+01 4.172307904809713364e-03 -5.026255268603563309e-03 -2.561841683927923441e-04 5.215903744101524353e-03
6.400000000000000000e+02 4.326199722290039062e+01 3.581323242187500000e+01 -7.675955295562744141e-01 1.544255828857421875e+01 4.402488708496093750e+00 -2.613409996032714844e+00
6.410000000000000000e+02 4.391775512695312500e+01 3.482487487792968750e+01 9.060531258583068848e-01 2.089392471313476562e+01 6.539993286132812500e+00 1.136313915252685547e+00
6.420000000000000000e+02 4.549168014526367188e+01 3.413564300537109375e+01 6.477344036102294922e+00 1.618780517578125000e+01 6.799544811248779297e+00 3.325336217880249023e+00
6.430000000000000000e+02 2.789718437194824219e+01 2.350985717773437500e+01 4.464261233806610107e-01 5.966907143592834473e-01 3.129350543022155762e-01 2.726839184761047363e-01
6.440000000000000000e+02 2.663412094116210938e+01 2.444452095031738281e+01 3.405728936195373535e-01 2.525685727596282959e-01 1.779424399137496948e-01 7.317835837602615356e-02
6.450000000000000000e+02 3.673403930664062500e+01 2.879270935058593750e+01 1.929238319396972656e+00 1.408051609992980957e+00 1.001186966896057129e+00 1.541291832923889160e+00
6.460000000000000000e+02 4.418751144409179688e+01 2.855333900451660156e+01 6.923717260360717773e-01 1.289269733428955078e+01 4.075520992279052734e+00 2.229981899261474609e+00
6.470000000000000000e+02 5.353146362304687500e+01 2.581994247436523438e+01 7.705779671669006348e-01 9.589927673339843750e+00 3.108151674270629883e+00 -1.122272014617919922e+00
6.480000000000000000e+02 6.481880187988281250e+01 2.330047225952148438e+01 2.069044560194015503e-01 7.714370250701904297e+00 2.376382350921630859e+00 -1.275569558143615723e+00
6.490000000000000000e+02 7.268724060058593750e+01 2.217498970031738281e+01 4.912942647933959961e-02 6.717723846435546875e+00 2.030055999755859375e+00 -9.064871072769165039e-01
6.500000000000000000e+02 7.179164123535156250e+01 3.024255943298339844e+01 2.474564611911773682e-01 6.361605644226074219e+00 1.982718586921691895e+00 -7.120816111564636230e-01
6.510000000000000000e+02 6.050251007080078125e+01 3.120229530334472656e+01 1.161966323852539062e+00 8.412205696105957031e+00 2.872251510620117188e+00 -8.107498288154602051e-01
6.520000000000000000e+02 5.735502624511718750e+01 3.548044586181640625e+01 1.397584676742553711e+00 9.293864250183105469e+00 3.207434654235839844e+00 -6.244714185595512390e-02
6.530000000000000000e+02 4.672152328491210938e+01 3.381993865966796875e+01 5.794867038726806641e+00 1.317232418060302734e+01 5.690157413482666016e+00 1.759327411651611328e+00
6.540000000000000000e+02 3.352724075317382812e+01 1.575356006622314453e+01 1.139636859297752380e-01 3.185314416885375977e+00 9.897834062576293945e-01 1.256088376045227051e+00
6.550000000000000000e+02 3.365618515014648438e+01 1.678270912170410156e+01 2.012168169021606445e-01 3.147524356842041016e+00 1.004622340202331543e+00 1.310316562652587891e+00
6.560000000000000000e+02 3.916895675659179688e+01 1.883063316345214844e+01 9.738002903759479523e-03 5.443237781524658203e+00 1.635892748832702637e+00 1.782784461975097656e+00
6.570000000000000000e+02 4.789571380615234375e+01 2.038043785095214844e+01 -6.516268253326416016e-01 9.123406410217285156e+00 2.541533946990966797e+00 2.689433395862579346e-01
6.580000000000000000e+02 6.036802291870117188e+01 1.609089469909667969e+01 -3.688095211982727051e-01 8.195557594299316406e+00 2.348024606704711914e+00 -1.173284411430358887e+00
6.590000000000000000e+02 6.360295867919921875e+01 2.204656982421875000e+01 1.293788552284240723e-01 7.899896144866943359e+00 2.408782482147216797e+00 -1.325230360031127930e+00
6.600000000000000000e+02 7.278317260742187500e+01 1.816427803039550781e+01 -3.409684076905250549e-02 7.045327186584472656e+00 2.103368997573852539e+00 -8.962752223014831543e-01
6.610000000000000000e+02 2.728144454956054688e+01 1.659348678588867188e+01 1.540931165218353271e-01 1.169930458068847656e+00 3.972070813179016113e-01 6.560432910919189453e-01
6.620000000000000000e+02 2.717407417297363281e+01 1.237356662750244141e+01 1.698525995016098022e-02 1.530326724052429199e+00 4.641936123371124268e-01 7.042633891105651855e-01
6.630000000000000000e+02 2.593749618530273438e+01 4.158393859863281250e+00 -3.319398313760757446e-02 1.819252610206604004e+00 5.358175635337829590e-01 5.026696324348449707e-01
6.640000000000000000e+02 2.593511199951171875e+01 2.815466880798339844e+00 -3.587229922413825989e-02 1.899201154708862305e+00 5.589986443519592285e-01 4.722636640071868896e-01
6.650000000000000000e+02 3.330590057373046875e+01 2.101421833038330078e+00 -2.707925140857696533e-01 3.543583154678344727e+00 9.818372130393981934e-01 6.882689595222473145e-01
6.660000000000000000e+02 3.460445785522460938e+01 5.118967056274414062e+00 -3.133926987648010254e-01 3.841408729553222656e+00 1.058404803276062012e+00 8.273013830184936523e-01
6.670000000000000000e+02 3.370806884765625000e+01 1.163633918762207031e+01 -1.361535638570785522e-01 3.445759296417236328e+00 9.928817749023437500e-01 1.090958952903747559e+00
6.680000000000000000e+02 2.839352416992187500e+01 9.382179260253906250e+00 -4.756225645542144775e-02 2.079436302185058594e+00 6.095621585845947266e-01 7.620965242385864258e-01
6.690000000000000000e+02 3.969699096679687500e+01 1.388636875152587891e+01 -3.994527757167816162e-01 5.448822498321533203e+00 1.514810919761657715e+00 1.251437783241271973e+00
6.700000000000000000e+02 3.935358428955078125e+01 1.299551105499267578e+01 -4.191447198390960693e-01 5.328324794769287109e+00 1.472754001617431641e+00 1.201646685600280762e+00
6.710000000000000000e+02 5.304141616821289062e+01 1.210516452789306641e+01 -8.313668966293334961e-01 8.021944046020507812e+00 2.157173156738281250e+00 -4.173788726329803467e-01
6.720000000000000000e+02 5.965683746337890625e+01 1.038553047180175781e+01 -5.789998769760131836e-01 7.960536479949951172e+00 2.214461088180541992e+00 -8.883419036865234375e-01
6.730000000000000000e+02 6.543380737304687500e+01 1.250550651550292969e+01 -3.049877583980560303e-01 7.834874629974365234e+00 2.258965969085693359e+00 -1.103752136230468750e+00
6.740000000000000000e+02 7.303681182861328125e+01 1.129458808898925781e+01 -9.121487289667129517e-02 7.563770771026611328e+00 2.241766691207885742e+00 -7.608773708343505859e-01
6.750000000000000000e+02 2.105793190002441406e+01 1.839692306518554688e+01 6.678118836134672165e-03 -8.312201499938964844e-01 -2.473626136779785156e-01 5.371094122529029846e-02
6.760000000000000000e+02 2.105987548828125000e+01 1.698641014099121094e+01 3.427289426326751709e-03 -7.016724348068237305e-01 -2.094735503196716309e-01 6.529115140438079834e-02
6.770000000000000000e+02 2.106585502624511719e+01 9.941053390502929688e+00 -8.981354185380041599e-04 1.726585179567337036e-01 5.152811482548713684e-02 8.365198969841003418e-02
6.780000000000000000e+02 2.101814842224121094e+01 4.289683818817138672e+00 1.747518219053745270e-02 9.231057167053222656e-01 2.821742594242095947e-01 1.103297173976898193e-01
6.790000000000000000e+02 2.105599594116210938e+01 5.707464694976806641e+00 6.327366456389427185e-03 7.454716563224792480e-01 2.255397140979766846e-01 8.916771411895751953e-02
6.800000000000000000e+02 4.602867126464843750e+01 1.208277583122253418e+00 -6.836407184600830078e-01 6.150100708007812500e+00 1.639937996864318848e+00 2.448975890874862671e-01
6.810000000000000000e+02 4.995674896240234375e+01 3.287590503692626953e+00 -7.660408616065979004e-01 6.857955455780029297e+00 1.827574372291564941e+00 -4.736436065286397934e-03
6.820000000000000000e+02 5.951748657226562500e+01 2.297268390655517578e+00 -5.635337829589843750e-01 7.611726284027099609e+00 2.114457845687866211e+00 -5.810053348541259766e-01
6.830000000000000000e+02 6.649001312255859375e+01 1.501421213150024414e+00 -3.145553469657897949e-01 7.879602909088134766e+00 2.269514322280883789e+00 -6.705354452133178711e-01
6.840000000000000000e+02 7.283602905273437500e+01 3.755891561508178711e+00 -1.132419481873512268e-01 8.027441024780273438e+00 2.374259948730468750e+00 -5.736548900604248047e-01
6.850000000000000000e+02 2.106291007995605469e+01 1.275866889953613281e+01 9.210158896166831255e-05 -1.993733197450637817e-01 -5.978436395525932312e-02 8.240883797407150269e-02
6.860000000000000000e+02 3.984248352050781250e+01 -2.602446079254150391e-01 -4.917898774147033691e-01 4.928220748901367188e+00 1.330929160118103027e+00 5.155456662178039551e-01
6.870000000000000000e+02 6.142625045776367188e+01 -4.257503509521484375e+00 -4.076464772224426270e-01 7.539042472839355469e+00 2.139418840408325195e+00 -4.423225522041320801e-01
6.880000000000000000e+02 6.039231872558593750e+01 -2.925395011901855469e+00 -4.565002620220184326e-01 7.497797966003417969e+00 2.112389326095581055e+00 -4.515619575977325439e-01
6.890000000000000000e+02 6.512554168701171875e+01 -1.451102018356323242e+00 -3.352595567703247070e-01 7.812723159790039062e+00 2.243238925933837891e+00 -5.675863027572631836e-01
6.900000000000000000e+02 7.024475097656250000e+01 -3.586762189865112305e+00 -1.585966199636459351e-01 8.155399322509765625e+00 2.399040699005126953e+00 -4.526659548282623291e-01
6.910000000000000000e+02 2.910841178894042969e+01 -3.326140165328979492e+00 -1.187318041920661926e-01 2.765056371688842773e+00 7.938973903656005859e-01 4.508484899997711182e-01
6.920000000000000000e+02 2.729018783569335938e+01 -8.283493995666503906e+00 -6.688935309648513794e-02 2.567691802978515625e+00 7.502407431602478027e-01 3.042362034320831299e-01
6.930000000000000000e+02 3.392164230346679688e+01 -1.567854309082031250e+01 -1.549259722232818604e-01 3.681615591049194336e+00 1.058006882667541504e+00 2.261742353439331055e-01
6.940000000000000000e+02 4.234097671508789062e+01 -2.274003219604492188e+01 -1.707107573747634888e-01 4.870364665985107422e+00 1.409896254539489746e+00 5.543110519647598267e-02
6.950000000000000000e+02 5.218033218383789062e+01 -2.993033981323242188e+01 -1.358436644077301025e-01 6.114126682281494141e+00 1.793484926223754883e+00 -3.025331348180770874e-02
6.960000000000000000e+02 5.990224456787109375e+01 -3.411908340454101562e+01 -7.879706472158432007e-02 7.135558605194091797e+00 2.117028474807739258e+00 -4.693190008401870728e-02
6.970000000000000000e+02 3.633466339111328125e+01 -7.790726423263549805e-01 -3.664443790912628174e-01 4.199694633483886719e+00 1.149975180625915527e+00 5.830978155136108398e-01
6.980000000000000000e+02 3.216093444824218750e+01 -1.124552345275878906e+01 -1.477177143096923828e-01 3.379978418350219727e+00 9.696782231330871582e-01 3.003844618797302246e-01
6.990000000000000000e+02 4.393855285644531250e+01 -1.580247306823730469e+01 -2.921518087387084961e-01 5.231259822845458984e+00 1.481732368469238281e+00 1.056428328156471252e-01
7.000000000000000000e+02 4.888075637817382812e+01 -2.214887809753417969e+01 -2.199449837207794189e-01 5.758739948272705078e+00 1.661638498306274414e+00 7.168503943830728531e-03
7.010000000000000000e+02 4.157297897338867188e+01 -2.630405902862548828e+00 -5.019921064376831055e-01 5.173161983489990234e+00 1.401350855827331543e+00 3.884509801864624023e-01
7.020000000000000000e+02 4.418307495117187500e+01 -8.017818450927734375e+00 -4.404284656047821045e-01 5.416920185089111328e+00 1.492947578430175781e+00 1.967333704233169556e-01
7.030000000000000000e+02 5.236848068237304688e+01 -1.604652786254882812e+01 -3.051930665969848633e-01 6.331674575805664062e+00 1.807944416999816895e+00 -6.680484861135482788e-02
7.040000000000000000e+02 5.658798599243164062e+01 -1.506944751739501953e+01 -2.924370765686035156e-01 6.860835552215576172e+00 1.970519661903381348e+00 -1.492883712053298950e-01
7.050000000000000000e+02 6.660497283935546875e+01 -1.214234161376953125e+01 -1.735277473926544189e-01 7.937222480773925781e+00 2.329108476638793945e+00 -2.935109138488769531e-01
7.060000000000000000e+02 6.480044555664062500e+01 -1.205488872528076172e+01 -2.114025950431823730e-01 7.760096073150634766e+00 2.264608144760131836e+00 -2.922263443470001221e-01
7.070000000000000000e+02 7.152429199218750000e+01 -1.110142040252685547e+01 -9.053002297878265381e-02 8.424785614013671875e+00 2.500276565551757812e+00 -2.601699233055114746e-01
7.080000000000000000e+02 2.894876480102539062e+01 -1.195079898834228516e+01 -8.189802616834640503e-02 2.887717008590698242e+00 8.417456746101379395e-01 2.658757567405700684e-01
7.090000000000000000e+02 2.770310783386230469e+01 -1.630371284484863281e+01 -5.545375123620033264e-02 2.732289791107177734e+00 8.030507564544677734e-01 1.733524352312088013e-01
7.100000000000000000e+02 3.777207946777343750e+01 -2.201166152954101562e+01 -1.423263996839523315e-01 4.205765724182128906e+00 1.219031810760498047e+00 1.250963062047958374e-01
7.110000000000000000e+02 4.375685119628906250e+01 -3.105453109741210938e+01 -1.205743178725242615e-01 5.006364345550537109e+00 1.465737104415893555e+00 1.430316176265478134e-02
7.120000000000000000e+02 5.182077407836914062e+01 -3.360053253173828125e+01 -1.178573295474052429e-01 6.068910121917724609e+00 1.785315752029418945e+00 -2.015399746596813202e-02
7.130000000000000000e+02 3.448440551757812500e+01 -8.525532722473144531e+00 -2.192440032958984375e-01 3.784144163131713867e+00 1.069470047950744629e+00 3.607241511344909668e-01
7.140000000000000000e+02 4.263351821899414062e+01 -9.014082908630371094e+00 -3.948774635791778564e-01 5.150140285491943359e+00 1.426578760147094727e+00 2.190825790166854858e-01
7.150000000000000000e+02 5.297072982788085938e+01 -1.389008235931396484e+01 -3.468449115753173828e-01 6.459160327911376953e+00 1.833694577217102051e+00 -8.620668202638626099e-02
7.160000000000000000e+02 7.305496978759765625e+01 -1.875931739807128906e+01 -3.735587373375892639e-02 8.735959053039550781e+00 2.609580993652343750e+00 -1.299652457237243652e-01
7.170000000000000000e+02 7.181481170654296875e+01 -1.834648513793945312e+01 -5.615416914224624634e-02 8.576742172241210938e+00 2.556176424026489258e+00 -1.530771255493164062e-01
7.180000000000000000e+02 2.008088684082031250e+01 -1.536292648315429688e+01 1.964318752288818359e-02 1.766883254051208496e+00 5.359579324722290039e-01 1.477574706077575684e-01
7.190000000000000000e+02 3.660277938842773438e+01 -1.790945053100585938e+01 -1.744726151227951050e-01 4.081199645996093750e+00 1.172018051147460938e+00 1.738043427467346191e-01
7.200000000000000000e+02 3.983194351196289062e+01 -1.697558403015136719e+01 -2.182877063751220703e-01 4.556452274322509766e+00 1.301449418067932129e+00 1.530804187059402466e-01
7.210000000000000000e+02 4.849248123168945312e+01 -1.860744476318359375e+01 -2.646868824958801270e-01 5.772057056427001953e+00 1.652211070060729980e+00 1.618565618991851807e-02
7.220000000000000000e+02 2.773877334594726562e+01 -2.803905105590820312e+01 -1.787211373448371887e-02 2.822762966156005859e+00 8.414672613143920898e-01 8.385682106018066406e-02
7.230000000000000000e+02 3.356228256225585938e+01 -2.054585647583007812e+01 -1.165355965495109558e-01 3.633900642395019531e+00 1.055209517478942871e+00 1.522862017154693604e-01
7.240000000000000000e+02 3.770734786987304688e+01 -2.802380561828613281e+01 -1.249832510948181152e-01 4.163124561309814453e+00 1.211442351341247559e+00 6.936114281415939331e-02
7.250000000000000000e+02 5.077264022827148438e+01 -2.453753089904785156e+01 -1.851037442684173584e-01 5.991199016571044922e+00 1.741828560829162598e+00 -2.272645197808742523e-02
7.260000000000000000e+02 6.339601516723632812e+01 -2.551287269592285156e+01 -1.119069755077362061e-01 7.563133239746093750e+00 2.235368013381958008e+00 -1.035692989826202393e-01
7.270000000000000000e+02 3.891313934326171875e+01 -3.033087921142578125e+01 -1.078022420406341553e-01 4.355555534362792969e+00 1.274325966835021973e+00 4.384071379899978638e-02
7.280000000000000000e+02 4.060198211669921875e+01 -3.331307220458984375e+01 -1.061983108520507812e-01 4.606079101562500000e+00 1.349964141845703125e+00 2.230584807693958282e-02
7.290000000000000000e+02 6.489056396484375000e+01 -3.016899681091308594e+01 -7.321061193943023682e-02 7.751452922821044922e+00 2.303472757339477539e+00 -6.726311892271041870e-02
7.300000000000000000e+02 7.285022735595703125e+01 -3.318268966674804688e+01 -1.146026607602834702e-02 8.797854423522949219e+00 2.635918140411376953e+00 -2.292355522513389587e-02
7.310000000000000000e+02 1.183376407623291016e+01 -3.144070625305175781e+01 3.823626320809125900e-03 9.869103087112307549e-05 1.176695222966372967e-03 -4.941879888065159321e-04
7.320000000000000000e+02 1.440530204772949219e+01 -1.766577529907226562e+01 2.702880185097455978e-03 2.129116328433156013e-04 8.747375686652958393e-04 -5.670059472322463989e-04
7.330000000000000000e+02 1.172109985351562500e+01 -1.712987136840820312e+01 1.688760938122868538e-03 4.723989695776253939e-04 6.483480101451277733e-04 -8.071180200204253197e-04
7.340000000000000000e+02 1.455664730072021484e+01 -1.069930076599121094e+01 -1.512159127742052078e-03 -4.326006819610483944e-05 -4.666257591452449560e-04 1.253224036190658808e-04
7.350000000000000000e+02 1.231940269470214844e+01 -1.045254898071289062e+01 -1.203938503749668598e-03 -1.860821939771994948e-04 -4.170062020421028137e-04 2.048518217634409666e-04
7.360000000000000000e+02 5.733788013458251953e-01 -1.065625381469726562e+01 -1.084092189557850361e-03 -1.531445923319552094e-05 -3.298219817224889994e-04 -7.120946247596293688e-05
7.370000000000000000e+02 1.348885631561279297e+01 9.119429588317871094e+00 3.872891829814761877e-04 4.335315315984189510e-05 1.291927037527784705e-04 3.408666452742181718e-05
7.380000000000000000e+02 2.626720237731933594e+01 3.434413146972656250e+01 -3.378874361515045166e-01 3.225985914468765259e-02 -9.168826788663864136e-02 -1.858150362968444824e-01
7.390000000000000000e+02 2.472033691406250000e+01 3.443208694458007812e+01 -2.057954221963882446e-01 -4.917731974273920059e-03 -6.321394443511962891e-02 -1.647485941648483276e-01
7.400000000000000000e+02 2.097469520568847656e+01 2.963513374328613281e+01 -1.169502735137939453e-03 -5.338997840881347656e-01 -1.605207771062850952e-01 -6.374669075012207031e-02
7.410000000000000000e+02 2.099515342712402344e+01 2.824290847778320312e+01 3.935291431844234467e-03 -6.977545022964477539e-01 -2.081457674503326416e-01 -6.058113276958465576e-02
7.420000000000000000e+02 2.219466590881347656e+01 2.410582733154296875e+01 3.973781690001487732e-02 -6.705175042152404785e-01 -1.892339140176773071e-01 -4.085732996463775635e-02
7.430000000000000000e+02 2.102367401123046875e+01 2.402915000915527344e+01 7.961875759065151215e-03 -1.011420488357543945e+00 -3.010375797748565674e-01 -1.328824926167726517e-02
7.440000000000000000e+02 2.104549217224121094e+01 2.121439552307128906e+01 8.086105808615684509e-03 -9.992197155952453613e-01 -2.973400950431823730e-01 2.455935254693031311e-02
7.450000000000000000e+02 2.230921554565429688e+01 1.561111831665039062e+01 1.510887220501899719e-02 -1.588131487369537354e-01 -4.311128333210945129e-02 2.103941440582275391e-01
7.460000000000000000e+02 2.106040763854980469e+01 1.557597255706787109e+01 3.404325805604457855e-03 -5.492764115333557129e-01 -1.637616157531738281e-01 7.341191917657852173e-02
7.470000000000000000e+02 2.106130790710449219e+01 1.416687393188476562e+01 1.913075568154454231e-03 -3.796416521072387695e-01 -1.133185699582099915e-01 7.977079600095748901e-02
7.480000000000000000e+02 2.231763648986816406e+01 1.137111759185791016e+01 6.517972215078771114e-04 3.196059167385101318e-01 9.607731550931930542e-02 2.389796823263168335e-01
7.490000000000000000e+02 2.106543159484863281e+01 8.531072616577148438e+00 -3.809916233876720071e-05 3.594127297401428223e-01 1.078123897314071655e-01 8.300861716270446777e-02
7.500000000000000000e+02 2.106201553344726562e+01 7.120820522308349609e+00 -9.795448277145624161e-04 5.456746220588684082e-01 1.634085178375244141e-01 8.219739049673080444e-02
7.510000000000000000e+02 2.225692749023437500e+01 4.265293121337890625e+00 2.681415155529975891e-02 1.086372256278991699e+00 3.339559137821197510e-01 2.300040721893310547e-01
7.520000000000000000e+02 2.092735481262207031e+01 2.876183271408081055e+00 2.016577124595642090e-02 1.020185232162475586e+00 3.121052980422973633e-01 1.308181136846542358e-01
7.530000000000000000e+02 2.080857086181640625e+01 1.472614049911499023e+00 3.517214907333254814e-03 1.055520296096801758e+00 3.177112638950347900e-01 1.270251125097274780e-01
7.540000000000000000e+02 2.071514129638671875e+01 7.267643511295318604e-02 -1.021993625909090042e-02 1.120097756385803223e+00 3.329633474349975586e-01 1.018683239817619324e-01
7.550000000000000000e+02 2.047928619384765625e+01 -4.140759944915771484e+00 -3.973735496401786804e-03 1.337847471237182617e+00 4.001621007919311523e-01 1.124409213662147522e-01
7.560000000000000000e+02 2.194903755187988281e+01 -2.801437377929687500e+00 1.200245786458253860e-02 1.500818252563476562e+00 4.538461863994598389e-01 1.654097288846969604e-01
7.570000000000000000e+02 2.033992958068847656e+01 -8.336584091186523438e+00 1.943630748428404331e-03 1.576786041259765625e+00 4.736189246177673340e-01 5.040856450796127319e-02
7.580000000000000000e+02 2.022949790954589844e+01 -1.254828929901123047e+01 1.663761213421821594e-03 1.754543662071228027e+00 5.268622636795043945e-01 7.483255863189697266e-02
7.590000000000000000e+02 2.027032470703125000e+01 -1.114381885528564453e+01 -4.119760124012827873e-04 1.689962625503540039e+00 5.068652033805847168e-01 7.794667780399322510e-02
7.600000000000000000e+02 2.157151031494140625e+01 -1.256346797943115234e+01 2.131715975701808929e-02 1.896710395812988281e+00 5.754082798957824707e-01 1.407047212123870850e-01
7.610000000000000000e+02 1.980437850952148438e+01 -1.957143974304199219e+01 -1.611713878810405731e-02 1.621824622154235840e+00 4.817122220993041992e-01 6.539111584424972534e-02
7.620000000000000000e+02 2.136780357360839844e+01 -1.820680809020996094e+01 -3.379091247916221619e-02 1.893211007118225098e+00 5.578260421752929688e-01 9.993898123502731323e-02
7.630000000000000000e+02 1.975883102416992188e+01 -2.239718818664550781e+01 6.212171632796525955e-03 1.713209629058837891e+00 5.158265233039855957e-01 5.914631113409996033e-02
7.640000000000000000e+02 1.968070220947265625e+01 -2.661076164245605469e+01 -9.118467569351196289e-03 1.763749837875366211e+00 5.263894200325012207e-01 1.891398988664150238e-02
7.650000000000000000e+02 1.969172668457031250e+01 -2.520767211914062500e+01 2.030547941103577614e-03 1.723271369934082031e+00 5.175905823707580566e-01 2.460798062384128571e-02
7.660000000000000000e+02 1.965851783752441406e+01 -2.941027069091796875e+01 -1.021854765713214874e-02 1.837506651878356934e+00 5.481864213943481445e-01 1.897498778998851776e-02
7.670000000000000000e+02 1.967199707031250000e+01 -3.220777893066406250e+01 -2.119213156402111053e-02 1.931618809700012207e+00 5.731279850006103516e-01 2.538431435823440552e-02
7.680000000000000000e+02 2.116830444335937500e+01 -3.219771575927734375e+01 4.288688674569129944e-02 2.092151880264282227e+00 6.405116319656372070e-01 1.004617959260940552e-01
7.690000000000000000e+02 1.439266300201416016e+01 -3.174973297119140625e+01 7.068609818816184998e-03 8.863058756105601788e-04 2.386474749073386192e-03 -1.099722110666334629e-03
7.700000000000000000e+02 1.447892951965332031e+01 -2.762655067443847656e+01 -4.328077659010887146e-03 6.310183671303093433e-04 -1.109117758460342884e-03 -4.250353231327608228e-05
7.710000000000000000e+02 1.320224571228027344e+01 -2.764493751525878906e+01 3.772358642891049385e-03 8.515652152709662914e-04 1.387177151627838612e-03 -2.511296188458800316e-04
7.720000000000000000e+02 1.309024620056152344e+01 -2.368730354309082031e+01 -3.363077528774738312e-03 -2.692255075089633465e-04 -1.089690951630473137e-03 -1.384780276566743851e-03
7.730000000000000000e+02 1.440549373626708984e+01 -2.346345901489257812e+01 4.015205428004264832e-03 2.861136454157531261e-04 1.290395623072981834e-03 3.517340228427201509e-04
7.740000000000000000e+02 1.419977664947509766e+01 -2.052615737915039062e+01 3.398500382900238037e-03 -1.778471778379753232e-05 1.014214707538485527e-03 -3.747484588529914618e-04
7.750000000000000000e+02 1.302893257141113281e+01 -1.741736602783203125e+01 -2.084617502987384796e-03 -3.143407229799777269e-04 -7.196874939836561680e-04 7.343939505517482758e-04
7.760000000000000000e+02 1.444743824005126953e+01 -1.627233123779296875e+01 -2.345152199268341064e-03 -7.827361696399748325e-05 -7.270277710631489754e-04 4.398272139951586723e-04
7.770000000000000000e+02 1.458447742462158203e+01 -9.309988975524902344e+00 1.404005568474531174e-03 3.347777601447887719e-05 4.312450182624161243e-04 -8.137232362059876323e-05
7.780000000000000000e+02 1.254534530639648438e+01 -1.918195724487304688e+00 -2.345902757951989770e-04 -5.623024117085151374e-05 -8.724615327082574368e-05 5.397322820499539375e-05
7.790000000000000000e+02 1.301603412628173828e+01 -2.812096595764160156e+00 -2.901002517319284379e-05 -1.723542518448084593e-04 -6.040928201400674880e-05 1.373736740788444877e-04
7.800000000000000000e+02 1.428684616088867188e+01 -2.020413398742675781e+00 3.874445974361151457e-04 2.675395990081597120e-05 1.242595608346164227e-04 3.190703864675015211e-04
7.810000000000000000e+02 1.373878574371337891e+01 -2.028182983398437500e+00 -5.602530436590313911e-04 2.240088542748708278e-05 -1.613556378288194537e-04 1.034422602970153093e-04
7.820000000000000000e+02 1.317909908294677734e+01 -1.974085688591003418e+00 1.734740071697160602e-04 1.667248288867995143e-04 1.020596464513801038e-04 -1.811126130633056164e-04
7.830000000000000000e+02 1.182464122772216797e+01 -1.896987557411193848e+00 3.719221276696771383e-04 1.628004611120559275e-05 1.164606510428711772e-04 -1.057229819707572460e-04
7.840000000000000000e+02 9.597369194030761719e+00 -1.872611761093139648e+00 -2.460140094626694918e-04 -1.904098317027091980e-04 -1.309271465288475156e-04 1.217445314978249371e-04
7.850000000000000000e+02 1.035067939758300781e+01 -1.878944396972656250e+00 2.808159333653748035e-04 1.621033152332529426e-04 1.328757643932476640e-04 -1.821182813728228211e-04
7.860000000000000000e+02 8.833382606506347656e+00 -1.870437741279602051e+00 2.509009791538119316e-04 1.941953523783013225e-04 1.335288980044424534e-04 -7.026686216704547405e-05
7.870000000000000000e+02 7.307404994964599609e+00 -1.865399837493896484e+00 2.665343345142900944e-04 1.870294363470748067e-04 1.360691385343670845e-04 -2.991191649925895035e-06
7.880000000000000000e+02 5.787189006805419922e+00 -1.859256505966186523e+00 1.514654577476903796e-04 2.311017306055873632e-04 1.147701550507918000e-04 7.730628567514941096e-05
7.890000000000000000e+02 3.519244909286499023e+00 -1.934982657432556152e+00 -1.779952435754239559e-04 -3.700209344970062375e-05 -6.449919601436704397e-05 -1.138121733674779534e-04
7.900000000000000000e+02 5.028806209564208984e+00 -1.867166757583618164e+00 -9.126586519414559007e-05 -2.180990850320085883e-04 -9.280948142986744642e-05 -9.500266605755314231e-05
7.910000000000000000e+02 4.396584510803222656e+00 -2.666455268859863281e+00 -1.994826161535456777e-04 -1.848537067417055368e-04 -1.153008997789584100e-04 -2.191406383644789457e-04
7.920000000000000000e+02 2.757819890975952148e+00 -2.007405996322631836e+00 1.409373799106106162e-04 9.059449075721204281e-05 6.945955828996375203e-05 8.126909233396872878e-05
7.930000000000000000e+02 1.989253282546997070e+00 -2.102828979492187500e+00 -2.422625548206269741e-04 -1.013444489217363298e-04 -1.030821003951132298e-04 -9.773448255145922303e-05
7.940000000000000000e+02 1.208036303520202637e+00 -2.177384853363037109e+00 5.244088242761790752e-04 2.752487853285856545e-05 1.655801170272752643e-04 4.670945418183691800e-05
7.950000000000000000e+02 2.053352117538452148e+00 -4.164138412475585938e+01 -8.938928367570042610e-04 -9.977187030017375946e-03 -3.261324018239974976e-03 3.206818946637213230e-04
7.960000000000000000e+02 5.308800697326660156e+00 -3.749198150634765625e+01 3.448474453762173653e-03 -2.684351056814193726e-03 2.292370336363092065e-04 -5.493229255080223083e-03
7.970000000000000000e+02 1.035074949264526367e+00 -3.869673156738281250e+01 -5.438593216240406036e-03 -8.757844567298889160e-03 -4.258931148797273636e-03 -2.455021953210234642e-03
7.980000000000000000e+02 7.657317519187927246e-01 -3.455963516235351562e+01 3.334414213895797729e-03 -2.836053958162665367e-03 1.495080505264922976e-04 -1.426786911906674504e-04
7.990000000000000000e+02 7.308490872383117676e-01 -3.315941238403320312e+01 -3.569175256416201591e-03 -1.771131996065378189e-03 -1.602092175744473934e-03 -1.160449464805424213e-03
8.000000000000000000e+02 6.569603681564331055e-01 -2.893710136413574219e+01 3.331445856019854546e-03 5.205655470490455627e-04 1.155603444203734398e-03 6.102889892645180225e-04
8.010000000000000000e+02 6.466813683509826660e-01 -2.753208732604980469e+01 -3.168119350448250771e-03 3.617806360125541687e-04 -8.419016376137733459e-04 -6.644250825047492981e-04
8.020000000000000000e+02 6.384880542755126953e-01 -2.612812614440917969e+01 2.889874158427119255e-03 6.463886820711195469e-04 1.060878857970237732e-03 5.914546200074255466e-04
8.030000000000000000e+02 6.353815197944641113e-01 -2.191863632202148438e+01 -2.293982543051242828e-03 1.840918266680091619e-04 -6.329672178253531456e-04 -2.923637221101671457e-04
8.040000000000000000e+02 6.372069716453552246e-01 -2.051652526855468750e+01 2.097836229950189590e-03 2.241621114080771804e-04 6.965994834899902344e-04 3.119459433946758509e-04
8.050000000000000000e+02 1.917150378227233887e+00 -2.038384819030761719e+01 -2.115002134814858437e-03 1.479947604821063578e-05 -6.300608511082828045e-04 -2.767757105175405741e-04
8.060000000000000000e+02 6.293837428092956543e-01 -1.629325294494628906e+01 -1.514563802629709244e-03 1.116585372074041516e-05 -4.510193830356001854e-04 -1.364939089398831129e-04
8.070000000000000000e+02 6.181861758232116699e-01 -1.488203525543212891e+01 1.391867175698280334e-03 4.365769564174115658e-05 4.306574701331555843e-04 1.268998021259903908e-04
8.080000000000000000e+02 6.047332286834716797e-01 -1.347186088562011719e+01 -1.282342127524316311e-03 -7.123216619220329449e-06 -3.868396161124110222e-04 -9.937235881807282567e-05
8.090000000000000000e+02 1.801499843597412109e+00 -1.337283420562744141e+01 1.378217595629394054e-03 5.405984848039224744e-05 4.296832194086164236e-04 1.661026763031259179e-04
8.100000000000000000e+02 5.544015765190124512e-01 -9.252396583557128906e+00 9.879402350634336472e-04 1.660948692006058991e-05 3.013648965861648321e-04 5.310756023391149938e-05
8.110000000000000000e+02 5.318713188171386719e-01 -7.852636814117431641e+00 -8.826764533296227455e-04 -8.876901119947433472e-06 -2.674660063348710537e-04 -3.786914385273121297e-05
8.120000000000000000e+02 5.133658647537231445e-01 -6.450726509094238281e+00 7.587934960611164570e-04 9.375655281473882496e-06 2.304507361259311438e-04 2.631105598993599415e-05
8.130000000000000000e+02 7.487825775146484375e+01 -4.018526077270507812e+01 1.905449852347373962e-02 9.152498245239257812e+00 2.751465797424316406e+00 -4.313484951853752136e-02
8.140000000000000000e+02 3.251178359985351562e+01 -4.109401321411132812e+01 -8.682048320770263672e-02 3.458268880844116211e+00 1.011434555053710938e+00 9.138388559222221375e-04
8.150000000000000000e+02 1.161766242980957031e+01 -3.947989654541015625e+01 3.537658834829926491e-03 1.224443130195140839e-02 4.734626971185207367e-03 -4.065347090363502502e-02
8.160000000000000000e+02 7.572319793701171875e+01 4.042336654663085938e+01 5.667309835553169250e-02 4.787734031677246094e+00 1.453322052955627441e+00 -1.954457163810729980e-01
8.170000000000000000e+02 7.803454589843750000e+01 4.174499130249023438e+01 -1.434217691421508789e-01 4.270277976989746094e+00 1.238056898117065430e+00 4.004474356770515442e-02
8.180000000000000000e+02 7.864182281494140625e+01 3.881382369995117188e+01 8.773072063922882080e-02 4.124354839324951172e+00 1.263625621795654297e+00 4.380727559328079224e-02
8.190000000000000000e+02 7.943784332275390625e+01 3.467225646972656250e+01 3.912938758730888367e-03 4.170626163482666016e+00 1.252361655235290527e+00 -2.382667176425457001e-02
8.200000000000000000e+02 7.846218109130859375e+01 3.394953918457031250e+01 2.481169998645782471e-02 4.504953861236572266e+00 1.358929634094238281e+00 -1.191980242729187012e-01
8.210000000000000000e+02 7.947425079345703125e+01 3.349385070800781250e+01 7.946846075356006622e-03 4.263218402862548828e+00 1.281349539756774902e+00 -4.202343150973320007e-02
8.220000000000000000e+02 7.930113983154296875e+01 3.076387977600097656e+01 1.065839733928442001e-02 4.513847351074218750e+00 1.357351779937744141e+00 -8.275313675403594971e-02
8.230000000000000000e+02 7.662033843994140625e+01 2.815107536315917969e+01 4.350746050477027893e-02 5.499781608581542969e+00 1.662986755371093750e+00 -4.318448007106781006e-01
8.240000000000000000e+02 7.932575225830078125e+01 2.652893257141113281e+01 5.205193534493446350e-03 5.083306789398193359e+00 1.526553511619567871e+00 -1.109289377927780151e-01
8.250000000000000000e+02 7.658722686767578125e+01 2.533746528625488281e+01 1.615604758262634277e-02 5.806635856628417969e+00 1.746837496757507324e+00 -4.769997894763946533e-01
8.260000000000000000e+02 7.932953643798828125e+01 2.513274765014648438e+01 -2.049891278147697449e-03 5.298859596252441406e+00 1.589042901992797852e+00 -1.129700019955635071e-01
8.270000000000000000e+02 7.934471893310546875e+01 2.094879913330078125e+01 5.903703160583972931e-03 5.970785140991210938e+00 1.793006658554077148e+00 -1.198096945881843567e-01
8.280000000000000000e+02 7.935334014892578125e+01 1.955164909362792969e+01 -5.548139102756977081e-03 6.201562404632568359e+00 1.858804345130920410e+00 -1.186433285474777222e-01
8.290000000000000000e+02 7.936056518554687500e+01 1.815563774108886719e+01 5.072688683867454529e-03 6.432507991790771484e+00 1.931274175643920898e+00 -1.185523271560668945e-01
8.300000000000000000e+02 7.936775207519531250e+01 1.397496128082275391e+01 -6.422640755772590637e-03 7.097215175628662109e+00 2.127237796783447266e+00 -1.099291145801544189e-01
8.310000000000000000e+02 7.936791992187500000e+01 1.258047294616699219e+01 3.570551751181483269e-03 7.304284095764160156e+00 2.192356348037719727e+00 -1.070900186896324158e-01
8.320000000000000000e+02 7.936811828613281250e+01 1.118659687042236328e+01 -6.143155507743358612e-03 7.502899169921875000e+00 2.249026775360107422e+00 -1.030113846063613892e-01
8.330000000000000000e+02 7.936505126953125000e+01 7.004963397979736328e+00 1.141556655056774616e-03 8.038356781005859375e+00 2.411849498748779297e+00 -9.005242586135864258e-02
8.340000000000000000e+02 7.936477661132812500e+01 5.612115859985351562e+00 -4.772361367940902710e-03 8.195590972900390625e+00 2.457245588302612305e+00 -8.521774411201477051e-02
8.350000000000000000e+02 7.936538696289062500e+01 4.220023632049560547e+00 7.421196787618100643e-04 8.342753410339355469e+00 2.503048896789550781e+00 -8.086504787206649780e-02
8.360000000000000000e+02 7.936945343017578125e+01 3.636948764324188232e-02 -4.794628359377384186e-03 8.722445487976074219e+00 2.615295171737670898e+00 -6.609334051609039307e-02
8.370000000000000000e+02 7.936841583251953125e+01 -1.358490347862243652e+00 9.469161159358918667e-04 8.829573631286621094e+00 2.649156093597412109e+00 -6.195927783846855164e-02
8.380000000000000000e+02 7.809233856201171875e+01 -4.088545322418212891e+00 -1.077797729521989822e-02 8.865880012512207031e+00 2.656530618667602539e+00 -1.286750435829162598e-01
8.390000000000000000e+02 7.936575317382812500e+01 -4.146563529968261719e+00 5.885824793949723244e-04 9.017161369323730469e+00 2.705325126647949219e+00 -5.369580909609794617e-02
8.400000000000000000e+02 7.936552429199218750e+01 -8.325092315673828125e+00 -3.434655256569385529e-03 9.237942695617675781e+00 2.770352363586425781e+00 -4.211826995015144348e-02
8.410000000000000000e+02 7.809788513183593750e+01 -1.104599761962890625e+01 -4.128432832658290863e-03 9.181538581848144531e+00 2.753222942352294922e+00 -8.095333725214004517e-02
8.420000000000000000e+02 7.936623382568359375e+01 -1.111109828948974609e+01 -2.989693777635693550e-03 9.351263046264648438e+00 2.804481983184814453e+00 -3.597261011600494385e-02
8.430000000000000000e+02 7.936946868896484375e+01 -1.528335189819335938e+01 2.422155230306088924e-04 9.483320236206054688e+00 2.845068693161010742e+00 -2.807866223156452179e-02
8.440000000000000000e+02 7.809066772460937500e+01 -1.797160911560058594e+01 -6.099823862314224243e-03 9.368443489074707031e+00 2.808703184127807617e+00 -4.794825240969657898e-02
8.450000000000000000e+02 7.936223602294921875e+01 -1.806924629211425781e+01 5.223614862188696861e-04 9.547223091125488281e+00 2.864323616027832031e+00 -2.278232946991920471e-02
8.460000000000000000e+02 7.934062957763671875e+01 -2.365358924865722656e+01 5.441030953079462051e-04 9.631709098815917969e+00 2.889675855636596680e+00 -1.553918793797492981e-02
8.470000000000000000e+02 7.799730682373046875e+01 -2.499206161499023438e+01 -2.379116602241992950e-03 9.458297729492187500e+00 2.836775541305541992e+00 -2.887091413140296936e-02
8.480000000000000000e+02 7.933161163330078125e+01 -2.505398559570312500e+01 -2.784688258543610573e-03 9.645631790161132812e+00 2.892854213714599609e+00 -1.303663477301597595e-02
8.490000000000000000e+02 7.931655883789062500e+01 -2.924191093444824219e+01 1.258889329619705677e-03 9.685830116271972656e+00 2.906126737594604492e+00 -1.175591908395290375e-02
8.500000000000000000e+02 7.791751098632812500e+01 -3.199747848510742188e+01 -4.748844541609287262e-03 9.506243705749511719e+00 2.850448369979858398e+00 -1.656818389892578125e-02
8.510000000000000000e+02 7.931582641601562500e+01 -3.202790832519531250e+01 -1.517703523859381676e-03 9.705146789550781250e+00 2.911088705062866211e+00 -6.262989714741706848e-03
8.520000000000000000e+02 7.936109924316406250e+01 -3.610380935668945312e+01 5.277880001813173294e-03 9.693684577941894531e+00 2.909688711166381836e+00 4.783228505402803421e-03
8.530000000000000000e+02 7.925689697265625000e+01 -3.741243743896484375e+01 -1.565363444387912750e-02 9.657402992248535156e+00 2.892524957656860352e+00 2.110054157674312592e-02
8.540000000000000000e+02 7.901303863525390625e+01 -3.870325851440429688e+01 2.086365129798650742e-03 9.611999511718750000e+00 2.884225606918334961e+00 2.683750912547111511e-02
8.550000000000000000e+02 7.862847900390625000e+01 -4.005207443237304688e+01 -1.447837520390748978e-02 9.565551757812500000e+00 2.865322113037109375e+00 3.973911330103874207e-02
8.560000000000000000e+02 4.876029014587402344e+00 4.035595321655273438e+01 7.284419843927025795e-04 -2.390595327597111464e-04 1.468147238483652472e-04 -5.034097121097147465e-04
8.570000000000000000e+02 2.745223617553710938e+01 3.802382278442382812e+01 -1.041852235794067383e-01 -1.109071299433708191e-01 -6.452770531177520752e-02 1.616501808166503906e-01
8.580000000000000000e+02 4.797464752197265625e+01 3.805176925659179688e+01 3.151771426200866699e-01 1.335192871093750000e+01 4.100131511688232422e+00 1.469987034797668457e+00
8.590000000000000000e+02 6.719193267822265625e+01 4.077499008178710938e+01 6.224601268768310547e-01 7.134872436523437500e+00 2.327199697494506836e+00 -1.225493252277374268e-01
8.600000000000000000e+02 6.756075620651245117e-01 3.012012004852294922e+00 -1.035626191878691316e-04 6.202998338267207146e-05 -1.245978910446865484e-05 -2.157466369681060314e-04
8.610000000000000000e+02 3.103919029235839844e+00 2.723385572433471680e+00 1.443887158529832959e-04 8.133217488648369908e-05 6.771626794943585992e-05 -7.249754162330646068e-06
8.620000000000000000e+02 5.286368846893310547e+00 2.677477121353149414e+00 -9.769206371856853366e-05 -8.651083771837875247e-05 -5.526086897589266300e-05 4.555086707114242017e-05
8.630000000000000000e+02 1.616288900375366211e+00 6.234366893768310547e+00 -2.799596986733376980e-04 -6.389345071511343122e-05 -1.031559440889395773e-04 7.605927385156974196e-05
8.640000000000000000e+02 5.553029179573059082e-01 9.200383186340332031e+00 3.993652353528887033e-04 1.756923484208527952e-05 1.250803325092419982e-04 -7.959273352753371000e-05
8.650000000000000000e+02 5.762886404991149902e-01 1.201333999633789062e+01 5.337587790563702583e-04 2.455518369970377535e-05 1.674941886449232697e-04 -1.068866476998664439e-04
8.660000000000000000e+02 1.732936739921569824e+00 1.183093833923339844e+01 -4.727243212983012199e-04 -3.805426240433007479e-05 -1.532335736555978656e-04 1.373468403471633792e-04
8.670000000000000000e+02 6.029564738273620605e-01 1.624015808105468750e+01 -6.632781587541103363e-04 -1.231717396876774728e-05 -2.026785950874909759e-04 1.060594877344556153e-04
8.680000000000000000e+02 1.857819437980651855e+00 1.739120292663574219e+01 -6.666191038675606251e-04 5.083552423457149416e-06 -1.984606788028031588e-04 8.679754682816565037e-05
8.690000000000000000e+02 6.148438453674316406e-01 1.764397239685058594e+01 6.696673808619379997e-04 1.142180917668156326e-05 2.043267450062558055e-04 -9.580267942510545254e-05
8.700000000000000000e+02 6.566937565803527832e-01 2.186915016174316406e+01 -5.347793921828269958e-04 -1.003768193186260760e-05 -1.634451182326301932e-04 6.401543942047283053e-05
8.710000000000000000e+02 6.642342209815979004e-01 2.329492187500000000e+01 5.089900223538279533e-04 1.147444527305196971e-05 1.561393437441438437e-04 -5.917697490076534450e-05
8.720000000000000000e+02 2.003338575363159180e+00 2.304954147338867188e+01 -5.802393425256013870e-04 -2.754131128313019872e-05 -1.823342026909813285e-04 2.865621900127734989e-05
8.730000000000000000e+02 6.593243479728698730e-01 2.471883964538574219e+01 -5.137531552463769913e-04 -2.616338497318793088e-05 -1.619749673409387469e-04 7.033361907815560699e-05
8.740000000000000000e+02 6.282562017440795898e-01 2.896376609802246094e+01 5.017761723138391972e-04 -4.476131653063930571e-05 1.371044490952044725e-04 -2.615033372421748936e-05
8.750000000000000000e+02 6.355581879615783691e-01 3.037804794311523438e+01 -4.544955445453524590e-04 -5.251464608591049910e-05 -1.521030499134212732e-04 2.215260974480770528e-05
8.760000000000000000e+02 1.951447725296020508e+00 3.158305549621582031e+01 -5.787544068880379200e-04 -6.659715290879830718e-05 -1.936054613906890154e-04 -4.707349580712616444e-05
8.770000000000000000e+02 6.500260829925537109e-01 3.179348182678222656e+01 4.073521704412996769e-04 -6.200947245815768838e-05 1.036028043017722666e-04 -6.102710358391050249e-06
8.780000000000000000e+02 6.718504428863525391e-01 3.600400543212890625e+01 -7.213811622932553291e-04 -2.435151109239086509e-04 -2.894688805099576712e-04 2.619466104079037905e-04
8.790000000000000000e+02 2.017078638076782227e+00 3.702361297607421875e+01 -6.399317062459886074e-04 -2.772493171505630016e-04 -2.751543070189654827e-04 4.641467530746012926e-04
8.800000000000000000e+02 8.870181441307067871e-01 3.870396041870117188e+01 -1.106849289499223232e-03 -2.500645932741463184e-04 -4.070741706527769566e-04 3.281769459135830402e-04
8.810000000000000000e+02 1.271435260772705078e+00 4.005248260498046875e+01 1.086891163140535355e-03 -1.105207120417617261e-04 2.929111360572278500e-04 -2.731103741098195314e-04
8.820000000000000000e+02 1.038693904876708984e+01 1.847992300987243652e+00 -1.147099465015344322e-04 -1.400023211317602545e-05 -3.861305594909936190e-05 2.600806055852444842e-06
8.830000000000000000e+02 8.932588577270507812e+00 1.865774035453796387e+00 -8.759814954828470945e-05 -4.627187809091992676e-05 -4.016100865555927157e-05 -1.934292231453582644e-05
8.840000000000000000e+02 8.214046478271484375e+00 1.866626381874084473e+00 7.512565207434818149e-05 5.989858618704602122e-05 4.050727147841826081e-05 1.228448763868073002e-05
8.850000000000000000e+02 8.198162078857421875e+00 2.600486516952514648e+00 -9.515860438114032149e-05 -7.625357829965651035e-05 -5.142365262145176530e-05 -2.285369737364817411e-05
8.860000000000000000e+02 7.496118545532226562e+00 1.868733406066894531e+00 -6.875192048028111458e-05 -6.941323954379186034e-05 -4.144954800722189248e-05 1.815446637465356616e-07
8.870000000000000000e+02 5.333392143249511719e+00 1.889896273612976074e+00 7.620856194989755750e-05 7.236913370434194803e-05 4.457330578588880599e-05 -3.876088885590434074e-05
8.880000000000000000e+02 4.610415935516357422e+00 1.901734709739685059e+00 -9.009350469568744302e-05 -6.693682371405884624e-05 -4.710909706773236394e-05 3.859198477584868670e-05
8.890000000000000000e+02 3.893358230590820312e+00 1.906301140785217285e+00 1.077691122191026807e-04 6.432949885493144393e-05 5.162958404980599880e-05 -3.016679147549439222e-05
8.900000000000000000e+02 3.187538146972656250e+00 1.897494435310363770e+00 -1.188664537039585412e-04 -6.225059041753411293e-05 -5.433511250885203481e-05 8.419362529821228236e-06
8.910000000000000000e+02 2.492321968078613281e+00 1.882170319557189941e+00 9.599054465070366859e-05 7.407106022583320737e-05 5.101848000776953995e-05 1.324489403486950323e-05
8.920000000000000000e+02 1.803349256515502930e+00 1.878036022186279297e+00 -5.214122575125657022e-05 -9.213604062097147107e-05 -4.328318027546629310e-05 -8.930578587751369923e-06
8.930000000000000000e+02 1.186400604248046875e+01 1.782251358032226562e+00 -9.618876356398686767e-05 -9.518053047941066325e-06 -3.171204662066884339e-05 3.725204078364185989e-05
8.940000000000000000e+02 1.435165023803710938e+01 2.984516143798828125e+00 6.186873361002653837e-05 1.038932314259000123e-04 4.972859096596948802e-05 -1.270490902243182063e-04
8.950000000000000000e+02 1.459304618835449219e+01 3.784919738769531250e+00 -2.272120909765362740e-04 -5.942049756413325667e-05 -8.598977728979662061e-05 7.657290552742779255e-05
8.960000000000000000e+02 1.479280185699462891e+01 2.013019800186157227e+00 1.463199732825160027e-04 1.660327689023688436e-05 4.887697650701738894e-05 -3.112226295343134552e-06
8.970000000000000000e+02 1.460950469970703125e+01 6.348954200744628906e+00 -3.499748709145933390e-04 -1.806054024200420827e-05 -1.104106268030591309e-04 4.350318340584635735e-05
8.980000000000000000e+02 1.459402084350585938e+01 7.703111648559570312e+00 3.937147266697138548e-04 1.605124452908057719e-05 1.229297922691330314e-04 -2.736086753429844975e-05
8.990000000000000000e+02 1.457235622406005859e+01 9.068430900573730469e+00 -4.394385323394089937e-04 -1.313086977461352944e-05 -1.357708242721855640e-04 9.243361091648694128e-06
9.000000000000000000e+02 1.451053237915039062e+01 1.181736087799072266e+01 -5.534020019695162773e-04 -2.362097802688367665e-06 -1.667292381171137094e-04 -1.788200825103558600e-05
9.010000000000000000e+02 1.445718765258789062e+01 1.320787811279296875e+01 6.049161893315613270e-04 -1.488997168053174391e-05 1.770078670233488083e-04 4.927937879983801395e-06
9.020000000000000000e+02 1.439680385589599609e+01 1.460960769653320312e+01 -6.586306844837963581e-04 -6.779062005080049857e-06 -1.996229257201775908e-04 5.052880169387208298e-06
9.030000000000000000e+02 1.438651275634765625e+01 1.601063537597656250e+01 7.524318061769008636e-04 6.685401785944122821e-06 2.277351595694199204e-04 7.425536296068457887e-06
9.040000000000000000e+02 1.320013999938964844e+01 2.031334114074707031e+01 9.601673809811472893e-04 -1.441696440451778471e-05 2.837251231539994478e-04 -8.243558841058984399e-05
9.050000000000000000e+02 1.452794456481933594e+01 2.157390213012695312e+01 1.116077648475766182e-03 1.016816895571537316e-05 3.378737310413271189e-04 -8.496108057443052530e-05
9.060000000000000000e+02 1.481298542022705078e+01 2.570187950134277344e+01 -1.331242383457720280e-03 -4.620448817149735987e-05 -4.132340545766055584e-04 2.546406176406890154e-05
9.070000000000000000e+02 1.331991767883300781e+01 2.305389595031738281e+01 1.050854800269007683e-03 8.539144801034126431e-06 3.178181941621005535e-04 -8.869526209309697151e-05
9.080000000000000000e+02 1.492013931274414062e+01 2.707488059997558594e+01 1.438627601601183414e-03 -1.999933920160401613e-05 4.255884850863367319e-04 -1.297338167205452919e-05
9.090000000000000000e+02 1.507107162475585938e+01 2.844059944152832031e+01 -1.651074271649122238e-03 -1.084002651623450220e-04 -5.278423195704817772e-04 -8.328982221428304911e-05
9.100000000000000000e+02 1.574711132049560547e+01 3.259050369262695312e+01 2.194077242165803909e-03 -1.999270753003656864e-04 5.982450093142688274e-04 -2.345780230825766921e-04
9.110000000000000000e+02 1.627457618713378906e+01 3.396261215209960938e+01 -2.610252238810062408e-03 -1.529265864519402385e-04 -8.289536344818770885e-04 3.132083802483975887e-04
9.120000000000000000e+02 1.530834007263183594e+01 3.560395812988281250e+01 -1.915070926770567894e-03 2.962758590001612902e-04 -4.856385057792067528e-04 1.259344280697405338e-03
9.130000000000000000e+02 1.718927764892578125e+01 3.646520233154296875e+01 -1.466896035708487034e-03 -1.062088631442748010e-04 -4.719314456451684237e-04 9.230595314875245094e-04
9.140000000000000000e+02 1.937432479858398438e+01 3.841332626342773438e+01 1.321862358599901199e-02 2.675503725185990334e-03 4.768237937241792679e-03 -1.110080070793628693e-02
9.150000000000000000e+02 2.163379478454589844e+01 3.829021835327148438e+01 3.716758918017148972e-03 -5.439547821879386902e-03 -5.168366478756070137e-04 -3.106057411059737206e-03
9.160000000000000000e+02 2.416694068908691406e+01 3.862776565551757812e+01 -2.207423094660043716e-03 -5.845639854669570923e-02 -1.819914765655994415e-02 3.320427238941192627e-02
9.170000000000000000e+02 2.326207923889160156e+01 3.856187438964843750e+01 -1.306803617626428604e-02 -1.217937283217906952e-02 -7.574222516268491745e-03 1.116671226918697357e-02
9.180000000000000000e+02 2.517240905761718750e+01 3.866802978515625000e+01 -1.601947471499443054e-02 -5.979563668370246887e-02 -2.274453453719615936e-02 8.271805942058563232e-02
9.190000000000000000e+02 2.827313995361328125e+01 3.801042556762695312e+01 -1.263343244791030884e-01 -1.383879780769348145e-01 -7.941669225692749023e-02 2.345494627952575684e-01
9.200000000000000000e+02 2.909377670288085938e+01 3.787379455566406250e+01 -1.850873678922653198e-01 -1.612699776887893677e-01 -1.039072051644325256e-01 2.721093893051147461e-01
9.210000000000000000e+02 3.116264533996582031e+01 3.749266433715820312e+01 -3.676104247570037842e-01 -2.554488480091094971e-01 -1.869177818298339844e-01 4.239915907382965088e-01
9.220000000000000000e+02 3.258313369750976562e+01 3.724451065063476562e+01 -3.883849084377288818e-01 -3.344592154026031494e-01 -2.168532311916351318e-01 5.508106946945190430e-01
9.230000000000000000e+02 3.418386077880859375e+01 3.716070938110351562e+01 -5.598479509353637695e-01 -2.690008580684661865e-01 -2.486546486616134644e-01 6.481900811195373535e-01
9.240000000000000000e+02 3.507151412963867188e+01 3.703675460815429688e+01 -4.769083857536315918e-01 -3.070582449436187744e-01 -2.351899892091751099e-01 6.675626039505004883e-01
9.250000000000000000e+02 3.794511032104492188e+01 3.651483917236328125e+01 -3.128235340118408203e-01 7.203269004821777344e-01 1.222510188817977905e-01 -1.912566088140010834e-02
9.260000000000000000e+02 3.778051757812500000e+01 3.602074050903320312e+01 -1.031114220619201660e+00 3.101867735385894775e-01 -2.162782400846481323e-01 3.330587148666381836e-01
9.270000000000000000e+02 3.887940979003906250e+01 3.588388824462890625e+01 -6.746338009834289551e-01 6.098673343658447266e-01 -1.942992582917213440e-02 -3.979872465133666992e-01
9.280000000000000000e+02 3.947591781616210938e+01 3.581720733642578125e+01 -2.979440987110137939e-01 8.360524773597717285e-01 1.614325195550918579e-01 -6.573187112808227539e-01
9.290000000000000000e+02 4.006301879882812500e+01 3.559024810791015625e+01 -6.182107701897621155e-02 1.599011063575744629e+00 4.611569941043853760e-01 -1.346445322036743164e+00
9.300000000000000000e+02 4.125524902343750000e+01 3.519001388549804688e+01 9.937238693237304688e-01 3.057437419891357422e+00 1.215348362922668457e+00 -3.018557310104370117e+00
9.310000000000000000e+02 4.161612319946289062e+01 3.521503829956054688e+01 1.063423275947570801e+00 4.956826210021972656e+00 1.806074976921081543e+00 -3.772014379501342773e+00
9.320000000000000000e+02 4.267013549804687500e+01 3.520405578613281250e+01 -2.107396163046360016e-02 1.310904502868652344e+01 3.926391363143920898e+00 -4.682240962982177734e+00
9.330000000000000000e+02 4.221783447265625000e+01 3.510733795166015625e+01 8.293229937553405762e-01 8.459900856018066406e+00 2.786767005920410156e+00 -5.116250991821289062e+00
9.340000000000000000e+02 4.292997360229492188e+01 3.513857269287109375e+01 -3.127697110176086426e-01 1.464332103729248047e+01 4.299165248870849609e+00 -4.219963550567626953e+00
9.350000000000000000e+02 4.217202758789062500e+01 3.164631080627441406e+01 5.422702789306640625e+00 9.164838790893554688e+00 4.376262664794921875e+00 8.016803741455078125e+00
9.360000000000000000e+02 4.144076538085937500e+01 3.186646461486816406e+01 5.558940887451171875e+00 3.482754945755004883e+00 2.712508678436279297e+00 5.137083053588867188e+00
9.370000000000000000e+02 4.102877426147460938e+01 3.161931419372558594e+01 4.744367122650146484e+00 2.788813829421997070e+00 2.259954214096069336e+00 4.262834548950195312e+00
9.380000000000000000e+02 4.046067047119140625e+01 3.201634979248046875e+01 3.317170143127441406e+00 8.323607444763183594e-01 1.244859218597412109e+00 2.272477149963378906e+00
9.390000000000000000e+02 4.020108032226562500e+01 3.172315406799316406e+01 3.343727588653564453e+00 1.031739115715026855e+00 1.312640070915222168e+00 2.380997896194458008e+00
9.400000000000000000e+02 3.996044540405273438e+01 3.173628997802734375e+01 2.879657268524169922e+00 8.801159262657165527e-01 1.127931952476501465e+00 2.094810485839843750e+00
9.410000000000000000e+02 3.942104339599609375e+01 3.217747879028320312e+01 1.350357890129089355e+00 2.964164912700653076e-01 4.940323233604431152e-01 1.038105487823486328e+00
9.420000000000000000e+02 3.644395065307617188e+01 3.268568420410156250e+01 -6.241005063056945801e-01 6.043604388833045959e-02 -1.690993309020996094e-01 1.113933771848678589e-01
9.430000000000000000e+02 3.770796585083007812e+01 3.245526123046875000e+01 -1.693995743989944458e-01 4.723538085818290710e-02 -3.664925694465637207e-02 3.305473625659942627e-01
9.440000000000000000e+02 3.829600524902343750e+01 3.235783767700195312e+01 1.407752484083175659e-01 1.038061901926994324e-01 7.337443530559539795e-02 4.698025286197662354e-01
9.450000000000000000e+02 3.968129730224609375e+01 3.174176025390625000e+01 2.418965816497802734e+00 6.455100774765014648e-01 9.193427562713623047e-01 1.698149800300598145e+00
9.460000000000000000e+02 3.498960494995117188e+01 3.295795059204101562e+01 -8.924448490142822266e-01 8.185344189405441284e-02 -2.431774288415908813e-01 2.159371739253401756e-03
9.470000000000000000e+02 3.425712585449218750e+01 3.309197998046875000e+01 -9.279407858848571777e-01 7.526721060276031494e-02 -2.558020651340484619e-01 -4.064607992768287659e-02
9.480000000000000000e+02 3.134139442443847656e+01 3.362238311767578125e+01 -8.153523802757263184e-01 8.556801080703735352e-02 -2.189353108406066895e-01 -1.343935579061508179e-01
9.490000000000000000e+02 3.279749298095703125e+01 3.335643005371093750e+01 -9.052807092666625977e-01 8.398577570915222168e-02 -2.463884800672531128e-01 -9.562575817108154297e-02
9.500000000000000000e+02 2.915962409973144531e+01 3.398046112060546875e+01 -6.167265176773071289e-01 7.347306609153747559e-02 -1.629760414361953735e-01 -1.743911802768707275e-01
9.510000000000000000e+02 2.843168640136718750e+01 3.409126663208007812e+01 -5.458309650421142578e-01 6.352802366018295288e-02 -1.446908861398696899e-01 -1.830304265022277832e-01
9.520000000000000000e+02 2.770954895019531250e+01 3.418831634521484375e+01 -4.740380346775054932e-01 5.626141652464866638e-02 -1.253329813480377197e-01 -1.871786713600158691e-01
9.530000000000000000e+02 2.382313346862792969e+01 3.441730117797851562e+01 -1.401111185550689697e-01 -2.635071240365505219e-02 -4.993854835629463196e-02 -1.442324519157409668e-01
9.540000000000000000e+02 2.117890357971191406e+01 3.421902084350585938e+01 -1.400030683726072311e-02 -6.201378628611564636e-02 -2.280422858893871307e-02 -4.442122206091880798e-02
9.550000000000000000e+02 4.162833023071289062e+01 3.184221458435058594e+01 6.048291683197021484e+00 4.053812026977539062e+00 3.030631065368652344e+00 5.971878051757812500e+00
9.560000000000000000e+02 4.194577407836914062e+01 3.143963241577148438e+01 5.191236495971679688e+00 8.074202537536621094e+00 3.979631900787353516e+00 7.180280685424804688e+00
9.570000000000000000e+02 4.162318801879882812e+01 3.163326263427734375e+01 5.699332714080810547e+00 5.120886325836181641e+00 3.246065855026245117e+00 6.178111076354980469e+00
9.580000000000000000e+02 4.066051101684570312e+01 3.198322486877441406e+01 3.721303224563598633e+00 1.083936095237731934e+00 1.441571831703186035e+00 2.644163131713867188e+00
9.590000000000000000e+02 4.025424957275390625e+01 3.204854583740234375e+01 2.779547691345214844e+00 6.909212470054626465e-01 1.041140675544738770e+00 1.895568251609802246e+00
9.600000000000000000e+02 4.122465515136718750e+01 3.160899925231933594e+01 5.047765254974365234e+00 3.487709999084472656e+00 2.560642719268798828e+00 4.836916446685791016e+00
9.610000000000000000e+02 3.887176132202148438e+01 3.226615524291992188e+01 7.274509668350219727e-01 1.709847301244735718e-01 2.695307135581970215e-01 6.468216776847839355e-01
9.620000000000000000e+02 4.044269943237304688e+01 3.550133132934570312e+01 3.465921282768249512e-01 1.602202177047729492e+00 5.846382975578308105e-01 -1.833066105842590332e+00
9.630000000000000000e+02 4.183622741699218750e+01 3.514631271362304688e+01 1.091948509216308594e+00 5.857313156127929688e+00 2.084778547286987305e+00 -4.103673934936523438e+00
9.640000000000000000e+02 4.121623611450195312e+01 3.578433990478515625e+01 7.494910955429077148e-01 4.675428867340087891e+00 1.627475976943969727e+00 -3.070734024047851562e+00
9.650000000000000000e+02 4.321513748168945312e+01 3.512836456298828125e+01 -4.609517753124237061e-01 1.716658782958984375e+01 5.011691093444824219e+00 -2.734381914138793945e+00
9.660000000000000000e+02 4.125819396972656250e+01 3.538837051391601562e+01 1.120649337768554688e+00 3.773276090621948242e+00 1.468177556991577148e+00 -3.103195667266845703e+00
9.670000000000000000e+02 4.109328842163085938e+01 3.526478958129882812e+01 9.355159997940063477e-01 3.196528911590576172e+00 1.239613533020019531e+00 -2.642529964447021484e+00
9.680000000000000000e+02 2.028799629211425781e+01 3.794769668579101562e+01 1.411095820367336273e-02 3.165186382830142975e-03 5.182843655347824097e-03 -4.569799173623323441e-03
9.690000000000000000e+02 1.420365810394287109e+01 1.890042901039123535e+00 -5.819442230858840048e-05 -2.954469664473435842e-06 -1.834466638683807105e-05 2.155424408556427807e-05
9.700000000000000000e+02 1.257144737243652344e+01 1.754079461097717285e+00 5.091312777949497104e-05 2.230994141427800059e-05 2.196692003053613007e-05 -2.811353078868705779e-05
9.710000000000000000e+02 3.833931732177734375e+01 3.589611816406250000e+01 -9.592194557189941406e-01 3.129698634147644043e-01 -1.938748806715011597e-01 -1.690716668963432312e-02
9.720000000000000000e+02 3.969127655029296875e+01 3.658652877807617188e+01 4.098295569419860840e-01 2.159791707992553711e+00 7.708864212036132812e-01 -1.437206745147705078e+00
9.730000000000000000e+02 4.103698348999023438e+01 3.649674987792968750e+01 5.238533616065979004e-01 4.787195682525634766e+00 1.593314766883850098e+00 -2.677640914916992188e+00
9.740000000000000000e+02 4.021152877807617188e+01 3.600831985473632812e+01 4.687384665012359619e-01 2.133564233779907227e+00 7.806908488273620605e-01 -1.935070514678955078e+00
9.750000000000000000e+02 3.763783645629882812e+01 3.142676734924316406e+01 1.161239504814147949e+00 3.541583120822906494e-01 4.546193480491638184e-01 7.482877969741821289e-01
9.760000000000000000e+02 3.825286865234375000e+01 3.187031936645507812e+01 9.959688186645507812e-01 2.361730635166168213e-01 3.696425557136535645e-01 7.254445552825927734e-01
9.770000000000000000e+02 3.880576705932617188e+01 3.180666351318359375e+01 1.461787819862365723e+00 3.775115311145782471e-01 5.517898201942443848e-01 1.050108790397644043e+00
9.780000000000000000e+02 3.766761779785156250e+01 3.194836044311523438e+01 5.561859011650085449e-01 1.790339350700378418e-01 2.205659449100494385e-01 4.852985739707946777e-01
9.790000000000000000e+02 2.056473731994628906e+01 3.881873703002929688e+01 6.245398428291082382e-03 -2.508475910872220993e-03 1.121076755225658417e-03 -1.865844533313065767e-04
9.800000000000000000e+02 2.293629455566406250e+01 3.984065246582031250e+01 -8.379193022847175598e-03 -2.670826949179172516e-02 -1.052623894065618515e-02 2.848869375884532928e-02
9.810000000000000000e+02 6.056622028350830078e+00 1.880146145820617676e+00 -6.935756391612812877e-05 -7.565019768662750721e-05 -4.350232848082669079e-05 2.777510599116794765e-05
9.820000000000000000e+02 9.654858589172363281e+00 2.593086719512939453e+00 -1.435156736988574266e-04 -3.198198464815504849e-05 -5.264929859549738467e-05 -3.727887087734416127e-05
9.830000000000000000e+02 6.777678966522216797e+00 1.873671770095825195e+00 6.726062565576285124e-05 7.399106107186526060e-05 4.237550456309691072e-05 -1.504976626165444031e-05
9.840000000000000000e+02 7.476128101348876953e+00 2.608261823654174805e+00 8.683852502144873142e-05 8.632514800410717726e-05 5.194910409045405686e-05 4.685327894549118355e-06
9.850000000000000000e+02 8.195733070373535156e+00 3.335042238235473633e+00 1.095374100259505212e-04 9.513358236290514469e-05 6.140129698906093836e-05 3.313810157123953104e-05
9.860000000000000000e+02 6.036428928375244141e+00 4.204730033874511719e+00 9.528888040222227573e-05 1.327410718658939004e-04 6.840899004600942135e-05 -2.648399458848871291e-05
9.870000000000000000e+02 1.629978537559509277e+00 7.662459373474121094e+00 3.457423008512705564e-04 3.847988409688696265e-05 1.152666518464684486e-04 -8.610360237071290612e-05
9.880000000000000000e+02 3.839061558246612549e-01 3.770292758941650391e+00 3.239354409743100405e-04 5.803827662020921707e-05 1.145921123679727316e-04 7.017223833827301860e-05
9.890000000000000000e+02 1.826362133026123047e+00 2.603907108306884766e+00 1.002070566755719483e-04 7.242805440910160542e-05 5.179053187021054327e-05 3.150706470478326082e-05
9.900000000000000000e+02 3.840438723564147949e-01 2.092788696289062500e+00 -1.217467724927701056e-04 -6.940621824469417334e-05 -5.734589649364352226e-05 5.157432678970508277e-05
9.910000000000000000e+02 1.113887310028076172e+00 1.929916262626647949e+00 -5.366998721001436934e-06 1.109163349610753357e-04 3.166480018990114331e-05 -1.302276450587669387e-05
9.920000000000000000e+02 1.113130187988281250e+01 1.819151520729064941e+00 1.143753324868157506e-04 8.387099114770535380e-06 3.682872920762747526e-05 -2.261501504108309746e-05
9.930000000000000000e+02 9.669606208801269531e+00 3.332800388336181641e+00 1.782595645636320114e-04 4.340039231465198100e-05 6.649798888247460127e-05 6.933377153472974896e-05
9.940000000000000000e+02 2.553461074829101562e+01 3.440702438354492188e+01 -2.731925249099731445e-01 1.589274965226650238e-02 -7.718993723392486572e-02 -1.771218329668045044e-01
9.950000000000000000e+02 2.703032302856445312e+01 3.266063690185546875e+01 -2.472704499959945679e-01 4.929576069116592407e-02 -5.939240753650665283e-02 -3.140784800052642822e-01
9.960000000000000000e+02 2.699005317687988281e+01 3.345926666259765625e+01 -3.317594528198242188e-01 5.018990114331245422e-02 -8.447086811065673828e-02 -2.613803446292877197e-01
9.970000000000000000e+02 2.392938041687011719e+01 3.130702972412109375e+01 -4.505953937768936157e-02 -1.489171832799911499e-01 -5.819301679730415344e-02 -2.886742055416107178e-01
9.980000000000000000e+02 2.844150161743164062e+01 3.332891845703125000e+01 -4.331322908401489258e-01 8.121772855520248413e-02 -1.055743619799613953e-01 -2.590650618076324463e-01
9.990000000000000000e+02 2.916677856445312500e+01 3.323828125000000000e+01 -4.801714420318603516e-01 9.157594293355941772e-02 -1.165786534547805786e-01 -2.529838979244232178e-01
1.000000000000000000e+03 3.061674690246582031e+01 3.303130340576171875e+01 -5.553376674652099609e-01 1.106340810656547546e-01 -1.334110796451568604e-01 -2.279143929481506348e-01
1.001000000000000000e+03 3.061477279663085938e+01 3.374784469604492188e+01 -7.548343539237976074e-01 8.607300370931625366e-02 -2.006283998489379883e-01 -1.492495685815811157e-01
1.002000000000000000e+03 2.989256286621093750e+01 3.313823318481445312e+01 -5.214132070541381836e-01 1.048050895333290100e-01 -1.249824315309524536e-01 -2.411651760339736938e-01
1.003000000000000000e+03 3.206908035278320312e+01 3.348961639404296875e+01 -8.668919801712036133e-01 9.116708487272262573e-02 -2.327174693346023560e-01 -1.141277402639389038e-01
1.004000000000000000e+03 3.279034423828125000e+01 3.269718170166015625e+01 -5.853359103202819824e-01 1.251689344644546509e-01 -1.380500942468643188e-01 -1.517579108476638794e-01
1.005000000000000000e+03 3.133986854553222656e+01 3.292111206054687500e+01 -5.788851976394653320e-01 1.202162727713584900e-01 -1.376006752252578735e-01 -2.069960087537765503e-01
1.006000000000000000e+03 3.351665496826171875e+01 3.258937835693359375e+01 -5.636232495307922363e-01 1.190350651741027832e-01 -1.333764642477035522e-01 -1.189299523830413818e-01
1.007000000000000000e+03 1.177849674224853516e+01 -2.651976108551025391e+00 -6.235083565115928650e-04 1.085153871827060357e-05 -1.837970485212281346e-04 1.992236793739721179e-04
1.008000000000000000e+03 1.029138946533203125e+01 -3.418804168701171875e+00 3.114011487923562527e-04 3.054465632885694504e-04 1.850543048931285739e-04 -2.348802518099546432e-04
1.009000000000000000e+03 1.106280326843261719e+01 -2.648631572723388672e+00 4.498910566326230764e-04 1.396450388710945845e-04 1.768608199199661613e-04 -2.765190438367426395e-04
1.010000000000000000e+03 3.854318618774414062e+01 3.635891342163085938e+01 -2.716035246849060059e-01 7.261548638343811035e-01 1.363653987646102905e-01 -3.283161520957946777e-01
1.011000000000000000e+03 3.874255371093750000e+01 3.808443069458007812e+01 6.514836549758911133e-01 2.051912069320678711e+00 8.110187053680419922e-01 -9.528227448463439941e-01
1.012000000000000000e+03 3.705112838745117188e+01 3.204305267333984375e+01 2.094320356845855713e-01 1.449379324913024902e-01 1.063109859824180603e-01 3.124326169490814209e-01
1.013000000000000000e+03 3.424275207519531250e+01 3.248372268676757812e+01 -5.100159645080566406e-01 1.230080798268318176e-01 -1.161023676395416260e-01 -6.637026369571685791e-02
1.014000000000000000e+03 3.496694564819335938e+01 3.237727355957031250e+01 -4.287214577198028564e-01 1.150735840201377869e-01 -9.409435838460922241e-02 -1.847937330603599548e-02
1.015000000000000000e+03 1.245454978942871094e+01 2.326401233673095703e+00 -8.825078111840412021e-05 -2.339045204280409962e-05 -3.349237158545292914e-05 5.542508733924478292e-05
1.016000000000000000e+03 1.039395236968994141e+01 2.569273233413696289e+00 1.699552958598360419e-04 1.146567342402704526e-06 5.133055674377828836e-05 1.566765786265023053e-05
1.017000000000000000e+03 1.293284034729003906e+01 2.367985486984252930e+00 -1.218362285726470873e-05 5.544672967516817153e-05 1.297893231821944937e-05 1.630165911592484917e-06
1.018000000000000000e+03 1.335852813720703125e+01 2.546941757202148438e+00 -4.589554009726271033e-05 -6.082221079850569367e-05 -3.201532672392204404e-05 -1.035499226418323815e-04
1.019000000000000000e+03 3.333804702758789062e+01 3.726208877563476562e+01 -4.843025207519531250e-01 -3.310296237468719482e-01 -2.445996403694152832e-01 6.827529072761535645e-01
1.020000000000000000e+03 3.074355888366699219e+01 3.954059219360351562e+01 2.365841865539550781e-01 -3.231310546398162842e-01 -2.596405893564224243e-02 3.750670552253723145e-01
1.021000000000000000e+03 3.119370269775390625e+01 3.842224502563476562e+01 -6.383404135704040527e-02 -3.043777346611022949e-01 -1.104635372757911682e-01 4.517006576061248779e-01
1.022000000000000000e+03 3.042078208923339844e+01 3.752158737182617188e+01 -3.171055614948272705e-01 -1.736992895603179932e-01 -1.472414582967758179e-01 3.736492395401000977e-01
1.023000000000000000e+03 3.216217422485351562e+01 3.810152816772460938e+01 -1.244474574923515320e-01 -3.694838583469390869e-01 -1.481793969869613647e-01 4.717797040939331055e-01
1.024000000000000000e+03 8.069564819335937500e+00 -1.868589878082275391e+00 -2.695600851438939571e-04 -1.876772294053807855e-04 -1.371711987303569913e-04 3.158682375214993954e-05
1.025000000000000000e+03 9.581330299377441406e+00 -2.621219635009765625e+00 2.866814902517944574e-04 2.278684114571660757e-04 1.543649705126881599e-04 -1.219197147293016315e-04
1.026000000000000000e+03 7.320003986358642578e+00 -2.599887847900390625e+00 -3.751037002075463533e-04 -1.460315397707745433e-04 -1.563405676279217005e-04 5.298722498991992325e-06
1.027000000000000000e+03 8.069752693176269531e+00 -2.608019113540649414e+00 3.633211890701204538e-04 1.623772841412574053e-04 1.577095390530303121e-04 -8.297504336951533332e-07
1.028000000000000000e+03 8.824387550354003906e+00 -2.612448930740356445e+00 -3.121716144960373640e-04 -2.038132370216771960e-04 -1.547954452689737082e-04 4.085288310307078063e-05
1.029000000000000000e+03 6.546825408935546875e+00 -1.860801339149475098e+00 -2.263582864543423057e-04 -2.048197638941928744e-04 -1.293534151045605540e-04 -2.885755020543001592e-05
1.030000000000000000e+03 6.576635837554931641e+00 -2.584991216659545898e+00 3.198387566953897476e-04 1.737773127388209105e-04 1.480848295614123344e-04 -3.373012759766425006e-06
1.031000000000000000e+03 5.111410617828369141e+00 -2.601003408432006836e+00 1.612010673852637410e-04 2.383139071753248572e-04 1.198544923681765795e-04 1.375635329168289900e-04
1.032000000000000000e+03 1.592818379402160645e+00 -7.826909065246582031e+00 9.672352462075650692e-04 4.394242932903580368e-05 3.033532993867993355e-04 6.490314262919127941e-05
1.033000000000000000e+03 3.918729305267333984e+00 -3.579340457916259766e+00 -4.831363039556890726e-04 -4.851503763347864151e-05 -1.594954082975164056e-04 -4.175203212071210146e-04
1.034000000000000000e+03 4.598594903945922852e-01 -3.615720033645629883e+00 5.957658868283033371e-04 -5.531239366973750293e-06 1.770703966030851007e-04 -2.181849231419619173e-05
1.035000000000000000e+03 4.058812558650970459e-01 -2.203767538070678711e+00 -5.492827040143311024e-04 1.616362510503677186e-07 -1.647363242227584124e-04 1.980341221496928483e-05
1.036000000000000000e+03 4.990855157375335693e-01 -5.035853862762451172e+00 -6.496725836768746376e-04 -3.269288208684884012e-05 -2.047096495516598225e-04 2.924744876509066671e-06
1.037000000000000000e+03 4.456900405883789062e+01 3.448244476318359375e+01 4.873534202575683594e+00 1.973390007019042969e+01 7.382230281829833984e+00 4.128938674926757812e+00
1.038000000000000000e+03 4.509387588500976562e+01 3.549165725708007812e+01 1.737563371658325195e+00 1.675618934631347656e+01 5.548125743865966797e+00 2.319112300872802734e+00
1.039000000000000000e+03 4.314979171752929688e+01 3.076144218444824219e+01 2.229283332824707031e+00 1.543945312500000000e+01 5.300621032714843750e+00 4.698383331298828125e+00
1.040000000000000000e+03 4.314746475219726562e+01 3.142606925964355469e+01 2.986771583557128906e+00 1.820596313476562500e+01 6.357820034027099609e+00 5.500438690185546875e+00
1.041000000000000000e+03 4.611528015136718750e+01 3.164288139343261719e+01 5.759206771850585938e+00 1.410008144378662109e+01 5.957786560058593750e+00 -7.836062312126159668e-01
1.042000000000000000e+03 4.410785675048828125e+01 3.173323249816894531e+01 4.829483985900878906e+00 2.040515708923339844e+01 7.570392131805419922e+00 3.292968571186065674e-01
1.043000000000000000e+03 4.610740280151367188e+01 3.522652816772460938e+01 2.992538452148437500e+00 1.532716655731201172e+01 5.495911598205566406e+00 3.122012615203857422e+00
1.044000000000000000e+03 4.790243148803710938e+01 3.317313385009765625e+01 5.056571960449218750e+00 1.214240074157714844e+01 5.159691810607910156e+00 9.301670789718627930e-01
1.045000000000000000e+03 4.550871276855468750e+01 3.226260757446289062e+01 7.703751564025878906e+00 1.514576244354248047e+01 6.854854106903076172e+00 -2.881754040718078613e-01
1.046000000000000000e+03 2.608933830261230469e+01 3.848760223388671875e+01 -4.450803250074386597e-02 -9.053171426057815552e-02 -4.051192477345466614e-02 1.052896305918693542e-01
1.047000000000000000e+03 2.850107765197753906e+01 3.896057891845703125e+01 -1.381757669150829315e-02 -2.371381372213363647e-01 -7.528671622276306152e-02 2.315286099910736084e-01
1.048000000000000000e+03 2.959593582153320312e+01 3.876774978637695312e+01 9.848737390711903572e-04 -2.660079598426818848e-01 -7.950692623853683472e-02 3.186838626861572266e-01
1.049000000000000000e+03 2.464701271057128906e+01 4.120962142944335938e+01 3.271858766674995422e-02 -1.280656605958938599e-01 -2.860412187874317169e-02 -5.552603863179683685e-03
1.050000000000000000e+03 2.400472450256347656e+01 4.000378417968750000e+01 -1.187615189701318741e-02 -3.484698757529258728e-02 -1.401694212108850479e-02 1.171544101089239120e-02
1.051000000000000000e+03 2.741730880737304688e+01 3.868422698974609375e+01 -5.346691980957984924e-02 -1.148194670677185059e-01 -5.048591643571853638e-02 1.709066480398178101e-01
1.052000000000000000e+03 2.526852226257324219e+01 4.006553649902343750e+01 5.623452365398406982e-02 -1.695150285959243774e-01 -3.398415073752403259e-02 6.621512025594711304e-02
1.053000000000000000e+03 2.292060661315917969e+01 3.439172744750976562e+01 -8.282817900180816650e-02 -4.818535223603248596e-02 -3.930405899882316589e-02 -1.137398555874824524e-01
1.054000000000000000e+03 2.291510391235351562e+01 3.335916900634765625e+01 -7.268524914979934692e-02 -9.588812291622161865e-02 -5.057201161980628967e-02 -1.686121672391891479e-01
1.055000000000000000e+03 2.625020980834960938e+01 3.348963928222656250e+01 -2.789802253246307373e-01 2.895607240498065948e-02 -7.500724494457244873e-02 -2.578527629375457764e-01
1.056000000000000000e+03 2.551773834228515625e+01 3.259808731079101562e+01 -1.677016019821166992e-01 -1.009271200746297836e-02 -5.333829298615455627e-02 -3.015621900558471680e-01
1.057000000000000000e+03 2.096074104309082031e+01 3.233901596069335938e+01 -4.722232464700937271e-03 -2.006181776523590088e-01 -6.160212308168411255e-02 -5.387495458126068115e-02
1.058000000000000000e+03 1.994070434570312500e+01 3.862161254882812500e+01 2.551667159423232079e-03 -2.585830865427851677e-03 -1.024914126901421696e-05 3.070789389312267303e-03
1.059000000000000000e+03 2.282348442077636719e+01 -4.127904510498046875e+01 -1.958651691675186157e-01 2.049608469009399414e+00 5.561229586601257324e-01 -2.580743096768856049e-02
1.060000000000000000e+03 1.906170463562011719e+01 -3.773272323608398438e+01 1.372370570898056030e-01 1.427008390426635742e+00 4.692736268043518066e-01 3.754100799560546875e-01
1.061000000000000000e+03 1.314003658294677734e+01 -3.726004791259765625e+01 -3.130146488547325134e-02 7.227893918752670288e-03 -7.222070824354887009e-03 7.989840582013130188e-03
1.062000000000000000e+03 1.218841171264648438e+01 2.586990165710449219e+01 -9.933186229318380356e-04 -1.315466652158647776e-04 -3.374595835339277983e-04 1.111749370465986431e-04
1.063000000000000000e+03 1.339137840270996094e+01 3.200181198120117188e+01 3.174229641444981098e-04 4.897154867649078369e-04 2.421415265416726470e-04 -1.036081928759813309e-03
1.064000000000000000e+03 1.377054691314697266e+01 3.098356056213378906e+01 1.157841295935213566e-03 -6.541698530782014132e-05 3.277272917330265045e-04 2.981648722197860479e-04
1.065000000000000000e+03 1.361903095245361328e+01 2.711087989807128906e+01 -1.211990835145115852e-03 -1.258992124348878860e-04 -4.013669968117028475e-04 -6.655674224020913243e-05
1.066000000000000000e+03 1.673813819885253906e+01 3.525825500488281250e+01 2.590729156509041786e-03 -2.046505396720021963e-04 7.158235530368983746e-04 -7.128647994250059128e-04
1.067000000000000000e+03 1.693332099914550781e+01 3.762096405029296875e+01 3.690279787406325340e-03 -2.777556423097848892e-03 2.738169860094785690e-04 2.882195170968770981e-03
1.068000000000000000e+03 1.485141086578369141e+01 3.431877517700195312e+01 2.163517521694302559e-03 -8.610531222075223923e-05 6.232237210497260094e-04 -4.882283101323992014e-04
1.069000000000000000e+03 1.446306228637695312e+01 1.880659484863281250e+01 9.770954493433237076e-04 -1.104716648114845157e-05 2.898144593928009272e-04 -5.816807970404624939e-05
1.070000000000000000e+03 1.318019866943359375e+01 1.893178367614746094e+01 -9.147272212430834770e-04 4.658526449929922819e-05 -2.604425826575607061e-04 5.396822598413564265e-05
1.071000000000000000e+03 1.471171951293945312e+01 2.432889747619628906e+01 1.240210724063217640e-03 1.088513613467512187e-06 3.723897680174559355e-04 -6.270239828154444695e-05
1.072000000000000000e+03 1.371534633636474609e+01 2.843118286132812500e+01 1.274754642508924007e-03 1.113439284381456673e-04 4.158295923843979836e-04 1.225991436513140798e-04
1.073000000000000000e+03 1.308209991455078125e+01 1.753598022460937500e+01 8.828929858282208443e-04 -6.483831384684890509e-05 2.454164205119013786e-04 -2.936243799922522157e-05
1.074000000000000000e+03 1.333398532867431641e+01 1.179175186157226562e+01 5.026557482779026031e-04 3.644542812253348529e-05 1.617303496459499002e-04 1.084327814169228077e-04
1.075000000000000000e+03 1.293824291229248047e+01 1.460621452331542969e+01 6.919436273165047169e-04 -1.487388362875208259e-05 2.031209296546876431e-04 1.150652242358773947e-04
1.076000000000000000e+03 1.461463832855224609e+01 5.022225856781005859e+00 2.971563953906297684e-04 2.322222462680656463e-05 9.611358836991712451e-05 -5.557664553634822369e-05
1.077000000000000000e+03 1.183715343475341797e+01 2.425365209579467773e+00 1.338992587989196181e-04 3.499033255138783716e-06 4.121948950341902673e-05 -4.821821130462922156e-05
1.078000000000000000e+03 1.047597217559814453e+01 4.069745540618896484e+00 2.701566263567656279e-04 1.781460196070838720e-05 8.639136649435386062e-05 9.106785000767558813e-05
1.079000000000000000e+03 1.353956222534179688e+01 7.804281711578369141e+00 -3.474816330708563328e-04 -3.545883009792305529e-05 -1.148821393144316971e-04 -1.085528310795780271e-05
1.080000000000000000e+03 1.318459796905517578e+01 1.316273593902587891e+01 -5.893478519283235073e-04 4.045244168082717806e-06 -1.755907869664952159e-04 -1.416894956491887569e-04
1.081000000000000000e+03 7.931858062744140625e+01 -2.784880638122558594e+01 -2.710951492190361023e-03 9.672189712524414062e+00 2.900843620300292969e+00 -1.320974342525005341e-02
1.082000000000000000e+03 7.730978393554687500e+01 -3.784727478027343750e+01 -2.003141678869724274e-02 9.457096099853515625e+00 2.831119537353515625e+00 3.192997723817825317e-02
1.083000000000000000e+03 7.935682678222656250e+01 -3.476517105102539062e+01 -9.968243539333343506e-03 9.708504676818847656e+00 2.909561157226562500e+00 1.898665213957428932e-03
1.084000000000000000e+03 7.797698974609375000e+01 3.256357574462890625e+01 3.430712968111038208e-02 4.712154388427734375e+00 1.423938512802124023e+00 -1.758893430233001709e-01
1.085000000000000000e+03 7.917025756835937500e+01 3.593764114379882812e+01 -2.045588335022330284e-03 4.128536224365234375e+00 1.237947106361389160e+00 -2.426753193140029907e-02
1.086000000000000000e+03 7.935184478759765625e+01 -2.085888099670410156e+01 3.842269070446491241e-04 9.595221519470214844e+00 2.878681898117065430e+00 -1.868432387709617615e-02
1.087000000000000000e+03 7.796633148193359375e+01 -2.640611648559570312e+01 -1.976513303816318512e-03 9.469410896301269531e+00 2.840230226516723633e+00 -2.472092770040035248e-02
1.088000000000000000e+03 7.931397247314453125e+01 -3.063685798645019531e+01 -2.511336933821439743e-03 9.697524070739746094e+00 2.908503770828247070e+00 -1.042708009481430054e-02
1.089000000000000000e+03 7.794351196289062500e+01 -3.336610794067382812e+01 -7.066183723509311676e-03 9.516746520996093750e+00 2.852904319763183594e+00 -3.844129620119929314e-03
1.090000000000000000e+03 7.507297515869140625e+01 -3.745433425903320312e+01 -3.283418342471122742e-02 9.190498352050781250e+00 2.747299194335937500e+00 -6.144479662179946899e-02
1.091000000000000000e+03 7.639382934570312500e+01 -3.893908309936523438e+01 -8.806854486465454102e-03 9.422173500061035156e+00 2.824010133743286133e+00 4.905713256448507309e-03
1.092000000000000000e+03 7.810539245605468750e+01 1.404594230651855469e+01 -1.644544303417205811e-03 7.122113227844238281e+00 2.136140584945678711e+00 -2.909367382526397705e-01
1.093000000000000000e+03 7.936737060546875000e+01 1.536782646179199219e+01 4.618263803422451019e-03 6.882187843322753906e+00 2.066041946411132812e+00 -1.133347153663635254e-01
1.094000000000000000e+03 7.803040313720703125e+01 2.102690315246582031e+01 -6.004358874633908272e-04 6.133854389190673828e+00 1.839976191520690918e+00 -3.218048512935638428e-01
1.095000000000000000e+03 7.933611297607421875e+01 2.234494781494140625e+01 -3.831065958365797997e-03 5.742801666259765625e+00 1.721691131591796875e+00 -1.170819178223609924e-01
1.096000000000000000e+03 7.790677642822265625e+01 3.098099517822265625e+01 4.215895384550094604e-02 4.892127990722656250e+00 1.480286121368408203e+00 -2.283558398485183716e-01
1.097000000000000000e+03 7.796093750000000000e+01 2.804906272888183594e+01 2.112878859043121338e-02 5.198486804962158203e+00 1.565884709358215332e+00 -2.865976393222808838e-01
1.098000000000000000e+03 7.931667327880859375e+01 2.793233680725097656e+01 1.022648764774203300e-03 4.876750946044921875e+00 1.463332056999206543e+00 -1.041721329092979431e-01
1.099000000000000000e+03 7.797768402099609375e+01 2.523240661621093750e+01 1.085309870541095734e-02 5.554712295532226562e+00 1.669669628143310547e+00 -3.113122880458831787e-01
1.100000000000000000e+03 7.798010253906250000e+01 2.383711433410644531e+01 2.336665987968444824e-03 5.742092132568359375e+00 1.723328590393066406e+00 -3.154151439666748047e-01
1.101000000000000000e+03 7.808350372314453125e+01 1.822198295593261719e+01 -7.852538488805294037e-03 6.537646770477294922e+00 1.958938241004943848e+00 -3.145725429058074951e-01
1.102000000000000000e+03 7.809744262695312500e+01 1.682776832580566406e+01 7.997686625458300114e-04 6.736236095428466797e+00 2.021110773086547852e+00 -3.082374036312103271e-01
1.103000000000000000e+03 7.810554504394531250e+01 1.264939498901367188e+01 -1.175739802420139313e-02 7.307815551757812500e+00 2.188817501068115234e+00 -2.809272408485412598e-01
1.104000000000000000e+03 7.683998870849609375e+01 1.130155181884765625e+01 -2.537216059863567352e-02 7.485861778259277344e+00 2.238146781921386719e+00 -4.190581440925598145e-01
1.105000000000000000e+03 7.809362792968750000e+01 8.465538978576660156e+00 -6.095430348068475723e-03 7.816393375396728516e+00 2.343089342117309570e+00 -2.443659752607345581e-01
1.106000000000000000e+03 7.936739349365234375e+01 9.792572975158691406e+00 2.287512412294745445e-03 7.691757678985595703e+00 2.308213472366333008e+00 -9.895441681146621704e-02
1.107000000000000000e+03 7.935679626464843750e+01 -1.946389389038085938e+01 -2.285461872816085815e-03 9.572882652282714844e+00 2.871179103851318359e+00 -2.063415944576263428e-02
1.108000000000000000e+03 7.936976623535156250e+01 -1.389311313629150391e+01 -2.602254506200551987e-03 9.443889617919921875e+00 2.832386016845703125e+00 -3.059140779078006744e-02
1.109000000000000000e+03 7.936544036865234375e+01 -6.932983875274658203e+00 3.864309692289680243e-04 9.171810150146484375e+00 2.751658916473388672e+00 -4.586463421583175659e-02
1.110000000000000000e+03 7.810424804687500000e+01 9.586191177368164062e-02 -6.721351295709609985e-03 8.593739509582519531e+00 2.576105356216430664e+00 -1.633132994174957275e-01
1.111000000000000000e+03 7.936817932128906250e+01 1.430263042449951172e+00 9.047275525517761707e-04 8.605634689331054688e+00 2.581961870193481445e+00 -7.109279185533523560e-02
1.112000000000000000e+03 7.678567504882812500e+01 7.111680984497070312e+00 -2.271930128335952759e-02 7.916652202606201172e+00 2.368179798126220703e+00 -3.607514202594757080e-01
1.113000000000000000e+03 7.792909240722656250e+01 2.949517822265625000e+01 2.351319044828414917e-02 5.040067195892333984e+00 1.519074082374572754e+00 -2.585322856903076172e-01
1.114000000000000000e+03 7.854559326171875000e+01 4.026930618286132812e+01 4.664171114563941956e-02 4.201239109039306641e+00 1.274364352226257324e+00 1.028363108634948730e-01
1.115000000000000000e+03 7.691246032714843750e+01 3.665958786010742188e+01 6.879776716232299805e-02 4.831048488616943359e+00 1.469953894615173340e+00 -1.590409278869628906e-01
1.116000000000000000e+03 7.810066223144531250e+01 9.861293792724609375e+00 -1.319969817996025085e-02 7.655550003051757812e+00 2.292705059051513672e+00 -2.577999234199523926e-01
1.117000000000000000e+03 7.682453155517578125e+01 1.222734898328781128e-01 -2.606883645057678223e-02 8.482178688049316406e+00 2.536833047866821289e+00 -2.532855570316314697e-01
1.118000000000000000e+03 7.809453582763671875e+01 2.890686988830566406e+00 -7.606825791299343109e-03 8.369148254394531250e+00 2.508462429046630859e+00 -1.907588690519332886e-01
1.119000000000000000e+03 7.681650543212890625e+01 -1.267653822898864746e+00 -2.096712961792945862e-02 8.570183753967285156e+00 2.564764976501464844e+00 -2.339235246181488037e-01
1.120000000000000000e+03 7.936682128906250000e+01 -2.752920389175415039e+00 -4.296401981264352798e-03 8.927698135375976562e+00 2.677020549774169922e+00 -5.769051611423492432e-02
1.121000000000000000e+03 7.809201049804687500e+01 -6.874949455261230469e+00 -9.867823682725429535e-03 9.010617256164550781e+00 2.700224637985229492e+00 -1.075510829687118530e-01
1.122000000000000000e+03 7.809132385253906250e+01 -5.483512878417968750e+00 -6.117155309766530991e-03 8.941583633422851562e+00 2.680639982223510742e+00 -1.177182570099830627e-01
1.123000000000000000e+03 7.936532592773437500e+01 -9.718442916870117188e+00 5.232425173744559288e-04 9.297475814819335938e+00 2.789399862289428711e+00 -3.901465982198715210e-02
1.124000000000000000e+03 7.811132812500000000e+01 -1.381372642517089844e+01 -3.647250821813941002e-03 9.270574569702148438e+00 2.780078411102294922e+00 -6.705906987190246582e-02
1.125000000000000000e+03 7.810512542724609375e+01 -1.243229866027832031e+01 -6.895224098116159439e-03 9.228383064270019531e+00 2.766446352005004883e+00 -7.397627830505371094e-02
1.126000000000000000e+03 7.936698150634765625e+01 -1.667535591125488281e+01 -2.727059880271553993e-03 9.517629623413085938e+00 2.854470729827880859e+00 -2.505282126367092133e-02
1.127000000000000000e+03 7.805957031250000000e+01 -2.076685714721679688e+01 -4.964858293533325195e-03 9.413193702697753906e+00 2.822468519210815430e+00 -3.920470550656318665e-02
1.128000000000000000e+03 7.807366943359375000e+01 -1.936868858337402344e+01 -2.501582494005560875e-03 9.391818046569824219e+00 2.816795110702514648e+00 -4.299733787775039673e-02
1.129000000000000000e+03 1.314087963104248047e+01 -3.030298805236816406e+01 5.013424437493085861e-03 6.540844333358108997e-04 1.700252643786370754e-03 -1.290849409997463226e-03
1.130000000000000000e+03 2.214645767211914062e+01 1.422779798507690430e+00 -3.202756168320775032e-03 1.300184726715087891e+00 3.890945911407470703e-01 1.986549794673919678e-01
1.131000000000000000e+03 2.346793746948242188e+01 1.394625782966613770e+00 -5.337372887879610062e-03 1.529732823371887207e+00 4.573186337947845459e-01 2.981269061565399170e-01
1.132000000000000000e+03 2.018558311462402344e+01 -1.395698928833007812e+01 3.944220021367073059e-02 1.849428176879882812e+00 5.666611194610595703e-01 1.116871535778045654e-01
1.133000000000000000e+03 1.384851741790771484e+01 -3.875957489013671875e+01 -8.042864501476287842e-02 2.216877043247222900e-02 -1.747796311974525452e-02 -3.161538392305374146e-02
1.134000000000000000e+03 1.986111831665039062e+01 -1.816556549072265625e+01 -1.408166624605655670e-02 1.610740661621093750e+00 4.789977073669433594e-01 1.013211980462074280e-01
1.135000000000000000e+03 2.039497947692871094e+01 -5.538564682006835938e+00 -1.337942387908697128e-02 1.364277124404907227e+00 4.052693247795104980e-01 8.220250904560089111e-02
1.136000000000000000e+03 2.209075927734375000e+01 1.541844010353088379e-02 -9.795932099223136902e-03 1.391618013381958008e+00 4.145466387271881104e-01 2.091624140739440918e-01
1.137000000000000000e+03 2.168000602722167969e+01 -8.368643760681152344e+00 3.712408710271120071e-03 1.743190526962280273e+00 5.240708589553833008e-01 1.410225629806518555e-01
1.138000000000000000e+03 2.134847450256347656e+01 -1.962522125244140625e+01 -2.997441403567790985e-02 1.902038812637329102e+00 5.616192817687988281e-01 1.042837202548980713e-01
1.139000000000000000e+03 2.177568435668945312e+01 -5.596707820892333984e+00 -2.770190685987472534e-02 1.633459448814392090e+00 4.817272722721099854e-01 1.520947366952896118e-01
1.140000000000000000e+03 1.971895790100097656e+01 -3.362126541137695312e+01 8.189206570386886597e-02 2.038425683975219727e+00 6.360953450202941895e-01 7.879682630300521851e-02
1.141000000000000000e+03 2.288211441040039062e+01 -3.326042938232421875e+01 7.454629987478256226e-02 2.200676918029785156e+00 6.825669407844543457e-01 9.480541944503784180e-02
1.142000000000000000e+03 2.147642326354980469e+01 -1.538646316528320312e+01 2.192704565823078156e-02 1.906357884407043457e+00 5.784854888916015625e-01 9.448578953742980957e-02
1.143000000000000000e+03 2.153222274780273438e+01 -1.397391986846923828e+01 3.959308192133903503e-02 1.880870938301086426e+00 5.761392116546630859e-01 1.232166066765785217e-01
1.144000000000000000e+03 2.185530853271484375e+01 -4.205238342285156250e+00 -1.253817137330770493e-02 1.579288482666015625e+00 4.700250923633575439e-01 1.489730030298233032e-01
1.145000000000000000e+03 2.231093406677246094e+01 7.122007846832275391e+00 1.619197544641792774e-03 8.140846490859985352e-01 2.447111606597900391e-01 2.385508120059967041e-01
1.146000000000000000e+03 2.475864601135253906e+01 -2.270769691467285156e+01 -3.762997686862945557e-02 2.402127742767333984e+00 7.093493342399597168e-01 1.039246544241905212e-01
1.147000000000000000e+03 1.189740562438964844e+01 -2.766843032836914062e+01 -3.539004363119602203e-03 -1.358869019895792007e-03 -1.469362061470746994e-03 3.848029882647097111e-04
1.148000000000000000e+03 2.220494842529296875e+01 2.837931871414184570e+00 2.015293948352336884e-02 1.198178887367248535e+00 3.654995560646057129e-01 2.102842628955841064e-01
1.149000000000000000e+03 1.447009181976318359e+01 -2.485487174987792969e+01 -4.100178368389606476e-03 3.654195461422204971e-04 -1.120427739806473255e-03 -5.311719141900539398e-04
1.150000000000000000e+03 1.200353336334228516e+01 -2.509741210937500000e+01 -2.650077454745769501e-03 -1.097835018299520016e-03 -1.124373753555119038e-03 -5.886994767934083939e-04
1.151000000000000000e+03 2.122737693786621094e+01 -2.670816612243652344e+01 4.533920437097549438e-03 1.968317508697509766e+00 5.918554067611694336e-01 5.394165962934494019e-02
1.152000000000000000e+03 2.100523567199707031e+01 2.684107589721679688e+01 5.350522231310606003e-03 -8.408696651458740234e-01 -2.506557404994964600e-01 -4.947761446237564087e-02
1.153000000000000000e+03 2.106450271606445312e+01 1.135008621215820312e+01 5.869768210686743259e-04 -1.430025510489940643e-02 -4.113983362913131714e-03 8.361331373453140259e-02
1.154000000000000000e+03 2.095332336425781250e+01 3.101032447814941406e+01 -7.174179336288943887e-05 -3.617801368236541748e-01 -1.085555627942085266e-01 -6.138531863689422607e-02
1.155000000000000000e+03 1.483045101165771484e+01 -2.150229692459106445e+00 -2.983309968840330839e-04 -7.520063809351995587e-05 -1.120594897656701505e-04 -3.847220796160399914e-05
1.156000000000000000e+03 2.164644622802734375e+01 -9.761844635009765625e+00 1.537576690316200256e-02 1.786311745643615723e+00 5.405062437057495117e-01 1.218101009726524353e-01
1.157000000000000000e+03 2.171992492675781250e+01 -6.982041358947753906e+00 -1.765922643244266510e-02 1.682275533676147461e+00 4.993849098682403564e-01 1.471983939409255981e-01
1.158000000000000000e+03 2.232151603698730469e+01 9.958234786987304688e+00 -1.497279736213386059e-03 4.857695400714874268e-01 1.452816724777221680e-01 2.396943569183349609e-01
1.159000000000000000e+03 2.356056022644042969e+01 1.703728485107421875e+01 5.391635373234748840e-02 8.122560381889343262e-02 4.054258763790130615e-02 3.021121919155120850e-01
1.160000000000000000e+03 2.103503227233886719e+01 2.262126541137695312e+01 8.086276240646839142e-03 -1.027611732482910156e+00 -3.058576285839080811e-01 5.659391637891530991e-03
1.161000000000000000e+03 2.328930473327636719e+01 2.556367683410644531e+01 8.211039751768112183e-02 -4.013188481330871582e-01 -9.576253592967987061e-02 -1.185197681188583374e-01
1.162000000000000000e+03 2.105314636230468750e+01 1.980656242370605469e+01 5.228100344538688660e-03 -9.317275285720825195e-01 -2.779498100280761719e-01 3.981149941682815552e-02
1.163000000000000000e+03 2.229455757141113281e+01 1.987563323974609375e+01 3.191128373146057129e-02 -5.267823934555053711e-01 -1.484613418579101562e-01 1.116919890046119690e-01
1.164000000000000000e+03 2.355640029907226562e+01 1.992649841308593750e+01 7.778155803680419922e-02 -1.529568582773208618e-01 -2.255258895456790924e-02 1.883226037025451660e-01
1.165000000000000000e+03 2.231032943725585938e+01 1.703145599365234375e+01 2.143562212586402893e-02 -2.997442483901977539e-01 -8.349259197711944580e-02 1.840164363384246826e-01
1.166000000000000000e+03 2.230662536621093750e+01 1.845659065246582031e+01 2.642517350614070892e-02 -4.224560260772705078e-01 -1.188092604279518127e-01 1.519238203763961792e-01
1.167000000000000000e+03 2.213088035583496094e+01 2.831648445129394531e+01 1.657702401280403137e-02 -5.026758909225463867e-01 -1.458296626806259155e-01 -1.689925938844680786e-01
1.168000000000000000e+03 2.334995079040527344e+01 2.417322158813476562e+01 9.648953378200531006e-02 -3.820120096206665039e-01 -8.565673977136611938e-02 -4.243004694581031799e-02
1.169000000000000000e+03 2.230941581726074219e+01 1.419708156585693359e+01 7.833159528672695160e-03 -5.271275062114000320e-03 7.685652235522866249e-04 2.250768840312957764e-01
1.170000000000000000e+03 1.320388126373291016e+01 -1.470577907562255859e+01 -1.698666485026478767e-03 -2.584573230706155300e-04 -5.871371249668300152e-04 4.603344714269042015e-04
1.171000000000000000e+03 1.360457324981689453e+01 -7.906315326690673828e+00 1.144799054600298405e-03 8.376219921046867967e-05 3.685683768708258867e-04 -1.272400113521143794e-04
1.172000000000000000e+03 1.460959720611572266e+01 -7.924169540405273438e+00 -1.284375786781311035e-03 -3.278668009443208575e-05 -3.951487306039780378e-04 4.006374729215167463e-05
1.173000000000000000e+03 1.177961730957031250e+01 -3.457093000411987305e+00 7.981934468261897564e-04 9.141072223428636789e-05 2.668812521733343601e-04 -3.299743402749300003e-04
1.174000000000000000e+03 1.335750484466552734e+01 -1.196317863464355469e+01 -1.438019447959959507e-03 -1.575044734636321664e-04 -4.786571662407368422e-04 2.408252912573516369e-04
1.175000000000000000e+03 1.452897644042968750e+01 -1.209285354614257812e+01 1.634842250496149063e-03 6.034061152604408562e-05 5.085548618808388710e-04 -1.818908058339729905e-04
1.176000000000000000e+03 1.367018127441406250e+01 -5.299921035766601562e+00 9.360131225548684597e-04 9.787893941393122077e-05 3.101676411461085081e-04 -8.885681018000468612e-05
1.177000000000000000e+03 1.463184833526611328e+01 -5.181592464447021484e+00 -9.838448604568839073e-04 -5.971058635623194277e-05 -3.130666445940732956e-04 -6.095956632634624839e-05
1.178000000000000000e+03 1.447623538970947266e+01 -1.488102340698242188e+01 2.044017426669597626e-03 1.295316906180232763e-04 6.520646857097744942e-04 -3.528586530592292547e-04
1.179000000000000000e+03 1.433409690856933594e+01 -1.907131195068359375e+01 -3.096475964412093163e-03 2.137970295734703541e-05 -9.225288522429764271e-04 5.747572286054491997e-04
1.180000000000000000e+03 2.207057380676269531e+01 2.969553756713867188e+01 5.722112488001585007e-03 -4.039425849914550781e-01 -1.194661483168601990e-01 -1.812919825315475464e-01
1.181000000000000000e+03 2.329743194580078125e+01 2.838658332824707031e+01 4.388139769434928894e-02 -3.278273046016693115e-01 -8.518376946449279785e-02 -2.413097172975540161e-01
1.182000000000000000e+03 1.385926246643066406e+00 -4.007475280761718750e+01 4.651446361094713211e-03 -1.009667664766311646e-02 -1.633569016121327877e-03 -5.017636576667428017e-04
1.183000000000000000e+03 7.125113010406494141e-01 3.737235641479492188e+01 9.763973066583275795e-04 -6.526443758048117161e-05 2.733398578129708767e-04 -3.158373292535543442e-04
1.184000000000000000e+03 6.637112498283386230e-01 3.320783615112304688e+01 -4.054975288454443216e-04 -1.321790914516896009e-04 -1.613029889995232224e-04 5.958889596513472497e-05
1.185000000000000000e+03 2.371543884277343750e+00 3.804453277587890625e+01 7.081414223648607731e-04 2.488007594365626574e-04 2.870826574508100748e-04 -4.296765546314418316e-04
1.186000000000000000e+03 6.467736959457397461e-01 2.613752937316894531e+01 5.278365570120513439e-04 -1.046045235852943733e-05 1.552128233015537262e-04 -6.141287303762510419e-05
1.187000000000000000e+03 1.874792098999023438e+00 2.876278686523437500e+01 -6.633604643866419792e-04 2.454227433190681040e-05 -1.916454493766650558e-04 -2.397677781118545681e-05
1.188000000000000000e+03 8.030074238777160645e-01 -3.595024490356445312e+01 -4.114238079637289047e-03 -5.451214034110307693e-03 -2.869635587558150291e-03 -2.289168769493699074e-03
1.189000000000000000e+03 2.190312623977661133e+00 -3.282341766357421875e+01 3.529028734192252159e-03 -1.405297429300844669e-03 6.371193449012935162e-04 -9.667890844866633415e-04
1.190000000000000000e+03 3.139709949493408203e+00 2.722429466247558594e+01 -8.359890198335051537e-04 9.287713328376412392e-05 -2.229335659649223089e-04 -2.077084354823455215e-05
1.191000000000000000e+03 3.347080707550048828e+00 2.432090377807617188e+01 -6.386389723047614098e-04 -5.218300066189840436e-05 -2.072466013487428427e-04 2.365342152188532054e-05
1.192000000000000000e+03 2.007328987121582031e+00 3.300437927246093750e+01 5.059468676336109638e-04 5.507609239430166781e-05 1.683068985585123301e-04 3.603577351896092296e-05
1.193000000000000000e+03 3.295714855194091797e+00 3.904026794433593750e+01 -4.458834300749003887e-04 -1.578792871441692114e-04 -1.811288238968700171e-04 3.812127979472279549e-04
1.194000000000000000e+03 2.004478693008422852e+00 -3.004640388488769531e+01 3.216183045879006386e-03 -1.796398428268730640e-04 9.109629900194704533e-04 2.822032838594168425e-04
1.195000000000000000e+03 1.931663393974304199e+00 -2.727828598022460938e+01 2.890515141189098358e-03 4.050391144119203091e-04 9.886663174256682396e-04 7.194163626991212368e-04
1.196000000000000000e+03 2.464791774749755859e+00 -3.687273025512695312e+01 -3.731429576873779297e-03 -5.627230275422334671e-03 -2.807598095387220383e-03 -5.313181318342685699e-03
1.197000000000000000e+03 1.905317425727844238e+00 -2.176386451721191406e+01 2.338312333449721336e-03 2.144164900528267026e-04 7.658186368644237518e-04 4.587607691064476967e-04
1.198000000000000000e+03 6.275753378868103027e-01 1.904301643371582031e+01 -6.386406021192669868e-04 -1.137655272032134235e-05 -1.950051519088447094e-04 8.395409531658515334e-05
1.199000000000000000e+03 5.825293064117431641e-01 1.341936302185058594e+01 -5.922312266193330288e-04 -1.788312874850817025e-05 -1.830343098845332861e-04 1.132853140006773174e-04
1.200000000000000000e+03 5.428597331047058105e-01 7.792606353759765625e+00 -3.382085415069013834e-04 -1.927482662722468376e-05 -1.072450177161954343e-04 6.450497312471270561e-05
1.201000000000000000e+03 3.705480098724365234e+00 -3.908964538574218750e+01 -2.239853609353303909e-03 -6.420761812478303909e-03 -2.598184626549482346e-03 -5.383255891501903534e-03
1.202000000000000000e+03 5.871066570281982422e+00 -3.455146026611328125e+01 9.783421410247683525e-04 2.945165149867534637e-03 1.177052268758416176e-03 -2.963486826047301292e-03
1.203000000000000000e+03 2.312296628952026367e+00 -3.420106124877929688e+01 -4.518250469118356705e-03 -2.909957431256771088e-03 -2.228462370112538338e-03 -2.939569065347313881e-03
1.204000000000000000e+03 2.082643508911132812e+00 -3.143725013732910156e+01 -4.225308075547218323e-03 -6.679585203528404236e-04 -1.467979978770017624e-03 -1.768927904777228832e-03
1.205000000000000000e+03 3.203713893890380859e+00 -2.701240348815917969e+01 -2.965502440929412842e-03 -4.565755662042647600e-04 -1.026623416692018509e-03 -9.210741845890879631e-04
1.206000000000000000e+03 1.894282937049865723e+00 -2.314378929138183594e+01 -2.464564051479101181e-03 3.286085484432987869e-05 -7.295109680853784084e-04 -2.927152672782540321e-04
1.207000000000000000e+03 1.908389449119567871e+00 -2.589940834045410156e+01 -2.829899545758962631e-03 -6.566096271853893995e-05 -8.686681394465267658e-04 -5.849869339726865292e-04
1.208000000000000000e+03 3.203583717346191406e+00 -2.027598381042480469e+01 2.277655061334371567e-03 6.530465907417237759e-05 7.028879481367766857e-04 4.772821848746389151e-04
1.209000000000000000e+03 6.382498145103454590e-01 -1.911216926574707031e+01 -1.874609501101076603e-03 6.491939711850136518e-05 -5.429070442914962769e-04 -2.099668490700423717e-04
1.210000000000000000e+03 1.921775698661804199e+00 -1.899444389343261719e+01 1.938475877977907658e-03 1.672782091191038489e-04 6.317262304946780205e-04 3.722631954587996006e-04
1.211000000000000000e+03 1.880850195884704590e+00 -1.618435287475585938e+01 1.611158950254321098e-03 1.064481984940357506e-04 5.152821540832519531e-04 2.304741501575335860e-04
1.212000000000000000e+03 5.892004966735839844e-01 -1.206322669982910156e+01 1.183581422083079815e-03 2.014665369642898440e-05 3.611184365581721067e-04 8.972317300504073501e-05
1.213000000000000000e+03 1.758372783660888672e+00 -1.197430515289306641e+01 -1.250718138180673122e-03 -3.726946306414902210e-05 -3.863962774630635977e-04 -1.355825952487066388e-04
1.214000000000000000e+03 5.217862606048583984e+00 -3.328286409378051758e+00 -1.310873776674270630e-04 -3.215141477994620800e-04 -1.357804576400667429e-04 -1.469496928621083498e-04
1.215000000000000000e+03 3.689073801040649414e+00 -2.779949426651000977e+00 3.283787227701395750e-04 3.601634307415224612e-05 1.093185201170854270e-04 2.036433579633012414e-04
1.216000000000000000e+03 2.969763278961181641e+00 -2.971058607101440430e+00 -3.453082463238388300e-04 7.610607281094416976e-05 -8.076064841588959098e-05 -9.415568638360127807e-05
1.217000000000000000e+03 1.386638522148132324e+00 -3.572467327117919922e+00 -6.434314418584108353e-04 2.447556653351057321e-05 -1.856867602327838540e-04 -5.400060763349756598e-05
1.218000000000000000e+03 4.640450179576873779e-01 5.017632484436035156e+00 -3.123199858237057924e-04 -3.588053732528351247e-05 -1.044601594912819564e-04 -1.540480661788024008e-05
1.219000000000000000e+03 2.419100761413574219e+00 4.389221668243408203e+00 1.707460796751547605e-05 -3.084178388235159218e-05 -4.130153229198185727e-06 1.318918366450816393e-04
1.220000000000000000e+03 1.706891059875488281e+00 1.044212341308593750e+01 4.174381319899111986e-04 4.479848212213255465e-05 1.386709918733686209e-04 -1.247232721652835608e-04
1.221000000000000000e+03 5.674884915351867676e-01 1.060758590698242188e+01 -4.658547404687851667e-04 -2.140816832252312452e-05 -1.461788633605465293e-04 9.260338265448808670e-05
1.222000000000000000e+03 1.746313571929931641e+00 1.321952247619628906e+01 5.277263117022812366e-04 2.205506461905315518e-05 1.649344048928469419e-04 -1.391966943629086018e-04
1.223000000000000000e+03 1.929215669631958008e+00 2.014912223815917969e+01 -6.483448087237775326e-04 1.712032462819479406e-05 -1.893673470476642251e-04 2.368602508795447648e-05
1.224000000000000000e+03 1.895787119865417480e+00 1.875605201721191406e+01 6.822712603025138378e-04 -1.644585427129641175e-05 1.997476210817694664e-04 -5.801765291835181415e-05
1.225000000000000000e+03 1.990609765052795410e+00 2.450781440734863281e+01 5.843232502229511738e-04 1.392943704559002072e-05 1.794758136384189129e-04 -2.824882176355458796e-05
1.226000000000000000e+03 4.085833358764648438e+01 3.195272636413574219e+01 4.312507152557373047e+00 1.430979371070861816e+00 1.723045945167541504e+00 3.142046451568603516e+00
1.227000000000000000e+03 4.105459594726562500e+01 3.192010116577148438e+01 4.738693237304687500e+00 1.964900493621826172e+00 2.011078119277954102e+00 3.705265760421752930e+00
1.228000000000000000e+03 4.083358383178710938e+01 3.165750503540039062e+01 4.317278861999511719e+00 1.981323480606079102e+00 1.889580607414245605e+00 3.623256206512451172e+00
1.229000000000000000e+03 4.162674331665039062e+01 3.136393547058105469e+01 5.009969234466552734e+00 5.796486854553222656e+00 3.241936922073364258e+00 6.104462623596191406e+00
1.230000000000000000e+03 4.407262039184570312e+01 3.638967895507812500e+01 -8.222293257713317871e-01 1.587653732299804688e+01 4.516292095184326172e+00 -5.646110177040100098e-01
1.231000000000000000e+03 4.192461013793945312e+01 3.547644042968750000e+01 9.139237999916076660e-01 7.295183658599853516e+00 2.462732076644897461e+00 -4.161180019378662109e+00
1.232000000000000000e+03 4.067577743530273438e+01 3.543283843994140625e+01 6.570857763290405273e-01 2.148498058319091797e+00 8.416751623153686523e-01 -1.935780405998229980e+00
1.233000000000000000e+03 4.221538162231445312e+01 3.554216384887695312e+01 6.796126961708068848e-01 9.098037719726562500e+00 2.933295011520385742e+00 -4.327146053314208984e+00
1.234000000000000000e+03 4.231088256835937500e+01 3.620761871337890625e+01 6.549058016389608383e-03 9.651270866394042969e+00 2.897346019744873047e+00 -3.670192480087280273e+00
1.235000000000000000e+03 4.277238082885742188e+01 3.881164169311523438e+01 -7.943145632743835449e-01 9.799851417541503906e+00 2.701661109924316406e+00 -1.498961448669433594e+00
1.236000000000000000e+03 4.285508346557617188e+01 3.605982971191406250e+01 -3.758622705936431885e-01 1.292856979370117188e+01 3.765812158584594727e+00 -3.118518114089965820e+00
1.237000000000000000e+03 4.227379989624023438e+01 3.106615257263183594e+01 4.012592315673828125e+00 1.050643730163574219e+01 4.355709075927734375e+00 7.215777873992919922e+00
1.238000000000000000e+03 3.930103302001953125e+01 3.176017189025878906e+01 1.984290361404418945e+00 5.509428381919860840e-01 7.605699896812438965e-01 1.341797232627868652e+00
1.239000000000000000e+03 4.037488937377929688e+01 3.139034843444824219e+01 3.809412479400634766e+00 1.970873236656188965e+00 1.734085798263549805e+00 3.162307262420654297e+00
1.240000000000000000e+03 1.244313430786132812e+01 -2.647351741790771484e+00 5.170768126845359802e-04 -3.784781074500642717e-05 1.437687024008482695e-04 5.737113679060712457e-05
1.241000000000000000e+03 3.822208404541015625e+01 3.135465049743652344e+01 1.592378139495849609e+00 4.841622114181518555e-01 6.229621171951293945e-01 1.070251941680908203e+00
1.242000000000000000e+03 3.638858795166015625e+01 3.215336990356445312e+01 -6.430821865797042847e-02 1.337326616048812866e-01 2.082733437418937683e-02 1.774245500564575195e-01
1.243000000000000000e+03 3.635496139526367188e+01 3.160746383666992188e+01 4.540584385395050049e-01 2.256214469671249390e-01 2.039039582014083862e-01 3.028198480606079102e-01
1.244000000000000000e+03 4.236951446533203125e+01 2.927760124206542969e+01 1.770754694938659668e+00 1.059614276885986328e+01 3.710069417953491211e+00 4.828008651733398438e+00
1.245000000000000000e+03 3.633262634277343750e+01 3.105491638183593750e+01 8.935896754264831543e-01 3.561055064201354980e-01 3.749085664749145508e-01 4.802339971065521240e-01
1.246000000000000000e+03 2.771761703491210938e+01 3.340356445312500000e+01 -3.841013908386230469e-01 6.548956781625747681e-02 -9.558355063199996948e-02 -2.633670866489410400e-01
1.247000000000000000e+03 2.919085311889648438e+01 3.249711608886718750e+01 -3.313391208648681641e-01 1.105502620339393616e-01 -6.623665243387222290e-02 -3.013863265514373779e-01
1.248000000000000000e+03 2.026180648803710938e+01 3.950060653686523438e+01 -2.601763699203729630e-03 -1.417928375303745270e-02 -5.034314468502998352e-03 2.416404895484447479e-03
1.249000000000000000e+03 2.110404777526855469e+01 3.916835021972656250e+01 -3.324210178107023239e-03 -3.008289495483040810e-03 -1.899749971926212311e-03 9.272188879549503326e-03
1.250000000000000000e+03 1.385787487030029297e+01 2.702804803848266602e+00 1.996901846723631024e-04 -8.584438910475000739e-05 3.415373794268816710e-05 5.537324614124372602e-05
1.251000000000000000e+03 3.806504964828491211e+00 2.750524997711181641e+00 -1.492083829361945391e-04 -6.037611456122249365e-05 -6.287534779403358698e-05 2.856988248822744936e-05
1.252000000000000000e+03 6.022978782653808594e+00 2.644010782241821289e+00 8.797571354079991579e-05 9.085991041501984000e-05 5.365068864193744957e-05 -3.021530937985517085e-05
1.253000000000000000e+03 6.016451835632324219e+00 3.418850660324096680e+00 -9.754837083164602518e-05 -1.095137122320011258e-04 -6.211862637428566813e-05 3.180314160999841988e-05
1.254000000000000000e+03 6.749417781829833984e+00 3.380005121231079102e+00 9.907350613502785563e-05 1.086447373381815851e-04 6.231547013157978654e-05 -7.818310223228763789e-06
1.255000000000000000e+03 8.927636146545410156e+00 3.333068370819091797e+00 -1.330847007920965552e-04 -7.770980300847440958e-05 -6.323835259536281228e-05 -5.928392056375741959e-05
1.256000000000000000e+03 6.753040790557861328e+00 2.623329162597656250e+00 -8.431122842011973262e-05 -9.151739504886791110e-05 -5.274858631310053170e-05 1.282367793464800343e-05
1.257000000000000000e+03 7.471979618072509766e+00 3.351748466491699219e+00 -1.035578316077589989e-04 -1.039824201143346727e-04 -6.226207915460690856e-05 -1.046456600306555629e-05
1.258000000000000000e+03 4.511071205139160156e+00 3.564665079116821289e+00 -1.491127914050593972e-04 -8.111489296425133944e-05 -6.906830822117626667e-05 6.680905062239617109e-05
1.259000000000000000e+03 4.543505191802978516e+00 2.721712112426757812e+00 1.222072605742141604e-04 6.978240708122029901e-05 5.759690247941762209e-05 -5.131788566359318793e-05
1.260000000000000000e+03 2.439270973205566406e+00 2.667928457260131836e+00 -1.459643972339108586e-04 -6.707040301989763975e-05 -6.391044007614254951e-05 1.029206032399088144e-05
1.261000000000000000e+03 1.113200950622558594e+01 2.514280557632446289e+00 -1.675759995123371482e-04 1.003174475044943392e-05 -4.726327460957691073e-05 2.376848169660661370e-05
1.262000000000000000e+03 1.119597148895263672e+01 3.237445831298828125e+00 2.475034852977842093e-04 -3.537536395015195012e-05 6.363843567669391632e-05 -1.092433558369521052e-05
1.263000000000000000e+03 2.467135620117187500e+01 3.346631240844726562e+01 -1.700628995895385742e-01 -2.754481695592403412e-02 -5.928231403231620789e-02 -2.331678569316864014e-01
1.264000000000000000e+03 2.469538879394531250e+01 3.250367736816406250e+01 -1.244860440492630005e-01 -5.548319220542907715e-02 -5.399077013134956360e-02 -2.840834856033325195e-01
1.265000000000000000e+03 3.063113021850585938e+01 3.231620407104492188e+01 -3.470207750797271729e-01 1.390895396471023560e-01 -6.237937137484550476e-02 -2.673392593860626221e-01
1.266000000000000000e+03 3.135242080688476562e+01 3.222111511230468750e+01 -3.383542895317077637e-01 1.465342938899993896e-01 -5.754599720239639282e-02 -2.433849871158599854e-01
1.267000000000000000e+03 2.197332382202148438e+01 3.224721527099609375e+01 -2.486433275043964386e-02 -1.979393661022186279e-01 -6.684111058712005615e-02 -1.500154882669448853e-01
1.268000000000000000e+03 2.382285308837890625e+01 3.238050460815429688e+01 -8.412464708089828491e-02 -1.059848815202713013e-01 -5.703286081552505493e-02 -2.558081448078155518e-01
1.269000000000000000e+03 2.847241401672363281e+01 3.257250213623046875e+01 -3.099006116390228271e-01 9.089776128530502319e-02 -6.570085138082504272e-02 -3.108918666839599609e-01
1.270000000000000000e+03 2.991057014465332031e+01 3.241081619262695312e+01 -3.452435433864593506e-01 1.234215199947357178e-01 -6.654661148786544800e-02 -2.886492311954498291e-01
1.271000000000000000e+03 2.775405883789062500e+01 3.263081741333007812e+01 -2.810266315937042236e-01 7.312565296888351440e-02 -6.237029284238815308e-02 -3.131900131702423096e-01
1.272000000000000000e+03 3.279944610595703125e+01 3.203639221191406250e+01 -2.713281214237213135e-01 1.597332954406738281e-01 -3.347844257950782776e-02 -1.667494922876358032e-01
1.273000000000000000e+03 3.352278518676757812e+01 3.195175743103027344e+01 -2.042849808931350708e-01 1.673225611448287964e-01 -1.108872424811124802e-02 -1.081894040107727051e-01
1.274000000000000000e+03 1.255352306365966797e+01 2.803932905197143555e+00 6.746051076333969831e-05 3.395937164896167815e-05 3.042596472369041294e-05 -7.598593219881877303e-05
1.275000000000000000e+03 9.548722267150878906e+00 -3.374978542327880859e+00 -2.910342882387340069e-04 -2.856786013580858707e-04 -1.730138610582798719e-04 8.503146091243252158e-05
1.276000000000000000e+03 1.364114284515380859e+01 -4.062374114990234375e+00 -8.369042770937085152e-04 -1.443341025151312351e-04 -2.943715371657162905e-04 1.246029278263449669e-04
1.277000000000000000e+03 9.481352806091308594e+00 -4.121036529541015625e+00 2.834485494531691074e-04 3.271114255767315626e-04 1.831679837778210640e-04 -1.633495048736222088e-05
1.278000000000000000e+03 3.424330520629882812e+01 3.187082099914550781e+01 -1.169351190328598022e-01 1.688044965267181396e-01 1.556081417948007584e-02 -4.743508249521255493e-02
1.279000000000000000e+03 3.568529891967773438e+01 3.226762008666992188e+01 -2.682164311408996582e-01 1.122348681092262268e-01 -4.679447039961814880e-02 6.759250164031982422e-02
1.280000000000000000e+03 3.495824432373046875e+01 3.178872489929199219e+01 2.442694082856178284e-02 1.748866438865661621e-01 5.979407578706741333e-02 4.301750659942626953e-02
1.281000000000000000e+03 3.701562118530273438e+01 3.151291847229003906e+01 7.739189863204956055e-01 2.693175673484802246e-01 3.129709661006927490e-01 4.919312596321105957e-01
1.282000000000000000e+03 1.291832542419433594e+01 3.222977876663208008e+00 -2.105758903780952096e-05 3.545058643794618547e-05 4.317899310990469530e-06 1.310880761593580246e-04
1.283000000000000000e+03 1.352329158782958984e+01 4.230882167816162109e+00 3.244465915486216545e-04 1.520059140602825209e-05 1.018941547954455018e-04 8.837457244226243347e-06
1.284000000000000000e+03 6.593722820281982422e+00 -3.317313432693481445e+00 -4.561900859698653221e-04 -1.205390217364765704e-04 -1.730187359498813748e-04 7.666227611480280757e-05
1.285000000000000000e+03 2.655198574066162109e+00 -7.789918899536132812e+00 -9.597079479135572910e-04 -1.101624438888393342e-04 -3.209611168131232262e-04 -8.224752673413604498e-05
1.286000000000000000e+03 8.071158409118652344e+00 -4.908321380615234375e+00 -8.096819510683417320e-04 -3.510801661832374521e-06 -2.439578238409012556e-04 -2.912851923611015081e-04
1.287000000000000000e+03 5.892309665679931641e+00 -3.290022850036621094e+00 2.763502707239240408e-04 2.383281098445877433e-04 1.544035185361281037e-04 -3.622183430707082152e-05
1.288000000000000000e+03 5.839918613433837891e+00 -2.577918291091918945e+00 -2.199033042415976524e-04 -2.226095093647018075e-04 -1.327538484474644065e-04 -4.114531111554242671e-05
1.289000000000000000e+03 2.746107578277587891e+00 -4.193362712860107422e+00 4.564727714750915766e-04 1.562177203595638275e-04 1.838071475503966212e-04 -3.243227256461977959e-04
1.290000000000000000e+03 4.133702278137207031e+00 -4.397277832031250000e+00 6.157859461382031441e-04 1.158975501311942935e-04 2.195050474256277084e-04 4.902558866888284683e-04
1.291000000000000000e+03 2.229054689407348633e+00 -3.313267469406127930e+00 2.318261394975706935e-04 -9.647626939113251865e-06 6.665355613222345710e-05 1.228256296599283814e-04
1.292000000000000000e+03 1.507266521453857422e+00 -5.030476093292236328e+00 7.542123785242438316e-04 5.323455116013064981e-05 2.422340912744402885e-04 2.978629163408186287e-05
1.293000000000000000e+03 8.801464080810546875e+00 -3.355044841766357422e+00 3.669262223411351442e-04 2.189513324992731214e-04 1.757632708176970482e-04 2.720296834013424814e-05
1.294000000000000000e+03 4.452873611450195312e+01 3.052816772460937500e+01 2.379209995269775391e+00 1.678620719909667969e+01 5.749625205993652344e+00 7.964344620704650879e-01
1.295000000000000000e+03 2.682794952392578125e+01 4.030489730834960938e+01 7.697176933288574219e-02 -1.912134438753128052e-01 -3.427250310778617859e-02 1.686837375164031982e-01
1.296000000000000000e+03 2.816390419006347656e+01 3.991064834594726562e+01 6.318203359842300415e-02 -2.377718389034271240e-01 -5.237693712115287781e-02 2.051723897457122803e-01
1.297000000000000000e+03 2.216558265686035156e+01 4.179708099365234375e+01 -3.663097275421023369e-03 -3.139062598347663879e-02 -1.051611639559268951e-02 -9.900085387926083058e-06
1.298000000000000000e+03 2.380189895629882812e+01 3.341537475585937500e+01 -1.179576069116592407e-01 -6.343739479780197144e-02 -5.441850051283836365e-02 -2.054831683635711670e-01
1.299000000000000000e+03 1.968798446655273438e+01 4.038714599609375000e+01 -3.652503713965415955e-03 -2.923893975093960762e-03 -1.972919330000877380e-03 -6.926149129867553711e-03
1.300000000000000000e+03 1.883745384216308594e+01 3.773171997070312500e+01 2.008931338787078857e-02 -8.490105159580707550e-03 3.479762468487024307e-03 -1.640185131691396236e-03
1.301000000000000000e+03 4.538336944580078125e+01 3.667582321166992188e+01 3.375118225812911987e-02 1.515137958526611328e+01 4.555539131164550781e+00 1.305633544921875000e+00
1.302000000000000000e+03 4.605741882324218750e+01 3.291183471679687500e+01 7.106270313262939453e+00 1.387787723541259766e+01 6.295244216918945312e+00 8.333156108856201172e-01
1.303000000000000000e+03 4.445502090454101562e+01 3.115881347656250000e+01 3.718220233917236328e+00 1.735837364196777344e+01 6.322978496551513672e+00 1.688034087419509888e-01
1.304000000000000000e+03 1.145363044738769531e+01 1.646707725524902344e+01 5.880435346625745296e-04 1.834780050558038056e-05 1.819173921830952168e-04 -1.659699191804975271e-04
1.305000000000000000e+03 1.230567836761474609e+01 1.042947006225585938e+01 3.471593372523784637e-04 1.063618401531130075e-04 1.360563619527965784e-04 9.108074300456792116e-05
1.306000000000000000e+03 3.883641815185546875e+01 3.701954269409179688e+01 3.918331563472747803e-01 1.520904064178466797e+00 5.738211274147033691e-01 -9.229864478111267090e-01
1.307000000000000000e+03 1.226044082641601562e+01 2.717612838745117188e+01 9.401990682817995548e-04 2.296660677529871464e-04 3.509595408104360104e-04 -7.000264304224401712e-05
1.308000000000000000e+03 2.297066116333007812e+01 -1.116146087646484375e+01 1.358023192733526230e-02 2.006369590759277344e+00 6.059849262237548828e-01 1.709132641553878784e-01
1.309000000000000000e+03 3.672123336791992188e+01 3.769630813598632812e+01 1.702988296747207642e-01 5.455529093742370605e-01 2.147555202245712280e-01 3.425328135490417480e-01
1.310000000000000000e+03 3.522670364379882812e+01 3.929275131225585938e+01 8.025290369987487793e-01 4.678852111101150513e-02 2.547952532768249512e-01 3.927945196628570557e-01
1.311000000000000000e+03 2.347175407409667969e+01 -3.174597024917602539e-02 -8.626597002148628235e-03 1.608415365219116211e+00 4.799366295337677002e-01 2.826137840747833252e-01
1.312000000000000000e+03 2.446605110168457031e+01 -7.052958011627197266e+00 -3.020115196704864502e-02 2.093706369400024414e+00 6.190515756607055664e-01 2.490503191947937012e-01
1.313000000000000000e+03 2.308444976806640625e+01 -7.027140140533447266e+00 -2.195871807634830475e-02 1.890832424163818359e+00 5.606620907783508301e-01 2.041527330875396729e-01
1.314000000000000000e+03 2.291283226013183594e+01 -1.821723747253417969e+01 -3.250914439558982849e-02 2.115770578384399414e+00 6.249784231185913086e-01 1.081727519631385803e-01
1.315000000000000000e+03 2.203038215637207031e+01 -1.391666650772094727e+00 9.154979139566421509e-03 1.441663503646850586e+00 4.352455437183380127e-01 2.023185789585113525e-01
1.316000000000000000e+03 2.343321800231933594e+01 -1.454867124557495117e+00 -1.142484135925769806e-02 1.677419185638427734e+00 4.997982978820800781e-01 2.645555138587951660e-01
1.317000000000000000e+03 1.225003433227539062e+01 3.171617889404296875e+01 1.907579018734395504e-03 -6.631520809605717659e-04 3.733281046152114868e-04 9.149182005785405636e-05
1.318000000000000000e+03 1.427776432037353516e+01 3.300414276123046875e+01 -1.779990387149155140e-03 -4.211900231894105673e-04 -6.603540969081223011e-04 5.020602256990969181e-04
1.319000000000000000e+03 1.323143959045410156e+01 2.168248367309570312e+01 -1.006544916890561581e-03 -3.120490509900264442e-05 -3.113249258603900671e-04 7.535909389844164252e-05
1.320000000000000000e+03 1.180192279815673828e+01 1.777244567871093750e+01 -7.424345822073519230e-04 -7.241706953209359199e-06 -2.249028912046924233e-04 8.262622577603906393e-05
1.321000000000000000e+03 2.290759277343750000e+01 -1.678487014770507812e+01 -1.334199029952287674e-02 2.100255250930786133e+00 6.260740160942077637e-01 1.044169366359710693e-01
1.322000000000000000e+03 1.161046886444091797e+01 1.425557136535644531e+01 -2.759819326456636190e-04 -1.040490096784196794e-04 -1.140092790592461824e-04 -3.118063614238053560e-04
1.323000000000000000e+03 1.357216262817382812e+01 6.523800373077392578e+00 3.128222597297281027e-04 2.729377592913806438e-05 1.020348063320852816e-04 -2.846367124220705591e-06
1.324000000000000000e+03 1.050475406646728516e+01 4.873713970184326172e+00 -2.840518718585371971e-04 -3.897266287822276354e-05 -9.690736624179407954e-05 -1.200554615934379399e-04
1.325000000000000000e+03 1.097528839111328125e+01 1.272377681732177734e+01 -1.857657189248129725e-04 -2.812829916365444660e-04 -1.401146146235987544e-04 -2.044057328021153808e-04
1.326000000000000000e+03 1.357672405242919922e+01 5.306604385375976562e+00 -2.921024279203265905e-04 -1.195542245113756508e-05 -9.121735638473182917e-05 6.482567641796777025e-06
1.327000000000000000e+03 8.940402030944824219e+00 4.063476085662841797e+00 1.414288271917030215e-04 1.039781272993423045e-04 7.362208998529240489e-05 8.144533057929947972e-05
1.328000000000000000e+03 8.248424530029296875e+00 -3.440022277832031250e+01 -5.102682393044233322e-03 7.802720647305250168e-03 8.100115810520946980e-04 -3.784181899391114712e-05
1.329000000000000000e+03 1.186903762817382812e+01 2.041148185729980469e+01 -9.496737038716673851e-04 8.220802556024864316e-05 -2.602396998554468155e-04 -6.402677627193043008e-06
1.330000000000000000e+03 7.514129638671875000e+01 -3.520650482177734375e+01 -3.718831390142440796e-02 9.107975959777832031e+00 2.721236467361450195e+00 -4.123868793249130249e-02
1.331000000000000000e+03 7.710449981689453125e+01 -3.602896499633789062e+01 -3.155956417322158813e-02 9.401051521301269531e+00 2.810847520828247070e+00 6.671699229627847672e-03
1.332000000000000000e+03 7.552181243896484375e+01 -2.196432876586914062e+01 -1.719110645353794098e-02 9.087628364562988281e+00 2.721131324768066406e+00 -6.721728295087814331e-02
1.333000000000000000e+03 7.794618225097656250e+01 -2.920147705078125000e+01 -2.587632043287158012e-03 9.485214233398437500e+00 2.844787836074829102e+00 -2.502626366913318634e-02
1.334000000000000000e+03 7.815386962890625000e+01 -3.588269042968750000e+01 -2.339965105056762695e-02 9.553594589233398438e+00 2.859058380126953125e+00 1.329541020095348358e-02
1.335000000000000000e+03 7.363649749755859375e+01 -3.794225692749023438e+01 -3.303233534097671509e-02 8.891614913940429688e+00 2.657574892044067383e+00 -4.109532386064529419e-02
1.336000000000000000e+03 7.547079467773437500e+01 1.962815284729003906e+01 2.209510887041687965e-03 6.628537178039550781e+00 1.989223957061767578e+00 -6.504793763160705566e-01
1.337000000000000000e+03 7.810350036621093750e+01 1.543715763092041016e+01 -1.032410096377134323e-02 6.931755542755126953e+00 2.076429367065429688e+00 -2.996708750724792480e-01
1.338000000000000000e+03 7.765438842773437500e+01 3.513708877563476562e+01 2.843935042619705200e-02 4.614051342010498047e+00 1.392747163772583008e+00 -1.749910563230514526e-01
1.339000000000000000e+03 7.647601318359375000e+01 3.277289962768554688e+01 7.626971602439880371e-02 5.057655334472656250e+00 1.540177464485168457e+00 -3.041552305221557617e-01
1.340000000000000000e+03 7.804742431640625000e+01 -2.216735076904296875e+01 -3.239143639802932739e-03 9.431893348693847656e+00 2.828596115112304688e+00 -3.387965261936187744e-02
1.341000000000000000e+03 7.673947906494140625e+01 -2.348012542724609375e+01 -8.262491784989833832e-03 9.270335197448730469e+00 2.778621912002563477e+00 -4.342522099614143372e-02
1.342000000000000000e+03 7.655069732666015625e+01 -3.054941368103027344e+01 -4.318660590797662735e-03 9.286038398742675781e+00 2.784515857696533203e+00 -2.885320782661437988e-02
1.343000000000000000e+03 7.794893646240234375e+01 -2.780937767028808594e+01 9.999907342717051506e-04 9.475976943969726562e+00 2.843092918395996094e+00 -2.354974485933780670e-02
1.344000000000000000e+03 7.656787109375000000e+01 -2.916435050964355469e+01 -6.798476912081241608e-03 9.291353225708007812e+00 2.785366296768188477e+00 -2.497550658881664276e-02
1.345000000000000000e+03 7.803889465332031250e+01 -3.467936325073242188e+01 -5.213686730712652206e-03 9.535363197326660156e+00 2.859044790267944336e+00 -6.827807053923606873e-03
1.346000000000000000e+03 7.655116271972656250e+01 -2.777459716796875000e+01 -3.161799861118197441e-03 9.289343833923339844e+00 2.785854578018188477e+00 -3.464451432228088379e-02
1.347000000000000000e+03 7.667208099365234375e+01 -2.490917205810546875e+01 -2.977334428578615189e-03 9.271204948425292969e+00 2.780468225479125977e+00 -3.980507329106330872e-02
1.348000000000000000e+03 7.549922943115234375e+01 -2.335586357116699219e+01 -1.758564822375774384e-02 9.097242355346679688e+00 2.723897218704223633e+00 -5.988220870494842529e-02
1.349000000000000000e+03 7.665074157714843750e+01 -3.480169296264648438e+01 -2.861143462359905243e-02 9.359085083007812500e+00 2.799142122268676758e+00 -3.417726838961243629e-03
1.350000000000000000e+03 7.404196929931640625e+01 -2.989383697509765625e+01 -4.675173200666904449e-03 8.968893051147460938e+00 2.689265489578247070e+00 -3.970254585146903992e-02
1.351000000000000000e+03 7.645483398437500000e+01 -3.197009086608886719e+01 -7.269852329045534134e-03 9.287955284118652344e+00 2.784205436706542969e+00 -3.045221976935863495e-02
1.352000000000000000e+03 7.799946594238281250e+01 2.243383979797363281e+01 1.021074876189231873e-02 5.936005592346191406e+00 1.783864974975585938e+00 -3.230667710304260254e-01
1.353000000000000000e+03 7.676827239990234375e+01 1.965014648437500000e+01 -5.613689310848712921e-03 6.480469226837158203e+00 1.942456722259521484e+00 -4.960700273513793945e-01
1.354000000000000000e+03 7.526680755615234375e+01 2.250936889648437500e+01 3.614576160907745361e-02 6.337946891784667969e+00 1.912227749824523926e+00 -6.688446402549743652e-01
1.355000000000000000e+03 7.670989990234375000e+01 2.106485176086425781e+01 1.396046299487352371e-02 6.305233001708984375e+00 1.895758032798767090e+00 -5.058541893959045410e-01
1.356000000000000000e+03 7.684506225585937500e+01 1.269615554809570312e+01 -1.526741497218608856e-02 7.327125072479248047e+00 2.193557262420654297e+00 -4.352664947509765625e-01
1.357000000000000000e+03 7.549931335449218750e+01 8.538710594177246094e+00 -4.464656487107276917e-02 7.758565425872802734e+00 2.314175605773925781e+00 -5.048061013221740723e-01
1.358000000000000000e+03 7.684387969970703125e+01 1.409245967864990234e+01 -2.106782607734203339e-02 7.163533687591552734e+00 2.142739772796630859e+00 -4.514456987380981445e-01
1.359000000000000000e+03 7.659178924560546875e+01 2.392742156982421875e+01 2.127306163311004639e-02 5.966961383819580078e+00 1.796470284461975098e+00 -4.959251284599304199e-01
1.360000000000000000e+03 7.797660827636718750e+01 2.663075637817382812e+01 9.148518554866313934e-03 5.371668815612792969e+00 1.614245176315307617e+00 -2.984780371189117432e-01
1.361000000000000000e+03 7.676834106445312500e+01 -2.206607055664062500e+01 -1.114374026656150818e-02 9.254635810852050781e+00 2.773047685623168945e+00 -5.298594385385513306e-02
1.362000000000000000e+03 7.661394500732421875e+01 2.673423194885253906e+01 3.142539411783218384e-02 5.651608467102050781e+00 1.704910159111022949e+00 -4.628223776817321777e-01
1.363000000000000000e+03 7.441074371337890625e+01 -1.627146148681640625e+01 -3.677544742822647095e-02 8.854119300842285156e+00 2.645203113555908203e+00 -1.346630901098251343e-01
1.364000000000000000e+03 7.677645874023437500e+01 -2.066438674926757812e+01 -6.776373367756605148e-03 9.236385345458984375e+00 2.768882751464843750e+00 -5.809809267520904541e-02
1.365000000000000000e+03 7.552814483642578125e+01 -8.227404594421386719e+00 -3.164714202284812927e-02 8.774629592895507812e+00 2.622894525527954102e+00 -1.987814307212829590e-01
1.366000000000000000e+03 7.811206817626953125e+01 -1.519373989105224609e+01 -6.526057142764329910e-03 9.307493209838867188e+00 2.790290355682373047e+00 -6.084517389535903931e-02
1.367000000000000000e+03 7.549356079101562500e+01 -1.274653553962707520e+00 -4.602686688303947449e-02 8.458839416503906250e+00 2.523843765258789062e+00 -3.109978735446929932e-01
1.368000000000000000e+03 7.809299468994140625e+01 -8.264244079589843750e+00 -5.271075293421745300e-03 9.073348045349121094e+00 2.720423221588134766e+00 -9.787624329328536987e-02
1.369000000000000000e+03 7.808492279052734375e+01 5.678431034088134766e+00 -7.274362258613109589e-03 8.110743522644042969e+00 2.431040763854980469e+00 -2.185804843902587891e-01
1.370000000000000000e+03 7.681040191650390625e+01 2.924695730209350586e+00 -2.915912680327892303e-02 8.276730537414550781e+00 2.474271535873413086e+00 -2.953861951828002930e-01
1.371000000000000000e+03 7.545697021484375000e+01 3.567758178710937500e+01 1.063557565212249756e-01 5.129189491271972656e+00 1.570663571357727051e+00 -2.444935142993927002e-01
1.372000000000000000e+03 7.808683013916015625e+01 7.069858074188232422e+00 -1.302263885736465454e-02 7.967795848846435547e+00 2.386431932449340820e+00 -2.322241067886352539e-01
1.373000000000000000e+03 7.677814483642578125e+01 5.719634056091308594e+00 -2.875741012394428253e-02 8.041349411010742188e+00 2.403777599334716797e+00 -3.412198126316070557e-01
1.374000000000000000e+03 7.810074615478515625e+01 -1.299507021903991699e+00 -1.143795996904373169e-02 8.693003654479980469e+00 2.604469776153564453e+00 -1.515332162380218506e-01
1.375000000000000000e+03 7.680709838867187500e+01 -2.661507368087768555e+00 -2.465862035751342773e-02 8.651467323303222656e+00 2.588042497634887695e+00 -2.165078222751617432e-01
1.376000000000000000e+03 7.681688690185546875e+01 -9.617657661437988281e+00 -1.474697701632976532e-02 8.972252845764160156e+00 2.687251806259155273e+00 -1.364044249057769775e-01
1.377000000000000000e+03 7.685615539550781250e+01 -1.647527122497558594e+01 -1.357844751328229904e-02 9.170290946960449219e+00 2.747013807296752930e+00 -8.306772261857986450e-02
1.378000000000000000e+03 7.627478027343750000e+01 3.439993667602539062e+01 6.066299974918365479e-02 5.035685539245605469e+00 1.528904676437377930e+00 -2.458220720291137695e-01
1.379000000000000000e+03 7.308693695068359375e+01 3.470652008056640625e+01 2.439249157905578613e-01 5.860869407653808594e+00 1.831438302993774414e+00 -4.546675980091094971e-01
1.380000000000000000e+03 7.649110412597656250e+01 3.112890625000000000e+01 7.658333331346511841e-02 5.223547935485839844e+00 1.590039491653442383e+00 -3.552629649639129639e-01
1.381000000000000000e+03 7.680509185791015625e+01 1.825290298461914062e+01 -1.888855011202394962e-03 6.652410030364990234e+00 1.995156407356262207e+00 -4.883722960948944092e-01
1.382000000000000000e+03 7.682609558105468750e+01 1.686550712585449219e+01 -1.581568829715251923e-02 6.825476646423339844e+00 2.042898178100585938e+00 -4.770355224609375000e-01
1.383000000000000000e+03 7.682673645019531250e+01 9.908951759338378906e+00 -2.039793320000171661e-02 7.636513233184814453e+00 2.284834623336791992e+00 -4.002499282360076904e-01
1.384000000000000000e+03 7.686267089843750000e+01 -1.510596179962158203e+01 -1.121330261230468750e-02 9.140498161315917969e+00 2.738785505294799805e+00 -9.177744388580322266e-02
1.385000000000000000e+03 7.681304931640625000e+01 -8.228558540344238281e+00 -1.991015486419200897e-02 8.918934822082519531e+00 2.669707298278808594e+00 -1.510001271963119507e-01
1.386000000000000000e+03 7.810045623779296875e+01 1.489957094192504883e+00 -1.262153964489698410e-02 8.486551284790039062e+00 2.542178869247436523e+00 -1.761696785688400269e-01
1.387000000000000000e+03 7.678974914550781250e+01 4.329685211181640625e+00 -2.412518672645092010e-02 8.162371635437011719e+00 2.441473960876464844e+00 -3.194244503974914551e-01
1.388000000000000000e+03 7.680661773681640625e+01 -5.453078269958496094e+00 -2.265496179461479187e-02 8.796736717224121094e+00 2.632224559783935547e+00 -1.815752089023590088e-01
1.389000000000000000e+03 7.681011199951171875e+01 -6.842121124267578125e+00 -1.717903278768062592e-02 8.860541343688964844e+00 2.653008699417114258e+00 -1.654741317033767700e-01
1.390000000000000000e+03 7.680454254150390625e+01 -4.057194232940673828e+00 -1.975000463426113129e-02 8.727130889892578125e+00 2.612214088439941406e+00 -1.984488070011138916e-01
1.391000000000000000e+03 7.684022521972656250e+01 -1.237944984436035156e+01 -1.152344979345798492e-02 9.065000534057617188e+00 2.716042995452880859e+00 -1.118340194225311279e-01
1.392000000000000000e+03 7.685486602783203125e+01 -1.374464702606201172e+01 -1.373350154608488083e-02 9.104747772216796875e+00 2.727304220199584961e+00 -1.020776405930519104e-01
1.393000000000000000e+03 7.682571411132812500e+01 -1.100314044952392578e+01 -1.624700985848903656e-02 9.020811080932617188e+00 2.701369047164916992e+00 -1.239454746246337891e-01
1.394000000000000000e+03 7.679946899414062500e+01 -1.926057815551757812e+01 -1.061337906867265701e-02 9.218783378601074219e+00 2.762450933456420898e+00 -6.453759223222732544e-02
1.395000000000000000e+03 2.229309654235839844e+01 5.698680400848388672e+00 1.359747257083654404e-02 9.592831730842590332e-01 2.918641865253448486e-01 2.397039681673049927e-01
1.396000000000000000e+03 2.356096649169921875e+01 9.933066368103027344e+00 -3.263285849243402481e-03 7.990359663963317871e-01 2.387318015098571777e-01 3.752185702323913574e-01
1.397000000000000000e+03 2.288331413269042969e+01 -2.545185279846191406e+01 -1.301629561930894852e-02 2.178969621658325195e+00 6.497860550880432129e-01 7.927645742893218994e-02
1.398000000000000000e+03 2.133495521545410156e+01 -2.248653984069824219e+01 -1.525489240884780884e-02 1.912920594215393066e+00 5.692996978759765625e-01 5.925396829843521118e-02
1.399000000000000000e+03 2.198985290527343750e+01 3.102053260803222656e+01 -7.171929813921451569e-03 -2.927365303039550781e-01 -8.997254073619842529e-02 -1.740568280220031738e-01
1.400000000000000000e+03 2.354783630371093750e+01 1.276219463348388672e+01 9.618394076824188232e-03 5.026717185974121094e-01 1.536870449781417847e-01 3.689615130424499512e-01
1.401000000000000000e+03 1.196292114257812500e+01 -2.634705162048339844e+01 2.847790252417325974e-03 9.098885930143296719e-04 1.127303694374859333e-03 -1.250221976079046726e-04
1.402000000000000000e+03 2.480517196655273438e+01 3.155521011352539062e+01 -7.258163392543792725e-02 -7.539210468530654907e-02 -4.439212009310722351e-02 -3.194246888160705566e-01
1.403000000000000000e+03 2.214541625976562500e+01 2.691312980651855469e+01 3.015480749309062958e-02 -5.884927511215209961e-01 -1.675013750791549683e-01 -1.378075778484344482e-01
1.404000000000000000e+03 2.326727485656738281e+01 2.695274734497070312e+01 7.344760745763778687e-02 -3.836303055286407471e-01 -9.305480867624282837e-02 -1.845036000013351440e-01
1.405000000000000000e+03 1.365243530273437500e+01 -6.586793899536132812e+00 -1.045110053382813931e-03 -8.846481796354055405e-05 -3.400724672246724367e-04 1.046699107973836362e-04
1.406000000000000000e+03 2.216322708129882812e+01 2.551029396057128906e+01 3.600974753499031067e-02 -6.470303535461425781e-01 -1.833061873912811279e-01 -9.203314036130905151e-02
1.407000000000000000e+03 2.463333892822265625e+01 2.285294532775878906e+01 1.786141246557235718e-01 -3.925072774291038513e-02 4.180901870131492615e-02 8.486378937959671021e-02
1.408000000000000000e+03 2.118939590454101562e+01 -2.809875679016113281e+01 -7.191019598394632339e-03 1.987930178642272949e+00 5.942217707633972168e-01 5.075139552354812622e-02
1.409000000000000000e+03 2.223373603820800781e+01 2.269663619995117188e+01 3.965040668845176697e-02 -6.535773277282714844e-01 -1.841780692338943481e-01 1.540797017514705658e-02
1.410000000000000000e+03 2.343265151977539062e+01 2.277066040039062500e+01 9.657952934503555298e-02 -3.319360613822937012e-01 -7.060695439577102661e-02 3.881927952170372009e-02
1.411000000000000000e+03 2.351145935058593750e+01 2.135340881347656250e+01 8.901489526033401489e-02 -2.512764334678649902e-01 -4.867846518754959106e-02 1.202649623155593872e-01
1.412000000000000000e+03 2.227050209045410156e+01 2.128723144531250000e+01 3.486918658018112183e-02 -6.035287380218505859e-01 -1.705978661775588989e-01 6.475897133350372314e-02
1.413000000000000000e+03 2.486554527282714844e+01 1.994115257263183594e+01 1.453668624162673950e-01 1.926873475313186646e-01 1.014162600040435791e-01 2.801161110401153564e-01
1.414000000000000000e+03 1.313123512268066406e+01 -1.606562423706054688e+01 1.922699972055852413e-03 3.444677277002483606e-04 6.801502895541489124e-04 -6.618503248319029808e-04
1.415000000000000000e+03 1.151926231384277344e+01 -1.837283515930175781e+01 -1.653215149417519569e-03 -3.382905561011284590e-04 -5.974516971036791801e-04 6.331540644168853760e-04
1.416000000000000000e+03 1.183655166625976562e+01 -1.583795070648193359e+01 -1.530890003778040409e-03 -5.038721719756722450e-04 -6.104286294430494308e-04 6.296266801655292511e-04
1.417000000000000000e+03 1.247740173339843750e+01 -9.149548530578613281e+00 1.165741123259067535e-03 1.225988671649247408e-04 3.865020116791129112e-04 -2.013021294260397553e-04
1.418000000000000000e+03 1.353162097930908203e+01 -9.246990203857421875e+00 -1.260332064703106880e-03 -8.844673720886930823e-05 -4.046336398459970951e-04 1.479467173339799047e-04
1.419000000000000000e+03 1.216683101654052734e+01 -1.178917121887207031e+01 1.242327038198709488e-03 2.715189184527844191e-04 4.541537782642990351e-04 -2.616954152472317219e-04
1.420000000000000000e+03 2.354536819458007812e+01 1.418123817443847656e+01 2.047193981707096100e-02 3.547107577323913574e-01 1.125548109412193298e-01 3.551663756370544434e-01
1.421000000000000000e+03 2.355087852478027344e+01 1.560032463073730469e+01 3.302659466862678528e-02 2.170946598052978516e-01 7.503637671470642090e-02 3.340700566768646240e-01
1.422000000000000000e+03 2.231262207031250000e+01 1.278236293792724609e+01 3.575709182769060135e-03 1.543525159358978271e-01 4.737846925854682922e-02 2.345466017723083496e-01
1.423000000000000000e+03 2.355610275268554688e+01 1.134928894042968750e+01 1.554038026370108128e-03 6.515222191810607910e-01 1.959228813648223877e-01 3.749763369560241699e-01
1.424000000000000000e+03 1.117431735992431641e+01 -1.953136062622070312e+01 1.631670515052974224e-03 -2.463629643898457289e-04 4.155922506470233202e-04 -8.118351688608527184e-04
1.425000000000000000e+03 1.197545337677001953e+01 -2.398190307617187500e+01 2.377262571826577187e-03 1.272814697585999966e-03 1.095023239031434059e-03 9.536155848763883114e-04
1.426000000000000000e+03 2.231902694702148438e+01 8.538748741149902344e+00 -2.012011595070362091e-03 6.501421928405761719e-01 1.944390535354614258e-01 2.380248159170150757e-01
1.427000000000000000e+03 2.354564476013183594e+01 7.088445663452148438e+00 -8.230009552789852023e-05 1.077267646789550781e+00 3.231556117534637451e-01 3.652632832527160645e-01
1.428000000000000000e+03 2.314702987670898438e+01 -5.654860019683837891e+00 -2.641447633504867554e-02 1.843823552131652832e+00 5.452226996421813965e-01 2.076665163040161133e-01
1.429000000000000000e+03 2.323387145996093750e+01 -4.270587921142578125e+00 -1.936469599604606628e-02 1.790418744087219238e+00 5.313162207603454590e-01 2.230717241764068604e-01
1.430000000000000000e+03 3.131073474884033203e+00 2.996181488037109375e+01 -8.465277496725320816e-04 7.171212200773879886e-05 -2.324446832062676549e-04 -1.343879557680338621e-04
1.431000000000000000e+03 1.895393252372741699e+00 2.736136054992675781e+01 6.527731893584132195e-04 -5.739384141634218395e-05 1.786138018360361457e-04 7.273508344951551408e-06
1.432000000000000000e+03 4.778936862945556641e+00 3.256258392333984375e+01 7.533243042416870594e-04 1.559528609504923224e-04 2.727831306401640177e-04 3.330297186039388180e-04
1.433000000000000000e+03 3.400353670120239258e+00 3.571031570434570312e+01 -2.852409670595079660e-04 -3.278170188423246145e-04 -1.839173928601667285e-04 9.115475404541939497e-05
1.434000000000000000e+03 3.090968608856201172e+00 2.859151077270507812e+01 8.622549939900636673e-04 -1.403103960910812020e-04 2.165833720937371254e-04 1.227522443514317274e-04
1.435000000000000000e+03 2.019141912460327148e+00 3.577353286743164062e+01 4.728368367068469524e-04 1.479000056860968471e-04 1.862210483523085713e-04 -2.354513853788375854e-04
1.436000000000000000e+03 6.120680332183837891e+00 3.816344451904296875e+01 2.492754720151424408e-04 2.042503765551373363e-04 1.360577443847432733e-04 6.706684944219887257e-04
1.437000000000000000e+03 2.030927658081054688e+00 3.441035079956054688e+01 -4.667385073844343424e-04 -2.612584212329238653e-04 -2.183990727644413710e-04 1.357254805043339729e-04
1.438000000000000000e+03 3.454466819763183594e+00 3.427017974853515625e+01 4.169361491221934557e-04 2.677601296454668045e-04 2.054088836302980781e-04 1.223681174451485276e-04
1.439000000000000000e+03 4.528417110443115234e+00 3.109214782714843750e+01 -9.956888388842344284e-04 3.924562770407646894e-05 -2.869329473469406366e-04 -2.704617509152740240e-04
1.440000000000000000e+03 3.247413873672485352e+00 3.135969543457031250e+01 7.436292944476008415e-04 -3.394161183223332046e-07 2.229869569418951869e-04 2.159157738788053393e-04
1.441000000000000000e+03 4.134474277496337891e+00 -3.523856735229492188e+01 -5.905692465603351593e-03 -2.678210148587822914e-03 -2.575170714408159256e-03 -4.519395064562559128e-03
1.442000000000000000e+03 3.924018621444702148e+00 -3.678010940551757812e+01 1.181380706839263439e-03 -3.621421521529555321e-03 -7.320122094824910164e-04 -6.361277308315038681e-03
1.443000000000000000e+03 3.867702484130859375e+00 -3.377873611450195312e+01 3.299686359241604805e-03 -6.151815177872776985e-04 8.053514757193624973e-04 -2.275193110108375549e-03
1.444000000000000000e+03 3.303071975708007812e+00 -2.971309661865234375e+01 -4.117337055504322052e-03 -3.544081409927457571e-04 -1.341523486189544201e-03 -1.817963784560561180e-03
1.445000000000000000e+03 1.959552288055419922e+00 -2.866022109985351562e+01 -3.435232443735003471e-03 -1.474756718380376697e-04 -1.074812491424381733e-03 -1.067033153958618641e-03
1.446000000000000000e+03 1.972302436828613281e+00 2.158692741394042969e+01 5.957005778327584267e-04 -1.613723128457422717e-07 1.786617649486288428e-04 -9.658086128183640540e-06
1.447000000000000000e+03 3.362098455429077148e+00 2.278465652465820312e+01 6.295553175732493401e-04 5.028226587455719709e-05 2.039512619376182556e-04 4.732660818262957036e-05
1.448000000000000000e+03 3.216838121414184570e+00 -1.888743591308593750e+01 -1.949987723492085934e-03 -1.276879047509282827e-04 -6.233027088455855846e-04 -3.072362742386758327e-04
1.449000000000000000e+03 2.904211521148681641e+00 -1.187318992614746094e+01 1.324857235886156559e-03 8.257089939434081316e-05 4.222284187562763691e-04 2.301315689692273736e-04
1.450000000000000000e+03 1.657508850097656250e+00 -9.196781158447265625e+00 -1.039482071064412594e-03 -4.964887557434849441e-05 -3.267392748966813087e-04 -9.491758828517049551e-05
1.451000000000000000e+03 3.140787363052368164e+00 1.708196640014648438e+01 6.486839847639203072e-04 -8.554948180972132832e-06 1.920387148857116699e-04 -9.454138489672914147e-05
1.452000000000000000e+03 2.905349493026733398e+00 1.165190410614013672e+01 4.211620835121721029e-04 5.424837945611216128e-05 1.426231319783255458e-04 -1.631399936741217971e-04
1.453000000000000000e+03 1.842745065689086914e+00 -1.477576255798339844e+01 -1.483177300542593002e-03 -3.457312050159089267e-05 -4.553251492325216532e-04 -1.581945398356765509e-04
1.454000000000000000e+03 2.970809221267700195e+00 -1.325922012329101562e+01 -1.463013002648949623e-03 -6.309623131528496742e-05 -4.578327643685042858e-04 -2.284542133565992117e-04
1.455000000000000000e+03 4.578083038330078125e+00 5.255740165710449219e+00 -2.015747013501822948e-04 -8.228688238887116313e-05 -8.515847730450332165e-05 1.728299394017085433e-04
1.456000000000000000e+03 2.711574077606201172e+00 7.571809768676757812e+00 -3.162473440170288086e-04 -6.870030483696609735e-05 -1.154842902906239033e-04 7.577272481285035610e-05
1.457000000000000000e+03 1.769262194633483887e+00 1.461846446990966797e+01 -5.756416940130293369e-04 -1.389924591421731748e-06 -1.731094962451606989e-04 1.239998091477900743e-04
1.458000000000000000e+03 3.027544498443603516e+00 1.575521564483642578e+01 -6.002564332447946072e-04 3.754471617867238820e-05 -1.688135089352726936e-04 1.233085495186969638e-04
1.459000000000000000e+03 2.782137155532836914e+00 8.909422874450683594e+00 3.408834163565188646e-04 6.732327892677858472e-05 1.224620064022019506e-04 -1.093659375328570604e-04
1.460000000000000000e+03 5.918671131134033203e+00 -3.975717067718505859e+00 -3.286442079115658998e-04 -2.492933708708733320e-04 -1.733812678139656782e-04 2.344081876799464226e-04
1.461000000000000000e+03 2.508780002593994141e+00 -5.182483673095703125e+00 -7.008789689280092716e-04 -1.665905438130721450e-04 -2.602408349048346281e-04 9.754391066962853074e-05
1.462000000000000000e+03 1.531355619430541992e+00 -6.458506107330322266e+00 -8.976260432973504066e-04 -3.526007276377640665e-05 -2.798658388201147318e-04 -3.414475577301345766e-05
1.463000000000000000e+03 3.239320755004882812e+00 -2.836289787292480469e+01 2.696157898753881454e-03 1.782313629519194365e-04 8.623168105259537697e-04 7.407097727991640568e-04
1.464000000000000000e+03 3.165900230407714844e+00 -2.163616371154785156e+01 -2.425450598821043968e-03 1.204842101287795231e-05 -7.240206468850374222e-04 -2.197015564888715744e-04
1.465000000000000000e+03 2.417093515396118164e+00 -3.556121063232421875e+01 3.072521183639764786e-03 -2.481526695191860199e-03 1.772983814589679241e-04 -1.781194354407489300e-03
1.466000000000000000e+03 3.141600131988525391e+00 -2.298406791687011719e+01 2.531500533223152161e-03 1.813974959077313542e-04 8.138694101944565773e-04 4.284843453206121922e-04
1.467000000000000000e+03 3.115894556045532227e+00 -1.605938148498535156e+01 -1.664148760028183460e-03 -1.123432448366656899e-04 -5.329475970938801765e-04 -2.218177978647872806e-04
1.468000000000000000e+03 3.274269580841064453e+00 2.126239967346191406e+01 -7.187805604189634323e-04 4.414605064084753394e-05 -2.023903653025627136e-04 -2.572476842033211142e-05
1.469000000000000000e+03 2.835554838180541992e+00 -1.049219799041748047e+01 -1.165853813290596008e-03 -9.115222201216965914e-05 -3.771018236875534058e-04 -1.892308937385678291e-04
1.470000000000000000e+03 2.754681587219238281e+00 -9.126072883605957031e+00 1.050113467499613762e-03 1.103306203731335700e-04 3.481332387309521437e-04 1.468092377763241529e-04
1.471000000000000000e+03 3.619940519332885742e+00 -3.241340637207031250e+01 -5.644259974360466003e-03 -7.092493469826877117e-04 -1.906052697449922562e-03 -3.238131059333682060e-03
1.472000000000000000e+03 1.894130587577819824e+00 -2.452311134338378906e+01 2.605014713481068611e-03 4.264949529897421598e-04 9.094529086723923683e-04 5.885304999537765980e-04
1.473000000000000000e+03 4.407063007354736328e+00 -2.412922286987304688e+01 2.312550088390707970e-03 4.636589437723159790e-04 8.328627445735037327e-04 2.036367804976180196e-04
1.474000000000000000e+03 3.171950101852416992e+00 -2.566637611389160156e+01 2.492056461051106453e-03 4.653008072637021542e-04 8.872071630321443081e-04 6.476552807725965977e-04
1.475000000000000000e+03 3.040276050567626953e+00 -1.465140628814697266e+01 1.612136140465736389e-03 8.530072227586060762e-05 5.092310602776706219e-04 2.663540071807801723e-04
1.476000000000000000e+03 2.864594697952270508e+00 1.027291774749755859e+01 -3.631855361163616180e-04 -7.042475772323086858e-05 -1.300830917898565531e-04 1.321016607107594609e-04
1.477000000000000000e+03 2.900864362716674805e+00 1.302271652221679688e+01 -4.935020697303116322e-04 -1.437214359611971304e-05 -1.523622631793841720e-04 1.698015694273635745e-04
1.478000000000000000e+03 3.195043563842773438e+00 1.841506767272949219e+01 -6.776744266971945763e-04 1.858998621173668653e-05 -1.977253414224833250e-04 9.536954166833311319e-05
1.479000000000000000e+03 2.347415351867675781e+01 2.814348697662353516e+00 4.033469129353761673e-03 1.421829938888549805e+00 4.277590215206146240e-01 3.108406066894531250e-01
1.480000000000000000e+03 2.300370216369628906e+01 -9.773737907409667969e+00 -2.676731674000620842e-03 1.978410959243774414e+00 5.927202701568603516e-01 1.761648356914520264e-01
1.481000000000000000e+03 1.232051181793212891e+01 3.073856925964355469e+01 -1.520789461210370064e-03 3.481323365122079849e-04 -3.517971199471503496e-04 -2.111367393808905035e-05
1.482000000000000000e+03 1.199568176269531250e+01 2.319921112060546875e+01 -1.007623854093253613e-03 -2.071364860967150889e-06 -3.029085637535899878e-04 1.466363173676654696e-04
1.483000000000000000e+03 1.587389278411865234e+01 3.682293701171875000e+01 3.667462384328246117e-03 6.111581460572779179e-04 1.283586141653358936e-03 -1.762085244990885258e-03
1.484000000000000000e+03 1.353498554229736328e+01 3.469727706909179688e+01 -1.144642359577119350e-03 -1.259531563846394420e-04 -3.811786591541022062e-04 1.534969342174008489e-04
1.485000000000000000e+03 2.292094039916992188e+01 -1.536563968658447266e+01 3.960929811000823975e-03 2.074191808700561523e+00 6.234458088874816895e-01 1.222733706235885620e-01
1.486000000000000000e+03 2.294584846496582031e+01 -1.255599498748779297e+01 1.784477569162845612e-02 2.033623456954956055e+00 6.154404878616333008e-01 1.498932093381881714e-01
1.487000000000000000e+03 1.176836204528808594e+01 -3.532331466674804688e+01 -1.830586977303028107e-02 1.859940704889595509e-03 -4.933778662234544754e-03 -1.531443675048649311e-03
1.488000000000000000e+03 8.972931861877441406e+00 -3.940410232543945312e+01 1.629142649471759796e-02 6.291552446782588959e-03 6.774893961846828461e-03 -1.785753294825553894e-02
1.489000000000000000e+03 2.352566719055175781e+01 5.664759159088134766e+00 7.820023223757743835e-03 1.201267600059509277e+00 3.627262711524963379e-01 3.516266345977783203e-01
1.490000000000000000e+03 3.827648925781250000e+01 3.955657196044921875e+01 8.892380595207214355e-01 2.303148746490478516e+00 9.577160477638244629e-01 -4.916339516639709473e-01
1.491000000000000000e+03 3.632397079467773438e+01 3.878775405883789062e+01 5.948616862297058105e-01 3.834367990493774414e-01 2.934895455837249756e-01 3.986440300941467285e-01
1.492000000000000000e+03 2.333810615539550781e+01 -2.868884801864624023e+00 -1.220628432929515839e-02 1.738405942916870117e+00 5.178598761558532715e-01 2.471728473901748657e-01
1.493000000000000000e+03 2.294967651367187500e+01 -1.966134452819824219e+01 -2.690578252077102661e-02 2.119468927383422852e+00 6.277689933776855469e-01 1.077160984277725220e-01
1.494000000000000000e+03 1.233276271820068359e+01 2.843209457397460938e+01 -1.060983631759881973e-03 -2.380486403126269579e-04 -3.897096612490713596e-04 -1.238173863384872675e-04
1.495000000000000000e+03 1.087757396697998047e+01 2.730224227905273438e+01 -8.573217783123254776e-04 -2.910684270318597555e-04 -3.445170586928725243e-04 1.656055101193487644e-04
1.496000000000000000e+03 3.269481277465820312e+01 4.001872253417968750e+01 4.452745914459228516e-01 -4.502589702606201172e-01 -1.495309523306787014e-03 3.567034006118774414e-01
1.497000000000000000e+03 2.134973335266113281e+01 -2.105492591857910156e+01 -5.513770040124654770e-03 1.887920618057250977e+00 5.647220611572265625e-01 9.271366149187088013e-02
1.498000000000000000e+03 2.410495758056640625e+01 -3.108891105651855469e+01 3.559622913599014282e-02 2.319289207458496094e+00 7.064656019210815430e-01 6.620094180107116699e-02
1.499000000000000000e+03 2.272135353088378906e+01 -2.821875953674316406e+01 1.521304156631231308e-02 2.181488275527954102e+00 6.590104103088378906e-01 7.150209695100784302e-02
1.500000000000000000e+03 2.440479660034179688e+01 -2.704446983337402344e+01 -6.738690659403800964e-03 2.389833927154541016e+00 7.149285674095153809e-01 8.837317675352096558e-02
1.501000000000000000e+03 2.115451240539550781e+01 -2.947816658020019531e+01 1.940480619668960571e-02 2.012379169464111328e+00 6.095351576805114746e-01 5.958439782261848450e-02
1.502000000000000000e+03 1.515808963775634766e+01 -4.038306808471679688e+01 7.939668744802474976e-02 3.160974383354187012e-02 3.330193087458610535e-02 -3.815925493836402893e-02
1.503000000000000000e+03 2.158600807189941406e+01 -3.501714324951171875e+01 1.544514298439025879e-01 2.015144824981689453e+00 6.508789062500000000e-01 9.446036815643310547e-02
1.504000000000000000e+03 5.125220298767089844e+00 -4.050359725952148438e+01 7.448493037372827530e-03 -9.920168668031692505e-03 -7.415026193484663963e-04 -3.117306856438517570e-03
1.505000000000000000e+03 3.876937103271484375e+01 3.129964637756347656e+01 2.076465368270874023e+00 7.054002881050109863e-01 8.345596790313720703e-01 1.447839379310607910e+00
1.506000000000000000e+03 4.063098526000976562e+01 3.166253089904785156e+01 4.097638130187988281e+00 1.663276433944702148e+00 1.728274345397949219e+00 3.285257339477539062e+00
1.507000000000000000e+03 4.417448425292968750e+01 3.549232101440429688e+01 3.849344551563262939e-01 1.840772056579589844e+01 5.637796401977539062e+00 8.669906258583068848e-01
1.508000000000000000e+03 4.188013839721679688e+01 3.760604095458984375e+01 -7.698620855808258057e-02 8.169022560119628906e+00 2.427610874176025391e+00 -2.749577283859252930e+00
1.509000000000000000e+03 4.162498092651367188e+01 3.572685623168945312e+01 9.148471951484680176e-01 5.967516899108886719e+00 2.064709186553955078e+00 -3.859353780746459961e+00
1.510000000000000000e+03 4.060359191894531250e+01 3.623518753051757812e+01 6.125489473342895508e-01 2.697588443756103516e+00 9.930412173271179199e-01 -2.372486829757690430e+00
1.511000000000000000e+03 4.688795852661132812e+01 3.629356384277343750e+01 1.604090571403503418e+00 1.418560600280761719e+01 4.736908912658691406e+00 2.170386314392089844e+00
1.512000000000000000e+03 4.538862609863281250e+01 3.823347091674804688e+01 -1.056724548339843750e+00 1.413747215270996094e+01 3.924224376678466797e+00 3.325898349285125732e-01
1.513000000000000000e+03 4.264636611938476562e+01 3.001138114929199219e+01 2.032817602157592773e+00 1.211502075195312500e+01 4.244351387023925781e+00 5.196611404418945312e+00
1.514000000000000000e+03 4.316323089599609375e+01 3.012341117858886719e+01 1.672676205635070801e+00 1.397560882568359375e+01 4.694485664367675781e+00 4.359693050384521484e+00
1.515000000000000000e+03 3.760995101928710938e+01 3.089081764221191406e+01 1.614694237709045410e+00 5.934978723526000977e-01 6.624576449394226074e-01 1.038887381553649902e+00
1.516000000000000000e+03 2.637721252441406250e+01 3.183966064453125000e+01 -1.322042793035507202e-01 1.799016445875167847e-02 -3.426423296332359314e-02 -3.405845463275909424e-01
1.517000000000000000e+03 3.695587158203125000e+01 3.042815971374511719e+01 1.559736490249633789e+00 6.648690104484558105e-01 6.673816442489624023e-01 9.737417697906494141e-01
1.518000000000000000e+03 3.927951812744140625e+01 3.127239799499511719e+01 2.562309741973876953e+00 9.334555864334106445e-01 1.048729658126831055e+00 1.894419431686401367e+00
1.519000000000000000e+03 2.710338783264160156e+01 3.187536430358886719e+01 -1.549013406038284302e-01 5.155561864376068115e-02 -3.100371547043323517e-02 -3.427093625068664551e-01
1.520000000000000000e+03 8.210265159606933594e+00 4.067024230957031250e+00 -1.172883858089335263e-04 -1.143542249337770045e-04 -6.949278031243011355e-05 -4.198942406219430268e-05
1.521000000000000000e+03 1.042755889892578125e+01 3.310321092605590820e+00 -2.246859221486374736e-04 -1.006994352792389691e-06 -6.770787877030670643e-05 -4.981592792319133878e-05
1.522000000000000000e+03 2.628914833068847656e+01 3.264996719360351562e+01 -2.080060392618179321e-01 2.409755624830722809e-02 -5.517254397273063660e-02 -3.087467253208160400e-01
1.523000000000000000e+03 2.503458023071289062e+01 3.067438316345214844e+01 -1.584220863878726959e-02 -7.624580711126327515e-02 -2.762640640139579773e-02 -3.331752419471740723e-01
1.524000000000000000e+03 6.756398200988769531e+00 5.715443611145019531e+00 -8.112675277516245842e-05 -1.775967975845560431e-04 -7.761706365272402763e-05 -7.862598431529477239e-05
1.525000000000000000e+03 5.292891025543212891e+00 4.289853572845458984e+00 -1.131506651290692389e-04 -1.257900294149294496e-04 -7.168221054598689079e-05 8.413328032474964857e-05
1.526000000000000000e+03 4.647637367248535156e+00 6.219418525695800781e+00 1.615019864402711391e-04 1.183207568828947842e-04 8.394682663492858410e-05 -1.743055763654410839e-04
1.527000000000000000e+03 5.272831916809082031e+00 3.480297803878784180e+00 1.156909856945276260e-04 9.956007124856114388e-05 6.457531708292663097e-05 -5.651307219523005188e-05
1.528000000000000000e+03 3.042261362075805664e+00 5.086350917816162109e+00 -2.231697726529091597e-04 3.199521074748190586e-07 -6.685494736302644014e-05 -5.510327537194825709e-05
1.529000000000000000e+03 2.274753332138061523e+00 3.507813930511474609e+00 1.664603478275239468e-04 7.729543722234666348e-05 7.312673551496118307e-05 -1.438656327081844211e-04
1.530000000000000000e+03 2.954037427902221680e+00 3.611503124237060547e+00 -1.065362375811673701e-04 -1.320745068369433284e-04 -7.158322114264592528e-05 -3.941904287785291672e-05
1.531000000000000000e+03 1.454696774482727051e+00 4.854001045227050781e+00 1.587020087754353881e-04 5.834188050357624888e-05 6.511317042168229818e-05 -9.456380212213844061e-05
1.532000000000000000e+03 1.649834513664245605e+00 3.286900520324707031e+00 -2.183631586376577616e-04 2.280779881402850151e-05 -5.866661012987606227e-05 -5.484097709995694458e-05
1.533000000000000000e+03 2.994193267822265625e+01 3.167899894714355469e+01 -1.635600179433822632e-01 1.490130126476287842e-01 -4.364105407148599625e-03 -3.018993735313415527e-01
1.534000000000000000e+03 3.065874099731445312e+01 3.159937477111816406e+01 -1.396067887544631958e-01 1.652829796075820923e-01 7.702860049903392792e-03 -2.756579518318176270e-01
1.535000000000000000e+03 3.210018539428710938e+01 3.144774055480957031e+01 -4.615829139947891235e-02 1.960028856992721558e-01 4.495337978005409241e-02 -1.914888024330139160e-01
1.536000000000000000e+03 9.689793586730957031e+00 4.080312728881835938e+00 -1.965970732271671295e-04 -7.058034680085256696e-05 -8.015322964638471603e-05 -1.084618124878033996e-04
1.537000000000000000e+03 9.989567756652832031e+00 -5.035697460174560547e+00 3.346386656630784273e-04 1.738535647746175528e-04 1.525476691313087940e-04 -1.274759561056271195e-04
1.538000000000000000e+03 1.020174694061279297e+01 -4.225472927093505859e+00 -2.448068989906460047e-04 -3.786274464800953865e-04 -1.870303094619885087e-04 1.983894180739298463e-04
1.539000000000000000e+03 2.922893905639648438e+01 3.175113296508789062e+01 -1.764219254255294800e-01 1.259518116712570190e-01 -1.514103356748819351e-02 -3.233171105384826660e-01
1.540000000000000000e+03 1.076025772094726562e+01 -5.315302848815917969e+00 -1.974770420929417014e-04 -3.429522912483662367e-04 -1.621288101887330413e-04 2.701333141885697842e-04
1.541000000000000000e+03 1.103145599365234375e+01 -3.461233615875244141e+00 -4.809204547200351954e-04 -2.375407348154112697e-04 -2.155383554054424167e-04 3.423224261496216059e-04
1.542000000000000000e+03 3.282198333740234375e+01 3.137843894958496094e+01 3.093236312270164490e-02 2.109282761812210083e-01 7.255819439888000488e-02 -1.288257986307144165e-01
1.543000000000000000e+03 2.781254959106445312e+01 3.185938072204589844e+01 -1.708199679851531982e-01 7.731572538614273071e-02 -2.805127203464508057e-02 -3.431519269943237305e-01
1.544000000000000000e+03 2.851937675476074219e+01 3.181264686584472656e+01 -1.775825768709182739e-01 1.049412563443183899e-01 -2.179239690303802490e-02 -3.353709876537322998e-01
1.545000000000000000e+03 3.207533645629882812e+01 3.212731170654296875e+01 -3.123196363449096680e-01 1.574740707874298096e-01 -4.645366966724395752e-02 -2.061419188976287842e-01
1.546000000000000000e+03 3.137852096557617188e+01 3.152183151245117188e+01 -9.934253990650177002e-02 1.843511909246444702e-01 2.550259605050086975e-02 -2.360238283872604370e-01
1.547000000000000000e+03 3.566443252563476562e+01 3.170136070251464844e+01 2.035485506057739258e-01 1.935350298881530762e-01 1.191250756382942200e-01 1.558103859424591064e-01
1.548000000000000000e+03 3.698847198486328125e+01 3.097305297851562500e+01 1.230616092681884766e+00 4.438753724098205566e-01 5.023474693298339844e-01 7.285238504409790039e-01
1.549000000000000000e+03 3.354043579101562500e+01 3.131669235229492188e+01 1.240546405315399170e-01 2.224014550447463989e-01 1.039368286728858948e-01 -5.991339683532714844e-02
1.550000000000000000e+03 3.425401306152343750e+01 3.125820922851562500e+01 2.545265853404998779e-01 2.367354482412338257e-01 1.473786085844039917e-01 3.386916592717170715e-02
1.551000000000000000e+03 7.319123268127441406e+00 -3.346580028533935547e+00 5.339251365512609482e-04 7.245761662488803267e-05 1.819148164940997958e-04 1.243267433892469853e-05
1.552000000000000000e+03 1.193957901000976562e+01 3.076700210571289062e+00 -1.805257779778912663e-04 1.174401768366806209e-05 -5.063452772446908057e-05 8.910791075322777033e-05
1.553000000000000000e+03 1.220822715759277344e+01 3.737961530685424805e+00 2.898809034377336502e-04 -4.394820643938146532e-05 7.377981091849505901e-05 -8.404475374845787883e-05
1.554000000000000000e+03 8.948287010192871094e+00 4.779714107513427734e+00 -1.255091046914458275e-04 -1.404547801939770579e-04 -7.978916255524381995e-05 -9.662256343290209770e-05
1.555000000000000000e+03 4.786658763885498047e+00 -4.231521606445312500e+00 -2.031198091572150588e-04 -3.138713946100324392e-04 -1.550973684061318636e-04 -4.602662229444831610e-04
1.556000000000000000e+03 6.438070297241210938e+00 -4.892284393310546875e+00 -7.459799526259303093e-04 -9.397589747095480561e-05 -2.519867557566612959e-04 1.223424333147704601e-04
1.557000000000000000e+03 8.057736396789550781e+00 -3.353840112686157227e+00 -4.706431645900011063e-04 -1.361593167530372739e-04 -1.820407487684860826e-04 -6.959644815651699901e-05
1.558000000000000000e+03 4.565099239349365234e+00 -3.438311100006103516e+00 2.285782684339210391e-04 2.601740416139364243e-04 1.466256944695487618e-04 3.379509726073592901e-04
1.559000000000000000e+03 3.740754127502441406e+00 -7.735459327697753906e+00 8.777785697020590305e-04 2.124809980159625411e-04 3.270778688602149487e-04 1.707085320958867669e-04
1.560000000000000000e+03 3.283843517303466797e+00 -3.759429454803466797e+00 6.332381162792444229e-04 -2.399806689936667681e-04 1.179772298200987279e-04 3.964632924180477858e-04
1.561000000000000000e+03 3.590587615966796875e+00 -6.495295047760009766e+00 -7.792686228640377522e-04 -1.768247311701998115e-04 -2.868279989343136549e-04 -1.116700368584133685e-04
1.562000000000000000e+03 2.548925161361694336e+00 -6.486493587493896484e+00 8.727439562790095806e-04 1.079578287317417562e-04 2.942105347756296396e-04 5.640427389153046533e-06
1.563000000000000000e+03 3.495847320556640625e+01 3.119804191589355469e+01 4.115749001502990723e-01 2.614134550094604492e-01 2.018965035676956177e-01 1.457301676273345947e-01
1.564000000000000000e+03 1.269175529479980469e+01 -4.235483646392822266e+00 8.102392312139272690e-04 1.322541211266070604e-04 2.827480202540755272e-04 -8.770068234298378229e-05
1.565000000000000000e+03 1.131362533569335938e+01 3.980862617492675781e+00 -3.203338419552892447e-04 2.700505865504965186e-05 -8.799863280728459358e-05 -3.257142452639527619e-05
1.566000000000000000e+03 1.355705451965332031e+01 3.394427776336669922e+00 -3.740804968401789665e-04 3.672795719467103481e-05 -1.012057618936523795e-04 -5.021306787966750562e-05
1.567000000000000000e+03 2.299324226379394531e+01 3.111057853698730469e+01 -2.457413449883460999e-02 -2.196621745824813843e-01 -7.327089458703994751e-02 -2.441525012254714966e-01
1.568000000000000000e+03 1.365896892547607422e+01 -2.974179983139038086e+00 7.953091408126056194e-04 8.271008118754252791e-05 2.634057600516825914e-04 -1.766799687175080180e-04
1.569000000000000000e+03 4.040686798095703125e+01 3.693553924560546875e+01 6.648721694946289062e-01 3.469982862472534180e+00 1.240456581115722656e+00 -2.258265495300292969e+00
1.570000000000000000e+03 4.525278854370117188e+01 3.125086212158203125e+01 4.416940689086914062e+00 1.614673805236816406e+01 6.169103622436523438e+00 -5.697551965713500977e-01
1.571000000000000000e+03 2.291894912719726562e+01 3.228088760375976562e+01 -5.049559846520423889e-02 -1.570023745298385620e-01 -6.224939227104187012e-02 -2.104433625936508179e-01
1.572000000000000000e+03 1.203351211547851562e+01 -1.315070819854736328e+01 -1.281894510611891747e-03 -3.435652761254459620e-04 -4.876379389315843582e-04 3.248238353990018368e-04
1.573000000000000000e+03 1.192579174041748047e+01 -1.450890350341796875e+01 1.416058861650526524e-03 4.552874597720801830e-04 5.614039255306124687e-04 -5.035881185904145241e-04
1.574000000000000000e+03 1.265658760070800781e+01 -6.613647937774658203e+00 9.718933724798262119e-04 1.423308567609637976e-04 3.342672716826200485e-04 -1.903258671518415213e-04
1.575000000000000000e+03 1.259696292877197266e+01 -7.867011070251464844e+00 -1.073953113518655300e-03 -1.091689482564106584e-04 -3.549366083461791277e-04 2.063082647509872913e-04
1.576000000000000000e+03 1.245237827301025391e+01 7.885173320770263672e+00 3.161603235639631748e-04 5.852859612787142396e-05 1.124066766351461411e-04 3.613762237364426255e-05
1.577000000000000000e+03 2.722855377197265625e+01 4.171620178222656250e+01 1.625179648399353027e-01 -2.834805250167846680e-01 -3.628876432776451111e-02 6.391274183988571167e-02
1.578000000000000000e+03 1.178364658355712891e+01 -4.378390789031982422e+00 -7.100237999111413956e-04 -1.800143800210207701e-04 -2.670114627107977867e-04 3.039461735170334578e-04
1.579000000000000000e+03 1.834763717651367188e+01 4.170969772338867188e+01 -8.753404021263122559e-03 3.489952534437179565e-03 -1.579035422764718533e-03 1.076724263839423656e-03
1.580000000000000000e+03 2.488488769531250000e+01 -2.891524136066436768e-02 -2.924061380326747894e-02 1.864860653877258301e+00 5.506860017776489258e-01 3.639897704124450684e-01
1.581000000000000000e+03 2.475050354003906250e+01 -2.953632593154907227e+00 -3.446654602885246277e-02 1.983173966407775879e+00 5.846121907234191895e-01 3.081323504447937012e-01
1.582000000000000000e+03 2.453490447998046875e+01 -1.816478157043457031e+01 -2.788433246314525604e-02 2.335378646850585938e+00 6.922483444213867188e-01 1.214926987886428833e-01
1.583000000000000000e+03 2.467536163330078125e+01 -1.964581489562988281e+01 -4.128332436084747314e-02 2.367009878158569336e+00 6.977179646492004395e-01 1.137993186712265015e-01
1.584000000000000000e+03 2.471666908264160156e+01 2.808218479156494141e+00 -1.291290391236543655e-02 1.654297113418579102e+00 4.924152791500091553e-01 3.992259800434112549e-01
1.585000000000000000e+03 2.445318984985351562e+01 -1.671061134338378906e+01 -2.666439116001129150e-02 2.304148435592651367e+00 6.832451820373535156e-01 1.326120793819427490e-01
1.586000000000000000e+03 2.303900527954101562e+01 -8.397011756896972656e+00 -7.666081655770540237e-03 1.925276041030883789e+00 5.752829909324645996e-01 1.899996697902679443e-01
1.587000000000000000e+03 2.452792739868164062e+01 -5.704015731811523438e+00 -3.443365171551704407e-02 2.056340932846069336e+00 6.065721511840820312e-01 2.665785253047943115e-01
1.588000000000000000e+03 1.327592086791992188e+01 -1.333580112457275391e+01 1.555215334519743919e-03 2.272569690831005573e-04 5.347416736185550690e-04 -3.567161620594561100e-04
1.589000000000000000e+03 2.436851501464843750e+01 -1.250467872619628906e+01 1.615806017071008682e-03 2.219429731369018555e+00 6.663137078285217285e-01 1.823134720325469971e-01
1.590000000000000000e+03 1.084005832672119141e+01 2.600436782836914062e+01 8.429058361798524857e-04 2.099614357575774193e-04 3.158601757604628801e-04 -2.417798823444172740e-04
1.591000000000000000e+03 5.724044322967529297e+00 1.051345252990722656e+01 -3.809625050053000450e-04 1.076618136721663177e-04 -8.199020521715283394e-05 -7.606221333844587207e-05
1.592000000000000000e+03 1.239071655273437500e+01 9.146780967712402344e+00 -3.311087202746421099e-04 -7.704782183282077312e-05 -1.224469597218558192e-04 -5.530845010071061552e-05
1.593000000000000000e+03 1.007804298400878906e+01 1.954841995239257812e+01 6.555190338985994458e-05 3.407761396374553442e-04 1.218984107254073024e-04 -3.604346420615911484e-05
1.594000000000000000e+03 1.073558998107910156e+01 1.532655715942382812e+01 -2.136287366738542914e-04 5.219562808633781970e-05 -4.842993075726553798e-05 3.901763411704450846e-04
1.595000000000000000e+03 7.557397460937500000e+01 1.410606861114501953e+01 -2.776258066296577454e-02 7.217416286468505859e+00 2.156896114349365234e+00 -5.932492017745971680e-01
1.596000000000000000e+03 7.551275634765625000e+01 1.069762557744979858e-01 -4.252038896083831787e-02 8.381636619567871094e+00 2.501734972000122070e+00 -3.341121971607208252e-01
1.597000000000000000e+03 7.410619354248046875e+01 -1.322034955024719238e+00 -6.929864734411239624e-02 8.353941917419433594e+00 2.485393047332763672e+00 -3.790707290172576904e-01
1.598000000000000000e+03 7.682312011718750000e+01 1.516253352165222168e+00 -2.255048975348472595e-02 8.383393287658691406e+00 2.508252859115600586e+00 -2.735141813755035400e-01
1.599000000000000000e+03 7.553437805175781250e+01 1.500010609626770020e+00 -4.904098808765411377e-02 8.298953056335449219e+00 2.474973678588867188e+00 -3.602865934371948242e-01
1.600000000000000000e+03 7.544326019287109375e+01 7.125453948974609375e+00 -5.394732207059860229e-02 7.880166053771972656e+00 2.347865581512451172e+00 -4.812684953212738037e-01
1.601000000000000000e+03 7.550097656250000000e+01 -4.062946796417236328e+00 -4.272430017590522766e-02 8.598802566528320312e+00 2.566823482513427734e+00 -2.620986998081207275e-01
1.602000000000000000e+03 7.551366424560546875e+01 -5.460356712341308594e+00 -3.549965098500251770e-02 8.662430763244628906e+00 2.588079452514648438e+00 -2.394878417253494263e-01
1.603000000000000000e+03 7.549171447753906250e+01 -2.662905454635620117e+00 -4.076816886663436890e-02 8.531362533569335938e+00 2.547178268432617188e+00 -2.859389781951904297e-01
1.604000000000000000e+03 7.545102691650390625e+01 4.323180675506591797e+00 -5.235230922698974609e-02 8.093265533447265625e+00 2.412273883819580078e+00 -4.232831299304962158e-01
1.605000000000000000e+03 7.541265869140625000e+01 5.720445156097412109e+00 -4.709662869572639465e-02 7.992740154266357422e+00 2.383692979812622070e+00 -4.517104029655456543e-01
1.606000000000000000e+03 7.425281524658203125e+01 2.830729961395263672e+00 -7.779403030872344971e-02 8.144707679748535156e+00 2.420073986053466797e+00 -4.685660004615783691e-01
1.607000000000000000e+03 7.423764038085937500e+01 -9.633178710937500000e+00 -4.852810129523277283e-02 8.681071281433105469e+00 2.589762926101684570e+00 -2.195440679788589478e-01
1.608000000000000000e+03 7.561990356445312500e+01 -1.502856063842773438e+01 -2.358952723443508148e-02 8.979939460754394531e+00 2.686905145645141602e+00 -1.220158413052558899e-01
1.609000000000000000e+03 7.500653076171875000e+01 3.114330482482910156e+01 1.239141821861267090e-01 5.578688621520996094e+00 1.710780858993530273e+00 -4.906624853610992432e-01
1.610000000000000000e+03 7.554364776611328125e+01 -1.098925018310546875e+01 -2.619046159088611603e-02 8.867702484130859375e+00 2.652453422546386719e+00 -1.626545488834381104e-01
1.611000000000000000e+03 7.556571960449218750e+01 -1.235336399078369141e+01 -2.563899196684360504e-02 8.908467292785644531e+00 2.664848566055297852e+00 -1.478509306907653809e-01
1.612000000000000000e+03 7.553239440917968750e+01 -9.609850883483886719e+00 -3.245304152369499207e-02 8.823054313659667969e+00 2.637180328369140625e+00 -1.809762716293334961e-01
1.613000000000000000e+03 7.680591583251953125e+01 8.511684417724609375e+00 -2.923109196126461029e-02 7.781259536743164062e+00 2.325608491897583008e+00 -3.821549713611602783e-01
1.614000000000000000e+03 7.559156036376953125e+01 -1.773713874816894531e+01 -2.234981954097747803e-02 9.030024528503417969e+00 2.702302455902099609e+00 -9.853372722864151001e-02
1.615000000000000000e+03 7.554597473144531250e+01 9.936307907104492188e+00 -4.767301678657531738e-02 7.632998466491699219e+00 2.275597810745239258e+00 -5.277012586593627930e-01
1.616000000000000000e+03 7.539062500000000000e+01 2.104560661315917969e+01 5.345816724002361298e-03 6.487362384796142578e+00 1.947812438011169434e+00 -6.589435338973999023e-01
1.617000000000000000e+03 7.683751678466796875e+01 1.548104000091552734e+01 -9.633741341531276703e-03 6.995158195495605469e+00 2.095657348632812500e+00 -4.652769565582275391e-01
1.618000000000000000e+03 7.555814361572265625e+01 1.549495697021484375e+01 -3.064861707389354706e-02 7.071744918823242188e+00 2.112328767776489258e+00 -6.123411059379577637e-01
1.619000000000000000e+03 7.562327575683593750e+01 -1.636838150024414062e+01 -2.130331471562385559e-02 9.009388923645019531e+00 2.696425676345825195e+00 -1.085944548249244690e-01
1.620000000000000000e+03 7.553448486328125000e+01 -1.914062500000000000e+01 -1.977663114666938782e-02 9.049179077148437500e+00 2.708820819854736328e+00 -8.762638270854949951e-02
1.621000000000000000e+03 7.683185577392578125e+01 -1.786085891723632812e+01 -1.189322210848331451e-02 9.196894645690917969e+00 2.755500316619873047e+00 -7.379101961851119995e-02
1.622000000000000000e+03 7.557299804687500000e+01 1.132299518585205078e+01 -3.783679381012916565e-02 7.501088142395019531e+00 2.238975524902343750e+00 -5.493823885917663574e-01
1.623000000000000000e+03 7.426103210449218750e+01 9.948904991149902344e+00 -6.773605942726135254e-02 7.641306400299072266e+00 2.272071123123168945e+00 -6.371095776557922363e-01
1.624000000000000000e+03 7.515406799316406250e+01 -2.918880271911621094e+01 -8.782030083239078522e-03 9.085601806640625000e+00 2.723045825958251953e+00 -3.628219664096832275e-02
1.625000000000000000e+03 7.435787200927734375e+01 -2.318284988403320312e+01 -2.146591246128082275e-02 8.957568168640136719e+00 2.680830717086791992e+00 -7.268104702234268188e-02
1.626000000000000000e+03 7.420508575439453125e+01 1.684448623657226562e+01 -3.664673492312431335e-02 7.033579349517822266e+00 2.099079847335815430e+00 -7.619422674179077148e-01
1.627000000000000000e+03 7.553624725341796875e+01 1.686996459960937500e+01 -1.591416262090206146e-02 6.923176288604736328e+00 2.072178602218627930e+00 -6.276601552963256836e-01
1.628000000000000000e+03 7.535781860351562500e+01 -2.477932929992675781e+01 -6.520044058561325073e-03 9.104629516601562500e+00 2.729432821273803711e+00 -5.277071893215179443e-02
1.629000000000000000e+03 7.659804534912109375e+01 -2.634613227844238281e+01 -5.374326836317777634e-03 9.275926589965820312e+00 2.781165599822998047e+00 -4.039723798632621765e-02
1.630000000000000000e+03 7.386631774902343750e+01 -2.606109809875488281e+01 -2.201930619776248932e-02 8.921620368957519531e+00 2.669880390167236328e+00 -5.239598080515861511e-02
1.631000000000000000e+03 7.377958679199218750e+01 2.715903472900390625e+01 1.003158837556838989e-01 6.150734901428222656e+00 1.875315308570861816e+00 -7.088168859481811523e-01
1.632000000000000000e+03 7.359156036376953125e+01 2.400585365295410156e+01 7.624683529138565063e-02 6.443347454071044922e+00 1.955878257751464844e+00 -8.098506927490234375e-01
1.633000000000000000e+03 7.521701812744140625e+01 2.687836074829101562e+01 5.240000411868095398e-02 5.915903568267822266e+00 1.790490984916687012e+00 -5.893102288246154785e-01
1.634000000000000000e+03 7.529952239990234375e+01 2.825276565551757812e+01 7.746735215187072754e-02 5.782984256744384766e+00 1.758135437965393066e+00 -5.624625086784362793e-01
1.635000000000000000e+03 7.656884765625000000e+01 2.960923576354980469e+01 6.604066491127014160e-02 5.360011100769042969e+00 1.627815604209899902e+00 -3.998499512672424316e-01
1.636000000000000000e+03 7.522106933593750000e+01 2.965384292602539062e+01 1.093036830425262451e-01 5.666092395782470703e+00 1.732618808746337891e+00 -5.216566920280456543e-01
1.637000000000000000e+03 7.492956542968750000e+01 -3.184262657165527344e+01 -9.645340032875537872e-03 9.079435348510742188e+00 2.720937013626098633e+00 -3.463658317923545837e-02
1.638000000000000000e+03 7.387760162353515625e+01 -3.621951293945312500e+01 -2.345306240022182465e-02 8.926572799682617188e+00 2.670936107635498047e+00 -4.037764668464660645e-02
1.639000000000000000e+03 7.610752868652343750e+01 -3.663517761230468750e+01 -3.724376484751701355e-02 9.320325851440429688e+00 2.784924507141113281e+00 -8.377674035727977753e-03
1.640000000000000000e+03 7.472438812255859375e+01 -3.353058242797851562e+01 -1.692052371799945831e-02 9.039649963378906250e+00 2.706818819046020508e+00 -3.048890084028244019e-02
1.641000000000000000e+03 7.643479156494140625e+01 -3.341094589233398438e+01 -1.587173342704772949e-02 9.319178581237792969e+00 2.790992021560668945e+00 -3.135677054524421692e-02
1.642000000000000000e+03 7.521990966796875000e+01 -3.044476509094238281e+01 4.536210908554494381e-04 9.112771034240722656e+00 2.733967304229736328e+00 -3.508796170353889465e-02
1.643000000000000000e+03 2.477814674377441406e+01 1.127310180664062500e+01 2.429872285574674606e-03 9.812979698181152344e-01 2.951183617115020752e-01 4.950358867645263672e-01
1.644000000000000000e+03 1.270393657684326172e+01 -2.240278625488281250e+01 2.930500777438282967e-03 6.573162972927093506e-04 1.076345099136233330e-03 1.390633871778845787e-03
1.645000000000000000e+03 1.254619407653808594e+01 -2.013730430603027344e+01 -1.865243772044777870e-03 3.349539838382042944e-05 -5.495244986377656460e-04 9.773350320756435394e-04
1.646000000000000000e+03 2.293380355834960938e+01 -1.395615196228027344e+01 1.482302881777286530e-02 2.066021919250488281e+00 6.242534518241882324e-01 1.376946717500686646e-01
1.647000000000000000e+03 2.439094161987304688e+01 -1.388671875000000000e+01 -1.976952189579606056e-03 2.242930889129638672e+00 6.722861528396606445e-01 1.626465022563934326e-01
1.648000000000000000e+03 2.478136634826660156e+01 9.852768898010253906e+00 -7.159219589084386826e-03 1.114940166473388672e+00 3.323342800140380859e-01 4.937467575073242188e-01
1.649000000000000000e+03 2.476895904541015625e+01 1.268501091003417969e+01 1.529881544411182404e-02 8.452668786048889160e-01 2.581697106361389160e-01 4.895748794078826904e-01
1.650000000000000000e+03 5.751742362976074219e+00 -2.518721580505371094e+01 1.863431651145219803e-03 7.507168338634073734e-04 7.842445629648864269e-04 5.098591209389269352e-04
1.651000000000000000e+03 1.184505558013916016e+01 -3.027967643737792969e+01 -5.719781387597322464e-03 -3.173685632646083832e-03 -2.668040106073021889e-03 3.100075060501694679e-03
1.652000000000000000e+03 2.580180549621582031e+01 2.298165512084960938e+01 2.606794238090515137e-01 1.963205486536026001e-01 1.370999962091445923e-01 1.433808803558349609e-01
1.653000000000000000e+03 2.479199790954589844e+01 2.141361236572265625e+01 1.622199863195419312e-01 7.975883036851882935e-02 7.259365171194076538e-02 1.893359422683715820e-01
1.654000000000000000e+03 2.476862144470214844e+01 1.409813976287841797e+01 3.511870652437210083e-02 7.107111215591430664e-01 2.237489372491836548e-01 4.765402972698211670e-01
1.655000000000000000e+03 2.356607818603515625e+01 1.848709297180175781e+01 6.802395731210708618e-02 -4.739331826567649841e-02 6.189191713929176331e-03 2.484583258628845215e-01
1.656000000000000000e+03 2.484415626525878906e+01 1.845961570739746094e+01 1.277420967817306519e-01 3.221987187862396240e-01 1.349822431802749634e-01 3.635663986206054688e-01
1.657000000000000000e+03 2.480738449096679688e+01 1.698131942749023438e+01 8.592785894870758057e-02 4.520540535449981689e-01 1.613945662975311279e-01 4.174510538578033447e-01
1.658000000000000000e+03 9.437497138977050781e+00 -1.670416641235351562e+01 1.689742784947156906e-03 5.100414273329079151e-04 6.599352345801889896e-04 -5.880434764549136162e-04
1.659000000000000000e+03 1.031245517730712891e+01 -1.798532867431640625e+01 1.805883948691189289e-03 -8.186598279280588031e-05 5.172053934074938297e-04 -6.445011822506785393e-04
1.660000000000000000e+03 2.319191360473632812e+01 2.981226730346679688e+01 1.206559967249631882e-02 -2.733422815799713135e-01 -7.838300615549087524e-02 -2.609040141105651855e-01
1.661000000000000000e+03 2.355566215515136719e+01 8.506673812866210938e+00 -4.259211476892232895e-03 9.445323944091796875e-01 2.820819616317749023e-01 3.720133304595947266e-01
1.662000000000000000e+03 2.477634048461914062e+01 8.432037353515625000e+00 -1.068624667823314667e-02 1.239188075065612793e+00 3.685505688190460205e-01 4.845368862152099609e-01
1.663000000000000000e+03 2.435412979125976562e+01 2.691282653808593750e+01 1.222879141569137573e-01 -2.133476436138153076e-01 -2.731791697442531586e-02 -1.980401873588562012e-01
1.664000000000000000e+03 2.448347854614257812e+01 2.423933982849121094e+01 1.621297001838684082e-01 -1.395756900310516357e-01 6.766199599951505661e-03 -2.028756029903888702e-02
1.665000000000000000e+03 2.438481330871582031e+01 2.559020805358886719e+01 1.504986137151718140e-01 -1.956184655427932739e-01 -1.353595405817031860e-02 -1.149981170892715454e-01
1.666000000000000000e+03 8.361731529235839844e+00 -7.963243484497070312e+00 7.982897805050015450e-04 3.299311792943626642e-04 3.384662850294262171e-04 1.828202657634392381e-04
1.667000000000000000e+03 2.443377494812011719e+01 2.823383712768554688e+01 9.020204842090606689e-02 -1.905661225318908691e-01 -3.010922297835350037e-02 -2.667751908302307129e-01
1.668000000000000000e+03 2.539571571350097656e+01 2.998380470275878906e+01 2.681709825992584229e-02 -6.719234585762023926e-02 -1.211257372051477432e-02 -3.323206603527069092e-01
1.669000000000000000e+03 2.476561164855957031e+01 7.020766258239746094e+00 -1.104188151657581329e-02 1.355700016021728516e+00 4.033974707126617432e-01 4.696225821971893311e-01
1.670000000000000000e+03 1.061447334289550781e+01 -2.059743118286132812e+01 -4.508387355599552393e-04 6.055370322428643703e-04 4.640949919121339917e-05 1.137615297921001911e-03
1.671000000000000000e+03 3.185647487640380859e+00 -1.747725105285644531e+01 1.823463477194309235e-03 1.878943730844184756e-04 6.034073303453624249e-04 3.517714212648570538e-04
1.672000000000000000e+03 4.199251174926757812e+00 -1.451080226898193359e+01 -1.739934086799621582e-03 -8.539602276869118214e-05 -5.475989892147481441e-04 -3.740555257536470890e-04
1.673000000000000000e+03 4.522057533264160156e+00 2.088626098632812500e+01 8.723787614144384861e-04 -1.508370478404685855e-04 2.164625184377655387e-04 -7.478291809093207121e-05
1.674000000000000000e+03 3.207112550735473633e+00 1.980402565002441406e+01 7.371927495114505291e-04 -7.645884761586785316e-05 1.982201647479087114e-04 -5.056811642134562135e-05
1.675000000000000000e+03 4.761075496673583984e+00 2.247982406616210938e+01 -8.153795497491955757e-04 -2.885459070967044681e-05 -2.532702346798032522e-04 -5.959207192063331604e-05
1.676000000000000000e+03 4.462629795074462891e+00 -1.734581565856933594e+01 -1.858585863374173641e-03 -2.644961641635745764e-04 -6.369245820678770542e-04 -2.808397985063493252e-04
1.677000000000000000e+03 4.319900035858154297e+00 -1.590879440307617188e+01 1.885196659713983536e-03 1.176742371171712875e-04 6.008612690493464470e-04 3.659232461359351873e-04
1.678000000000000000e+03 5.552720546722412109e+00 2.727720832824707031e+01 -7.148127187974750996e-04 5.496553421835415065e-05 -1.979541557375341654e-04 -7.203753921203315258e-05
1.679000000000000000e+03 5.742114543914794922e+00 2.590416145324707031e+01 5.140674766153097153e-04 1.693281519692391157e-04 2.050187031272798777e-04 2.236427972093224525e-04
1.680000000000000000e+03 4.312641620635986328e+00 2.975225639343261719e+01 1.130950404331088066e-03 -1.984174305107444525e-04 2.797598717734217644e-04 2.586749324109405279e-04
1.681000000000000000e+03 4.495364665985107422e+00 -2.806645202636718750e+01 -3.373313928022980690e-03 -6.459863507188856602e-04 -1.205790089443325996e-03 -1.467043301090598106e-03
1.682000000000000000e+03 3.147843360900878906e+00 -2.432745933532714844e+01 -2.592955483123660088e-03 -3.142452915199100971e-04 -8.721602498553693295e-04 -2.941465354524552822e-04
1.683000000000000000e+03 4.365198135375976562e+00 -2.284564018249511719e+01 -2.663934370502829552e-03 -1.324713375652208924e-04 -8.389216964133083820e-04 1.503772800788283348e-04
1.684000000000000000e+03 4.518126964569091797e+00 1.670973014831542969e+01 -6.176738534122705460e-04 2.619915539980866015e-05 -1.774424163158982992e-04 1.202426064992323518e-04
1.685000000000000000e+03 4.554843902587890625e+00 1.808234024047851562e+01 6.550877005793154240e-04 -9.960718671209178865e-06 1.935381005750969052e-04 -8.367078407900407910e-05
1.686000000000000000e+03 4.408872604370117188e+00 1.948454093933105469e+01 -7.948189741000533104e-04 1.148032897617667913e-04 -2.040047111222520471e-04 1.115731938625685871e-04
1.687000000000000000e+03 4.243020534515380859e+00 1.543101501464843750e+01 5.507676396518945694e-04 -5.716783198295161128e-05 1.480799401178956032e-04 -1.656631793593987823e-04
1.688000000000000000e+03 4.492913246154785156e+00 -2.022227096557617188e+01 -2.310200594365596771e-03 -2.621408611958031543e-06 -6.938465521670877934e-04 -3.440908330958336592e-04
1.689000000000000000e+03 4.530041694641113281e+00 -1.879775810241699219e+01 2.074018353596329689e-03 1.542222453281283379e-04 6.684721447527408600e-04 4.677138349507004023e-04
1.690000000000000000e+03 3.242608070373535156e+00 2.581083488464355469e+01 7.280036224983632565e-04 -3.822240614681504667e-05 2.069343609036877751e-04 -1.047269734044675715e-06
1.691000000000000000e+03 4.510649681091308594e+00 2.577865600585937500e+01 -8.065500296652317047e-04 1.432664794265292585e-05 -2.376670017838478088e-04 -8.118822006508708000e-05
1.692000000000000000e+03 4.725136280059814453e+00 2.419664192199707031e+01 7.400843314826488495e-04 6.350994226522743702e-05 2.410782763035967946e-04 1.063350791810080409e-04
1.693000000000000000e+03 9.929070472717285156e+00 -2.359931945800781250e+01 8.507347665727138519e-04 9.768737945705652237e-04 5.482825799845159054e-04 -1.155588659457862377e-03
1.694000000000000000e+03 4.447575569152832031e+00 -2.542754173278808594e+01 -2.420652890577912331e-03 -8.584057795815169811e-04 -9.837176185101270676e-04 -4.685410531237721443e-04
1.695000000000000000e+03 2.930940151214599609e+00 1.439296245574951172e+01 5.417760694399476051e-04 -1.923554191307630390e-05 1.567621657159179449e-04 -1.549404987599700689e-04
1.696000000000000000e+03 4.022789478302001953e+00 1.287067890167236328e+01 5.175605765543878078e-04 -2.129830500052776188e-05 1.488786801928654313e-04 -1.849757682066410780e-04
1.697000000000000000e+03 4.048115730285644531e+00 1.415871047973632812e+01 -5.255243158899247646e-04 4.222390998620539904e-05 -1.449901319574564695e-04 1.695654500508680940e-04
1.698000000000000000e+03 3.945278882980346680e+00 -1.040057277679443359e+01 1.181281520985066891e-03 1.441495260223746300e-04 3.976293082814663649e-04 2.760272473096847534e-04
1.699000000000000000e+03 3.853870153427124023e+00 -9.048412322998046875e+00 -1.021976931951940060e-03 -1.723552268231287599e-04 -3.582996723707765341e-04 -2.346748078707605600e-04
1.700000000000000000e+03 4.112052917480468750e+00 -1.313964653015136719e+01 1.545044244267046452e-03 1.213941577589139342e-04 4.999315133318305016e-04 3.911298990715295076e-04
1.701000000000000000e+03 4.254014968872070312e+00 2.847681427001953125e+01 -1.104600727558135986e-03 2.511853235773742199e-04 -2.560246211942285299e-04 -1.330674131168052554e-04
1.702000000000000000e+03 4.884846210479736328e+00 3.585163879394531250e+01 2.770980354398488998e-04 3.943034680560231209e-04 2.014204510487616062e-04 2.752258151303976774e-04
1.703000000000000000e+03 3.427407741546630859e+00 -3.106474876403808594e+01 2.952623646706342697e-03 -3.557391173671931028e-04 7.790654199197888374e-04 -5.621810851152986288e-05
1.704000000000000000e+03 4.554795742034912109e+00 -2.936562347412109375e+01 2.291828626766800880e-03 2.574975369498133659e-04 7.647978491149842739e-04 8.849520236253738403e-04
1.705000000000000000e+03 5.334706306457519531e+00 1.163162136077880859e+01 3.880865406244993210e-04 1.233257626154227182e-05 1.201257400680333376e-04 -7.604756683576852083e-05
1.706000000000000000e+03 4.028688907623291016e+00 -1.176911354064941406e+01 -1.317250891588628292e-03 -1.366594369756057858e-04 -4.361731116659939289e-04 -3.115147119387984276e-04
1.707000000000000000e+03 5.560141563415527344e+00 -6.008388042449951172e+00 -8.011464524315670133e-05 -3.745473222807049751e-04 -1.363985938951373100e-04 -2.468925667926669121e-04
1.708000000000000000e+03 4.114400386810302734e+00 1.150579833984375000e+01 -4.069887509103864431e-04 -5.024950223742052913e-05 -1.371714752167463303e-04 1.876930036814883351e-04
1.709000000000000000e+03 5.799845218658447266e+00 3.068545722961425781e+01 1.164080575108528137e-03 -3.303541598143056035e-05 3.393135557416826487e-04 2.198542351834475994e-04
1.710000000000000000e+03 3.381522417068481445e+00 3.280355834960937500e+01 -5.903020501136779785e-04 -1.718272833386436105e-04 -2.286387898493558168e-04 -1.408573152730241418e-04
1.711000000000000000e+03 4.945574283599853516e+00 3.416993331909179688e+01 -5.545630119740962982e-04 -2.669202513061463833e-04 -2.464449789840728045e-04 -2.632786636240780354e-04
1.712000000000000000e+03 7.325400352478027344e+00 -3.341215515136718750e+01 -8.301900699734687805e-03 2.560284337960183620e-04 -2.413761569187045097e-03 -4.461859818547964096e-03
1.713000000000000000e+03 4.964940071105957031e+00 -3.190969657897949219e+01 2.084244275465607643e-03 6.771616754122078419e-04 8.284217910841107368e-04 -8.479309326503425837e-05
1.714000000000000000e+03 3.903625965118408203e+00 8.743130683898925781e+00 -2.541016438044607639e-04 -1.255440438399091363e-04 -1.138937004725448787e-04 1.382572372676804662e-04
1.715000000000000000e+03 3.467178344726562500e+00 -5.367436885833740234e+00 7.172382902354001999e-04 1.440200721845030785e-04 2.583775203675031662e-04 2.035814977716654539e-04
1.716000000000000000e+03 3.794404506683349609e+00 5.326269626617431641e+00 2.615833654999732971e-04 2.573863821453414857e-05 8.619660366093739867e-05 -1.950274599948897958e-04
1.717000000000000000e+03 6.074153423309326172e+00 4.990143775939941406e+00 -6.098440280766226351e-05 -1.780454185791313648e-04 -7.170894241426140070e-05 3.522627957863733172e-05
1.718000000000000000e+03 6.783707141876220703e+00 -3.582432556152343750e+01 -8.230447769165039062e-03 1.994134392589330673e-03 -1.870893873274326324e-03 -1.029868144541978836e-02
1.719000000000000000e+03 3.152701854705810547e+00 3.703358078002929688e+01 1.469811977585777640e-04 2.421462340862490237e-05 5.135874744155444205e-05 -5.930579209234565496e-05
1.720000000000000000e+03 2.299030876159667969e+01 -2.258508682250976562e+01 -2.121300436556339264e-02 2.152552127838134766e+00 6.394017338752746582e-01 9.566420316696166992e-02
1.721000000000000000e+03 2.130128097534179688e+01 -2.390532875061035156e+01 -1.572516933083534241e-02 1.949306964874267578e+00 5.800745487213134766e-01 6.131977215409278870e-02
1.722000000000000000e+03 1.747566795349121094e+01 3.949337387084960938e+01 -4.390468820929527283e-03 -4.021431377623230219e-04 -1.437783590517938137e-03 1.334059197688475251e-04
1.723000000000000000e+03 1.162106037139892578e+01 3.842720794677734375e+01 1.759686856530606747e-03 -4.560451488941907883e-04 3.910925006493926048e-04 -1.628369354875758290e-04
1.724000000000000000e+03 2.441856384277343750e+01 -1.528684329986572266e+01 -1.339675579220056534e-02 2.280056476593017578e+00 6.799979209899902344e-01 1.446195095777511597e-01
1.725000000000000000e+03 4.760427474975585938e+01 3.157501220703125000e+01 4.940012931823730469e+00 1.234103107452392578e+01 5.184313297271728516e+00 -4.030407071113586426e-01
1.726000000000000000e+03 4.898068237304687500e+01 3.450288772583007812e+01 3.524781942367553711e+00 1.194797706604003906e+01 4.641827583312988281e+00 1.511116147041320801e+00
1.727000000000000000e+03 2.349633979797363281e+01 4.234969615936279297e+00 1.190575398504734039e-02 1.312854290008544922e+00 3.974280059337615967e-01 3.316287696361541748e-01
1.728000000000000000e+03 2.475142097473144531e+01 1.416159391403198242e+00 -1.860213465988636017e-02 1.747127532958984375e+00 5.185576081275939941e-01 3.806879222393035889e-01
1.729000000000000000e+03 2.474482536315917969e+01 5.606986045837402344e+00 -8.151694200932979584e-03 1.460909247398376465e+00 4.358272850513458252e-01 4.484522342681884766e-01
1.730000000000000000e+03 1.242487907409667969e+01 3.531724166870117188e+01 1.265007420442998409e-03 9.147588862106204033e-04 6.539298919960856438e-04 -7.960693328641355038e-04
1.731000000000000000e+03 7.046299457550048828e+00 3.001096534729003906e+01 -1.033971318975090981e-03 -1.821340265450999141e-04 -3.648316196631640196e-04 3.133411519229412079e-04
1.732000000000000000e+03 2.437255859375000000e+01 -1.112854766845703125e+01 -6.208477541804313660e-03 2.193983554840087891e+00 6.563324928283691406e-01 1.972095668315887451e-01
1.733000000000000000e+03 2.260952758789062500e+01 -3.089909553527832031e+01 3.642874956130981445e-02 2.189927339553833008e+00 6.679068207740783691e-01 9.800871461629867554e-02
1.734000000000000000e+03 2.266054153442382812e+01 -2.958099555969238281e+01 8.512296713888645172e-03 2.175425291061401367e+00 6.551812887191772461e-01 7.169886678457260132e-02
1.735000000000000000e+03 2.462174224853515625e+01 -4.342553138732910156e+00 -3.616794943809509277e-02 2.018096208572387695e+00 5.945785045623779297e-01 2.836011350154876709e-01
1.736000000000000000e+03 2.966014480590820312e+01 4.091992187500000000e+01 3.042096197605133057e-01 -3.772276937961578369e-01 -2.190541848540306091e-02 1.781677454710006714e-01
1.737000000000000000e+03 2.189981651306152344e+01 3.949145126342773438e+01 -2.907641697674989700e-03 -1.220384612679481506e-02 -4.533446393907070160e-03 5.658103153109550476e-03
1.738000000000000000e+03 1.201074695587158203e+01 1.297473907470703125e+01 3.712464240379631519e-04 1.435240847058594227e-04 1.544311526231467724e-04 2.708152460400015116e-04
1.739000000000000000e+03 4.738409423828125000e+01 3.512002182006835938e+01 3.481797218322753906e+00 1.340985965728759766e+01 5.067497253417968750e+00 2.451470613479614258e+00
1.740000000000000000e+03 1.096845626831054688e+01 2.855642509460449219e+01 8.084272849373519421e-04 4.579683009069412947e-04 3.799186670221388340e-04 -7.821687177056446671e-05
1.741000000000000000e+03 6.718585491180419922e+00 1.080495071411132812e+01 3.347582241985946894e-04 1.477016121498309076e-05 1.048585108947008848e-04 -9.530484385322779417e-05
1.742000000000000000e+03 7.321526050567626953e+00 1.924870872497558594e+01 1.363127084914594889e-04 2.182980279030743986e-05 4.744275429402478039e-05 -1.769344089552760124e-04
1.743000000000000000e+03 2.087440490722656250e+01 -3.833076858520507812e+01 -5.326469987630844116e-02 1.725091338157653809e+00 5.015479922294616699e-01 -9.801600128412246704e-02
1.744000000000000000e+03 2.369154167175292969e+01 -3.881832122802734375e+01 -6.511951237916946411e-02 2.215925216674804688e+00 6.452416777610778809e-01 -3.368919715285301208e-02
1.745000000000000000e+03 2.298879432678222656e+01 -2.111864280700683594e+01 -3.491690754890441895e-02 2.143356323242187500e+00 6.325318217277526855e-01 9.539925307035446167e-02
1.746000000000000000e+03 1.026946258544921875e+01 -3.341384124755859375e+01 -1.635504513978958130e-02 4.700399935245513916e-03 -3.496393794193863869e-03 1.055905479006469250e-03
1.747000000000000000e+03 1.244318389892578125e+01 -3.406369018554687500e+01 -1.304631773382425308e-02 -2.539908746257424355e-03 -4.675867967307567596e-03 1.221763063222169876e-02
1.748000000000000000e+03 2.456842613220214844e+01 -2.566501998901367188e+01 -2.817305736243724823e-02 2.394499778747558594e+00 7.098979949951171875e-01 9.021738171577453613e-02
1.749000000000000000e+03 2.280164146423339844e+01 -2.684229087829589844e+01 -1.833150535821914673e-02 2.179085969924926758e+00 6.482263803482055664e-01 7.289432734251022339e-02
1.750000000000000000e+03 1.210679912567138672e+01 2.454313087463378906e+01 9.847157634794712067e-04 6.110790855018422008e-05 3.137470921501517296e-04 -1.742518943501636386e-04
1.751000000000000000e+03 3.243334579467773438e+01 4.162749862670898438e+01 7.837262153625488281e-01 -3.885136544704437256e-01 1.185637712478637695e-01 9.825086593627929688e-02
1.752000000000000000e+03 3.473480224609375000e+01 4.075022506713867188e+01 9.392870664596557617e-01 -1.297055333852767944e-01 2.428744584321975708e-01 2.172594219446182251e-01
1.753000000000000000e+03 3.434934234619140625e+01 3.847157669067382812e+01 3.041419386863708496e-01 -2.666903734207153320e-01 1.123547274619340897e-02 6.625751852989196777e-01
1.754000000000000000e+03 4.088439178466796875e+01 3.136593437194824219e+01 4.527250766754150391e+00 2.851969957351684570e+00 2.213766336441040039e+00 4.310723304748535156e+00
1.755000000000000000e+03 4.061049652099609375e+01 3.130765342712402344e+01 4.179792404174804688e+00 2.526859760284423828e+00 2.011995553970336914e+00 3.816256046295166016e+00
1.756000000000000000e+03 4.166345596313476562e+01 3.105651092529296875e+01 4.497037410736083984e+00 6.805695533752441406e+00 3.390819787979125977e+00 6.295398235321044922e+00
1.757000000000000000e+03 3.819303131103515625e+01 3.081715583801269531e+01 2.029996395111083984e+00 8.079715967178344727e-01 8.513903617858886719e-01 1.423722386360168457e+00
1.758000000000000000e+03 4.021182632446289062e+01 3.114416122436523438e+01 3.599132776260375977e+00 2.003274440765380859e+00 1.680722117424011230e+00 3.200513362884521484e+00
1.759000000000000000e+03 4.240778732299804688e+01 3.043709945678710938e+01 2.676137208938598633e+00 1.150427341461181641e+01 4.254123210906982422e+00 5.852138519287109375e+00
1.760000000000000000e+03 3.967033004760742188e+01 3.134264755249023438e+01 2.964235305786132812e+00 1.209273815155029297e+00 1.252052783966064453e+00 2.211734533309936523e+00
1.761000000000000000e+03 3.757219696044921875e+01 3.034405708312988281e+01 1.920313119888305664e+00 8.707196116447448730e-01 8.373098373413085938e-01 1.330523848533630371e+00
1.762000000000000000e+03 3.564181518554687500e+01 3.055977249145507812e+01 9.695985317230224609e-01 4.331989586353302002e-01 4.208392500877380371e-01 4.621282517910003662e-01
1.763000000000000000e+03 2.718937110900878906e+01 3.109613990783691406e+01 -5.979714542627334595e-02 5.330725759267807007e-02 -1.946965465322136879e-03 -3.542615175247192383e-01
1.764000000000000000e+03 3.754132509231567383e+00 4.532666683197021484e+00 -2.515558153390884399e-04 2.565668910392560065e-05 -6.776973896194249392e-05 1.588313461979851127e-04
1.765000000000000000e+03 4.538249015808105469e+00 4.398464202880859375e+00 1.927425910253077745e-04 6.954608397791162133e-05 7.868660759413614869e-05 -1.069773352355696261e-04
1.766000000000000000e+03 6.770421028137207031e+00 4.154814243316650391e+00 -1.153939665528014302e-04 -1.195251898025162518e-04 -7.047574763419106603e-05 -3.783586407735128887e-06
1.767000000000000000e+03 5.800507545471191406e+00 6.883700370788574219e+00 -2.142265839211177081e-05 1.026052850647829473e-04 2.435478745610453188e-05 -6.140261393738910556e-05
1.768000000000000000e+03 2.420388793945312500e+01 3.018423652648925781e+01 6.708606146275997162e-03 -1.683095246553421021e-01 -4.848027601838111877e-02 -3.063619136810302734e-01
1.769000000000000000e+03 5.338454723358154297e+00 5.117190361022949219e+00 9.022500307764858007e-05 1.536344789201393723e-04 7.315784750971943140e-05 -1.176904988824389875e-04
1.770000000000000000e+03 3.565261077880859375e+01 3.113092231750488281e+01 6.267743110656738281e-01 2.973053455352783203e-01 2.772239148616790771e-01 2.935751974582672119e-01
1.771000000000000000e+03 3.627534866333007812e+01 2.994529914855957031e+01 1.488977909088134766e+00 7.265377044677734375e-01 6.646546721458435059e-01 8.955391049385070801e-01
1.772000000000000000e+03 8.904606819152832031e+00 5.461519241333007812e+00 4.482619260670617223e-05 1.842828642111271620e-04 6.873271195217967033e-05 9.027500345837324858e-05
1.773000000000000000e+03 7.490762710571289062e+00 4.108482837677001953e+00 1.183091371785849333e-04 1.160722968052141368e-04 7.031443237792700529e-05 1.180486015073256567e-05
1.774000000000000000e+03 8.251924514770507812e+00 4.778451919555664062e+00 1.376734289806336164e-04 1.197552483063191175e-04 7.722860755166038871e-05 3.086142169195227325e-05
1.775000000000000000e+03 2.998518753051757812e+01 3.094029617309570312e+01 1.430697366595268250e-02 1.767109632492065430e-01 5.730538442730903625e-02 -2.875533998012542725e-01
1.776000000000000000e+03 8.768114089965820312e+00 -4.088872432708740234e+00 -4.297655832488089800e-04 -2.283998474013060331e-04 -1.974496262846514583e-04 -1.461237698094919324e-04
1.777000000000000000e+03 2.788025283813476562e+01 3.107957458496093750e+01 -5.558844655752182007e-02 8.969736844301223755e-02 1.023267675191164017e-02 -3.475455939769744873e-01
1.778000000000000000e+03 2.927760696411132812e+01 3.099712753295898438e+01 -1.914399489760398865e-02 1.509107649326324463e-01 3.953003138303756714e-02 -3.150161504745483398e-01
1.779000000000000000e+03 3.141768455505371094e+01 3.082324981689453125e+01 1.245579123497009277e-01 2.272512614727020264e-01 1.055427491664886475e-01 -1.990421116352081299e-01
1.780000000000000000e+03 3.213683700561523438e+01 3.077142333984375000e+01 2.060306817293167114e-01 2.521912753582000732e-01 1.374665945768356323e-01 -1.336614489555358887e-01
1.781000000000000000e+03 8.043593406677246094e+00 -4.114107131958007812e+00 6.046051275916397572e-04 9.996239532483741641e-05 2.113702503265812993e-04 1.646769815124571323e-04
1.782000000000000000e+03 1.143654537200927734e+01 -9.002379417419433594e+00 -1.058526569977402687e-03 -1.431997807230800390e-04 -3.605179081205278635e-04 1.801180624170228839e-04
1.783000000000000000e+03 3.069944000244140625e+01 3.087953186035156250e+01 6.415181607007980347e-02 2.049334049224853516e-01 8.072556555271148682e-02 -2.466946393251419067e-01
1.784000000000000000e+03 2.857594299316406250e+01 3.104370498657226562e+01 -4.248075932264328003e-02 1.193775236606597900e-01 2.306902967393398285e-02 -3.360470831394195557e-01
1.785000000000000000e+03 4.089751434326171875e+01 3.959272003173828125e+01 3.500117734074592590e-02 6.383841991424560547e+00 1.925652980804443359e+00 -1.532107472419738770e+00
1.786000000000000000e+03 7.283971309661865234e+00 -4.948480129241943359e+00 8.556204847991466522e-04 -1.283913024963112548e-05 2.528344048187136650e-04 -1.672081634751521051e-05
1.787000000000000000e+03 5.361696243286132812e+00 -4.022706031799316406e+00 -5.543666702578775585e-05 4.403161583468317986e-04 1.154638448497280478e-04 1.472208678023889661e-04
1.788000000000000000e+03 3.442996978759765625e+00 -4.463934421539306641e+00 -9.317586082033813000e-04 5.016240265831584111e-06 -2.780226932372897863e-04 -4.034712328575551510e-04
1.789000000000000000e+03 3.285381317138671875e+01 3.072547340393066406e+01 3.014776110649108887e-01 2.728394865989685059e-01 1.722951233386993408e-01 -5.988584831357002258e-02
1.790000000000000000e+03 3.426789093017578125e+01 3.064852523803710938e+01 5.680612325668334961e-01 3.284444212913513184e-01 2.689516842365264893e-01 1.461836844682693481e-01
1.791000000000000000e+03 7.302421569824218750e+00 -4.124085426330566406e+00 -6.933481781743466854e-04 -7.114304480637656525e-06 -2.101387362927198410e-04 -5.615589543594978750e-05
1.792000000000000000e+03 7.302741527557373047e+00 -6.793622970581054688e+00 9.745228453539311886e-04 1.791429967852309346e-04 3.460997540969401598e-04 1.384824281558394432e-04
1.793000000000000000e+03 1.249312210083007812e+01 6.678931236267089844e+00 -3.063817275688052177e-04 -3.742704211617819965e-05 -1.031426290865056217e-04 -2.231137477792799473e-05
1.794000000000000000e+03 6.570316791534423828e+00 -4.077311038970947266e+00 6.550322286784648895e-04 1.552516732772346586e-05 2.011672186199575663e-04 -1.419953914592042565e-04
1.795000000000000000e+03 7.307753086090087891e+00 -5.834776878356933594e+00 -9.814697550609707832e-04 -1.076859916793182492e-06 -2.947640023194253445e-04 6.903973553562536836e-05
1.796000000000000000e+03 5.147523403167724609e+00 -5.063268184661865234e+00 1.779811573214828968e-04 2.645355707500129938e-04 1.327550126006826758e-04 4.165556747466325760e-04
1.797000000000000000e+03 1.269051837921142578e+01 -5.401282310485839844e+00 -8.706055232323706150e-04 -1.394514110870659351e-04 -3.030170919373631477e-04 1.342587638646364212e-04
1.798000000000000000e+03 1.243434047698974609e+01 4.543691158294677734e+00 -3.181261417921632528e-04 -1.355627409793669358e-05 -9.950472303899005055e-05 5.618300292553612962e-06
1.799000000000000000e+03 1.023683643341064453e+01 7.953505039215087891e+00 3.024939505849033594e-04 8.425417763646692038e-05 1.160244355560280383e-04 3.859774005832150578e-05
1.800000000000000000e+03 4.543148040771484375e+01 3.044982147216796875e+01 3.149382591247558594e+00 1.502072143554687500e+01 5.451031208038330078e+00 -2.938850820064544678e-01
1.801000000000000000e+03 4.683386230468750000e+01 3.100785446166992188e+01 4.321462631225585938e+00 1.331349182128906250e+01 5.290486335754394531e+00 -7.296816706657409668e-01
1.802000000000000000e+03 2.561882781982421875e+01 3.174084472656250000e+01 -1.037946343421936035e-01 -1.850709505379199982e-02 -3.669051826000213623e-02 -3.316756188869476318e-01
1.803000000000000000e+03 1.141714000701904297e+01 4.787979125976562500e+00 3.207433037459850311e-04 1.109886670747073367e-05 9.955264977179467678e-05 5.627388236462138593e-05
1.804000000000000000e+03 2.490567207336425781e+01 -1.511978149414062500e+00 -3.132731094956398010e-02 1.940020799636840820e+00 5.726080536842346191e-01 3.420261442661285400e-01
1.805000000000000000e+03 2.611370277404785156e+01 2.334420680999755859e-01 -4.944308847188949585e-02 2.076643466949462891e+00 6.081601381301879883e-01 4.248858392238616943e-01
1.806000000000000000e+03 2.707931518554687500e+00 6.234628200531005859e+00 2.833485486917197704e-04 8.569515921408310533e-05 1.107131174649111927e-04 -2.943307299574371427e-05
1.807000000000000000e+03 2.620046043395996094e+01 -1.798498916625976562e+01 -4.682063311338424683e-02 2.563268661499023438e+00 7.549343705177307129e-01 1.449225246906280518e-01
1.808000000000000000e+03 2.604444122314453125e+01 -1.654391479492187500e+01 -3.871043771505355835e-02 2.515740394592285156e+00 7.431089878082275391e-01 1.593574434518814087e-01
1.809000000000000000e+03 2.602903556823730469e+01 -4.418044090270996094e+00 -5.437974631786346436e-02 2.252876758575439453e+00 6.595491170883178711e-01 3.376668095588684082e-01
1.810000000000000000e+03 2.442477798461914062e+01 -8.400413513183593750e+00 -2.548590674996376038e-02 2.134542465209960938e+00 6.327169537544250488e-01 2.344965636730194092e-01
1.811000000000000000e+03 1.057066249847412109e+01 -1.563301467895507812e+01 1.337176305241882801e-03 6.893259705975651741e-04 6.079506711103022099e-04 -6.314349011518061161e-04
1.812000000000000000e+03 1.118813323974609375e+01 1.039662361145019531e+01 -2.887161972466856241e-04 -1.394981372868642211e-04 -1.284642930841073394e-04 -5.175856495043262839e-05
1.813000000000000000e+03 9.596502304077148438e+00 5.662838459014892578e+00 -1.430994889233261347e-04 -1.125419803429394960e-04 -7.669244223507121205e-05 -1.718956045806407928e-04
1.814000000000000000e+03 1.019044113159179688e+01 1.710933876037597656e+01 -4.428846004884690046e-04 -3.198437843821011484e-05 -1.424607035005465150e-04 1.195614750031381845e-04
1.815000000000000000e+03 1.096651363372802734e+01 -1.157084560394287109e+01 -1.029834151268005371e-03 -3.747396986000239849e-04 -4.213721549604088068e-04 2.778919588308781385e-04
1.816000000000000000e+03 1.079668807983398438e+01 -1.294954109191894531e+01 1.150571973994374275e-03 3.961374168284237385e-04 4.640128172468394041e-04 -3.205914981663227081e-04
1.817000000000000000e+03 1.057232379913330078e+01 -3.446073150634765625e+01 -5.353590939193964005e-03 4.990428220480680466e-03 -1.089488869183696806e-04 7.843426428735256195e-03
1.818000000000000000e+03 6.165117263793945312e+00 -3.132414627075195312e+01 -6.206665653735399246e-03 -1.922801457112655044e-04 -1.919683767482638359e-03 -3.537272335961461067e-03
1.819000000000000000e+03 7.483596801757812500e+01 3.274300384521484375e+01 1.493086665868759155e-01 5.518564701080322266e+00 1.700362086296081543e+00 -4.363192617893218994e-01
1.820000000000000000e+03 7.394363403320312500e+01 2.955789375305175781e+01 1.574408859014511108e-01 5.950844287872314453e+00 1.832485556602478027e+00 -6.338647007942199707e-01
1.821000000000000000e+03 2.582429313659667969e+01 -1.104072666168212891e+01 -2.486749924719333649e-02 2.395467996597290039e+00 7.111801505088806152e-01 2.327899336814880371e-01
1.822000000000000000e+03 2.439544868469238281e+01 -9.757607460021972656e+00 -1.101326104253530502e-02 2.160282611846923828e+00 6.447808146476745605e-01 2.207259237766265869e-01
1.823000000000000000e+03 7.340694427490234375e+01 -3.138148689270019531e+01 -1.458367146551609039e-02 8.876721382141113281e+00 2.658641338348388672e+00 -2.055687271058559418e-02
1.824000000000000000e+03 7.505573272705078125e+01 -2.777446556091308594e+01 -1.210352219641208649e-02 9.067731857299804688e+00 2.716688394546508789e+00 -3.820307180285453796e-02
1.825000000000000000e+03 7.264201354980468750e+01 -2.894574356079101562e+01 -1.847258023917675018e-02 8.768862724304199219e+00 2.625117063522338867e+00 -4.559606686234474182e-02
1.826000000000000000e+03 2.587121772766113281e+01 -7.051549911499023438e+00 -4.789149016141891479e-02 2.312781095504760742e+00 6.794668436050415039e-01 2.929326295852661133e-01
1.827000000000000000e+03 7.392227172851562500e+01 2.242507171630859375e+01 3.255119547247886658e-02 6.550646305084228516e+00 1.974959135055541992e+00 -7.987866997718811035e-01
1.828000000000000000e+03 7.513674163818359375e+01 2.400040626525878906e+01 3.500713407993316650e-02 6.192190647125244141e+00 1.868159294128417969e+00 -6.512123942375183105e-01
1.829000000000000000e+03 7.549503326416015625e+01 -2.056347274780273438e+01 -1.426565088331699371e-02 9.069882392883300781e+00 2.716685056686401367e+00 -7.743074744939804077e-02
1.830000000000000000e+03 7.430733489990234375e+01 -2.193305397033691406e+01 -2.787133865058422089e-02 8.927081108093261719e+00 2.669763088226318359e+00 -8.480513095855712891e-02
1.831000000000000000e+03 7.558071136474609375e+01 1.271196079254150391e+01 -4.003684967756271362e-02 7.362596511840820312e+00 2.196767807006835938e+00 -5.733563899993896484e-01
1.832000000000000000e+03 7.424860382080078125e+01 1.547377681732177734e+01 -3.795613721013069153e-02 7.155912399291992188e+00 2.135386705398559570e+00 -7.424231767654418945e-01
1.833000000000000000e+03 7.417905426025390625e+01 8.561555862426757812e+00 -7.786633819341659546e-02 7.749009609222412109e+00 2.301342964172363281e+00 -6.119262576103210449e-01
1.834000000000000000e+03 7.404349517822265625e+01 4.221041202545166016e+00 -8.092932403087615967e-02 8.043839454650878906e+00 2.388872861862182617e+00 -5.177501440048217773e-01
1.835000000000000000e+03 7.559478759765625000e+01 -1.369698524475097656e+01 -2.091229334473609924e-02 8.946004867553710938e+00 2.677527666091918945e+00 -1.336192488670349121e-01
1.836000000000000000e+03 7.437514495849609375e+01 -1.497738265991210938e+01 -3.239231556653976440e-02 8.825453758239746094e+00 2.637918472290039062e+00 -1.481696963310241699e-01
1.837000000000000000e+03 7.351030731201171875e+01 2.565818214416503906e+01 8.594452589750289917e-02 6.319716930389404297e+00 1.921698451042175293e+00 -7.680832743644714355e-01
1.838000000000000000e+03 7.511519622802734375e+01 2.546998405456542969e+01 4.661959037184715271e-02 6.055812835693359375e+00 1.830729722976684570e+00 -6.312527060508728027e-01
1.839000000000000000e+03 7.552332305908203125e+01 -6.847058296203613281e+00 -3.728207573294639587e-02 8.721463203430175781e+00 2.605254173278808594e+00 -2.193215638399124146e-01
1.840000000000000000e+03 7.424079132080078125e+01 -8.258137702941894531e+00 -5.397487059235572815e-02 8.638186454772949219e+00 2.575263500213623047e+00 -2.433396875858306885e-01
1.841000000000000000e+03 7.414315032958984375e+01 6.465996801853179932e-02 -7.456068694591522217e-02 8.292216300964355469e+00 2.465296745300292969e+00 -4.077599942684173584e-01
1.842000000000000000e+03 7.423766326904296875e+01 1.450991034507751465e+00 -7.309728115797042847e-02 8.221574783325195312e+00 2.444543361663818359e+00 -4.361426532268524170e-01
1.843000000000000000e+03 7.551696014404296875e+01 2.911313533782958984e+00 -4.777781665325164795e-02 8.199510574340820312e+00 2.445519685745239258e+00 -3.914373219013214111e-01
1.844000000000000000e+03 7.414316558837890625e+01 -2.717480182647705078e+00 -7.142837345600128174e-02 8.417717933654785156e+00 2.503886938095092773e+00 -3.486057817935943604e-01
1.845000000000000000e+03 7.430390167236328125e+01 1.131876850128173828e+01 -6.827339529991149902e-02 7.527881145477294922e+00 2.237882375717163086e+00 -6.647599935531616211e-01
1.846000000000000000e+03 7.419115447998046875e+01 -4.120418071746826172e+00 -6.143886223435401917e-02 8.482339859008789062e+00 2.526270389556884766e+00 -3.174387514591217041e-01
1.847000000000000000e+03 7.422430419921875000e+01 -5.512389659881591797e+00 -6.022391840815544128e-02 8.540704727172851562e+00 2.544144153594970703e+00 -2.907532155513763428e-01
1.848000000000000000e+03 7.424126434326171875e+01 -1.100561523437500000e+01 -4.566911607980728149e-02 8.719795227050781250e+00 2.602237701416015625e+00 -1.992397606372833252e-01
1.849000000000000000e+03 7.426543426513671875e+01 -1.236195373535156250e+01 -3.791388869285583496e-02 8.757036209106445312e+00 2.615736722946166992e+00 -1.793079227209091187e-01
1.850000000000000000e+03 7.438141632080078125e+01 -1.760198402404785156e+01 -3.091002814471721649e-02 8.875353813171386719e+00 2.653333187103271484e+00 -1.191266179084777832e-01
1.851000000000000000e+03 7.428655242919921875e+01 -1.899798202514648438e+01 -3.152178600430488586e-02 8.883370399475097656e+00 2.655554771423339844e+00 -1.091753095388412476e-01
1.852000000000000000e+03 7.551224517822265625e+01 1.824322509765625000e+01 -1.758082769811153412e-02 6.777668952941894531e+00 2.028026342391967773e+00 -6.391505002975463867e-01
1.853000000000000000e+03 7.418350219726562500e+01 1.820186424255371094e+01 -1.651882193982601166e-02 6.906134605407714844e+00 2.066884756088256836e+00 -7.756907939910888672e-01
1.854000000000000000e+03 7.400694274902343750e+01 -2.455834960937500000e+01 -1.873084530234336853e-02 8.929249763488769531e+00 2.673155784606933594e+00 -6.772559136152267456e-02
1.855000000000000000e+03 7.361264038085937500e+01 -2.749285888671875000e+01 -1.195097528398036957e-02 8.901988029479980469e+00 2.667011022567749023e+00 -5.191925540566444397e-02
1.856000000000000000e+03 7.522258758544921875e+01 -2.624435806274414062e+01 -9.110409766435623169e-03 9.091958999633789062e+00 2.724854707717895508e+00 -4.537088051438331604e-02
1.857000000000000000e+03 7.423905181884765625e+01 -6.888088703155517578e+00 -5.354088544845581055e-02 8.591662406921386719e+00 2.561436414718627930e+00 -2.649791240692138672e-01
1.858000000000000000e+03 7.406256103515625000e+01 7.142811298370361328e+00 -7.810334116220474243e-02 7.851019859313964844e+00 2.331874847412109375e+00 -5.873773097991943359e-01
1.859000000000000000e+03 7.431475067138671875e+01 -1.368353557586669922e+01 -3.611267730593681335e-02 8.792248725891113281e+00 2.626840829849243164e+00 -1.633442044258117676e-01
1.860000000000000000e+03 7.091324615478515625e+01 3.226121902465820312e+01 3.024863302707672119e-01 6.453642368316650391e+00 2.026838779449462891e+00 -6.454861760139465332e-01
1.861000000000000000e+03 7.416915130615234375e+01 -2.050509071350097656e+01 -2.467368729412555695e-02 8.894118309020996094e+00 2.660833358764648438e+00 -9.729417413473129272e-02
1.862000000000000000e+03 7.429122924804687500e+01 1.408475494384765625e+01 -5.396290868520736694e-02 7.285385608673095703e+00 2.169426918029785156e+00 -7.205905318260192871e-01
1.863000000000000000e+03 7.410839843750000000e+01 2.096487998962402344e+01 1.786680892109870911e-02 6.654006004333496094e+00 2.001561880111694336e+00 -7.896940112113952637e-01
1.864000000000000000e+03 7.342855072021484375e+01 3.093748664855957031e+01 1.803108751773834229e-01 5.978623867034912109e+00 1.847680449485778809e+00 -5.961636304855346680e-01
1.865000000000000000e+03 6.518879890441894531e+00 -1.541615581512451172e+01 1.508953515440225601e-03 2.653656410984694958e-04 5.322957294993102551e-04 6.121671758592128754e-04
1.866000000000000000e+03 5.748334884643554688e+00 -2.905040550231933594e+01 -4.006519913673400879e-03 -6.643738597631454468e-04 -1.401268062181770802e-03 -2.091317437589168549e-03
1.867000000000000000e+03 1.179022979736328125e+01 -2.134926414489746094e+01 -4.209059115964919329e-04 -2.629377995617687702e-04 -2.051531191682443023e-04 -2.172185806557536125e-03
1.868000000000000000e+03 1.101488590240478516e+01 3.196452331542968750e+01 -1.755213364958763123e-03 3.145253285765647888e-04 -4.322064050938934088e-04 1.378063461743295193e-04
1.869000000000000000e+03 2.598627662658691406e+01 8.318094253540039062e+00 -2.387834899127483368e-02 1.541553616523742676e+00 4.553025960922241211e-01 5.818686485290527344e-01
1.870000000000000000e+03 5.745681285858154297e+00 -2.651113319396972656e+01 -2.615688601508736610e-03 -1.053802203387022018e-03 -1.100847264751791954e-03 -7.455240120179951191e-04
1.871000000000000000e+03 4.350757122039794922e+00 2.717982101440429688e+01 9.201064822264015675e-04 -1.391135010635480285e-04 2.342978987144306302e-04 1.041136929416097701e-04
1.872000000000000000e+03 5.408785343170166016e+00 2.949140930175781250e+01 -1.496284385211765766e-03 3.613374719861894846e-04 -3.404840826988220215e-04 -6.107532681198790669e-05
1.873000000000000000e+03 2.613771247863769531e+01 2.150208473205566406e+01 2.669027149677276611e-01 4.053962826728820801e-01 2.016897052526473999e-01 2.920386791229248047e-01
1.874000000000000000e+03 2.613576316833496094e+01 1.833347320556640625e+01 1.753400862216949463e-01 6.977640390396118164e-01 2.619312405586242676e-01 4.871585071086883545e-01
1.875000000000000000e+03 2.598576164245605469e+01 1.114169597625732422e+01 -1.361276372335851192e-03 1.313565373420715332e+00 3.936612308025360107e-01 6.034808158874511719e-01
1.876000000000000000e+03 1.446943092346191406e+01 -2.901279640197753906e+01 4.899627063423395157e-03 1.184317283332347870e-03 1.825183280743658543e-03 -4.146207065787166357e-04
1.877000000000000000e+03 2.478196144104003906e+01 1.552491664886474609e+01 5.688360705971717834e-02 5.782017707824707031e-01 1.905256211757659912e-01 4.515075981616973877e-01
1.878000000000000000e+03 3.152496337890625000e+01 1.768319129943847656e+01 3.131186664104461670e-01 2.318308115005493164e+00 7.894279956817626953e-01 1.090863347053527832e+00
1.879000000000000000e+03 6.696564197540283203e+00 2.315406608581542969e+01 -3.858249110635370016e-04 1.777168363332748413e-04 -6.243242387427017093e-05 3.722854307852685452e-04
1.880000000000000000e+03 1.069349765777587891e+01 2.342929840087890625e+01 8.802311494946479797e-04 5.008691368857398629e-05 2.790954022202640772e-04 -2.972717629745602608e-04
1.881000000000000000e+03 6.131349563598632812e+00 -1.025058269500732422e+01 1.082507427781820297e-03 2.975318056996911764e-04 4.140117671340703964e-04 2.883748093154281378e-04
1.882000000000000000e+03 5.042804241180419922e+00 -1.031725788116455078e+01 -1.161541789770126343e-03 -1.994439080590382218e-04 -4.082956875208765268e-04 -3.054138505831360817e-04
1.883000000000000000e+03 2.597762680053710938e+01 6.924729347229003906e+00 -2.859904617071151733e-02 1.642257571220397949e+00 4.840975403785705566e-01 5.603168606758117676e-01
1.884000000000000000e+03 2.540750885009765625e+01 2.681689262390136719e+01 1.919336766004562378e-01 -5.379985272884368896e-02 4.144014790654182434e-02 -1.832525283098220825e-01
1.885000000000000000e+03 2.595209693908691406e+01 3.026059913635253906e+01 1.878609508275985718e-02 -2.062396518886089325e-02 -5.513607175089418888e-04 -3.434879779815673828e-01
1.886000000000000000e+03 2.597914314270019531e+01 1.395922088623046875e+01 4.584482684731483459e-02 1.060566067695617676e+00 3.319232761859893799e-01 5.902193188667297363e-01
1.887000000000000000e+03 2.547429275512695312e+01 2.793658065795898438e+01 1.578702777624130249e-01 -6.117777898907661438e-02 2.900774963200092316e-02 -2.581428289413452148e-01
1.888000000000000000e+03 2.642843437194824219e+01 2.777837371826171875e+01 2.265550345182418823e-01 4.949589818716049194e-02 8.281528204679489136e-02 -2.270208150148391724e-01
1.889000000000000000e+03 2.482615852355957031e+01 2.932050704956054688e+01 5.160164088010787964e-02 -1.341367810964584351e-01 -2.476054057478904724e-02 -3.086766302585601807e-01
1.890000000000000000e+03 5.539147853851318359e+00 -2.270833015441894531e+01 2.470563631504774094e-03 5.834265175508335233e-05 7.586719002574682236e-04 -5.753099103458225727e-04
1.891000000000000000e+03 9.530012130737304688e+00 2.487870979309082031e+01 8.276117150671780109e-04 1.325299672316759825e-04 2.880425017792731524e-04 -2.818347129505127668e-04
1.892000000000000000e+03 6.008907794952392578e+00 2.440742301940917969e+01 -3.264475089963525534e-04 -2.386826672591269016e-04 -1.695390528766438365e-04 -2.679450553841888905e-04
1.893000000000000000e+03 5.763017177581787109e+00 -1.716493606567382812e+01 2.145582810044288635e-03 3.030555672012269497e-04 7.345915073528885841e-04 5.658729351125657558e-04
1.894000000000000000e+03 5.464181900024414062e+00 -1.571355438232421875e+01 -1.963898539543151855e-03 -1.670442434260621667e-04 -6.392828072421252728e-04 -6.286014104261994362e-04
1.895000000000000000e+03 5.316571235656738281e+00 -1.436706256866455078e+01 1.816489733755588531e-03 1.478500926168635488e-04 5.893019260838627815e-04 6.863501621410250664e-04
1.896000000000000000e+03 4.402432918548583984e+00 -2.156197547912597656e+01 2.860790584236383438e-03 -3.596642345655709505e-04 7.503379601985216141e-04 3.030130756087601185e-04
1.897000000000000000e+03 7.749999523162841797e+00 1.605019187927246094e+01 2.158368588425219059e-04 -7.139827357605099678e-05 4.333157994551584125e-05 -2.747209218796342611e-04
1.898000000000000000e+03 7.761565208435058594e+00 -1.775527572631835938e+01 -7.569153676740825176e-04 9.102356852963566780e-04 4.599608655553311110e-05 7.528466521762311459e-04
1.899000000000000000e+03 5.338757514953613281e+00 2.846049499511718750e+01 1.092763035558164120e-03 -3.857619885820895433e-04 2.121003053616732359e-04 1.705730974208563566e-04
1.900000000000000000e+03 4.471773147583007812e+00 -2.674767494201660156e+01 2.113887108862400055e-03 5.333740846253931522e-04 7.941783405840396881e-04 7.886586827225983143e-04
1.901000000000000000e+03 7.020115852355957031e+00 -2.634090614318847656e+01 1.590725267305970192e-03 8.519633556716144085e-04 7.328065694309771061e-04 3.520398458931595087e-04
1.902000000000000000e+03 2.688628387451171875e+01 2.321786880493164062e+01 3.447040915489196777e-01 3.920346796512603760e-01 2.210216373205184937e-01 1.997865587472915649e-01
1.903000000000000000e+03 2.558032417297363281e+01 2.432492637634277344e+01 2.466402649879455566e-01 6.867746263742446899e-02 9.459532052278518677e-02 2.188921533524990082e-02
1.904000000000000000e+03 7.359041213989257812e+00 -1.142843818664550781e+01 7.257847464643418789e-04 6.644329405389726162e-04 4.170653119217604399e-04 2.513941144570708275e-04
1.905000000000000000e+03 6.161421298980712891e+00 2.080841827392578125e+01 -6.021909648552536964e-04 -1.421117631252855062e-04 -2.232908154837787151e-04 -3.375446249265223742e-04
1.906000000000000000e+03 5.493421077728271484e+00 2.031991767883300781e+01 -5.700301844626665115e-04 2.653918636497110128e-04 -9.139149187831208110e-05 2.563874586485326290e-04
1.907000000000000000e+03 5.613267421722412109e+00 -2.160108947753906250e+01 -2.781780203804373741e-03 8.490011096000671387e-04 -5.798336933366954327e-04 8.348728297278285027e-04
1.908000000000000000e+03 5.881715297698974609e+00 -1.872513389587402344e+01 -2.329242415726184845e-03 -8.824718679534271359e-05 -7.252469076775014400e-04 -4.281165602151304483e-04
1.909000000000000000e+03 6.525680065155029297e+00 3.400149154663085938e+01 8.895550272427499294e-04 2.128118067048490047e-04 3.307100560050457716e-04 3.375346132088452578e-04
1.910000000000000000e+03 6.606797218322753906e+00 1.698698616027832031e+01 -1.984575465030502528e-05 3.392992584849707782e-05 4.225251359457615763e-06 3.081748145632445812e-04
1.911000000000000000e+03 5.063944816589355469e+00 1.390589332580566406e+01 4.435896116774529219e-04 -4.518451532931067050e-05 1.195215299958363175e-04 -1.272717781830579042e-04
1.912000000000000000e+03 5.417758464813232422e+00 1.495130157470703125e+01 -3.476540441624820232e-04 -1.015869656839640811e-05 -1.073438179446384311e-04 1.717815612209960818e-04
1.913000000000000000e+03 5.730248451232910156e+00 -2.780888938903808594e+01 1.661970280110836029e-03 7.144384435378015041e-04 7.129225996322929859e-04 9.391407947987318039e-04
1.914000000000000000e+03 9.939045906066894531e+00 -3.197208976745605469e+01 -3.384352661669254303e-03 3.483284497633576393e-03 2.967954242194537073e-05 2.639604266732931137e-03
1.915000000000000000e+03 4.059929847717285156e+00 1.008905982971191406e+01 2.990234643220901489e-04 1.057475092238746583e-04 1.214312942465767264e-04 -1.665555173531174660e-04
1.916000000000000000e+03 1.009062194824218750e+01 1.035734176635742188e+01 2.907468006014823914e-04 1.485224493080750108e-04 1.317807764280587435e-04 2.048637361440341920e-05
1.917000000000000000e+03 6.432664394378662109e+00 1.180478763580322266e+01 -3.094430139753967524e-04 -9.189683623844757676e-05 -1.204019572469405830e-04 2.156216651201248169e-04
1.918000000000000000e+03 5.144048213958740234e+00 -1.166874694824218750e+01 1.264537451788783073e-03 2.305197995156049728e-04 4.485171521082520485e-04 3.832453221548348665e-04
1.919000000000000000e+03 4.871150970458984375e+00 -7.649029254913330078e+00 -9.240062790922820568e-04 -2.490470942575484514e-04 -3.519160090945661068e-04 -3.185661626048386097e-04
1.920000000000000000e+03 5.040132522583007812e+00 8.531768798828125000e+00 1.850481639849022031e-04 1.796490832930430770e-04 1.094091712730005383e-04 -1.369003002764657140e-04
1.921000000000000000e+03 3.789267539978027344e+00 7.484622478485107422e+00 2.197423600591719151e-04 1.223198050865903497e-04 1.026186509989202023e-04 -9.108099766308441758e-05
1.922000000000000000e+03 5.135447978973388672e+00 9.751376152038574219e+00 -9.498474537394940853e-05 -2.090581256197765470e-04 -9.121285984292626381e-05 1.439240295439958572e-04
1.923000000000000000e+03 7.039924621582031250e+00 -2.355293655395507812e+01 2.286902163177728653e-03 8.643401670269668102e-04 9.453726815991103649e-04 2.982657460961490870e-04
1.924000000000000000e+03 1.082281398773193359e+01 -2.508545875549316406e+01 1.653908402658998966e-03 1.382052083499729633e-03 9.107881342060863972e-04 -5.189547664485871792e-04
1.925000000000000000e+03 1.071317672729492188e+01 -2.634479713439941406e+01 -2.574756275862455368e-03 -1.690290984697639942e-03 -1.279514166526496410e-03 6.539401947520673275e-04
1.926000000000000000e+03 1.060268878936767578e+01 1.361895751953125000e+01 9.275707270717248321e-05 7.613527372996031772e-07 2.805552685458678752e-05 2.729022817220538855e-04
1.927000000000000000e+03 4.651556015014648438e+00 -6.393703460693359375e+00 7.151976460590958595e-04 2.307064860360696912e-04 2.837712236214429140e-04 3.477064601611346006e-04
1.928000000000000000e+03 4.348840713500976562e+00 -5.316233158111572266e+00 -6.405130843631923199e-04 -1.871914428193122149e-04 -2.483113494236022234e-04 -4.448758554644882679e-04
1.929000000000000000e+03 2.593003082275390625e+01 -5.737048149108886719e+00 -5.236798152327537537e-02 2.281944036483764648e+00 6.688728332519531250e-01 3.131431639194488525e-01
1.930000000000000000e+03 2.618142700195312500e+01 -3.087674617767333984e+00 -5.733688175678253174e-02 2.223907947540283203e+00 6.499713063240051270e-01 3.645489513874053955e-01
1.931000000000000000e+03 2.585293197631835938e+01 -1.239021873474121094e+01 -2.388612180948257446e-02 2.426604509353637695e+00 7.208155393600463867e-01 2.077010869979858398e-01
1.932000000000000000e+03 2.582426452636718750e+01 -9.696887969970703125e+00 -3.608299791812896729e-02 2.372981548309326172e+00 7.010695934295654297e-01 2.505885064601898193e-01
1.933000000000000000e+03 1.054021167755126953e+01 -3.044602584838867188e+01 3.124959068372845650e-03 1.879310235381126404e-03 1.501280814409255981e-03 -1.241666323039680719e-04
1.934000000000000000e+03 1.184400939941406250e+01 -2.901146697998046875e+01 3.040275536477565765e-03 1.063635922037065029e-03 1.231173519045114517e-03 -3.159597108606249094e-04
1.935000000000000000e+03 2.472170066833496094e+01 4.199294090270996094e+00 -8.489260450005531311e-03 1.559985995292663574e+00 4.654490053653717041e-01 4.222494959831237793e-01
1.936000000000000000e+03 2.584052467346191406e+01 -8.365765571594238281e+00 -4.004349559545516968e-02 2.340601444244384766e+00 6.901673674583435059e-01 2.749685347080230713e-01
1.937000000000000000e+03 1.184173774719238281e+01 2.181249427795410156e+01 9.727565920911729336e-04 4.705644585101254052e-07 2.919681428465992212e-04 -1.030926869134418666e-04
1.938000000000000000e+03 1.074568367004394531e+01 2.020362663269042969e+01 4.362637409940361977e-04 -7.834458665456622839e-05 1.073757448466494679e-04 2.773154119495302439e-04
1.939000000000000000e+03 2.476447677612304688e+01 -2.116126632690429688e+01 -3.309601917862892151e-02 2.383488893508911133e+00 7.051178812980651855e-01 1.158985793590545654e-01
1.940000000000000000e+03 2.295045089721679688e+01 -2.403435134887695312e+01 -2.519256062805652618e-02 2.159041643142700195e+00 6.401547193527221680e-01 8.057472109794616699e-02
1.941000000000000000e+03 1.107430934906005859e+01 1.161287307739257812e+01 2.392556780250743032e-04 2.264107461087405682e-04 1.396999286953359842e-04 9.251916344510391355e-05
1.942000000000000000e+03 1.009096431732177734e+01 3.017564964294433594e+01 5.813850439153611660e-04 6.814646185375750065e-04 3.788548929151147604e-04 -3.669164725579321384e-04
1.943000000000000000e+03 1.063751125335693359e+01 1.814667320251464844e+01 5.094687803648412228e-04 1.216829987242817879e-04 1.893455337267369032e-04 -3.312852641101926565e-05
1.944000000000000000e+03 1.090819072723388672e+01 1.917913436889648438e+01 -6.474775727838277817e-04 -1.246552856173366308e-04 -2.316398604307323694e-04 -1.409296091878786683e-04
1.945000000000000000e+03 9.250972747802734375e+00 -3.306626510620117188e+01 -7.264240179210901260e-03 1.148805720731616020e-03 -1.834630267694592476e-03 -2.691900590434670448e-04
1.946000000000000000e+03 2.640521430969238281e+01 -1.731109380722045898e+00 -6.055334955453872681e-02 2.216475248336791992e+00 6.467765569686889648e-01 3.998337388038635254e-01
1.947000000000000000e+03 2.595759773254394531e+01 5.533154010772705078e+00 -3.036296740174293518e-02 1.734697103500366211e+00 5.113002061843872070e-01 5.325116515159606934e-01
1.948000000000000000e+03 2.596778106689453125e+01 1.506038904190063477e+00 -4.388488829135894775e-02 1.973548531532287598e+00 5.788990855216979980e-01 4.413759410381317139e-01
1.949000000000000000e+03 2.590309715270996094e+01 -1.375762271881103516e+01 -2.188760414719581604e-02 2.456790447235107422e+00 7.304708957672119141e-01 1.871285736560821533e-01
1.950000000000000000e+03 4.048483276367187500e+01 3.804384231567382812e+01 4.387749731540679932e-01 4.722667694091796875e+00 1.548432826995849609e+00 -2.040656566619873047e+00
1.951000000000000000e+03 4.884237289428710938e+01 3.200075149536132812e+01 4.153267383575439453e+00 1.146374416351318359e+01 4.685103416442871094e+00 -5.425302311778068542e-02
1.952000000000000000e+03 2.416116523742675781e+01 -2.973513221740722656e+01 3.160174936056137085e-02 2.372509241104125977e+00 7.212332487106323242e-01 7.310023903846740723e-02
1.953000000000000000e+03 5.055072784423828125e+01 3.641630172729492188e+01 1.871779441833496094e+00 1.168598651885986328e+01 4.067329883575439453e+00 1.289674997329711914e+00
1.954000000000000000e+03 1.112219333648681641e+01 2.967733001708984375e+01 -1.186799723654985428e-03 -1.830434921430423856e-04 -4.109529836568981409e-04 -1.259021955775097013e-04
1.955000000000000000e+03 8.320223808288574219e+00 2.495399093627929688e+01 -7.971174200065433979e-04 -1.017049580696038902e-04 -2.696467272471636534e-04 1.278916315641254187e-04
1.956000000000000000e+03 6.199011325836181641e+00 3.220838165283203125e+01 -1.029799925163388252e-03 -3.564597864169627428e-05 -3.196337784174829721e-04 -2.214281557826325297e-04
1.957000000000000000e+03 7.202290344238281250e+01 4.080829238891601562e+01 2.452708184719085693e-01 5.918250560760498047e+00 1.849056363105773926e+00 -1.199739947915077209e-01
1.958000000000000000e+03 7.392208862304687500e+01 3.686185836791992188e+01 1.930800229310989380e-01 5.497935295104980469e+00 1.707304596900939941e+00 -3.056788146495819092e-01
1.959000000000000000e+03 3.966253662109375000e+01 3.014036369323730469e+01 3.166521787643432617e+00 2.661686897277832031e+00 1.748462677001953125e+00 3.270402431488037109e+00
1.960000000000000000e+03 4.109741973876953125e+01 3.108696937561035156e+01 4.451239109039306641e+00 4.268136024475097656e+00 2.615812540054321289e+00 4.990127086639404297e+00
1.961000000000000000e+03 3.873912429809570312e+01 3.076140785217285156e+01 2.433167934417724609e+00 1.078199148178100586e+00 1.053410172462463379e+00 1.849491119384765625e+00
1.962000000000000000e+03 4.278121948242187500e+01 2.950613784790039062e+01 1.568313360214233398e+00 1.191162300109863281e+01 4.043981075286865234e+00 4.520830631256103516e+00
1.963000000000000000e+03 4.221212387084960938e+01 2.976825523376464844e+01 2.283812522888183594e+00 1.009114170074462891e+01 3.712486267089843750e+00 5.287903308868408203e+00
1.964000000000000000e+03 3.750977706909179688e+01 2.979463386535644531e+01 2.077430725097656250e+00 1.174996972084045410e+00 9.757283329963684082e-01 1.576427936553955078e+00
1.965000000000000000e+03 3.630945968627929688e+01 3.050033378601074219e+01 1.241949915885925293e+00 5.242668390274047852e-01 5.298650264739990234e-01 6.869831681251525879e-01
1.966000000000000000e+03 4.319569778442382812e+01 2.956102180480957031e+01 1.385595560073852539e+00 1.301664447784423828e+01 4.320672035217285156e+00 3.883675336837768555e+00
1.967000000000000000e+03 4.378571701049804688e+01 3.002752876281738281e+01 1.495486497879028320e+00 1.521237945556640625e+01 5.012360095977783203e+00 2.919227600097656250e+00
1.968000000000000000e+03 3.815542984008789062e+01 3.025794029235839844e+01 2.292186737060546875e+00 1.186729550361633301e+00 1.043674945831298828e+00 1.754220604896545410e+00
1.969000000000000000e+03 3.683164978027343750e+01 2.933856773376464844e+01 1.890496611595153809e+00 1.159240841865539551e+00 9.149212241172790527e-01 1.395730614662170410e+00
1.970000000000000000e+03 8.340295791625976562e+00 5.431088447570800781e+00 -1.656937965890392661e-04 -9.308894368587061763e-05 -7.763482426526024938e-05 7.085482502589002252e-05
1.971000000000000000e+03 9.688556671142578125e+00 4.846657276153564453e+00 1.884306548163294792e-04 1.026660102070309222e-04 8.732899732422083616e-05 1.442914071958512068e-04
1.972000000000000000e+03 6.429538249969482422e+00 6.313349246978759766e+00 1.633427245906204917e-06 4.345877096056938171e-05 1.352765957562951371e-05 7.761591405142098665e-05
1.973000000000000000e+03 7.548350334167480469e+00 4.891555309295654297e+00 -1.557038631290197372e-04 -9.677705384092405438e-05 -7.574427581857889891e-05 -1.572905966895632446e-05
1.974000000000000000e+03 2.649316596984863281e+01 3.106456375122070312e+01 -5.392060801386833191e-02 1.900703459978103638e-02 -1.047407183796167374e-02 -3.513643145561218262e-01
1.975000000000000000e+03 2.658820533752441406e+01 3.030306434631347656e+01 2.034143730998039246e-02 1.932780630886554718e-02 1.190077327191829681e-02 -3.469382226467132568e-01
1.976000000000000000e+03 5.459406852722167969e+00 5.984670162200927734e+00 -3.689567529363557696e-05 -1.749130315147340298e-04 -6.354261131491512060e-05 1.281870499951764941e-04
1.977000000000000000e+03 6.812252521514892578e+00 4.958963394165039062e+00 1.201996274176053703e-04 1.448928233003243804e-04 7.952773739816620946e-05 5.107791730551980436e-05
1.978000000000000000e+03 9.351161003112792969e+00 -4.823601245880126953e+00 -2.340100036235526204e-04 -2.814091567415744066e-04 -1.546257408335804939e-04 1.033055377774871886e-04
1.979000000000000000e+03 8.756891250610351562e+00 -4.793312549591064453e+00 3.986738447565585375e-04 3.066590288653969765e-04 2.115998649969696999e-04 3.549905086401849985e-04
1.980000000000000000e+03 1.046317291259765625e+01 5.773675918579101562e+00 2.870951138902455568e-04 2.769531783997081220e-05 9.443713497603312135e-05 1.167328591691330075e-04
1.981000000000000000e+03 3.003875350952148438e+01 3.019545173645019531e+01 1.865720450878143311e-01 2.190638482570648193e-01 1.216907650232315063e-01 -2.415650784969329834e-01
1.982000000000000000e+03 2.863716888427734375e+01 3.025930976867675781e+01 9.218961745500564575e-02 1.458650678396224976e-01 7.141640782356262207e-02 -3.094120621681213379e-01
1.983000000000000000e+03 3.075199890136718750e+01 3.016029167175292969e+01 2.505597174167633057e-01 2.526970505714416504e-01 1.509770303964614868e-01 -1.927407681941986084e-01
1.984000000000000000e+03 3.146780776977539062e+01 3.012854194641113281e+01 3.325643539428710938e-01 2.888238728046417236e-01 1.864164620637893677e-01 -1.266515254974365234e-01
1.985000000000000000e+03 2.726023292541503906e+01 3.030388641357421875e+01 3.616625070571899414e-02 6.575110554695129395e-02 3.057520650327205658e-02 -3.413567543029785156e-01
1.986000000000000000e+03 2.933443832397460938e+01 3.023029708862304688e+01 1.319379359483718872e-01 1.813819855451583862e-01 9.399597346782684326e-02 -2.817752659320831299e-01
1.987000000000000000e+03 3.218101119995117188e+01 3.010058593750000000e+01 4.263910055160522461e-01 3.206665217876434326e-01 2.241172641515731812e-01 -5.120909214019775391e-02
1.988000000000000000e+03 5.725262641906738281e+00 -4.598207950592041016e+00 3.042875905521214008e-04 4.520660877460613847e-05 1.048482663463801146e-04 -1.885859237518161535e-04
1.989000000000000000e+03 6.389375686645507812e+00 -5.769333839416503906e+00 8.255456341430544853e-04 6.480657611973583698e-05 2.671056718099862337e-04 -2.119032869813963771e-04
1.990000000000000000e+03 3.289007186889648438e+01 3.007671546936035156e+01 5.440921783447265625e-01 3.566517531871795654e-01 2.702231705188751221e-01 4.488731920719146729e-02
1.991000000000000000e+03 9.241075515747070312e+00 8.091405868530273438e+00 -2.369759022258222103e-04 -1.600321702426299453e-04 -1.191024202853441238e-04 3.537537850206717849e-05
1.992000000000000000e+03 7.215511798858642578e+00 -7.848135471343994141e+00 -9.299310622736811638e-04 -2.316720201633870602e-04 -3.484809130895882845e-04 -2.876227663364261389e-04
1.993000000000000000e+03 8.231630325317382812e+00 -5.768077373504638672e+00 1.019231160171329975e-03 -2.663734449015464634e-05 2.977781405206769705e-04 2.507200406398624182e-04
1.994000000000000000e+03 3.496142578125000000e+01 3.060747718811035156e+01 7.518313527107238770e-01 3.722693920135498047e-01 3.372302353382110596e-01 2.880560457706451416e-01
1.995000000000000000e+03 3.690584945678710938e+01 2.988283920288085938e+01 1.775827169418334961e+00 9.042226672172546387e-01 8.040149807929992676e-01 1.199523925781250000e+00
1.996000000000000000e+03 3.359089279174804688e+01 3.005790519714355469e+01 6.761884689331054688e-01 3.931603431701660156e-01 3.208046555519104004e-01 1.531070172786712646e-01
1.997000000000000000e+03 3.356336975097656250e+01 3.068674278259277344e+01 4.235340952873229980e-01 2.979223728179931641e-01 2.164369374513626099e-01 3.437876328825950623e-02
1.998000000000000000e+03 3.428234100341796875e+01 3.003942298889160156e+01 8.363276124000549316e-01 4.452378749847412109e-01 3.844696581363677979e-01 2.877937257289886475e-01
1.999000000000000000e+03 2.578022003173828125e+01 3.095028305053710938e+01 -4.066872969269752502e-02 -2.454117499291896820e-02 -1.956297084689140320e-02 -3.449040651321411133e-01
2.000000000000000000e+03 3.495969390869140625e+01 3.001755142211914062e+01 1.020679950714111328e+00 5.075757503509521484e-01 4.584767222404479980e-01 4.483279883861541748e-01
2.001000000000000000e+03 1.140847301483154297e+01 6.784855842590332031e+00 2.955479430966079235e-04 5.208470247453078628e-05 1.042897929437458515e-04 3.579023905331268907e-05
2.002000000000000000e+03 4.532636260986328125e+01 2.965781402587890625e+01 1.788372516632080078e+00 1.448363590240478516e+01 4.881602764129638672e+00 3.384493291378021240e-01
2.003000000000000000e+03 1.249884891510009766e+01 5.552275180816650391e+00 3.028599312528967857e-04 1.928721212607342750e-05 9.664414392318576574e-05 9.192721336148679256e-06
2.004000000000000000e+03 4.369543838500976562e+01 3.759735488891601562e+01 -1.155802130699157715e+00 1.293840694427490234e+01 3.534781455993652344e+00 -1.158412933349609375e+00
2.005000000000000000e+03 8.218896865844726562e+00 1.259967613220214844e+01 -8.219706069212406874e-05 -8.396559678658377379e-06 -2.717808638408314437e-05 -9.546509681968018413e-05
2.006000000000000000e+03 1.168601703643798828e+01 -5.467904567718505859e+00 7.305878098122775555e-04 2.061060076812282205e-04 2.810081350617110729e-04 -2.546384057495743036e-04
2.007000000000000000e+03 4.778019332885742188e+01 3.073106002807617188e+01 3.622257232666015625e+00 1.228232955932617188e+01 4.771376132965087891e+00 -6.188366413116455078e-01
2.008000000000000000e+03 5.221154403686523438e+01 3.402355194091796875e+01 2.577505588531494141e+00 1.028517532348632812e+01 3.858804225921630859e+00 3.113376796245574951e-01
2.009000000000000000e+03 1.079701709747314453e+01 2.470818901062011719e+01 -9.160246117971837521e-04 -9.035522816702723503e-05 -3.019139403477311134e-04 2.542574948165565729e-04
2.010000000000000000e+03 3.721553802490234375e+00 6.315781593322753906e+00 -1.998730876948684454e-04 -1.062941082636825740e-04 -9.185016097035259008e-05 1.169551396742463112e-04
2.011000000000000000e+03 2.656498718261718750e+01 -1.950237846374511719e+01 -4.331993311643600464e-02 2.637240409851074219e+00 7.781761884689331055e-01 1.405438333749771118e-01
2.012000000000000000e+03 7.503292560577392578e+00 7.872247219085693359e+00 -1.831882545957341790e-04 -8.517015521647408605e-05 -8.050752512644976377e-05 -6.521599425468593836e-05
2.013000000000000000e+03 2.715482902526855469e+01 1.563354253768920898e+00 -7.218848913908004761e-02 2.231431007385253906e+00 6.477727890014648438e-01 5.102897882461547852e-01
2.014000000000000000e+03 2.714996337890625000e+01 2.809034824371337891e+00 -6.690084189176559448e-02 2.158367156982421875e+00 6.274398565292358398e-01 5.390579700469970703e-01
2.015000000000000000e+03 1.118761348724365234e+01 -1.024670124053955078e+01 1.005171099677681923e-03 2.863887930288910866e-04 3.874679678119719028e-04 -2.024224377237260342e-04
2.016000000000000000e+03 9.055906295776367188e+00 -9.433803558349609375e+00 1.297504350077360868e-04 3.730909957084804773e-04 1.508524292148649693e-04 6.785686127841472626e-05
2.017000000000000000e+03 9.092098236083984375e+00 1.777899932861328125e+01 2.780132344923913479e-04 7.546968845417723060e-05 1.060448703356087208e-04 -1.190373659483157098e-04
2.018000000000000000e+03 8.827842712402343750e+00 1.521321105957031250e+01 -1.918594061862677336e-04 2.502469942555762827e-05 -5.005041020922362804e-05 2.734545560088008642e-04
2.019000000000000000e+03 7.745514392852783203e+00 2.234795951843261719e+01 7.660633418709039688e-04 -2.100574783980846405e-04 1.668017648626118898e-04 -1.474237360525876284e-04
2.020000000000000000e+03 9.242310523986816406e+00 2.265112686157226562e+01 7.986808195710182190e-04 -3.145236405543982983e-05 2.301685308339074254e-04 -2.488563186489045620e-04
2.021000000000000000e+03 6.669156551361083984e+00 1.271562767028808594e+01 8.499130490235984325e-05 8.625412010587751865e-05 5.137363041285425425e-05 -1.917362096719443798e-04
2.022000000000000000e+03 2.730258560180664062e+01 -7.014896392822265625e+00 -7.120985537767410278e-02 2.543268918991088867e+00 7.416176795959472656e-01 3.319545090198516846e-01
2.023000000000000000e+03 2.763107299804687500e+01 -3.232230186462402344e+00 -8.854460716247558594e-02 2.497817993164062500e+00 7.227820158004760742e-01 4.169175028800964355e-01
2.024000000000000000e+03 1.065249443054199219e+01 -1.431892204284667969e+01 -1.169036957435309887e-03 -5.924525903537869453e-04 -5.284468643367290497e-04 3.399437409825623035e-04
2.025000000000000000e+03 6.998117065429687500e+01 -2.469759368896484375e+01 -5.040173977613449097e-02 8.381196022033691406e+00 2.499238491058349609e+00 -1.028184443712234497e-01
2.026000000000000000e+03 7.011545562744140625e+01 -3.058303833007812500e+01 -3.287036344408988953e-02 8.454372406005859375e+00 2.526450395584106445e+00 -4.463682696223258972e-02
2.027000000000000000e+03 7.112928771972656250e+01 -3.216693115234375000e+01 -2.369649335741996765e-02 8.567723274230957031e+00 2.563208103179931641e+00 -3.494837880134582520e-02
2.028000000000000000e+03 9.514095306396484375e+00 2.749938583374023438e+01 7.831663242541253567e-04 3.852641384582966566e-04 3.505291533656418324e-04 -3.045696066692471504e-04
2.029000000000000000e+03 7.188407897949218750e+01 2.620129013061523438e+01 1.557874530553817749e-01 6.546677112579345703e+00 2.010739326477050781e+00 -8.852387666702270508e-01
2.030000000000000000e+03 7.339950561523437500e+01 -2.256905746459960938e+01 -3.195475786924362183e-02 8.831183433532714844e+00 2.639768600463867188e+00 -8.797797560691833496e-02
2.031000000000000000e+03 7.170069885253906250e+01 -2.298327064514160156e+01 -4.972152039408683777e-02 8.600532531738281250e+00 2.565243244171142578e+00 -1.063496619462966919e-01
2.032000000000000000e+03 7.119587707519531250e+01 2.476629257202148438e+01 1.408899128437042236e-01 6.751613140106201172e+00 2.067750930786132812e+00 -9.627222418785095215e-01
2.033000000000000000e+03 7.124468994140625000e+01 1.669437026977539062e+01 -7.354984432458877563e-02 7.296114921569824219e+00 2.166769504547119141e+00 -1.001749992370605469e+00
2.034000000000000000e+03 7.289953613281250000e+01 1.540369415283203125e+01 -6.485162675380706787e-02 7.259047508239746094e+00 2.158258914947509766e+00 -8.628426790237426758e-01
2.035000000000000000e+03 7.323082733154296875e+01 -1.621549415588378906e+01 -4.757807403802871704e-02 8.708950042724609375e+00 2.598411798477172852e+00 -1.555002480745315552e-01
2.036000000000000000e+03 7.321620941162109375e+01 -1.745053100585937500e+01 -4.802633449435234070e-02 8.726943016052246094e+00 2.603675127029418945e+00 -1.402905285358428955e-01
2.037000000000000000e+03 7.168003845214843750e+01 9.979431152343750000e+00 -1.328334510326385498e-01 7.680816650390625000e+00 2.264394998550415039e+00 -8.136043548583984375e-01
2.038000000000000000e+03 7.285293579101562500e+01 8.605382919311523438e+00 -1.059673503041267395e-01 7.748969078063964844e+00 2.292900562286376953e+00 -7.044643759727478027e-01
2.039000000000000000e+03 7.292919158935546875e+01 -9.679097175598144531e+00 -7.264743745326995850e-02 8.542447090148925781e+00 2.540939807891845703e+00 -2.558506429195404053e-01
2.040000000000000000e+03 7.290431213378906250e+01 -1.105045509338378906e+01 -6.534026563167572021e-02 8.575222969055175781e+00 2.552964687347412109e+00 -2.305124700069427490e-01
2.041000000000000000e+03 7.266615295410156250e+01 4.105921089649200439e-02 -1.086123958230018616e-01 8.194477081298828125e+00 2.425759315490722656e+00 -4.781399965286254883e-01
2.042000000000000000e+03 7.278012084960937500e+01 -2.863417625427246094e+00 -9.757568687200546265e-02 8.320488929748535156e+00 2.466873884201049805e+00 -3.991322219371795654e-01
2.043000000000000000e+03 7.117055511474609375e+01 3.221838235855102539e+00 -1.639678180217742920e-01 8.009845733642578125e+00 2.353763341903686523e+00 -6.309587359428405762e-01
2.044000000000000000e+03 7.289450073242187500e+01 -4.250752449035644531e+00 -9.065287560224533081e-02 8.378728866577148438e+00 2.486422777175903320e+00 -3.633121252059936523e-01
2.045000000000000000e+03 7.393217468261718750e+01 5.674263000488281250e+00 -8.727656304836273193e-02 7.950345039367675781e+00 2.358920574188232422e+00 -5.590479373931884766e-01
2.046000000000000000e+03 6.965024566650390625e+01 6.317508697509765625e+00 -2.126640081405639648e-01 7.860615253448486328e+00 2.294385433197021484e+00 -7.893403172492980957e-01
2.047000000000000000e+03 4.647599411010742188e+01 3.019785308837890625e+01 3.134642362594604492e+00 1.367405319213867188e+01 5.042608737945556641e+00 -6.364209651947021484e-01
2.048000000000000000e+03 4.758351516723632812e+01 2.981317520141601562e+01 2.674670696258544922e+00 1.236702251434326172e+01 4.512507915496826172e+00 -7.789038419723510742e-01
2.049000000000000000e+03 7.431343078613281250e+01 1.269592285156250000e+01 -5.638346448540687561e-02 7.409778594970703125e+00 2.206018686294555664e+00 -6.912984848022460938e-01
2.050000000000000000e+03 8.623018264770507812e+00 3.598627090454101562e+01 1.276791794225573540e-03 -9.200925705954432487e-05 3.554347495082765818e-04 2.436160575598478317e-04
2.051000000000000000e+03 7.263830566406250000e+01 -2.649300003051757812e+01 -2.217574417591094971e-02 8.760807037353515625e+00 2.621589183807373047e+00 -6.770113855600357056e-02
2.052000000000000000e+03 7.417199707031250000e+01 1.956731605529785156e+01 -9.383839555084705353e-03 6.782430171966552734e+00 2.031913995742797852e+00 -7.827634215354919434e-01
2.053000000000000000e+03 1.129028224945068359e+01 9.155580520629882812e+00 2.984354796353727579e-04 9.740421955939382315e-05 1.187519083032384515e-04 5.306142702465876937e-05
2.054000000000000000e+03 2.641762542724609375e+01 2.674577522277832031e+01 2.769814729690551758e-01 8.742156624794006348e-02 1.093209087848663330e-01 -1.490390002727508545e-01
2.055000000000000000e+03 2.545097732543945312e+01 2.560305023193359375e+01 2.263432741165161133e-01 -1.459869276732206345e-02 6.352337449789047241e-02 -9.098479151725769043e-02
2.056000000000000000e+03 8.826540946960449219e+00 -1.845820236206054688e+01 1.944189891219139099e-03 -1.117622829042375088e-03 2.479701361153274775e-04 -4.168120794929563999e-04
2.057000000000000000e+03 1.050605201721191406e+01 -1.686390304565429688e+01 -1.505203661508858204e-03 -5.066981539130210876e-04 -6.035705446265637875e-04 7.174298516474664211e-04
2.058000000000000000e+03 2.853044700622558594e+01 1.624817657470703125e+01 1.677530556917190552e-01 1.555205345153808594e+00 5.168875455856323242e-01 7.894285917282104492e-01
2.059000000000000000e+03 9.514298439025878906e+00 -1.997856140136718750e+01 1.297683105804026127e-03 -8.515006629750132561e-04 1.338547153864055872e-04 -6.464934558607637882e-04
2.060000000000000000e+03 2.719573020935058594e+01 8.174100875854492188e+00 -4.329046607017517090e-02 1.850836277008056641e+00 5.422637462615966797e-01 6.648725867271423340e-01
2.061000000000000000e+03 2.718165016174316406e+01 1.096752643585205078e+01 -8.407579734921455383e-03 1.644224166870117188e+00 4.907449781894683838e-01 6.979490518569946289e-01
2.062000000000000000e+03 2.598877143859863281e+01 9.725075721740722656e+00 -1.431590877473354340e-02 1.431014180183410645e+00 4.250094592571258545e-01 5.951821804046630859e-01
2.063000000000000000e+03 2.597768783569335938e+01 1.255402278900146484e+01 2.063156105577945709e-02 1.186940670013427734e+00 3.622716665267944336e-01 6.011622548103332520e-01
2.064000000000000000e+03 2.966259765625000000e+01 7.848470211029052734e+00 -1.002499312162399292e-01 2.500570058822631836e+00 7.200959920883178711e-01 7.960826754570007324e-01
2.065000000000000000e+03 9.928653717041015625e+00 2.107367134094238281e+01 3.764133143704384565e-04 7.242593710543587804e-05 1.346517819911241531e-04 -4.337253340054303408e-04
2.066000000000000000e+03 6.056455135345458984e+00 -8.966782569885253906e+00 -1.036354689858853817e-03 -1.962839451152831316e-04 -3.697915817610919476e-04 -1.986080169444903731e-04
2.067000000000000000e+03 4.952266216278076172e+00 -8.982151031494140625e+00 1.086399191990494728e-03 1.817249431042000651e-04 3.804372681770473719e-04 2.952147624455392361e-04
2.068000000000000000e+03 2.599845504760742188e+01 1.538063335418701172e+01 8.132318407297134399e-02 9.329319596290588379e-01 3.042765259742736816e-01 5.691140294075012207e-01
2.069000000000000000e+03 2.717821502685546875e+01 1.376694774627685547e+01 5.448141321539878845e-02 1.409233093261718750e+00 4.391143620014190674e-01 6.995575428009033203e-01
2.070000000000000000e+03 7.164227008819580078e+00 2.480540084838867188e+01 4.363139742054045200e-04 1.946172706084325910e-04 1.892793661681935191e-04 9.593805589247494936e-05
2.071000000000000000e+03 6.986736774444580078e+00 -1.665872955322265625e+01 -6.448904168792068958e-04 -1.016780035570263863e-03 -4.985011764802038670e-04 -5.027978331781923771e-04
2.072000000000000000e+03 8.173733711242675781e+00 -2.759103202819824219e+01 6.174031295813620090e-04 1.454406068660318851e-03 6.215427420102059841e-04 1.502632512710988522e-04
2.073000000000000000e+03 5.697383880615234375e+00 -2.389217758178710938e+01 -1.981717068701982498e-03 -1.211598748341202736e-03 -9.579947218298912048e-04 8.448841253994032741e-05
2.074000000000000000e+03 8.140377044677734375e+00 2.771368789672851562e+01 -9.894259274005889893e-04 -1.446892420062795281e-04 -3.402345464564859867e-04 2.091354981530457735e-04
2.075000000000000000e+03 6.313599109649658203e+00 2.884992027282714844e+01 2.742727228906005621e-04 2.022244734689593315e-04 1.429491676390171051e-04 -4.973418544977903366e-04
2.076000000000000000e+03 6.087610244750976562e+00 1.952112388610839844e+01 2.795394102577120066e-04 -4.065585089847445488e-04 -3.810572889051400125e-05 -1.861454366007819772e-04
2.077000000000000000e+03 5.886976718902587891e+00 1.605551147460937500e+01 3.152446006424725056e-04 1.212233473779633641e-05 9.821007552091032267e-05 -1.865124067990109324e-04
2.078000000000000000e+03 1.068511581420898438e+01 -2.239139556884765625e+01 9.907493367791175842e-04 -3.594996524043381214e-04 1.893748994916677475e-04 1.525528263300657272e-03
2.079000000000000000e+03 1.158937835693359375e+01 -2.310104370117187500e+01 -1.675509847700595856e-03 -3.053001710213720798e-04 -5.942429997958242893e-04 -1.454003970138728619e-03
2.080000000000000000e+03 7.021321296691894531e+00 2.058403205871582031e+01 1.669801567913964391e-04 2.847241412382572889e-04 1.355112908640876412e-04 -1.593684428371489048e-04
2.081000000000000000e+03 6.644977569580078125e+00 1.995673179626464844e+01 -8.949707989813759923e-05 1.252217771252617240e-04 1.071741189662134275e-05 4.348032816778868437e-04
2.082000000000000000e+03 6.463476181030273438e+00 1.427274131774902344e+01 1.782799517968669534e-04 5.129641795065253973e-05 6.887291237944737077e-05 -1.393285347148776054e-04
2.083000000000000000e+03 7.071533679962158203e+00 1.517651939392089844e+01 -2.614686382003128529e-04 2.514951484045013785e-05 -7.089573773555457592e-05 1.808944944059476256e-04
2.084000000000000000e+03 5.809453487396240234e+00 -2.028405570983886719e+01 2.709201071411371231e-03 -3.642962838057428598e-04 7.034714217297732830e-04 2.526331227272748947e-04
2.085000000000000000e+03 8.382081985473632812e+00 -1.943577766418457031e+01 -1.461650012060999870e-03 4.100166552234441042e-04 -3.154900041408836842e-04 2.528968616388738155e-05
2.086000000000000000e+03 2.759325981140136719e+01 -1.492972469329833984e+01 -4.821322858333587646e-02 2.719239473342895508e+00 8.013078570365905762e-01 1.900332868099212646e-01
2.087000000000000000e+03 2.729591751098632812e+01 -9.575324058532714844e+00 -5.747852474451065063e-02 2.588879346847534180e+00 7.594202160835266113e-01 2.858760952949523926e-01
2.088000000000000000e+03 2.734722137451171875e+01 2.190588569641113281e+01 3.638038337230682373e-01 6.281884908676147461e-01 2.975977063179016113e-01 3.637676537036895752e-01
2.089000000000000000e+03 6.416637420654296875e+00 -1.426834392547607422e+01 -1.866494072601199150e-03 2.671782931429333985e-05 -5.519328406080603600e-04 -7.542332168668508530e-04
2.090000000000000000e+03 3.010651588439941406e+01 2.944761848449707031e+01 3.402408063411712646e-01 2.724096775054931641e-01 1.837951391935348511e-01 -1.735593527555465698e-01
2.091000000000000000e+03 1.060429954528808594e+01 -2.768052673339843750e+01 2.493367996066808701e-03 9.722171234898269176e-04 1.039675553329288960e-03 -5.460719112306833267e-04
2.092000000000000000e+03 8.222493171691894531e+00 9.034489631652832031e+00 -1.659892150200903416e-04 -1.781552564352750778e-04 -1.032433356158435345e-04 -2.138275158358737826e-05
2.093000000000000000e+03 4.873508453369140625e+00 7.314998626708984375e+00 -1.587780279805883765e-04 -1.346931530861184001e-04 -8.804134995443746448e-05 1.134031117544509470e-04
2.094000000000000000e+03 6.170955657958984375e+00 8.551003456115722656e+00 -1.846595259848982096e-04 -1.606723380973562598e-04 -1.035995592246763408e-04 1.756554411258548498e-06
2.095000000000000000e+03 1.000058174133300781e+01 1.278812885284423828e+01 2.448090526740998030e-04 2.036907681031152606e-04 1.345499476883560419e-04 -7.163474947446957231e-05
2.096000000000000000e+03 5.243441104888916016e+00 -1.302950191497802734e+01 -1.402578200213611126e-03 -2.537462278269231319e-04 -4.968973225913941860e-04 -4.967512213625013828e-04
2.097000000000000000e+03 6.419377803802490234e+00 -1.295807552337646484e+01 1.190712326206266880e-03 4.597516672220081091e-04 4.951392184011638165e-04 5.825412226840853691e-04
2.098000000000000000e+03 7.227211952209472656e+00 8.815538406372070312e+00 1.508970308350399137e-04 1.721339358482509851e-04 9.690928709460422397e-05 3.260352605138905346e-05
2.099000000000000000e+03 6.049185752868652344e+00 -7.697484493255615234e+00 9.891992667689919472e-04 1.825993240345269442e-04 3.515396092552691698e-04 1.491334696765989065e-04
2.100000000000000000e+03 6.254471302032470703e+00 -6.644649505615234375e+00 -1.127675524912774563e-03 1.255048555321991444e-04 -3.006511833518743515e-04 1.144060297519899905e-04
2.101000000000000000e+03 2.827860069274902344e+01 -1.888405799865722656e+01 -6.116928532719612122e-02 2.867758035659790039e+00 8.419766426086425781e-01 1.516092270612716675e-01
2.102000000000000000e+03 2.718923950195312500e+01 6.804419517517089844e+00 -5.202419683337211609e-02 1.937984228134155273e+00 5.657880306243896484e-01 6.386137604713439941e-01
2.103000000000000000e+03 2.596690177917480469e+01 -1.514324951171875000e+01 -2.909461222589015961e-02 2.478056192398071289e+00 7.346885204315185547e-01 1.726820319890975952e-01
2.104000000000000000e+03 2.715594863891601562e+01 4.227273464202880859e-01 -6.868079304695129395e-02 2.276098489761352539e+00 6.622253656387329102e-01 4.878656268119812012e-01
2.105000000000000000e+03 2.838825416564941406e+01 5.352288722991943359e+00 -8.846300840377807617e-02 2.306692123413085938e+00 6.654687523841857910e-01 6.692569255828857422e-01
2.106000000000000000e+03 9.566561698913574219e+00 1.613220977783203125e+01 3.172803553752601147e-04 -6.944853521417826414e-05 7.434954750351607800e-05 -2.722282079048454762e-04
2.107000000000000000e+03 1.076610851287841797e+01 -3.146528053283691406e+01 -1.059123687446117401e-02 -1.840369543060660362e-03 -3.729481948539614677e-03 3.891630331054329872e-03
2.108000000000000000e+03 1.165229511260986328e+01 -3.255289840698242188e+01 -1.022235583513975143e-02 -1.699356944300234318e-03 -3.576513845473527908e-03 5.854627583175897598e-03
2.109000000000000000e+03 4.184671401977539062e+01 4.146152114868164062e+01 -4.688770771026611328e-01 8.449833869934082031e+00 2.394287109375000000e+00 -4.644387364387512207e-01
2.110000000000000000e+03 1.100995731353759766e+01 3.074693107604980469e+01 1.524962601251900196e-03 -5.419896915555000305e-04 2.948918845504522324e-04 2.008552401093766093e-04
2.111000000000000000e+03 2.673225593566894531e+01 -2.116118431091308594e+01 -5.457816272974014282e-02 2.674381256103515625e+00 7.859408855438232422e-01 1.241358369588851929e-01
2.112000000000000000e+03 2.469525527954101562e+01 -2.422320938110351562e+01 -2.478620409965515137e-02 2.407608747482299805e+00 7.148467898368835449e-01 1.026053503155708313e-01
2.113000000000000000e+03 1.046454238891601562e+01 2.215444946289062500e+01 -7.710083737038075924e-04 -8.310696284752339125e-05 -2.562346053309738636e-04 2.941228158306330442e-04
2.114000000000000000e+03 2.626707458496093750e+01 1.990230941772460938e+01 2.372186332941055298e-01 5.750081539154052734e-01 2.436680346727371216e-01 4.115122258663177490e-01
2.115000000000000000e+03 4.456287765502929688e+01 4.023846435546875000e+01 -1.333157181739807129e+00 1.219990825653076172e+01 3.260025501251220703e+00 -2.330568134784698486e-01
2.116000000000000000e+03 2.424231529235839844e+01 -2.839056968688964844e+01 -6.173403933644294739e-03 2.379742383956909180e+00 7.120707035064697266e-01 7.678856700658798218e-02
2.117000000000000000e+03 2.604727172851562500e+01 -2.739529609680175781e+01 -1.661018468439579010e-02 2.589379549026489258e+00 7.718307971954345703e-01 9.610538929700851440e-02
2.118000000000000000e+03 1.164139938354492188e+01 -6.639116287231445312e+00 -9.798483224585652351e-04 -1.576638023834675550e-04 -3.412536461837589741e-04 3.043585456907749176e-04
2.119000000000000000e+03 9.443552970886230469e+00 -6.626094818115234375e+00 9.142895578406751156e-04 1.821550249587744474e-04 3.289333835709840059e-04 -1.010123378364369273e-04
2.120000000000000000e+03 9.671451568603515625e+00 2.888467025756835938e+01 -7.935441099107265472e-04 -5.062484415248036385e-04 -3.899377479683607817e-04 3.022205492015928030e-04
2.121000000000000000e+03 7.311016082763671875e+01 -1.499361991882324219e+01 -4.830070585012435913e-02 8.675432205200195312e+00 2.588139533996582031e+00 -1.724612861871719360e-01
2.122000000000000000e+03 9.394524574279785156e+00 -3.544181442260742188e+01 -1.861725561320781708e-02 7.762691006064414978e-03 -3.256369382143020630e-03 -5.905299447476863861e-03
2.123000000000000000e+03 7.295552825927734375e+01 -8.315723419189453125e+00 -7.362423092126846313e-02 8.508890151977539062e+00 2.530579805374145508e+00 -2.785307466983795166e-01
2.124000000000000000e+03 2.684600067138671875e+01 -5.786258578300476074e-01 -6.713745743036270142e-02 2.237408876419067383e+00 6.510813832283020020e-01 4.435057044029235840e-01
2.125000000000000000e+03 1.084355163574218750e+01 3.583944320678710938e+01 -1.245582592673599720e-03 3.429374191910028458e-04 -2.707935636863112450e-04 -2.870437747333198786e-04
2.126000000000000000e+03 1.076792907714843750e+01 3.397189712524414062e+01 5.278261378407478333e-04 -4.703548911493271589e-04 1.724136927805375308e-05 1.068826648406684399e-03
2.127000000000000000e+03 1.584289932250976562e+01 3.891085052490234375e+01 4.199367482215166092e-03 1.254002214409410954e-03 1.636010943911969662e-03 -5.756948143243789673e-03
2.128000000000000000e+03 8.566929817199707031e+00 3.857592773437500000e+01 -1.043357187882065773e-03 5.611690576188266277e-04 -1.446564274374395609e-04 -7.895472808741033077e-04
2.129000000000000000e+03 7.267594146728515625e+01 7.229363918304443359e+00 -1.176434084773063660e-01 7.833322525024414062e+00 2.314703702926635742e+00 -6.762560606002807617e-01
2.130000000000000000e+03 9.755202293395996094e+00 -1.131920146942138672e+01 8.357492624782025814e-04 5.488042370416224003e-04 4.153660556767135859e-04 -4.006882663816213608e-04
2.131000000000000000e+03 9.361746788024902344e+00 -1.415284347534179688e+01 1.315759494900703430e-03 4.332994576543569565e-04 5.247176741249859333e-04 -1.990403834497556090e-04
2.132000000000000000e+03 4.045166397094726562e+01 3.092394065856933594e+01 3.940337419509887695e+00 2.841661930084228516e+00 2.034599781036376953e+00 3.868446826934814453e+00
2.133000000000000000e+03 4.188008880615234375e+01 3.038732147216796875e+01 3.327889442443847656e+00 8.849955558776855469e+00 3.653353452682495117e+00 5.947230815887451172e+00
2.134000000000000000e+03 3.870256805419921875e+01 3.019110107421875000e+01 2.670547008514404297e+00 1.543352603912353516e+00 1.264169812202453613e+00 2.233245372772216797e+00
2.135000000000000000e+03 3.926153945922851562e+01 3.072835922241210938e+01 2.902448654174804688e+00 1.449654459953308105e+00 1.305630922317504883e+00 2.363055944442749023e+00
2.136000000000000000e+03 4.137133407592773438e+01 3.080735969543457031e+01 4.295458793640136719e+00 5.945892333984375000e+00 3.072405338287353516e+00 5.676701068878173828e+00
2.137000000000000000e+03 3.988695144653320312e+01 3.109025764465332031e+01 3.329562902450561523e+00 1.636255979537963867e+00 1.489745616912841797e+00 2.784903526306152344e+00
2.138000000000000000e+03 4.184050750732421875e+01 3.084277343750000000e+01 4.088085651397705078e+00 8.200821876525878906e+00 3.686672210693359375e+00 6.454993724822998047e+00
2.139000000000000000e+03 3.741128158569335938e+01 2.925144386291503906e+01 2.132583379745483398e+00 1.450525999069213867e+00 1.074932813644409180e+00 1.748583793640136719e+00
2.140000000000000000e+03 3.559640884399414062e+01 2.941623878479003906e+01 1.427058815956115723e+00 7.877026200294494629e-01 6.644284129142761230e-01 8.298686146736145020e-01
2.141000000000000000e+03 4.188287353515625000e+01 2.904742050170898438e+01 1.985068321228027344e+00 8.883906364440917969e+00 3.260692596435546875e+00 4.742115020751953125e+00
2.142000000000000000e+03 7.852592468261718750e+00 7.009701251983642578e+00 2.717598981689661741e-04 -2.255602112199994735e-06 8.085128501988947392e-05 8.331785647897049785e-05
2.143000000000000000e+03 6.140666961669921875e+00 5.729817867279052734e+00 1.474748387408908457e-05 2.011745673371478915e-04 6.477661372628062963e-05 -4.839029861614108086e-05
2.144000000000000000e+03 2.729642677307128906e+01 2.862909126281738281e+01 2.197952270507812500e-01 1.080685257911682129e-01 9.835912287235260010e-02 -2.566116750240325928e-01
2.145000000000000000e+03 2.592412948608398438e+01 2.962809753417968750e+01 6.077044457197189331e-02 -3.033767454326152802e-02 9.129831567406654358e-03 -3.284001052379608154e-01
2.146000000000000000e+03 7.030897617340087891e+00 6.730848312377929688e+00 -1.241758000105619431e-04 -8.144511230057105422e-05 -6.168627442093566060e-05 -9.797098027775064111e-05
2.147000000000000000e+03 3.081700897216796875e+01 2.944545936584472656e+01 4.204820096492767334e-01 3.187800645828247070e-01 2.217786163091659546e-01 -1.098506227135658264e-01
2.148000000000000000e+03 3.152647209167480469e+01 2.944088745117187500e+01 5.104067325592041016e-01 3.636823296546936035e-01 2.622267305850982666e-01 -3.582556918263435364e-02
2.149000000000000000e+03 2.940317916870117188e+01 2.944741058349609375e+01 2.772992253303527832e-01 2.280369251966476440e-01 1.516008377075195312e-01 -2.205359190702438354e-01
2.150000000000000000e+03 2.794407272338867188e+01 3.028239250183105469e+01 6.084169819951057434e-02 1.051228791475296021e-01 4.978937283158302307e-02 -3.300259113311767578e-01
2.151000000000000000e+03 2.648543930053710938e+01 2.562272834777832031e+01 3.125885725021362305e-01 1.542481929063796997e-01 1.400510370731353760e-01 -4.410345107316970825e-02
2.152000000000000000e+03 3.100207328796386719e+01 2.804569053649902344e+01 6.847440600395202637e-01 4.990847408771514893e-01 3.551486432552337646e-01 1.054528504610061646e-01
2.153000000000000000e+03 3.562443923950195312e+01 2.998838233947753906e+01 1.237705469131469727e+00 5.988155007362365723e-01 5.509563088417053223e-01 6.456708908081054688e-01
2.154000000000000000e+03 3.555819702148437500e+01 2.884366416931152344e+01 1.544403553009033203e+00 9.918377399444580078e-01 7.608723640441894531e-01 9.944714307785034180e-01
2.155000000000000000e+03 2.870260620117187500e+01 2.945040321350097656e+01 2.201632261276245117e-01 1.809992939233779907e-01 1.203487589955329895e-01 -2.587809264659881592e-01
2.156000000000000000e+03 1.031413555145263672e+01 6.801547527313232422e+00 -3.041190793737769127e-04 -3.400270725251175463e-05 -1.014365334413014352e-04 -6.792831118218600750e-05
2.157000000000000000e+03 8.305506706237792969e+00 -1.006944847106933594e+01 1.031322171911597252e-03 2.017196529777720571e-04 3.699125372804701328e-04 8.290655387099832296e-05
2.158000000000000000e+03 3.222845077514648438e+01 2.943538093566894531e+01 6.201081275939941406e-01 4.101913273334503174e-01 3.090898394584655762e-01 5.861496925354003906e-02
2.159000000000000000e+03 1.070419216156005859e+01 -7.740993022918701172e+00 -9.268706780858337879e-04 -4.133719994570128620e-05 -2.904623688664287329e-04 4.993848415324464440e-05
2.160000000000000000e+03 8.978068351745605469e+00 -5.426165580749511719e+00 -1.532040041638538241e-04 -1.137159852078184485e-04 -8.007599535631015897e-05 -4.588476731441915035e-04
2.161000000000000000e+03 3.361578750610351562e+01 2.942988967895507812e+01 8.871742486953735352e-01 5.130688548088073730e-01 4.200729429721832275e-01 2.943579852581024170e-01
2.162000000000000000e+03 3.494834899902343750e+01 2.942813873291015625e+01 1.224453806877136230e+00 6.685002446174621582e-01 5.678862333297729492e-01 6.159718632698059082e-01
2.163000000000000000e+03 1.144815158843994141e+01 5.724395275115966797e+00 -3.015723486896604300e-04 -2.305287489434704185e-05 -9.738756489241495728e-05 -4.091748996870592237e-05
2.164000000000000000e+03 1.135295009613037109e+01 7.937171936035156250e+00 -2.926081651821732521e-04 -8.043768320931121707e-05 -1.119137523346580565e-04 -4.751862434204667807e-05
2.165000000000000000e+03 4.626046371459960938e+01 2.933484649658203125e+01 1.904329299926757812e+00 1.347616958618164062e+01 4.614149570465087891e+00 -2.681262493133544922e-01
2.166000000000000000e+03 8.778324127197265625e+00 1.146106910705566406e+01 1.947739510796964169e-04 1.832546258810907602e-04 1.134085759986191988e-04 6.906839189468882978e-06
2.167000000000000000e+03 7.376924037933349609e+00 1.349859142303466797e+01 -1.105648407246917486e-04 -2.611845047795213759e-05 -4.100498699699528515e-05 1.693655794952064753e-04
2.168000000000000000e+03 9.813275337219238281e+00 1.440174579620361328e+01 3.398018452571704984e-05 6.849699275335296988e-05 3.074315100093372166e-05 -2.959314733743667603e-04
2.169000000000000000e+03 7.446972370147705078e+00 1.773151397705078125e+01 4.287794581614434719e-05 2.415501876384951174e-05 2.010989010159391910e-05 -1.886289828689768910e-04
2.170000000000000000e+03 8.094655990600585938e+00 -1.588706874847412109e+01 5.360768409445881844e-04 9.758498636074364185e-04 4.535780171863734722e-04 4.602723493007943034e-05
2.171000000000000000e+03 8.531106948852539062e+00 -1.126490116119384766e+01 -7.044530939310789108e-04 -6.474351976066827774e-04 -4.055665049236267805e-04 8.583393355365842581e-05
2.172000000000000000e+03 1.021850204467773438e+01 9.153245925903320312e+00 -2.957991091534495354e-04 -1.138913357863202691e-04 -1.229071349371224642e-04 -2.760125062195584178e-05
2.173000000000000000e+03 2.962169647216796875e+01 5.245563983917236328e+00 -1.238913685083389282e-01 2.606679201126098633e+00 7.448363304138183594e-01 7.295385003089904785e-01
2.174000000000000000e+03 7.304926300048828125e+01 1.264382839202880859e+01 -8.859844505786895752e-02 7.464041233062744141e+00 2.212632894515991211e+00 -7.926610708236694336e-01
2.175000000000000000e+03 7.300262451171875000e+01 1.401468086242675781e+01 -7.367558032274246216e-02 7.363491058349609375e+00 2.186944484710693359e+00 -8.253296613693237305e-01
2.176000000000000000e+03 6.056549549102783203e+00 9.604186058044433594e+00 2.143182500731199980e-04 1.307536585954949260e-04 1.035215755109675229e-04 5.520759441424161196e-05
2.177000000000000000e+03 9.916165351867675781e+00 1.161759471893310547e+01 -2.802605158649384975e-04 -2.156084665330126882e-04 -1.487606932641938329e-04 2.735002453846391290e-05
2.178000000000000000e+03 5.004153442382812500e+01 2.990153312683105469e+01 2.623697280883789062e+00 1.086091041564941406e+01 4.045382022857666016e+00 -8.531104326248168945e-01
2.179000000000000000e+03 1.161609363555908203e+01 -7.813183784484863281e+00 1.087403041310608387e-03 7.384231867035850883e-05 3.483736072666943073e-04 -2.404397237114608288e-04
2.180000000000000000e+03 1.004014015197753906e+01 -9.951102256774902344e+00 -6.600637570954859257e-04 -4.140055098105221987e-04 -3.222207596991211176e-04 2.162115561077371240e-04
2.181000000000000000e+03 6.645253181457519531e+00 1.862459182739257812e+01 -2.266163392050657421e-05 1.128088551922701299e-04 2.704416692722588778e-05 1.148065639426931739e-04
2.182000000000000000e+03 9.618699073791503906e+00 1.867911148071289062e+01 -2.762970398180186749e-04 -1.989233132917433977e-04 -1.425661030225455761e-04 3.634390668594278395e-05
2.183000000000000000e+03 7.185838317871093750e+01 4.459326744079589844e+00 -1.407379806041717529e-01 7.969757556915283203e+00 2.348706007003784180e+00 -6.353183388710021973e-01
2.184000000000000000e+03 7.281734466552734375e+01 -2.021653747558593750e+01 -4.095789045095443726e-02 8.728140830993652344e+00 2.606154918670654297e+00 -1.191000938415527344e-01
2.185000000000000000e+03 7.311944580078125000e+01 2.692652940750122070e+00 -9.433618932962417603e-02 8.095154762268066406e+00 2.400245428085327148e+00 -5.193589925765991211e-01
2.186000000000000000e+03 7.177423858642578125e+01 1.649920940399169922e+00 -1.327123939990997314e-01 8.084822654724121094e+00 2.385633230209350586e+00 -5.600925087928771973e-01
2.187000000000000000e+03 7.260147094726562500e+01 -1.431996703147888184e+00 -1.115994751453399658e-01 8.250065803527832031e+00 2.441540002822875977e+00 -4.443368315696716309e-01
2.188000000000000000e+03 7.163053894042968750e+01 -4.464126586914062500e+00 -1.163784638047218323e-01 8.284825325012207031e+00 2.450534105300903320e+00 -3.953995108604431152e-01
2.189000000000000000e+03 9.431004524230957031e+00 -8.315229415893554688e+00 -2.512146602384746075e-04 -4.960194928571581841e-04 -2.241702313767746091e-04 2.085104142679483630e-06
2.190000000000000000e+03 3.084733390808105469e+01 -1.833703613281250000e+01 -8.660293370485305786e-02 3.216116905212402344e+00 9.388542175292968750e-01 1.780885010957717896e-01
2.191000000000000000e+03 2.778952789306640625e+01 -1.764801979064941406e+01 -5.655869841575622559e-02 2.758697271347045898e+00 8.106415271759033203e-01 1.682630628347396851e-01
2.192000000000000000e+03 7.017710113525390625e+01 2.369633293151855469e+01 1.210280507802963257e-01 6.996298789978027344e+00 2.135198116302490234e+00 -1.057392716407775879e+00
2.193000000000000000e+03 6.250976085662841797e+00 -1.156750488281250000e+01 -1.086550415493547916e-03 -4.004338989034295082e-04 -4.460952768567949533e-04 -4.000061599072068930e-04
2.194000000000000000e+03 7.185018157958984375e+01 -2.518657302856445312e+01 -4.168899729847908020e-02 8.656213760375976562e+00 2.584357500076293945e+00 -8.642265200614929199e-02
2.195000000000000000e+03 7.241515350341796875e+01 5.803251266479492188e+00 -1.227384656667709351e-01 7.914412021636962891e+00 2.337502002716064453e+00 -6.503762602806091309e-01
2.196000000000000000e+03 7.065654754638671875e+01 1.996463298797607422e+00 -1.767078638076782227e-01 8.031005859375000000e+00 2.356289386749267578e+00 -6.107317209243774414e-01
2.197000000000000000e+03 9.962270736694335938e+00 -1.900299644470214844e+01 -1.714852172881364822e-03 5.274362047202885151e-04 -3.562248020898550749e-04 3.673761093523353338e-04
2.198000000000000000e+03 8.664447784423828125e+00 -2.199169540405273438e+01 2.651262795552611351e-03 -3.026020749530289322e-05 7.863007485866546631e-04 -1.441339729353785515e-03
2.199000000000000000e+03 7.296579742431640625e+01 -6.963905811309814453e+00 -7.908632606267929077e-02 8.471495628356933594e+00 2.517722606658935547e+00 -3.056802749633789062e-01
2.200000000000000000e+03 7.212931060791015625e+01 -1.725307273864746094e+01 -5.354880169034004211e-02 8.596953392028808594e+00 2.563021421432495117e+00 -1.600816398859024048e-01
2.201000000000000000e+03 7.179134368896484375e+01 2.077287483215332031e+01 2.346400171518325806e-02 6.944042682647705078e+00 2.090252161026000977e+00 -9.882838726043701172e-01
2.202000000000000000e+03 7.123772430419921875e+01 1.820137977600097656e+01 -3.806957975029945374e-02 7.197525978088378906e+00 2.147836923599243164e+00 -1.019066333770751953e+00
2.203000000000000000e+03 7.161301422119140625e+01 -9.725015640258789062e+00 -9.472837299108505249e-02 8.408073425292968750e+00 2.494003295898437500e+00 -2.819451093673706055e-01
2.204000000000000000e+03 7.177452850341796875e+01 1.126615428924560547e+01 -1.277007162570953369e-01 7.601642131805419922e+00 2.242182254791259766e+00 -8.434162139892578125e-01
2.205000000000000000e+03 7.145514678955078125e+01 -3.166730165481567383e+00 -1.290072798728942871e-01 8.234967231750488281e+00 2.431787967681884766e+00 -4.336597025394439697e-01
2.206000000000000000e+03 2.719128608703613281e+01 9.563452720642089844e+00 -2.846091054379940033e-02 1.753326416015625000e+00 5.174596309661865234e-01 6.870933175086975098e-01
2.207000000000000000e+03 2.720616531372070312e+01 1.516744899749755859e+01 9.570530056953430176e-02 1.289639830589294434e+00 4.156035482883453369e-01 6.841287016868591309e-01
2.208000000000000000e+03 7.519140720367431641e+00 2.375484085083007812e+01 -2.327367983525618911e-04 -4.642130079446360469e-05 -8.374742901651188731e-05 -2.354517346248030663e-04
2.209000000000000000e+03 2.772351455688476562e+01 1.952898979187011719e+01 3.047276437282562256e-01 9.792406558990478516e-01 3.851904869079589844e-01 5.723085403442382812e-01
2.210000000000000000e+03 2.985262107849121094e+01 2.700388526916503906e+01 6.241160631179809570e-01 4.952086508274078369e-01 3.357973992824554443e-01 1.004959344863891602e-01
2.211000000000000000e+03 2.954377174377441406e+01 1.193527698516845703e+01 -1.259081624448299408e-02 2.223046302795410156e+00 6.631366610527038574e-01 8.845269680023193359e-01
2.212000000000000000e+03 3.034420204162597656e+01 1.824390220642089844e+01 3.382209241390228271e-01 1.883226394653320312e+00 6.664341688156127930e-01 9.394868612289428711e-01
2.213000000000000000e+03 9.281181335449218750e+00 -1.760555839538574219e+01 -1.645043143071234226e-03 4.737589624710381031e-04 -3.513852425385266542e-04 7.471897406503558159e-04
2.214000000000000000e+03 2.909205436706542969e+01 1.886545372009277344e+01 3.422298431396484375e-01 1.440893530845642090e+00 5.349370241165161133e-01 7.734048366546630859e-01
2.215000000000000000e+03 2.744091987609863281e+01 1.803673553466796875e+01 2.109304070472717285e-01 1.063653349876403809e+00 3.823751211166381836e-01 6.175393462181091309e-01
2.216000000000000000e+03 7.298004913330078125e+01 -1.373267173767089844e+01 -4.919900000095367432e-02 8.639442443847656250e+00 2.577073097229003906e+00 -1.887890398502349854e-01
2.217000000000000000e+03 7.070727825164794922e+00 -2.497642898559570312e+01 -2.413438865914940834e-03 -1.190838054753839970e-03 -1.081283087842166424e-03 -7.448912947438657284e-05
2.218000000000000000e+03 6.900483608245849609e+00 -2.883485794067382812e+01 8.743138168938457966e-04 9.797749808058142662e-04 5.562266451306641102e-04 1.114609767682850361e-03
2.219000000000000000e+03 8.457706451416015625e+00 1.690546989440917969e+01 -2.027998707490041852e-04 1.535986120870802552e-05 -5.623200559057295322e-05 2.403877151664346457e-04
2.220000000000000000e+03 7.855507373809814453e+00 1.999995040893554688e+01 -1.775347336661070585e-04 -2.072331262752413750e-04 -1.154303608927875757e-04 1.696905383141711354e-04
2.221000000000000000e+03 7.010056018829345703e+00 -2.029731559753417969e+01 -2.189360791817307472e-03 -5.410522571764886379e-04 -8.191239321604371071e-04 -7.135639316402375698e-04
2.222000000000000000e+03 9.291540145874023438e+00 -1.552775096893310547e+01 -1.292042084969580173e-03 -8.159967837855219841e-04 -6.324116839095950127e-04 3.073440748266875744e-04
2.223000000000000000e+03 2.650708389282226562e+01 2.869790077209472656e+01 1.659837812185287476e-01 3.308947384357452393e-02 5.972197651863098145e-02 -2.827424407005310059e-01
2.224000000000000000e+03 2.729348373413085938e+01 2.948544502258300781e+01 1.316278129816055298e-01 8.097068965435028076e-02 6.377954781055450439e-02 -3.091481328010559082e-01
2.225000000000000000e+03 2.837365341186523438e+01 1.352577781677246094e+01 4.926938563585281372e-02 1.765797615051269531e+00 5.445200800895690918e-01 8.037453889846801758e-01
2.226000000000000000e+03 2.746107673645019531e+01 -4.481089115142822266e+00 -7.960783690214157104e-02 2.500814437866210938e+00 7.263619303703308105e-01 3.818821907043457031e-01
2.227000000000000000e+03 2.930671310424804688e+01 -2.115630388259887695e+00 -1.306682080030441284e-01 2.780709505081176758e+00 7.950124144554138184e-01 4.850352406501770020e-01
2.228000000000000000e+03 1.100571823120117188e+01 -2.396076202392578125e+01 -7.119760848581790924e-04 -1.477645942941308022e-03 -6.568866083398461342e-04 3.504635533317923546e-04
2.229000000000000000e+03 9.808160781860351562e+00 -2.159799385070800781e+01 -1.034864108078181744e-03 -1.000788761302828789e-03 -6.106958608143031597e-04 -1.228470704518258572e-03
2.230000000000000000e+03 7.174214935302734375e+01 1.388281345367431641e+01 -1.068606078624725342e-01 7.442010879516601562e+00 2.200545072555541992e+00 -9.112496972084045410e-01
2.231000000000000000e+03 7.180239105224609375e+01 1.256063652038574219e+01 -1.128567606210708618e-01 7.523448467254638672e+00 2.223177433013916016e+00 -8.743293881416320801e-01
2.232000000000000000e+03 9.638130187988281250e+00 -2.495689964294433594e+01 -1.682023517787456512e-03 -1.813886221498250961e-03 -1.048772945068776608e-03 1.074303057976067066e-03
2.233000000000000000e+03 9.574743270874023438e+00 -5.799451828002929688e+00 -8.119569974951446056e-04 2.483795105945318937e-04 -1.690732460701838136e-04 2.390794252278283238e-04
2.234000000000000000e+03 8.414449691772460938e+00 -6.800673961639404297e+00 -8.950285264290869236e-04 -2.689525135792791843e-04 -3.491943061817437410e-04 -4.528338104137219489e-05
2.235000000000000000e+03 8.765534400939941406e+00 7.345093250274658203e+00 -4.926026304019615054e-05 -2.081052480207290500e-05 -2.102123653457965702e-05 -1.821508049033582211e-04
2.236000000000000000e+03 2.836111259460449219e+01 1.215814208984375000e+01 9.024642407894134521e-03 1.873072981834411621e+00 5.646292567253112793e-01 7.978329062461853027e-01
2.237000000000000000e+03 2.906433868408203125e+01 2.275192070007324219e+01 5.738650560379028320e-01 9.236789345741271973e-01 4.492632150650024414e-01 5.123682022094726562e-01
2.238000000000000000e+03 7.766215324401855469e+00 -2.990995979309082031e+01 -1.186769222840666771e-03 -2.886658876377623528e-05 -3.646907280199229717e-04 8.740065095480531454e-05
2.239000000000000000e+03 2.963398742675781250e+01 2.000685691833496094e+01 4.356299638748168945e-01 1.453976750373840332e+00 5.668820142745971680e-01 7.818517088890075684e-01
2.240000000000000000e+03 2.834416961669921875e+01 2.082028579711914062e+01 4.061346054077148438e-01 9.883704185485839844e-01 4.183515012264251709e-01 5.676431655883789062e-01
2.241000000000000000e+03 2.824276351928710938e+01 2.250173377990722656e+01 4.691251814365386963e-01 7.878167629241943359e-01 3.770825862884521484e-01 4.150144457817077637e-01
2.242000000000000000e+03 2.735412979125976562e+01 -5.744708061218261719e+00 -7.485979795455932617e-02 2.517935514450073242e+00 7.329227328300476074e-01 3.567178547382354736e-01
2.243000000000000000e+03 2.716971969604492188e+01 5.447448253631591797e+00 -5.797804147005081177e-02 2.016810178756713867e+00 5.876496434211730957e-01 6.071695089340209961e-01
2.244000000000000000e+03 2.841527366638183594e+01 6.667706012725830078e+00 -8.405730128288269043e-02 2.245039701461791992e+00 6.482947468757629395e-01 7.068988084793090820e-01
2.245000000000000000e+03 7.600730419158935547e+00 3.168678283691406250e+01 1.349483616650104523e-03 9.656429028837010264e-05 4.338143917266279459e-04 -1.950284058693796396e-04
2.246000000000000000e+03 8.959600448608398438e+00 3.099164390563964844e+01 -1.150606432929635048e-03 -2.314851881237700582e-04 -4.146274877712130547e-04 5.800952785648405552e-04
2.247000000000000000e+03 2.881234359741210938e+01 -9.387652397155761719e+00 -8.781135827302932739e-02 2.829338312149047852e+00 8.224580287933349609e-01 3.091924488544464111e-01
2.248000000000000000e+03 2.878512763977050781e+01 -8.141745567321777344e+00 -9.435646981000900269e-02 2.802701950073242188e+00 8.125036358833312988e-01 3.367677032947540283e-01
2.249000000000000000e+03 7.148329925537109375e+01 -1.962819099426269531e+01 -5.373789370059967041e-02 8.548289299011230469e+00 2.548365592956542969e+00 -1.419260948896408081e-01
2.250000000000000000e+03 7.286597442626953125e+01 1.951620101928710938e+01 -4.992610309273004532e-03 6.928701877593994141e+00 2.077112674713134766e+00 -8.998221158981323242e-01
2.251000000000000000e+03 7.155548858642578125e+01 1.959590911865234375e+01 -9.638250805437564850e-03 7.064410686492919922e+00 2.116431713104248047e+00 -1.004688262939453125e+00
2.252000000000000000e+03 2.715207862854003906e+01 4.110098361968994141e+00 -6.133986636996269226e-02 2.089887619018554688e+00 6.085643172264099121e-01 5.726619958877563477e-01
2.253000000000000000e+03 7.726240158081054688e+00 1.109051895141601562e+01 -1.772949617588892579e-04 -1.258663833141326904e-04 -9.094840061152353883e-05 7.492963777622207999e-05
2.254000000000000000e+03 7.333992481231689453e+00 1.203828525543212891e+01 1.345117634627968073e-04 4.426379746291786432e-05 5.363266973290592432e-05 -3.818863842752762139e-05
2.255000000000000000e+03 7.132180023193359375e+01 -2.765075683593750000e+01 -3.254769742488861084e-02 8.599716186523437500e+00 2.570150613784790039e+00 -6.123019754886627197e-02
2.256000000000000000e+03 7.232221221923828125e+01 2.777202606201171875e+01 1.466495245695114136e-01 6.348904132843017578e+00 1.948666095733642578e+00 -7.763923406600952148e-01
2.257000000000000000e+03 7.030935668945312500e+01 2.692631912231445312e+01 2.393662631511688232e-01 6.796154499053955078e+00 2.110656261444091797e+00 -9.477983713150024414e-01
2.258000000000000000e+03 2.738618087768554688e+01 -1.220699787139892578e+01 -4.928484931588172913e-02 2.650630235671997070e+00 7.804036736488342285e-01 2.380766272544860840e-01
2.259000000000000000e+03 2.811592292785644531e+01 -8.323895931243896484e-01 -1.024018824100494385e-01 2.505281209945678711e+00 7.208637595176696777e-01 4.812731146812438965e-01
2.260000000000000000e+03 8.351001739501953125e+00 2.934857749938964844e+01 1.048550591804087162e-03 3.292454639449715614e-04 4.133387992624193430e-04 -3.480937157291918993e-04
2.261000000000000000e+03 1.046945953369140625e+01 -2.911215209960937500e+01 -4.383772611618041992e-03 -2.388715744018554688e-03 -2.031746553257107735e-03 1.384189585223793983e-03
2.262000000000000000e+03 9.385421752929687500e+00 -3.114313507080078125e+01 -6.621164735406637192e-03 -1.814041053876280785e-03 -2.530561760067939758e-03 1.885213423520326614e-03
2.263000000000000000e+03 7.128942108154296875e+01 3.327445983886718750e-01 -1.502093374729156494e-01 8.110800743103027344e+00 2.388177394866943359e+00 -5.397338271141052246e-01
2.264000000000000000e+03 7.110959625244140625e+01 -1.874677419662475586e+00 -1.452643275260925293e-01 8.169359207153320312e+00 2.407228469848632812e+00 -4.815872907638549805e-01
2.265000000000000000e+03 2.835413932800292969e+01 1.544157862663269043e+00 -9.959366917610168457e-02 2.468302965164184570e+00 7.106128334999084473e-01 5.637893080711364746e-01
2.266000000000000000e+03 2.836361122131347656e+01 4.057559013366699219e+00 -9.418614953756332397e-02 2.365640878677368164e+00 6.814364194869995117e-01 6.340134143829345703e-01
2.267000000000000000e+03 7.169731140136718750e+01 -5.761694908142089844e+00 -1.079751625657081604e-01 8.324926376342773438e+00 2.465085268020629883e+00 -3.643457889556884766e-01
2.268000000000000000e+03 7.168003845214843750e+01 -8.385442733764648438e+00 -1.016715019941329956e-01 8.386509895324707031e+00 2.485451698303222656e+00 -3.106316626071929932e-01
2.269000000000000000e+03 7.099092102050781250e+01 6.087677001953125000e+00 -1.727768927812576294e-01 7.878751277923583984e+00 2.311792373657226562e+00 -7.311475872993469238e-01
2.270000000000000000e+03 1.254577445983886719e+01 3.259101104736328125e+01 -2.110501285642385483e-03 7.356294081546366215e-04 -4.124615807086229324e-04 2.214628038927912712e-04
2.271000000000000000e+03 1.195088577270507812e+01 3.400337219238281250e+01 -1.803110470063984394e-03 3.261888632550835609e-04 -4.430764820426702499e-04 7.815413409844040871e-04
2.272000000000000000e+03 6.583487033843994141e+00 3.601601791381835938e+01 -6.998479366302490234e-04 -7.957325578900054097e-05 -2.338263584533706307e-04 -4.288534983061254025e-04
2.273000000000000000e+03 8.214707374572753906e+00 3.363766479492187500e+01 -1.377493143081665039e-03 1.059926144080236554e-04 -3.814501396846026182e-04 -1.191604224004549906e-05
2.274000000000000000e+03 6.969225406646728516e+00 2.611729240417480469e+01 -5.574559909291565418e-04 -1.879533665487542748e-04 -2.236228174297139049e-04 -1.465885434299707413e-04
2.275000000000000000e+03 7.059078979492187500e+01 1.248419284820556641e+01 -1.478510797023773193e-01 7.577145099639892578e+00 2.228788137435913086e+00 -9.424126148223876953e-01
2.276000000000000000e+03 7.212496948242187500e+01 -1.626985931396484375e+01 -6.552088260650634766e-02 8.575968742370605469e+00 2.553134441375732422e+00 -1.704105585813522339e-01
2.277000000000000000e+03 2.961232757568359375e+01 -2.796090888977050781e+01 -3.217991814017295837e-02 3.038905143737792969e+00 9.020175933837890625e-01 9.287085384130477905e-02
2.278000000000000000e+03 2.843125724792480469e+01 -2.310732460021972656e+01 -5.655467882752418518e-02 2.898153305053710938e+00 8.524795770645141602e-01 1.218230947852134705e-01
2.279000000000000000e+03 6.989107513427734375e+01 -2.039213752746582031e+01 -7.502570748329162598e-02 8.346403121948242188e+00 2.481413364410400391e+00 -1.413698792457580566e-01
2.280000000000000000e+03 7.112484741210937500e+01 -2.095596694946289062e+01 -5.879126489162445068e-02 8.511800765991210938e+00 2.535902976989746094e+00 -1.242856308817863464e-01
2.281000000000000000e+03 2.564311218261718750e+01 -2.984433174133300781e+01 3.702230751514434814e-03 2.564916849136352539e+00 7.705857157707214355e-01 6.456951797008514404e-02
2.282000000000000000e+03 2.570961570739746094e+01 -2.864614677429199219e+01 -1.615341636352241039e-03 2.569536685943603516e+00 7.703763842582702637e-01 9.458998590707778931e-02
2.283000000000000000e+03 6.942459869384765625e+01 -2.852773284912109375e+01 -4.847369343042373657e-02 8.358699798583984375e+00 2.493067741394042969e+00 -7.766331732273101807e-02
2.284000000000000000e+03 6.998075103759765625e+01 2.551649093627929688e+01 1.935634762048721313e-01 6.900723457336425781e+00 2.128286123275756836e+00 -1.015421390533447266e+00
2.285000000000000000e+03 9.608921051025390625e+00 -1.275042152404785156e+01 -1.110654789954423904e-03 -3.732986806426197290e-04 -4.451860731933265924e-04 4.423485079314559698e-04
2.286000000000000000e+03 2.747482299804687500e+01 -1.355688476562500000e+01 -4.971624165773391724e-02 2.683496475219726562e+00 7.901340723037719727e-01 2.141998708248138428e-01
2.287000000000000000e+03 7.311599254608154297e+00 2.147433280944824219e+01 -4.696904215961694717e-04 -1.369281962979584932e-04 -1.819855824578553438e-04 -8.112717478070408106e-05
2.288000000000000000e+03 6.798967361450195312e+00 2.759019470214843750e+01 4.962429520674049854e-04 1.045191092998720706e-04 1.802286133170127869e-04 2.001285756705328822e-04
2.289000000000000000e+03 9.473114013671875000e+00 2.370748138427734375e+01 -8.458798984065651894e-04 -4.970547888660803437e-05 -2.686756197363138199e-04 3.061994502786546946e-04
2.290000000000000000e+03 8.212276458740234375e+00 2.309558296203613281e+01 -7.635630317963659763e-04 1.622906274860724807e-04 -1.803817140171304345e-04 3.639774222392588854e-04
2.291000000000000000e+03 7.739516258239746094e+00 -3.144732284545898438e+01 -6.741699762642383575e-03 3.523716077324934304e-05 -2.011938719078898430e-03 -1.712314086034893990e-03
2.292000000000000000e+03 7.302723693847656250e+01 3.267869567871093750e+01 2.220386266708374023e-01 5.958994388580322266e+00 1.854309797286987305e+00 -5.504774451255798340e-01
2.293000000000000000e+03 2.633520507812500000e+01 -2.600421714782714844e+01 -1.666184514760971069e-02 2.626915693283081055e+00 7.830761075019836426e-01 9.747292846441268921e-02
2.294000000000000000e+03 9.644745826721191406e+00 -3.770169067382812500e+01 -1.741499453783035278e-02 1.664637960493564606e-02 -2.305845118826255202e-04 -2.135940082371234894e-02
2.295000000000000000e+03 1.139157867431640625e+01 -3.773540878295898438e+01 -4.310534521937370300e-02 2.091781422495841980e-02 -6.656259298324584961e-03 -8.567458018660545349e-03
2.296000000000000000e+03 7.153144836425781250e+00 -3.070833587646484375e+01 -4.252341750543564558e-04 2.015420701354742050e-03 4.770559608004987240e-04 1.748530426993966103e-03
2.297000000000000000e+03 6.664133548736572266e+00 -3.237692260742187500e+01 -3.089902165811508894e-04 3.362378804013133049e-03 9.160165791399776936e-04 -2.353003947064280510e-04
2.298000000000000000e+03 4.142706298828125000e+01 3.020540237426757812e+01 3.414007186889648438e+00 7.080694198608398438e+00 3.148410558700561523e+00 5.534112930297851562e+00
2.299000000000000000e+03 3.809233093261718750e+01 2.968369865417480469e+01 2.378846883773803711e+00 1.545662045478820801e+00 1.177352666854858398e+00 2.014842033386230469e+00
2.300000000000000000e+03 4.178170394897460938e+01 2.961850357055664062e+01 2.571834564208984375e+00 8.522399902343750000e+00 3.328270196914672852e+00 5.224472999572753906e+00
2.301000000000000000e+03 4.304133605957031250e+01 2.909421920776367188e+01 1.196876883506774902e+00 1.199975681304931641e+01 3.958990097045898438e+00 3.907768487930297852e+00
2.302000000000000000e+03 3.727915573120117188e+01 2.871302413940429688e+01 2.115748882293701172e+00 1.708137631416320801e+00 1.147165894508361816e+00 1.877701878547668457e+00
2.303000000000000000e+03 3.622476196289062500e+01 2.938925933837890625e+01 1.649918079376220703e+00 9.454894661903381348e-01 7.786222696304321289e-01 1.082969784736633301e+00
2.304000000000000000e+03 4.354926681518554688e+01 2.880761528015136719e+01 9.069306850433349609e-01 1.245602130889892578e+01 4.008885383605957031e+00 3.110105991363525391e+00
2.305000000000000000e+03 4.372540283203125000e+01 2.941443443298339844e+01 1.110296607017517090e+00 1.379223060607910156e+01 4.470758438110351562e+00 3.071229696273803711e+00
2.306000000000000000e+03 3.551507949829101562e+01 2.827613067626953125e+01 1.607123613357543945e+00 1.201743841171264648e+00 8.426602482795715332e-01 1.143789172172546387e+00
2.307000000000000000e+03 3.089828491210937500e+01 2.873800277709960938e+01 5.623611807823181152e-01 4.003168344497680664e-01 2.888033986091613770e-01 -1.250729057937860489e-02
2.308000000000000000e+03 2.799875450134277344e+01 2.946199607849121094e+01 1.724931597709655762e-01 1.343325227499008179e-01 9.204770624637603760e-02 -2.872090935707092285e-01
2.309000000000000000e+03 3.032729530334472656e+01 2.795037078857421875e+01 5.904015898704528809e-01 4.351568818092346191e-01 3.076675534248352051e-01 3.058945015072822571e-02
2.310000000000000000e+03 2.730999946594238281e+01 2.771423721313476562e+01 2.979458570480346680e-01 1.495018303394317627e-01 1.342343091964721680e-01 -1.880339086055755615e-01
2.311000000000000000e+03 2.890717506408691406e+01 2.775167465209960938e+01 4.444446265697479248e-01 3.113227188587188721e-01 2.267301976680755615e-01 -8.773913979530334473e-02
2.312000000000000000e+03 2.813215827941894531e+01 2.770542526245117188e+01 3.706048429012298584e-01 2.361937314271926880e-01 1.820395737886428833e-01 -1.387581676244735718e-01
2.313000000000000000e+03 2.878473472595214844e+01 2.861592292785644531e+01 3.388582468032836914e-01 2.358802855014801025e-01 1.724215596914291382e-01 -1.836927384138107300e-01
2.314000000000000000e+03 8.173316955566406250e+00 -9.055275917053222656e+00 -9.126267977990210056e-04 -1.851331180660054088e-04 -3.293279733043164015e-04 -3.174146404489874840e-04
2.315000000000000000e+03 3.159334564208984375e+01 2.876076316833496094e+01 6.641062498092651367e-01 4.583871066570281982e-01 3.367480039596557617e-01 7.808038592338562012e-02
2.316000000000000000e+03 9.288841247558593750e+00 6.543152332305908203e+00 1.205812586704269052e-04 4.245564559823833406e-05 4.891107164439745247e-05 1.558087533339858055e-04
2.317000000000000000e+03 3.296111297607421875e+01 2.878446388244628906e+01 9.060154557228088379e-01 5.780233144760131836e-01 4.452116191387176514e-01 3.018532693386077881e-01
2.318000000000000000e+03 3.292555618286132812e+01 2.943103027343750000e+01 7.416550517082214355e-01 4.561294317245483398e-01 3.593353331089019775e-01 1.640940010547637939e-01
2.319000000000000000e+03 3.363695907592773438e+01 2.880095672607421875e+01 1.043256998062133789e+00 6.536692976951599121e-01 5.090778470039367676e-01 4.398038387298583984e-01
2.320000000000000000e+03 3.428970336914062500e+01 2.943071937561035156e+01 1.044801115989685059e+00 5.811961889266967773e-01 4.877991974353790283e-01 4.403401017189025879e-01
2.321000000000000000e+03 3.429280471801757812e+01 2.882063674926757812e+01 1.200765728950500488e+00 7.367582917213439941e-01 5.812572240829467773e-01 6.013838648796081543e-01
2.322000000000000000e+03 4.438199234008789062e+01 2.920105171203613281e+01 1.012565255165100098e+00 1.399370670318603516e+01 4.501881599426269531e+00 1.873729944229125977e+00
2.323000000000000000e+03 2.736951255798339844e+01 2.672092437744140625e+01 3.630634248256683350e-01 2.149188518524169922e-01 1.733946800231933594e-01 -9.458485245704650879e-02
2.324000000000000000e+03 7.037112426757812500e+01 -8.201382160186767578e-01 -1.729059666395187378e-01 8.098664283752441406e+00 2.377727270126342773e+00 -5.317290425300598145e-01
2.325000000000000000e+03 7.216270446777343750e+01 2.825600385665893555e+00 -1.332065463066101074e-01 8.046222686767578125e+00 2.373904943466186523e+00 -5.814730525016784668e-01
2.326000000000000000e+03 7.041941833496093750e+01 -4.725795269012451172e+00 -1.431938707828521729e-01 8.195423126220703125e+00 2.415668964385986328e+00 -4.190867841243743896e-01
2.327000000000000000e+03 9.925307273864746094e+00 -7.394114494323730469e+00 -2.549799683038145304e-04 1.403696660418063402e-04 -3.438309067860245705e-05 -2.656574724824167788e-05
2.328000000000000000e+03 8.013411521911621094e+00 1.005190563201904297e+01 1.749258663039654493e-04 1.622454437892884016e-04 1.011513886624015868e-04 -1.568864354339893907e-05
2.329000000000000000e+03 9.039668083190917969e+00 1.025304698944091797e+01 -2.319898630958050489e-04 -1.753042160999029875e-04 -1.221882266690954566e-04 -2.254988794447854161e-05
2.330000000000000000e+03 7.044702911376953125e+01 -7.187637805938720703e+00 -1.272091120481491089e-01 8.250417709350585938e+00 2.436962604522705078e+00 -3.596416711807250977e-01
2.331000000000000000e+03 7.000996398925781250e+01 3.545353174209594727e+00 -1.982546746730804443e-01 7.956008911132812500e+00 2.327326297760009766e+00 -6.806690096855163574e-01
2.332000000000000000e+03 4.728789138793945312e+01 2.888808059692382812e+01 1.844825744628906250e+00 1.249391269683837891e+01 4.301621437072753906e+00 -6.425850391387939453e-01
2.333000000000000000e+03 8.391272544860839844e+00 8.117863655090332031e+00 1.193985808640718460e-04 1.722727465676143765e-04 8.750140113988891244e-05 9.475754632148891687e-05
2.334000000000000000e+03 1.069125366210937500e+01 -6.848400592803955078e+00 1.014163834042847157e-03 -3.106093572569079697e-05 2.949308836832642555e-04 -1.717359409667551517e-04
2.335000000000000000e+03 1.042088317871093750e+01 -8.757450103759765625e+00 6.688652210868895054e-04 3.293207846581935883e-04 2.994558017235249281e-04 -1.276725670322775841e-04
2.336000000000000000e+03 2.874184036254882812e+01 1.758646965026855469e+01 2.466548979282379150e-01 1.474906325340270996e+00 5.164683461189270020e-01 7.778110504150390625e-01
2.337000000000000000e+03 2.895909690856933594e+01 2.181879615783691406e+01 5.125973820686340332e-01 1.022198319435119629e+00 4.604386985301971436e-01 5.779550671577453613e-01
2.338000000000000000e+03 8.606503486633300781e+00 6.021064281463623047e+00 1.029631457640789449e-04 1.613256608834490180e-05 3.572871355572715402e-05 -1.430202100891619921e-04
2.339000000000000000e+03 6.541228294372558594e+00 7.538717746734619141e+00 2.059490361716598272e-04 2.017352016991935670e-05 6.783676508348435163e-05 5.246178625384345651e-05
2.340000000000000000e+03 3.018173980712890625e+01 2.614340782165527344e+01 7.119181156158447266e-01 6.555475592613220215e-01 4.102396965026855469e-01 2.588469088077545166e-01
2.341000000000000000e+03 7.031243133544921875e+01 -9.731352806091308594e+00 -1.256457716226577759e-01 8.277194976806640625e+00 2.445464849472045898e+00 -3.055060505867004395e-01
2.342000000000000000e+03 7.010814666748046875e+01 -1.109818172454833984e+01 -1.095645055174827576e-01 8.279198646545410156e+00 2.450890302658081055e+00 -2.812400460243225098e-01
2.343000000000000000e+03 6.919831085205078125e+01 -1.716845512390136719e+00 -2.001280784606933594e-01 8.052462577819824219e+00 2.355700492858886719e+00 -5.298286676406860352e-01
2.344000000000000000e+03 7.060285949707031250e+01 -1.770849227905273438e+01 -7.216332107782363892e-02 8.418754577636718750e+00 2.503977298736572266e+00 -1.730093508958816528e-01
2.345000000000000000e+03 7.010578155517578125e+01 -1.901541137695312500e+01 -7.678820192813873291e-02 8.368689537048339844e+00 2.487570285797119141e+00 -1.552194803953170776e-01
2.346000000000000000e+03 2.836963653564453125e+01 1.077084827423095703e+01 -2.618314884603023529e-02 1.982203483581542969e+00 5.868061184883117676e-01 7.855550646781921387e-01
2.347000000000000000e+03 2.841963005065917969e+01 1.488866710662841797e+01 1.054500192403793335e-01 1.654383182525634766e+00 5.279499888420104980e-01 7.990834712982177734e-01
2.348000000000000000e+03 7.031505584716796875e+01 2.000578689575195312e+01 2.294041216373443604e-03 7.178184509277343750e+00 2.154143571853637695e+00 -1.086037397384643555e+00
2.349000000000000000e+03 7.153937816619873047e+00 -8.998892784118652344e+00 1.020034076645970345e-03 1.876233000075444579e-04 3.622972290031611919e-04 2.194138942286372185e-04
2.350000000000000000e+03 7.051181030273437500e+01 1.126417636871337891e+01 -1.571830362081527710e-01 7.644075870513916016e+00 2.246068000793457031e+00 -9.128965735435485840e-01
2.351000000000000000e+03 7.152687072753906250e+01 8.685871124267578125e+00 -1.480125188827514648e-01 7.753682136535644531e+00 2.281700849533081055e+00 -7.846192717552185059e-01
2.352000000000000000e+03 7.289337921142578125e+01 2.084430503845214844e+01 1.268889475613832474e-02 6.818702220916748047e+00 2.049417495727539062e+00 -8.979299068450927734e-01
2.353000000000000000e+03 6.969814300537109375e+01 1.868209457397460938e+01 -4.410558193922042847e-02 7.322996616363525391e+00 2.183667182922363281e+00 -1.108032345771789551e+00
2.354000000000000000e+03 7.155175018310546875e+01 1.524755764007568359e+01 -8.798389136791229248e-02 7.368961811065673828e+00 2.184293508529663086e+00 -9.519700407981872559e-01
2.355000000000000000e+03 7.043233489990234375e+01 -1.567280673980712891e+01 -8.295458555221557617e-02 8.366972923278808594e+00 2.485205411911010742e+00 -2.029860913753509521e-01
2.356000000000000000e+03 7.147454833984375000e+01 -1.250481510162353516e+01 -8.043228834867477417e-02 8.450540542602539062e+00 2.511032581329345703e+00 -2.358116358518600464e-01
2.357000000000000000e+03 2.890351867675781250e+01 -4.522265434265136719e+00 -1.119124367833137512e-01 2.764494895935058594e+00 7.957747578620910645e-01 4.245508909225463867e-01
2.358000000000000000e+03 2.956107139587402344e+01 2.959409952163696289e-01 -1.403779685497283936e-01 2.758131980895996094e+00 7.853261828422546387e-01 5.665344595909118652e-01
2.359000000000000000e+03 3.072741317749023438e+01 1.171502208709716797e+01 -4.169970750808715820e-02 2.568387746810913086e+00 7.580063939094543457e-01 9.608376026153564453e-01
2.360000000000000000e+03 2.841544342041015625e+01 8.012771606445312500e+00 -6.811578571796417236e-02 2.166697263717651367e+00 6.295744180679321289e-01 7.409797310829162598e-01
2.361000000000000000e+03 2.954902458190917969e+01 1.057357025146484375e+01 -4.792447388172149658e-02 2.315625905990600586e+00 6.803104281425476074e-01 8.596690297126770020e-01
2.362000000000000000e+03 8.997695922851562500e+00 -2.093861007690429688e+01 -8.813755703158676624e-04 5.338275223039090633e-04 -1.042644071276299655e-04 1.648156670853495598e-03
2.363000000000000000e+03 7.220253467559814453e+00 -1.018962574005126953e+01 -9.748726151883602142e-04 -3.641407820396125317e-04 -4.017040191683918238e-04 -1.198786048917099833e-04
2.364000000000000000e+03 8.093235015869140625e+00 1.432411098480224609e+01 1.819798490032553673e-04 5.645582405122695491e-06 5.628763028653338552e-05 -1.734293909976258874e-04
2.365000000000000000e+03 3.025664901733398438e+01 -6.758195877075195312e+00 -1.320778876543045044e-01 3.026458501815795898e+00 8.683142066001892090e-01 3.849235177040100098e-01
2.366000000000000000e+03 2.963749504089355469e+01 1.457023906707763672e+01 9.692953526973724365e-02 2.038459539413452148e+00 6.406167149543762207e-01 9.109108448028564453e-01
2.367000000000000000e+03 8.522628784179687500e+00 -2.337178993225097656e+01 -2.190936123952269554e-03 -9.648757986724376678e-04 -9.467435884289443493e-04 6.986918160691857338e-04
2.368000000000000000e+03 8.023091316223144531e+00 -2.048357772827148438e+01 1.702842710074037313e-04 6.218140479177236557e-04 2.376294869463890791e-04 -7.893064757809042931e-04
2.369000000000000000e+03 2.877688598632812500e+01 -5.721793651580810547e+00 -1.043657809495925903e-01 2.772834777832031250e+00 8.005406856536865234e-01 3.891385793685913086e-01
2.370000000000000000e+03 7.420391559600830078e+00 -1.473916149139404297e+01 2.054714423138648272e-04 -3.802467253990471363e-04 -5.243258783593773842e-05 -6.581399065908044577e-05
2.371000000000000000e+03 8.335766792297363281e+00 2.084890174865722656e+01 3.497294383123517036e-04 1.433599682059139013e-04 1.479268103139474988e-04 -1.607060694368556142e-04
2.372000000000000000e+03 9.374415397644042969e+00 -2.763983345031738281e+01 -2.610423136502504349e-03 -2.272293204441666603e-03 -1.464814879000186920e-03 1.264632563106715679e-03
2.373000000000000000e+03 8.035010337829589844e+00 -2.882581520080566406e+01 -2.853609388694167137e-03 -1.005036523565649986e-03 -1.157593796961009502e-03 -5.380318616516888142e-04
2.374000000000000000e+03 8.274353981018066406e+00 -2.627432060241699219e+01 -2.339574042707681656e-03 -1.671989099122583866e-03 -1.203469000756740570e-03 5.833843024447560310e-04
2.375000000000000000e+03 9.495577812194824219e+00 -2.629911041259765625e+01 1.713473349809646606e-03 1.183355692774057388e-03 8.690487011335790157e-04 -8.258225279860198498e-04
2.376000000000000000e+03 8.382902145385742188e+00 -2.488369369506835938e+01 2.069160109385848045e-03 6.366136949509382248e-04 8.117321413010358810e-04 -6.589930853806436062e-04
2.377000000000000000e+03 3.019742393493652344e+01 2.869898796081542969e+01 4.802608489990234375e-01 3.438659906387329102e-01 2.472380548715591431e-01 -8.040494471788406372e-02
2.378000000000000000e+03 2.953783226013183594e+01 -1.985854339599609375e+01 -7.450701296329498291e-02 3.023260116577148438e+00 8.846259713172912598e-01 1.504809409379959106e-01
2.379000000000000000e+03 6.925266265869140625e+01 5.072824954986572266e+00 -2.295485436916351318e-01 7.894595146179199219e+00 2.299514055252075195e+00 -7.567751407623291016e-01
2.380000000000000000e+03 3.015190124511718750e+01 -2.191669082641601562e+01 -7.056188583374023438e-02 3.129296541213989258e+00 9.176204204559326172e-01 1.356898844242095947e-01
2.381000000000000000e+03 6.890103912353515625e+01 -2.266559982299804688e+01 -6.178820878267288208e-02 8.263833999633789062e+00 2.460613727569580078e+00 -1.168740615248680115e-01
2.382000000000000000e+03 8.524611473083496094e+00 -1.257679176330566406e+01 6.512802210636436939e-04 6.660403450950980186e-04 3.951961698476225138e-04 -4.428138199727982283e-04
2.383000000000000000e+03 2.968935203552246094e+01 6.514675140380859375e+00 -1.188417151570320129e-01 2.554441928863525391e+00 7.306800484657287598e-01 7.650405764579772949e-01
2.384000000000000000e+03 7.030603027343750000e+01 1.493014526367187500e+01 -1.207022294402122498e-01 7.463017940521240234e+00 2.202694654464721680e+00 -1.018995404243469238e+00
2.385000000000000000e+03 2.908745384216308594e+01 -1.326487922668457031e+01 -8.089864999055862427e-02 2.927158117294311523e+00 8.538778424263000488e-01 2.396571040153503418e-01
2.386000000000000000e+03 2.732589149475097656e+01 -1.088463497161865234e+01 -5.517421290278434753e-02 2.622407913208007812e+00 7.701701521873474121e-01 2.592672705650329590e-01
2.387000000000000000e+03 7.087689208984375000e+01 2.108210372924804688e+01 3.232412040233612061e-02 7.056992530822753906e+00 2.126795053482055664e+00 -1.050720691680908203e+00
2.388000000000000000e+03 8.398922920227050781e+00 2.391012763977050781e+01 7.729820208624005318e-04 5.103721196064725518e-05 2.472057822160422802e-04 -2.051881165243685246e-04
2.389000000000000000e+03 1.129742431640625000e+01 -3.361160278320312500e+01 -6.823603995144367218e-03 9.186670649796724319e-04 -1.771481125615537167e-03 3.892516251653432846e-03
2.390000000000000000e+03 1.065349674224853516e+01 -3.236266708374023438e+01 9.789912728592753410e-04 -1.055281376466155052e-03 -2.288704126840457320e-05 1.905040582641959190e-03
2.391000000000000000e+03 2.864520454406738281e+01 -2.141202163696289062e+01 -5.760331824421882629e-02 2.922519922256469727e+00 8.594749569892883301e-01 1.363349556922912598e-01
2.392000000000000000e+03 2.653993225097656250e+01 -2.450712776184082031e+01 -4.381979629397392273e-02 2.651187896728515625e+00 7.822104692459106445e-01 9.855093061923980713e-02
2.393000000000000000e+03 2.766429138183593750e+01 2.458588027954101562e+01 4.357007741928100586e-01 4.320502877235412598e-01 2.603253126144409180e-01 1.436839550733566284e-01
2.394000000000000000e+03 2.959655570983886719e+01 9.204094886779785156e+00 -7.793935388326644897e-02 2.417468786239624023e+00 7.018588185310363770e-01 8.347595930099487305e-01
2.395000000000000000e+03 2.748806762695312500e+01 2.566499900817871094e+01 4.136556684970855713e-01 3.079543411731719971e-01 2.164829969406127930e-01 2.021621726453304291e-02
2.396000000000000000e+03 2.805274581909179688e+01 2.860701942443847656e+01 2.771855294704437256e-01 1.742232739925384521e-01 1.354226320981979370e-01 -2.251037508249282837e-01
2.397000000000000000e+03 7.072417449951171875e+01 3.484563446044921875e+01 3.918571174144744873e-01 6.408429622650146484e+00 2.040086030960083008e+00 -4.993287324905395508e-01
2.398000000000000000e+03 6.844803619384765625e+01 3.169333267211914062e+01 4.508506655693054199e-01 6.887798786163330078e+00 2.201594829559326172e+00 -7.464497685432434082e-01
2.399000000000000000e+03 7.063882446289062500e+01 -2.221740150451660156e+01 -5.329131335020065308e-02 8.447313308715820312e+00 2.518206596374511719e+00 -1.172873601317405701e-01
2.400000000000000000e+03 2.836076736450195312e+01 2.785755634307861328e+00 -1.002510115504264832e-01 2.427793025970458984e+00 6.982626318931579590e-01 5.978695750236511230e-01
2.401000000000000000e+03 2.955636215209960938e+01 4.012109279632568359e+00 -1.329379081726074219e-01 2.652806043624877930e+00 7.559604048728942871e-01 6.829031705856323242e-01
2.402000000000000000e+03 2.957196235656738281e+01 1.326344966888427734e+01 3.756175190210342407e-02 2.126129627227783203e+00 6.491073966026306152e-01 9.012160301208496094e-01
2.403000000000000000e+03 7.235608673095703125e+01 -2.167363739013671875e+01 -4.263506457209587097e-02 8.681699752807617188e+00 2.591719627380371094e+00 -1.137293353676795959e-01
2.404000000000000000e+03 6.876148223876953125e+01 1.738705062866210938e+01 -8.827175199985504150e-02 7.466956615447998047e+00 2.213605403900146484e+00 -1.141190290451049805e+00
2.405000000000000000e+03 6.976744842529296875e+01 1.621172523498535156e+01 -9.952211380004882812e-02 7.434502124786376953e+00 2.200494050979614258e+00 -1.073165059089660645e+00
2.406000000000000000e+03 8.419376373291015625e+00 -3.226476287841796875e+01 -3.192348638549447060e-03 5.463680252432823181e-03 6.813995423726737499e-04 -2.193139225710183382e-04
2.407000000000000000e+03 2.928927803039550781e+01 -1.464020061492919922e+01 -7.945254445075988770e-02 2.974427938461303711e+00 8.684926033020019531e-01 2.176270186901092529e-01
2.408000000000000000e+03 6.874812316894531250e+01 -1.822973632812500000e+01 -1.010029613971710205e-01 8.193767547607421875e+00 2.427829504013061523e+00 -1.806060820817947388e-01
2.409000000000000000e+03 6.821022033691406250e+01 -3.160388565063476562e+01 -5.200569331645965576e-02 8.214930534362792969e+00 2.448877573013305664e+00 -6.334946304559707642e-02
2.410000000000000000e+03 7.154213714599609375e+01 -1.388903331756591797e+01 -6.948000192642211914e-02 8.484113693237304688e+00 2.524390220642089844e+00 -2.125951349735260010e-01
2.411000000000000000e+03 9.717864036560058594e+00 3.277142715454101562e+01 1.108005060814321041e-03 3.989809774793684483e-04 4.520958173088729382e-04 -5.869310116395354271e-04
2.412000000000000000e+03 7.019676208496093750e+01 8.799262046813964844e+00 -1.842771768569946289e-01 7.765657424926757812e+00 2.274414062500000000e+00 -8.533374667167663574e-01
2.413000000000000000e+03 7.057157135009765625e+01 -2.610739517211914062e+01 -5.656163394451141357e-02 8.474352836608886719e+00 2.525337219238281250e+00 -9.620434790849685669e-02
2.414000000000000000e+03 6.872652435302734375e+01 -2.511952590942382812e+01 -5.602421611547470093e-02 8.249538421630859375e+00 2.458054304122924805e+00 -9.449362009763717651e-02
2.415000000000000000e+03 2.958174324035644531e+01 1.536519765853881836e+00 -1.319871544837951660e-01 2.721409797668457031e+00 7.768267989158630371e-01 6.007172465324401855e-01
2.416000000000000000e+03 3.081083106994628906e+01 1.928430175781250000e+01 4.361226260662078857e-01 1.894292354583740234e+00 6.991244554519653320e-01 9.741647839546203613e-01
2.417000000000000000e+03 3.034242057800292969e+01 2.085104942321777344e+01 5.330635309219360352e-01 1.502449274063110352e+00 6.106538176536560059e-01 8.276600837707519531e-01
2.418000000000000000e+03 2.703292846679687500e+01 -2.936877441406250000e+01 -2.319733053445816040e-02 2.736136198043823242e+00 8.138816952705383301e-01 7.968271523714065552e-02
2.419000000000000000e+03 2.576349449157714844e+01 -3.130968666076660156e+01 3.008566983044147491e-02 2.573104619979858398e+00 7.809571027755737305e-01 4.531884938478469849e-02
2.420000000000000000e+03 6.976774597167968750e+01 -3.371374130249023438e+01 -2.586848288774490356e-02 8.436190605163574219e+00 2.523096561431884766e+00 -2.261875569820404053e-02
2.421000000000000000e+03 7.194086456298828125e+01 -3.519695663452148438e+01 -2.157832309603691101e-02 8.664628028869628906e+00 2.592914819717407227e+00 -1.953439787030220032e-02
2.422000000000000000e+03 5.038994216918945312e+01 3.281976699829101562e+01 3.316427707672119141e+00 1.081257724761962891e+01 4.238701820373535156e+00 1.622931957244873047e-01
2.423000000000000000e+03 5.332006835937500000e+01 3.180002784729003906e+01 2.335009336471557617e+00 9.796214103698730469e+00 3.639367103576660156e+00 -4.019164144992828369e-01
2.424000000000000000e+03 9.042644500732421875e+00 1.343296813964843750e+01 -7.550298323621973395e-05 -1.011093627312220633e-04 -5.298370524542406201e-05 1.158869708888232708e-04
2.425000000000000000e+03 7.070553588867187500e+01 2.873913383483886719e+01 2.559641897678375244e-01 6.621608257293701172e+00 2.063271760940551758e+00 -8.379364013671875000e-01
2.426000000000000000e+03 6.866816711425781250e+01 2.716991043090820312e+01 3.111403584480285645e-01 7.024761676788330078e+00 2.200770616531372070e+00 -1.012224316596984863e+00
2.427000000000000000e+03 2.818950843811035156e+01 -2.653130149841308594e+01 -3.118558600544929504e-02 2.903424263000488281e+00 8.616716265678405762e-01 1.009350046515464783e-01
2.428000000000000000e+03 8.822797775268554688e+00 2.172137832641601562e+01 -7.039026240818202496e-04 7.692230428801849484e-05 -1.880940981209278107e-04 1.976678177015855908e-04
2.429000000000000000e+03 8.108272552490234375e+00 -3.687611389160156250e+01 -2.102197147905826569e-03 9.719011373817920685e-03 2.285044407472014427e-03 -9.449123404920101166e-03
2.430000000000000000e+03 1.284184455871582031e+01 -3.283173370361328125e+01 3.833007998764514923e-03 -2.183343982324004173e-03 4.948992282152175903e-04 9.764431742951273918e-04
2.431000000000000000e+03 6.883425235748291016e+00 -2.988295555114746094e+01 -4.577973857522010803e-03 -3.759104292839765549e-04 -1.486165216192603111e-03 -2.416997915133833885e-03
2.432000000000000000e+03 3.920499038696289062e+01 3.016372871398925781e+01 2.956227540969848633e+00 2.022923231124877930e+00 1.493745207786560059e+00 2.732699394226074219e+00
2.433000000000000000e+03 3.976615905761718750e+01 3.065754127502441406e+01 3.350347518920898438e+00 2.077064037322998047e+00 1.628223419189453125e+00 3.022477149963378906e+00
2.434000000000000000e+03 4.138701629638671875e+01 2.952929115295410156e+01 2.753091096878051758e+00 7.391596794128417969e+00 3.043406248092651367e+00 5.067047595977783203e+00
2.435000000000000000e+03 4.175149536132812500e+01 3.006646537780761719e+01 2.976893424987792969e+00 8.377228736877441406e+00 3.406236648559570312e+00 5.575104713439941406e+00
2.436000000000000000e+03 4.080036926269531250e+01 3.070888900756835938e+01 4.025440216064453125e+00 4.112887859344482422e+00 2.441498517990112305e+00 4.615550518035888672e+00
2.437000000000000000e+03 4.057960128784179688e+01 3.030760574340820312e+01 3.661601066589355469e+00 4.167400836944580078e+00 2.348700523376464844e+00 4.386638164520263672e+00
2.438000000000000000e+03 3.797240829467773438e+01 2.912066459655761719e+01 2.354835510253906250e+00 1.863817095756530762e+00 1.265595793724060059e+00 2.171754360198974609e+00
2.439000000000000000e+03 4.111527633666992188e+01 3.045618820190429688e+01 3.868954896926879883e+00 5.492011070251464844e+00 2.808289766311645508e+00 5.206288337707519531e+00
2.440000000000000000e+03 4.137084579467773438e+01 2.898029708862304688e+01 2.277488231658935547e+00 7.508501052856445312e+00 2.935796737670898438e+00 4.682992458343505859e+00
2.441000000000000000e+03 4.209757232666015625e+01 2.848983955383300781e+01 1.501481652259826660e+00 9.282258033752441406e+00 3.235121726989746094e+00 4.345807552337646484e+00
2.442000000000000000e+03 4.323760986328125000e+01 2.761922836303710938e+01 5.860252976417541504e-01 1.074249649047851562e+01 3.398556470870971680e+00 3.020760297775268555e+00
2.443000000000000000e+03 3.779651260375976562e+01 2.858306694030761719e+01 2.271194934844970703e+00 2.110455513000488281e+00 1.314495086669921875e+00 2.232795000076293945e+00
2.444000000000000000e+03 3.712482452392578125e+01 2.817159461975097656e+01 2.048299074172973633e+00 1.937475442886352539e+00 1.195732355117797852e+00 1.945649027824401855e+00
2.445000000000000000e+03 3.227711486816406250e+01 2.877271080017089844e+01 7.748826146125793457e-01 5.152232646942138672e-01 3.870317637920379639e-01 1.782433390617370605e-01
2.446000000000000000e+03 2.949657440185546875e+01 2.865227699279785156e+01 4.034920632839202881e-01 2.898624837398529053e-01 2.080063670873641968e-01 -1.366507858037948608e-01
2.447000000000000000e+03 3.053508186340332031e+01 2.720038414001464844e+01 7.001301646232604980e-01 5.514282584190368652e-01 3.754675388336181641e-01 1.586790680885314941e-01
2.448000000000000000e+03 2.826424789428710938e+01 2.674760627746582031e+01 4.522449672222137451e-01 3.267838358879089355e-01 2.337086498737335205e-01 -3.118536621332168579e-02
2.449000000000000000e+03 3.493344497680664062e+01 2.883668518066406250e+01 1.369147062301635742e+00 8.446648716926574707e-01 6.641436219215393066e-01 7.799164056777954102e-01
2.450000000000000000e+03 3.491811752319335938e+01 2.824333763122558594e+01 1.450522661209106445e+00 1.036160349845886230e+00 7.460049390792846680e-01 9.322444200515747070e-01
2.451000000000000000e+03 3.166697502136230469e+01 2.808621406555175781e+01 7.884224057197570801e-01 5.697441101074218750e-01 4.074499607086181641e-01 1.987896412611007690e-01
2.452000000000000000e+03 3.548476409912109375e+01 2.772187805175781250e+01 1.610790252685546875e+00 1.410706400871276855e+00 9.064489603042602539e-01 1.260105848312377930e+00
2.453000000000000000e+03 3.366238021850585938e+01 2.816355705261230469e+01 1.166544795036315918e+00 8.149175643920898438e-01 5.944387316703796387e-01 6.006369590759277344e-01
2.454000000000000000e+03 3.430002593994140625e+01 2.820203590393066406e+01 1.311238527297973633e+00 9.029868245124816895e-01 6.642675995826721191e-01 7.548056244850158691e-01
2.455000000000000000e+03 2.659153747558593750e+01 2.952532768249511719e+01 9.629776328802108765e-02 2.681575715541839600e-02 3.693405538797378540e-02 -3.210755884647369385e-01
2.456000000000000000e+03 4.486657714843750000e+01 2.821982002258300781e+01 6.142825484275817871e-01 1.284863662719726562e+01 4.038875579833984375e+00 1.415970325469970703e+00
2.457000000000000000e+03 2.891001701354980469e+01 2.370952606201171875e+01 5.653106570243835449e-01 7.738301753997802734e-01 4.017422497272491455e-01 3.864223659038543701e-01
2.458000000000000000e+03 7.005799770355224609e+00 9.814477920532226562e+00 -2.155641850549727678e-04 -1.191966730402782559e-04 -1.004282530630007386e-04 -7.783533874317072332e-06
2.459000000000000000e+03 6.886764526367187500e+01 -3.227395296096801758e+00 -2.066445797681808472e-01 8.056113243103027344e+00 2.354840755462646484e+00 -4.909542202949523926e-01
2.460000000000000000e+03 6.922848510742187500e+01 -6.077083110809326172e+00 -1.653228998184204102e-01 8.127441406250000000e+00 2.388635396957397461e+00 -4.066073000431060791e-01
2.461000000000000000e+03 6.910762023925781250e+01 1.019485592842102051e+00 -2.239521592855453491e-01 7.989433765411376953e+00 2.329644441604614258e+00 -6.204825639724731445e-01
2.462000000000000000e+03 8.162988662719726562e+00 -1.372171878814697266e+01 -5.249603418633341789e-04 1.222303353642928414e-06 -1.571214088471606374e-04 3.163838409818708897e-04
2.463000000000000000e+03 6.866087341308593750e+01 -1.092758846282958984e+01 -1.451290696859359741e-01 8.137475967407226562e+00 2.397704124450683594e+00 -3.011775612831115723e-01
2.464000000000000000e+03 6.833039855957031250e+01 -1.247816085815429688e+01 -1.313079595565795898e-01 8.121167182922363281e+00 2.396957874298095703e+00 -2.747361660003662109e-01
2.465000000000000000e+03 4.684458923339843750e+01 2.802006530761718750e+01 1.077274441719055176e+00 1.233455562591552734e+01 4.023549079895019531e+00 -1.504121422767639160e-01
2.466000000000000000e+03 6.940848541259765625e+01 1.249346351623535156e+01 -1.751719564199447632e-01 7.631940364837646484e+00 2.237030506134033203e+00 -1.000586032867431641e+00
2.467000000000000000e+03 6.923278808593750000e+01 1.134314346313476562e+01 -1.979871094226837158e-01 7.684479713439941406e+00 2.245947837829589844e+00 -9.735238552093505859e-01
2.468000000000000000e+03 4.880809783935546875e+01 2.950569725036621094e+01 2.365696430206298828e+00 1.147717857360839844e+01 4.152862548828125000e+00 -8.695050477981567383e-01
2.469000000000000000e+03 3.194081687927246094e+01 1.869692039489746094e+01 4.025107026100158691e-01 2.327863454818725586e+00 8.191122412681579590e-01 1.126576662063598633e+00
2.470000000000000000e+03 3.000000381469726562e+01 1.709112739562988281e+01 2.474500983953475952e-01 1.909943222999572754e+00 6.472179889678955078e-01 9.261074662208557129e-01
2.471000000000000000e+03 3.066376876831054688e+01 -3.426282405853271484e+00 -1.641081124544143677e-01 3.079284906387329102e+00 8.745530247688293457e-01 4.839961826801300049e-01
2.472000000000000000e+03 3.078318214416503906e+01 1.299652004241943359e+01 1.058380585163831711e-02 2.500294923782348633e+00 7.532635927200317383e-01 9.888494014739990234e-01
2.473000000000000000e+03 2.976982879638671875e+01 1.585613536834716797e+01 1.670120358467102051e-01 1.960278391838073730e+00 6.381871700286865234e-01 9.183424115180969238e-01
2.474000000000000000e+03 3.120435333251953125e+01 1.661075210571289062e+01 2.241045385599136353e-01 2.331730842590332031e+00 7.667506337165832520e-01 1.058127999305725098e+00
2.475000000000000000e+03 3.232724380493164062e+01 2.810118675231933594e+01 8.992586731910705566e-01 6.361721754074096680e-01 4.606292545795440674e-01 3.090113997459411621e-01
2.476000000000000000e+03 3.070310974121093750e+01 1.039839553833007812e+01 -7.976072281599044800e-02 2.654828310012817383e+00 7.725202441215515137e-01 9.270047545433044434e-01
2.477000000000000000e+03 6.834886169433593750e+01 1.960878181457519531e+01 -1.627628691494464874e-02 7.424391746520996094e+00 2.222434520721435547e+00 -1.185803651809692383e+00
2.478000000000000000e+03 7.130691528320312500e+01 7.383611679077148438e+00 -1.546864360570907593e-01 7.823966026306152344e+00 2.300783872604370117e+00 -7.566874623298645020e-01
2.479000000000000000e+03 6.996053314208984375e+01 7.557969093322753906e+00 -2.027850598096847534e-01 7.815723419189453125e+00 2.283881425857543945e+00 -8.215649127960205078e-01
2.480000000000000000e+03 6.791603088378906250e+01 -2.369367599487304688e+01 -7.548805326223373413e-02 8.156152725219726562e+00 2.424199342727661133e+00 -1.215930283069610596e-01
2.481000000000000000e+03 6.667134094238281250e+01 -2.447136306762695312e+01 -8.328323811292648315e-02 7.972189903259277344e+00 2.366672039031982422e+00 -1.250083446502685547e-01
2.482000000000000000e+03 7.480334281921386719e+00 -2.142786598205566406e+01 1.355358865112066269e-03 -2.530692145228385925e-04 3.306869184598326683e-04 1.314368681050837040e-03
2.483000000000000000e+03 7.170653533935546875e+01 -7.069379806518554688e+00 -1.007370799779891968e-01 8.356999397277832031e+00 2.476878643035888672e+00 -3.359232842922210693e-01
2.484000000000000000e+03 6.927613067626953125e+01 1.446253967285156250e+01 -1.463334709405899048e-01 7.552138805389404297e+00 2.221741676330566406e+00 -1.061485171318054199e+00
2.485000000000000000e+03 3.067688369750976562e+01 -1.287491035461425781e+01 -1.099686846137046814e-01 3.155745267868041992e+00 9.137329459190368652e-01 2.649266123771667480e-01
2.486000000000000000e+03 7.037719726562500000e+01 1.003717803955078125e+01 -1.748858392238616943e-01 7.704969882965087891e+00 2.259025096893310547e+00 -8.832191228866577148e-01
2.487000000000000000e+03 8.134719848632812500e+00 1.850639343261718750e+01 -1.718546554911881685e-04 -8.652050746604800224e-05 -7.751254452159628272e-05 1.189668837469071150e-04
2.488000000000000000e+03 6.994757843017578125e+01 -1.257534313201904297e+01 -1.097042262554168701e-01 8.280600547790527344e+00 2.451268911361694336e+00 -2.606594860553741455e-01
2.489000000000000000e+03 6.938895416259765625e+01 -1.676980972290039062e+01 -9.298373758792877197e-02 8.267173767089843750e+00 2.452257156372070312e+00 -1.963459849357604980e-01
2.490000000000000000e+03 6.124160289764404297e+00 2.204780197143554688e+01 7.050211424939334393e-04 9.287016291636973619e-05 2.393673930782824755e-04 7.474379526684060693e-05
2.491000000000000000e+03 8.639660835266113281e+00 -3.035985374450683594e+01 -1.685181865468621254e-03 1.101928879506886005e-03 -1.749758957885205746e-04 1.248407643288373947e-03
2.492000000000000000e+03 9.183733940124511719e+00 -2.903691101074218750e+01 -6.425565807148814201e-04 1.908369245938956738e-03 3.797438112087547779e-04 5.828912617289461195e-05
2.493000000000000000e+03 6.909254455566406250e+01 -9.633781433105468750e+00 -1.482563167810440063e-01 8.158556938171386719e+00 2.403090238571166992e+00 -3.271354138851165771e-01
2.494000000000000000e+03 2.876144409179687500e+01 -6.929953098297119141e+00 -1.037539914250373840e-01 2.781011819839477539e+00 8.031772971153259277e-01 3.583972752094268799e-01
2.495000000000000000e+03 3.034282493591308594e+01 -4.615659713745117188e+00 -1.498628705739974976e-01 3.042702674865722656e+00 8.678519725799560547e-01 4.411400258541107178e-01
2.496000000000000000e+03 3.140810203552246094e+01 -1.558649635314941406e+01 -1.118212863802909851e-01 3.291647434234619141e+00 9.539478421211242676e-01 2.136612534523010254e-01
2.497000000000000000e+03 2.933325004577636719e+01 -1.763109207153320312e+01 -7.966370135545730591e-02 3.024801731109619141e+00 8.835414052009582520e-01 1.724609285593032837e-01
2.498000000000000000e+03 7.042119598388671875e+01 -8.445456504821777344e+00 -1.267214715480804443e-01 8.266555786132812500e+00 2.441950321197509766e+00 -3.334792554378509521e-01
2.499000000000000000e+03 3.084689140319824219e+01 1.425286769866943359e+01 7.792343944311141968e-02 2.429880142211914062e+00 7.523410916328430176e-01 1.008991718292236328e+00
2.500000000000000000e+03 6.614434051513671875e+01 -2.710033416748046875e+01 -7.945061475038528442e-02 7.924563407897949219e+00 2.353533983230590820e+00 -9.140557050704956055e-02
2.501000000000000000e+03 3.097809982299804688e+01 1.546757221221923828e+01 1.442748457193374634e-01 2.373409032821655273e+00 7.553051710128784180e-01 1.029716014862060547e+00
2.502000000000000000e+03 3.108361816406250000e+01 6.306985855102539062e+00 -1.685365289449691772e-01 2.933915615081787109e+00 8.296136856079101562e-01 8.103575706481933594e-01
2.503000000000000000e+03 7.003568267822265625e+01 2.182384490966796875e+01 5.696623027324676514e-02 7.121515274047851562e+00 2.153544425964355469e+00 -1.092983245849609375e+00
2.504000000000000000e+03 6.918417358398437500e+01 2.076867866516113281e+01 2.744038403034210205e-02 7.276862144470214844e+00 2.191290855407714844e+00 -1.136112809181213379e+00
2.505000000000000000e+03 3.094633483886718750e+01 7.727985382080078125e+00 -1.401428431272506714e-01 2.848107576370239258e+00 8.123894333839416504e-01 8.591426014900207520e-01
2.506000000000000000e+03 2.992281913757324219e+01 2.170331764221191406e+01 5.456011891365051270e-01 1.269384980201721191e+00 5.444958209991455078e-01 6.881361007690429688e-01
2.507000000000000000e+03 3.093976783752441406e+01 -1.418966102600097656e+01 -1.104243919253349304e-01 3.215616941452026367e+00 9.315577149391174316e-01 2.422134131193161011e-01
2.508000000000000000e+03 2.953161430358886719e+01 -1.611364936828613281e+01 -7.786791026592254639e-02 3.030641078948974609e+00 8.858319520950317383e-01 1.948940157890319824e-01
2.509000000000000000e+03 6.591340637207031250e+01 3.100804138183593750e+01 6.159965991973876953e-01 7.356078147888183594e+00 2.391622543334960938e+00 -8.577572107315063477e-01
2.510000000000000000e+03 6.824584960937500000e+01 2.383860397338867188e+01 1.543410867452621460e-01 7.246501445770263672e+00 2.220252752304077148e+00 -1.151052594184875488e+00
2.511000000000000000e+03 6.913754272460937500e+01 2.274613571166992188e+01 1.095399037003517151e-01 7.178591728210449219e+00 2.186439514160156250e+00 -1.121145963668823242e+00
2.512000000000000000e+03 7.101142120361328125e+01 2.274426651000976562e+01 8.918299525976181030e-02 6.930420398712158203e+00 2.105880975723266602e+00 -1.024673938751220703e+00
2.513000000000000000e+03 6.868228149414062500e+01 2.920298957824707031e+01 3.679462373256683350e-01 6.931324958801269531e+00 2.189781188964843750e+00 -8.911190629005432129e-01
2.514000000000000000e+03 3.199589729309082031e+01 -3.524566268920898438e+01 -6.967186927795410156e-02 3.397644758224487305e+00 9.983918666839599609e-01 7.613035850226879120e-03
2.515000000000000000e+03 2.850939559936523438e+01 -2.490885162353515625e+01 -4.422609508037567139e-02 2.918647289276123047e+00 8.623263835906982422e-01 1.194969490170478821e-01
2.516000000000000000e+03 6.984790802001953125e+01 -2.575287580490112305e+00 -1.845547556877136230e-01 8.103323936462402344e+00 2.375630855560302734e+00 -4.971065521240234375e-01
2.517000000000000000e+03 5.456626510620117188e+01 3.501258087158203125e+01 1.970059156417846680e+00 9.885616302490234375e+00 3.556702613830566406e+00 2.416002154350280762e-01
2.518000000000000000e+03 6.718046569824218750e+01 -2.928926467895507812e+01 -6.163141503930091858e-02 8.046209335327148438e+00 2.395373344421386719e+00 -7.989422231912612915e-02
2.519000000000000000e+03 6.788538360595703125e+01 3.444861984252929688e+01 5.254663825035095215e-01 6.940053462982177734e+00 2.239655971527099609e+00 -5.719454884529113770e-01
2.520000000000000000e+03 6.791567993164062500e+01 -2.151837539672851562e+01 -9.375002980232238770e-02 8.114449501037597656e+00 2.406209707260131836e+00 -1.441054940223693848e-01
2.521000000000000000e+03 3.867245483398437500e+01 2.956657028198242188e+01 2.659048557281494141e+00 2.117457389831542969e+00 1.432951807975769043e+00 2.560886144638061523e+00
2.522000000000000000e+03 4.041850280761718750e+01 2.992331695556640625e+01 3.366934776306152344e+00 4.268774509429931641e+00 2.290712833404541016e+00 4.246344566345214844e+00
2.523000000000000000e+03 4.021023941040039062e+01 3.050302886962890625e+01 3.632827520370483398e+00 3.053437232971191406e+00 2.005879402160644531e+00 3.787055969238281250e+00
2.524000000000000000e+03 4.073856353759765625e+01 2.973547744750976562e+01 3.169404029846191406e+00 5.311693191528320312e+00 2.544329166412353516e+00 4.579012870788574219e+00
2.525000000000000000e+03 4.121987533569335938e+01 2.988002395629882812e+01 3.165204048156738281e+00 6.665559291839599609e+00 2.949229001998901367e+00 5.140099525451660156e+00
2.526000000000000000e+03 3.854165649414062500e+01 2.893884849548339844e+01 2.509407997131347656e+00 2.475068569183349609e+00 1.495342969894409180e+00 2.662091493606567383e+00
2.527000000000000000e+03 4.337691116333007812e+01 2.818604469299316406e+01 7.156563401222229004e-01 1.151684379577636719e+01 3.669749975204467773e+00 3.122576951980590820e+00
2.528000000000000000e+03 4.262541580200195312e+01 2.876543617248535156e+01 1.272342205047607422e+00 1.080852127075195312e+01 3.624259233474731445e+00 4.130834579467773438e+00
2.529000000000000000e+03 4.395138549804687500e+01 2.792464828491210938e+01 4.999209642410278320e-01 1.196483135223388672e+01 3.739425659179687500e+00 2.431591987609863281e+00
2.530000000000000000e+03 2.963570213317871094e+01 2.784103965759277344e+01 5.173754692077636719e-01 3.773271739482879639e-01 2.684107720851898193e-01 -3.149292618036270142e-02
2.531000000000000000e+03 2.909646797180175781e+01 2.684387779235839844e+01 5.393046140670776367e-01 4.203623831272125244e-01 2.879001200199127197e-01 3.720824420452117920e-02
2.532000000000000000e+03 2.869835853576660156e+01 2.472188186645507812e+01 5.479172468185424805e-01 6.155385971069335938e-01 3.490367531776428223e-01 2.461114078760147095e-01
2.533000000000000000e+03 3.299895095825195312e+01 2.813032913208007812e+01 1.020457386970520020e+00 7.257585525512695312e-01 5.238647460937500000e-01 4.415983855724334717e-01
2.534000000000000000e+03 3.608613967895507812e+01 2.827963066101074219e+01 1.760700464248657227e+00 1.404286384582519531e+00 9.494960308074951172e-01 1.385258555412292480e+00
2.535000000000000000e+03 3.759968185424804688e+01 2.805848693847656250e+01 2.131339550018310547e+00 2.308569192886352539e+00 1.331972599029541016e+00 2.248560667037963867e+00
2.536000000000000000e+03 3.662371826171875000e+01 2.824511528015136719e+01 1.913862228393554688e+00 1.649645090103149414e+00 1.069052219390869141e+00 1.664196491241455078e+00
2.537000000000000000e+03 3.592541503906250000e+01 2.724285507202148438e+01 1.707886576652526855e+00 1.794163703918457031e+00 1.050615072250366211e+00 1.577031970024108887e+00
2.538000000000000000e+03 4.775979614257812500e+01 2.735906410217285156e+01 8.602421879768371582e-01 1.163921451568603516e+01 3.749837160110473633e+00 -3.965501785278320312e-01
2.539000000000000000e+03 4.596468353271484375e+01 2.852983093261718750e+01 1.098055481910705566e+00 1.307157039642333984e+01 4.250887870788574219e+00 2.474876046180725098e-01
2.540000000000000000e+03 3.087876510620117188e+01 2.647380638122558594e+01 7.998977303504943848e-01 7.327057719230651855e-01 4.597810506820678711e-01 3.284112513065338135e-01
2.541000000000000000e+03 3.113818931579589844e+01 2.739290237426757812e+01 7.573227286338806152e-01 6.073455214500427246e-01 4.094004631042480469e-01 2.154681384563446045e-01
2.542000000000000000e+03 3.432257461547851562e+01 2.756073570251464844e+01 1.366467952728271484e+00 1.104107141494750977e+00 7.411724925041198730e-01 9.091042876243591309e-01
2.543000000000000000e+03 3.492123031616210938e+01 2.764190292358398438e+01 1.498837709426879883e+00 1.233352541923522949e+00 8.196570873260498047e-01 1.079680085182189941e+00
2.544000000000000000e+03 3.369543838500976562e+01 2.751174926757812500e+01 1.247580051422119141e+00 9.794473648071289062e-01 6.681082248687744141e-01 7.477605938911437988e-01
2.545000000000000000e+03 3.236702728271484375e+01 2.739148330688476562e+01 9.865653514862060547e-01 7.806278467178344727e-01 5.301579833030700684e-01 4.435049593448638916e-01
2.546000000000000000e+03 2.998232078552246094e+01 2.379409027099609375e+01 6.894972324371337891e-01 9.750208258628845215e-01 4.993554353713989258e-01 5.245562791824340820e-01
2.547000000000000000e+03 4.958298492431640625e+01 2.744096755981445312e+01 1.272492170333862305e+00 1.094575309753417969e+01 3.665473461151123047e+00 -8.615770339965820312e-01
2.548000000000000000e+03 5.084848022460937500e+01 2.836598587036132812e+01 1.725069046020507812e+00 1.050467300415039062e+01 3.668922662734985352e+00 -9.923143982887268066e-01
2.549000000000000000e+03 6.825682067871093750e+01 1.271769046783447266e+01 -2.107830792665481567e-01 7.683046340942382812e+00 2.241678953170776367e+00 -1.054473400115966797e+00
2.550000000000000000e+03 6.733325958251953125e+01 7.907509803771972656e+00 -2.980073094367980957e-01 7.829940795898437500e+00 2.259580135345458984e+00 -9.035112261772155762e-01
2.551000000000000000e+03 9.206833839416503906e+00 9.137927055358886719e+00 2.497787936590611935e-04 1.564936392242088914e-04 1.218817342305555940e-04 1.151282162936695386e-06
2.552000000000000000e+03 7.020328521728515625e+01 8.577584028244018555e-01 -1.821048110723495483e-01 8.039884567260742188e+00 2.357333898544311523e+00 -5.910163521766662598e-01
2.553000000000000000e+03 3.263331222534179688e+01 1.718610382080078125e+01 2.612016201019287109e-01 2.747357606887817383e+00 9.025677442550659180e-01 1.207798361778259277e+00
2.554000000000000000e+03 3.300336074829101562e+01 1.816938018798828125e+01 3.574708402156829834e-01 2.760361909866333008e+00 9.353498220443725586e-01 1.272185444831848145e+00
2.555000000000000000e+03 2.846050834655761719e+01 2.574499702453613281e+01 5.208165049552917480e-01 4.545080661773681641e-01 2.925973832607269287e-01 1.028002351522445679e-01
2.556000000000000000e+03 5.148443984985351562e+01 3.091531562805175781e+01 2.660067319869995117e+00 1.025555610656738281e+01 3.874687194824218750e+00 -5.847940444946289062e-01
2.557000000000000000e+03 6.904450988769531250e+01 1.015248298645019531e+01 -2.132000327110290527e-01 7.737726211547851562e+00 2.257357835769653320e+00 -9.432255029678344727e-01
2.558000000000000000e+03 6.863758850097656250e+01 7.733925342559814453e+00 -2.438655346632003784e-01 7.819921970367431641e+00 2.272816896438598633e+00 -8.714552521705627441e-01
2.559000000000000000e+03 6.743192291259765625e+01 1.841148948669433594e+01 -7.012794166803359985e-02 7.554881095886230469e+00 2.245425939559936523e+00 -1.206451058387756348e+00
2.560000000000000000e+03 6.859962463378906250e+01 1.533309650421142578e+01 -1.466225385665893555e-01 7.573836803436279297e+00 2.228164434432983398e+00 -1.115045905113220215e+00
2.561000000000000000e+03 3.236399078369140625e+01 1.616511726379394531e+01 1.780063211917877197e-01 2.745902299880981445e+00 8.771725893020629883e-01 1.163529872894287109e+00
2.562000000000000000e+03 3.193632507324218750e+01 1.148617553710937500e+01 -7.920456677675247192e-02 2.932612895965576172e+00 8.560224771499633789e-01 1.020401835441589355e+00
2.563000000000000000e+03 3.204957962036132812e+01 1.275051593780517578e+01 -3.289883211255073547e-02 2.903517246246337891e+00 8.611854910850524902e-01 1.057161331176757812e+00
2.564000000000000000e+03 6.764377593994140625e+01 1.624778747558593750e+01 -1.441902816295623779e-01 7.614464282989501953e+00 2.241082191467285156e+00 -1.159522294998168945e+00
2.565000000000000000e+03 3.078441810607910156e+01 9.069172859191894531e+00 -1.121455952525138855e-01 2.740385293960571289e+00 7.884719371795654297e-01 8.882362246513366699e-01
2.566000000000000000e+03 3.178915596008300781e+01 1.025397872924804688e+01 -1.187087520956993103e-01 2.949439525604248047e+00 8.492192029953002930e-01 9.731780290603637695e-01
2.567000000000000000e+03 3.136287498474121094e+01 2.023885154724121094e+01 5.187659263610839844e-01 1.931315779685974121e+00 7.350245118141174316e-01 1.012875914573669434e+00
2.568000000000000000e+03 3.084180068969726562e+01 2.161828041076660156e+01 6.419207453727722168e-01 1.543852806091308594e+00 6.557320356369018555e-01 8.608313202857971191e-01
2.569000000000000000e+03 8.712245941162109375e+00 1.933432197570800781e+01 1.588406739756464958e-04 2.281502529513090849e-04 1.160972824436612427e-04 -1.032396612572483718e-04
2.570000000000000000e+03 6.602875709533691406e+00 -2.224251747131347656e+01 -1.541239325888454914e-03 -8.677528239786624908e-04 -7.226976449601352215e-04 -6.316567305475473404e-04
2.571000000000000000e+03 6.367248916625976562e+01 -2.176033973693847656e+01 -1.326533108949661255e-01 7.606110572814941406e+00 2.242037296295166016e+00 -1.520143598318099976e-01
2.572000000000000000e+03 6.521340179443359375e+01 -2.511674499511718750e+01 -9.963889420032501221e-02 7.800326347351074219e+00 2.310206174850463867e+00 -1.141742393374443054e-01
2.573000000000000000e+03 3.013097000122070312e+01 -5.664838790893554688e+00 -1.401703208684921265e-01 2.999574899673461914e+00 8.578213453292846680e-01 4.044840931892395020e-01
2.574000000000000000e+03 3.243808746337890625e+01 1.967484474182128906e+01 5.062165260314941406e-01 2.342409133911132812e+00 8.545876741409301758e-01 1.183475494384765625e+00
2.575000000000000000e+03 2.946951484680175781e+01 -9.146128296852111816e-01 -1.360822916030883789e-01 2.778547286987304688e+00 7.927394509315490723e-01 5.302780866622924805e-01
2.576000000000000000e+03 6.793536376953125000e+01 -1.943975067138671875e+01 -1.044987440109252930e-01 8.108286857604980469e+00 2.401136636734008789e+00 -1.706500053405761719e-01
2.577000000000000000e+03 6.705775451660156250e+01 -2.240096092224121094e+01 -8.119613677263259888e-02 8.025405883789062500e+00 2.383262872695922852e+00 -1.445773541927337646e-01
2.578000000000000000e+03 6.930077362060546875e+01 2.458403015136718750e+01 1.776619255542755127e-01 7.052948951721191406e+00 2.169183254241943359e+00 -1.080683350563049316e+00
2.579000000000000000e+03 6.812158966064453125e+01 2.175460243225097656e+01 6.953006982803344727e-02 7.356155395507812500e+00 2.227705717086791992e+00 -1.190093278884887695e+00
2.580000000000000000e+03 3.069164657592773438e+01 3.984018802642822266e+00 -1.736021488904953003e-01 2.890918254852294922e+00 8.151948451995849609e-01 7.082916498184204102e-01
2.581000000000000000e+03 2.956546783447265625e+01 2.773872137069702148e+00 -1.377570331096649170e-01 2.684188127517700195e+00 7.639293670654296875e-01 6.384446620941162109e-01
2.582000000000000000e+03 2.999242591857910156e+01 2.273252296447753906e+01 6.442326307296752930e-01 1.117325425148010254e+00 5.284674167633056641e-01 6.198381781578063965e-01
2.583000000000000000e+03 6.837217712402343750e+01 -8.922930955886840820e-01 -2.313248366117477417e-01 7.991060256958007812e+00 2.327920675277709961e+00 -5.732483267784118652e-01
2.584000000000000000e+03 6.818654632568359375e+01 -2.622367143630981445e+00 -2.315425276756286621e-01 8.001115798950195312e+00 2.330871820449829102e+00 -5.231288671493530273e-01
2.585000000000000000e+03 3.258351135253906250e+01 6.320831775665283203e+00 -2.178673744201660156e-01 3.293669700622558594e+00 9.227406978607177734e-01 8.573029637336730957e-01
2.586000000000000000e+03 3.088475227355957031e+01 5.049223423004150391e+00 -1.689146310091018677e-01 2.927628278732299805e+00 8.276140689849853516e-01 7.614501118659973145e-01
2.587000000000000000e+03 3.203773498535156250e+01 1.398451995849609375e+01 4.115296900272369385e-02 2.837130069732666016e+00 8.634849190711975098e-01 1.098669052124023438e+00
2.588000000000000000e+03 3.215086746215820312e+01 1.511149978637695312e+01 1.136123985052108765e-01 2.768970251083374023e+00 8.647748231887817383e-01 1.132593989372253418e+00
2.589000000000000000e+03 3.223123931884765625e+01 7.776811599731445312e+00 -1.851299256086349487e-01 3.173871278762817383e+00 8.966224193572998047e-01 9.006199240684509277e-01
2.590000000000000000e+03 3.077866363525390625e+01 2.834415197372436523e+00 -1.683038622140884399e-01 2.939361333847045898e+00 8.313172459602355957e-01 6.820387244224548340e-01
2.591000000000000000e+03 3.172895622253417969e+01 4.286706924438476562e+00 -2.040946185588836670e-01 3.124492883682250977e+00 8.761194944381713867e-01 7.667815089225769043e-01
2.592000000000000000e+03 3.102931213378906250e+01 -2.069426536560058594e+01 -7.994776964187622070e-02 3.242126464843750000e+00 9.486536383628845215e-01 1.475634276866912842e-01
2.593000000000000000e+03 6.694944000244140625e+01 2.680765533447265625e+01 3.650635778903961182e-01 7.294091224670410156e+00 2.297746419906616211e+00 -1.095073342323303223e+00
2.594000000000000000e+03 6.879772949218750000e+01 2.565177345275878906e+01 2.382199168205261230e-01 7.081715106964111328e+00 2.195980548858642578e+00 -1.062401533126831055e+00
2.595000000000000000e+03 6.835369110107421875e+01 6.529516220092773438e+00 -2.640559673309326172e-01 7.850984573364257812e+00 2.276078462600708008e+00 -8.337357640266418457e-01
2.596000000000000000e+03 7.046134185791015625e+01 -5.935219287872314453e+00 -1.354658305644989014e-01 8.225605010986328125e+00 2.427041769027709961e+00 -3.886902928352355957e-01
2.597000000000000000e+03 6.913617706298828125e+01 -7.333528995513916016e+00 -1.576657593250274658e-01 8.136575698852539062e+00 2.393672943115234375e+00 -3.761405646800994873e-01
2.598000000000000000e+03 3.189665031433105469e+01 -2.392891311645507812e+01 -8.395090699195861816e-02 3.398429632186889648e+00 9.943436384201049805e-01 9.838193655014038086e-02
2.599000000000000000e+03 3.038007164001464844e+01 -2.479524803161621094e+01 -5.565699934959411621e-02 3.123849868774414062e+00 9.204578399658203125e-01 1.064351052045822144e-01
2.600000000000000000e+03 2.788604164123535156e+01 -3.342269515991210938e+01 9.507803246378898621e-03 2.825347661972045898e+00 8.504566550254821777e-01 4.152498766779899597e-02
2.601000000000000000e+03 2.779415321350097656e+01 -3.104819297790527344e+01 2.523321192711591721e-03 2.812192678451538086e+00 8.444147706031799316e-01 7.351604849100112915e-02
2.602000000000000000e+03 7.054330444335937500e+01 4.815382480621337891e+00 -1.807652115821838379e-01 7.921395301818847656e+00 2.322188854217529297e+00 -7.077803015708923340e-01
2.603000000000000000e+03 4.028113174438476562e+01 2.957727813720703125e+01 3.082379341125488281e+00 4.284970760345458984e+00 2.210204839706420898e+00 4.054718971252441406e+00
2.604000000000000000e+03 3.920455551147460938e+01 2.957503128051757812e+01 2.846907854080200195e+00 2.683654785156250000e+00 1.659168839454650879e+00 3.008110284805297852e+00
2.605000000000000000e+03 4.105242538452148438e+01 2.955933761596679688e+01 2.923062562942504883e+00 6.297293663024902344e+00 2.766106843948364258e+00 4.777072906494140625e+00
2.606000000000000000e+03 3.829480361938476562e+01 2.839007568359375000e+01 2.344771862030029297e+00 2.682167768478393555e+00 1.508081912994384766e+00 2.614179611206054688e+00
2.607000000000000000e+03 4.091518783569335938e+01 2.912557029724121094e+01 2.639571428298950195e+00 6.140503406524658203e+00 2.634022474288940430e+00 4.534206867218017578e+00
2.608000000000000000e+03 4.117226409912109375e+01 2.835967636108398438e+01 1.952392816543579102e+00 7.186954498291015625e+00 2.741804122924804688e+00 4.301310539245605469e+00
2.609000000000000000e+03 3.696584320068359375e+01 2.762473678588867188e+01 1.943362832069396973e+00 2.148162841796875000e+00 1.227457642555236816e+00 1.980895638465881348e+00
2.610000000000000000e+03 4.236249923706054688e+01 2.804199790954589844e+01 1.111813426017761230e+00 9.674529075622558594e+00 3.235902786254882812e+00 3.921157836914062500e+00
2.611000000000000000e+03 4.453590011596679688e+01 2.756318855285644531e+01 3.781991600990295410e-01 1.199889564514160156e+01 3.713128566741943359e+00 1.847304344177246094e+00
2.612000000000000000e+03 4.633483505249023438e+01 2.723418617248535156e+01 4.712320864200592041e-01 1.201503372192382812e+01 3.745879888534545898e+00 3.633285164833068848e-01
2.613000000000000000e+03 4.515548324584960938e+01 2.710023498535156250e+01 2.440852373838424683e-01 1.184729862213134766e+01 3.627414941787719727e+00 1.282191872596740723e+00
2.614000000000000000e+03 2.937445449829101562e+01 2.589176177978515625e+01 6.240559816360473633e-01 5.702120661735534668e-01 3.582803905010223389e-01 1.872587651014328003e-01
2.615000000000000000e+03 3.253555297851562500e+01 2.672161102294921875e+01 1.049304127693176270e+00 9.594001770019531250e-01 6.026113033294677734e-01 5.921750068664550781e-01
2.616000000000000000e+03 3.172069168090820312e+01 2.740593147277832031e+01 8.783350586891174316e-01 6.935402154922485352e-01 4.715625643730163574e-01 3.345146775245666504e-01
2.617000000000000000e+03 3.304273223876953125e+01 2.747466278076171875e+01 1.119832396507263184e+00 8.989449739456176758e-01 6.056331992149353027e-01 5.950994491577148438e-01
2.618000000000000000e+03 3.550342178344726562e+01 2.720598220825195312e+01 1.601259827613830566e+00 1.651896476745605469e+00 9.759469032287597656e-01 1.395878195762634277e+00
2.619000000000000000e+03 3.680485153198242188e+01 2.705795288085937500e+01 1.829661726951599121e+00 2.331804990768432617e+00 1.248440027236938477e+00 1.983552217483520508e+00
2.620000000000000000e+03 3.650221633911132812e+01 2.769747734069824219e+01 1.867702603340148926e+00 1.860800385475158691e+00 1.118550896644592285e+00 1.738305449485778809e+00
2.621000000000000000e+03 3.499251937866210938e+01 2.701646804809570312e+01 1.492355227470397949e+00 1.471057415008544922e+00 8.890237808227539062e-01 1.216058611869812012e+00
2.622000000000000000e+03 3.569433593750000000e+01 2.681801795959472656e+01 1.631678819656372070e+00 1.882221579551696777e+00 1.054170131683349609e+00 1.564341545104980469e+00
2.623000000000000000e+03 4.284290313720703125e+01 2.768292236328125000e+01 7.423914074897766113e-01 1.024077129364013672e+01 3.294948816299438477e+00 3.330121517181396484e+00
2.624000000000000000e+03 3.437862777709960938e+01 2.686550331115722656e+01 1.401114940643310547e+00 1.321979403495788574e+00 8.169283270835876465e-01 1.071646571159362793e+00
2.625000000000000000e+03 3.188372421264648438e+01 2.123343658447265625e+01 6.558966040611267090e-01 1.913115501403808594e+00 7.707036137580871582e-01 1.046688437461853027e+00
2.626000000000000000e+03 3.198664474487304688e+01 2.629571723937988281e+01 9.748755097389221191e-01 9.126744866371154785e-01 5.662649869918823242e-01 5.448293685913085938e-01
2.627000000000000000e+03 3.147019004821777344e+01 2.685501670837402344e+01 8.807877302169799805e-01 7.509396672248840332e-01 4.895182251930236816e-01 3.822606205940246582e-01
2.628000000000000000e+03 3.198426818847656250e+01 2.511920356750488281e+01 9.729673862457275391e-01 1.171692132949829102e+00 6.433978676795959473e-01 7.243972420692443848e-01
2.629000000000000000e+03 2.974842453002929688e+01 2.487317276000976562e+01 6.839631199836730957e-01 7.892187833786010742e-01 4.419545829296112061e-01 3.795030415058135986e-01
2.630000000000000000e+03 3.475042343139648438e+01 1.727096366882324219e+01 2.122642546892166138e-01 3.501740932464599609e+00 1.114201545715332031e+00 1.413698673248291016e+00
2.631000000000000000e+03 3.100581169128417969e+01 2.258688735961914062e+01 7.018638253211975098e-01 1.431209444999694824e+00 6.399219632148742676e-01 8.017582297325134277e-01
2.632000000000000000e+03 3.353923034667968750e+01 9.761569023132324219e+00 -1.898032277822494507e-01 3.476107120513916016e+00 9.858911633491516113e-01 1.036127567291259766e+00
2.633000000000000000e+03 3.347578430175781250e+01 1.910185241699218750e+01 4.531070291996002197e-01 2.809900760650634766e+00 9.789023399353027344e-01 1.342993497848510742e+00
2.634000000000000000e+03 6.750379180908203125e+01 2.517146110534667969e+01 2.660634517669677734e-01 7.278725624084472656e+00 2.263436794281005859e+00 -1.143654346466064453e+00
2.635000000000000000e+03 3.410303497314453125e+01 1.409710407257080078e+01 -2.577243745326995850e-02 3.497229814529418945e+00 1.041437149047851562e+00 1.227557659149169922e+00
2.636000000000000000e+03 6.878413391113281250e+01 3.811737060546875000e+00 -2.381850630044937134e-01 7.914618968963623047e+00 2.302930116653442383e+00 -7.238493561744689941e-01
2.637000000000000000e+03 3.396517181396484375e+01 1.769762992858886719e+01 2.844150066375732422e-01 3.167899608612060547e+00 1.035694360733032227e+00 1.369698405265808105e+00
2.638000000000000000e+03 3.493133926391601562e+01 1.176415538787841797e+01 -1.967284530401229858e-01 3.873640060424804688e+00 1.103073477745056152e+00 1.155844449996948242e+00
2.639000000000000000e+03 6.737266540527343750e+01 -3.652361392974853516e+00 -2.479607313871383667e-01 7.956037998199462891e+00 2.312423229217529297e+00 -4.967296123504638672e-01
2.640000000000000000e+03 6.925676727294921875e+01 -4.945814132690429688e+00 -1.717678755521774292e-01 8.113829612731933594e+00 2.382618427276611328e+00 -4.354341626167297363e-01
2.641000000000000000e+03 6.951787567138671875e+01 1.355325126647949219e+01 -1.597153991460800171e-01 7.575997829437255859e+00 2.224884748458862305e+00 -1.025185108184814453e+00
2.642000000000000000e+03 3.133424758911132812e+01 -5.241542339324951172e+00 -1.727593690156936646e-01 3.215383291244506836e+00 9.127871990203857422e-01 4.412142634391784668e-01
2.643000000000000000e+03 3.222605895996093750e+01 -3.314829349517822266e+00 -2.087949663400650024e-01 3.355061054229736328e+00 9.438798427581787109e-01 4.950773417949676514e-01
2.644000000000000000e+03 3.205140686035156250e+01 -7.679076194763183594e+00 -1.722641736268997192e-01 3.361172199249267578e+00 9.566724300384521484e-01 3.865164220333099365e-01
2.645000000000000000e+03 3.177988433837890625e+01 -6.400692462921142578e+00 -1.746243685483932495e-01 3.310427665710449219e+00 9.407410025596618652e-01 4.182729423046112061e-01
2.646000000000000000e+03 6.994892120361328125e+01 -1.418932819366455078e+01 -9.548398852348327637e-02 8.304966926574707031e+00 2.462844848632812500e+00 -2.299453914165496826e-01
2.647000000000000000e+03 6.918576812744140625e+01 -8.524861335754394531e+00 -1.541676670312881470e-01 8.154222488403320312e+00 2.400016546249389648e+00 -3.497129380702972412e-01
2.648000000000000000e+03 6.885627746582031250e+01 8.941339492797851562e+00 -2.330372035503387451e-01 7.780095100402832031e+00 2.264117479324340820e+00 -9.070152044296264648e-01
2.649000000000000000e+03 6.797953033447265625e+01 5.311956405639648438e+00 -2.730814814567565918e-01 7.872854709625244141e+00 2.279932022094726562e+00 -7.936902642250061035e-01
2.650000000000000000e+03 2.829626655578613281e+01 3.338864743709564209e-01 -1.008765622973442078e-01 2.491411924362182617e+00 7.171606421470642090e-01 5.229659676551818848e-01
2.651000000000000000e+03 3.085201835632324219e+01 1.608982801437377930e+00 -1.762677580118179321e-01 3.005003690719604492e+00 8.486207723617553711e-01 6.472086310386657715e-01
2.652000000000000000e+03 3.091172218322753906e+01 3.509220480918884277e-01 -1.790360510349273682e-01 3.047017812728881836e+00 8.603945374488830566e-01 6.025497913360595703e-01
2.653000000000000000e+03 3.090973281860351562e+01 -8.951143622398376465e-01 -1.836254149675369263e-01 3.063180208206176758e+00 8.638664484024047852e-01 5.610241293907165527e-01
2.654000000000000000e+03 2.886110877990722656e+01 -1.066459655761718750e+01 -8.120737969875335693e-02 2.850463628768920898e+00 8.307768702507019043e-01 2.908499240875244141e-01
2.655000000000000000e+03 3.052813911437988281e+01 -1.162209606170654297e+01 -1.150588318705558777e-01 3.123955488204956055e+00 9.026690125465393066e-01 2.828949987888336182e-01
2.656000000000000000e+03 3.329034805297851562e+01 1.478051185607910156e+01 6.251783668994903564e-02 3.187530040740966797e+00 9.750143289566040039e-01 1.207837700843811035e+00
2.657000000000000000e+03 6.712683105468750000e+01 2.066945075988769531e+01 2.979089319705963135e-02 7.510502338409423828e+00 2.262088060379028320e+00 -1.227875709533691406e+00
2.658000000000000000e+03 6.767512512207031250e+01 1.033716392517089844e+01 -2.609706819057464600e-01 7.770297527313232422e+00 2.252798080444335938e+00 -9.885459542274475098e-01
2.659000000000000000e+03 3.237251663208007812e+01 -1.359730529785156250e+01 -1.394648551940917969e-01 3.424567699432373047e+00 9.855308532714843750e-01 2.455399483442306519e-01
2.660000000000000000e+03 3.220772552490234375e+01 -1.248057651519775391e+01 -1.419795602560043335e-01 3.401963233947753906e+00 9.779950976371765137e-01 2.773069143295288086e-01
2.661000000000000000e+03 6.920957183837890625e+01 -3.966149330139160156e+00 -1.865637898445129395e-01 8.090987205505371094e+00 2.371327161788940430e+00 -4.665822386741638184e-01
2.662000000000000000e+03 6.830625152587890625e+01 -4.000642776489257812e+00 -2.107756882905960083e-01 8.026974678039550781e+00 2.344859600067138672e+00 -4.761894345283508301e-01
2.663000000000000000e+03 3.300516510009765625e+01 -1.462235450744628906e+01 -1.417654752731323242e-01 3.535578489303588867e+00 1.018143892288208008e+00 2.403094172477722168e-01
2.664000000000000000e+03 6.686532592773437500e+01 -1.845209884643554688e+01 -1.241327673196792603e-01 7.970963478088378906e+00 2.354049205780029297e+00 -1.853814125061035156e-01
2.665000000000000000e+03 6.695309448242187500e+01 -2.042767906188964844e+01 -1.114442646503448486e-01 7.984424591064453125e+00 2.361894130706787109e+00 -1.671589016914367676e-01
2.666000000000000000e+03 3.669506835937500000e+01 4.325269699096679688e+00 -4.071271419525146484e-01 4.345039367675781250e+00 1.181373715400695801e+00 7.811126112937927246e-01
2.667000000000000000e+03 3.303398513793945312e+01 4.708810806274414062e+00 -2.512213289737701416e-01 3.449546575546264648e+00 9.594975709915161133e-01 8.007779717445373535e-01
2.668000000000000000e+03 3.234505844116210938e+01 -1.690351104736328125e+01 -1.148845329880714417e-01 3.430824756622314453e+00 9.947820901870727539e-01 1.983187496662139893e-01
2.669000000000000000e+03 6.523385620117187500e+01 2.600399208068847656e+01 4.065883159637451172e-01 7.590677738189697266e+00 2.399179697036743164e+00 -1.194608569145202637e+00
2.670000000000000000e+03 9.265311241149902344e+00 2.019800949096679688e+01 -1.532749593025073409e-04 -2.571621735114604235e-04 -1.231311325682327151e-04 2.248867676826193929e-04
2.671000000000000000e+03 6.465355682373046875e+01 -2.323563766479492188e+01 -1.054900884628295898e-01 7.738373279571533203e+00 2.289864778518676758e+00 -1.354313045740127563e-01
2.672000000000000000e+03 2.995933914184570312e+01 -2.319515991210937500e+01 -6.284826248884201050e-02 3.096063375473022461e+00 9.099645614624023438e-01 1.298197209835052490e-01
2.673000000000000000e+03 3.113819313049316406e+01 -2.270536994934082031e+01 -7.210902869701385498e-02 3.255456924438476562e+00 9.550043940544128418e-01 1.244146376848220825e-01
2.674000000000000000e+03 6.229210281372070312e+01 2.351120376586914062e+01 2.710471749305725098e-01 8.053169250488281250e+00 2.497264862060546875e+00 -1.316164612770080566e+00
2.675000000000000000e+03 6.776242828369140625e+01 1.079779148101806641e+00 -2.651253938674926758e-01 7.933441162109375000e+00 2.300494909286499023e+00 -6.443700194358825684e-01
2.676000000000000000e+03 6.949624633789062500e+01 2.275744438171386719e+00 -2.175117135047912598e-01 7.974249362945556641e+00 2.327021360397338867e+00 -6.546167731285095215e-01
2.677000000000000000e+03 4.006732940673828125e+01 3.006564712524414062e+01 3.349095106124877930e+00 3.318578481674194336e+00 2.000302076339721680e+00 3.767992734909057617e+00
2.678000000000000000e+03 3.974385452270507812e+01 2.924795913696289062e+01 2.898888587951660156e+00 3.694267511367797852e+00 1.977946758270263672e+00 3.656774997711181641e+00
2.679000000000000000e+03 4.055974960327148438e+01 2.935214805603027344e+01 2.874231815338134766e+00 5.193573474884033203e+00 2.420341491699218750e+00 4.327893257141113281e+00
2.680000000000000000e+03 4.166761016845703125e+01 2.802500724792480469e+01 1.539112210273742676e+00 8.231890678405761719e+00 2.931300878524780273e+00 4.131656169891357422e+00
2.681000000000000000e+03 3.805124664306640625e+01 2.788931083679199219e+01 2.151184558868408203e+00 2.762057304382324219e+00 1.473972558975219727e+00 2.522942781448364258e+00
2.682000000000000000e+03 3.940145111083984375e+01 2.906599044799804688e+01 2.730675220489501953e+00 3.376113414764404297e+00 1.832036614418029785e+00 3.305675983428955078e+00
2.683000000000000000e+03 3.782745742797851562e+01 2.743036079406738281e+01 2.010099172592163086e+00 2.823944330215454102e+00 1.450213074684143066e+00 2.445730447769165039e+00
2.684000000000000000e+03 4.085689926147460938e+01 2.775413322448730469e+01 1.790387988090515137e+00 6.648313045501708984e+00 2.531610250473022461e+00 3.958032369613647461e+00
2.685000000000000000e+03 3.065508079528808594e+01 2.525012016296386719e+01 8.000329136848449707e-01 8.987872600555419922e-01 5.096460580825805664e-01 4.695117771625518799e-01
2.686000000000000000e+03 3.137058639526367188e+01 2.577875900268554688e+01 9.091200232505798340e-01 9.270867705345153809e-01 5.508620142936706543e-01 5.264458060264587402e-01
2.687000000000000000e+03 4.244104003906250000e+01 2.759221267700195312e+01 9.459316134452819824e-01 9.630255699157714844e+00 3.172856092453002930e+00 3.651470661163330078e+00
2.688000000000000000e+03 3.372290802001953125e+01 2.682710647583007812e+01 1.275558233261108398e+00 1.193951964378356934e+00 7.408530712127685547e-01 8.880159854888916016e-01
2.689000000000000000e+03 3.109346008300781250e+01 2.364575386047363281e+01 8.020392060279846191e-01 1.244814276695251465e+00 6.140560507774353027e-01 7.089853882789611816e-01
2.690000000000000000e+03 4.414888763427734375e+01 2.692544364929199219e+01 2.272756397724151611e-01 1.116825675964355469e+01 3.418659687042236328e+00 2.137299060821533203e+00
2.691000000000000000e+03 4.558688354492187500e+01 2.778774261474609375e+01 5.867494344711303711e-01 1.249337863922119141e+01 3.924038648605346680e+00 8.232036232948303223e-01
2.692000000000000000e+03 3.727537155151367188e+01 2.699970054626464844e+01 1.855404853820800781e+00 2.674635410308837891e+00 1.359012126922607422e+00 2.208223819732666016e+00
2.693000000000000000e+03 3.634509277343750000e+01 2.714600372314453125e+01 1.771787643432617188e+00 2.031850337982177734e+00 1.141091346740722656e+00 1.767941713333129883e+00
2.694000000000000000e+03 4.861879730224609375e+01 2.649545669555664062e+01 6.649371385574340820e-01 1.108442974090576172e+01 3.524810075759887695e+00 -5.290962457656860352e-01
2.695000000000000000e+03 3.367044448852539062e+01 2.609329414367675781e+01 1.242025971412658691e+00 1.381297945976257324e+00 7.869971394538879395e-01 9.864518046379089355e-01
2.696000000000000000e+03 3.448818206787109375e+01 2.607573699951171875e+01 1.360976457595825195e+00 1.651916623115539551e+00 9.038679599761962891e-01 1.243939042091369629e+00
2.697000000000000000e+03 3.344992065429687500e+01 2.526150131225585938e+01 1.161418437957763672e+00 1.528625011444091797e+00 8.070130348205566406e-01 1.037808179855346680e+00
2.698000000000000000e+03 4.843013000488281250e+01 2.473478507995605469e+01 4.394661262631416321e-02 1.054397773742675781e+01 3.176377296447753906e+00 -2.040624618530273438e-01
2.699000000000000000e+03 5.162425994873046875e+01 2.685501670837402344e+01 1.062044262886047363e+00 1.013924884796142578e+01 3.360387802124023438e+00 -1.027976870536804199e+00
2.700000000000000000e+03 3.440586090087890625e+01 2.441857719421386719e+01 1.162603259086608887e+00 2.141757965087890625e+00 9.913083314895629883e-01 1.381590127944946289e+00
2.701000000000000000e+03 3.136830329895019531e+01 2.455360984802246094e+01 8.542381525039672852e-01 1.149215102195739746e+00 6.010359525680541992e-01 6.646776795387268066e-01
2.702000000000000000e+03 5.238894271850585938e+01 2.911748695373535156e+01 1.873132944107055664e+00 9.983235359191894531e+00 3.556910514831542969e+00 -9.530773162841796875e-01
2.703000000000000000e+03 6.753873443603515625e+01 4.076024055480957031e+00 -2.870867550373077393e-01 7.887112140655517578e+00 2.280007600784301758e+00 -7.534984350204467773e-01
2.704000000000000000e+03 3.214163970947265625e+01 2.341226005554199219e+01 9.022654294967651367e-01 1.610339760780334473e+00 7.537815570831298828e-01 9.782868623733520508e-01
2.705000000000000000e+03 3.444805908203125000e+01 1.853404617309570312e+01 3.688374757766723633e-01 3.271767854690551758e+00 1.092181563377380371e+00 1.450173854827880859e+00
2.706000000000000000e+03 3.545571517944335938e+01 1.593013858795166016e+01 5.050269514322280884e-02 3.855238437652587891e+00 1.171722412109375000e+00 1.391711592674255371e+00
2.707000000000000000e+03 3.272925186157226562e+01 1.011566734313964844e+01 -1.455789506435394287e-01 3.198033809661865234e+00 9.157364368438720703e-01 1.022507429122924805e+00
2.708000000000000000e+03 3.454536819458007812e+01 1.299544715881347656e+01 -1.014030426740646362e-01 3.713921070098876953e+00 1.083755493164062500e+00 1.209854245185852051e+00
2.709000000000000000e+03 3.191034507751464844e+01 9.040847778320312500e+00 -1.428305804729461670e-01 3.053390502929687500e+00 8.731679916381835938e-01 9.427467584609985352e-01
2.710000000000000000e+03 3.447584152221679688e+01 9.095339775085449219e+00 -2.570593357086181641e-01 3.793052673339843750e+00 1.060798048973083496e+00 1.001279830932617188e+00
2.711000000000000000e+03 3.034836006164550781e+01 -7.931661128997802734e+00 -1.290065944194793701e-01 3.053887367248535156e+00 8.774642348289489746e-01 3.616536259651184082e-01
2.712000000000000000e+03 3.036368751525878906e+01 -9.151809692382812500e+00 -1.187347844243049622e-01 3.077194690704345703e+00 8.875379562377929688e-01 3.418175876140594482e-01
2.713000000000000000e+03 3.351457977294921875e+01 8.150867462158203125e+00 -2.336082309484481812e-01 3.525759935379028320e+00 9.876455068588256836e-01 9.560676217079162598e-01
2.714000000000000000e+03 6.623748016357421875e+01 1.056963634490966797e+01 -3.109561204910278320e-01 7.818901062011718750e+00 2.252383470535278320e+00 -1.022433757781982422e+00
2.715000000000000000e+03 6.750465393066406250e+01 9.107195854187011719e+00 -2.780214548110961914e-01 7.805090904235839844e+00 2.258120775222778320e+00 -9.513618350028991699e-01
2.716000000000000000e+03 4.579565429687500000e+01 2.653017997741699219e+01 1.749265640974044800e-01 1.152052879333496094e+01 3.508636713027954102e+00 8.517605066299438477e-01
2.717000000000000000e+03 4.643041229248046875e+01 2.585094833374023438e+01 4.695648327469825745e-02 1.115191841125488281e+01 3.359662294387817383e+00 5.404073596000671387e-01
2.718000000000000000e+03 6.813543701171875000e+01 -9.143116950988769531e+00 -1.691233217716217041e-01 8.064943313598632812e+00 2.368746042251586914e+00 -3.470714688301086426e-01
2.719000000000000000e+03 3.368129348754882812e+01 -1.807432556152343750e+01 -1.294974535703659058e-01 3.642411708831787109e+00 1.053874254226684570e+00 1.821041256189346313e-01
2.720000000000000000e+03 6.709153747558593750e+01 6.743759632110595703e+00 -3.036282956600189209e-01 7.845997810363769531e+00 2.262710809707641602e+00 -8.641752004623413086e-01
2.721000000000000000e+03 3.211638641357421875e+01 1.798056483268737793e+00 -2.273504585027694702e-01 3.298732042312622070e+00 9.214144349098205566e-01 6.814040541648864746e-01
2.722000000000000000e+03 6.720193481445312500e+01 -1.043999481201171875e+01 -1.824136227369308472e-01 7.979689598083496094e+00 2.339182853698730469e+00 -3.238767981529235840e-01
2.723000000000000000e+03 3.197543144226074219e+01 3.043850421905517578e+00 -2.108113020658493042e-01 3.235447883605957031e+00 9.073909521102905273e-01 7.386001348495483398e-01
2.724000000000000000e+03 3.371218109130859375e+01 9.416509270668029785e-01 -2.777652740478515625e-01 3.620278596878051758e+00 1.002753973007202148e+00 6.590823531150817871e-01
2.725000000000000000e+03 6.774737548828125000e+01 1.432657146453857422e+01 -1.932670772075653076e-01 7.667549133300781250e+00 2.242284536361694336e+00 -1.112829089164733887e+00
2.726000000000000000e+03 6.513407135009765625e+01 1.823212623596191406e+01 -1.123234555125236511e-01 7.788069248199462891e+00 2.302723646163940430e+00 -1.264558553695678711e+00
2.727000000000000000e+03 6.645497894287109375e+01 1.719875144958496094e+01 -1.343571394681930542e-01 7.681615829467773438e+00 2.264177560806274414e+00 -1.218017935752868652e+00
2.728000000000000000e+03 3.271651077270507812e+01 -4.527597904205322266e+00 -2.113324701786041260e-01 3.449827432632446289e+00 9.715484380722045898e-01 4.696676433086395264e-01
2.729000000000000000e+03 6.809079742431640625e+01 -4.996722698211669922e+00 -2.086430788040161133e-01 8.024278640747070312e+00 2.344690799713134766e+00 -4.537606537342071533e-01
2.730000000000000000e+03 3.337603378295898438e+01 -5.808795928955078125e+00 -2.201070189476013184e-01 3.590127944946289062e+00 1.011006236076354980e+00 4.357602298259735107e-01
2.731000000000000000e+03 3.349970626831054688e+01 -2.614464282989501953e+00 -2.577523887157440186e-01 3.615137338638305664e+00 1.007215499877929688e+00 5.369414687156677246e-01
2.732000000000000000e+03 6.749298858642578125e+01 -1.745783615112304688e+01 -1.204902529716491699e-01 8.050054550170898438e+00 2.378869295120239258e+00 -2.000982016324996948e-01
2.733000000000000000e+03 6.740905761718750000e+01 -1.983726859092712402e+00 -2.555218338966369629e-01 7.948237895965576172e+00 2.307814836502075195e+00 -5.480341911315917969e-01
2.734000000000000000e+03 6.685756683349609375e+01 -4.849120140075683594e+00 -2.390927821397781372e-01 7.933647155761718750e+00 2.308366298675537109e+00 -4.704214334487915039e-01
2.735000000000000000e+03 6.613732147216796875e+01 2.436221694946289062e+01 2.336711883544921875e-01 7.509550571441650391e+00 2.322966575622558594e+00 -1.224171280860900879e+00
2.736000000000000000e+03 6.598204803466796875e+01 -2.286655807495117188e+01 -9.641484916210174561e-02 7.880298614501953125e+00 2.335165262222290039e+00 -1.370315253734588623e-01
2.737000000000000000e+03 6.104990386962890625e+01 -2.310766983032226562e+01 -1.556783467531204224e-01 7.284874439239501953e+00 2.138758897781372070e+00 -1.226630657911300659e-01
2.738000000000000000e+03 5.768605041503906250e+01 3.296470260620117188e+01 1.605002641677856445e+00 8.944477081298828125e+00 3.164843797683715820e+00 -4.556387066841125488e-01
2.739000000000000000e+03 5.610637664794921875e+01 3.023171806335449219e+01 1.624142527580261230e+00 9.107387542724609375e+00 3.219459056854248047e+00 -8.190733790397644043e-01
2.740000000000000000e+03 3.776334762573242188e+01 4.145402526855468750e+01 1.102456450462341309e+00 1.796985626220703125e+00 8.698326349258422852e-01 -8.643670380115509033e-02
2.741000000000000000e+03 3.982514572143554688e+01 2.884008407592773438e+01 2.607352495193481445e+00 4.221197605133056641e+00 2.048564910888671875e+00 3.672670125961303711e+00
2.742000000000000000e+03 3.909308624267578125e+01 2.860060310363769531e+01 2.509142160415649414e+00 3.299380064010620117e+00 1.742556691169738770e+00 3.119386196136474609e+00
2.743000000000000000e+03 3.846021270751953125e+01 2.763387298583984375e+01 2.091027736663818359e+00 3.298846244812011719e+00 1.616962194442749023e+00 2.752063751220703125e+00
2.744000000000000000e+03 3.875417709350585938e+01 2.809748458862304688e+01 2.308004379272460938e+00 3.318647384643554688e+00 1.687995553016662598e+00 2.950138330459594727e+00
2.745000000000000000e+03 3.741306304931640625e+01 2.753941726684570312e+01 2.002185583114624023e+00 2.482385873794555664e+00 1.345371365547180176e+00 2.226607322692871094e+00
2.746000000000000000e+03 4.063559341430664062e+01 2.863000297546386719e+01 2.391022682189941406e+00 5.786348819732666016e+00 2.453211307525634766e+00 4.215878486633300781e+00
2.747000000000000000e+03 4.206254959106445312e+01 2.768096542358398438e+01 1.149865150451660156e+00 9.046594619750976562e+00 3.058938026428222656e+00 3.872932195663452148e+00
2.748000000000000000e+03 3.610629653930664062e+01 2.659347915649414062e+01 1.651078462600708008e+00 2.124219179153442383e+00 1.132589340209960938e+00 1.730006575584411621e+00
2.749000000000000000e+03 3.663265228271484375e+01 2.646795272827148438e+01 1.662493348121643066e+00 2.497903108596801758e+00 1.248118996620178223e+00 1.962545394897460938e+00
2.750000000000000000e+03 4.366232299804687500e+01 2.732478904724121094e+01 4.124315977096557617e-01 1.104958629608154297e+01 3.438605308532714844e+00 2.641895294189453125e+00
2.751000000000000000e+03 3.442330551147460938e+01 2.519264602661132812e+01 1.274579167366027832e+00 1.925592780113220215e+00 9.600515961647033691e-01 1.342990398406982422e+00
2.752000000000000000e+03 3.568066787719726562e+01 2.535597610473632812e+01 1.414264678955078125e+00 2.343986988067626953e+00 1.127475500106811523e+00 1.697853446006774902e+00
2.753000000000000000e+03 3.718878173828125000e+01 2.640938568115234375e+01 1.713686585426330566e+00 2.903532981872558594e+00 1.385165810585021973e+00 2.226329803466796875e+00
2.754000000000000000e+03 3.260607910156250000e+01 2.566377449035644531e+01 1.070733308792114258e+00 1.217216610908508301e+00 6.863849759101867676e-01 7.903264164924621582e-01
2.755000000000000000e+03 4.468078613281250000e+01 2.644619369506835938e+01 1.107479557394981384e-01 1.108672237396240234e+01 3.359241247177124023e+00 1.687903523445129395e+00
2.756000000000000000e+03 3.495701217651367188e+01 1.043469905853271484e+01 -2.411066889762878418e-01 3.917544841766357422e+00 1.102931499481201172e+00 1.083855986595153809e+00
2.757000000000000000e+03 3.210886383056640625e+01 2.233495712280273438e+01 7.822691202163696289e-01 1.808943390846252441e+00 7.773637175559997559e-01 1.044243693351745605e+00
2.758000000000000000e+03 3.314402770996093750e+01 2.236989593505859375e+01 8.452810049057006836e-01 2.128052234649658203e+00 8.919999599456787109e-01 1.224170088768005371e+00
2.759000000000000000e+03 6.666014099121093750e+01 1.193366527557373047e+01 -2.779682576656341553e-01 7.781952857971191406e+00 2.251195430755615234e+00 -1.067695021629333496e+00
2.760000000000000000e+03 3.233492279052734375e+01 -2.103368520736694336e+00 -2.205339521169662476e-01 3.376884460449218750e+00 9.469051361083984375e-01 5.447309017181396484e-01
2.761000000000000000e+03 3.231463623046875000e+01 5.320216417312622070e-01 -2.329450994729995728e-01 3.351721525192260742e+00 9.356328845024108887e-01 6.290395855903625488e-01
2.762000000000000000e+03 3.299090194702148438e+01 2.066159057617187500e+01 6.311423182487487793e-01 2.385365724563598633e+00 9.049524068832397461e-01 1.256375670433044434e+00
2.763000000000000000e+03 4.708649444580078125e+01 2.654418373107910156e+01 3.905009329319000244e-01 1.148100185394287109e+01 3.561450958251953125e+00 6.338102370500564575e-02
2.764000000000000000e+03 3.501198959350585938e+01 1.934580230712890625e+01 4.419717490673065186e-01 3.392032146453857422e+00 1.150201201438903809e+00 1.546799063682556152e+00
2.765000000000000000e+03 6.673088836669921875e+01 5.577543735504150391e+00 -3.280153572559356689e-01 7.859023571014404297e+00 2.259302616119384766e+00 -8.218323588371276855e-01
2.766000000000000000e+03 3.687812042236328125e+01 1.109755229949951172e+01 -3.227594792842864990e-01 4.451042652130126953e+00 1.238484859466552734e+00 1.133327841758728027e+00
2.767000000000000000e+03 3.617443466186523438e+01 1.213512897491455078e+01 -2.402019798755645752e-01 4.260168552398681641e+00 1.205989956855773926e+00 1.184787034988403320e+00
2.768000000000000000e+03 6.714199829101562500e+01 1.318188476562500000e+01 -2.332922965288162231e-01 7.734786033630371094e+00 2.250448226928710938e+00 -1.100422978401184082e+00
2.769000000000000000e+03 4.935092926025390625e+01 2.543531990051269531e+01 3.801197707653045654e-01 1.062043285369873047e+01 3.300165891647338867e+00 -5.796641707420349121e-01
2.770000000000000000e+03 5.039490509033203125e+01 2.617077255249023438e+01 7.621727585792541504e-01 1.043029022216796875e+01 3.357738733291625977e+00 -8.771151900291442871e-01
2.771000000000000000e+03 3.571491241455078125e+01 1.342126274108886719e+01 -1.507118791341781616e-01 4.079063892364501953e+00 1.178505659103393555e+00 1.261634945869445801e+00
2.772000000000000000e+03 3.420109176635742188e+01 -1.361403274536132812e+01 -1.768268048763275146e-01 3.733702182769775391e+00 1.067062616348266602e+00 2.656562924385070801e-01
2.773000000000000000e+03 3.373991775512695312e+01 -1.059414100646972656e+01 -1.889556497335433960e-01 3.659810066223144531e+00 1.041256308555603027e+00 3.254077434539794922e-01
2.774000000000000000e+03 3.317415618896484375e+01 2.431662750244140625e+01 1.058412075042724609e+00 1.695593237876892090e+00 8.262015581130981445e-01 1.089054822921752930e+00
2.775000000000000000e+03 6.862697601318359375e+01 1.374295234680175781e+01 -1.793401241302490234e-01 7.631651401519775391e+00 2.235693454742431641e+00 -1.074112892150878906e+00
2.776000000000000000e+03 3.563926696777343750e+01 4.199888408184051514e-01 -3.532600402832031250e-01 4.074226856231689453e+00 1.116289973258972168e+00 6.289271116256713867e-01
2.777000000000000000e+03 6.791721343994140625e+01 -7.296033382415771484e+00 -1.909482032060623169e-01 8.045610427856445312e+00 2.356398820877075195e+00 -3.945168554782867432e-01
2.778000000000000000e+03 6.732772827148437500e+01 -8.352602005004882812e+00 -1.934020072221755981e-01 7.997220993041992188e+00 2.341145753860473633e+00 -3.649066984653472900e-01
2.779000000000000000e+03 3.461447906494140625e+01 1.564151000976562500e+01 6.520433723926544189e-02 3.554341316223144531e+00 1.085863709449768066e+00 1.328778743743896484e+00
2.780000000000000000e+03 6.710076904296875000e+01 2.294801521301269531e+01 1.478929668664932251e-01 7.425494194030761719e+00 2.272016048431396484e+00 -1.207998871803283691e+00
2.781000000000000000e+03 3.388576889038085938e+01 -7.174573898315429688e+00 -2.239366024732589722e-01 3.674187183380126953e+00 1.035075187683105469e+00 3.940070867538452148e-01
2.782000000000000000e+03 6.731735229492187500e+01 -2.877446413040161133e-01 -2.762185335159301758e-01 7.932810306549072266e+00 2.296977519989013672e+00 -6.044338345527648926e-01
2.783000000000000000e+03 6.666953277587890625e+01 -1.349097371101379395e+00 -2.743245363235473633e-01 7.909697055816650391e+00 2.290611743927001953e+00 -5.719564557075500488e-01
2.784000000000000000e+03 6.827934265136718750e+01 2.507551670074462891e+00 -2.565344572067260742e-01 7.928074359893798828e+00 2.301461935043334961e+00 -6.871311068534851074e-01
2.785000000000000000e+03 6.673369598388671875e+01 1.507221698760986328e+01 -1.978048831224441528e-01 7.714968204498291016e+00 2.255148887634277344e+00 -1.163040041923522949e+00
2.786000000000000000e+03 6.612872314453125000e+01 1.949820137023925781e+01 -2.922953851521015167e-02 7.656573772430419922e+00 2.288203239440917969e+00 -1.263669133186340332e+00
2.787000000000000000e+03 6.596389770507812500e+01 2.189698791503906250e+01 9.824460744857788086e-02 7.606448650360107422e+00 2.311408042907714844e+00 -1.271075606346130371e+00
2.788000000000000000e+03 3.679415130615234375e+01 1.769047355651855469e+01 1.186517328023910522e-01 4.356476783752441406e+00 1.342538595199584961e+00 1.604773283004760742e+00
2.789000000000000000e+03 3.451842498779296875e+01 1.656398391723632812e+01 1.475570052862167358e-01 3.436502933502197266e+00 1.075217962265014648e+00 1.360007405281066895e+00
2.790000000000000000e+03 7.123740386962890625e+01 -1.672400474548339844e+01 -6.818571686744689941e-02 8.479163169860839844e+00 2.523293256759643555e+00 -1.811304837465286255e-01
2.791000000000000000e+03 6.819300079345703125e+01 -1.424033451080322266e+01 -1.298048049211502075e-01 8.117435455322265625e+00 2.396289348602294922e+00 -2.442213892936706543e-01
2.792000000000000000e+03 6.277000045776367188e+01 -1.782813453674316406e+01 -1.812075078487396240e-01 7.509128570556640625e+00 2.198376178741455078e+00 -1.909531354904174805e-01
2.793000000000000000e+03 6.589815521240234375e+01 -1.934496307373046875e+01 -1.217436641454696655e-01 7.882312297821044922e+00 2.328170537948608398e+00 -1.747696101665496826e-01
2.794000000000000000e+03 6.586197662353515625e+01 6.960863113403320312e+00 -3.561176061630249023e-01 7.846475601196289062e+00 2.247107267379760742e+00 -8.835998773574829102e-01
2.795000000000000000e+03 6.390056991577148438e+01 5.625709533691406250e+00 -4.377460181713104248e-01 7.831238269805908203e+00 2.218047618865966797e+00 -8.229708671569824219e-01
2.796000000000000000e+03 6.609471130371093750e+01 -9.349155426025390625e+00 -2.081483751535415649e-01 7.886873722076416016e+00 2.303617715835571289e+00 -3.514751791954040527e-01
2.797000000000000000e+03 3.225767517089843750e+01 -1.939326477050781250e+01 -1.105372756719589233e-01 3.436466455459594727e+00 9.977787137031555176e-01 1.599670052528381348e-01
2.798000000000000000e+03 6.436113739013671875e+01 2.789179611206054688e+01 5.722976922988891602e-01 7.690194606781005859e+00 2.478747606277465820e+00 -1.109125733375549316e+00
2.799000000000000000e+03 6.363804244995117188e+01 2.488840484619140625e+01 3.452384769916534424e-01 7.855089187622070312e+00 2.460098266601562500e+00 -1.275503396987915039e+00
2.800000000000000000e+03 6.901687622070312500e+01 -2.665679359436035156e+01 -6.527200341224670410e-02 8.276737213134765625e+00 2.463439702987670898e+00 -9.257645905017852783e-02
2.801000000000000000e+03 4.030910873413085938e+01 2.806496620178222656e+01 2.156428098678588867e+00 5.546497821807861328e+00 2.310877799987792969e+00 3.878168821334838867e+00
2.802000000000000000e+03 4.056525421142578125e+01 2.717733764648437500e+01 1.625431537628173828e+00 6.247257232666015625e+00 2.361806631088256836e+00 3.675777196884155273e+00
2.803000000000000000e+03 3.815953063964843750e+01 2.718133544921875000e+01 1.979632735252380371e+00 3.244308233261108398e+00 1.567182302474975586e+00 2.647799491882324219e+00
2.804000000000000000e+03 4.244609832763671875e+01 2.699397087097167969e+01 7.052899599075317383e-01 9.289192199707031250e+00 2.998344659805297852e+00 3.306534051895141602e+00
2.805000000000000000e+03 3.576026535034179688e+01 2.598749351501464844e+01 1.495978832244873047e+00 2.192463874816894531e+00 1.106532812118530273e+00 1.663678526878356934e+00
2.806000000000000000e+03 3.773223876953125000e+01 2.699193382263183594e+01 1.902420878410339355e+00 3.019234180450439453e+00 1.476496458053588867e+00 2.440552949905395508e+00
2.807000000000000000e+03 4.136244964599609375e+01 2.740625953674316406e+01 1.405739665031433105e+00 7.509477138519287109e+00 2.674565076828002930e+00 3.834191560745239258e+00
2.808000000000000000e+03 4.523978805541992188e+01 2.588417434692382812e+01 -3.514356538653373718e-02 1.094295120239257812e+01 3.272342205047607422e+00 1.278579950332641602e+00
2.809000000000000000e+03 3.516898345947265625e+01 2.160667419433593750e+01 7.559310197830200195e-01 3.069254636764526367e+00 1.147555708885192871e+00 1.622509121894836426e+00
2.810000000000000000e+03 3.516133499145507812e+01 2.500955772399902344e+01 1.343524694442749023e+00 2.237709045410156250e+00 1.074370145797729492e+00 1.579185485839843750e+00
2.811000000000000000e+03 3.710000228881835938e+01 2.575948333740234375e+01 1.567031860351562500e+00 3.073619604110717773e+00 1.392195463180541992e+00 2.202155351638793945e+00
2.812000000000000000e+03 3.645991516113281250e+01 2.586736869812011719e+01 1.558945655822753906e+00 2.667890071868896484e+00 1.268050789833068848e+00 1.969599008560180664e+00
2.813000000000000000e+03 3.649375152587890625e+01 2.435593414306640625e+01 1.263015270233154297e+00 3.202056884765625000e+00 1.339521646499633789e+00 2.040716886520385742e+00
2.814000000000000000e+03 4.467659378051757812e+01 2.526452064514160156e+01 -9.567178785800933838e-02 1.028173160552978516e+01 3.055817842483520508e+00 1.620853304862976074e+00
2.815000000000000000e+03 3.369750595092773438e+01 2.148720169067382812e+01 7.386282086372375488e-01 2.485872268676757812e+00 9.673501253128051758e-01 1.353345036506652832e+00
2.816000000000000000e+03 3.401566314697265625e+01 1.998053359985351562e+01 5.534799098968505859e-01 2.898818969726562500e+00 1.035689711570739746e+00 1.428450942039489746e+00
2.817000000000000000e+03 3.225133132934570312e+01 2.436026000976562500e+01 9.715788364410400391e-01 1.406579971313476562e+00 7.134476304054260254e-01 8.870176076889038086e-01
2.818000000000000000e+03 3.411392974853515625e+01 6.743301391601562500e+00 -2.811698019504547119e-01 3.705014944076538086e+00 1.027153611183166504e+00 8.976193070411682129e-01
2.819000000000000000e+03 6.798966217041015625e+01 -6.117498874664306641e+00 -1.946795731782913208e-01 8.036412239074707031e+00 2.352519750595092773e+00 -4.257138967514038086e-01
2.820000000000000000e+03 6.526229095458984375e+01 -6.226828098297119141e+00 -2.813022136688232422e-01 7.799101352691650391e+00 2.255339622497558594e+00 -4.284695982933044434e-01
2.821000000000000000e+03 4.997389602661132812e+01 2.426097488403320312e+01 1.100604757666587830e-01 1.017004013061523438e+01 3.084030389785766602e+00 -6.025863885879516602e-01
2.822000000000000000e+03 3.554915237426757812e+01 2.450720596313476562e+01 1.292298674583435059e+00 2.632187843322753906e+00 1.177345991134643555e+00 1.765864253044128418e+00
2.823000000000000000e+03 3.304128646850585938e+01 2.334970664978027344e+01 9.356639981269836426e-01 1.866077303886413574e+00 8.405224084854125977e-01 1.132764935493469238e+00
2.824000000000000000e+03 6.502673339843750000e+01 8.710218429565429688e+00 -3.767411410808563232e-01 7.852521896362304688e+00 2.242734193801879883e+00 -9.547913670539855957e-01
2.825000000000000000e+03 6.565691375732421875e+01 -2.276594877243041992e+00 -3.051514327526092529e-01 7.846294403076171875e+00 2.262342929840087891e+00 -5.414146184921264648e-01
2.826000000000000000e+03 4.579665756225585938e+01 2.523873710632324219e+01 -1.190684959292411804e-01 1.069894313812255859e+01 3.173962354660034180e+00 9.501380324363708496e-01
2.827000000000000000e+03 4.703519439697265625e+01 2.504903984069824219e+01 -6.218551844358444214e-02 1.076326370239257812e+01 3.210323572158813477e+00 3.262231647968292236e-01
2.828000000000000000e+03 5.412770080566406250e+01 2.974545288085937500e+01 1.805653572082519531e+00 9.518415451049804688e+00 3.397220849990844727e+00 -9.037808775901794434e-01
2.829000000000000000e+03 3.567033767700195312e+01 7.092678070068359375e+00 -3.456047475337982178e-01 4.104663848876953125e+00 1.127717733383178711e+00 9.164798259735107422e-01
2.830000000000000000e+03 3.623120880126953125e+01 1.001807212829589844e+01 -3.132512271404266357e-01 4.273025512695312500e+00 1.187932252883911133e+00 1.078490972518920898e+00
2.831000000000000000e+03 3.593894958496093750e+01 1.523319244384765625e+01 -4.594085365533828735e-02 4.130305290222167969e+00 1.225309252738952637e+00 1.386902332305908203e+00
2.832000000000000000e+03 3.607021713256835938e+01 5.638065814971923828e+00 -3.772653341293334961e-01 4.207124233245849609e+00 1.148957729339599609e+00 8.401229977607727051e-01
2.833000000000000000e+03 3.510254669189453125e+01 1.458918285369873047e+01 -3.539179638028144836e-02 3.825536251068115234e+00 1.137043356895446777e+00 1.313001275062561035e+00
2.834000000000000000e+03 3.521557617187500000e+01 1.670387077331542969e+01 1.180427148938179016e-01 3.719992876052856445e+00 1.151410698890686035e+00 1.400583267211914062e+00
2.835000000000000000e+03 6.407931518554687500e+01 9.738905906677246094e+00 -4.097988307476043701e-01 7.878860473632812500e+00 2.240718603134155273e+00 -9.903072714805603027e-01
2.836000000000000000e+03 3.459976959228515625e+01 2.080230712890625000e+01 6.457535028457641602e-01 2.995970249176025391e+00 1.092517137527465820e+00 1.525440216064453125e+00
2.837000000000000000e+03 6.560789489746093750e+01 5.929248809814453125e+00 -3.614219129085540771e-01 7.847605705261230469e+00 2.245855093002319336e+00 -8.407334089279174805e-01
2.838000000000000000e+03 6.406588745117187500e+01 3.712611198425292969e+00 -4.129189252853393555e-01 7.810257911682128906e+00 2.219201564788818359e+00 -7.453396916389465332e-01
2.839000000000000000e+03 3.413922882080078125e+01 -3.533130288124084473e-01 -2.901949584484100342e-01 3.730813741683959961e+00 1.032185554504394531e+00 6.103133559226989746e-01
2.840000000000000000e+03 3.697116470336914062e+01 1.214070796966552734e+00 -4.066657721996307373e-01 4.364952564239501953e+00 1.187485933303833008e+00 6.422728896141052246e-01
2.841000000000000000e+03 6.452718353271484375e+01 -2.501262664794921875e+00 -3.282730281352996826e-01 7.780614852905273438e+00 2.235702514648437500e+00 -5.355302095413208008e-01
2.842000000000000000e+03 6.635493469238281250e+01 -3.105141639709472656e+00 -2.806552648544311523e-01 7.887975692749023438e+00 2.282196044921875000e+00 -5.220973491668701172e-01
2.843000000000000000e+03 6.555929565429687500e+01 -7.830108642578125000e+00 -2.514608204364776611e-01 7.824419498443603516e+00 2.271887779235839844e+00 -3.902390897274017334e-01
2.844000000000000000e+03 3.321665191650390625e+01 3.267713546752929688e+00 -2.628551423549652100e-01 3.534325838088989258e+00 9.814411997795104980e-01 7.459223866462707520e-01
2.845000000000000000e+03 6.486444854736328125e+01 1.108925914764404297e+01 -3.583608567714691162e-01 7.861590385437011719e+00 2.250968933105468750e+00 -1.046721816062927246e+00
2.846000000000000000e+03 6.604238128662109375e+01 8.066578865051269531e+00 -3.412894308567047119e-01 7.840235233306884766e+00 2.249683856964111328e+00 -9.204609394073486328e-01
2.847000000000000000e+03 6.404621887207031250e+01 7.603441715240478516e+00 -4.272012710571289062e-01 7.855971336364746094e+00 2.228631019592285156e+00 -9.022063612937927246e-01
2.848000000000000000e+03 6.614195251464843750e+01 -5.554164648056030273e-01 -3.044279515743255615e-01 7.868120670318603516e+00 2.269107818603515625e+00 -6.056101918220520020e-01
2.849000000000000000e+03 6.940804290771484375e+01 -6.133249960839748383e-03 -2.078071683645248413e-01 8.022048950195312500e+00 2.344272613525390625e+00 -5.823445916175842285e-01
2.850000000000000000e+03 3.569840240478515625e+01 -2.889869451522827148e+00 -3.207579851150512695e-01 4.046149253845214844e+00 1.117617368698120117e+00 5.116479992866516113e-01
2.851000000000000000e+03 6.622714233398437500e+01 -1.733330535888671875e+01 -1.371072977781295776e-01 7.904286384582519531e+00 2.330153703689575195e+00 -2.000740021467208862e-01
2.852000000000000000e+03 6.643460845947265625e+01 -1.401247787475585938e+01 -1.616181880235671997e-01 7.914520263671875000e+00 2.325870752334594727e+00 -2.547157406806945801e-01
2.853000000000000000e+03 6.300193405151367188e+01 1.389556789398193359e+01 -3.607696592807769775e-01 7.978208065032958984e+00 2.285231351852416992e+00 -1.150694727897644043e+00
2.854000000000000000e+03 6.485676574707031250e+01 2.070574951171875000e+01 3.211844712495803833e-02 7.768530845642089844e+00 2.340194702148437500e+00 -1.295557856559753418e+00
2.855000000000000000e+03 6.479259490966796875e+01 -1.393797016143798828e+01 -1.833702325820922852e-01 7.759942054748535156e+00 2.272971391677856445e+00 -2.591861486434936523e-01
2.856000000000000000e+03 6.708535766601562500e+01 2.812712669372558594e+00 -2.946588099002838135e-01 7.893754482269287109e+00 2.279728651046752930e+00 -7.159308195114135742e-01
2.857000000000000000e+03 3.514873123168945312e+01 -1.449087142944335938e+01 -1.830734014511108398e-01 3.878606081008911133e+00 1.108659863471984863e+00 2.389831095933914185e-01
2.858000000000000000e+03 3.337447357177734375e+01 -1.273369407653808594e+01 -1.705256998538970947e-01 3.592044115066528320e+00 1.026455521583557129e+00 2.814908325672149658e-01
2.859000000000000000e+03 6.377505111694335938e+01 1.936078262329101562e+01 -5.982599034905433655e-02 7.917674064636230469e+00 2.357354402542114258e+00 -1.310211181640625000e+00
2.860000000000000000e+03 3.968793869018554688e+01 2.829324150085449219e+01 2.387264013290405273e+00 4.391241550445556641e+00 2.033551692962646484e+00 3.559413433074951172e+00
2.861000000000000000e+03 3.985409164428710938e+01 2.694431686401367188e+01 1.722371459007263184e+00 5.284968376159667969e+00 2.102201938629150391e+00 3.395847558975219727e+00
2.862000000000000000e+03 3.834375381469726562e+01 2.666266250610351562e+01 1.849684476852416992e+00 3.645333290100097656e+00 1.648505330085754395e+00 2.751610040664672852e+00
2.863000000000000000e+03 4.293971252441406250e+01 2.722934150695800781e+01 5.960927009582519531e-01 1.010554695129394531e+01 3.210491895675659180e+00 3.082908391952514648e+00
2.864000000000000000e+03 3.631155014038085938e+01 2.528656959533691406e+01 1.427697181701660156e+00 2.736472129821777344e+00 1.249250769615173340e+00 1.922155618667602539e+00
2.865000000000000000e+03 3.775871276855468750e+01 2.644897460937500000e+01 1.758307814598083496e+00 3.263024330139160156e+00 1.506399631500244141e+00 2.462107181549072266e+00
2.866000000000000000e+03 4.632789230346679688e+01 2.449840354919433594e+01 -2.334015071392059326e-01 1.043574905395507812e+01 3.060704469680786133e+00 6.998268365859985352e-01
2.867000000000000000e+03 3.692709732055664062e+01 2.503025245666503906e+01 1.399558663368225098e+00 3.221652269363403320e+00 1.386363267898559570e+00 2.163556575775146484e+00
2.868000000000000000e+03 3.391499328613281250e+01 2.403871917724609375e+01 1.100179672241210938e+00 2.017901420593261719e+00 9.354243278503417969e-01 1.301815629005432129e+00
2.869000000000000000e+03 3.390167236328125000e+01 2.270300865173339844e+01 9.264513254165649414e-01 2.350292682647705078e+00 9.830232262611389160e-01 1.387415766716003418e+00
2.870000000000000000e+03 3.530521774291992188e+01 1.790727615356445312e+01 2.466209530830383301e-01 3.680069923400878906e+00 1.178007245063781738e+00 1.491171717643737793e+00
2.871000000000000000e+03 3.582936859130859375e+01 2.384900474548339844e+01 1.134677767753601074e+00 2.954030275344848633e+00 1.226612448692321777e+00 1.817445516586303711e+00
2.872000000000000000e+03 3.447477722167968750e+01 2.379400825500488281e+01 1.077401041984558105e+00 2.364279031753540039e+00 1.032503962516784668e+00 1.447519898414611816e+00
2.873000000000000000e+03 4.268635177612304688e+01 2.633176612854003906e+01 4.751269817352294922e-01 9.253026008605957031e+00 2.918445825576782227e+00 2.970847368240356445e+00
2.874000000000000000e+03 4.324737167358398438e+01 2.678981590270996094e+01 3.966710567474365234e-01 1.018873405456542969e+01 3.175621509552001953e+00 2.776948451995849609e+00
2.875000000000000000e+03 6.385480499267578125e+01 -6.711016178131103516e+00 -3.051498830318450928e-01 7.699738025665283203e+00 2.218376398086547852e+00 -4.112809300422668457e-01
2.876000000000000000e+03 3.535778808593750000e+01 3.652431011199951172e+00 -3.489908874034881592e-01 4.007400035858154297e+00 1.097522735595703125e+00 7.570096254348754883e-01
2.877000000000000000e+03 3.374642181396484375e+01 2.333689308166503906e+01 9.743855595588684082e-01 2.108180761337280273e+00 9.247699379920959473e-01 1.282649755477905273e+00
2.878000000000000000e+03 3.442543411254882812e+01 2.214437103271484375e+01 8.598327040672302246e-01 2.674208164215087891e+00 1.060212254524230957e+00 1.506552219390869141e+00
2.879000000000000000e+03 3.594848251342773438e+01 1.710297012329101562e+01 1.150336116552352905e-01 4.024375915527343750e+00 1.241822957992553711e+00 1.489430308341979980e+00
2.880000000000000000e+03 4.779480361938476562e+01 2.570947647094726562e+01 2.219385951757431030e-01 1.098966217041015625e+01 3.363480329513549805e+00 -9.725684672594070435e-02
2.881000000000000000e+03 3.500323104858398438e+01 1.619710683822631836e+00 -3.338933587074279785e-01 3.938102006912231445e+00 1.081262588500976562e+00 6.829769611358642578e-01
2.882000000000000000e+03 3.621660995483398438e+01 2.393674135208129883e+00 -3.838518261909484863e-01 4.218177318572998047e+00 1.150297641754150391e+00 6.955341100692749023e-01
2.883000000000000000e+03 3.699376678466796875e+01 1.602446937561035156e+01 -4.188230261206626892e-02 4.483267307281494141e+00 1.332415461540222168e+00 1.495887994766235352e+00
2.884000000000000000e+03 3.576415252685546875e+01 8.601012229919433594e+00 -3.255425095558166504e-01 4.120935440063476562e+00 1.138617873191833496e+00 9.921825528144836426e-01
2.885000000000000000e+03 3.749256515502929688e+01 9.599034309387207031e+00 -4.041074514389038086e-01 4.673590183258056641e+00 1.280844807624816895e+00 1.028802037239074707e+00
2.886000000000000000e+03 5.102768325805664062e+01 2.485878562927246094e+01 3.752308785915374756e-01 1.007515430450439453e+01 3.135115623474121094e+00 -8.420290350914001465e-01
2.887000000000000000e+03 6.438024139404296875e+01 -7.443284392356872559e-01 -3.642585277557373047e-01 7.787441253662109375e+00 2.226954698562622070e+00 -5.868474245071411133e-01
2.888000000000000000e+03 6.550704193115234375e+01 3.072860538959503174e-01 -3.389824926853179932e-01 7.843112945556640625e+00 2.251239061355590820e+00 -6.314972639083862305e-01
2.889000000000000000e+03 6.602145385742187500e+01 1.382475471496582031e+01 -2.553676366806030273e-01 7.785735607147216797e+00 2.259110450744628906e+00 -1.138644099235534668e+00
2.890000000000000000e+03 6.215560531616210938e+01 9.455427169799804688e+00 -4.910066127777099609e-01 7.904060363769531250e+00 2.223916053771972656e+00 -9.429972171783447266e-01
2.891000000000000000e+03 4.899612426757812500e+01 2.365275192260742188e+01 -1.441534459590911865e-01 1.016163063049316406e+01 3.005243062973022461e+00 -2.657637000083923340e-01
2.892000000000000000e+03 4.519321060180664062e+01 2.465970420837402344e+01 -2.199664860963821411e-01 1.017945861816406250e+01 2.987847566604614258e+00 1.284599900245666504e+00
2.893000000000000000e+03 3.427741622924804688e+01 2.781673431396484375e+00 -3.070477247238159180e-01 3.757157802581787109e+00 1.035033106803894043e+00 7.315049767494201660e-01
2.894000000000000000e+03 6.447773742675781250e+01 -1.007089900970458984e+01 -2.413663417100906372e-01 7.737010002136230469e+00 2.248692989349365234e+00 -3.356056213378906250e-01
2.895000000000000000e+03 3.712631607055664062e+01 7.232368469238281250e+00 -4.197574257850646973e-01 4.515329360961914062e+00 1.228671550750732422e+00 9.102782011032104492e-01
2.896000000000000000e+03 3.426030731201171875e+01 -3.768197059631347656e+00 -2.704895436763763428e-01 3.770566463470458984e+00 1.050023078918457031e+00 5.060750842094421387e-01
2.897000000000000000e+03 3.576771163940429688e+01 -6.486164569854736328e+00 -2.869127392768859863e-01 4.047011375427246094e+00 1.128029584884643555e+00 4.058906733989715576e-01
2.898000000000000000e+03 3.501486968994140625e+01 -5.057761192321777344e+00 -2.820985317230224609e-01 3.903692483901977539e+00 1.086478233337402344e+00 4.541090428829193115e-01
2.899000000000000000e+03 6.294801330566406250e+01 4.475570678710937500e+00 -4.712940156459808350e-01 7.791317462921142578e+00 2.196007013320922852e+00 -7.579072117805480957e-01
2.900000000000000000e+03 6.495618438720703125e+01 4.840086460113525391e+00 -3.897287547588348389e-01 7.838396072387695312e+00 2.234600305557250977e+00 -7.956452369689941406e-01
2.901000000000000000e+03 6.392914199829101562e+01 -3.941431999206542969e+00 -3.412612378597259521e-01 7.727987766265869141e+00 2.216017961502075195e+00 -4.839828014373779297e-01
2.902000000000000000e+03 6.376285934448242188e+01 -1.919778633117675781e+01 -1.568194329738616943e-01 7.620475769042968750e+00 2.239096879959106445e+00 -1.729802042245864868e-01
2.903000000000000000e+03 6.482638549804687500e+01 1.458917427062988281e+01 -2.673504054546356201e-01 7.853761672973632812e+00 2.275923490524291992e+00 -1.178016066551208496e+00
2.904000000000000000e+03 6.311241531372070312e+01 8.568889617919921875e+00 -4.613291919231414795e-01 7.875201225280761719e+00 2.224161624908447266e+00 -9.239003658294677734e-01
2.905000000000000000e+03 3.310665893554687500e+01 -9.435519218444824219e+00 -1.811098605394363403e-01 3.537834882736206055e+00 1.007017493247985840e+00 3.512172400951385498e-01
2.906000000000000000e+03 6.417448425292968750e+01 -8.261033058166503906e+00 -2.720605432987213135e-01 7.714438915252685547e+00 2.232713460922241211e+00 -3.743706643581390381e-01
2.907000000000000000e+03 3.514883804321289062e+01 -1.674711990356445312e+01 -1.641086935997009277e-01 3.860852003097534180e+00 1.109022974967956543e+00 2.028057277202606201e-01
2.908000000000000000e+03 3.786304473876953125e+01 1.163780117034912109e+01 -3.671178519725799561e-01 4.808788776397705078e+00 1.332501292228698730e+00 1.145335078239440918e+00
2.909000000000000000e+03 3.686096954345703125e+01 1.495361137390136719e+01 -1.218021586537361145e-01 4.427152156829833984e+00 1.291604995727539062e+00 1.382386684417724609e+00
2.910000000000000000e+03 6.231496429443359375e+01 2.671305084228515625e+01 6.052200794219970703e-01 8.045465469360351562e+00 2.595205783843994141e+00 -1.207195043563842773e+00
2.911000000000000000e+03 6.076277160644531250e+01 2.505557823181152344e+01 4.900808632373809814e-01 8.297429084777832031e+00 2.636253118515014648e+00 -1.297252058982849121e+00
2.912000000000000000e+03 4.188518905639648438e+01 2.705727386474609375e+01 9.951876401901245117e-01 8.468200683593750000e+00 2.839016437530517578e+00 3.603757381439208984e+00
2.913000000000000000e+03 3.966482543945312500e+01 2.527985954284667969e+01 1.160195708274841309e+00 5.434548854827880859e+00 1.978423476219177246e+00 2.932871103286743164e+00
2.914000000000000000e+03 3.777303314208984375e+01 2.574217033386230469e+01 1.565557241439819336e+00 3.567309856414794922e+00 1.539860129356384277e+00 2.463193416595458984e+00
2.915000000000000000e+03 3.494494628906250000e+01 2.287914848327636719e+01 9.769257307052612305e-01 2.761404991149902344e+00 1.121499180793762207e+00 1.615742564201354980e+00
2.916000000000000000e+03 3.566153335571289062e+01 2.244161033630371094e+01 9.020119309425354004e-01 3.164642095565795898e+00 1.219996213912963867e+00 1.739431023597717285e+00
2.917000000000000000e+03 4.157704925537109375e+01 2.635936737060546875e+01 8.910504579544067383e-01 7.842612266540527344e+00 2.620098829269409180e+00 3.361488342285156250e+00
2.918000000000000000e+03 3.639985275268554688e+01 2.197220420837402344e+01 7.787310481071472168e-01 3.677977561950683594e+00 1.337012648582458496e+00 1.893907666206359863e+00
2.919000000000000000e+03 3.556909942626953125e+01 2.019857025146484375e+01 5.323985815048217773e-01 3.514779329299926758e+00 1.214153409004211426e+00 1.650982260704040527e+00
2.920000000000000000e+03 3.607807922363281250e+01 2.110851478576660156e+01 6.428354382514953613e-01 3.639438629150390625e+00 1.284682273864746094e+00 1.779279470443725586e+00
2.921000000000000000e+03 4.757556533813476562e+01 2.411951828002929688e+01 -1.962682157754898071e-01 1.035528659820556641e+01 3.047705650329589844e+00 1.927508413791656494e-01
2.922000000000000000e+03 3.619906616210937500e+01 1.614932060241699219e+01 1.528626587241888046e-02 4.212343215942382812e+00 1.268288850784301758e+00 1.461086869239807129e+00
2.923000000000000000e+03 3.772709274291992188e+01 1.817576980590820312e+01 9.671400487422943115e-02 4.734852313995361328e+00 1.449469923973083496e+00 1.691228389739990234e+00
2.924000000000000000e+03 6.228157424926757812e+01 3.217965602874755859e+00 -4.796847105026245117e-01 7.748214721679687500e+00 2.180558919906616211e+00 -6.996542811393737793e-01
2.925000000000000000e+03 6.591147613525390625e+01 3.123642921447753906e+00 -3.438187241554260254e-01 7.855172157287597656e+00 2.253406047821044922e+00 -7.346310019493103027e-01
2.926000000000000000e+03 3.693590545654296875e+01 1.379739475250244141e+01 -2.060554921627044678e-01 4.482438087463378906e+00 1.282914757728576660e+00 1.301618337631225586e+00
2.927000000000000000e+03 3.600054931640625000e+01 1.864222717285156250e+01 2.921950817108154297e-01 3.925222873687744141e+00 1.265225410461425781e+00 1.610054135322570801e+00
2.928000000000000000e+03 3.823958587646484375e+01 1.992796421051025391e+00 -4.609068334102630615e-01 4.655476570129394531e+00 1.258370876312255859e+00 6.428514719009399414e-01
2.929000000000000000e+03 4.742883682250976562e+01 2.148898887634277344e+01 -5.564894080162048340e-01 9.401556015014648438e+00 2.653519868850708008e+00 3.856442570686340332e-01
2.930000000000000000e+03 3.732590484619140625e+01 1.265551376342773438e+01 -2.929277718067169189e-01 4.657742023468017578e+00 1.309444189071655273e+00 1.237969517707824707e+00
2.931000000000000000e+03 3.779147338867187500e+01 1.601194190979003906e+01 -1.195704787969589233e-01 4.802531719207763672e+00 1.404888391494750977e+00 1.465965747833251953e+00
2.932000000000000000e+03 3.795436859130859375e+01 1.065539169311523438e+01 -4.086373150348663330e-01 4.806192874908447266e+00 1.319266676902770996e+00 1.080983161926269531e+00
2.933000000000000000e+03 3.715100479125976562e+01 8.443004608154296875e+00 -4.110324084758758545e-01 4.552965164184570312e+00 1.242579936981201172e+00 9.698117971420288086e-01
2.934000000000000000e+03 3.742628097534179688e+01 6.046636104583740234e+00 -4.389598667621612549e-01 4.556598663330078125e+00 1.235291600227355957e+00 8.526198863983154297e-01
2.935000000000000000e+03 6.480304718017578125e+01 6.617926597595214844e+00 -3.920086324214935303e-01 7.845198631286621094e+00 2.235957145690917969e+00 -8.716534972190856934e-01
2.936000000000000000e+03 3.839076232910156250e+01 1.304230403900146484e+01 -3.437167406082153320e-01 4.975762844085693359e+00 1.389613747596740723e+00 1.238890051841735840e+00
2.937000000000000000e+03 6.346208953857421875e+01 -1.829698443412780762e+00 -3.717975020408630371e-01 7.716605663299560547e+00 2.203442335128784180e+00 -5.448392629623413086e-01
2.938000000000000000e+03 6.280702972412109375e+01 -5.430070877075195312e+00 -3.480498492717742920e-01 7.632176876068115234e+00 2.185238122940063477e+00 -4.310004115104675293e-01
2.939000000000000000e+03 4.950601959228515625e+01 2.249984931945800781e+01 -3.003289401531219482e-01 9.781773567199707031e+00 2.844433546066284180e+00 -3.081740736961364746e-01
2.940000000000000000e+03 6.550703430175781250e+01 2.056996583938598633e+00 -3.483170866966247559e-01 7.841492176055908203e+00 2.247952461242675781e+00 -6.916978955268859863e-01
2.941000000000000000e+03 6.358842468261718750e+01 9.001637250185012817e-02 -4.023754298686981201e-01 7.753505229949951172e+00 2.205338954925537109e+00 -6.095874905586242676e-01
2.942000000000000000e+03 3.712834930419921875e+01 -2.006946563720703125e+00 -3.803035318851470947e-01 4.333568572998046875e+00 1.185979604721069336e+00 5.275012254714965820e-01
2.943000000000000000e+03 6.403679656982421875e+01 -1.688367462158203125e+01 -1.692383587360382080e-01 7.667039871215820312e+00 2.249340534210205078e+00 -2.081524133682250977e-01
2.944000000000000000e+03 6.421738433837890625e+01 1.685620117187500000e+01 -1.984974741935729980e-01 7.883768558502197266e+00 2.305581331253051758e+00 -1.245871067047119141e+00
2.945000000000000000e+03 3.655353927612304688e+01 -4.200426101684570312e+00 -3.354785144329071045e-01 4.197122097015380859e+00 1.158493041992187500e+00 4.658613801002502441e-01
2.946000000000000000e+03 3.617591476440429688e+01 -7.908828258514404297e+00 -2.782349288463592529e-01 4.108711719512939453e+00 1.149143099784851074e+00 3.681103885173797607e-01
2.947000000000000000e+03 6.269641113281250000e+01 1.782568168640136719e+01 -1.899708807468414307e-01 8.031817436218261719e+00 2.352554082870483398e+00 -1.269669890403747559e+00
2.948000000000000000e+03 6.350650787353515625e+01 1.537670993804931641e+01 -2.813659906387329102e-01 7.944170951843261719e+00 2.298841476440429688e+00 -1.205690503120422363e+00
2.949000000000000000e+03 6.036052703857421875e+01 -8.824968338012695312e+00 -3.388707637786865234e-01 7.362712860107421875e+00 2.107152700424194336e+00 -3.110075592994689941e-01
2.950000000000000000e+03 6.290961837768554688e+01 -7.868902683258056641e+00 -3.076424002647399902e-01 7.606861114501953125e+00 2.189765691757202148e+00 -3.730970025062561035e-01
2.951000000000000000e+03 6.086120986938476562e+01 -2.063911437988281250e+01 -1.651304513216018677e-01 7.283769130706787109e+00 2.135591506958007812e+00 -1.394786238670349121e-01
2.952000000000000000e+03 6.387703323364257812e+01 1.898823618888854980e+00 -4.111820757389068604e-01 7.788348674774169922e+00 2.213150024414062500e+00 -6.818640828132629395e-01
2.953000000000000000e+03 6.318568038940429688e+01 2.714422941207885742e+00 -4.414272308349609375e-01 7.775676727294921875e+00 2.200274944305419922e+00 -6.994720101356506348e-01
2.954000000000000000e+03 3.875620269775390625e+01 -9.683462142944335938e+00 -3.150512278079986572e-01 4.521711826324462891e+00 1.261998176574707031e+00 2.988648116588592529e-01
2.955000000000000000e+03 5.882852554321289062e+01 2.601968574523925781e+01 6.674889326095581055e-01 8.599259376525878906e+00 2.780024290084838867e+00 -1.243937492370605469e+00
2.956000000000000000e+03 6.115998077392578125e+01 2.198969650268554688e+01 1.369803249835968018e-01 8.237327575683593750e+00 2.512292385101318359e+00 -1.345023036003112793e+00
2.957000000000000000e+03 3.892696762084960938e+01 2.758189773559570312e+01 2.147028446197509766e+00 3.769974470138549805e+00 1.775100827217102051e+00 3.079021215438842773e+00
2.958000000000000000e+03 4.006287384033203125e+01 2.746576690673828125e+01 1.912760496139526367e+00 5.394903182983398438e+00 2.192299127578735352e+00 3.615795850753784180e+00
2.959000000000000000e+03 4.104951095581054688e+01 2.680023574829101562e+01 1.293981194496154785e+00 7.046129226684570312e+00 2.502032995223999023e+00 3.601964950561523438e+00
2.960000000000000000e+03 3.950146865844726562e+01 2.763488388061523438e+01 2.089704275131225586e+00 4.522346496582031250e+00 1.983615279197692871e+00 3.374201059341430664e+00
2.961000000000000000e+03 3.983774948120117188e+01 2.617767333984375000e+01 1.432623744010925293e+00 5.463434696197509766e+00 2.068817615509033203e+00 3.196252107620239258e+00
2.962000000000000000e+03 3.846264648437500000e+01 2.595689773559570312e+01 1.556570768356323242e+00 4.127255439758300781e+00 1.705147862434387207e+00 2.735292911529541016e+00
2.963000000000000000e+03 4.361851119995117188e+01 2.519324874877929688e+01 3.031138703227043152e-02 9.560956954956054688e+00 2.877380371093750000e+00 2.205433845520019531e+00
2.964000000000000000e+03 4.408069610595703125e+01 2.351565551757812500e+01 -2.527565658092498779e-01 9.082498550415039062e+00 2.648922443389892578e+00 1.732709646224975586e+00
2.965000000000000000e+03 3.624312973022460938e+01 2.316686058044433594e+01 1.009966373443603516e+00 3.314971208572387695e+00 1.297481298446655273e+00 1.919633984565734863e+00
2.966000000000000000e+03 4.609495925903320312e+01 2.330667686462402344e+01 -3.883430659770965576e-01 9.843913078308105469e+00 2.836670875549316406e+00 8.154675960540771484e-01
2.967000000000000000e+03 4.568116378784179688e+01 2.400348091125488281e+01 -3.071483969688415527e-01 1.001333427429199219e+01 2.911855936050415039e+00 1.021685719490051270e+00
2.968000000000000000e+03 4.209944915771484375e+01 2.578987312316894531e+01 5.384048223495483398e-01 8.359930038452148438e+00 2.669500350952148438e+00 3.011397123336791992e+00
2.969000000000000000e+03 3.892163848876953125e+01 2.691729927062988281e+01 1.860260725021362305e+00 4.190501213073730469e+00 1.815228700637817383e+00 3.024928808212280273e+00
2.970000000000000000e+03 3.675273895263671875e+01 2.261741256713867188e+01 8.878461718559265137e-01 3.694972038269042969e+00 1.374845385551452637e+00 2.001865625381469727e+00
2.971000000000000000e+03 4.110188293457031250e+01 1.104685115814208984e+01 -5.999439954757690430e-01 5.764332771301269531e+00 1.549316644668579102e+00 9.589397907257080078e-01
2.972000000000000000e+03 3.740870285034179688e+01 1.678468894958496094e+01 -2.004089951515197754e-02 4.654207706451416016e+00 1.390250086784362793e+00 1.542405247688293457e+00
2.973000000000000000e+03 6.118021774291992188e+01 6.564232349395751953e+00 -5.463489294052124023e-01 7.816376209259033203e+00 2.181008100509643555e+00 -7.912090420722961426e-01
2.974000000000000000e+03 4.510378265380859375e+01 2.348203468322753906e+01 -3.561137914657592773e-01 9.552145957946777344e+00 2.758809566497802734e+00 1.272318601608276367e+00
2.975000000000000000e+03 4.678217697143554688e+01 2.363650512695312500e+01 -3.398889899253845215e-01 1.012676048278808594e+01 2.936061382293701172e+00 5.533717870712280273e-01
2.976000000000000000e+03 3.812474822998046875e+01 1.406690502166748047e+01 -2.838488519191741943e-01 4.959766387939453125e+00 1.402775287628173828e+00 1.326573610305786133e+00
2.977000000000000000e+03 3.867280578613281250e+01 9.269941329956054688e+00 -4.762259423732757568e-01 4.993343830108642578e+00 1.355135321617126465e+00 9.638587236404418945e-01
2.978000000000000000e+03 3.798661422729492188e+01 -3.277196168899536133e+00 -3.876998722553253174e-01 4.479191303253173828e+00 1.227447390556335449e+00 4.675841331481933594e-01
2.979000000000000000e+03 3.772175216674804688e+01 5.279080197215080261e-02 -4.227283895015716553e-01 4.500521183013916016e+00 1.223337888717651367e+00 5.832919478416442871e-01
2.980000000000000000e+03 3.790204238891601562e+01 1.507951354980468750e+01 -2.009042799472808838e-01 4.869406700134277344e+00 1.400550723075866699e+00 1.405540108680725098e+00
2.981000000000000000e+03 3.705313110351562500e+01 2.061416053771972656e+01 5.008078813552856445e-01 4.235203742980957031e+00 1.420803546905517578e+00 1.896399736404418945e+00
2.982000000000000000e+03 3.902827072143554688e+01 8.761580586433410645e-01 -4.796044528484344482e-01 4.791996002197265625e+00 1.293717384338378906e+00 5.799638032913208008e-01
2.983000000000000000e+03 6.254220581054687500e+01 1.253787326812744141e+01 -4.296275973320007324e-01 7.972926616668701172e+00 2.262989759445190430e+00 -1.076999664306640625e+00
2.984000000000000000e+03 3.745386886596679688e+01 3.124960660934448242e+00 -4.413652718067169189e-01 4.499121189117431641e+00 1.217326760292053223e+00 7.105202078819274902e-01
2.985000000000000000e+03 3.797174072265625000e+01 4.907094001770019531e+00 -4.659417569637298584e-01 4.670010089874267578e+00 1.261220574378967285e+00 7.790755629539489746e-01
2.986000000000000000e+03 4.804167175292968750e+01 2.308501243591308594e+01 -3.326505124568939209e-01 9.976961135864257812e+00 2.893293142318725586e+00 9.004754573106765747e-02
2.987000000000000000e+03 5.155254745483398438e+01 2.353936576843261719e+01 7.837384194135665894e-02 9.760135650634765625e+00 2.951552867889404297e+00 -8.218141794204711914e-01
2.988000000000000000e+03 6.256867599487304688e+01 -3.015441894531250000e+00 -3.937084078788757324e-01 7.643412590026855469e+00 2.174911260604858398e+00 -4.963073134422302246e-01
2.989000000000000000e+03 3.659618377685546875e+01 1.958852577209472656e+01 3.640668094158172607e-01 4.103976249694824219e+00 1.340412974357604980e+00 1.739016056060791016e+00
2.990000000000000000e+03 3.763723754882812500e+01 1.922826957702636719e+01 2.240573912858963013e-01 4.651607990264892578e+00 1.462699651718139648e+00 1.790767788887023926e+00
2.991000000000000000e+03 6.299736785888671875e+01 6.532432079315185547e+00 -4.678007364273071289e-01 7.836640357971191406e+00 2.210651874542236328e+00 -8.428630828857421875e-01
2.992000000000000000e+03 5.220612335205078125e+01 2.539575386047363281e+01 6.112194657325744629e-01 9.852192878723144531e+00 3.139023542404174805e+00 -1.024807810783386230e+00
2.993000000000000000e+03 5.264897918701171875e+01 2.400009918212890625e+01 2.548288702964782715e-01 9.628194808959960938e+00 2.964907169342041016e+00 -9.782217741012573242e-01
2.994000000000000000e+03 6.365946197509765625e+01 1.186293792724609375e+01 -3.948260247707366943e-01 7.918481349945068359e+00 2.257096529006958008e+00 -1.073014855384826660e+00
2.995000000000000000e+03 3.792442321777343750e+01 -1.625008201599121094e+01 -2.048403024673461914e-01 4.285336971282958984e+00 1.224148988723754883e+00 1.833527237176895142e-01
2.996000000000000000e+03 6.146846771240234375e+01 -1.277897930145263672e+01 -2.634978592395782471e-01 7.404602050781250000e+00 2.142331123352050781e+00 -2.566009461879730225e-01
2.997000000000000000e+03 3.747339630126953125e+01 -5.642882347106933594e+00 -3.435517251491546631e-01 4.345705509185791016e+00 1.200646162033081055e+00 4.101929068565368652e-01
2.998000000000000000e+03 6.188342666625976562e+01 5.407868385314941406e+00 -5.145348310470581055e-01 7.794096946716308594e+00 2.183868646621704102e+00 -7.699006199836730957e-01
2.999000000000000000e+03 6.200852203369140625e+01 1.606009864807128906e+01 -2.997738122940063477e-01 8.074897766113281250e+00 2.332537174224853516e+00 -1.215649843215942383e+00
3.000000000000000000e+03 6.463332366943359375e+01 1.075101017951965332e+00 -3.749596774578094482e-01 7.814747333526611328e+00 2.231936454772949219e+00 -6.558008193969726562e-01
3.001000000000000000e+03 6.245721435546875000e+01 2.063049507141113281e+01 1.565065234899520874e-02 8.051422119140625000e+00 2.420121908187866211e+00 -1.328667163848876953e+00
3.002000000000000000e+03 3.194548606872558594e+01 -8.959176063537597656e+00 -1.599902808666229248e-01 3.359145402908325195e+00 9.597465395927429199e-01 3.524215817451477051e-01
3.003000000000000000e+03 3.520420455932617188e+01 -9.783772468566894531e+00 -2.255870401859283447e-01 3.936217784881591797e+00 1.113189220428466797e+00 3.154866397380828857e-01
3.004000000000000000e+03 6.307203292846679688e+01 -1.239477729797363281e+01 -2.407408058643341064e-01 7.582250595092773438e+00 2.202452898025512695e+00 -2.778037190437316895e-01
3.005000000000000000e+03 6.199278259277343750e+01 -1.629446983337402344e+01 -2.006548792123794556e-01 7.442560672760009766e+00 2.172571897506713867e+00 -2.015027254819869995e-01
3.006000000000000000e+03 6.142138671875000000e+01 -1.887506294250488281e+01 -1.944232881069183350e-01 7.340476989746093750e+00 2.143815994262695312e+00 -1.623023152351379395e-01
3.007000000000000000e+03 6.094281768798828125e+01 -9.863729476928710938e+00 -3.193811178207397461e-01 7.385651588439941406e+00 2.119881153106689453e+00 -2.977990508079528809e-01
3.008000000000000000e+03 6.204884719848632812e+01 -9.083114624023437500e+00 -3.082739114761352539e-01 7.520036220550537109e+00 2.163528680801391602e+00 -3.347487151622772217e-01
3.009000000000000000e+03 3.637561798095703125e+01 -1.534589195251464844e+01 -1.954477727413177490e-01 4.049210548400878906e+00 1.156128883361816406e+00 2.111999094486236572e-01
3.010000000000000000e+03 3.851794433593750000e+01 -1.127769470214843750e+00 -4.347894191741943359e-01 4.634260654449462891e+00 1.259841442108154297e+00 5.247949957847595215e-01
3.011000000000000000e+03 5.504385757446289062e+01 2.609713172912597656e+01 8.276123404502868652e-01 9.284317016601562500e+00 3.033578872680664062e+00 -1.201551675796508789e+00
3.012000000000000000e+03 4.024539947509765625e+01 2.664320564270019531e+01 1.511793255805969238e+00 5.883176803588867188e+00 2.218491077423095703e+00 3.438705205917358398e+00
3.013000000000000000e+03 3.874861526489257812e+01 2.533000564575195312e+01 1.344129443168640137e+00 4.587638378143310547e+00 1.779530405998229980e+00 2.753894329071044922e+00
3.014000000000000000e+03 3.906642913818359375e+01 2.629939460754394531e+01 1.606196880340576172e+00 4.631039619445800781e+00 1.871170997619628906e+00 3.007296800613403320e+00
3.015000000000000000e+03 3.943470001220703125e+01 2.703877830505371094e+01 1.835850238800048828e+00 4.714561939239501953e+00 1.965123653411865234e+00 3.264074802398681641e+00
3.016000000000000000e+03 4.257931137084960938e+01 2.514695930480957031e+01 2.519703507423400879e-01 8.669279098510742188e+00 2.676374912261962891e+00 2.627998828887939453e+00
3.017000000000000000e+03 3.696280670166015625e+01 2.375171089172363281e+01 1.112409949302673340e+00 3.604887008666992188e+00 1.415189027786254883e+00 2.121115446090698242e+00
3.018000000000000000e+03 4.065865707397460938e+01 2.623435974121093750e+01 1.213064432144165039e+00 6.522767066955566406e+00 2.320749521255493164e+00 3.360567331314086914e+00
3.019000000000000000e+03 3.821592330932617188e+01 1.722084236145019531e+01 -5.996862426400184631e-02 4.971327304840087891e+00 1.473407626152038574e+00 1.592471480369567871e+00
3.020000000000000000e+03 4.313603973388671875e+01 2.573870658874511719e+01 2.052018195390701294e-01 9.415958404541015625e+00 2.886348247528076172e+00 2.552841901779174805e+00
3.021000000000000000e+03 3.710121154785156250e+01 2.202690696716308594e+01 7.249290943145751953e-01 4.039915084838867188e+00 1.429453253746032715e+00 2.004697084426879883e+00
3.022000000000000000e+03 3.797938537597656250e+01 2.020326232910156250e+01 3.225411474704742432e-01 4.768784046173095703e+00 1.527397632598876953e+00 1.922831058502197266e+00
3.023000000000000000e+03 4.461856079101562500e+01 2.408495712280273438e+01 -2.454946041107177734e-01 9.610360145568847656e+00 2.809459447860717773e+00 1.556907892227172852e+00
3.024000000000000000e+03 4.707667922973632812e+01 2.260977935791015625e+01 -4.596438705921173096e-01 9.722398757934570312e+00 2.778826475143432617e+00 4.831325411796569824e-01
3.025000000000000000e+03 4.848406600952148438e+01 2.198700904846191406e+01 -4.600588679313659668e-01 9.670958518981933594e+00 2.763269901275634766e+00 2.860878594219684601e-02
3.026000000000000000e+03 3.982133483886718750e+01 1.148772811889648438e+01 -4.965648949146270752e-01 5.387403964996337891e+00 1.467251658439636230e+00 1.079081892967224121e+00
3.027000000000000000e+03 3.883951568603515625e+01 1.213456726074218750e+01 -4.173025786876678467e-01 5.106923580169677734e+00 1.406886219978332520e+00 1.152799487113952637e+00
3.028000000000000000e+03 3.838125610351562500e+01 7.406218528747558594e+00 -4.788706898689270020e-01 4.840392112731933594e+00 1.308456420898437500e+00 8.963156938552856445e-01
3.029000000000000000e+03 6.150107955932617188e+01 1.301461887359619141e+01 -4.517934620380401611e-01 8.022644042968750000e+00 2.271255016326904297e+00 -1.071558356285095215e+00
3.030000000000000000e+03 4.028514480590820312e+01 1.689783692359924316e+00 -5.353577136993408203e-01 5.083600044250488281e+00 1.364472627639770508e+00 5.652130246162414551e-01
3.031000000000000000e+03 4.026068115234375000e+01 -3.584402561187744141e+00 -4.491860270500183105e-01 4.901388645172119141e+00 1.335660815238952637e+00 4.076367616653442383e-01
3.032000000000000000e+03 3.936840057373046875e+01 -2.337531805038452148e+00 -4.477236866950988770e-01 4.771773338317871094e+00 1.297214984893798828e+00 4.665368199348449707e-01
3.033000000000000000e+03 6.128412628173828125e+01 8.429658889770507812e+00 -5.399151444435119629e-01 7.876210212707519531e+00 2.200888633728027344e+00 -8.665288686752319336e-01
3.034000000000000000e+03 6.297750473022460938e+01 1.059808826446533203e+01 -4.441138207912445068e-01 7.916166305541992188e+00 2.241615772247314453e+00 -1.007095694541931152e+00
3.035000000000000000e+03 3.868789672851562500e+01 3.822742462158203125e+00 -4.952327311038970947e-01 4.809375762939453125e+00 1.294242858886718750e+00 7.082393765449523926e-01
3.036000000000000000e+03 6.197798919677734375e+01 1.132944107055664062e+01 -4.728801250457763672e-01 7.957491874694824219e+00 2.245383501052856445e+00 -1.013574719429016113e+00
3.037000000000000000e+03 5.305076599121093750e+01 2.741777229309082031e+01 1.258027076721191406e+00 9.769124031066894531e+00 3.308145284652709961e+00 -1.113857507705688477e+00
3.038000000000000000e+03 5.051836776733398438e+01 2.302514457702636719e+01 -1.139234080910682678e-01 9.831463813781738281e+00 2.915262222290039062e+00 -5.859169363975524902e-01
3.039000000000000000e+03 5.384922790527343750e+01 2.430908203125000000e+01 3.874559700489044189e-01 9.409905433654785156e+00 2.939208507537841797e+00 -1.118243098258972168e+00
3.040000000000000000e+03 6.152148437500000000e+01 -1.913504481315612793e+00 -4.303078651428222656e-01 7.595053672790527344e+00 2.149423837661743164e+00 -5.101336836814880371e-01
3.041000000000000000e+03 6.023505401611328125e+01 -5.620564937591552734e+00 -4.102908670902252197e-01 7.410046100616455078e+00 2.099926471710205078e+00 -3.773907721042633057e-01
3.042000000000000000e+03 3.501507949829101562e+01 -1.929367828369140625e+01 -1.436460912227630615e-01 3.828336954116821289e+00 1.105407238006591797e+00 1.630956977605819702e-01
3.043000000000000000e+03 4.048652267456054688e+01 -1.479200649261474609e+01 -2.688932120800018311e-01 4.704806804656982422e+00 1.330774068832397461e+00 1.790103763341903687e-01
3.044000000000000000e+03 6.216549682617187500e+01 7.502326011657714844e+00 -4.997670352458953857e-01 7.849310398101806641e+00 2.204863071441650391e+00 -8.606557250022888184e-01
3.045000000000000000e+03 6.007545089721679688e+01 3.260160207748413086e+00 -5.684671401977539062e-01 7.674436569213867188e+00 2.131790876388549805e+00 -6.293553709983825684e-01
3.046000000000000000e+03 6.253849029541015625e+01 -8.876795172691345215e-01 -4.197541177272796631e-01 7.675373554229736328e+00 2.176685810089111328e+00 -5.569820404052734375e-01
3.047000000000000000e+03 6.168000411987304688e+01 2.263002097606658936e-01 -4.681528806686401367e-01 7.649486541748046875e+00 2.154400110244750977e+00 -5.772607922554016113e-01
3.048000000000000000e+03 6.127244567871093750e+01 1.909517288208007812e+01 -1.395390033721923828e-01 8.192009925842285156e+00 2.415741205215454102e+00 -1.296321153640747070e+00
3.049000000000000000e+03 6.114035034179687500e+01 1.599117040634155273e+00 -5.052655339241027832e-01 7.659197330474853516e+00 2.146179437637329102e+00 -6.074867248535156250e-01
3.050000000000000000e+03 5.911225128173828125e+01 -1.090842533111572266e+01 -3.385768830776214600e-01 7.192651748657226562e+00 2.056222438812255859e+00 -2.486696243286132812e-01
3.051000000000000000e+03 6.277922439575195312e+01 -1.061293601989746094e+01 -2.756817936897277832e-01 7.564317703247070312e+00 2.186590909957885742e+00 -3.098704814910888672e-01
3.052000000000000000e+03 3.762805175781250000e+01 -8.283437728881835938e+00 -3.102110028266906738e-01 4.334829807281494141e+00 1.207385659217834473e+00 3.469981551170349121e-01
3.053000000000000000e+03 3.187997436523437500e+01 -1.010229206085205078e+01 -1.481627672910690308e-01 3.338789463043212891e+00 9.571879506111145020e-01 3.208171129226684570e-01
3.054000000000000000e+03 6.161095809936523438e+01 -1.453343105316162109e+01 -2.405060231685638428e-01 7.410895824432373047e+00 2.151116847991943359e+00 -2.272963821887969971e-01
3.055000000000000000e+03 6.231937408447265625e+01 2.043964624404907227e+00 -4.721451997756958008e-01 7.728857040405273438e+00 2.177013635635375977e+00 -6.568679809570312500e-01
3.056000000000000000e+03 6.285627746582031250e+01 1.029519200325012207e+00 -4.407104253768920898e-01 7.734082698822021484e+00 2.188011646270751953e+00 -6.316415667533874512e-01
3.057000000000000000e+03 3.957686614990234375e+01 2.369606971740722656e+01 7.522249817848205566e-01 5.630796432495117188e+00 1.914906382560729980e+00 2.603303909301757812e+00
3.058000000000000000e+03 3.763894271850585938e+01 2.492581939697265625e+01 1.355296373367309570e+00 3.740466117858886719e+00 1.528728723526000977e+00 2.380302667617797852e+00
3.059000000000000000e+03 3.771217727661132812e+01 2.416999816894531250e+01 1.146338343620300293e+00 4.006608963012695312e+00 1.545884251594543457e+00 2.322933912277221680e+00
3.060000000000000000e+03 3.734552383422851562e+01 2.308374214172363281e+01 9.186736345291137695e-01 3.963938236236572266e+00 1.464783549308776855e+00 2.119179010391235352e+00
3.061000000000000000e+03 3.954529190063476562e+01 2.658124732971191406e+01 1.641387820243835449e+00 5.018590927124023438e+00 1.997993588447570801e+00 3.216687679290771484e+00
3.062000000000000000e+03 4.018794631958007812e+01 2.572257614135742188e+01 1.169175744056701660e+00 5.963505744934082031e+00 2.139804363250732422e+00 3.139889478683471680e+00
3.063000000000000000e+03 4.109591293334960938e+01 2.573405838012695312e+01 8.781904578208923340e-01 7.082386016845703125e+00 2.388172864913940430e+00 3.158709526062011719e+00
3.064000000000000000e+03 3.858863067626953125e+01 1.840229988098144531e+01 2.944940142333507538e-02 5.160695552825927734e+00 1.557043433189392090e+00 1.742782831192016602e+00
3.065000000000000000e+03 3.759870910644531250e+01 2.144013977050781250e+01 5.841341018676757812e-01 4.413215160369873047e+00 1.499204874038696289e+00 2.035429716110229492e+00
3.066000000000000000e+03 4.411690902709960938e+01 2.465320014953613281e+01 -1.319735944271087646e-01 9.626069068908691406e+00 2.848228693008422852e+00 1.861926436424255371e+00
3.067000000000000000e+03 3.868277740478515625e+01 1.630170440673828125e+01 -1.843515634536743164e-01 5.178592681884765625e+00 1.498272418975830078e+00 1.487437844276428223e+00
3.068000000000000000e+03 4.557828903198242188e+01 2.288695144653320312e+01 -4.456580579280853271e-01 9.475408554077148438e+00 2.708925247192382812e+00 1.072625398635864258e+00
3.069000000000000000e+03 3.803876113891601562e+01 2.344563865661621094e+01 9.278348088264465332e-01 4.394350051879882812e+00 1.596655368804931641e+00 2.309512853622436523e+00
3.070000000000000000e+03 3.863882064819335938e+01 6.424002647399902344e+00 -4.992298185825347900e-01 4.893467903137207031e+00 1.318271398544311523e+00 8.346729278564453125e-01
3.071000000000000000e+03 3.904076766967773438e+01 1.765421295166015625e+01 -9.795531630516052246e-02 5.332364082336425781e+00 1.570322632789611816e+00 1.642136335372924805e+00
3.072000000000000000e+03 5.102610778808593750e+01 2.174362564086914062e+01 -2.962631881237030029e-01 9.497939109802246094e+00 2.760502576828002930e+00 -5.847138762474060059e-01
3.073000000000000000e+03 4.038621520996093750e+01 1.263147926330566406e+01 -5.087726712226867676e-01 5.669369697570800781e+00 1.548179149627685547e+00 1.126821517944335938e+00
3.074000000000000000e+03 3.948236465454101562e+01 2.764591932296752930e+00 -5.236037969589233398e-01 4.949601650238037109e+00 1.327799320220947266e+00 6.376441121101379395e-01
3.075000000000000000e+03 4.109310531616210938e+01 5.699008107185363770e-01 -5.437631011009216309e-01 5.201795578002929688e+00 1.397409677505493164e+00 4.991370141506195068e-01
3.076000000000000000e+03 6.168074798583984375e+01 -6.762111186981201172e+00 -3.564510941505432129e-01 7.510744571685791016e+00 2.146287918090820312e+00 -3.815437257289886475e-01
3.077000000000000000e+03 3.924354934692382812e+01 1.031546497344970703e+01 -4.966451227664947510e-01 5.173235893249511719e+00 1.402977228164672852e+00 1.020555615425109863e+00
3.078000000000000000e+03 4.062675476074218750e+01 9.864595413208007812e+00 -5.780221223831176758e-01 5.538146972656250000e+00 1.488037467002868652e+00 9.283931851387023926e-01
3.079000000000000000e+03 3.883829116821289062e+01 1.990987968444824219e+01 1.658637523651123047e-01 5.250997543334960938e+00 1.625058293342590332e+00 1.903344154357910156e+00
3.080000000000000000e+03 3.840820693969726562e+01 2.105700683593750000e+01 4.125231206417083740e-01 4.956447601318359375e+00 1.610691189765930176e+00 2.056228876113891602e+00
3.081000000000000000e+03 6.124213027954101562e+01 1.026030540466308594e+01 -5.161467194557189941e-01 7.940225601196289062e+00 2.227223634719848633e+00 -9.475477337837219238e-01
3.082000000000000000e+03 6.028098297119140625e+01 1.232910728454589844e+01 -5.280792117118835449e-01 8.035340309143066406e+00 2.252178430557250977e+00 -9.943835735321044922e-01
3.083000000000000000e+03 5.400123214721679688e+01 2.291301918029785156e+01 1.093872040510177612e-01 9.266468048095703125e+00 2.812756776809692383e+00 -1.060453534126281738e+00
3.084000000000000000e+03 5.469973373413085938e+01 2.784593009948730469e+01 1.294660806655883789e+00 9.381798744201660156e+00 3.202937841415405273e+00 -1.093912839889526367e+00
3.085000000000000000e+03 6.175750732421875000e+01 1.436550331115722656e+01 -4.050273001194000244e-01 8.057620048522949219e+00 2.295778036117553711e+00 -1.134215712547302246e+00
3.086000000000000000e+03 6.058686065673828125e+01 -7.411409616470336914e-01 -4.851966500282287598e-01 7.561827182769775391e+00 2.122989177703857422e+00 -5.176693201065063477e-01
3.087000000000000000e+03 6.049477386474609375e+01 1.442949581146240234e+01 -4.438795149326324463e-01 8.111186027526855469e+00 2.300191879272460938e+00 -1.094193220138549805e+00
3.088000000000000000e+03 6.076920700073242188e+01 4.359158515930175781e+00 -5.467644929885864258e-01 7.739042282104492188e+00 2.157683372497558594e+00 -7.002013921737670898e-01
3.089000000000000000e+03 5.970154953002929688e+01 -1.692451000213623047e+00 -4.918695092201232910e-01 7.473840713500976562e+00 2.094591379165649414e+00 -4.664316177368164062e-01
3.090000000000000000e+03 5.518821716308593750e+01 2.443413734436035156e+01 4.654927253723144531e-01 9.192715644836425781e+00 2.897462606430053711e+00 -1.191836118698120117e+00
3.091000000000000000e+03 3.868138122558593750e+01 -7.098970890045166016e+00 -3.473924398422241211e-01 4.536662578582763672e+00 1.256780982017517090e+00 3.504083156585693359e-01
3.092000000000000000e+03 5.603861999511718750e+01 2.049565124511718750e+01 -1.719776242971420288e-01 8.789583206176757812e+00 2.585281848907470703e+00 -1.115257740020751953e+00
3.093000000000000000e+03 5.766091156005859375e+01 1.847621917724609375e+01 -3.134687244892120361e-01 8.513585090637207031e+00 2.460035085678100586e+00 -1.125984311103820801e+00
3.094000000000000000e+03 4.069839477539062500e+01 -1.430134057998657227e+00 -4.969333112239837646e-01 5.054984569549560547e+00 1.367415308952331543e+00 4.504548013210296631e-01
3.095000000000000000e+03 5.999933624267578125e+01 -1.494627380371093750e+01 -2.643283605575561523e-01 7.220546722412109375e+00 2.086865425109863281e+00 -2.068584263324737549e-01
3.096000000000000000e+03 6.041323852539062500e+01 -1.713465690612792969e+01 -2.124352306127548218e-01 7.256395339965820312e+00 2.113188028335571289e+00 -1.739915311336517334e-01
3.097000000000000000e+03 5.824051666259765625e+01 -8.914759635925292969e+00 -3.774007260799407959e-01 7.155700206756591797e+00 2.033489942550659180e+00 -2.717869877815246582e-01
3.098000000000000000e+03 6.011185073852539062e+01 6.361927509307861328e+00 -5.871472954750061035e-01 7.800653934478759766e+00 2.164052009582519531e+00 -7.504557371139526367e-01
3.099000000000000000e+03 6.251502609252929688e+01 -2.032985305786132812e+01 -1.463104039430618286e-01 7.479834079742431641e+00 2.200057029724121094e+00 -1.588353216648101807e-01
3.100000000000000000e+03 6.487966918945312500e+01 -2.054082679748535156e+01 -1.262640953063964844e-01 7.750751018524169922e+00 2.287346124649047852e+00 -1.565226614475250244e-01
3.101000000000000000e+03 3.472385787963867188e+01 -2.187205696105957031e+01 -1.182508543133735657e-01 3.808167219161987305e+00 1.106974840164184570e+00 1.364457905292510986e-01
3.102000000000000000e+03 3.627819824218750000e+01 -2.068656730651855469e+01 -1.421570926904678345e-01 4.006668090820312500e+00 1.159353256225585938e+00 1.551696062088012695e-01
3.103000000000000000e+03 3.933116531372070312e+01 2.576940536499023438e+01 1.390711903572082520e+00 5.018279075622558594e+00 1.922697305679321289e+00 2.996445894241333008e+00
3.104000000000000000e+03 4.154706954956054688e+01 2.514430618286132812e+01 5.739093422889709473e-01 7.535246372222900391e+00 2.432746887207031250e+00 2.920963764190673828e+00
3.105000000000000000e+03 4.201385498046875000e+01 2.450410079956054688e+01 2.908493578433990479e-01 7.913616180419921875e+00 2.461339712142944336e+00 2.643625974655151367e+00
3.106000000000000000e+03 3.880784988403320312e+01 2.359230232238769531e+01 8.715413212776184082e-01 4.945110797882080078e+00 1.744995713233947754e+00 2.473859310150146484e+00
3.107000000000000000e+03 4.357299423217773438e+01 2.403952407836914062e+01 -1.173172593116760254e-01 9.002190589904785156e+00 2.665462017059326172e+00 2.024103641510009766e+00
3.108000000000000000e+03 4.305179214477539062e+01 2.337727737426757812e+01 -1.133257448673248291e-01 8.455354690551757812e+00 2.502608776092529297e+00 2.081579446792602539e+00
3.109000000000000000e+03 3.820796966552734375e+01 2.272425460815429688e+01 7.439154386520385742e-01 4.651972770690917969e+00 1.618766427040100098e+00 2.260211229324340820e+00
3.110000000000000000e+03 4.095809555053710938e+01 2.453772163391113281e+01 6.029940247535705566e-01 6.833469867706298828e+00 2.230939149856567383e+00 2.789994239807128906e+00
3.111000000000000000e+03 3.877583312988281250e+01 2.189464759826660156e+01 5.158733725547790527e-01 5.075025558471679688e+00 1.677269697189331055e+00 2.198168277740478516e+00
3.112000000000000000e+03 3.765911102294921875e+01 2.248336791992187500e+01 7.618110179901123047e-01 4.320617198944091797e+00 1.524728417396545410e+00 2.140222787857055664e+00
3.113000000000000000e+03 4.359333419799804688e+01 2.295908164978027344e+01 -2.423221915960311890e-01 8.596426963806152344e+00 2.506231546401977539e+00 1.841553092002868652e+00
3.114000000000000000e+03 4.456314086914062500e+01 2.293584442138671875e+01 -3.741639852523803711e-01 9.087851524353027344e+00 2.614106178283691406e+00 1.464846849441528320e+00
3.115000000000000000e+03 3.925345611572265625e+01 2.076359176635742188e+01 2.306773364543914795e-01 5.480341911315917969e+00 1.713305830955505371e+00 2.029927015304565430e+00
3.116000000000000000e+03 4.620242309570312500e+01 2.250168037414550781e+01 -4.908330440521240234e-01 9.522815704345703125e+00 2.709594726562500000e+00 7.910851836204528809e-01
3.117000000000000000e+03 3.962070465087890625e+01 1.681131362915039062e+01 -2.468620985746383667e-01 5.603841304779052734e+00 1.607093811035156250e+00 1.528631448745727539e+00
3.118000000000000000e+03 4.435720062255859375e+01 2.171531105041503906e+01 -4.384337067604064941e-01 8.624069213867187500e+00 2.455690860748291016e+00 1.410837054252624512e+00
3.119000000000000000e+03 4.027546691894531250e+01 1.453146743774414062e+01 -4.280098080635070801e-01 5.772937774658203125e+00 1.603478431701660156e+00 1.287637114524841309e+00
3.120000000000000000e+03 3.966231918334960938e+01 1.517891788482666016e+01 -3.517964482307434082e-01 5.569959640502929688e+00 1.565448999404907227e+00 1.362184286117553711e+00
3.121000000000000000e+03 5.946612548828125000e+01 8.141982555389404297e-02 -5.325039625167846680e-01 7.514853954315185547e+00 2.094704866409301758e+00 -5.037088990211486816e-01
3.122000000000000000e+03 6.112777709960937500e+01 3.126969099044799805e+00 -5.256958007812500000e-01 7.709239482879638672e+00 2.155063152313232422e+00 -6.679832339286804199e-01
3.123000000000000000e+03 5.864125061035156250e+01 5.635595321655273438e+00 -6.382949352264404297e-01 7.715099334716796875e+00 2.123041391372680664e+00 -6.506907343864440918e-01
3.124000000000000000e+03 4.057714843750000000e+01 1.370636367797851562e+01 -4.973387718200683594e-01 5.815343856811523438e+00 1.595401525497436523e+00 1.177450180053710938e+00
3.125000000000000000e+03 3.885855484008789062e+01 1.534419250488281250e+01 -2.590716481208801270e-01 5.247663497924804688e+00 1.496577620506286621e+00 1.406286954879760742e+00
3.126000000000000000e+03 4.108955383300781250e+01 1.843973922729492188e+01 -2.770387828350067139e-01 6.364591121673583984e+00 1.826265692710876465e+00 1.640701770782470703e+00
3.127000000000000000e+03 4.643478775024414062e+01 2.088258361816406250e+01 -6.157190799713134766e-01 9.025538444519042969e+00 2.522945880889892578e+00 7.099716067314147949e-01
3.128000000000000000e+03 4.931973266601562500e+01 1.969227409362792969e+01 -6.566080451011657715e-01 9.093480110168457031e+00 2.531061649322509766e+00 -6.725935637950897217e-02
3.129000000000000000e+03 5.301645660400390625e+01 2.271871757507324219e+01 2.865708665922284126e-03 9.415673255920410156e+00 2.825561761856079102e+00 -9.469968080520629883e-01
3.130000000000000000e+03 4.091424942016601562e+01 5.373817920684814453e+00 -6.020396947860717773e-01 5.384746551513671875e+00 1.434812068939208984e+00 6.866015791893005371e-01
3.131000000000000000e+03 6.108520889282226562e+01 1.191027450561523438e+01 -5.071415305137634277e-01 7.999692440032958984e+00 2.247765302658081055e+00 -1.006768703460693359e+00
3.132000000000000000e+03 5.885744094848632812e+01 1.192725276947021484e+01 -5.953366160392761230e-01 8.060355186462402344e+00 2.239505529403686523e+00 -9.169563651084899902e-01
3.133000000000000000e+03 6.007765197753906250e+01 2.053804969787597656e+01 -3.853271901607513428e-02 8.364667892456054688e+00 2.497840642929077148e+00 -1.299868822097778320e+00
3.134000000000000000e+03 5.993865585327148438e+01 -1.032947731018066406e+01 -3.293132185935974121e-01 7.300633430480957031e+00 2.091396093368530273e+00 -2.788328826427459717e-01
3.135000000000000000e+03 5.644803619384765625e+01 -1.750837898254394531e+01 -2.606670260429382324e-01 6.791409492492675781e+00 1.959222674369812012e+00 -1.228572726249694824e-01
3.136000000000000000e+03 4.040681838989257812e+01 8.774729728698730469e+00 -5.795116424560546875e-01 5.444018840789794922e+00 1.459352135658264160e+00 8.852649927139282227e-01
3.137000000000000000e+03 3.831865692138671875e+01 8.368384361267089844e+00 -4.668218195438385010e-01 4.844384670257568359e+00 1.313268780708312988e+00 9.329639077186584473e-01
3.138000000000000000e+03 5.626519775390625000e+01 -6.568817615509033203e+00 -4.678511321544647217e-01 7.030151844024658203e+00 1.968690276145935059e+00 -2.514143884181976318e-01
3.139000000000000000e+03 4.197896575927734375e+01 9.470392227172851562e+00 -6.594664454460144043e-01 5.905035972595214844e+00 1.573670864105224609e+00 8.067522048950195312e-01
3.140000000000000000e+03 3.931694793701171875e+01 8.580454826354980469e+00 -5.148469209671020508e-01 5.143214702606201172e+00 1.388510346412658691e+00 9.196653962135314941e-01
3.141000000000000000e+03 6.054369354248046875e+01 1.322005081176757812e+01 -4.863652884960174561e-01 8.070650100708007812e+00 2.275285482406616211e+00 -1.052927255630493164e+00
3.142000000000000000e+03 5.880155181884765625e+01 1.542091655731201172e+01 -4.729038774967193604e-01 8.262599945068359375e+00 2.336908817291259766e+00 -1.060803651809692383e+00
3.143000000000000000e+03 5.266847610473632812e+01 2.090082550048828125e+01 -3.129131793975830078e-01 9.202678680419921875e+00 2.666929721832275391e+00 -7.986564636230468750e-01
3.144000000000000000e+03 5.312050628662109375e+01 1.941825675964355469e+01 -4.510698914527893066e-01 8.977517127990722656e+00 2.557934284210205078e+00 -7.645924687385559082e-01
3.145000000000000000e+03 5.765369796752929688e+01 -1.029711723327636719e+01 -3.793216049671173096e-01 7.059017658233642578e+00 2.003908872604370117e+00 -2.239940017461776733e-01
3.146000000000000000e+03 5.853194427490234375e+01 -1.763528251647949219e+01 -2.362704724073410034e-01 7.043225765228271484e+00 2.042086601257324219e+00 -1.517911702394485474e-01
3.147000000000000000e+03 5.998453521728515625e+01 -7.840116977691650391e+00 -3.828743994235992432e-01 7.350892066955566406e+00 2.090405225753784180e+00 -3.229274153709411621e-01
3.148000000000000000e+03 5.904373931884765625e+01 6.836330890655517578e+00 -6.240206956863403320e-01 7.782984256744384766e+00 2.147689104080200195e+00 -7.122923731803894043e-01
3.149000000000000000e+03 6.050099945068359375e+01 7.470257759094238281e+00 -5.656054019927978516e-01 7.845925331115722656e+00 2.184096097946166992e+00 -8.123643398284912109e-01
3.150000000000000000e+03 5.697145843505859375e+01 -1.124304866790771484e+01 -3.547431230545043945e-01 6.974512100219726562e+00 1.985930800437927246e+00 -2.049458026885986328e-01
3.151000000000000000e+03 5.988425827026367188e+01 -1.298804950714111328e+01 -2.847688794136047363e-01 7.235863208770751953e+00 2.085328340530395508e+00 -2.328263968229293823e-01
3.152000000000000000e+03 3.949307250976562500e+01 7.640134334564208984e+00 -5.374360680580139160e-01 5.162930488586425781e+00 1.387648344039916992e+00 8.592122197151184082e-01
3.153000000000000000e+03 5.563578796386718750e+01 -1.054024124145507812e+01 -3.924029171466827393e-01 6.852949619293212891e+00 1.938163995742797852e+00 -1.805399060249328613e-01
3.154000000000000000e+03 4.242672729492187500e+01 -3.835395097732543945e+00 -5.034741759300231934e-01 5.290851116180419922e+00 1.436213135719299316e+00 3.262222707271575928e-01
3.155000000000000000e+03 4.320969772338867188e+01 -5.007533550262451172e+00 -4.915300607681274414e-01 5.367408752441406250e+00 1.462763547897338867e+00 2.859022021293640137e-01
3.156000000000000000e+03 4.286056900024414062e+01 -1.766263008117675781e+00 -5.506813526153564453e-01 5.450760364532470703e+00 1.470023751258850098e+00 3.512790799140930176e-01
3.157000000000000000e+03 6.647254180908203125e+01 2.876556396484375000e+01 4.957351684570312500e-01 7.307494640350341797e+00 2.340968847274780273e+00 -1.001920104026794434e+00
3.158000000000000000e+03 6.274038314819335938e+01 3.219388198852539062e+01 9.052249789237976074e-01 7.992801666259765625e+00 2.669407844543457031e+00 -7.824754118919372559e-01
3.159000000000000000e+03 3.808448410034179688e+01 2.208841705322265625e+01 6.389746069908142090e-01 4.664875507354736328e+00 1.591155052185058594e+00 2.169679880142211914e+00
3.160000000000000000e+03 3.961158752441406250e+01 1.953715515136718750e+01 2.452092990279197693e-02 5.684069633483886719e+00 1.712577104568481445e+00 1.859134316444396973e+00
3.161000000000000000e+03 4.056378555297851562e+01 2.517875480651855469e+01 8.923951387405395508e-01 6.422254562377929688e+00 2.194394826889038086e+00 3.005338668823242188e+00
3.162000000000000000e+03 3.915559005737304688e+01 2.488357734680175781e+01 1.142903923988342285e+00 5.046686172485351562e+00 1.856877088546752930e+00 2.766677141189575195e+00
3.163000000000000000e+03 4.494155883789062500e+01 2.093639373779296875e+01 -5.548344254493713379e-01 8.591486930847167969e+00 2.410995721817016602e+00 1.162930488586425781e+00
3.164000000000000000e+03 4.506718063354492188e+01 2.229103660583496094e+01 -4.691147506237030029e-01 9.122776985168457031e+00 2.596098661422729492e+00 1.208907008171081543e+00
3.165000000000000000e+03 3.882332611083984375e+01 2.434916305541992188e+01 1.057949781417846680e+00 4.867943763732910156e+00 1.777768015861511230e+00 2.612267971038818359e+00
3.166000000000000000e+03 3.976191711425781250e+01 2.279202651977539062e+01 5.037617087364196777e-01 5.781457901000976562e+00 1.885565876960754395e+00 2.401191711425781250e+00
3.167000000000000000e+03 4.034234619140625000e+01 1.597792148590087891e+01 -3.668543994426727295e-01 5.853828907012939453e+00 1.646092295646667480e+00 1.407644629478454590e+00
3.168000000000000000e+03 4.156737136840820312e+01 1.411837863922119141e+01 -5.615212321281433105e-01 6.178224563598632812e+00 1.685011029243469238e+00 1.158071637153625488e+00
3.169000000000000000e+03 3.975509262084960938e+01 1.825597572326660156e+01 -1.268353015184402466e-01 5.717207431793212891e+00 1.677111744880676270e+00 1.692851662635803223e+00
3.170000000000000000e+03 5.845318222045898438e+01 1.039216327667236328e+01 -6.364650726318359375e-01 7.979544639587402344e+00 2.202924013137817383e+00 -8.297526836395263672e-01
3.171000000000000000e+03 5.828427505493164062e+01 8.661902427673339844e+00 -6.537289619445800781e-01 7.871076107025146484e+00 2.165204048156738281e+00 -7.453130483627319336e-01
3.172000000000000000e+03 5.924709701538085938e+01 1.396150112152099609e+01 -5.115473270416259766e-01 8.159379005432128906e+00 2.294349670410156250e+00 -1.032986998558044434e+00
3.173000000000000000e+03 4.574464797973632812e+01 2.166877746582031250e+01 -5.410020947456359863e-01 9.159654617309570312e+00 2.585595846176147461e+00 9.399536848068237305e-01
3.174000000000000000e+03 4.125113677978515625e+01 1.681855583190917969e+01 -4.181168079376220703e-01 6.308626651763916016e+00 1.767153024673461914e+00 1.435732007026672363e+00
3.175000000000000000e+03 5.778911590576171875e+01 5.991943359375000000e+00 -6.709984540939331055e-01 7.706417560577392578e+00 2.110625743865966797e+00 -6.149278283119201660e-01
3.176000000000000000e+03 5.948637008666992188e+01 8.178045272827148438e+00 -6.105723381042480469e-01 7.869466781616210938e+00 2.177668333053588867e+00 -7.944809794425964355e-01
3.177000000000000000e+03 4.596265792846679688e+01 1.937985038757324219e+01 -6.994183659553527832e-01 8.483801841735839844e+00 2.335314989089965820e+00 8.025247454643249512e-01
3.178000000000000000e+03 4.691376495361328125e+01 1.986294174194335938e+01 -6.846901774406433105e-01 8.819479942321777344e+00 2.440436840057373047e+00 5.277978777885437012e-01
3.179000000000000000e+03 4.065452575683593750e+01 6.874460697174072266e+00 -5.969720482826232910e-01 5.405863761901855469e+00 1.442667484283447266e+00 7.628719806671142578e-01
3.180000000000000000e+03 4.192542266845703125e+01 2.316617012023925781e+01 1.060469225049018860e-01 7.516211032867431641e+00 2.286677360534667969e+00 2.326436281204223633e+00
3.181000000000000000e+03 5.150535964965820312e+01 2.043091964721679688e+01 -4.520114660263061523e-01 9.221944808959960938e+00 2.630980014801025391e+00 -5.674958229064941406e-01
3.182000000000000000e+03 4.892815017700195312e+01 2.084702682495117188e+01 -5.647773742675781250e-01 9.348506927490234375e+00 2.635118961334228516e+00 -3.863070532679557800e-02
3.183000000000000000e+03 4.106056213378906250e+01 1.512851619720458984e+01 -4.771017432212829590e-01 6.063525199890136719e+00 1.675927042961120605e+00 1.289285063743591309e+00
3.184000000000000000e+03 4.411044692993164062e+01 1.001648902893066406e+00 -6.357957124710083008e-01 5.794861793518066406e+00 1.547719836235046387e+00 3.553929328918457031e-01
3.185000000000000000e+03 4.195512390136718750e+01 -5.830148458480834961e-01 -5.516973733901977539e-01 5.333495616912841797e+00 1.434539437294006348e+00 4.296033978462219238e-01
3.186000000000000000e+03 5.205439376831054688e+01 2.222060203552246094e+01 -1.388679295778274536e-01 9.500763893127441406e+00 2.808568716049194336e+00 -7.912681102752685547e-01
3.187000000000000000e+03 4.150424575805664062e+01 8.373309135437011719e+00 -6.435720920562744141e-01 5.719321250915527344e+00 1.522724628448486328e+00 7.924005985260009766e-01
3.188000000000000000e+03 3.967219161987304688e+01 6.782638072967529297e+00 -5.514887571334838867e-01 5.154641151428222656e+00 1.380945682525634766e+00 8.136005997657775879e-01
3.189000000000000000e+03 5.514001464843750000e+01 -1.248672962188720703e+01 -3.605717420578002930e-01 6.749055862426757812e+00 1.916545271873474121e+00 -1.446745544672012329e-01
3.190000000000000000e+03 5.815005493164062500e+01 -1.144756603240966797e+01 -3.362396955490112305e-01 7.089125156402587891e+00 2.025865554809570312e+00 -2.255554795265197754e-01
3.191000000000000000e+03 5.691266632080078125e+01 3.637661933898925781e+00 -6.743173003196716309e-01 7.520182132720947266e+00 2.053759574890136719e+00 -4.879149198532104492e-01
3.192000000000000000e+03 5.977918243408203125e+01 2.322880744934082031e+01 2.725549340248107910e-01 8.451712608337402344e+00 2.617280483245849609e+00 -1.317088842391967773e+00
3.193000000000000000e+03 5.988848876953125000e+01 1.321151137351989746e+00 -5.470000505447387695e-01 7.590947628021240234e+00 2.113184213638305664e+00 -5.598263144493103027e-01
3.194000000000000000e+03 5.741709136962890625e+01 -2.154754877090454102e+00 -5.405598282814025879e-01 7.282900333404541016e+00 2.022702217102050781e+00 -3.712779581546783447e-01
3.195000000000000000e+03 4.228720474243164062e+01 1.366515398025512695e+00 -5.989866852760314941e-01 5.486588478088378906e+00 1.466280579566955566e+00 4.791884422302246094e-01
3.196000000000000000e+03 4.154153060913085938e+01 2.511855602264404297e+00 -5.941801667213439941e-01 5.363936901092529297e+00 1.430927038192749023e+00 5.479581952095031738e-01
3.197000000000000000e+03 5.744964218139648438e+01 1.454986667633056641e+01 -5.688616633415222168e-01 8.264798164367675781e+00 2.308780908584594727e+00 -9.443929791450500488e-01
3.198000000000000000e+03 5.819005584716796875e+01 1.699641609191894531e+01 -4.131656885147094727e-01 8.394982337951660156e+00 2.394544839859008789e+00 -1.099481225013732910e+00
3.199000000000000000e+03 3.913653182983398438e+01 5.468739032745361328e+00 -5.248404145240783691e-01 4.980208873748779297e+00 1.336610436439514160e+00 7.693511247634887695e-01
3.200000000000000000e+03 4.071542739868164062e+01 3.573304653167724609e+00 -5.748615264892578125e-01 5.251795291900634766e+00 1.403080105781555176e+00 6.145793795585632324e-01
3.201000000000000000e+03 5.364704132080078125e+01 2.170903015136718750e+01 -1.541005522012710571e-01 9.215967178344726562e+00 2.718559980392456055e+00 -9.567773938179016113e-01
3.202000000000000000e+03 5.892297744750976562e+01 1.934235382080078125e+01 -1.848812997341156006e-01 8.436368942260742188e+00 2.475446462631225586e+00 -1.233533978462219238e+00
3.203000000000000000e+03 4.201180648803710938e+01 1.587986755371093750e+01 -5.319775938987731934e-01 6.492740631103515625e+00 1.788228988647460938e+00 1.259652495384216309e+00
3.204000000000000000e+03 4.043717575073242188e+01 1.756780815124511719e+01 -2.706108689308166504e-01 6.014644622802734375e+00 1.723210096359252930e+00 1.580312728881835938e+00
3.205000000000000000e+03 5.876246643066406250e+01 2.791636943817138672e+00 -5.991405844688415527e-01 7.588467121124267578e+00 2.096797943115234375e+00 -5.664935111999511719e-01
3.206000000000000000e+03 5.891814041137695312e+01 1.550510406494140625e+00 -5.798290967941284180e-01 7.528687000274658203e+00 2.084657430648803711e+00 -5.204674601554870605e-01
3.207000000000000000e+03 4.121687316894531250e+01 -4.840174198150634766e+00 -4.471082091331481934e-01 5.021246910095214844e+00 1.372241735458374023e+00 3.438127338886260986e-01
3.208000000000000000e+03 4.371939468383789062e+01 -3.003010749816894531e+00 -5.401775836944580078e-01 5.520887851715087891e+00 1.494212985038757324e+00 2.982460558414459229e-01
3.209000000000000000e+03 5.793356323242187500e+01 -3.614573717117309570e+00 -5.118730068206787109e-01 7.263612270355224609e+00 2.025521755218505859e+00 -3.506033122539520264e-01
3.210000000000000000e+03 5.735654830932617188e+01 -9.197474479675292969e+00 -3.938087522983551025e-01 7.055305480957031250e+00 1.998449087142944336e+00 -2.363056391477584839e-01
3.211000000000000000e+03 5.801372909545898438e+01 3.896434068679809570e+00 -6.326569914817810059e-01 7.600228786468505859e+00 2.090271472930908203e+00 -5.633161664009094238e-01
3.212000000000000000e+03 5.667841720581054688e+01 2.441307067871093750e+01 4.343050718307495117e-01 8.944783210754394531e+00 2.813726425170898438e+00 -1.259335398674011230e+00
3.213000000000000000e+03 5.679743194580078125e+01 2.619854354858398438e+01 8.246167898178100586e-01 8.956906318664550781e+00 2.934456825256347656e+00 -1.212357640266418457e+00
3.214000000000000000e+03 5.626574707031250000e+01 -8.841048240661621094e+00 -4.142127037048339844e-01 6.955733299255371094e+00 1.962456226348876953e+00 -2.171868085861206055e-01
3.215000000000000000e+03 5.601650619506835938e+01 -2.684876680374145508e+00 -5.636991858482360840e-01 7.154189586639404297e+00 1.977147102355957031e+00 -3.076250851154327393e-01
3.216000000000000000e+03 4.336235809326171875e+01 9.316756248474121094e+00 -7.293571233749389648e-01 6.258265972137451172e+00 1.658672690391540527e+00 6.859012842178344727e-01
3.217000000000000000e+03 5.805649948120117188e+01 1.302113342285156250e+01 -6.019291281700134277e-01 8.148946762084960938e+00 2.264105319976806641e+00 -9.153392314910888672e-01
3.218000000000000000e+03 5.885185241699218750e+01 2.829655838012695312e+01 1.027387142181396484e+00 8.599634170532226562e+00 2.888106346130371094e+00 -1.094435453414916992e+00
3.219000000000000000e+03 3.826870727539062500e+01 2.469432640075683594e+01 1.222530841827392578e+00 4.341662883758544922e+00 1.669258117675781250e+00 2.531876564025878906e+00
3.220000000000000000e+03 3.999102020263671875e+01 2.471766662597656250e+01 9.039101004600524902e-01 5.876837253570556641e+00 2.034224033355712891e+00 2.849602699279785156e+00
3.221000000000000000e+03 4.139664077758789062e+01 2.383313369750976562e+01 3.409163653850555420e-01 7.209704399108886719e+00 2.265186071395874023e+00 2.565562725067138672e+00
3.222000000000000000e+03 4.251371383666992188e+01 2.389933967590332031e+01 7.153107225894927979e-02 8.193426132202148438e+00 2.479486942291259766e+00 2.333158254623413086e+00
3.223000000000000000e+03 4.560798645019531250e+01 2.023889350891113281e+01 -6.335301995277404785e-01 8.623232841491699219e+00 2.396910667419433594e+00 9.384056329727172852e-01
3.224000000000000000e+03 4.343622970581054688e+01 2.058706855773925781e+01 -4.345900416374206543e-01 7.881036281585693359e+00 2.233933925628662109e+00 1.524214267730712891e+00
3.225000000000000000e+03 4.007461547851562500e+01 2.039632415771484375e+01 5.874353274703025818e-02 5.942886829376220703e+00 1.800489068031311035e+00 1.966646909713745117e+00
3.226000000000000000e+03 4.122623062133789062e+01 2.236398506164550781e+01 1.411754637956619263e-01 6.845015048980712891e+00 2.095857143402099609e+00 2.260191440582275391e+00
3.227000000000000000e+03 4.258053207397460938e+01 2.259041976928710938e+01 -1.084787249565124512e-01 7.857033729553222656e+00 2.324566364288330078e+00 2.038815498352050781e+00
3.228000000000000000e+03 4.730557250976562500e+01 1.881344032287597656e+01 -7.454735040664672852e-01 8.634278297424316406e+00 2.366641283035278320e+00 4.344072043895721436e-01
3.229000000000000000e+03 4.332393646240234375e+01 2.228734207153320312e+01 -2.637761235237121582e-01 8.242405891418457031e+00 2.393588781356811523e+00 1.797599315643310547e+00
3.230000000000000000e+03 4.057245254516601562e+01 2.140213012695312500e+01 1.179371252655982971e-01 6.322904109954833984e+00 1.932252287864685059e+00 2.126746416091918945e+00
3.231000000000000000e+03 3.890213394165039062e+01 2.274963569641113281e+01 6.525717973709106445e-01 5.099891185760498047e+00 1.725738883018493652e+00 2.335717201232910156e+00
3.232000000000000000e+03 5.706911849975585938e+01 1.042759799957275391e+01 -6.899095177650451660e-01 7.973745822906494141e+00 2.185150861740112305e+00 -7.384251952171325684e-01
3.233000000000000000e+03 5.701393508911132812e+01 8.740715026855468750e+00 -7.046800255775451660e-01 7.851157188415527344e+00 2.143943309783935547e+00 -6.697862148284912109e-01
3.234000000000000000e+03 4.399885940551757812e+01 2.245964622497558594e+01 -3.563292920589447021e-01 8.683388710021972656e+00 2.498117923736572266e+00 1.601881384849548340e+00
3.235000000000000000e+03 4.259069061279296875e+01 1.481155300140380859e+01 -6.217972636222839355e-01 6.594371795654296875e+00 1.791772365570068359e+00 1.098211526870727539e+00
3.236000000000000000e+03 4.211594009399414062e+01 1.319216823577880859e+01 -6.260522007942199707e-01 6.252782344818115234e+00 1.688019037246704102e+00 1.036637544631958008e+00
3.237000000000000000e+03 4.298481369018554688e+01 1.133795452117919922e+01 -7.075825929641723633e-01 6.343481540679931641e+00 1.690769672393798828e+00 8.239156007766723633e-01
3.238000000000000000e+03 4.149414443969726562e+01 1.226179981231689453e+01 -5.975201725959777832e-01 5.995018005371093750e+00 1.619249343872070312e+00 1.016340970993041992e+00
3.239000000000000000e+03 5.519894027709960938e+01 2.277009582519531250e+01 1.167149022221565247e-01 9.093977928161621094e+00 2.763207674026489258e+00 -1.166501522064208984e+00
3.240000000000000000e+03 5.069257354736328125e+01 1.877985191345214844e+01 -6.583984494209289551e-01 8.924912452697753906e+00 2.479954242706298828e+00 -3.176519870758056641e-01
3.241000000000000000e+03 4.997824478149414062e+01 2.129125595092773438e+01 -4.478264153003692627e-01 9.479112625122070312e+00 2.709385871887207031e+00 -3.185054659843444824e-01
3.242000000000000000e+03 5.823163604736328125e+01 6.846469640731811523e-01 -5.902509093284606934e-01 7.459274291992187500e+00 2.060707092285156250e+00 -4.735538661479949951e-01
3.243000000000000000e+03 5.967564773559570312e+01 1.289444065093994141e+01 -5.358921885490417480e-01 8.093330383300781250e+00 2.267231464385986328e+00 -9.988838434219360352e-01
3.244000000000000000e+03 5.799478912353515625e+01 7.188324451446533203e+00 -6.658579707145690918e-01 7.772816658020019531e+00 2.132087469100952148e+00 -6.681887507438659668e-01
3.245000000000000000e+03 5.762250137329101562e+01 -5.607499599456787109e+00 -4.594584107398986816e-01 7.189854145050048828e+00 2.019118785858154297e+00 -3.094469010829925537e-01
3.246000000000000000e+03 5.502520370483398438e+01 -7.847625255584716797e+00 -4.596184790134429932e-01 6.850539684295654297e+00 1.917276382446289062e+00 -1.888765841722488403e-01
3.247000000000000000e+03 5.676441574096679688e+01 -4.294548511505126953e+00 -5.132458209991455078e-01 7.162250041961669922e+00 1.994701266288757324e+00 -3.087573647499084473e-01
3.248000000000000000e+03 4.193067550659179688e+01 1.783272743225097656e+01 -4.245357513427734375e-01 6.700825691223144531e+00 1.882886886596679688e+00 1.456177473068237305e+00
3.249000000000000000e+03 4.346826171875000000e+01 8.176885604858398438e+00 -7.324038743972778320e-01 6.170409679412841797e+00 1.631401777267456055e+00 6.420571804046630859e-01
3.250000000000000000e+03 4.408408737182617188e+01 -9.200915694236755371e-01 -5.949932336807250977e-01 5.694071292877197266e+00 1.529723405838012695e+00 3.178840577602386475e-01
3.251000000000000000e+03 4.347293472290039062e+01 2.047145366668701172e+00 -6.456090211868286133e-01 5.755832195281982422e+00 1.533066987991333008e+00 4.211565256118774414e-01
3.252000000000000000e+03 5.650948715209960938e+01 2.278879928588867188e+01 1.718084365129470825e-01 8.883524894714355469e+00 2.716599941253662109e+00 -1.224381208419799805e+00
3.253000000000000000e+03 5.826811981201171875e+01 3.062977790832519531e+01 1.331614494323730469e+00 8.750597953796386719e+00 3.024663686752319336e+00 -8.129843473434448242e-01
3.254000000000000000e+03 4.194974517822265625e+01 4.526775836944580078e+00 -6.374834775924682617e-01 5.584879398345947266e+00 1.484218716621398926e+00 5.977551341056823730e-01
3.255000000000000000e+03 4.169211959838867188e+01 6.447031021118164062e+00 -6.385567188262939453e-01 5.615134239196777344e+00 1.492973208427429199e+00 7.055439352989196777e-01
3.256000000000000000e+03 5.644303894042968750e+01 1.847133064270019531e+01 -3.664886653423309326e-01 8.621528625488281250e+00 2.476511955261230469e+00 -1.055338859558105469e+00
3.257000000000000000e+03 5.679736328125000000e+01 1.215598964691162109e+01 -6.788435578346252441e-01 8.099609375000000000e+00 2.226229667663574219e+00 -7.922807931900024414e-01
3.258000000000000000e+03 5.911734390258789062e+01 -3.368112325668334961e+00 -4.817360639572143555e-01 7.385933876037597656e+00 2.071259260177612305e+00 -4.063419401645660400e-01
3.259000000000000000e+03 5.748609542846679688e+01 -5.512015819549560547e-01 -5.694755315780639648e-01 7.355406761169433594e+00 2.035779476165771484e+00 -4.175367653369903564e-01
3.260000000000000000e+03 6.167246627807617188e+01 -2.815415191650390625e+01 -1.080481708049774170e-01 7.341560363769531250e+00 2.170053720474243164e+00 -7.609059661626815796e-02
3.261000000000000000e+03 6.403993225097656250e+01 -2.777816009521484375e+01 -9.431571513414382935e-02 7.647448062896728516e+00 2.265939712524414062e+00 -8.872576802968978882e-02
3.262000000000000000e+03 5.967391586303710938e+01 5.074822425842285156e+00 -5.896211862564086914e-01 7.728635787963867188e+00 2.141704320907592773e+00 -6.832578182220458984e-01
3.263000000000000000e+03 5.590170288085937500e+01 3.706660032272338867e+00 -6.880304813385009766e-01 7.466809749603271484e+00 2.033633708953857422e+00 -4.429861307144165039e-01
3.264000000000000000e+03 5.039249801635742188e+01 2.004919052124023438e+01 -5.611640214920043945e-01 9.178800582885742188e+00 2.585290908813476562e+00 -3.340349495410919189e-01
3.265000000000000000e+03 5.868681335449218750e+01 -2.034117507934570312e+01 -1.887485533952713013e-01 7.035058021545410156e+00 2.053892850875854492e+00 -1.277442574501037598e-01
3.266000000000000000e+03 5.889739990234375000e+01 2.172225189208984375e+01 8.208628743886947632e-02 8.531814575195312500e+00 2.584170341491699219e+00 -1.302169561386108398e+00
3.267000000000000000e+03 3.941483688354492188e+01 2.439319419860839844e+01 9.427555203437805176e-01 5.385601997375488281e+00 1.898507237434387207e+00 2.694922685623168945e+00
3.268000000000000000e+03 3.966132354736328125e+01 2.174893569946289062e+01 3.298922777175903320e-01 5.741249084472656250e+00 1.821342468261718750e+00 2.216667413711547852e+00
3.269000000000000000e+03 4.139403152465820312e+01 2.083640480041503906e+01 -1.018132343888282776e-01 6.811597824096679688e+00 2.012935400009155273e+00 1.944239854812622070e+00
3.270000000000000000e+03 4.201812362670898438e+01 2.172902870178222656e+01 -1.214168667793273926e-01 7.316344261169433594e+00 2.158478260040283203e+00 1.996478319168090820e+00
3.271000000000000000e+03 4.163509750366210938e+01 1.937049865722656250e+01 -2.765360772609710693e-01 6.772344589233398438e+00 1.948742628097534180e+00 1.690254688262939453e+00
3.272000000000000000e+03 4.860298538208007812e+01 1.730409049987792969e+01 -8.063687682151794434e-01 8.470235824584960938e+00 2.299160003662109375e+00 1.479192823171615601e-01
3.273000000000000000e+03 4.413454818725585938e+01 1.436914539337158203e+01 -7.389158010482788086e-01 6.997426986694335938e+00 1.877553343772888184e+00 8.789150118827819824e-01
3.274000000000000000e+03 4.287685394287109375e+01 1.755601119995117188e+01 -5.422320365905761719e-01 7.022816658020019531e+00 1.944175362586975098e+00 1.310586214065551758e+00
3.275000000000000000e+03 4.065054702758789062e+01 2.316522407531738281e+01 3.871343731880187988e-01 6.480049610137939453e+00 2.060155153274536133e+00 2.470587491989135742e+00
3.276000000000000000e+03 4.507807922363281250e+01 1.947952461242675781e+01 -6.448985934257507324e-01 8.239815711975097656e+00 2.278475284576416016e+00 1.009941816329956055e+00
3.277000000000000000e+03 4.216525268554687500e+01 2.026831245422363281e+01 -2.795135378837585449e-01 7.182597637176513672e+00 2.070925235748291016e+00 1.764516711235046387e+00
3.278000000000000000e+03 4.627904891967773438e+01 1.828809165954589844e+01 -7.467122077941894531e-01 8.307690620422363281e+00 2.268293619155883789e+00 6.787557601928710938e-01
3.279000000000000000e+03 4.029977798461914062e+01 2.402125549316406250e+01 6.758580207824707031e-01 6.169052124023437500e+00 2.053472995758056641e+00 2.697854042053222656e+00
3.280000000000000000e+03 4.033879089355468750e+01 1.902859115600585938e+01 -1.233490779995918274e-01 6.043808937072753906e+00 1.776137948036193848e+00 1.766193747520446777e+00
3.281000000000000000e+03 4.312088775634765625e+01 1.380519771575927734e+01 -6.817265748977661133e-01 6.623124599456787109e+00 1.782419443130493164e+00 9.673853516578674316e-01
3.282000000000000000e+03 4.523057174682617188e+01 1.767886543273925781e+01 -7.248837351799011230e-01 7.915152549743652344e+00 2.157080650329589844e+00 8.767322301864624023e-01
3.283000000000000000e+03 5.562703323364257812e+01 1.498618793487548828e+01 -6.343864798545837402e-01 8.373057365417480469e+00 2.321601390838623047e+00 -8.181493282318115234e-01
3.284000000000000000e+03 4.085975265502929688e+01 1.990906524658203125e+01 -1.105749532580375671e-01 6.385714054107666016e+00 1.882541775703430176e+00 1.868587374687194824e+00
3.285000000000000000e+03 4.360063171386718750e+01 1.280373382568359375e+01 -7.355495691299438477e-01 6.661800384521484375e+00 1.777875304222106934e+00 8.445286750793457031e-01
3.286000000000000000e+03 4.347783660888671875e+01 2.144825744628906250e+01 -3.601061403751373291e-01 8.084971427917480469e+00 2.317459583282470703e+00 1.645767688751220703e+00
3.287000000000000000e+03 5.689406967163085938e+01 4.832914829254150391e+00 -6.795023083686828613e-01 7.590700626373291016e+00 2.073359489440917969e+00 -5.256710052490234375e-01
3.288000000000000000e+03 5.462539672851562500e+01 1.821924972534179688e+01 -5.022616386413574219e-01 8.734452247619628906e+00 2.469657182693481445e+00 -8.527451157569885254e-01
3.289000000000000000e+03 4.291644668579101562e+01 3.358478546142578125e+00 -6.586579084396362305e-01 5.718562126159667969e+00 1.517971277236938477e+00 4.974926114082336426e-01
3.290000000000000000e+03 5.436374664306640625e+01 1.961049270629882812e+01 -3.881312012672424316e-01 8.900084495544433594e+00 2.553586006164550781e+00 -9.071750640869140625e-01
3.291000000000000000e+03 5.567277145385742188e+01 1.011037254333496094e+01 -7.535118460655212402e-01 7.923626422882080078e+00 2.151034355163574219e+00 -6.169004440307617188e-01
3.292000000000000000e+03 4.421459960937500000e+01 1.701454734802246094e+01 -6.734046339988708496e-01 7.449326992034912109e+00 2.032776832580566406e+00 1.044227242469787598e+00
3.293000000000000000e+03 5.800483703613281250e+01 2.871971845626831055e+00 -6.298059821128845215e-01 7.543967723846435547e+00 2.074248552322387695e+00 -5.301788449287414551e-01
3.294000000000000000e+03 4.239370727539062500e+01 7.596434593200683594e+00 -6.734959483146667480e-01 5.874469757080078125e+00 1.560292124748229980e+00 6.953692436218261719e-01
3.295000000000000000e+03 4.333783721923828125e+01 1.041400814056396484e+01 -7.310054302215576172e-01 6.352461338043212891e+00 1.686436772346496582e+00 7.257406115531921387e-01
3.296000000000000000e+03 4.226834106445312500e+01 1.058803749084472656e+01 -6.728205680847167969e-01 6.087730407714843750e+00 1.624472975730895996e+00 8.529590368270874023e-01
3.297000000000000000e+03 4.515738677978515625e+01 3.608979657292366028e-02 -6.335769891738891602e-01 5.905478477478027344e+00 1.581570386886596680e+00 2.813821136951446533e-01
3.298000000000000000e+03 5.673311233520507812e+01 1.602597999572753906e+01 -5.339243412017822266e-01 8.409415245056152344e+00 2.362647294998168945e+00 -9.527575373649597168e-01
3.299000000000000000e+03 5.625246047973632812e+01 1.369729900360107422e+01 -6.591705679893493652e-01 8.252108573913574219e+00 2.277881383895874023e+00 -8.158683180809020996e-01
3.300000000000000000e+03 5.547906494140625000e+01 1.161941146850585938e+01 -7.424314022064208984e-01 8.043387413024902344e+00 2.190286874771118164e+00 -6.484326124191284180e-01
3.301000000000000000e+03 5.543281555175781250e+01 -5.209775447845458984e+00 -5.051209926605224609e-01 6.999079704284667969e+00 1.948187708854675293e+00 -2.437575459480285645e-01
3.302000000000000000e+03 5.707055282592773438e+01 -7.549265384674072266e+00 -4.422056674957275391e-01 7.073075771331787109e+00 1.989261031150817871e+00 -2.516544461250305176e-01
3.303000000000000000e+03 5.825801849365234375e+01 2.407746505737304688e+01 3.831881582736968994e-01 8.653957366943359375e+00 2.711143493652343750e+00 -1.300010204315185547e+00
3.304000000000000000e+03 5.672988891601562500e+01 -1.297043418884277344e+01 -3.420784175395965576e-01 6.909605979919433594e+00 1.970258235931396484e+00 -1.735666394233703613e-01
3.305000000000000000e+03 5.796817779541015625e+01 2.054007720947265625e+01 -1.062477156519889832e-01 8.609369277954101562e+00 2.550936460494995117e+00 -1.220382809638977051e+00
3.306000000000000000e+03 4.959899520874023438e+01 1.853275489807128906e+01 -7.174518108367919922e-01 8.832589149475097656e+00 2.434541225433349609e+00 -8.772881329059600830e-02
3.307000000000000000e+03 5.465390014648437500e+01 -3.611261606216430664e+00 -5.682451128959655762e-01 6.970597267150878906e+00 1.920705556869506836e+00 -2.345408946275711060e-01
3.308000000000000000e+03 5.885049819946289062e+01 -4.633568286895751953e+00 -4.608851969242095947e-01 7.321973323822021484e+00 2.058326482772827148e+00 -3.663764595985412598e-01
3.309000000000000000e+03 4.336047744750976562e+01 7.057573795318603516e+00 -7.101014256477355957e-01 6.071088790893554688e+00 1.608296155929565430e+00 5.829727649688720703e-01
3.310000000000000000e+03 4.310881423950195312e+01 1.649837493896484375e+01 -6.018621325492858887e-01 6.962624073028564453e+00 1.908228635787963867e+00 1.183041214942932129e+00
3.311000000000000000e+03 4.453211975097656250e+01 1.859618377685546875e+01 -6.441990733146667480e-01 7.866966724395751953e+00 2.166830301284790039e+00 1.089893579483032227e+00
3.312000000000000000e+03 4.577275848388671875e+01 1.655651855468750000e+01 -7.785735130310058594e-01 7.814450740814208984e+00 2.110763311386108398e+00 7.037683725357055664e-01
3.313000000000000000e+03 4.363035964965820312e+01 1.542404270172119141e+01 -6.774184107780456543e-01 6.971071720123291016e+00 1.888095974922180176e+00 1.018934965133666992e+00
3.314000000000000000e+03 4.293626022338867188e+01 1.974902725219726562e+01 -4.251137971878051758e-01 7.481917381286621094e+00 2.117041110992431641e+00 1.542632937431335449e+00
3.315000000000000000e+03 4.271916961669921875e+01 2.107611656188964844e+01 -2.795405983924865723e-01 7.598632812500000000e+00 2.195727586746215820e+00 1.787950277328491211e+00
3.316000000000000000e+03 4.317340087890625000e+01 1.844708442687988281e+01 -5.141307115554809570e-01 7.311796188354492188e+00 2.039299488067626953e+00 1.353595256805419922e+00
3.317000000000000000e+03 4.241415786743164062e+01 1.886382865905761719e+01 -4.230495989322662354e-01 7.099294185638427734e+00 2.002873420715332031e+00 1.530860066413879395e+00
3.318000000000000000e+03 4.372423171997070312e+01 1.923733139038085938e+01 -5.385629534721374512e-01 7.670699596405029297e+00 2.139641046524047852e+00 1.323939681053161621e+00
3.319000000000000000e+03 4.459559249877929688e+01 1.330996036529541016e+01 -7.815594673156738281e-01 6.978528022766113281e+00 1.859090566635131836e+00 7.546971440315246582e-01
3.320000000000000000e+03 4.405030441284179688e+01 1.177811241149902344e+01 -7.635331153869628906e-01 6.670877933502197266e+00 1.772203445434570312e+00 7.412888407707214355e-01
3.321000000000000000e+03 4.447905349731445312e+01 1.070758247375488281e+01 -7.868001461029052734e-01 6.652464866638183594e+00 1.759699463844299316e+00 6.406882405281066895e-01
3.322000000000000000e+03 5.407819366455078125e+01 -9.653758049011230469e+00 -4.264878034591674805e-01 6.698264598846435547e+00 1.881533026695251465e+00 -1.454304754734039307e-01
3.323000000000000000e+03 5.186515045166015625e+01 1.905887985229492188e+01 -5.692580342292785645e-01 8.969424247741699219e+00 2.520050048828125000e+00 -5.542316436767578125e-01
3.324000000000000000e+03 5.197391128540039062e+01 1.617156982421875000e+01 -7.585939764976501465e-01 8.515641212463378906e+00 2.327114105224609375e+00 -4.272248148918151855e-01
3.325000000000000000e+03 5.574108505249023438e+01 7.188503265380859375e+00 -7.407296299934387207e-01 7.695763111114501953e+00 2.086509943008422852e+00 -5.310965180397033691e-01
3.326000000000000000e+03 5.690455245971679688e+01 7.287406444549560547e+00 -7.031899094581604004e-01 7.754086494445800781e+00 2.115268945693969727e+00 -6.088764071464538574e-01
3.327000000000000000e+03 4.285206604003906250e+01 5.770606517791748047e+00 -6.890799403190612793e-01 5.867103576660156250e+00 1.553407073020935059e+00 5.807162523269653320e-01
3.328000000000000000e+03 5.601865386962890625e+01 2.333716750144958496e-01 -6.245858073234558105e-01 7.283619403839111328e+00 1.997710108757019043e+00 -3.676631450653076172e-01
3.329000000000000000e+03 5.509258651733398438e+01 -1.147963285446166992e+00 -6.049088239669799805e-01 7.131638050079345703e+00 1.958018779754638672e+00 -2.965280115604400635e-01
3.330000000000000000e+03 4.511924743652343750e+01 -2.217416048049926758e+00 -5.817694664001464844e-01 5.794787406921386719e+00 1.563905358314514160e+00 2.356559336185455322e-01
3.331000000000000000e+03 5.510967254638671875e+01 1.303545665740966797e+01 -7.341105341911315918e-01 8.169719696044921875e+00 2.230682849884033203e+00 -6.678360104560852051e-01
3.332000000000000000e+03 4.778329849243164062e+01 1.779293632507324219e+01 -7.842901945114135742e-01 8.469704627990722656e+00 2.305624246597290039e+00 3.197487890720367432e-01
3.333000000000000000e+03 5.082764434814453125e+01 1.749245643615722656e+01 -7.392939925193786621e-01 8.695218086242675781e+00 2.386777400970458984e+00 -2.920626103878021240e-01
3.334000000000000000e+03 4.000090026855468750e+01 -5.961513996124267578e+00 -4.067378044128417969e-01 4.790603637695312500e+00 1.315159797668457031e+00 3.606584668159484863e-01
3.335000000000000000e+03 5.468585205078125000e+01 1.261601090431213379e+00 -6.735874414443969727e-01 7.211835384368896484e+00 1.961474418640136719e+00 -3.119870126247406006e-01
3.336000000000000000e+03 5.751536560058593750e+01 1.589226961135864258e+00 -6.154866218566894531e-01 7.445619583129882812e+00 2.049039840698242188e+00 -4.669288992881774902e-01
3.337000000000000000e+03 5.460623550415039062e+01 1.435234260559082031e+01 -7.151414752006530762e-01 8.316743850708007812e+00 2.280480623245239258e+00 -6.643626689910888672e-01
3.338000000000000000e+03 5.704681777954101562e+01 1.959296417236328125e+01 -2.208109796047210693e-01 8.642536163330078125e+00 2.526517629623413086e+00 -1.154358148574829102e+00
3.339000000000000000e+03 5.541896438598632812e+01 1.920778083801269531e+01 -3.490699529647827148e-01 8.756834030151367188e+00 2.522329330444335938e+00 -1.003385305404663086e+00
3.340000000000000000e+03 5.829389190673828125e+01 -1.308046340942382812e+01 -3.139975070953369141e-01 7.080271720886230469e+00 2.029882192611694336e+00 -2.042059302330017090e-01
3.341000000000000000e+03 5.348474884033203125e+01 -1.178709506988525391e+01 -3.890144228935241699e-01 6.563092231750488281e+00 1.852223277091979980e+00 -1.096055060625076294e-01
3.342000000000000000e+03 5.787924957275390625e+01 4.975991725921630859e+00 -6.544298529624938965e-01 7.648413181304931641e+00 2.098195075988769531e+00 -5.899118781089782715e-01
3.343000000000000000e+03 4.656938552856445312e+01 2.614036798477172852e+00 -7.251629829406738281e-01 6.327058792114257812e+00 1.680568695068359375e+00 2.346746474504470825e-01
3.344000000000000000e+03 4.428542709350585938e+01 4.042387008666992188e+00 -6.977736949920654297e-01 6.003878593444824219e+00 1.591831445693969727e+00 4.302834868431091309e-01
3.345000000000000000e+03 4.375708007812500000e+01 1.788410758972167969e+01 -6.109998822212219238e-01 7.432226657867431641e+00 2.046368122100830078e+00 1.157916188240051270e+00
3.346000000000000000e+03 4.470336914062500000e+01 1.598940944671630859e+01 -7.419241666793823242e-01 7.426184654235839844e+00 2.005278110504150391e+00 8.890350461006164551e-01
3.347000000000000000e+03 4.576103973388671875e+01 6.734029293060302734e+00 -7.873771786689758301e-01 6.473714351654052734e+00 1.705901265144348145e+00 3.873828947544097900e-01
3.348000000000000000e+03 4.685934066772460938e+01 1.712162208557128906e+01 -8.055651187896728516e-01 8.171737670898437500e+00 2.209851741790771484e+00 5.089709758758544922e-01
3.349000000000000000e+03 5.017914199829101562e+01 1.253617763519287109e+00 -7.212790250778198242e-01 6.758886337280273438e+00 1.811282157897949219e+00 -2.724150009453296661e-02
3.350000000000000000e+03 4.592238616943359375e+01 1.272539806365966797e+01 -8.372822403907775879e-01 7.210018157958984375e+00 1.911820769309997559e+00 5.513116717338562012e-01
3.351000000000000000e+03 5.429717636108398438e+01 9.785146713256835938e+00 -7.946352362632751465e-01 7.833858013153076172e+00 2.111766815185546875e+00 -4.792643487453460693e-01
3.352000000000000000e+03 5.421944046020507812e+01 1.119846153259277344e+01 -7.967954277992248535e-01 7.966780185699462891e+00 2.150995492935180664e+00 -5.170312523841857910e-01
3.353000000000000000e+03 4.969781494140625000e+01 1.736859512329101562e+01 -7.809582352638244629e-01 8.595013618469238281e+00 2.344216585159301758e+00 -7.908691465854644775e-02
3.354000000000000000e+03 4.553272247314453125e+01 4.218739509582519531e+00 -7.357761859893798828e-01 6.288455009460449219e+00 1.665803670883178711e+00 3.413677811622619629e-01
3.355000000000000000e+03 4.519372940063476562e+01 3.097727298736572266e+00 -7.101197242736816406e-01 6.095926761627197266e+00 1.615742087364196777e+00 3.468555510044097900e-01
3.356000000000000000e+03 5.465060043334960938e+01 1.575694179534912109e+01 -6.552644371986389160e-01 8.450048446655273438e+00 2.338435173034667969e+00 -7.350097894668579102e-01
3.357000000000000000e+03 5.571595764160156250e+01 8.597259521484375000e+00 -7.454742789268493652e-01 7.803676128387451172e+00 2.117460489273071289e+00 -5.683529973030090332e-01
3.358000000000000000e+03 5.372013854980468750e+01 5.059023857116699219e+00 -7.618182301521301270e-01 7.387675762176513672e+00 1.987757205963134766e+00 -3.141111731529235840e-01
3.359000000000000000e+03 4.489094161987304688e+01 8.235093116760253906e+00 -7.849461436271667480e-01 6.514568328857421875e+00 1.718886613845825195e+00 5.002436637878417969e-01
3.360000000000000000e+03 5.039007949829101562e+01 -4.085850715637207031e+00 -5.790657997131347656e-01 6.475428581237792969e+00 1.768908858299255371e+00 -3.513024002313613892e-02
3.361000000000000000e+03 4.636383819580078125e+01 -1.158548116683959961e+00 -6.288679242134094238e-01 6.043878078460693359e+00 1.624503016471862793e+00 1.928764879703521729e-01
3.362000000000000000e+03 5.562587356567382812e+01 1.715932273864746094e+01 -5.241100192070007324e-01 8.571334838867187500e+00 2.414167404174804688e+00 -9.157432913780212402e-01
3.363000000000000000e+03 5.336655044555664062e+01 1.776726722717285156e+01 -5.961400866508483887e-01 8.712830543518066406e+00 2.435007095336914062e+00 -7.067004442214965820e-01
3.364000000000000000e+03 5.651355361938476562e+01 1.720865726470947266e+00 -6.380473971366882324e-01 7.399029254913330078e+00 2.028294563293457031e+00 -4.293802678585052490e-01
3.365000000000000000e+03 5.713627243041992188e+01 2.570036888122558594e+00 -6.466705203056335449e-01 7.477375507354736328e+00 2.049211502075195312e+00 -4.693852365016937256e-01
3.366000000000000000e+03 5.316231536865234375e+01 -9.108959436416625977e-01 -6.400017738342285156e-01 6.958817481994628906e+00 1.895644664764404297e+00 -2.035926878452301025e-01
3.367000000000000000e+03 4.678020095825195312e+01 4.086068153381347656e+00 -7.614039182662963867e-01 6.470945358276367188e+00 1.712862491607666016e+00 2.442120015621185303e-01
3.368000000000000000e+03 5.400283432006835938e+01 -5.390004254877567291e-03 -6.597164273262023926e-01 7.087417125701904297e+00 1.928310155868530273e+00 -2.555368542671203613e-01
3.369000000000000000e+03 5.478163146972656250e+01 -1.461788654327392578e+01 -3.232202529907226562e-01 6.652471065521240234e+00 1.898775219917297363e+00 -1.175056621432304382e-01
3.370000000000000000e+03 5.479416656494140625e+01 2.113839149475097656e+01 -1.479267925024032593e-01 8.992886543273925781e+00 2.653487920761108398e+00 -1.039706230163574219e+00
3.371000000000000000e+03 4.231777954101562500e+01 -6.030788898468017578e+00 -4.485681951045989990e-01 5.184855461120605469e+00 1.420886158943176270e+00 2.833990454673767090e-01
3.372000000000000000e+03 4.492090225219726562e+01 -5.746342658996582031e+00 -5.026133060455322266e-01 5.615582942962646484e+00 1.533890843391418457e+00 1.961661875247955322e-01
3.373000000000000000e+03 4.132364273071289062e+01 -7.355955600738525391e+00 -4.075521528720855713e-01 4.980324268341064453e+00 1.371831536293029785e+00 2.926151454448699951e-01
3.374000000000000000e+03 4.517945098876953125e+01 1.489237403869628906e+01 -7.838246226310729980e-01 7.354875087738037109e+00 1.971315145492553711e+00 7.420943379402160645e-01
3.375000000000000000e+03 4.624413681030273438e+01 1.537599277496337891e+01 -8.207975625991821289e-01 7.712133884429931641e+00 2.067400932312011719e+00 5.791820883750915527e-01
3.376000000000000000e+03 4.559910202026367188e+01 1.377231693267822266e+01 -8.167975544929504395e-01 7.273970603942871094e+00 1.937151908874511719e+00 6.335973143577575684e-01
3.377000000000000000e+03 4.967406845092773438e+01 1.618833923339843750e+01 -8.162174820899963379e-01 8.397801399230957031e+00 2.274475336074829102e+00 -6.010755151510238647e-02
3.378000000000000000e+03 5.078990554809570312e+01 1.619413948059082031e+01 -7.903254032135009766e-01 8.475569725036621094e+00 2.305573225021362305e+00 -2.387486249208450317e-01
3.379000000000000000e+03 5.330814743041992188e+01 1.605412864685058594e+01 -6.894535422325134277e-01 8.503602981567382812e+00 2.344244956970214844e+00 -6.100128889083862305e-01
3.380000000000000000e+03 5.203824996948242188e+01 1.762189865112304688e+01 -6.712384819984436035e-01 8.727678298950195312e+00 2.416932106018066406e+00 -4.931062459945678711e-01
3.381000000000000000e+03 4.851513671875000000e+01 1.614824295043945312e+01 -8.360406756401062012e-01 8.242176055908203125e+00 2.221840381622314453e+00 1.768508553504943848e-01
3.382000000000000000e+03 4.734206771850585938e+01 1.585941123962402344e+01 -8.390931487083435059e-01 8.022705078125000000e+00 2.155083656311035156e+00 3.876852393150329590e-01
3.383000000000000000e+03 4.866781616210937500e+01 1.497516345977783203e+01 -8.665697574615478516e-01 8.063888549804687500e+00 2.159195661544799805e+00 1.569862812757492065e-01
3.384000000000000000e+03 5.292816162109375000e+01 9.561073303222656250e+00 -8.345844149589538574e-01 7.734588623046875000e+00 2.070001363754272461e+00 -3.403044342994689941e-01
3.385000000000000000e+03 4.944134140014648438e+01 1.127210631966590881e-01 -6.886751651763916016e-01 6.562674522399902344e+00 1.762199759483337402e+00 2.931510843336582184e-02
3.386000000000000000e+03 4.688191604614257812e+01 5.484403610229492188e+00 -7.857324481010437012e-01 6.624481201171875000e+00 1.751624584197998047e+00 2.565872669219970703e-01
3.387000000000000000e+03 4.554782867431640625e+01 1.123224544525146484e+01 -8.256242275238037109e-01 6.944127559661865234e+00 1.835551023483276367e+00 5.397455692291259766e-01
3.388000000000000000e+03 4.485929107666015625e+01 9.531220436096191406e+00 -7.926867008209228516e-01 6.617223262786865234e+00 1.747361063957214355e+00 5.430304408073425293e-01
3.389000000000000000e+03 5.685093307495117188e+01 6.007292747497558594e+00 -6.983706355094909668e-01 7.671456813812255859e+00 2.091925859451293945e+00 -5.664978027343750000e-01
3.390000000000000000e+03 5.287288665771484375e+01 7.969526767730712891e+00 -8.190530538558959961e-01 7.570571422576904297e+00 2.025455474853515625e+00 -2.977925837039947510e-01
3.391000000000000000e+03 5.342261505126953125e+01 3.133556365966796875e+00 -7.320861220359802246e-01 7.230912208557128906e+00 1.949647903442382812e+00 -2.673599720001220703e-01
3.392000000000000000e+03 5.448511123657226562e+01 6.900890350341796875e+00 -7.717446684837341309e-01 7.606902122497558594e+00 2.050547361373901367e+00 -4.208877980709075928e-01
3.393000000000000000e+03 4.455971527099609375e+01 6.881759166717529297e+00 -7.551941275596618652e-01 6.279125213623046875e+00 1.657179236412048340e+00 4.827028214931488037e-01
3.394000000000000000e+03 5.355680847167968750e+01 1.372497558593750000e+01 -7.670657634735107422e-01 8.219566345214843750e+00 2.235750198364257812e+00 -5.366828441619873047e-01
3.395000000000000000e+03 4.795267486572265625e+01 2.498864173889160156e+00 -7.398376464843750000e-01 6.524044036865234375e+00 1.735261917114257812e+00 1.311010718345642090e-01
3.396000000000000000e+03 5.352212142944335938e+01 1.918861627578735352e+00 -7.095072269439697266e-01 7.164261341094970703e+00 1.936426281929016113e+00 -2.542148530483245850e-01
3.397000000000000000e+03 4.927657699584960938e+01 -3.158861160278320312e+00 -5.981335639953613281e-01 6.377859115600585938e+00 1.733917713165283203e+00 1.222501974552869797e-02
3.398000000000000000e+03 5.331238937377929688e+01 -4.395511150360107422e+00 -5.584846138954162598e-01 6.787611961364746094e+00 1.868738174438476562e+00 -1.630621701478958130e-01
3.399000000000000000e+03 5.387477493286132812e+01 -2.105469465255737305e+00 -6.059944629669189453e-01 6.966740131378173828e+00 1.908223748207092285e+00 -2.156444489955902100e-01
3.400000000000000000e+03 4.639990997314453125e+01 1.193404102325439453e+01 -8.521900177001953125e-01 7.186491966247558594e+00 1.900290489196777344e+00 4.473000764846801758e-01
3.401000000000000000e+03 5.434064865112304688e+01 8.313717842102050781e+00 -7.874814867973327637e-01 7.710727691650390625e+00 2.076973915100097656e+00 -4.497749805450439453e-01
3.402000000000000000e+03 5.400775146484375000e+01 1.250268077850341797e+01 -7.788124680519104004e-01 8.091717720031738281e+00 2.193871498107910156e+00 -5.389005541801452637e-01
3.403000000000000000e+03 5.273841094970703125e+01 1.291339683532714844e+01 -8.197204470634460449e-01 8.109459877014160156e+00 2.186921834945678711e+00 -3.993519246578216553e-01
3.404000000000000000e+03 5.066314697265625000e+01 -8.503499984741210938e+00 -4.789326786994934082e-01 6.317221641540527344e+00 1.751486659049987793e+00 -3.598899766802787781e-02
3.405000000000000000e+03 5.437133407592773438e+01 -1.696564865112304688e+01 -2.780020236968994141e-01 6.569687366485595703e+00 1.887505650520324707e+00 -9.528175741434097290e-02
3.406000000000000000e+03 4.952759170532226562e+01 -1.214741897583007812e+01 -3.902457654476165771e-01 6.059810638427734375e+00 1.700869441032409668e+00 -1.904556294903159142e-03
3.407000000000000000e+03 4.690690231323242188e+01 6.867505073547363281e+00 -8.234592676162719727e-01 6.762203693389892578e+00 1.781623363494873047e+00 2.799041569232940674e-01
3.408000000000000000e+03 4.421425628662109375e+01 5.464447021484375000e+00 -7.176593542098999023e-01 6.077894210815429688e+00 1.608070373535156250e+00 4.638329744338989258e-01
3.409000000000000000e+03 5.047166061401367188e+01 1.354216098785400391e+01 -8.667457103729248047e-01 8.024147033691406250e+00 2.147220373153686523e+00 -1.189114600419998169e-01
3.410000000000000000e+03 4.664860916137695312e+01 1.411320590972900391e+01 -8.472896814346313477e-01 7.576700687408447266e+00 2.018823385238647461e+00 4.582143127918243408e-01
3.411000000000000000e+03 5.301722717285156250e+01 1.095607948303222656e+01 -8.304410576820373535e-01 7.881605148315429688e+00 2.115349292755126953e+00 -3.790037631988525391e-01
3.412000000000000000e+03 4.626528549194335938e+01 7.908356189727783203e+00 -8.166042566299438477e-01 6.718636035919189453e+00 1.770609617233276367e+00 3.556470572948455811e-01
3.413000000000000000e+03 4.769334411621093750e+01 1.453038787841796875e+01 -8.668823838233947754e-01 7.846470355987548828e+00 2.093876361846923828e+00 2.988091409206390381e-01
3.414000000000000000e+03 3.659550094604492188e+01 -9.160591125488281250e+00 -2.670675516128540039e-01 4.151997089385986328e+00 1.165478825569152832e+00 3.228537738323211670e-01
3.415000000000000000e+03 5.477307891845703125e+01 5.593830108642578125e+00 -7.511489391326904297e-01 7.509197711944580078e+00 2.027414560317993164e+00 -4.072126150131225586e-01
3.416000000000000000e+03 5.314313125610351562e+01 6.422372341156005859e+00 -7.975698113441467285e-01 7.456269741058349609e+00 1.997610092163085938e+00 -2.937318086624145508e-01
3.417000000000000000e+03 5.599011230468750000e+01 4.765593528747558594e+00 -7.111147642135620117e-01 7.547762870788574219e+00 2.050994396209716797e+00 -4.717074930667877197e-01
3.418000000000000000e+03 5.213736343383789062e+01 1.341742801666259766e+01 -8.220451474189758301e-01 8.133586883544921875e+00 2.193462610244750977e+00 -3.594051897525787354e-01
3.419000000000000000e+03 5.273225021362304688e+01 1.453174495697021484e+01 -7.834934592247009277e-01 8.296419143676757812e+00 2.253877639770507812e+00 -4.711286723613739014e-01
3.420000000000000000e+03 4.732976913452148438e+01 1.529628485441207886e-01 -6.733682155609130859e-01 6.286557674407958984e+00 1.683956861495971680e+00 1.463799178600311279e-01
3.421000000000000000e+03 4.831514358520507812e+01 1.162664294242858887e+00 -7.098720669746398926e-01 6.475876331329345703e+00 1.729801297187805176e+00 1.085076853632926941e-01
3.422000000000000000e+03 5.437154006958007812e+01 3.718294620513916016e+00 -7.254464626312255859e-01 7.343629360198974609e+00 1.985454797744750977e+00 -3.385380208492279053e-01
3.423000000000000000e+03 4.560692977905273438e+01 -7.157961368560791016e+00 -4.754621088504791260e-01 5.662983417510986328e+00 1.556256413459777832e+00 1.474754363298416138e-01
3.424000000000000000e+03 4.361656188964843750e+01 -6.345487117767333984e+00 -4.711759686470031738e-01 5.369341373443603516e+00 1.469449639320373535e+00 2.359654605388641357e-01
3.425000000000000000e+03 4.663452148437500000e+01 -6.244477748870849609e+00 -5.061274170875549316e-01 5.846726417541503906e+00 1.602179765701293945e+00 1.162629798054695129e-01
3.426000000000000000e+03 4.221517944335937500e+01 -1.202178382873535156e+01 -3.341188132762908936e-01 5.014524459838867188e+00 1.404121756553649902e+00 1.881093829870223999e-01
3.427000000000000000e+03 4.002793884277343750e+01 -8.544425964355468750e+00 -3.539449572563171387e-01 4.756489753723144531e+00 1.320763468742370605e+00 2.884997725486755371e-01
3.428000000000000000e+03 5.014655303955078125e+01 5.137378215789794922e+00 -8.049690723419189453e-01 7.046556472778320312e+00 1.872476220130920410e+00 -3.710990026593208313e-02
3.429000000000000000e+03 4.806637954711914062e+01 4.044933795928955078e+00 -7.731892466545104980e-01 6.665867805480957031e+00 1.767803549766540527e+00 1.384058147668838501e-01
3.430000000000000000e+03 5.137788391113281250e+01 1.354084873199462891e+01 -8.495741486549377441e-01 8.093059539794921875e+00 2.173045635223388672e+00 -2.613982260227203369e-01
3.431000000000000000e+03 5.167376708984375000e+01 1.479541110992431641e+01 -7.985160350799560547e-01 8.300663948059082031e+00 2.250644445419311523e+00 -3.361202180385589600e-01
3.432000000000000000e+03 5.238517379760742188e+01 -8.948163986206054688e+00 -4.579979181289672852e-01 6.528450489044189453e+00 1.821135878562927246e+00 -9.865894168615341187e-02
3.433000000000000000e+03 4.907610702514648438e+01 -7.902136802673339844e+00 -4.891963899135589600e-01 6.126406669616699219e+00 1.691163182258605957e+00 2.572446689009666443e-02
3.434000000000000000e+03 4.375221633911132812e+01 -1.088423347473144531e+01 -3.785766065120697021e-01 5.274388313293457031e+00 1.468743562698364258e+00 1.641850024461746216e-01
3.435000000000000000e+03 5.051764678955078125e+01 -1.497416019439697266e+01 -3.306260108947753906e-01 6.112577915191650391e+00 1.734585642814636230e+00 -2.668396756052970886e-02
3.436000000000000000e+03 4.963039016723632812e+01 -1.685415077209472656e+01 -2.927579581737518311e-01 5.953176975250244141e+00 1.698125720024108887e+00 -6.714767310768365860e-03
3.437000000000000000e+03 5.153320693969726562e+01 -1.824062919616699219e+01 -2.701652944087982178e-01 6.175064563751220703e+00 1.771469831466674805e+00 -4.538115486502647400e-02
3.438000000000000000e+03 4.818472671508789062e+01 1.052313041687011719e+01 -8.787159323692321777e-01 7.344643592834472656e+00 1.939778327941894531e+00 1.964956223964691162e-01
3.439000000000000000e+03 5.128869628906250000e+01 4.403509497642517090e-01 -6.960669755935668945e-01 6.841453075408935547e+00 1.843615770339965820e+00 -9.266547113656997681e-02
3.440000000000000000e+03 4.908790969848632812e+01 1.411067676544189453e+01 -8.783558011054992676e-01 7.960474967956542969e+00 2.124635696411132812e+00 8.549513667821884155e-02
3.441000000000000000e+03 4.956849288940429688e+01 1.325553894042968750e+01 -8.807452321052551270e-01 7.886079788208007812e+00 2.101600408554077148e+00 1.094330660998821259e-02
3.442000000000000000e+03 4.680020904541015625e+01 1.288546085357666016e+01 -8.554431796073913574e-01 7.410489082336425781e+00 1.966513752937316895e+00 4.054207801818847656e-01
3.443000000000000000e+03 4.959143829345703125e+01 1.499934482574462891e+01 -8.501580357551574707e-01 8.168107032775878906e+00 2.195384740829467773e+00 -1.294323801994323730e-02
3.444000000000000000e+03 5.270525360107421875e+01 4.339455604553222656e+00 -7.638486027717590332e-01 7.265552043914794922e+00 1.950510978698730469e+00 -2.396541088819503784e-01
3.445000000000000000e+03 4.957574462890625000e+01 6.787379741668701172e+00 -8.402817249298095703e-01 7.131039619445800781e+00 1.887227416038513184e+00 2.009322680532932281e-02
3.446000000000000000e+03 5.192541885375976562e+01 1.543641328811645508e+00 -7.241873741149902344e-01 6.981869697570800781e+00 1.877304673194885254e+00 -1.381604671478271484e-01
3.447000000000000000e+03 4.957085800170898438e+01 -6.353665351867675781e+00 -5.265594124794006348e-01 6.262270450592041016e+00 1.720713376998901367e+00 9.099521674215793610e-03
3.448000000000000000e+03 3.869952392578125000e+01 -1.435810184478759766e+01 -2.428484112024307251e-01 4.417430400848388672e+00 1.252374649047851562e+00 2.081776559352874756e-01
3.449000000000000000e+03 4.121123504638671875e+01 -1.013929367065429688e+01 -3.587119877338409424e-01 4.883970737457275391e+00 1.357577681541442871e+00 2.478260844945907593e-01
3.450000000000000000e+03 4.808948135375976562e+01 5.521783351898193359e+00 -8.066148757934570312e-01 6.800341606140136719e+00 1.798117995262145996e+00 1.517398804426193237e-01
3.451000000000000000e+03 4.720478820800781250e+01 9.170986175537109375e+00 -8.500566482543945312e-01 6.990301132202148438e+00 1.842073440551757812e+00 3.024768233299255371e-01
3.452000000000000000e+03 4.722560882568359375e+01 1.129323196411132812e+01 -8.640716671943664551e-01 7.267095088958740234e+00 1.920907020568847656e+00 3.167700767517089844e-01
3.453000000000000000e+03 4.780864715576171875e+01 -2.270872592926025391e+00 -6.131538152694702148e-01 6.208088874816894531e+00 1.678480505943298340e+00 1.008964106440544128e-01
3.454000000000000000e+03 5.518621444702148438e+01 4.439805984497070312e+00 -7.151095867156982422e-01 7.453240394592285156e+00 2.021439313888549805e+00 -4.117925763130187988e-01
3.455000000000000000e+03 5.059333801269531250e+01 1.485914707183837891e+01 -8.360333442687988281e-01 8.248186111450195312e+00 2.223645925521850586e+00 -1.791380196809768677e-01
3.456000000000000000e+03 4.864742660522460938e+01 -1.011691212654113770e+00 -6.575893163681030273e-01 6.400862693786621094e+00 1.722982048988342285e+00 6.631880998611450195e-02
3.457000000000000000e+03 4.578871536254882812e+01 -3.738599538803100586e+00 -5.572996735572814941e-01 5.833367347717285156e+00 1.582820415496826172e+00 1.845639795064926147e-01
3.458000000000000000e+03 4.987101745605468750e+01 -5.029651165008544922e+00 -5.509387254714965820e-01 6.351584434509277344e+00 1.740193724632263184e+00 -1.026564091444015503e-02
3.459000000000000000e+03 4.833307266235351562e+01 -9.602231025695800781e+00 -4.394415915012359619e-01 5.958403110504150391e+00 1.655688405036926270e+00 4.077744483947753906e-02
3.460000000000000000e+03 5.250397109985351562e+01 -6.810936927795410156e+00 -5.034565329551696777e-01 6.616927146911621094e+00 1.834041237831115723e+00 -1.183748692274093628e-01
3.461000000000000000e+03 4.714489364624023438e+01 -5.179207324981689453e+00 -5.371269583702087402e-01 5.968195438385009766e+00 1.629320621490478516e+00 1.055648624897003174e-01
3.462000000000000000e+03 5.096899032592773438e+01 -6.738712787628173828e+00 -5.136219263076782227e-01 6.424112796783447266e+00 1.773147225379943848e+00 -5.329867079854011536e-02
3.463000000000000000e+03 3.986240005493164062e+01 -1.111609649658203125e+01 -3.114844560623168945e-01 4.670801639556884766e+00 1.307795047760009766e+00 2.397948354482650757e-01
3.464000000000000000e+03 4.062584686279296875e+01 -1.270926380157470703e+01 -2.924056947231292725e-01 4.776009559631347656e+00 1.345081210136413574e+00 1.986164450645446777e-01
3.465000000000000000e+03 5.181116485595703125e+01 -1.105044364929199219e+01 -4.054258465766906738e-01 6.387364864349365234e+00 1.794581651687622070e+00 -7.135532051324844360e-02
3.466000000000000000e+03 5.177225875854492188e+01 3.424498558044433594e+00 -7.666316628456115723e-01 7.093782901763916016e+00 1.898145318031311035e+00 -1.393765062093734741e-01
3.467000000000000000e+03 5.224832916259765625e+01 1.213259792327880859e+01 -8.482266664505004883e-01 7.966867446899414062e+00 2.135592222213745117e+00 -3.137576580047607422e-01
3.468000000000000000e+03 4.916589736938476562e+01 1.157483291625976562e+01 -8.802981972694396973e-01 7.617201328277587891e+00 2.021070957183837891e+00 6.703993678092956543e-02
3.469000000000000000e+03 4.916171264648437500e+01 9.803925514221191406e+00 -8.767761588096618652e-01 7.361341476440429688e+00 1.945369601249694824e+00 8.188159018754959106e-02
3.470000000000000000e+03 5.156676864624023438e+01 9.569333076477050781e+00 -8.530948758125305176e-01 7.624844074249267578e+00 2.031524896621704102e+00 -1.987357437610626221e-01
3.471000000000000000e+03 5.235539245605468750e+01 -1.681764125823974609e-01 -6.795559525489807129e-01 6.912681579589843750e+00 1.869937658309936523e+00 -1.545468568801879883e-01
3.472000000000000000e+03 5.295923233032226562e+01 8.148434162139892578e-01 -6.887516975402832031e-01 7.033148765563964844e+00 1.903319120407104492e+00 -2.038472294807434082e-01
3.473000000000000000e+03 4.674077987670898438e+01 -8.542754173278808594e+00 -4.555663466453552246e-01 5.779037952423095703e+00 1.597041487693786621e+00 9.602293372154235840e-02
3.474000000000000000e+03 4.866250991821289062e+01 1.258100986480712891e+01 -8.851187825202941895e-01 7.671652317047119141e+00 2.035960197448730469e+00 1.427641212940216064e-01
3.475000000000000000e+03 5.192583084106445312e+01 5.523448467254638672e+00 -7.986254692077636719e-01 7.283089637756347656e+00 1.945339202880859375e+00 -1.850463896989822388e-01
3.476000000000000000e+03 5.138752365112304688e+01 7.930553913116455078e+00 -8.420491218566894531e-01 7.426907062530517578e+00 1.975457429885864258e+00 -1.620232164859771729e-01
3.477000000000000000e+03 4.620397567749023438e+01 1.018184852600097656e+01 -8.403642773628234863e-01 6.930987834930419922e+00 1.827187061309814453e+00 4.244559407234191895e-01
3.478000000000000000e+03 4.856052017211914062e+01 8.503641128540039062e+00 -8.621339201927185059e-01 7.142171382904052734e+00 1.884011268615722656e+00 1.380510032176971436e-01
3.479000000000000000e+03 5.093415069580078125e+01 2.380271911621093750e+00 -7.460988759994506836e-01 6.921579360961914062e+00 1.852644085884094238e+00 -7.592728734016418457e-02
3.480000000000000000e+03 4.926628112792968750e+01 4.325830936431884766e+00 -7.876214385032653809e-01 6.837244033813476562e+00 1.814886808395385742e+00 4.828789085149765015e-02
3.481000000000000000e+03 4.871027374267578125e+01 -4.384782314300537109e+00 -5.697789788246154785e-01 6.249863147735595703e+00 1.704025149345397949e+00 4.330739751458168030e-02
3.482000000000000000e+03 4.533409118652343750e+01 -9.794344902038574219e+00 -4.163895547389984131e-01 5.533643245697021484e+00 1.535176038742065430e+00 1.275505274534225464e-01
3.483000000000000000e+03 4.487267684936523438e+01 -1.273776912689208984e+01 -3.532859981060028076e-01 5.378472805023193359e+00 1.507556080818176270e+00 1.229050159454345703e-01
3.484000000000000000e+03 5.011238098144531250e+01 -1.033954524993896484e+01 -4.236706197261810303e-01 6.191832542419433594e+00 1.730448603630065918e+00 -2.413382939994335175e-02
3.485000000000000000e+03 4.730629730224609375e+01 -3.754345893859863281e+00 -5.765121579170227051e-01 6.055326461791992188e+00 1.643644332885742188e+00 1.159422025084495544e-01
3.486000000000000000e+03 4.830284118652343750e+01 -5.736506462097167969e+00 -5.374207496643066406e-01 6.106554508209228516e+00 1.670740127563476562e+00 6.789879500865936279e-02
3.487000000000000000e+03 4.770441055297851562e+01 -7.115669250488281250e+00 -4.944486618041992188e-01 5.971053123474121094e+00 1.642981290817260742e+00 7.402311265468597412e-02
3.488000000000000000e+03 4.772254562377929688e+01 1.254960823059082031e+01 -8.776457905769348145e-01 7.542084217071533203e+00 1.999331593513488770e+00 2.672070562839508057e-01
3.489000000000000000e+03 5.093489456176757812e+01 -5.232934474945068359e+00 -5.461577773094177246e-01 6.500189781188964844e+00 1.786209583282470703e+00 -5.856870859861373901e-02
3.490000000000000000e+03 5.130648803710937500e+01 -3.340069293975830078e+00 -6.012083292007446289e-01 6.625514507293701172e+00 1.807291984558105469e+00 -7.627133280038833618e-02
3.491000000000000000e+03 5.008675003051757812e+01 -2.056930541992187500e+00 -6.323043107986450195e-01 6.537533760070800781e+00 1.771568894386291504e+00 -2.040157839655876160e-02
3.492000000000000000e+03 4.997136688232421875e+01 1.070182609558105469e+01 -8.738368749618530273e-01 7.584654331207275391e+00 2.013245344161987305e+00 -3.286876901984214783e-02
3.493000000000000000e+03 5.158160781860351562e+01 1.262041091918945312e+01 -8.610917329788208008e-01 7.994652271270751953e+00 2.140068054199218750e+00 -2.473986297845840454e-01
3.494000000000000000e+03 4.820072174072265625e+01 7.007469177246093750e+00 -8.319395780563354492e-01 6.948749542236328125e+00 1.835042953491210938e+00 1.633522510528564453e-01
3.495000000000000000e+03 4.922111892700195312e+01 5.500112056732177734e+00 -8.078095316886901855e-01 6.940177440643310547e+00 1.839710354804992676e+00 6.042230501770973206e-02
3.496000000000000000e+03 5.094520568847656250e+01 4.351836681365966797e+00 -7.906436920166015625e-01 7.078866481781005859e+00 1.886466860771179199e+00 -8.484560251235961914e-02
3.497000000000000000e+03 5.209245300292968750e+01 -1.285140395164489746e+00 -6.443709135055541992e-01 6.808403968811035156e+00 1.849209904670715332e+00 -1.258395463228225708e-01
3.498000000000000000e+03 4.560451889038085938e+01 5.468423843383789062e+00 -7.585803866386413574e-01 6.382309913635253906e+00 1.687118768692016602e+00 3.640166521072387695e-01
3.499000000000000000e+03 5.258830261230468750e+01 2.510760545730590820e+00 -7.384428381919860840e-01 7.103622436523437500e+00 1.909553885459899902e+00 -1.922867000102996826e-01
3.500000000000000000e+03 3.443432617187500000e+01 -1.172223949432373047e+01 -1.951020359992980957e-01 3.764892339706420898e+00 1.070937156677246094e+00 2.901780009269714355e-01
3.501000000000000000e+03 3.759711074829101562e+01 -1.213947486877441406e+01 -2.500329017639160156e-01 4.289063930511474609e+00 1.211709260940551758e+00 2.563890516757965088e-01
3.502000000000000000e+03 4.784918975830078125e+01 -1.136166954040527344e+01 -3.998472392559051514e-01 5.840159416198730469e+00 1.632093667984008789e+00 4.754284024238586426e-02
3.503000000000000000e+03 3.720129394531250000e+01 -1.381839942932128906e+01 -2.224034965038299561e-01 4.197136878967285156e+00 1.192420005798339844e+00 2.239244878292083740e-01
3.504000000000000000e+03 4.335036087036132812e+01 -1.387980651855468750e+01 -3.210573196411132812e-01 5.145420551300048828e+00 1.447308897972106934e+00 1.384677588939666748e-01
3.505000000000000000e+03 5.087742996215820312e+01 6.386133193969726562e+00 -8.208897113800048828e-01 7.246958732604980469e+00 1.927820801734924316e+00 -1.089458763599395752e-01
3.506000000000000000e+03 4.997081756591796875e+01 8.183705329895019531e+00 -8.516111373901367188e-01 7.300963878631591797e+00 1.934805750846862793e+00 -2.061147242784500122e-02
3.507000000000000000e+03 5.027395629882812500e+01 9.583442687988281250e+00 -8.723675012588500977e-01 7.482552051544189453e+00 1.983055353164672852e+00 -6.144387647509574890e-02
3.508000000000000000e+03 4.731322860717773438e+01 -1.287236785888671875e+01 -3.655097782611846924e-01 5.719958305358886719e+00 1.606334447860717773e+00 4.915498197078704834e-02
3.509000000000000000e+03 4.228499221801757812e+01 -1.540744209289550781e+01 -2.775379121303558350e-01 4.959124088287353516e+00 1.404475808143615723e+00 1.339292526245117188e-01
3.510000000000000000e+03 4.882957839965820312e+01 -1.388875007629394531e+01 -3.569855391979217529e-01 5.898367881774902344e+00 1.662414789199829102e+00 1.507580187171697617e-02
3.511000000000000000e+03 4.185654067993164062e+01 -1.756695938110351562e+01 -2.406252324581146240e-01 4.856660842895507812e+00 1.384810686111450195e+00 1.212992891669273376e-01
3.512000000000000000e+03 4.631166076660156250e+01 -1.426908397674560547e+01 -3.406870961189270020e-01 5.553518295288085938e+00 1.563849449157714844e+00 6.931719183921813965e-02
3.513000000000000000e+03 4.557922744750976562e+01 -1.601931190490722656e+01 -2.980852723121643066e-01 5.398015022277832031e+00 1.529978990554809570e+00 7.282793521881103516e-02
3.514000000000000000e+03 3.945755004882812500e+01 -1.892956924438476562e+01 -1.991029828786849976e-01 4.476056098937988281e+00 1.283085942268371582e+00 1.379589736461639404e-01
3.515000000000000000e+03 4.053987884521484375e+01 -2.154028320312500000e+01 -1.736539900302886963e-01 4.602343082427978516e+00 1.328606843948364258e+00 9.712131321430206299e-02
3.516000000000000000e+03 6.423027801513671875e+01 1.321465778350830078e+01 -3.343299329280853271e-01 7.894317626953125000e+00 2.267996311187744141e+00 -1.130577445030212402e+00
3.517000000000000000e+03 4.571089553833007812e+01 -1.809309959411621094e+01 -2.655641138553619385e-01 5.398388862609863281e+00 1.539847493171691895e+00 5.186267569661140442e-02
3.518000000000000000e+03 5.833436203002929688e+01 -1.516908550262451172e+01 -2.748979032039642334e-01 7.046950817108154297e+00 2.031615734100341797e+00 -1.785844564437866211e-01
3.519000000000000000e+03 6.122542190551757812e+01 2.889342498779296875e+01 8.492736220359802246e-01 8.240023612976074219e+00 2.726788997650146484e+00 -1.072021842002868652e+00
3.520000000000000000e+03 6.607733154296875000e+01 -3.277192306518554688e+01 -5.819892510771751404e-02 7.891848564147949219e+00 2.350094795227050781e+00 -6.093355268239974976e-02
3.521000000000000000e+03 6.803521728515625000e+01 -3.562060546875000000e+01 -2.873614616692066193e-02 8.198139190673828125e+00 2.450820684432983398e+00 -3.660233318805694580e-02
3.522000000000000000e+03 5.035291290283203125e+01 -2.033105468750000000e+01 -2.467399090528488159e-01 5.980422973632812500e+00 1.720104813575744629e+00 -2.257253602147102356e-02
3.523000000000000000e+03 3.019299888610839844e+01 -3.033427238464355469e+01 -2.533681876957416534e-02 3.117582559585571289e+00 9.276736974716186523e-01 7.969837635755538940e-02
3.524000000000000000e+03 8.059010505676269531e+00 -4.143119812011718750e+01 1.423331256955862045e-02 -6.729882676154375076e-03 2.251029014587402344e-03 -7.721896748989820480e-03
3.525000000000000000e+03 2.792471122741699219e+01 -3.866801834106445312e+01 -9.056372195482254028e-02 2.813881397247314453e+00 8.169953227043151855e-01 -3.596779704093933105e-02
3.526000000000000000e+03 2.792699432373046875e+01 -3.601291275024414062e+01 -2.777370437979698181e-02 2.794520139694213867e+00 8.300239443778991699e-01 -1.196204405277967453e-02
3.527000000000000000e+03 3.249078750610351562e+01 -7.940396666526794434e-01 -2.301741391420364380e-01 3.388944864273071289e+00 9.476311802864074707e-01 5.864649415016174316e-01
3.528000000000000000e+03 3.890524673461914062e+01 -2.053460693359375000e+01 -1.652291864156723022e-01 4.386185169219970703e+00 1.266286849975585938e+00 1.142355427145957947e-01
3.529000000000000000e+03 3.775594329833984375e+01 -1.930990028381347656e+01 -1.682896316051483154e-01 4.233009338378906250e+00 1.219415903091430664e+00 1.507359892129898071e-01
3.530000000000000000e+03 3.322770309448242188e+01 -2.287395668029785156e+01 -9.972297400236129761e-02 3.587148666381835938e+00 1.046227693557739258e+00 1.291662454605102539e-01
3.531000000000000000e+03 5.658362197875976562e+01 -2.525453758239746094e+01 -1.600758433341979980e-01 6.720471382141113281e+00 1.968118667602539062e+00 -7.596915960311889648e-02
3.532000000000000000e+03 5.622412490844726562e+01 -2.025870895385742188e+01 -2.158697545528411865e-01 6.727693080902099609e+00 1.953547000885009766e+00 -9.463641792535781860e-02
3.533000000000000000e+03 6.320278167724609375e+01 -1.412756633758544922e+01 -2.104878425598144531e-01 7.583391666412353516e+00 2.211871147155761719e+00 -2.441175729036331177e-01
3.534000000000000000e+03 1.820876502990722656e+01 -4.124081802368164062e+01 1.491839066147804260e-02 7.329281568527221680e-01 2.243539541959762573e-01 1.097570732235908508e-01
3.535000000000000000e+03 6.119930648803710938e+01 3.780980682373046875e+01 1.044983983039855957e+00 8.421758651733398438e+00 2.840022802352905273e+00 -2.308792918920516968e-01
3.536000000000000000e+03 5.744543838500976562e+01 4.107918548583984375e+01 1.080859899520874023e+00 9.670355796813964844e+00 3.225364923477172852e+00 -9.780889376997947693e-03
3.537000000000000000e+03 5.987907409667968750e+01 3.328184509277343750e+01 1.244703054428100586e+00 8.602911949157714844e+00 2.954284429550170898e+00 -5.190008878707885742e-01
3.538000000000000000e+03 3.910001373291015625e+01 -1.249005985260009766e+01 -2.720050215721130371e-01 4.503529071807861328e+00 1.269457101821899414e+00 2.348347902297973633e-01
3.539000000000000000e+03 3.225005722045898438e+01 -2.169538116455078125e+01 -9.438035637140274048e-02 3.445734500885009766e+00 1.005406260490417480e+00 1.270221471786499023e-01
3.540000000000000000e+03 6.127017974853515625e+01 -2.563598632812500000e+01 -1.310456097126007080e-01 7.302067279815673828e+00 2.151306629180908203e+00 -9.629998356103897095e-02
3.541000000000000000e+03 5.734078216552734375e+01 3.823038482666015625e+01 1.123224735260009766e+00 9.611468315124511719e+00 3.220407962799072266e+00 8.598692365922033787e-04
3.542000000000000000e+03 6.090968322753906250e+01 -3.743945312500000000e+01 -6.954042613506317139e-02 7.259002208709716797e+00 2.156838417053222656e+00 -2.897964231669902802e-02
3.543000000000000000e+03 5.646479797363281250e+01 -3.745101165771484375e+01 -8.867934346199035645e-02 6.665847778320312500e+00 1.973150610923767090e+00 -1.900682412087917328e-02
3.544000000000000000e+03 2.766072845458984375e+01 -4.124824142456054688e+01 -1.111819595098495483e-01 2.845302820205688477e+00 8.202362656593322754e-01 -1.333570573478937149e-02
3.545000000000000000e+03 4.190720367431640625e+01 -3.691571807861328125e+01 -1.049885600805282593e-01 4.755911827087402344e+00 1.395276904106140137e+00 1.291861850768327713e-02
3.546000000000000000e+03 3.704288482666015625e+01 -3.763763427734375000e+01 -9.285813570022583008e-02 4.061356544494628906e+00 1.190549492835998535e+00 6.482684984803199768e-03
3.547000000000000000e+03 6.336492919921875000e+01 -3.368877792358398438e+01 -6.785042583942413330e-02 7.570065021514892578e+00 2.250664472579956055e+00 -4.504416510462760925e-02
3.548000000000000000e+03 7.157402038574218750e+01 -4.067432785034179688e+01 -1.012097112834453583e-02 8.655689239501953125e+00 2.593670368194580078e+00 -8.435377851128578186e-03
3.549000000000000000e+03 6.509063720703125000e+01 -3.700673294067382812e+01 -4.842858761548995972e-02 7.821026325225830078e+00 2.331779241561889648e+00 -2.818810008466243744e-02
3.550000000000000000e+03 6.175842285156250000e+01 3.418668365478515625e+01 1.065860509872436523e+00 8.279447555541992188e+00 2.803592443466186523e+00 -5.654876828193664551e-01
3.551000000000000000e+03 6.724730682373046875e+01 3.745660781860351562e+01 5.865460038185119629e-01 7.107573509216308594e+00 2.308235883712768555e+00 -3.590843379497528076e-01
3.552000000000000000e+03 7.969764709472656250e+00 4.119326782226562500e+01 1.352350955130532384e-04 1.370292302453890443e-04 8.167929627234116197e-05 1.135136000812053680e-03
3.553000000000000000e+03 3.340298461914062500e+01 -2.814990997314453125e+01 -5.928700789809226990e-02 3.614700794219970703e+00 1.066624164581298828e+00 7.059659808874130249e-02
3.554000000000000000e+03 3.533970642089843750e+01 -2.334568977355957031e+01 -1.103803142905235291e-01 3.895066738128662109e+00 1.135405898094177246e+00 1.248559132218360901e-01
3.555000000000000000e+03 3.291420745849609375e+01 -2.524633026123046875e+01 -7.972618192434310913e-02 3.564500570297241211e+00 1.045432329177856445e+00 1.122933402657508850e-01
3.556000000000000000e+03 3.437567138671875000e+01 -2.627087020874023438e+01 -1.008637398481369019e-01 3.737826585769653320e+00 1.091088891029357910e+00 1.067419573664665222e-01
3.557000000000000000e+03 5.374863433837890625e+01 -1.958058929443359375e+01 -2.452970296144485474e-01 6.448714733123779297e+00 1.861025214195251465e+00 -7.183923572301864624e-02
3.558000000000000000e+03 4.135783004760742188e+01 -1.963299369812011719e+01 -2.072213292121887207e-01 4.758288860321044922e+00 1.365320324897766113e+00 1.061890795826911926e-01
3.559000000000000000e+03 4.339295196533203125e+01 -2.054399108886718750e+01 -2.210568785667419434e-01 5.063033580780029297e+00 1.452592968940734863e+00 6.889874488115310669e-02
3.560000000000000000e+03 2.536906242370605469e+01 -3.315372467041015625e+01 3.138570487499237061e-02 2.458164215087890625e+00 7.468649744987487793e-01 2.490123547613620758e-02
3.561000000000000000e+03 6.513233947753906250e+01 3.345271682739257812e+01 7.022214531898498535e-01 7.455445766448974609e+00 2.447300195693969727e+00 -6.947363615036010742e-01
3.562000000000000000e+03 6.354652786254882812e+01 2.999685668945312500e+01 7.646583318710327148e-01 7.781964302062988281e+00 2.563986778259277344e+00 -9.825075864791870117e-01
3.563000000000000000e+03 5.645626831054687500e+01 -2.291180801391601562e+01 -1.878895908594131470e-01 6.726417064666748047e+00 1.961558222770690918e+00 -8.018054068088531494e-02
3.564000000000000000e+03 5.609435272216796875e+01 -2.776396942138671875e+01 -1.472030133008956909e-01 6.656969070434570312e+00 1.952929854393005371e+00 -6.226441264152526855e-02
3.565000000000000000e+03 5.893915176391601562e+01 -2.555999374389648438e+01 -1.535712480545043945e-01 7.005027294158935547e+00 2.055436849594116211e+00 -8.414845913648605347e-02
3.566000000000000000e+03 3.146011543273925781e+01 -2.669465065002441406e+01 -4.983159154653549194e-02 3.311926603317260742e+00 9.786285161972045898e-01 7.800551503896713257e-02
3.567000000000000000e+03 6.389680480957031250e+01 3.604880142211914062e+01 8.370631337165832520e-01 7.794236183166503906e+00 2.589389801025390625e+00 -4.525189101696014404e-01
3.568000000000000000e+03 5.926023101806640625e+01 -3.102092742919921875e+01 -1.034569218754768372e-01 7.046652793884277344e+00 2.082958698272705078e+00 -5.647477507591247559e-02
3.569000000000000000e+03 3.619415664672851562e+01 -2.685115432739257812e+01 -1.013925373554229736e-01 3.978319883346557617e+00 1.163078188896179199e+00 9.486934542655944824e-02
3.570000000000000000e+03 4.698423767089843750e+01 -2.014312553405761719e+01 -2.492339462041854858e-01 5.555128574371337891e+00 1.591768383979797363e+00 3.787277266383171082e-02
3.571000000000000000e+03 3.943374633789062500e+01 -2.327268600463867188e+01 -1.424486786127090454e-01 4.446058750152587891e+00 1.291083097457885742e+00 7.811748236417770386e-02
3.572000000000000000e+03 5.252717971801757812e+01 -2.216794395446777344e+01 -2.118788808584213257e-01 6.268702983856201172e+00 1.817047238349914551e+00 -4.893347993493080139e-02
3.573000000000000000e+03 4.108255386352539062e+01 -2.474950981140136719e+01 -1.502592116594314575e-01 4.653536796569824219e+00 1.350983262062072754e+00 6.535720080137252808e-02
3.574000000000000000e+03 3.690366744995117188e+01 -2.355286407470703125e+01 -1.214125230908393860e-01 4.081449508666992188e+00 1.188011050224304199e+00 1.292349249124526978e-01
3.575000000000000000e+03 5.582287979125976562e+01 -3.074541473388671875e+01 -1.182384267449378967e-01 6.618540287017822266e+00 1.950090527534484863e+00 -4.616790637373924255e-02
3.576000000000000000e+03 5.455941390991210938e+01 -2.406749916076660156e+01 -1.807757318019866943e-01 6.486178398132324219e+00 1.891620874404907227e+00 -5.435790494084358215e-02
3.577000000000000000e+03 4.702206420898437500e+01 -1.704863739013671875e+01 -2.941012084484100342e-01 5.635798931121826172e+00 1.602509379386901855e+00 3.839605301618576050e-02
3.578000000000000000e+03 4.385601043701171875e+01 -1.815648841857910156e+01 -2.514220178127288818e-01 5.171943187713623047e+00 1.476156234741210938e+00 8.187171816825866699e-02
3.579000000000000000e+03 3.569527053833007812e+01 -2.868438720703125000e+01 -1.006434857845306396e-01 3.913273096084594727e+00 1.143788814544677734e+00 6.603514403104782104e-02
3.580000000000000000e+03 3.573252105712890625e+01 -3.121541976928710938e+01 -7.453120499849319458e-02 3.915668249130249023e+00 1.152341127395629883e+00 4.690163955092430115e-02
3.581000000000000000e+03 4.426955795288085938e+01 -2.414303970336914062e+01 -1.746433973312377930e-01 5.134017944335937500e+00 1.487812399864196777e+00 3.295494616031646729e-02
3.582000000000000000e+03 4.299634170532226562e+01 -2.642090606689453125e+01 -1.522617191076278687e-01 4.919045925140380859e+00 1.430035233497619629e+00 2.707963623106479645e-02
3.583000000000000000e+03 5.314862442016601562e+01 -2.664093780517578125e+01 -1.615491956472396851e-01 6.257670879364013672e+00 1.828836441040039062e+00 -3.462202101945877075e-02
3.584000000000000000e+03 4.547770309448242188e+01 -2.192788696289062500e+01 -2.107739597558975220e-01 5.337598800659179688e+00 1.538047552108764648e+00 3.362208604812622070e-02
3.585000000000000000e+03 4.736222839355468750e+01 -2.367324829101562500e+01 -1.912931054830551147e-01 5.598579883575439453e+00 1.622186064720153809e+00 1.672057062387466431e-02
3.586000000000000000e+03 3.948857498168945312e+01 -2.649939155578613281e+01 -1.286959797143936157e-01 4.421806335449218750e+00 1.287933111190795898e+00 6.686221808195114136e-02
3.587000000000000000e+03 4.855029296875000000e+01 -2.912751579284667969e+01 -1.442353129386901855e-01 5.671370983123779297e+00 1.658140659332275391e+00 8.241209201514720917e-03
3.588000000000000000e+03 4.130761718750000000e+01 -2.859176826477050781e+01 -1.421527564525604248e-01 4.650745391845703125e+00 1.352577686309814453e+00 3.713617101311683655e-02
3.589000000000000000e+03 4.631768417358398438e+01 -2.551426124572753906e+01 -1.692885607481002808e-01 5.405923366546630859e+00 1.570990443229675293e+00 2.029622346162796021e-02
3.590000000000000000e+03 5.185646057128906250e+01 -3.719649505615234375e+01 -1.014419123530387878e-01 6.073743343353271484e+00 1.791690468788146973e+00 -9.788771159946918488e-03
3.591000000000000000e+03 4.540440750122070312e+01 -2.808526992797851562e+01 -1.563158333301544189e-01 5.263572216033935547e+00 1.532176971435546875e+00 1.682337187230587006e-02
3.592000000000000000e+03 4.746293640136718750e+01 -3.284376144409179688e+01 -1.167156174778938293e-01 5.480864048004150391e+00 1.609244465827941895e+00 6.096455734223127365e-03
3.593000000000000000e+03 4.861244201660156250e+01 -2.591083526611328125e+01 -1.748322695493698120e-01 5.725140571594238281e+00 1.665092468261718750e+00 -3.596328606363385916e-04
3.594000000000000000e+03 4.141664505004882812e+01 3.520802688598632812e+01 1.029691338539123535e+00 3.947698354721069336e+00 1.493216872215270996e+00 -3.296648740768432617e+00
3.595000000000000000e+03 4.202621841430664062e+01 3.511232376098632812e+01 9.618551731109619141e-01 7.917556285858154297e+00 2.663823366165161133e+00 -4.618485927581787109e+00
3.596000000000000000e+03 4.242187118530273438e+01 3.515385055541992188e+01 4.403096139430999756e-01 1.064950084686279297e+01 3.326942920684814453e+00 -4.642825603485107422e+00
3.597000000000000000e+03 4.348084259033203125e+01 3.505569458007812500e+01 -6.731230020523071289e-01 1.924977874755859375e+01 5.572996616363525391e+00 -1.812079191207885742e+00
3.598000000000000000e+03 4.263726806640625000e+01 3.089324378967285156e+01 2.799014806747436523e+00 1.366046333312988281e+01 4.937843322753906250e+00 6.399137973785400391e+00
3.599000000000000000e+03 4.197995758056640625e+01 3.172030830383300781e+01 5.779048919677734375e+00 6.907326698303222656e+00 3.805912733078002930e+00 7.271042823791503906e+00
3.600000000000000000e+03 4.179564666748046875e+01 3.178142356872558594e+01 5.969661712646484375e+00 5.695117473602294922e+00 3.499433755874633789e+00 6.732986927032470703e+00
3.601000000000000000e+03 4.124807357788085938e+01 3.189141464233398438e+01 5.159725666046142578e+00 2.503613710403442383e+00 2.299001932144165039e+00 4.330864429473876953e+00
3.602000000000000000e+03 4.003845977783203125e+01 3.207950973510742188e+01 2.369339942932128906e+00 5.534225106239318848e-01 8.768287897109985352e-01 1.595319747924804688e+00
3.603000000000000000e+03 3.980680465698242188e+01 3.211419677734375000e+01 1.947905063629150391e+00 3.398499190807342529e-01 6.863265037536621094e-01 1.332460284233093262e+00
3.604000000000000000e+03 1.269778966903686523e+00 2.696851730346679688e+00 3.066509088966995478e-05 -8.311417332151904702e-05 -1.573472400195896626e-05 1.447165232093539089e-05
3.605000000000000000e+03 2.060514831542968750e+01 3.400548553466796875e+01 -2.072134288027882576e-03 -6.546258926391601562e-02 -2.026041783392429352e-02 -1.112144254148006439e-02
3.606000000000000000e+03 3.716853713989257812e+01 3.618239212036132812e+01 -8.987529873847961426e-01 -3.439878346398472786e-03 -2.706578671932220459e-01 5.464847683906555176e-01
3.607000000000000000e+03 3.797310256958007812e+01 3.702548599243164062e+01 -1.031076908111572266e-02 1.184277296066284180e+00 3.521899580955505371e-01 -2.161708325147628784e-01
3.608000000000000000e+03 3.526917266845703125e+01 3.825426864624023438e+01 2.206308841705322266e-01 -1.586477756500244141e-01 1.859493367373943329e-02 4.621210694313049316e-01
3.609000000000000000e+03 2.699156951904296875e+01 3.932892227172851562e+01 -1.294824015349149704e-02 -1.501893103122711182e-01 -4.894126579165458679e-02 1.634686440229415894e-01
3.610000000000000000e+03 1.065226364135742188e+01 -3.646559906005859375e+01 -1.464734878391027451e-02 9.518996812403202057e-03 -1.538505661301314831e-03 7.186167873442173004e-03
3.611000000000000000e+03 3.746686172485351562e+01 3.670238876342773438e+01 -3.847683072090148926e-01 4.211116135120391846e-01 1.090299431234598160e-02 3.703307211399078369e-01
3.612000000000000000e+03 3.703288650512695312e+01 3.708016204833984375e+01 -2.348474711179733276e-01 1.483393609523773193e-01 -2.595243230462074280e-02 2.713829874992370605e-01
3.613000000000000000e+03 3.759265136718750000e+01 3.764949417114257812e+01 1.612896174192428589e-01 1.124767184257507324e+00 3.858170211315155029e-01 -2.611426264047622681e-02
3.614000000000000000e+03 3.025233268737792969e+01 3.815656661987304688e+01 -8.584933727979660034e-02 -2.040135562419891357e-01 -8.695887029170989990e-02 3.885467350482940674e-01
3.615000000000000000e+03 3.316169357299804688e+01 3.858814620971679688e+01 1.888363361358642578e-01 -4.718629419803619385e-01 -8.490798622369766235e-02 5.176790952682495117e-01
3.616000000000000000e+03 1.893112373352050781e+01 3.814766311645507812e+01 7.002984639257192612e-03 1.937215682119131088e-03 2.682060236111283302e-03 -4.935008939355611801e-03
3.617000000000000000e+03 1.378596591949462891e+01 2.972534751892089844e+01 -1.318477559834718704e-03 -1.483390078647062182e-04 -4.400449688546359539e-04 -3.216460754629224539e-04
3.618000000000000000e+03 4.271483612060546875e+01 3.692299270629882812e+01 -6.072140336036682129e-01 1.118307113647460938e+01 3.172757148742675781e+00 -2.844632625579833984e+00
3.619000000000000000e+03 1.951752471923828125e+01 3.923666381835937500e+01 1.936774468049407005e-03 -1.968726981431245804e-03 -9.585731277184095234e-06 -1.431740261614322662e-02
3.620000000000000000e+03 1.253404617309570312e+01 -3.335116147994995117e+00 -1.023066462948918343e-03 5.470741234603337944e-05 -2.905077417381107807e-04 -4.467238613869994879e-05
3.621000000000000000e+03 1.890374565124511719e+01 3.899124145507812500e+01 -5.027025938034057617e-03 4.290347918868064880e-03 -2.210034144809469581e-04 -9.331090841442346573e-04
3.622000000000000000e+03 1.817340278625488281e+01 3.861603164672851562e+01 1.053802575916051865e-02 2.475108718499541283e-03 3.903940320014953613e-03 -4.787134006619453430e-03
3.623000000000000000e+03 4.196281433105468750e+01 3.113746643066406250e+01 4.446200370788574219e+00 8.440889358520507812e+00 3.866127014160156250e+00 6.795595645904541016e+00
3.624000000000000000e+03 4.163140106201171875e+01 3.653737258911132812e+01 3.058752715587615967e-01 6.767004489898681641e+00 2.121863842010498047e+00 -3.316070079803466797e+00
3.625000000000000000e+03 4.141634750366210938e+01 3.162845230102539062e+01 5.522040843963623047e+00 4.155731201171875000e+00 2.903331518173217773e+00 5.553845405578613281e+00
3.626000000000000000e+03 4.133994674682617188e+01 3.138481521606445312e+01 4.965913772583007812e+00 4.476107120513916016e+00 2.832606315612792969e+00 5.480751991271972656e+00
3.627000000000000000e+03 4.016884613037109375e+01 3.142143058776855469e+01 3.426520586013793945e+00 1.359152197837829590e+00 1.435701847076416016e+00 2.658197164535522461e+00
3.628000000000000000e+03 4.042107391357421875e+01 3.169568252563476562e+01 3.638964414596557617e+00 1.427118182182312012e+00 1.519824743270874023e+00 2.776464700698852539e+00
3.629000000000000000e+03 4.085346221923828125e+01 3.571866989135742188e+01 7.253121733665466309e-01 3.060140609741210938e+00 1.135635852813720703e+00 -2.322443246841430664e+00
3.630000000000000000e+03 4.449651336669921875e+01 2.986708450317382812e+01 1.578671693801879883e+00 1.523156261444091797e+01 5.043070316314697266e+00 1.485740661621093750e+00
3.631000000000000000e+03 4.207279205322265625e+01 3.015993309020996094e+01 2.776218175888061523e+00 9.697653770446777344e+00 3.742161750793457031e+00 5.687122821807861328e+00
3.632000000000000000e+03 5.356289386749267578e+00 -3.318296432495117188e+01 -6.968365050852298737e-03 -5.646688514389097691e-04 -2.259910106658935547e-03 -4.923379514366388321e-03
3.633000000000000000e+03 4.210157394409179688e+01 3.068133354187011719e+01 3.485697031021118164e+00 9.950865745544433594e+00 4.030968666076660156e+00 6.483776569366455078e+00
3.634000000000000000e+03 3.993708038330078125e+01 3.141185188293457031e+01 3.315892457962036133e+00 1.089326143264770508e+00 1.321565628051757812e+00 2.515280961990356445e+00
3.635000000000000000e+03 4.698263645172119141e+00 -3.064599418640136719e+01 -5.185148678719997406e-03 -2.806967822834849358e-04 -1.639753580093383789e-03 -2.840154105797410011e-03
3.636000000000000000e+03 1.095963001251220703e+01 -4.344613552093505859e+00 4.200726398266851902e-04 3.203024680260568857e-04 2.221125323558226228e-04 -3.666346601676195860e-04
3.637000000000000000e+03 7.483612060546875000e+01 3.434560012817382812e+01 1.533113569021224976e-01 5.369754314422607422e+00 1.656919717788696289e+00 -3.742351531982421875e-01
3.638000000000000000e+03 2.256184196472167969e+01 -3.212726593017578125e+01 4.047699272632598877e-02 2.162523269653320312e+00 6.609000563621520996e-01 8.957473933696746826e-02
3.639000000000000000e+03 1.154354572296142578e+01 3.303468704223632812e+01 2.359413774684071541e-03 -6.685543339699506760e-04 5.072578205727040768e-04 -8.088624454103410244e-04
3.640000000000000000e+03 4.513707351684570312e+01 2.891511344909667969e+01 1.056679725646972656e+00 1.367447757720947266e+01 4.419347286224365234e+00 9.417870640754699707e-01
3.641000000000000000e+03 9.512321472167968750e+00 2.614458084106445312e+01 -8.866242133080959320e-04 -1.764230546541512012e-04 -3.189141862094402313e-04 2.832395257428288460e-04
3.642000000000000000e+03 4.899395751953125000e+01 3.069396972656250000e+01 3.259105682373046875e+00 1.142096424102783203e+01 4.404020786285400391e+00 -6.862049102783203125e-01
3.643000000000000000e+03 4.162442398071289062e+01 3.056037902832031250e+01 3.806068181991577148e+00 7.679290771484375000e+00 3.445607662200927734e+00 6.016931533813476562e+00
3.644000000000000000e+03 5.861363410949707031e+00 -3.022378921508789062e+01 1.498379162512719631e-03 8.683654014021158218e-04 7.100233342498540878e-04 1.340787042863667011e-03
3.645000000000000000e+03 2.382840347290039062e+01 -3.238565063476562500e+01 5.975897610187530518e-02 2.287541389465332031e+00 7.041901350021362305e-01 8.249422162771224976e-02
3.646000000000000000e+03 3.100100326538085938e+01 -3.267283630371093750e+01 -3.557942062616348267e-02 3.256796598434448242e+00 9.663651585578918457e-01 2.903036214411258698e-02
3.647000000000000000e+03 5.900627517700195312e+01 -2.820071983337402344e+01 -1.211023032665252686e-01 7.015934944152832031e+00 2.068449735641479492e+00 -6.951804459095001221e-02
3.648000000000000000e+03 6.955472946166992188e+00 -2.763817214965820312e+01 -2.899973187595605850e-03 -1.234358758665621281e-03 -1.240299548953771591e-03 -7.852108101360499859e-04
3.649000000000000000e+03 8.221587181091308594e+00 2.621733283996582031e+01 8.413307950831949711e-04 1.516406337032094598e-04 2.978914417326450348e-04 -9.889486682368442416e-05
3.650000000000000000e+03 7.188549995422363281e+00 -1.893230247497558594e+01 1.937178894877433777e-03 -2.876062062568962574e-04 4.948718124069273472e-04 1.630486394788022153e-06
3.651000000000000000e+03 7.758909702301025391e+00 5.590363979339599609e+00 2.511039201635867357e-04 -5.183104440220631659e-05 5.978186527499929070e-05 -7.084901881171390414e-05
3.652000000000000000e+03 7.339056491851806641e+00 6.021365165710449219e+00 2.289812800881918520e-05 1.765051711117848754e-04 5.982098809909075499e-05 7.373663538601249456e-05
3.653000000000000000e+03 7.981812477111816406e+00 6.244493961334228516e+00 -3.451524535194039345e-04 -8.584054739912971854e-06 -1.061209477484226227e-04 1.787032670108601451e-05
3.654000000000000000e+03 4.090795898437500000e+01 3.009988021850585938e+01 3.531231403350830078e+00 5.379506587982177734e+00 2.673221349716186523e+00 4.882804393768310547e+00
3.655000000000000000e+03 3.964450454711914062e+01 2.966194152832031250e+01 3.056637287139892578e+00 3.183612585067749023e+00 1.872074961662292480e+00 3.475471496582031250e+00
3.656000000000000000e+03 7.521065235137939453e+00 -1.271826076507568359e+01 -2.003751724259927869e-04 -1.073457417078316212e-03 -3.821497957687824965e-04 -3.983674396295100451e-04
3.657000000000000000e+03 8.568070411682128906e+00 -1.697388839721679688e+01 -2.171797532355412841e-04 -9.075842681340873241e-04 -3.374291991349309683e-04 -4.220276314299553633e-04
3.658000000000000000e+03 2.567922210693359375e+01 2.889019966125488281e+01 1.117761880159378052e-01 -5.035054311156272888e-02 1.842769235372543335e-02 -3.005854189395904541e-01
3.659000000000000000e+03 7.405039215087890625e+01 2.840031814575195312e+01 9.643337875604629517e-02 6.011606693267822266e+00 1.832412004470825195e+00 -6.478684544563293457e-01
3.660000000000000000e+03 5.760922431945800781e+00 1.813801002502441406e+01 -3.758843231480568647e-04 -1.127838477259501815e-04 -1.466004468966275454e-04 -1.808160595828667283e-04
3.661000000000000000e+03 1.025509834289550781e+01 -6.149958133697509766e+00 -4.323421744629740715e-04 1.133279292844235897e-04 -9.570427209837362170e-05 -2.575641337898559868e-05
3.662000000000000000e+03 3.999863433837890625e+01 2.967962074279785156e+01 3.180017471313476562e+00 3.609863281250000000e+00 2.036964178085327148e+00 3.832933425903320312e+00
3.663000000000000000e+03 7.276391601562500000e+01 -2.391845893859863281e+01 -2.945139072835445404e-02 8.750718116760253906e+00 2.616379976272583008e+00 -8.588517457246780396e-02
3.664000000000000000e+03 5.882557868957519531e+00 1.336453819274902344e+01 -3.122489260931615718e-06 -7.983211253304034472e-05 -2.488637983333319426e-05 9.636752656660974026e-05
3.665000000000000000e+03 6.761204528808593750e+01 -2.604949569702148438e+01 -6.319623440504074097e-02 8.112693786621093750e+00 2.414849281311035156e+00 -1.036395654082298279e-01
3.666000000000000000e+03 5.772329711914062500e+01 2.256670379638671875e+01 1.661740541458129883e-01 8.713515281677246094e+00 2.663906812667846680e+00 -1.273402690887451172e+00
3.667000000000000000e+03 5.387516498565673828e+00 1.932384490966796875e+01 5.854732007719576359e-04 6.053646211512386799e-05 1.938029017765074968e-04 1.550400338601320982e-05
3.668000000000000000e+03 5.081762790679931641e+00 1.286297988891601562e+01 -5.107510369271039963e-04 8.562450966564938426e-05 -1.275379618164151907e-04 6.961753388168290257e-05
3.669000000000000000e+03 4.367626953125000000e+01 2.631557273864746094e+01 2.093248516321182251e-01 1.026645565032958984e+01 3.142734289169311523e+00 2.403761863708496094e+00
3.670000000000000000e+03 3.079828262329101562e+01 -2.138032436370849609e+00 -1.700852215290069580e-01 3.073225975036621094e+00 8.709422349929809570e-01 5.284160971641540527e-01
3.671000000000000000e+03 4.006561660766601562e+01 2.934952163696289062e+01 2.945578575134277344e+00 4.017120838165283203e+00 2.088809728622436523e+00 3.864526271820068359e+00
3.672000000000000000e+03 3.666735458374023438e+01 -2.518108177185058594e+01 -1.145499721169471741e-01 4.027888298034667969e+00 1.174001574516296387e+00 9.785411506891250610e-02
3.673000000000000000e+03 7.162912750244140625e+01 2.177843475341796875e+01 4.347993806004524231e-02 6.899093627929687500e+00 2.082772016525268555e+00 -9.970993995666503906e-01
3.674000000000000000e+03 5.694716644287109375e+01 2.154039001464843750e+01 -1.372082531452178955e-02 8.784339904785156250e+00 2.631185531616210938e+00 -1.226888537406921387e+00
3.675000000000000000e+03 4.026389694213867188e+01 2.898783683776855469e+01 2.651685476303100586e+00 4.808359146118164062e+00 2.238013505935668945e+00 3.992063045501708984e+00
3.676000000000000000e+03 6.959127044677734375e+01 -2.155730438232421875e+01 -6.706369668245315552e-02 8.331770896911621094e+00 2.479412317276000977e+00 -1.283836662769317627e-01
3.677000000000000000e+03 4.416177368164062500e+01 2.581288337707519531e+01 1.685468852519989014e-02 1.032357788085937500e+01 3.102129936218261719e+00 1.990041971206665039e+00
3.678000000000000000e+03 6.609316253662109375e+01 -2.149422454833984375e+01 -1.188761442899703979e-01 7.891279220581054688e+00 2.331721067428588867e+00 -1.590462177991867065e-01
3.679000000000000000e+03 3.040407562255859375e+01 -1.039546871185302734e+01 -1.148685142397880554e-01 3.108940839767456055e+00 8.982217311859130859e-01 3.099384009838104248e-01
3.680000000000000000e+03 3.512905883789062500e+01 -2.478520011901855469e+01 -9.500084072351455688e-02 3.859569549560546875e+00 1.129370689392089844e+00 1.151418313384056091e-01
3.681000000000000000e+03 3.818415451049804688e+01 -2.473091316223144531e+01 -1.396570354700088501e-01 4.242991447448730469e+00 1.231000423431396484e+00 9.376549720764160156e-02
3.682000000000000000e+03 4.307000732421875000e+01 2.456898880004882812e+01 3.404564037919044495e-02 8.868662834167480469e+00 2.670812606811523438e+00 2.313106060028076172e+00
3.683000000000000000e+03 3.405724716186523438e+01 -2.403759956359863281e+01 -9.469800442457199097e-02 3.686388015747070312e+00 1.077507019042968750e+00 1.277348101139068604e-01
3.684000000000000000e+03 3.516441726684570312e+01 -1.268070602416992188e+01 -2.001069039106369019e-01 3.879642009735107422e+00 1.103860497474670410e+00 2.598622143268585205e-01
3.685000000000000000e+03 6.472067260742187500e+01 -1.561626720428466797e+01 -1.745185554027557373e-01 7.747858524322509766e+00 2.272001981735229492e+00 -2.298753261566162109e-01
3.686000000000000000e+03 7.056198883056640625e+01 1.370384597778320312e+01 -1.304814368486404419e-01 7.518216133117675781e+00 2.216320276260375977e+00 -9.736858010292053223e-01
3.687000000000000000e+03 4.795864105224609375e+01 -1.552562808990478516e+01 -3.136523067951202393e-01 5.756520271301269531e+00 1.632860302925109863e+00 2.126735821366310120e-02
3.688000000000000000e+03 6.880114746093750000e+01 -2.059888839721679688e+01 -8.480121940374374390e-02 8.224195480346679688e+00 2.441818237304687500e+00 -1.484317481517791748e-01
3.689000000000000000e+03 7.179621887207031250e+01 -1.517258262634277344e+01 -6.393933296203613281e-02 8.528579711914062500e+00 2.539392232894897461e+00 -1.909627914428710938e-01
3.690000000000000000e+03 3.622648620605468750e+01 -1.219575786590576172e+01 -2.241468280553817749e-01 4.042706966400146484e+00 1.145568013191223145e+00 2.691197097301483154e-01
3.691000000000000000e+03 6.790951538085937500e+01 -1.600334167480468750e+01 -1.149245649576187134e-01 8.098517417907714844e+00 2.395077705383300781e+00 -2.180286347866058350e-01
3.692000000000000000e+03 4.861075210571289062e+01 1.829662895202636719e+01 -7.588422894477844238e-01 8.733516693115234375e+00 2.392402410507202148e+00 1.272475719451904297e-01
3.693000000000000000e+03 3.601175689697265625e+01 2.774181175231933594e+01 1.749129891395568848e+00 1.631536006927490234e+00 1.014199733734130859e+00 1.506453156471252441e+00
3.694000000000000000e+03 6.338945770263671875e+01 -1.568671512603759766e+01 -1.962136775255203247e-01 7.589572906494140625e+00 2.218007802963256836e+00 -2.226762324571609497e-01
3.695000000000000000e+03 3.599595260620117188e+01 -1.334462261199951172e+01 -2.017230391502380371e-01 4.014906406402587891e+00 1.143955111503601074e+00 2.519985735416412354e-01
3.696000000000000000e+03 6.483077239990234375e+01 2.812738895416259766e+00 -3.782128989696502686e-01 7.825453281402587891e+00 2.234172105789184570e+00 -7.205992341041564941e-01
3.697000000000000000e+03 3.583636856079101562e+01 -1.100385093688964844e+01 -2.298063784837722778e-01 4.006178855895996094e+00 1.132911801338195801e+00 2.868614792823791504e-01
3.698000000000000000e+03 3.431109237670898438e+01 2.318062973022460938e+01 1.011480093002319336e+00 2.406136035919189453e+00 1.025284886360168457e+00 1.467560291290283203e+00
3.699000000000000000e+03 3.732989120483398438e+01 -1.050237941741943359e+01 -2.630432248115539551e-01 4.256593227386474609e+00 1.198064923286437988e+00 2.865052819252014160e-01
3.700000000000000000e+03 4.628327941894531250e+01 -1.153018856048583984e+01 -3.851383924484252930e-01 5.630720615386962891e+00 1.573674559593200684e+00 9.039331227540969849e-02
3.701000000000000000e+03 6.132657241821289062e+01 -1.119658946990966797e+01 -2.979195117950439453e-01 7.407999515533447266e+00 2.133023977279663086e+00 -2.814673483371734619e-01
3.702000000000000000e+03 3.315417098999023438e+01 1.384719657897949219e+01 -9.469005279242992401e-03 3.178051710128784180e+00 9.505748152732849121e-01 1.148822784423828125e+00
3.703000000000000000e+03 3.310078048706054688e+01 2.685133361816406250e+01 1.161555290222167969e+00 1.037063956260681152e+00 6.595857739448547363e-01 7.170519828796386719e-01
3.704000000000000000e+03 3.601427841186523438e+01 2.483408164978027344e+01 1.327970623970031738e+00 2.724519014358520508e+00 1.215746879577636719e+00 1.830452919006347656e+00
3.705000000000000000e+03 3.503980636596679688e+01 2.439844894409179688e+01 1.223696112632751465e+00 2.364346981048583984e+00 1.076412916183471680e+00 1.586690664291381836e+00
3.706000000000000000e+03 3.299035263061523438e+01 2.628285026550292969e+01 1.148307085037231445e+00 1.166775822639465332e+00 6.945248842239379883e-01 7.943756580352783203e-01
3.707000000000000000e+03 6.793721008300781250e+01 1.155537509918212891e+01 -2.365698218345642090e-01 7.734906196594238281e+00 2.249500989913940430e+00 -1.025146842002868652e+00
3.708000000000000000e+03 6.001194381713867188e+01 -1.144646167755126953e+01 -3.180105686187744141e-01 7.269774436950683594e+00 2.085529088973999023e+00 -2.538901567459106445e-01
3.709000000000000000e+03 3.512412643432617188e+01 2.368373107910156250e+01 1.112893462181091309e+00 2.645545244216918945e+00 1.127531528472900391e+00 1.652076363563537598e+00
3.710000000000000000e+03 3.289352416992187500e+01 9.198469161987304688e+00 -1.747166663408279419e-01 3.303377389907836914e+00 9.385982155799865723e-01 9.935995936393737793e-01
3.711000000000000000e+03 6.050202941894531250e+01 1.098322868347167969e+01 -5.344532728195190430e-01 7.968353271484375000e+00 2.230170011520385742e+00 -9.486808180809020996e-01
3.712000000000000000e+03 5.976841354370117188e+01 1.146489143371582031e+01 -5.700899958610534668e-01 8.006866455078125000e+00 2.231033086776733398e+00 -9.351846575736999512e-01
3.713000000000000000e+03 4.821639251708984375e+01 1.350875377655029297e+01 -8.788450360298156738e-01 7.749017715454101562e+00 2.061051845550537109e+00 2.174850255250930786e-01
3.714000000000000000e+03 3.385397338867187500e+01 1.066782188415527344e+01 -1.743094623088836670e-01 3.556389570236206055e+00 1.014623999595642090e+00 1.059747457504272461e+00
3.715000000000000000e+03 3.296823501586914062e+01 1.106862163543701172e+01 -1.221251338720321655e-01 3.231297492980957031e+00 9.327517151832580566e-01 1.060868382453918457e+00
3.716000000000000000e+03 6.100469589233398438e+01 -8.004844665527343750e+00 -3.613099455833435059e-01 7.435214042663574219e+00 2.122171163558959961e+00 -3.393450379371643066e-01
3.717000000000000000e+03 6.680187988281250000e+01 -7.377074241638183594e+00 -2.287666052579879761e-01 7.937624454498291016e+00 2.312657356262207031e+00 -3.969504535198211670e-01
3.718000000000000000e+03 3.521836090087890625e+01 2.636862182617187500e+01 1.484722256660461426e+00 1.838477849960327148e+00 9.969600439071655273e-01 1.441689014434814453e+00
3.719000000000000000e+03 5.935791015625000000e+01 -6.839152812957763672e+00 -4.167540371417999268e-01 7.305100440979003906e+00 2.066503763198852539e+00 -3.303083777427673340e-01
3.720000000000000000e+03 5.906692886352539062e+01 -8.388899803161621094e+00 -3.792546391487121582e-01 7.225883960723876953e+00 2.053988933563232422e+00 -2.945900857448577881e-01
3.721000000000000000e+03 4.503282165527343750e+01 1.225628280639648438e+01 -8.080086708068847656e-01 6.954454421997070312e+00 1.843933820724487305e+00 6.513527631759643555e-01
3.722000000000000000e+03 3.852518081665039062e+01 1.913144683837890625e+01 1.122214570641517639e-01 5.132339000701904297e+00 1.573368191719055176e+00 1.816223978996276855e+00
3.723000000000000000e+03 5.857603073120117188e+01 -7.578225135803222656e+00 -4.171889424324035645e-01 7.208868503570556641e+00 2.037503957748413086e+00 -3.029499948024749756e-01
3.724000000000000000e+03 5.253847503662109375e+01 -2.728358745574951172e+00 -6.092216968536376953e-01 6.788505554199218750e+00 1.853785157203674316e+00 -1.402196437120437622e-01
3.725000000000000000e+03 4.605764389038085938e+01 -5.181135654449462891e+00 -5.266334414482116699e-01 5.799894809722900391e+00 1.581978440284729004e+00 1.500798761844635010e-01
3.726000000000000000e+03 5.583517837524414062e+01 5.903954505920410156e+00 -7.223750352859497070e-01 7.611423015594482422e+00 2.066714525222778320e+00 -4.979416728019714355e-01
3.727000000000000000e+03 5.008823776245117188e+01 1.244212722778320312e+01 -8.831043839454650879e-01 7.836299419403076172e+00 2.085958480834960938e+00 -5.899507179856300354e-02
3.728000000000000000e+03 5.777206802368164062e+01 -8.213711738586425781e+00 -4.128502607345581055e-01 7.122430801391601562e+00 2.012874126434326172e+00 -2.687530815601348877e-01
3.729000000000000000e+03 6.669607543945312500e+01 -6.135998249053955078e+00 -2.389211654663085938e-01 7.926705837249755859e+00 2.306335449218750000e+00 -4.374381303787231445e-01
3.730000000000000000e+03 4.311050033569335938e+01 2.250004559755325317e-01 -6.008547544479370117e-01 5.592180728912353516e+00 1.497397780418395996e+00 3.883951604366302490e-01
3.731000000000000000e+03 4.256395721435546875e+01 1.228460979461669922e+01 -6.745048165321350098e-01 6.312539100646972656e+00 1.691410303115844727e+00 9.101206064224243164e-01
3.732000000000000000e+03 5.206048202514648438e+01 -4.937424182891845703e+00 -5.509029030799865723e-01 6.643365859985351562e+00 1.827738761901855469e+00 -1.117073670029640198e-01
3.733000000000000000e+03 5.087253189086914062e+01 1.166091346740722656e+01 -8.703260421752929688e-01 7.787978649139404297e+00 2.075295686721801758e+00 -1.424828469753265381e-01
3.734000000000000000e+03 4.058606719970703125e+01 7.816419124603271484e+00 -5.825737714767456055e-01 5.432816982269287109e+00 1.455072999000549316e+00 7.971470952033996582e-01
3.735000000000000000e+03 4.010482406616210938e+01 6.065828323364257812e+00 -5.680851340293884277e-01 5.242925167083740234e+00 1.402451992034912109e+00 7.537431120872497559e-01
3.736000000000000000e+03 4.440936660766601562e+01 -4.337427139282226562e+00 -5.260761380195617676e-01 5.560437679290771484e+00 1.510308504104614258e+00 2.466818541288375854e-01
3.737000000000000000e+03 3.906079483032226562e+01 1.449522781372070312e+01 -3.303292989730834961e-01 5.273461818695068359e+00 1.482939720153808594e+00 1.299925684928894043e+00
3.738000000000000000e+03 5.871348571777343750e+01 -2.088359355926513672e+00 -5.064812898635864258e-01 7.408740043640136719e+00 2.070677518844604492e+00 -4.329128265380859375e-01
3.739000000000000000e+03 5.828494644165039062e+01 2.128833770751953125e+00 -5.983369946479797363e-01 7.518403053283691406e+00 2.076019763946533203e+00 -5.130727291107177734e-01
3.740000000000000000e+03 5.880872726440429688e+01 -9.938217997550964355e-01 -5.211114287376403809e-01 7.442047595977783203e+00 2.076280832290649414e+00 -4.578417539596557617e-01
3.741000000000000000e+03 5.817995452880859375e+01 -6.707303047180175781e+00 -4.271213412284851074e-01 7.209257602691650391e+00 2.034640789031982422e+00 -3.082591295242309570e-01
3.742000000000000000e+03 4.913485717773437500e+01 2.152140617370605469e+00 -7.395597696304321289e-01 6.686925888061523438e+00 1.784209847450256348e+00 4.819386079907417297e-02
3.743000000000000000e+03 4.471035766601562500e+01 1.980086803436279297e+00 -6.725831031799316406e-01 5.958173751831054688e+00 1.585677146911621094e+00 3.507945239543914795e-01
3.744000000000000000e+03 5.535051345825195312e+01 2.585341930389404297e+00 -6.852081418037414551e-01 7.348257064819335938e+00 1.998914599418640137e+00 -3.793791234493255615e-01
3.745000000000000000e+03 1.426702117919921875e+01 1.252673983573913574e+00 8.136788528645411134e-05 8.621252050033945125e-07 2.466900150466244668e-05 8.103538129944354296e-05
3.746000000000000000e+03 1.462149238586425781e+01 1.164639949798583984e+00 -2.387139829806983471e-04 -4.050432835356332362e-05 -8.376549521926790476e-05 2.502736424503382295e-05
3.747000000000000000e+03 1.332876110076904297e+01 1.093653082847595215e+00 1.973459802684374154e-05 3.571913111954927444e-05 1.663611874391790479e-05 3.006349288625642657e-05
3.748000000000000000e+03 1.406522464752197266e+01 3.572364747524261475e-01 2.643001789692789316e-05 2.167484126402996480e-05 1.443145811208523810e-05 2.403362486802507192e-06
3.749000000000000000e+03 1.336003494262695312e+01 3.511472940444946289e-01 -1.078477725968696177e-05 -3.862692028633318841e-05 -1.482350944570498541e-05 -1.171738222183194011e-05
3.750000000000000000e+03 1.476313018798828125e+01 5.016638040542602539e-01 -9.522411346551962197e-06 -1.114083261199994013e-05 -6.198973096616100520e-06 -4.865993105340749025e-06
3.751000000000000000e+03 1.414069938659667969e+01 9.322270154953002930e-01 -1.410732220392674208e-04 4.765973062603734434e-05 -2.802404924295842648e-05 -7.406767690554261208e-05
3.752000000000000000e+03 1.384797477722167969e+01 1.187353014945983887e+00 -8.932164746511261910e-06 3.680179361253976822e-07 -2.569244088590494357e-06 -2.789734389807563275e-05
3.753000000000000000e+03 1.112969017028808594e+01 3.708996772766113281e-01 1.728132701828144491e-05 3.242108869017101824e-05 1.491072453063679859e-05 -6.688882876915158704e-06
3.754000000000000000e+03 1.113907623291015625e+01 1.110847473144531250e+00 -5.707196032744832337e-05 -2.329369635845068842e-05 -2.410969682387076318e-05 1.739261642796918750e-05
3.755000000000000000e+03 1.263169097900390625e+01 3.451149165630340576e-01 1.238091226696269587e-05 4.850999539485201240e-05 1.826727202569600195e-05 -1.913231102435020148e-07
3.756000000000000000e+03 1.037880802154541016e+01 3.837110698223114014e-01 -1.929668724187649786e-05 -2.464365570631343871e-05 -1.318210252065910026e-05 3.052660304092569277e-06
3.757000000000000000e+03 1.188065242767333984e+01 3.580341637134552002e-01 -1.475156568631064147e-05 -4.340238592703826725e-05 -1.744618566590361297e-05 5.899547886656364426e-06
3.758000000000000000e+03 1.264514160156250000e+01 1.084993243217468262e+00 -2.796428816509433091e-05 -3.728353840415365994e-05 -1.957434687938075513e-05 3.264565521021722816e-06
3.759000000000000000e+03 1.038616180419921875e+01 1.123693704605102539e+00 6.081570973037742078e-05 2.258111453556921333e-05 2.501904782548081130e-05 -5.959762802376644686e-06
3.760000000000000000e+03 1.189207077026367188e+01 1.097947120666503906e+00 4.254057057551108301e-05 3.124888826278038323e-05 2.213683728768955916e-05 -1.978081309061963111e-05
3.761000000000000000e+03 9.625078201293945312e+00 3.871397972106933594e-01 1.899528797366656363e-05 2.578006387921050191e-05 1.343260555586311966e-05 2.756222329480806366e-06
3.762000000000000000e+03 8.868724822998046875e+00 3.828192353248596191e-01 -1.843362224462907761e-05 -3.453325189184397459e-05 -1.589006205904297531e-05 -6.405276963050710037e-06
3.763000000000000000e+03 9.644926071166992188e+00 1.127139806747436523e+00 -5.948173202341422439e-05 -2.786997720249928534e-05 -2.620551276777405292e-05 -6.416822998289717361e-06
3.764000000000000000e+03 8.112174034118652344e+00 3.804100155830383301e-01 1.767483627190813422e-05 4.452697976375930011e-05 1.866054481070023030e-05 7.726647709205280989e-06
3.765000000000000000e+03 7.356014251708984375e+00 3.793691694736480713e-01 -1.716599763312842697e-05 -5.082744246465153992e-05 -2.039803257503081113e-05 -6.955555818421998993e-06
3.766000000000000000e+03 5.843623161315917969e+00 3.767499327659606934e-01 -1.632022758712992072e-05 -4.246071330271661282e-05 -1.763428190315607935e-05 -1.333007958237431012e-06
3.767000000000000000e+03 5.088051319122314453e+00 3.757717311382293701e-01 1.408900152455316857e-05 2.908352144004311413e-05 1.295175661653047428e-05 -3.232050175938638858e-06
3.768000000000000000e+03 3.576755046844482422e+00 3.680583238601684570e-01 2.027193477260880172e-05 5.707010132027789950e-06 7.793683835188858211e-06 -2.400302491878392175e-06
3.769000000000000000e+03 2.822042465209960938e+00 3.613462746143341064e-01 -2.608149407024029642e-05 -6.706080512230983004e-06 -9.836272511165589094e-06 -3.497619445624877699e-06
3.770000000000000000e+03 2.068703651428222656e+00 3.577998280525207520e-01 2.056337871181312948e-05 1.169460665551014245e-05 9.677395610196981579e-06 4.882687335339142010e-06
3.771000000000000000e+03 2.358754634857177734e+00 1.097799897193908691e+00 -5.492086347658187151e-05 -1.957071435754187405e-05 -2.234747262264136225e-05 -1.014562894852133468e-05
3.772000000000000000e+03 1.327708005905151367e+00 3.658417165279388428e-01 -3.632804464359651320e-06 -5.338688424672000110e-06 -2.691447889446862973e-06 9.415634849574416876e-06
3.773000000000000000e+03 1.644779324531555176e+00 1.105841755867004395e+00 2.920817860285751522e-05 4.074277239851653576e-05 2.098528420901857316e-05 4.375959633762249723e-06
3.774000000000000000e+03 6.509408354759216309e-01 3.937322795391082764e-01 -4.249238190823234618e-05 -3.278245276305824518e-05 -2.258244967379141599e-05 -5.217044599703513086e-05
3.775000000000000000e+03 3.482567369937896729e-01 9.569563269615173340e-01 8.020020322874188423e-05 5.009133019484579563e-05 3.908746293745934963e-05 1.035485456668538973e-05
3.776000000000000000e+03 3.085073232650756836e+00 1.101346254348754883e+00 6.590586417587473989e-05 1.348455771221779287e-05 2.381712693022564054e-05 4.528618774202186614e-06
3.777000000000000000e+03 3.812765598297119141e+00 1.108058333396911621e+00 -6.114570714998990297e-05 -1.833635542425327003e-05 -2.384461913607083261e-05 8.646848073112778366e-06
3.778000000000000000e+03 4.332499980926513672e+00 3.732680678367614746e-01 -1.819444696593564004e-05 -1.431601867807330564e-05 -9.753140147950034589e-06 5.011412667954573408e-06
3.779000000000000000e+03 5.998572826385498047e+00 1.116749882698059082e+00 4.059320781379938126e-05 4.371397517388686538e-05 2.529215453250799328e-05 -9.203140507452189922e-06
3.780000000000000000e+03 6.600036144256591797e+00 3.784387111663818359e-01 1.629693178983870894e-05 5.010499080526642501e-05 1.992057696043048054e-05 4.559674835036275908e-06
3.781000000000000000e+03 8.186062812805175781e+00 1.120409965515136719e+00 -4.812578845303505659e-05 -4.153772897552698851e-05 -2.689905522856861353e-05 -1.225501182489097118e-05
3.782000000000000000e+03 8.915593147277832031e+00 1.122819185256958008e+00 5.336556205293163657e-05 3.467353599262423813e-05 2.641172977746464312e-05 1.293908007937716320e-05
3.783000000000000000e+03 7.456923484802246094e+00 1.119369149208068848e+00 4.450061896932311356e-05 4.586214345181360841e-05 2.710882836254313588e-05 6.405458861991064623e-06
3.784000000000000000e+03 6.727965354919433594e+00 1.118438720703125000e+00 -4.241169153829105198e-05 -4.687942782766185701e-05 -2.678733471839223057e-05 1.019329488372022752e-06
3.785000000000000000e+03 5.270021438598632812e+00 1.115771770477294922e+00 -4.144910053582862020e-05 -3.820896381512284279e-05 -2.389741894148755819e-05 1.404682188876904547e-05
3.786000000000000000e+03 4.541490077972412109e+00 1.113268017768859863e+00 4.745711703435517848e-05 2.950164162029977888e-05 2.308762668690178543e-05 -1.585406607773620635e-05
3.787000000000000000e+03 9.950323700904846191e-01 1.133732318878173828e+00 8.857479770085774362e-06 -8.481559052597731352e-05 -2.278743340866640210e-05 3.010933505720458925e-05
3.788000000000000000e+03 7.951600551605224609e+00 -3.791473805904388428e-01 -6.941910396562889218e-05 -3.371262573637068272e-04 -1.219636105815880001e-04 5.109668200020678341e-05
3.789000000000000000e+03 8.812386512756347656e+00 -1.121279358863830566e+00 -1.697573898127302527e-04 -2.114764793077483773e-04 -1.143701592809520662e-04 7.857526361476629972e-05
3.790000000000000000e+03 9.587816238403320312e+00 -3.863115906715393066e-01 -6.334660429274663329e-05 -2.259369939565658569e-04 -8.678508311277255416e-05 4.560481102089397609e-05
3.791000000000000000e+03 7.132064342498779297e+00 -3.779651820659637451e-01 7.020045450190082192e-05 3.600301570259034634e-04 1.290691870963200927e-04 -5.551030335482209921e-05
3.792000000000000000e+03 6.306247234344482422e+00 -3.772793114185333252e-01 -5.717969543184153736e-05 -3.550199326127767563e-04 -1.236598909599706531e-04 4.516337867244146764e-05
3.793000000000000000e+03 5.442752361297607422e+00 -3.835102021694183350e-01 1.578157025505788624e-05 2.994377573486417532e-04 9.456579573452472687e-05 1.029084614856401458e-05
3.794000000000000000e+03 4.552286148071289062e+00 -3.399353623390197754e-01 -7.237989484565332532e-05 -2.648101944942027330e-04 -1.011570275295525789e-04 -4.278439882909879088e-05
3.795000000000000000e+03 4.371328830718994141e+00 -8.708365559577941895e-01 3.452498931437730789e-04 1.016827663988806307e-04 1.340798044111579657e-04 1.370984973618760705e-04
3.796000000000000000e+03 2.785328388214111328e+00 -7.796061038970947266e-01 2.320282947039231658e-04 -1.394002320012077689e-04 2.778841553663369268e-05 3.445245092734694481e-04
3.797000000000000000e+03 1.180722951889038086e+00 -3.608860373497009277e-01 -3.093936538789421320e-04 1.148781593656167388e-04 -5.835464980918914080e-05 -3.229208596167154610e-05
3.798000000000000000e+03 4.099212884902954102e-01 -5.526853203773498535e-01 -8.469636668451130390e-06 -9.867308108368888497e-05 -3.214281605323776603e-05 -5.476545993587933481e-05
3.799000000000000000e+03 7.477942705154418945e-01 -1.100885987281799316e+00 8.259677560999989510e-04 8.110953785944730043e-05 2.721231721807271242e-04 1.037035617628134787e-04
3.800000000000000000e+03 9.597747802734375000e+00 -1.126311540603637695e+00 1.688625488895922899e-04 1.889766281237825751e-04 1.073517560143955052e-04 -1.037888068822212517e-04
3.801000000000000000e+03 8.026608467102050781e+00 -1.119147419929504395e+00 1.740392617648467422e-04 2.188263606512919068e-04 1.178596867248415947e-04 -5.755436359322629869e-05
3.802000000000000000e+03 7.239610195159912109e+00 -1.117965221405029297e+00 -1.716584520181640983e-04 -2.124917373294010758e-04 -1.152450568042695522e-04 3.629449929576367140e-05
3.803000000000000000e+03 6.446331024169921875e+00 -1.117279291152954102e+00 1.318926224485039711e-04 1.907488913275301456e-04 9.679245704319328070e-05 -7.403111794701544568e-06
3.804000000000000000e+03 5.615375041961669922e+00 -1.123510241508483887e+00 -5.779263301519677043e-05 -1.501644292147830129e-04 -6.238711648620665073e-05 -2.208492151112295687e-05
3.805000000000000000e+03 4.879715442657470703e+00 -1.221276640892028809e+00 -7.502983498852699995e-05 4.041970896651037037e-05 -1.038303798850392923e-05 -5.237838558969087899e-05
3.806000000000000000e+03 4.223337173461914062e+00 -1.290901184082031250e+00 -2.851352910511195660e-04 6.019311331328935921e-05 -6.748265877831727266e-05 -7.164986163843423128e-05
3.807000000000000000e+03 3.489140987396240234e+00 -1.263193726539611816e+00 3.164370427839457989e-04 -1.042996427713660523e-05 9.180212509818375111e-05 2.830553275998681784e-04
3.808000000000000000e+03 2.723763942718505859e+00 -1.258556365966796875e+00 -2.192453248426318169e-04 -1.281996956095099449e-04 -1.042335061356425285e-04 -4.311409429647028446e-04
3.809000000000000000e+03 1.357383847236633301e+00 -1.202877521514892578e+00 -9.812730131670832634e-04 -2.210173552157357335e-04 -3.606871177908033133e-04 -2.818794564518611878e-05
3.810000000000000000e+03 8.769917488098144531e+00 -3.812793791294097900e-01 6.312057666946202517e-05 2.922232379205524921e-04 1.066031472873874009e-04 -4.771357635036110878e-05
3.811000000000000000e+03 3.581377506256103516e+00 -7.854385375976562500e-01 -2.745813108049333096e-04 -4.080602229805663228e-05 -9.461620356887578964e-05 -2.190868253819644451e-04
3.812000000000000000e+03 3.695749998092651367e+00 -2.822447717189788818e-01 7.878136966610327363e-05 2.558808482717722654e-04 1.003986617433838546e-04 9.160727495327591896e-05
3.813000000000000000e+03 2.864297151565551758e+00 -2.810497581958770752e-01 -1.426896196790039539e-04 -1.971518649952486157e-04 -1.019524424918927252e-04 -1.079606736311689019e-04
3.814000000000000000e+03 1.994235515594482422e+00 -3.319245874881744385e-01 3.936757275369018316e-05 6.336586375255137682e-05 3.082002876908518374e-05 1.640700065763667226e-04
3.815000000000000000e+03 1.981270551681518555e+00 -1.274680376052856445e+00 3.477329737506806850e-04 3.002256562467664480e-04 1.943875831784680486e-04 3.765795263461768627e-04
3.816000000000000000e+03 1.973554253578186035e+00 -8.466050028800964355e-01 2.786167315207421780e-04 1.782942854333668947e-04 1.370733079966157675e-04 -4.866585368290543556e-04
3.817000000000000000e+03 1.332448291778564453e+01 -3.621845245361328125e-01 1.150448733824305236e-04 -1.356672146357595921e-04 -6.186700375110376626e-06 2.134906208084430546e-05
3.818000000000000000e+03 1.426397991180419922e+01 -1.317608714103698730e+00 -3.484938642941415310e-04 -1.803102641133591533e-04 -1.586412399774417281e-04 -1.825813524192199111e-04
3.819000000000000000e+03 1.327361392974853516e+01 -1.248556852340698242e+00 -1.594912173459306359e-04 -3.658429704955779016e-05 -5.882265395484864712e-05 2.187792415497824550e-04
3.820000000000000000e+03 1.480296707153320312e+01 -1.047354817390441895e+00 2.744397497735917568e-04 1.792014227248728275e-04 1.360923488391563296e-04 1.270443608518689871e-04
3.821000000000000000e+03 1.356446647644042969e+01 -7.579438090324401855e-01 -1.613114145584404469e-04 -5.662978946929797530e-05 -6.538235902553424239e-05 -2.463915443513542414e-04
3.822000000000000000e+03 1.393659019470214844e+01 -3.302382230758666992e-01 2.654412310221232474e-05 1.336571003776043653e-04 4.806036304216831923e-05 7.996280328370630741e-05
3.823000000000000000e+03 1.449034786224365234e+01 -4.399540424346923828e-01 -2.451018081046640873e-04 -2.167078637285158038e-04 -1.385429059155285358e-04 -2.537916880100965500e-04
3.824000000000000000e+03 1.380024147033691406e+01 -1.352263331413269043e+00 4.735683032777160406e-04 -3.560335971997119486e-05 1.313894754275679588e-04 -5.638333823299035430e-05
3.825000000000000000e+03 1.402595424652099609e+01 -9.610455632209777832e-01 4.228811303619295359e-04 7.771338277962058783e-05 1.501783553976565599e-04 3.196910838596522808e-04
3.826000000000000000e+03 1.185737037658691406e+01 -1.162281751632690430e+00 -1.740093284752219915e-04 -4.773255568579770625e-05 -6.652256706729531288e-05 8.787137630861252546e-05
3.827000000000000000e+03 1.112013435363769531e+01 -4.102526009082794189e-01 -6.445715553127229214e-05 -7.758614083286374807e-05 -4.261298818164505064e-05 3.725430360645987093e-05
3.828000000000000000e+03 1.261753940582275391e+01 -4.348734915256500244e-01 -6.431503425119444728e-05 9.845721069723367691e-05 1.024265293381176889e-05 5.411113670561462641e-05
3.829000000000000000e+03 1.037124824523925781e+01 -3.971002995967864990e-01 6.303341797320172191e-05 1.601565891178324819e-04 6.695699994452297688e-05 -4.403078128234483302e-05
3.830000000000000000e+03 1.036389350891113281e+01 -1.137082934379577637e+00 -1.910364517243579030e-04 -1.484141685068607330e-04 -1.018351831589825451e-04 1.237162796314805746e-04
3.831000000000000000e+03 1.260408973693847656e+01 -1.174751639366149902e+00 1.582891418365761638e-04 4.117288335692137480e-05 5.983860683045350015e-05 -1.110793091356754303e-04
3.832000000000000000e+03 1.111074829101562500e+01 -1.150200366973876953e+00 2.017440128838643432e-04 8.095592784229665995e-05 8.480998076265677810e-05 -1.091103767976164818e-04
3.833000000000000000e+03 1.186878871917724609e+01 -4.223687946796417236e-01 5.034408968640491366e-05 -3.514810487104114145e-06 1.404878366884076968e-05 -4.459163756109774113e-05
3.834000000000000000e+03 4.292633819580078125e+01 3.321448135375976562e+01 3.625260543823242188e+01 2.809592962265014648e+00 1.171865940093994141e+01 6.623875141143798828e+00
3.835000000000000000e+03 4.292649078369140625e+01 3.319501495361328125e+01 3.825315856933593750e+01 1.050301361083984375e+01 1.462685108184814453e+01 1.999855041503906250e+01
3.836000000000000000e+03 4.293042755126953125e+01 3.317594909667968750e+01 3.794105529785156250e+01 2.096213340759277344e+01 1.767095565795898438e+01 2.636599731445312500e+01
3.837000000000000000e+03 4.293800354003906250e+01 3.315801620483398438e+01 3.502917861938476562e+01 3.247476959228515625e+01 2.025118446350097656e+01 3.047336387634277344e+01
3.838000000000000000e+03 4.294892501831054688e+01 3.314189910888671875e+01 3.156155967712402344e+01 4.444214248657226562e+01 2.280111122131347656e+01 3.139261245727539062e+01
3.839000000000000000e+03 4.296277618408203125e+01 3.312821578979492188e+01 2.711538124084472656e+01 5.542689895629882812e+01 2.476268386840820312e+01 2.971454620361328125e+01
3.840000000000000000e+03 4.297902297973632812e+01 3.311749267578125000e+01 2.361851882934570312e+01 6.493669891357421875e+01 2.656656455993652344e+01 2.537268829345703125e+01
3.841000000000000000e+03 4.299704742431640625e+01 3.311013793945312500e+01 2.094913482666015625e+01 7.143532562255859375e+01 2.771533966064453125e+01 1.933039855957031250e+01
3.842000000000000000e+03 4.301616287231445312e+01 3.310643005371093750e+01 2.068202781677246094e+01 7.515942382812500000e+01 2.875243568420410156e+01 1.214292812347412109e+01
3.843000000000000000e+03 4.303562927246093750e+01 3.310651779174804688e+01 2.200146865844726562e+01 7.549213409423828125e+01 2.924808120727539062e+01 5.175682067871093750e+00
3.844000000000000000e+03 4.305470657348632812e+01 3.311039352416992188e+01 2.524336624145507812e+01 7.314741516113281250e+01 2.951723480224609375e+01 -7.844643592834472656e-01
3.845000000000000000e+03 4.307266616821289062e+01 3.311790847778320312e+01 2.996896553039550781e+01 6.900305938720703125e+01 2.969160652160644531e+01 -4.934338092803955078e+00
3.846000000000000000e+03 4.308881759643554688e+01 3.312877655029296875e+01 3.465157699584960938e+01 6.363951492309570312e+01 2.948732757568359375e+01 -7.098746776580810547e+00
3.847000000000000000e+03 4.310254669189453125e+01 3.314257812500000000e+01 4.011878204345703125e+01 5.853307723999023438e+01 2.959555625915527344e+01 -6.982900619506835938e+00
3.848000000000000000e+03 4.311332702636718750e+01 3.315879058837890625e+01 4.365734100341796875e+01 5.364246368408203125e+01 2.918994140625000000e+01 -5.498136043548583984e+00
3.849000000000000000e+03 4.312074279785156250e+01 3.317679214477539062e+01 4.725230407714843750e+01 5.078802490234375000e+01 2.941209793090820312e+01 -2.027350425720214844e+00
3.850000000000000000e+03 4.312451171875000000e+01 3.319589233398437500e+01 4.863100051879882812e+01 4.880524063110351562e+01 2.923087310791015625e+01 1.765238881111145020e+00
3.851000000000000000e+03 4.312448883056640625e+01 3.321536254882812500e+01 4.875836563110351562e+01 4.916459655761718750e+01 2.937688827514648438e+01 6.535235404968261719e+00
3.852000000000000000e+03 4.312067794799804688e+01 3.323445129394531250e+01 4.715285110473632812e+01 5.098139953613281250e+01 2.944027519226074219e+01 1.052302074432373047e+01
3.853000000000000000e+03 4.311322021484375000e+01 3.325243759155273438e+01 4.365736389160156250e+01 5.518984222412109375e+01 2.965416145324707031e+01 1.416324615478515625e+01
3.854000000000000000e+03 4.310240554809570312e+01 3.326862335205078125e+01 3.871492767333984375e+01 6.036897659301757812e+01 2.972517204284667969e+01 1.621376991271972656e+01
3.855000000000000000e+03 4.308864974975585938e+01 3.328239822387695312e+01 3.247681808471679688e+01 6.589439392089843750e+01 2.951136398315429688e+01 1.638038253784179688e+01
3.856000000000000000e+03 4.307247161865234375e+01 3.329323196411132812e+01 2.640618515014648438e+01 7.205883789062500000e+01 2.953950691223144531e+01 1.388452434539794922e+01
3.857000000000000000e+03 4.305449676513671875e+01 3.330070495605468750e+01 2.010633659362792969e+01 7.624775695800781250e+01 2.890622901916503906e+01 9.365088462829589844e+00
3.858000000000000000e+03 4.303541183471679688e+01 3.330453872680664062e+01 1.497746086120605469e+01 7.822843933105468750e+01 2.796177101135253906e+01 2.792144536972045898e+00
3.859000000000000000e+03 4.301594161987304688e+01 3.330458450317382812e+01 1.270553874969482422e+01 7.751679229736328125e+01 2.706669998168945312e+01 -4.573782444000244141e+00
3.860000000000000000e+03 4.299683761596679688e+01 3.330083465576171875e+01 1.120870399475097656e+01 7.268688201904296875e+01 2.516867637634277344e+01 -1.255932521820068359e+01
3.861000000000000000e+03 4.297882843017578125e+01 3.329343795776367188e+01 1.277350044250488281e+01 6.551550292968750000e+01 2.348670196533203125e+01 -1.891705894470214844e+01
3.862000000000000000e+03 4.296260452270507812e+01 3.328268051147460938e+01 1.492141151428222656e+01 5.466954421997070312e+01 2.087728691101074219e+01 -2.386501884460449219e+01
3.863000000000000000e+03 4.294878387451171875e+01 3.326896667480468750e+01 1.911582374572753906e+01 4.270223999023437500e+01 1.854541969299316406e+01 -2.581778144836425781e+01
3.864000000000000000e+03 4.293790054321289062e+01 3.325282669067382812e+01 2.261578941345214844e+01 2.872101783752441406e+01 1.540104198455810547e+01 -2.495942306518554688e+01
3.865000000000000000e+03 4.293036270141601562e+01 3.323487472534179688e+01 2.944543838500976562e+01 1.274603748321533203e+01 1.265744304656982422e+01 -1.725619125366210938e+01
