# el_label, x, y, sXX, sYY, sZZ, sXY
1.000000000000000000e+00 3.683750152587890625e+01 3.437340927124023438e+01 -6.474112987518310547e+00 -1.586838603019714355e+00 -2.418285608291625977e+00 -1.949404597282409668e+00
2.000000000000000000e+00 3.663935470581054688e+01 3.439225769042968750e+01 -8.380040526390075684e-01 6.072009205818176270e-01 -6.924094259738922119e-02 1.042621493339538574e+00
3.000000000000000000e+00 3.644120788574218750e+01 3.441110992431640625e+01 -2.237888097763061523e+00 -4.582991898059844971e-01 -8.088561892509460449e-01 3.106120824813842773e-01
4.000000000000000000e+00 3.624306106567382812e+01 3.442995834350585938e+01 -2.302048921585083008e+00 1.238409057259559631e-01 -6.534624099731445312e-01 5.742403864860534668e-01
5.000000000000000000e+00 3.683768081665039062e+01 3.431500625610351562e+01 9.554793357849121094e+00 -2.531868219375610352e+00 2.106877565383911133e+00 -6.107783913612365723e-01
6.000000000000000000e+00 3.663965606689453125e+01 3.429491806030273438e+01 3.033132314682006836e+00 -1.010281965136528015e-01 8.796312212944030762e-01 5.927323698997497559e-01
7.000000000000000000e+00 3.644163131713867188e+01 3.427483367919921875e+01 3.396200180053710938e+00 1.192631721496582031e-01 1.054638981819152832e+00 1.453542590141296387e+00
8.000000000000000000e+00 3.624360656738281250e+01 3.425474929809570312e+01 1.972591400146484375e+00 -9.667631983757019043e-02 5.627745389938354492e-01 8.406929373741149902e-01
9.000000000000000000e+00 3.684923171997070312e+01 3.425775527954101562e+01 1.708153915405273438e+01 -3.933668136596679688e-01 5.006451606750488281e+00 5.537508487701416016e+00
1.000000000000000000e+01 3.665890502929687500e+01 3.419950103759765625e+01 1.003351783752441406e+01 -2.471075579524040222e-02 3.002641916275024414e+00 3.175662755966186523e+00
1.100000000000000000e+01 3.646857833862304688e+01 3.414124679565429688e+01 6.860223770141601562e+00 5.038562417030334473e-01 2.209223985671997070e+00 2.775847911834716797e+00
1.200000000000000000e+01 3.627825164794921875e+01 3.408299636840820312e+01 6.168538570404052734e+00 6.448921561241149902e-01 2.044029235839843750e+00 2.864501476287841797e+00
1.300000000000000000e+01 3.687170410156250000e+01 3.420384597778320312e+01 2.085071372985839844e+01 4.387063980102539062e+00 7.571333408355712891e+00 1.130629634857177734e+01
1.400000000000000000e+01 3.669636154174804688e+01 3.410965347290039062e+01 1.325555992126464844e+01 2.359833240509033203e+00 4.684617996215820312e+00 7.282123088836669922e+00
1.500000000000000000e+01 3.652101898193359375e+01 3.401546478271484375e+01 1.042106246948242188e+01 2.240148544311523438e+00 3.798363447189331055e+00 5.691544532775878906e+00
1.600000000000000000e+01 3.634567260742187500e+01 3.392127227783203125e+01 8.335717201232910156e+00 1.748713135719299316e+00 3.025329113006591797e+00 4.859727382659912109e+00
1.700000000000000000e+01 3.690424346923828125e+01 3.415534591674804688e+01 2.059781646728515625e+01 1.091237545013427734e+01 9.453057289123535156e+00 1.617109298706054688e+01
1.800000000000000000e+01 3.675059127807617188e+01 3.402882003784179688e+01 1.462716388702392578e+01 7.000658988952636719e+00 6.488346576690673828e+00 1.098010158538818359e+01
1.900000000000000000e+01 3.659693908691406250e+01 3.390229415893554688e+01 1.141528606414794922e+01 5.288924694061279297e+00 5.011263370513916016e+00 8.710743904113769531e+00
2.000000000000000000e+01 3.644329071044921875e+01 3.377576828002929688e+01 9.630980491638183594e+00 4.729994297027587891e+00 4.308292388916015625e+00 7.529416561126708984e+00
2.100000000000000000e+01 3.694560241699218750e+01 3.411410903930664062e+01 1.859773826599121094e+01 1.906411743164062500e+01 1.129855632781982422e+01 1.881120872497558594e+01
2.200000000000000000e+01 3.681951904296875000e+01 3.396009063720703125e+01 1.361745262145996094e+01 1.255659389495849609e+01 7.852213859558105469e+00 1.360730743408203125e+01
2.300000000000000000e+01 3.669344329833984375e+01 3.380607223510742188e+01 1.116044330596923828e+01 1.012176609039306641e+01 6.384662628173828125e+00 1.101619815826416016e+01
2.400000000000000000e+01 3.656736373901367188e+01 3.365205383300781250e+01 9.435979843139648438e+00 8.328909873962402344e+00 5.329466819763183594e+00 9.575995445251464844e+00
2.500000000000000000e+01 3.699419403076171875e+01 3.408171081542968750e+01 1.517861461639404297e+01 2.713255691528320312e+01 1.269335174560546875e+01 1.911483192443847656e+01
2.600000000000000000e+01 3.690051269531250000e+01 3.390609359741210938e+01 1.191664981842041016e+01 1.891899681091308594e+01 9.250694274902343750e+00 1.446667575836181641e+01
2.700000000000000000e+01 3.680683135986328125e+01 3.373048019409179688e+01 9.587534904479980469e+00 1.524063587188720703e+01 7.448451519012451172e+00 1.219596385955810547e+01
2.800000000000000000e+01 3.671315002441406250e+01 3.355486297607421875e+01 8.345396041870117188e+00 1.326220703125000000e+01 6.482281208038330078e+00 1.044838428497314453e+01
2.900000000000000000e+01 3.704816818237304688e+01 3.405939483642578125e+01 1.229972553253173828e+01 3.451690673828125000e+01 1.404498958587646484e+01 1.699914741516113281e+01
3.000000000000000000e+01 3.699046707153320312e+01 3.386890029907226562e+01 9.683636665344238281e+00 2.477504348754882812e+01 1.033760452270507812e+01 1.368420124053955078e+01
3.100000000000000000e+01 3.693276596069335938e+01 3.367840576171875000e+01 7.983864784240722656e+00 2.043968772888183594e+01 8.527065277099609375e+00 1.179077911376953125e+01
3.200000000000000000e+01 3.687506484985351562e+01 3.348791122436523438e+01 6.635318756103515625e+00 1.800479125976562500e+01 7.392033100128173828e+00 1.046014881134033203e+01
3.300000000000000000e+01 3.710545349121093750e+01 3.404801177978515625e+01 1.031095695495605469e+01 3.996409606933593750e+01 1.508251571655273438e+01 1.322786331176757812e+01
3.400000000000000000e+01 3.708594131469726562e+01 3.384992599487304688e+01 8.190391540527343750e+00 2.979944038391113281e+01 1.139694976806640625e+01 1.135321617126464844e+01
3.500000000000000000e+01 3.706643295288085938e+01 3.365184402465820312e+01 6.538861274719238281e+00 2.476055335998535156e+01 9.389824867248535156e+00 1.009848308563232422e+01
3.600000000000000000e+01 3.704692077636718750e+01 3.345376205444335938e+01 5.447347164154052734e+00 2.183672332763671875e+01 8.185221672058105469e+00 9.215375900268554688e+00
3.700000000000000000e+01 3.716385650634765625e+01 3.404799652099609375e+01 1.029714775085449219e+01 4.329908370971679688e+01 1.607886886596679688e+01 8.576981544494628906e+00
3.800000000000000000e+01 3.718328094482421875e+01 3.384990692138671875e+01 7.429994583129882812e+00 3.322888946533203125e+01 1.219766521453857422e+01 8.130791664123535156e+00
3.900000000000000000e+01 3.720270919799804688e+01 3.365181350708007812e+01 6.144080638885498047e+00 2.797510528564453125e+01 1.023575592041015625e+01 7.318036079406738281e+00
4.000000000000000000e+01 3.722213363647460938e+01 3.345372390747070312e+01 4.949951648712158203e+00 2.447296714782714844e+01 8.826875686645507812e+00 6.973681449890136719e+00
4.100000000000000000e+01 3.722114562988281250e+01 3.405935668945312500e+01 1.168157768249511719e+01 4.428548431396484375e+01 1.679011917114257812e+01 4.043021678924560547e+00
4.200000000000000000e+01 3.727876281738281250e+01 3.386883544921875000e+01 8.268061637878417969e+00 3.499679183959960938e+01 1.297945594787597656e+01 4.601254940032958984e+00
4.300000000000000000e+01 3.733638381958007812e+01 3.367831802368164062e+01 6.373635768890380859e+00 2.979885101318359375e+01 1.085174655914306641e+01 4.197911739349365234e+00
4.400000000000000000e+01 3.739400100708007812e+01 3.348780059814453125e+01 5.759252071380615234e+00 2.614857482910156250e+01 9.572348594665527344e+00 3.952018737792968750e+00
4.500000000000000000e+01 3.727513122558593750e+01 3.408164978027343750e+01 1.466709327697753906e+01 4.356168746948242188e+01 1.746863365173339844e+01 4.781883358955383301e-01
4.600000000000000000e+01 3.736873626708984375e+01 3.390599441528320312e+01 1.005048561096191406e+01 3.504563903808593750e+01 1.352883720397949219e+01 1.336913824081420898e+00
4.700000000000000000e+01 3.746234130859375000e+01 3.373033523559570312e+01 7.929549694061279297e+00 3.018409729003906250e+01 1.143409347534179688e+01 1.486365199089050293e+00
4.800000000000000000e+01 3.755595016479492188e+01 3.355467987060546875e+01 6.692012310028076172e+00 2.706954002380371094e+01 1.012846565246582031e+01 1.098327875137329102e+00
4.900000000000000000e+01 3.732373809814453125e+01 3.411402511596679688e+01 1.826688766479492188e+01 4.148670959472656250e+01 1.792607879638671875e+01 -1.817401409149169922e+00
5.000000000000000000e+01 3.744975280761718750e+01 3.395995330810546875e+01 1.284780406951904297e+01 3.390549850463867188e+01 1.402599048614501953e+01 -9.041257500648498535e-01
5.100000000000000000e+01 3.757576370239257812e+01 3.380588150024414062e+01 1.019761753082275391e+01 2.925720024108886719e+01 1.183644485473632812e+01 -5.914859175682067871e-01
5.200000000000000000e+01 3.770177459716796875e+01 3.365180969238281250e+01 8.322516441345214844e+00 2.667690277099609375e+01 1.049982547760009766e+01 -3.401138484477996826e-01
5.300000000000000000e+01 3.736511611938476562e+01 3.415524673461914062e+01 2.193985939025878906e+01 3.903610229492187500e+01 1.829278945922851562e+01 -2.579066276550292969e+00
5.400000000000000000e+01 3.751871109008789062e+01 3.402865600585937500e+01 1.603589248657226562e+01 3.183961868286132812e+01 1.436265373229980469e+01 -1.935357332229614258e+00
5.500000000000000000e+01 3.767230606079101562e+01 3.390206146240234375e+01 1.284075736999511719e+01 2.770918846130371094e+01 1.216498374938964844e+01 -1.503487825393676758e+00
5.600000000000000000e+01 3.782590103149414062e+01 3.377547073364257812e+01 1.083233451843261719e+01 2.467778968811035156e+01 1.065303707122802734e+01 -8.904764056205749512e-01
5.700000000000000000e+01 3.739767456054687500e+01 3.420373535156250000e+01 2.510925102233886719e+01 3.664276504516601562e+01 1.852560424804687500e+01 -1.950047135353088379e+00
5.800000000000000000e+01 3.757297515869140625e+01 3.410946655273437500e+01 1.899470520019531250e+01 2.966446495056152344e+01 1.459775066375732422e+01 -1.717529535293579102e+00
5.900000000000000000e+01 3.774827957153320312e+01 3.401519775390625000e+01 1.548081398010253906e+01 2.576453399658203125e+01 1.237360477447509766e+01 -1.137419581413269043e+00
6.000000000000000000e+01 3.792358016967773438e+01 3.392093276977539062e+01 1.331087112426757812e+01 2.267481994628906250e+01 1.079570770263671875e+01 -9.698436856269836426e-01
6.100000000000000000e+01 3.742016983032226562e+01 3.425762939453125000e+01 2.744410514831542969e+01 3.480143356323242188e+01 1.867366027832031250e+01 -2.194390296936035156e-01
6.200000000000000000e+01 3.761046981811523438e+01 3.419929504394531250e+01 2.101597595214843750e+01 2.792704010009765625e+01 1.468290519714355469e+01 -3.210220932960510254e-01
6.300000000000000000e+01 3.780076980590820312e+01 3.414096069335937500e+01 1.762169837951660156e+01 2.402458190917968750e+01 1.249388408660888672e+01 1.611959747970104218e-02
6.400000000000000000e+01 3.799107360839843750e+01 3.408262634277343750e+01 1.509258556365966797e+01 2.160978889465332031e+01 1.101071262359619141e+01 -1.300949789583683014e-02
6.500000000000000000e+01 3.743174362182617188e+01 3.431487655639648438e+01 2.837304687500000000e+01 3.362207412719726562e+01 1.859853553771972656e+01 2.080385446548461914e+00
6.600000000000000000e+01 3.762976074218750000e+01 3.429470825195312500e+01 2.197648811340332031e+01 2.719740104675292969e+01 1.475216674804687500e+01 1.991139650344848633e+00
6.700000000000000000e+01 3.782777786254882812e+01 3.427453613281250000e+01 1.830075836181640625e+01 2.312532615661621094e+01 1.242782497406005859e+01 1.549276947975158691e+00
6.800000000000000000e+01 3.802579116821289062e+01 3.425436401367187500e+01 1.617205810546875000e+01 2.098674583435058594e+01 1.114764118194580078e+01 1.740467786788940430e+00
6.900000000000000000e+01 3.743194961547851562e+01 3.437328338623046875e+01 2.788932609558105469e+01 3.383220291137695312e+01 1.851645851135253906e+01 4.637636661529541016e+00
7.000000000000000000e+01 3.763010406494140625e+01 3.439204788208007812e+01 2.160545921325683594e+01 2.709375953674316406e+01 1.460976600646972656e+01 4.389600276947021484e+00
7.100000000000000000e+01 3.782825851440429688e+01 3.441081237792968750e+01 1.754898834228515625e+01 2.382232093811035156e+01 1.241139316558837891e+01 3.691277027130126953e+00
7.200000000000000000e+01 3.802641677856445312e+01 3.442957687377929688e+01 1.532030296325683594e+01 2.068053627014160156e+01 1.080025196075439453e+01 3.061947822570800781e+00
7.300000000000000000e+01 3.742078399658203125e+01 3.443061065673828125e+01 2.607284736633300781e+01 3.539979171752929688e+01 1.844179153442382812e+01 7.281404495239257812e+00
7.400000000000000000e+01 3.761149215698242188e+01 3.448759078979492188e+01 1.941762351989746094e+01 2.799577331542968750e+01 1.422401905059814453e+01 6.142099380493164062e+00
7.500000000000000000e+01 3.780220413208007812e+01 3.454457473754882812e+01 1.603759384155273438e+01 2.501628875732421875e+01 1.231616497039794922e+01 5.688435554504394531e+00
7.600000000000000000e+01 3.799291229248046875e+01 3.460155868530273438e+01 1.323472499847412109e+01 2.235917282104492188e+01 1.067816925048828125e+01 4.576818466186523438e+00
7.700000000000000000e+01 3.739867019653320312e+01 3.448466491699218750e+01 2.251607131958007812e+01 3.644862365722656250e+01 1.768940925598144531e+01 8.989865303039550781e+00
7.800000000000000000e+01 3.757463455200195312e+01 3.457768630981445312e+01 1.639185714721679688e+01 3.112868309020996094e+01 1.425616168975830078e+01 7.210372924804687500e+00
7.900000000000000000e+01 3.775060272216796875e+01 3.467070770263671875e+01 1.303856754302978516e+01 2.551350975036621094e+01 1.156562328338623047e+01 6.405461788177490234e+00
8.000000000000000000e+01 3.792657089233398438e+01 3.476372528076171875e+01 1.150657653808593750e+01 2.488832855224609375e+01 1.091847133636474609e+01 5.830666065216064453e+00
8.100000000000000000e+01 3.736645507812500000e+01 3.453338241577148438e+01 1.860998916625976562e+01 4.035128402709960938e+01 1.768838119506835938e+01 9.098362922668457031e+00
8.200000000000000000e+01 3.752094650268554688e+01 3.465888214111328125e+01 1.211633586883544922e+01 3.228469085693359375e+01 1.332030868530273438e+01 7.464941024780273438e+00
8.300000000000000000e+01 3.767543792724609375e+01 3.478437805175781250e+01 9.931019783020019531e+00 2.884788703918457031e+01 1.163367176055908203e+01 5.618411540985107422e+00
8.400000000000000000e+01 3.782992935180664062e+01 3.490987396240234375e+01 7.645712375640869141e+00 2.430321121215820312e+01 9.584676742553710938e+00 5.348908901214599609e+00
8.500000000000000000e+01 3.732537460327148438e+01 3.457489395141601562e+01 1.314441776275634766e+01 4.260967636108398438e+01 1.672622871398925781e+01 8.180153846740722656e+00
8.600000000000000000e+01 3.745247650146484375e+01 3.472806930541992188e+01 8.611113548278808594e+00 3.483737564086914062e+01 1.303454685211181641e+01 5.552213191986083984e+00
8.700000000000000000e+01 3.757957839965820312e+01 3.488124084472656250e+01 5.980755329132080078e+00 2.990272140502929688e+01 1.076504325866699219e+01 4.537327289581298828e+00
8.800000000000000000e+01 3.770668029785156250e+01 3.503441619873046875e+01 4.393589019775390625e+00 2.692395019531250000e+01 9.395261764526367188e+00 3.465182781219482422e+00
8.900000000000000000e+01 3.727699661254882812e+01 3.460761260986328125e+01 8.632597923278808594e+00 4.489673233032226562e+01 1.605879974365234375e+01 5.186157703399658203e+00
9.000000000000000000e+01 3.737184524536132812e+01 3.478260421752929688e+01 5.071176052093505859e+00 3.566510009765625000e+01 1.222088336944580078e+01 2.765526771545410156e+00
9.100000000000000000e+01 3.746669769287109375e+01 3.495759201049804688e+01 2.955755710601806641e+00 3.069672584533691406e+01 1.009574413299560547e+01 1.988569855690002441e+00
9.200000000000000000e+01 3.756154632568359375e+01 3.513257980346679688e+01 2.595262765884399414e+00 2.775181007385253906e+01 9.104122161865234375e+00 1.853040814399719238e+00
9.300000000000000000e+01 3.722317123413085938e+01 3.463029098510742188e+01 5.117964744567871094e+00 4.540533447265625000e+01 1.515699005126953125e+01 7.753885388374328613e-01
9.400000000000000000e+01 3.728214263916015625e+01 3.482039642333984375e+01 2.469728946685791016e+00 3.525538635253906250e+01 1.131753444671630859e+01 -9.437397718429565430e-01
9.500000000000000000e+01 3.734111022949218750e+01 3.501050186157226562e+01 1.428689599037170410e+00 2.994604492187500000e+01 9.412420272827148438e+00 -9.690341949462890625e-01
9.600000000000000000e+01 3.740008163452148438e+01 3.520060729980468750e+01 6.820386648178100586e-01 2.627754402160644531e+01 8.087874412536621094e+00 -1.417276978492736816e+00
9.700000000000000000e+01 3.716596603393554688e+01 3.464205551147460938e+01 3.107441663742065430e+00 4.377021789550781250e+01 1.406329822540283203e+01 -4.580804347991943359e+00
9.800000000000000000e+01 3.718679809570312500e+01 3.484000396728515625e+01 1.448563337326049805e+00 3.292858123779296875e+01 1.031314373016357422e+01 -4.697866439819335938e+00
9.900000000000000000e+01 3.720762634277343750e+01 3.503795242309570312e+01 8.252204060554504395e-01 2.744328117370605469e+01 8.480550765991210938e+00 -4.448068141937255859e+00
1.000000000000000000e+02 3.722845840454101562e+01 3.523590087890625000e+01 -3.622104525566101074e-01 2.439157295227050781e+01 7.208808898925781250e+00 -4.101269245147705078e+00
1.010000000000000000e+02 3.710756301879882812e+01 3.464245605468750000e+01 2.843804836273193359e+00 3.947730255126953125e+01 1.269633197784423828e+01 -9.613291740417480469e+00
1.020000000000000000e+02 3.708945465087890625e+01 3.484067535400390625e+01 2.047122478485107422e+00 2.872529602050781250e+01 9.231725692749023438e+00 -8.133607864379882812e+00
1.030000000000000000e+02 3.707135391235351562e+01 3.503889083862304688e+01 8.199667930603027344e-01 2.367195320129394531e+01 7.347575664520263672e+00 -7.229213714599609375e+00
1.040000000000000000e+02 3.705324935913085938e+01 3.523710632324218750e+01 6.491928696632385254e-01 2.072891998291015625e+01 6.413433551788330078e+00 -6.073630332946777344e+00
1.050000000000000000e+02 3.705019760131835938e+01 3.463148117065429688e+01 4.862155437469482422e+00 3.294498062133789062e+01 1.134214115142822266e+01 -1.344244480133056641e+01
1.060000000000000000e+02 3.699385070800781250e+01 3.482238006591796875e+01 3.051144599914550781e+00 2.290218162536621094e+01 7.785997390747070312e+00 -1.043607425689697266e+01
1.070000000000000000e+02 3.693750381469726562e+01 3.501328277587890625e+01 2.237341165542602539e+00 1.876416587829589844e+01 6.300451755523681641e+00 -8.623444557189941406e+00
1.080000000000000000e+02 3.688115692138671875e+01 3.520417785644531250e+01 1.574857592582702637e+00 1.591091251373291016e+01 5.245730876922607422e+00 -7.649632453918457031e+00
1.090000000000000000e+02 3.699606704711914062e+01 3.460955047607421875e+01 7.218231678009033203e+00 2.435499000549316406e+01 9.471966743469238281e+00 -1.522005462646484375e+01
1.100000000000000000e+02 3.690363311767578125e+01 3.478582382202148438e+01 4.980791091918945312e+00 1.644703483581542969e+01 6.428348064422607422e+00 -1.087809753417968750e+01
1.110000000000000000e+02 3.681119918823242188e+01 3.496210098266601562e+01 3.393834352493286133e+00 1.292120647430419922e+01 4.894512176513671875e+00 -8.715933799743652344e+00
1.120000000000000000e+02 3.671876907348632812e+01 3.513837814331054688e+01 2.537313461303710938e+00 1.138496494293212891e+01 4.176683425903320312e+00 -7.554705142974853516e+00
1.130000000000000000e+02 3.694724655151367188e+01 3.457749557495117188e+01 1.001545524597167969e+01 1.531516265869140625e+01 7.599185466766357422e+00 -1.421886253356933594e+01
1.140000000000000000e+02 3.682226181030273438e+01 3.473240661621093750e+01 5.765625476837158203e+00 9.550885200500488281e+00 4.594953060150146484e+00 -9.354464530944824219e+00
1.150000000000000000e+02 3.669727706909179688e+01 3.488731384277343750e+01 4.297685146331787109e+00 7.914034843444824219e+00 3.663516044616699219e+00 -7.262350082397460938e+00
1.160000000000000000e+02 3.657229614257812500e+01 3.504222106933593750e+01 2.787127733230590820e+00 6.648915290832519531e+00 2.830812931060791016e+00 -6.091568946838378906e+00
1.170000000000000000e+02 3.690559768676757812e+01 3.453655242919921875e+01 1.024449539184570312e+01 6.432017803192138672e+00 5.002954006195068359e+00 -1.050719547271728516e+01
1.180000000000000000e+02 3.675284576416015625e+01 3.466416549682617188e+01 5.718688964843750000e+00 4.017982482910156250e+00 2.921001195907592773e+00 -6.057453155517578125e+00
1.190000000000000000e+02 3.660009765625000000e+01 3.479177856445312500e+01 3.042548179626464844e+00 3.691733121871948242e+00 2.020284414291381836e+00 -4.457502841949462891e+00
1.200000000000000000e+02 3.644734573364257812e+01 3.491939163208007812e+01 2.304480075836181641e+00 3.736742258071899414e+00 1.812366724014282227e+00 -4.132537364959716797e+00
1.210000000000000000e+02 3.687271499633789062e+01 3.448828506469726562e+01 8.108178138732910156e+00 -9.851689338684082031e-01 2.136902570724487305e+00 -4.136286735534667969e+00
1.220000000000000000e+02 3.669804382324218750e+01 3.458371734619140625e+01 1.582582473754882812e+00 9.002524018287658691e-01 7.448504567146301270e-01 -1.693899750709533691e+00
1.230000000000000000e+02 3.652337265014648438e+01 3.467914962768554688e+01 1.094204187393188477e+00 1.811860918998718262e+00 8.718194961547851562e-01 -2.230561256408691406e+00
1.240000000000000000e+02 3.634870147705078125e+01 3.477458572387695312e+01 3.048588708043098450e-02 8.196769356727600098e-01 2.550488412380218506e-01 -1.414539456367492676e+00
1.250000000000000000e+02 3.684985733032226562e+01 3.443453979492187500e+01 -4.362430095672607422e+00 -3.751133203506469727e+00 -2.434068918228149414e+00 2.994512081146240234e+00
1.260000000000000000e+02 3.665995025634765625e+01 3.449414062500000000e+01 -1.835137605667114258e+00 1.237190961837768555e+00 -1.793839931488037109e-01 -1.916960179805755615e-01
1.270000000000000000e+02 3.647004318237304688e+01 3.455374145507812500e+01 -2.960207223892211914e+00 -5.684533119201660156e-01 -1.058598160743713379e+00 4.877361655235290527e-01
1.280000000000000000e+02 3.628013610839843750e+01 3.461334609985351562e+01 -3.331535100936889648e+00 2.128305435180664062e-01 -9.356113672256469727e-01 5.945696830749511719e-01
1.290000000000000000e+02 2.333872413635253906e+01 3.602074050903320312e+01 -2.290236502885818481e-01 1.490363269113004208e-03 -6.825998425483703613e-02 -5.396720767021179199e-02
1.300000000000000000e+02 2.389290046691894531e+01 3.609888076782226562e+01 -3.174659013748168945e-01 -5.064051598310470581e-03 -9.675898402929306030e-02 -5.359386280179023743e-02
1.310000000000000000e+02 2.284308815002441406e+01 3.526721954345703125e+01 -1.640259474515914917e-01 -2.157850004732608795e-02 -5.568133294582366943e-02 -1.449495404958724976e-01
1.320000000000000000e+02 2.421754455566406250e+01 3.556056594848632812e+01 -3.366858363151550293e-01 4.885223694145679474e-03 -9.954018145799636841e-02 -1.451938599348068237e-01
1.330000000000000000e+02 2.498613166809082031e+01 3.604191207885742188e+01 -5.031772255897521973e-01 4.153747111558914185e-03 -1.497070342302322388e-01 -3.594344854354858398e-02
1.340000000000000000e+02 2.485820960998535156e+01 3.530118560791015625e+01 -4.203586578369140625e-01 2.490654028952121735e-02 -1.186356320977210999e-01 -1.683087050914764404e-01
1.350000000000000000e+02 2.364893722534179688e+01 3.528245925903320312e+01 -2.606883645057678223e-01 -7.817058824002742767e-03 -8.055162429809570312e-02 -1.749593764543533325e-01
1.360000000000000000e+02 2.269410705566406250e+01 3.600639724731445312e+01 -1.443158388137817383e-01 1.716348575428128242e-03 -4.277984797954559326e-02 -5.717152357101440430e-02
1.370000000000000000e+02 2.440931320190429688e+01 3.610589981079101562e+01 -4.383641779422760010e-01 9.605362080037593842e-03 -1.286276429891586304e-01 -4.831202328205108643e-02
1.380000000000000000e+02 2.713174057006835938e+01 3.578996658325195312e+01 -9.980399012565612793e-01 9.144484065473079681e-03 -2.966686189174652100e-01 4.041972383856773376e-02
1.390000000000000000e+02 2.639669990539550781e+01 3.588855361938476562e+01 -8.132344484329223633e-01 1.014879252761602402e-02 -2.409256994724273682e-01 1.352477539330720901e-02
1.400000000000000000e+02 2.560692596435546875e+01 3.524289321899414062e+01 -5.466492772102355957e-01 4.778430610895156860e-02 -1.496594846248626709e-01 -1.666635274887084961e-01
1.410000000000000000e+02 2.704477500915527344e+01 3.505500793457031250e+01 -7.578338384628295898e-01 5.701338127255439758e-02 -2.102461457252502441e-01 -1.410310715436935425e-01
1.420000000000000000e+02 2.786719703674316406e+01 3.568653869628906250e+01 -1.167542338371276855e+00 6.790511775761842728e-03 -3.482255339622497559e-01 7.163639366626739502e-02
1.430000000000000000e+02 2.776436805725097656e+01 3.495370483398437500e+01 -8.700797557830810547e-01 6.876319646835327148e-02 -2.403949797153472900e-01 -1.148269176483154297e-01
1.440000000000000000e+02 2.632559776306152344e+01 3.515146636962890625e+01 -6.472834944725036621e-01 5.458958074450492859e-02 -1.778081655502319336e-01 -1.603714525699615479e-01
1.450000000000000000e+02 2.566216468811035156e+01 3.598210525512695312e+01 -6.234322786331176758e-01 1.851310208439826965e-02 -1.814757585525512695e-01 -1.507442723959684372e-02
1.460000000000000000e+02 2.933965110778808594e+01 3.544803619384765625e+01 -1.554067969322204590e+00 -1.116750109940767288e-02 -4.695706367492675781e-01 1.537139713764190674e-01
1.470000000000000000e+02 2.922042655944824219e+01 3.471769332885742188e+01 -1.037982821464538574e+00 6.559470295906066895e-02 -2.917164266109466553e-01 -6.812373548746109009e-02
1.480000000000000000e+02 2.848941230773925781e+01 3.484096145629882812e+01 -9.677320718765258789e-01 7.075376808643341064e-02 -2.690934836864471436e-01 -9.424481540918350220e-02
1.490000000000000000e+02 3.068212890625000000e+01 3.447154998779296875e+01 -1.102048158645629883e+00 5.806761980056762695e-02 -3.131941556930541992e-01 4.264935269020497799e-04
1.500000000000000000e+02 2.995129966735839844e+01 3.459505081176757812e+01 -1.080174922943115234e+00 6.257764995098114014e-02 -3.052791655063629150e-01 -2.674237452447414398e-02
1.510000000000000000e+02 3.081263542175292969e+01 3.519998931884765625e+01 -1.920771718025207520e+00 -1.685099303722381592e-02 -5.812867879867553711e-01 2.335813343524932861e-01
1.520000000000000000e+02 2.860299301147460938e+01 3.557225799560546875e+01 -1.349737524986267090e+00 8.008220233023166656e-03 -4.025188088417053223e-01 1.150268688797950745e-01
1.530000000000000000e+02 3.007616424560546875e+01 3.532444381713867188e+01 -1.747978329658508301e+00 -9.091118350625038147e-03 -5.271208286285400391e-01 1.903802901506423950e-01
1.540000000000000000e+02 3.221268463134765625e+01 3.506829452514648438e+01 -2.324931383132934570e+00 -3.990501165390014648e-02 -7.094509601593017578e-01 4.305474758148193359e-01
1.550000000000000000e+02 3.194104576110839844e+01 3.407446670532226562e+01 -7.051162719726562500e-01 7.408154010772705078e-02 -1.893104165792465210e-01 1.476168185472488403e-01
1.560000000000000000e+02 3.136807060241699219e+01 3.428468322753906250e+01 -9.099898934364318848e-01 8.957968652248382568e-02 -2.461230605840682983e-01 4.387167096138000488e-02
1.570000000000000000e+02 3.282728958129882812e+01 3.484134674072265625e+01 -2.340979337692260742e+00 -8.994994312524795532e-02 -7.292788028717041016e-01 4.435988366603851318e-01
1.580000000000000000e+02 3.248771286010742188e+01 3.401057434082031250e+01 -4.986621737480163574e-01 1.282966434955596924e-01 -1.111096590757369995e-01 1.559230834245681763e-01
1.590000000000000000e+02 3.392565155029296875e+01 3.419432067871093750e+01 -7.614292502403259277e-01 1.122321859002113342e-01 -1.947591304779052734e-01 2.513663470745086670e-01
1.600000000000000000e+02 3.382067108154296875e+01 3.382319641113281250e+01 3.783805966377258301e-01 5.189234763383865356e-02 1.290818750858306885e-01 3.828066885471343994e-01
1.610000000000000000e+02 3.388624954223632812e+01 3.401666259765625000e+01 1.401605643332004547e-02 4.835940152406692505e-02 1.871263794600963593e-02 4.720526933670043945e-01
1.620000000000000000e+02 3.394834899902343750e+01 3.438654327392578125e+01 -1.267921328544616699e+00 6.295821070671081543e-02 -3.614889383316040039e-01 2.508060038089752197e-01
1.630000000000000000e+02 3.368301773071289062e+01 3.438798904418945312e+01 -1.227036118507385254e+00 1.650663614273071289e-01 -3.185909390449523926e-01 2.961101830005645752e-01
1.640000000000000000e+02 3.307381057739257812e+01 3.395777130126953125e+01 -2.471536099910736084e-01 -2.272178232669830322e-02 -8.096261322498321533e-02 3.205209970474243164e-01
1.650000000000000000e+02 3.154733085632324219e+01 3.515320205688476562e+01 -2.112490177154541016e+00 -2.215361222624778748e-02 -6.403931379318237305e-01 2.874462008476257324e-01
1.660000000000000000e+02 3.394754791259765625e+01 3.457909393310546875e+01 -1.936903595924377441e+00 5.543777346611022949e-02 -5.644397139549255371e-01 4.896101951599121094e-01
1.670000000000000000e+02 3.368387985229492188e+01 3.413655090332031250e+01 -6.540433168411254883e-01 8.462034910917282104e-02 -1.708268821239471436e-01 3.998616039752960205e-01
1.680000000000000000e+02 3.370192337036132812e+01 3.362184143066406250e+01 6.760888695716857910e-01 4.388670995831489563e-02 2.159926742315292358e-01 7.002189159393310547e-01
1.690000000000000000e+02 3.352230834960937500e+01 3.387506866455078125e+01 2.972367592155933380e-02 4.688794538378715515e-02 2.298348583281040192e-02 4.684780836105346680e-01
1.700000000000000000e+02 3.176884269714355469e+01 3.471737670898437500e+01 -1.734490633010864258e+00 5.277402698993682861e-02 -5.045149922370910645e-01 1.991510987281799316e-01
1.710000000000000000e+02 3.387271118164062500e+01 3.483109664916992188e+01 -3.012427091598510742e+00 -9.180627763271331787e-02 -9.312700033187866211e-01 5.364444851875305176e-01
1.720000000000000000e+02 3.229663467407226562e+01 3.441057205200195312e+01 -1.137006521224975586e+00 1.081982403993606567e-01 -3.086424767971038818e-01 4.850398004055023193e-02
1.730000000000000000e+02 3.334953308105468750e+01 3.455982971191406250e+01 -2.003940820693969727e+00 -1.020758599042892456e-01 -6.318050026893615723e-01 2.693879604339599609e-01
1.740000000000000000e+02 3.426850891113281250e+01 3.479295730590820312e+01 -3.115942716598510742e+00 -8.178893476724624634e-02 -9.593194723129272461e-01 6.046201586723327637e-01
1.750000000000000000e+02 3.508258438110351562e+01 3.461047744750976562e+01 -3.019918680191040039e+00 -7.811382412910461426e-02 -9.294097423553466797e-01 5.056339502334594727e-01
1.760000000000000000e+02 3.562742614746093750e+01 3.452510452270507812e+01 -2.795150995254516602e+00 -1.601291596889495850e-01 -8.865840435028076172e-01 6.127098798751831055e-01
1.770000000000000000e+02 3.628188705444335938e+01 3.363632965087890625e+01 8.308026313781738281e+00 4.156783103942871094e+00 3.739442825317382812e+00 6.606900215148925781e+00
1.780000000000000000e+02 3.728342819213867188e+01 3.327052307128906250e+01 4.370103359222412109e+00 2.215380859375000000e+01 7.957173824310302734e+00 6.787240028381347656e+00
1.790000000000000000e+02 3.846038055419921875e+01 3.442024230957031250e+01 1.232732009887695312e+01 1.847139739990234375e+01 9.239615440368652344e+00 2.640576362609863281e+00
1.800000000000000000e+02 3.819225311279296875e+01 3.485472106933593750e+01 8.008361816406250000e+00 2.102969932556152344e+01 8.711418151855468750e+00 4.690443992614746094e+00
1.810000000000000000e+02 3.748074722290039062e+01 3.540164566040039062e+01 -4.575469493865966797e-01 2.462178039550781250e+01 7.249269962310791016e+00 -9.115521907806396484e-01
1.820000000000000000e+02 3.456202697753906250e+01 3.513722610473632812e+01 -4.298745155334472656e+00 -6.802900880575180054e-02 -1.310032248497009277e+00 9.531891942024230957e-01
1.830000000000000000e+02 3.711941909790039062e+01 3.574807357788085938e+01 -5.083402991294860840e-01 1.769220733642578125e+01 5.155159950256347656e+00 -4.646167278289794922e+00
1.840000000000000000e+02 3.774988555908203125e+01 3.533868408203125000e+01 1.547073125839233398e+00 2.354579544067382812e+01 7.527860641479492188e+00 1.381952881813049316e+00
1.850000000000000000e+02 3.402265930175781250e+01 3.355589294433593750e+01 1.316655158996582031e+00 4.813812077045440674e-01 5.394109487533569336e-01 9.391376972198486328e-01
1.860000000000000000e+02 3.407162475585937500e+01 3.376955413818359375e+01 7.238286733627319336e-01 1.878568828105926514e-01 2.735056579113006592e-01 6.946269273757934570e-01
1.870000000000000000e+02 3.435935211181640625e+01 3.393737792968750000e+01 5.407774448394775391e-01 7.199235260486602783e-02 1.838309317827224731e-01 6.241157054901123047e-01
1.880000000000000000e+02 3.515970611572265625e+01 3.348690414428710938e+01 3.637986421585083008e+00 8.360008001327514648e-01 1.342196226119995117e+00 2.345401763916015625e+00
1.890000000000000000e+02 3.666244888305664062e+01 3.319321441650390625e+01 6.384478569030761719e+00 1.180082321166992188e+01 5.455590248107910156e+00 9.007810592651367188e+00
1.900000000000000000e+02 3.658726119995117188e+01 3.302548980712890625e+01 5.659436702728271484e+00 1.221664333343505859e+01 5.362823963165283203e+00 8.816612243652343750e+00
1.910000000000000000e+02 3.631032562255859375e+01 3.334180450439453125e+01 7.471597194671630859e+00 6.765279293060302734e+00 4.271062850952148438e+00 7.690365314483642578e+00
1.920000000000000000e+02 3.583149337768554688e+01 3.447898864746093750e+01 -2.597730398178100586e+00 -8.698461204767227173e-02 -8.054144978523254395e-01 6.137254238128662109e-01
1.930000000000000000e+02 3.456877899169921875e+01 3.628146362304687500e+01 -6.016629338264465332e-01 1.384500026702880859e+00 2.348511070013046265e-01 -6.071993708610534668e-01
1.940000000000000000e+02 3.453239059448242188e+01 3.606492996215820312e+01 -9.253736138343811035e-01 7.667930126190185547e-01 -4.757419228553771973e-02 -2.546883523464202881e-01
1.950000000000000000e+02 3.463591384887695312e+01 3.531736755371093750e+01 -3.228405952453613281e+00 -1.199505925178527832e-01 -1.004506945610046387e+00 5.525622963905334473e-01
1.960000000000000000e+02 3.556038665771484375e+01 3.579811477661132812e+01 2.430340945720672607e-01 2.610276937484741211e+00 8.559933304786682129e-01 -2.341960191726684570e+00
1.970000000000000000e+02 3.598037719726562500e+01 3.584512710571289062e+01 9.529994726181030273e-01 5.076330661773681641e+00 1.808799028396606445e+00 -4.006865024566650391e+00
1.980000000000000000e+02 3.431512069702148438e+01 3.503759765625000000e+01 -5.186447620391845703e+00 -2.894567847251892090e-01 -1.642771244049072266e+00 1.024779319763183594e+00
1.990000000000000000e+02 3.494244766235351562e+01 3.594846725463867188e+01 -7.045013904571533203e-01 1.349642515182495117e+00 1.935423314571380615e-01 -9.424498081207275391e-01
2.000000000000000000e+02 3.486840438842773438e+01 3.495864868164062500e+01 -4.835903644561767578e+00 -2.756733894348144531e-01 -1.533473134040832520e+00 9.762582778930664062e-01
2.010000000000000000e+02 3.550379943847656250e+01 3.485796737670898438e+01 -4.250637054443359375e+00 -1.492647528648376465e-01 -1.319970607757568359e+00 7.658054828643798828e-01
2.020000000000000000e+02 3.570498657226562500e+01 3.479184722900390625e+01 -4.073771953582763672e+00 -1.880943775177001953e-01 -1.278559923171997070e+00 7.605056762695312500e-01
2.030000000000000000e+02 3.609072113037109375e+01 3.467293167114257812e+01 -3.657495260238647461e+00 -2.958036661148071289e-01 -1.185989737510681152e+00 6.198523044586181641e-01
2.040000000000000000e+02 3.823272705078125000e+01 3.442204284667968750e+01 1.508663845062255859e+01 1.941648101806640625e+01 1.035093593597412109e+01 3.014817953109741211e+00
2.050000000000000000e+02 3.793281173706054688e+01 3.521540451049804688e+01 4.630091667175292969e+00 2.242723083496093750e+01 8.117196083068847656e+00 3.400103092193603516e+00
2.060000000000000000e+02 3.610032272338867188e+01 3.519061279296875000e+01 8.068150281906127930e-01 2.721160888671875000e+00 1.058392763137817383e+00 -2.970653533935546875e+00
2.070000000000000000e+02 3.617244720458984375e+01 3.487269592285156250e+01 -5.487241148948669434e-01 1.051369547843933105e+00 1.507936269044876099e-01 -1.205886840820312500e+00
2.080000000000000000e+02 3.603989410400390625e+01 3.445011901855468750e+01 -2.486841678619384766e+00 -2.444934546947479248e-01 -8.194004893302917480e-01 4.748092889785766602e-01
2.090000000000000000e+02 3.643838882446289062e+01 3.350461578369140625e+01 8.390239715576171875e+00 7.710067272186279297e+00 4.830091953277587891e+00 8.598507881164550781e+00
2.100000000000000000e+02 3.707454681396484375e+01 3.323181533813476562e+01 4.178068637847900391e+00 2.119531250000000000e+01 7.612014293670654297e+00 8.127515792846679688e+00
2.110000000000000000e+02 3.746446228027343750e+01 3.331155776977539062e+01 5.000827312469482422e+00 2.362511825561523438e+01 8.587783813476562500e+00 3.319985151290893555e+00
2.120000000000000000e+02 3.789376831054687500e+01 3.357183456420898438e+01 8.717229843139648438e+00 2.367058563232421875e+01 9.716344833374023438e+00 -5.530600547790527344e-01
2.130000000000000000e+02 3.486760330200195312e+01 3.463806533813476562e+01 -2.980793714523315430e+00 -1.875199526548385620e-01 -9.504941105842590332e-01 5.503425598144531250e-01
2.140000000000000000e+02 3.422396469116210938e+01 3.458062362670898438e+01 -2.248142957687377930e+00 -2.608820199966430664e-01 -7.527074813842773438e-01 5.039306282997131348e-01
2.150000000000000000e+02 3.785720062255859375e+01 3.323216629028320312e+01 5.088728904724121094e+00 2.226304244995117188e+01 8.205531120300292969e+00 6.354060769081115723e-01
2.160000000000000000e+02 3.716844177246093750e+01 3.300398254394531250e+01 3.509542465209960938e+00 1.983310508728027344e+01 7.002794742584228516e+00 6.451280117034912109e+00
2.170000000000000000e+02 3.816015625000000000e+01 3.405560302734375000e+01 1.386316585540771484e+01 2.049008369445800781e+01 1.030597496032714844e+01 -5.065783262252807617e-01
2.180000000000000000e+02 3.578126144409179688e+01 3.424656677246093750e+01 5.904242396354675293e-01 -1.587285697460174561e-01 1.295087039470672607e-01 6.767252087593078613e-01
2.190000000000000000e+02 3.556975173950195312e+01 3.325146102905273438e+01 5.279847145080566406e+00 2.382778882980346680e+00 2.298787832260131836e+00 4.261498451232910156e+00
2.200000000000000000e+02 3.769062423706054688e+01 3.339663696289062500e+01 6.236168384552001953e+00 2.507038116455078125e+01 9.391964912414550781e+00 9.800681471824645996e-01
2.210000000000000000e+02 3.822746276855468750e+01 3.363456726074218750e+01 1.001968193054199219e+01 1.982719802856445312e+01 8.954064369201660156e+00 -8.915823698043823242e-01
2.220000000000000000e+02 3.684264755249023438e+01 3.319564056396484375e+01 5.417411327362060547e+00 1.638122940063476562e+01 6.539592266082763672e+00 8.171999931335449219e+00
2.230000000000000000e+02 3.808996200561523438e+01 3.388396453857421875e+01 1.300576114654541016e+01 2.093978500366210938e+01 1.018366432189941406e+01 -5.340540409088134766e-01
2.240000000000000000e+02 3.707272720336914062e+01 3.547872924804687500e+01 1.156085133552551270e-01 1.841359329223632812e+01 5.558760643005371094e+00 -5.771060466766357422e+00
2.250000000000000000e+02 3.801528930664062500e+01 3.502265930175781250e+01 7.307871341705322266e+00 2.399976158142089844e+01 9.392290115356445312e+00 5.999104022979736328e+00
2.260000000000000000e+02 3.765576934814453125e+01 3.557510757446289062e+01 9.972279518842697144e-02 2.287253570556640625e+01 6.891677379608154297e+00 3.729102909564971924e-01
2.270000000000000000e+02 3.826843643188476562e+01 3.465591812133789062e+01 1.094412040710449219e+01 1.980641174316406250e+01 9.225159645080566406e+00 3.602530241012573242e+00
2.280000000000000000e+02 3.731760787963867188e+01 3.571147155761718750e+01 -3.835439383983612061e-01 1.809660720825195312e+01 5.313919067382812500e+00 -3.181994676589965820e+00
2.290000000000000000e+02 3.598908996582031250e+01 3.496541976928710938e+01 -9.821563363075256348e-01 6.548129916191101074e-01 -9.820299595594406128e-02 -9.812214970588684082e-01
2.300000000000000000e+02 3.628764724731445312e+01 3.506641006469726562e+01 1.466332554817199707e+00 2.950153827667236328e+00 1.324945926666259766e+00 -3.481072425842285156e+00
2.310000000000000000e+02 3.823266983032226562e+01 3.510950469970703125e+01 6.620250701904296875e+00 2.093632698059082031e+01 8.266973495483398438e+00 5.023431301116943359e+00
2.320000000000000000e+02 3.673359680175781250e+01 3.582484436035156250e+01 4.093367457389831543e-01 1.268088817596435547e+01 3.927067518234252930e+00 -5.821235656738281250e+00
2.330000000000000000e+02 3.577381134033203125e+01 3.579889297485351562e+01 7.037957906723022461e-01 3.362876176834106445e+00 1.220001578330993652e+00 -3.106921195983886719e+00
2.340000000000000000e+02 3.826291275024414062e+01 3.388649749755859375e+01 1.176921558380126953e+01 1.959163093566894531e+01 9.408253669738769531e+00 -6.137375831604003906e-01
2.350000000000000000e+02 3.599807357788085938e+01 3.320051956176757812e+01 6.535071849822998047e+00 4.391561031341552734e+00 3.277989864349365234e+00 6.208317756652832031e+00
2.360000000000000000e+02 3.639376449584960938e+01 3.307320785522460938e+01 6.253657817840576172e+00 9.013537406921386719e+00 4.580158233642578125e+00 7.869942665100097656e+00
2.370000000000000000e+02 3.412999725341796875e+01 3.398794555664062500e+01 1.655549108982086182e-01 3.506945073604583740e-02 6.018730625510215759e-02 3.386055827140808105e-01
2.380000000000000000e+02 3.620016098022460938e+01 3.313142776489257812e+01 6.603203773498535156e+00 6.774562358856201172e+00 4.013329982757568359e+00 7.429232597351074219e+00
2.390000000000000000e+02 3.518441390991210938e+01 3.330118942260742188e+01 4.264994144439697266e+00 1.308812379837036133e+00 1.672142028808593750e+00 2.883664369583129883e+00
2.400000000000000000e+02 3.578202056884765625e+01 3.324047851562500000e+01 5.895770072937011719e+00 3.275074720382690430e+00 2.751253366470336914e+00 5.141331195831298828e+00
2.410000000000000000e+02 3.555927276611328125e+01 3.347383880615234375e+01 5.248750209808349609e+00 1.616661190986633301e+00 2.059623241424560547e+00 3.591461896896362305e+00
2.420000000000000000e+02 3.482192230224609375e+01 3.339733505249023438e+01 3.219026327133178711e+00 6.885394454002380371e-01 1.172269701957702637e+00 1.987407445907592773e+00
2.430000000000000000e+02 3.501027297973632812e+01 3.335060882568359375e+01 3.627948522567749023e+00 8.025591969490051270e-01 1.329152345657348633e+00 2.340225934982299805e+00
2.440000000000000000e+02 3.422603607177734375e+01 3.352361679077148438e+01 1.532765746116638184e+00 2.634209096431732178e-01 5.388559699058532715e-01 1.076037526130676270e+00
2.450000000000000000e+02 3.447457122802734375e+01 3.375831985473632812e+01 1.252002954483032227e+00 1.284625381231307983e-01 4.141396582126617432e-01 9.146429896354675293e-01
2.460000000000000000e+02 3.534852981567382812e+01 3.444067764282226562e+01 -1.739481806755065918e+00 1.273372955620288849e-02 -5.180244445800781250e-01 5.111862421035766602e-01
2.470000000000000000e+02 3.544368362426757812e+01 3.458568572998046875e+01 -2.977381229400634766e+00 -8.618507534265518188e-02 -9.190698862075805664e-01 6.510291099548339844e-01
2.480000000000000000e+02 3.446429443359375000e+01 3.474447631835937500e+01 -3.067422628402709961e+00 -1.336158514022827148e-01 -9.603115916252136230e-01 6.069390773773193359e-01
2.490000000000000000e+02 3.542795562744140625e+01 3.528822708129882812e+01 -1.577432036399841309e+00 6.744188070297241211e-01 -2.709039449691772461e-01 -4.791330099105834961e-01
2.500000000000000000e+02 3.590001678466796875e+01 3.473186492919921875e+01 -3.895726919174194336e+00 2.111278707161545753e-03 -1.168084740638732910e+00 7.180199027061462402e-01
2.510000000000000000e+02 3.534705734252929688e+01 3.584953308105468750e+01 -7.252540439367294312e-02 1.960340619087219238e+00 5.663445591926574707e-01 -1.825240969657897949e+00
2.520000000000000000e+02 3.529174041748046875e+01 3.489780807495117188e+01 -4.456424236297607422e+00 -2.043450325727462769e-01 -1.398230791091918945e+00 7.415337562561035156e-01
2.530000000000000000e+02 3.507946014404296875e+01 3.491910934448242188e+01 -4.691851615905761719e+00 3.020893782377243042e-02 -1.398492813110351562e+00 8.635894060134887695e-01
2.540000000000000000e+02 3.536433792114257812e+01 3.610350036621093750e+01 3.086820840835571289e-01 2.785808324813842773e+00 9.283471703529357910e-01 -2.323345422744750977e+00
2.550000000000000000e+02 3.516521453857421875e+01 3.614624786376953125e+01 2.398472838103771210e-02 2.407156229019165039e+00 7.293422818183898926e-01 -1.904584765434265137e+00
2.560000000000000000e+02 3.611952209472656250e+01 3.596921157836914062e+01 7.414013743400573730e-01 6.289171695709228516e+00 2.109171867370605469e+00 -4.242980957031250000e+00
2.570000000000000000e+02 3.631138992309570312e+01 3.588418197631835938e+01 7.241531610488891602e-01 7.999324321746826172e+00 2.617043256759643555e+00 -4.870762348175048828e+00
2.580000000000000000e+02 3.652834701538085938e+01 3.584179687500000000e+01 7.132523059844970703e-01 9.894405364990234375e+00 3.182297229766845703e+00 -5.604850769042968750e+00
2.590000000000000000e+02 3.672676467895507812e+01 3.558689117431640625e+01 9.033982753753662109e-01 1.232803440093994141e+01 3.969429731369018555e+00 -6.178691387176513672e+00
2.600000000000000000e+02 3.556356430053710938e+01 3.606438064575195312e+01 6.153165698051452637e-01 3.426890611648559570e+00 1.212662100791931152e+00 -2.860836982727050781e+00
2.610000000000000000e+02 3.470870971679687500e+01 3.577457427978515625e+01 -1.484939694404602051e+00 6.107137799263000488e-01 -2.622677683830261230e-01 -2.308437526226043701e-01
2.620000000000000000e+02 3.415329742431640625e+01 3.419491195678710938e+01 -6.949760317802429199e-01 3.697433322668075562e-02 -1.974005103111267090e-01 3.309230208396911621e-01
2.630000000000000000e+02 3.417100524902343750e+01 3.438316726684570312e+01 -1.305557250976562500e+00 -8.934458345174789429e-02 -4.184705615043640137e-01 2.907992005348205566e-01
2.640000000000000000e+02 3.443819046020507812e+01 3.350024032592773438e+01 2.145007848739624023e+00 4.133313298225402832e-01 7.675017714500427246e-01 1.305178642272949219e+00
2.650000000000000000e+02 3.445438385009765625e+01 3.563734054565429688e+01 -2.303646564483642578e+00 8.181157708168029785e-02 -6.665504574775695801e-01 2.571732699871063232e-01
2.660000000000000000e+02 3.449409866333007812e+01 3.585084533691406250e+01 -1.454676985740661621e+00 3.919973671436309814e-01 -3.188038766384124756e-01 -1.310142502188682556e-02
2.670000000000000000e+02 3.463255310058593750e+01 3.344653320312500000e+01 2.589050769805908203e+00 4.772424697875976562e-01 9.198880195617675781e-01 1.625649333000183105e+00
2.680000000000000000e+02 3.427384567260742188e+01 3.374030303955078125e+01 1.155328750610351562e+00 3.071950376033782959e-01 4.387571513652801514e-01 8.250540494918823242e-01
2.690000000000000000e+02 3.516346740722656250e+01 3.437062835693359375e+01 -1.183054447174072266e+00 -6.901370733976364136e-02 -3.756204545497894287e-01 5.600344538688659668e-01
2.700000000000000000e+02 3.594267654418945312e+01 3.362593078613281250e+01 6.302409648895263672e+00 1.753860354423522949e+00 2.416881084442138672e+00 4.341197967529296875e+00
2.710000000000000000e+02 3.459897613525390625e+01 3.443532562255859375e+01 -1.766107320785522461e+00 -1.397526711225509644e-01 -5.717579722404479980e-01 4.189246594905853271e-01
2.720000000000000000e+02 3.441054153442382812e+01 3.451327896118164062e+01 -2.013861417770385742e+00 1.675970479846000671e-02 -5.991305112838745117e-01 4.654428660869598389e-01
2.730000000000000000e+02 3.467504501342773438e+01 3.496911239624023438e+01 -4.945406913757324219e+00 -1.393253952264785767e-01 -1.525419712066650391e+00 9.504866600036621094e-01
2.740000000000000000e+02 3.476941299438476562e+01 3.623339080810546875e+01 -4.287025034427642822e-01 1.477111220359802246e+00 3.145225942134857178e-01 -8.905565738677978516e-01
2.750000000000000000e+02 3.441085815429687500e+01 3.542875671386718750e+01 -2.985540390014648438e+00 6.458370387554168701e-02 -8.762869834899902344e-01 6.839205622673034668e-01
2.760000000000000000e+02 3.467476272583007812e+01 3.554625701904296875e+01 -2.165452957153320312e+00 3.199353814125061035e-01 -5.536552667617797852e-01 2.447371035814285278e-01
2.770000000000000000e+02 3.527678680419921875e+01 3.517094802856445312e+01 -2.579456329345703125e+00 2.053276449441909790e-01 -7.122386097908020020e-01 2.188769727945327759e-01
2.780000000000000000e+02 3.604417037963867188e+01 3.401559829711914062e+01 4.718277931213378906e+00 3.962007761001586914e-01 1.534343600273132324e+00 2.192697763442993164e+00
2.790000000000000000e+02 3.576179504394531250e+01 3.350281143188476562e+01 6.001301288604736328e+00 2.158646821975708008e+00 2.447984457015991211e+00 4.259317398071289062e+00
2.800000000000000000e+02 3.662335586547851562e+01 3.532704544067382812e+01 1.843299746513366699e+00 1.015905570983886719e+01 3.600706577301025391e+00 -6.660632133483886719e+00
2.810000000000000000e+02 3.488623046875000000e+01 3.547393417358398438e+01 -2.096015930175781250e+00 2.772524952888488770e-01 -5.456290245056152344e-01 8.589700795710086823e-03
2.820000000000000000e+02 3.472108078002929688e+01 3.409586715698242188e+01 7.003043591976165771e-02 1.594334468245506287e-02 2.579213306307792664e-02 6.111189723014831543e-01
2.830000000000000000e+02 3.471438598632812500e+01 3.382180404663085938e+01 1.574296474456787109e+00 1.465318053960800171e-01 5.162484645843505859e-01 9.254550337791442871e-01
2.840000000000000000e+02 3.559914016723632812e+01 3.515570831298828125e+01 -1.652995824813842773e+00 5.078852176666259766e-01 -3.435331583023071289e-01 -6.430784463882446289e-01
2.850000000000000000e+02 3.599122619628906250e+01 3.547534942626953125e+01 9.148916602134704590e-01 3.450598955154418945e+00 1.309647202491760254e+00 -3.290491342544555664e+00
2.860000000000000000e+02 3.511351013183593750e+01 3.566086578369140625e+01 -1.052322268486022949e+00 1.030365705490112305e+00 -6.586953531950712204e-03 -8.491693139076232910e-01
2.870000000000000000e+02 3.508504867553710938e+01 3.542411041259765625e+01 -1.770957112312316895e+00 5.605488419532775879e-01 -3.631224930286407471e-01 -2.336108982563018799e-01
2.880000000000000000e+02 3.544432067871093750e+01 3.407651901245117188e+01 1.509594559669494629e+00 1.092078164219856262e-01 4.856407344341278076e-01 9.902412295341491699e-01
2.890000000000000000e+02 3.635052871704101562e+01 3.546171951293945312e+01 1.446252465248107910e+00 6.508084297180175781e+00 2.386301040649414062e+00 -5.145559787750244141e+00
2.900000000000000000e+02 3.431928634643554688e+01 3.429779434204101562e+01 -9.458433389663696289e-01 -9.091882407665252686e-02 -3.110286593437194824e-01 4.022625386714935303e-01
2.910000000000000000e+02 3.537177658081054688e+01 3.349005889892578125e+01 4.161859989166259766e+00 9.077186584472656250e-01 1.520873546600341797e+00 2.760822772979736328e+00
2.920000000000000000e+02 3.493389892578125000e+01 3.406536483764648438e+01 4.491820037364959717e-01 -1.372390426695346832e-02 1.306374222040176392e-01 7.153382301330566406e-01
2.930000000000000000e+02 3.571484756469726562e+01 3.541053009033203125e+01 -4.247304797172546387e-02 1.904377460479736328e+00 5.585713386535644531e-01 -1.895630478858947754e+00
2.940000000000000000e+02 3.529814147949218750e+01 3.384473419189453125e+01 2.648098230361938477e+00 2.556770443916320801e-01 8.711325526237487793e-01 1.501086115837097168e+00
2.950000000000000000e+02 3.496743011474609375e+01 3.618919372558593750e+01 -2.306426912546157837e-01 2.171002864837646484e+00 5.821080803871154785e-01 -1.303575396537780762e+00
2.960000000000000000e+02 3.474081039428710938e+01 3.600197601318359375e+01 -7.848515510559082031e-01 1.137767553329467773e+00 1.058747917413711548e-01 -6.110765933990478516e-01
2.970000000000000000e+02 3.514246749877929688e+01 3.589941024780273438e+01 -4.384908676147460938e-01 1.742032051086425781e+00 3.910623490810394287e-01 -1.292919635772705078e+00
2.980000000000000000e+02 3.576052856445312500e+01 3.603739166259765625e+01 6.794316768646240234e-01 4.388110637664794922e+00 1.520262598991394043e+00 -3.366873741149902344e+00
2.990000000000000000e+02 3.594840621948242188e+01 3.602212142944335938e+01 6.934040188789367676e-01 5.073693275451660156e+00 1.730129122734069824e+00 -3.807257175445556641e+00
3.000000000000000000e+02 3.602726364135742188e+01 3.566025924682617188e+01 1.129718899726867676e+00 4.765900135040283203e+00 1.768685698509216309e+00 -4.058097839355468750e+00
3.010000000000000000e+02 3.491413497924804688e+01 3.571232223510742188e+01 -1.212455987930297852e+00 8.923397064208984375e-01 -9.603486210107803345e-02 -4.771633148193359375e-01
3.020000000000000000e+02 3.436090850830078125e+01 3.523166656494140625e+01 -3.853830337524414062e+00 -3.624962270259857178e-01 -1.264897942543029785e+00 7.821873426437377930e-01
3.030000000000000000e+02 3.450075149536132812e+01 3.498454284667968750e+01 -5.084185600280761719e+00 -1.913775354623794556e-01 -1.582668900489807129e+00 1.078215956687927246e+00
3.040000000000000000e+02 3.466025924682617188e+01 3.469321823120117188e+01 -3.004259347915649414e+00 -9.709884971380233765e-02 -9.304074645042419434e-01 6.099781394004821777e-01
3.050000000000000000e+02 3.527452087402343750e+01 3.461508178710937500e+01 -3.094596624374389648e+00 -6.114652007818222046e-02 -9.467229247093200684e-01 5.525524616241455078e-01
3.060000000000000000e+02 3.500612640380859375e+01 3.426155471801757812e+01 -6.237842440605163574e-01 -3.995226323604583740e-02 -1.991209536790847778e-01 5.715150237083435059e-01
3.070000000000000000e+02 3.480298995971679688e+01 3.359477615356445312e+01 2.475979328155517578e+00 4.490526914596557617e-01 8.775095939636230469e-01 1.587037444114685059e+00
3.080000000000000000e+02 3.537252426147460938e+01 3.327791976928710938e+01 4.803070545196533203e+00 1.631503105163574219e+00 1.930372118949890137e+00 3.507128953933715820e+00
3.090000000000000000e+02 3.613541793823242188e+01 3.380577087402343750e+01 7.223937988281250000e+00 1.851132750511169434e+00 2.722521066665649414e+00 4.391664505004882812e+00
3.100000000000000000e+02 3.572360229492187500e+01 3.373670959472656250e+01 4.721611976623535156e+00 8.223478794097900391e-01 1.663187861442565918e+00 2.748706102371215820e+00
3.110000000000000000e+02 3.602487182617187500e+01 3.423681259155273438e+01 1.403781056404113770e+00 -5.400391295552253723e-02 4.049331247806549072e-01 9.124521017074584961e-01
3.120000000000000000e+02 3.611857986450195312e+01 3.345408630371093750e+01 7.381102085113525391e+00 4.173677444458007812e+00 3.466433763504028320e+00 6.378011226654052734e+00
3.130000000000000000e+02 3.649287414550781250e+01 3.325554275512695312e+01 6.900505542755126953e+00 1.025286674499511719e+01 5.146011829376220703e+00 8.838393211364746094e+00
3.140000000000000000e+02 3.678820800781250000e+01 3.299145889282226562e+01 5.296136856079101562e+00 1.361517238616943359e+01 5.673392772674560547e+00 7.967691421508789062e+00
3.150000000000000000e+02 3.574275970458984375e+01 3.399277114868164062e+01 3.329967975616455078e+00 1.810090988874435425e-01 1.053293108940124512e+00 1.686506867408752441e+00
3.160000000000000000e+02 3.622360992431640625e+01 3.563154983520507812e+01 1.285875439643859863e+00 6.344825744628906250e+00 2.289210319519042969e+00 -4.754158020019531250e+00
3.170000000000000000e+02 3.654101181030273438e+01 3.555862045288085938e+01 1.251813173294067383e+00 9.866229057312011719e+00 3.335412740707397461e+00 -6.008326053619384766e+00
3.180000000000000000e+02 3.579645919799804688e+01 3.505421066284179688e+01 -1.445703268051147461e+00 8.005908131599426270e-01 -1.935337632894515991e-01 -7.745075821876525879e-01
3.190000000000000000e+02 3.507623291015625000e+01 3.518384933471679688e+01 -3.192598819732666016e+00 -3.107977285981178284e-02 -9.671035408973693848e-01 4.631761014461517334e-01
3.200000000000000000e+02 3.660623168945312500e+01 3.340278625488281250e+01 7.656441688537597656e+00 1.110496425628662109e+01 5.628421783447265625e+00 9.557837486267089844e+00
3.210000000000000000e+02 3.677017211914062500e+01 3.333118820190429688e+01 6.428915023803710938e+00 1.572307777404785156e+01 6.645597934722900391e+00 9.305887222290039062e+00
3.220000000000000000e+02 3.644459915161132812e+01 3.522528457641601562e+01 2.156940221786499023e+00 6.605720520019531250e+00 2.628798246383666992e+00 -5.491787910461425781e+00
3.230000000000000000e+02 3.689441680908203125e+01 3.553754043579101562e+01 3.250174820423126221e-01 1.575445556640625000e+01 4.823842048645019531e+00 -6.153054237365722656e+00
3.240000000000000000e+02 3.692855834960937500e+01 3.578910446166992188e+01 1.836281567811965942e-01 1.550074577331542969e+01 4.705312252044677734e+00 -5.518966674804687500e+00
3.250000000000000000e+02 3.727012634277343750e+01 3.546129608154296875e+01 3.383130133152008057e-01 2.179316520690917969e+01 6.639443397521972656e+00 -2.996735572814941406e+00
3.260000000000000000e+02 3.679219818115234375e+01 3.538898468017578125e+01 1.063852667808532715e+00 1.424454021453857422e+01 4.592517852783203125e+00 -6.994008064270019531e+00
3.270000000000000000e+02 3.835312271118164062e+01 3.410822677612304688e+01 1.210100555419921875e+01 1.912407493591308594e+01 9.367524147033691406e+00 7.439731359481811523e-01
3.280000000000000000e+02 3.800296401977539062e+01 3.373374557495117188e+01 9.560414314270019531e+00 2.224757957458496094e+01 9.542398452758789062e+00 -9.834781885147094727e-01
3.290000000000000000e+02 3.820422363281250000e+01 3.422152709960937500e+01 1.373170757293701172e+01 1.979070472717285156e+01 1.005672359466552734e+01 2.184137344360351562e+00
3.300000000000000000e+02 3.531462097167968750e+01 3.560623931884765625e+01 -7.974795699119567871e-01 1.359432220458984375e+00 1.685858070850372314e-01 -1.091074824333190918e+00
3.310000000000000000e+02 3.552067565917968750e+01 3.553116607666015625e+01 -3.679254949092864990e-01 1.521489500999450684e+00 3.460691869258880615e-01 -1.681285977363586426e+00
3.320000000000000000e+02 3.553765487670898438e+01 3.431230926513671875e+01 -4.530320167541503906e-01 -3.396964818239212036e-02 -1.461005061864852905e-01 6.350355744361877441e-01
3.330000000000000000e+02 3.590066909790039062e+01 3.528302383422851562e+01 1.798733621835708618e-01 1.924433588981628418e+00 6.312921047210693359e-01 -2.316335678100585938e+00
3.340000000000000000e+02 3.747580718994140625e+01 3.313021469116210938e+01 4.217948913574218750e+00 2.126614570617675781e+01 7.645228385925292969e+00 4.035528182983398438e+00
3.350000000000000000e+02 3.449380111694335938e+01 3.417023468017578125e+01 -3.434066474437713623e-01 -3.903088718652725220e-02 -1.147312670946121216e-01 4.088021814823150635e-01
3.360000000000000000e+02 3.480740356445312500e+01 3.436191177368164062e+01 -1.267586469650268555e+00 -1.152088493108749390e-01 -4.148386120796203613e-01 4.246431291103363037e-01
3.370000000000000000e+02 3.495001983642578125e+01 3.387761306762695312e+01 1.622580051422119141e+00 2.838362194597721100e-02 4.952890872955322266e-01 9.962397217750549316e-01
3.380000000000000000e+02 3.584865188598632812e+01 3.559121322631835938e+01 5.658826231956481934e-01 2.979355335235595703e+00 1.063571453094482422e+00 -2.915912389755249023e+00
3.390000000000000000e+02 3.616864776611328125e+01 3.541561126708984375e+01 1.311059117317199707e+00 4.208814144134521484e+00 1.655961990356445312e+00 -4.123700141906738281e+00
3.400000000000000000e+02 3.526873016357421875e+01 3.538438415527343750e+01 -1.575700521469116211e+00 6.834858655929565430e-01 -2.676644027233123779e-01 -6.272129416465759277e-01
3.410000000000000000e+02 3.486325454711914062e+01 3.522723770141601562e+01 -3.312672615051269531e+00 1.265167295932769775e-01 -9.558467864990234375e-01 5.456641912460327148e-01
3.420000000000000000e+02 3.547465515136718750e+01 3.366764450073242188e+01 4.164726257324218750e+00 6.789180636405944824e-01 1.453093290328979492e+00 2.367948055267333984e+00
3.430000000000000000e+02 3.505853271484375000e+01 3.368502044677734375e+01 2.872326135635375977e+00 3.653807044029235840e-01 9.713120460510253906e-01 1.675979137420654297e+00
3.440000000000000000e+02 3.511033630371093750e+01 3.398983383178710938e+01 1.210210084915161133e+00 7.209045812487602234e-03 3.652257323265075684e-01 8.735644817352294922e-01
3.450000000000000000e+02 3.520124053955078125e+01 3.417021942138671875e+01 3.359119594097137451e-01 -1.792499423027038574e-02 9.539608657360076904e-02 6.978790760040283203e-01
3.460000000000000000e+02 3.403559494018554688e+01 3.533012390136718750e+01 -3.714667320251464844e+00 -1.665392331779003143e-02 -1.119396328926086426e+00 9.383385181427001953e-01
3.470000000000000000e+02 3.308315658569335938e+01 3.538624572753906250e+01 -4.047539234161376953e+00 -1.181041523814201355e-01 -1.249693036079406738e+00 9.627262353897094727e-01
3.480000000000000000e+02 3.423756027221679688e+01 3.593879699707031250e+01 -1.427016139030456543e+00 3.505578339099884033e-01 -3.229374885559082031e-01 1.143199354410171509e-01
3.490000000000000000e+02 3.244155883789062500e+01 3.649969100952148438e+01 -1.543009519577026367e+00 -9.797521680593490601e-02 -4.922954142093658447e-01 7.023831605911254883e-01
3.500000000000000000e+02 3.424242782592773438e+01 3.634914779663085938e+01 -7.062155008316040039e-01 6.126836538314819336e-01 -2.805955521762371063e-02 -2.810195088386535645e-01
3.510000000000000000e+02 3.416236114501953125e+01 3.575914764404296875e+01 -2.207612514495849609e+00 1.851984560489654541e-01 -6.067242026329040527e-01 4.241099953651428223e-01
3.520000000000000000e+02 3.397794723510742188e+01 3.625676345825195312e+01 -1.094617962837219238e+00 4.165555238723754883e-01 -2.034187167882919312e-01 -1.683903858065605164e-02
3.530000000000000000e+02 3.179748344421386719e+01 3.655623626708984375e+01 -1.580388784408569336e+00 -3.614354729652404785e-01 -5.825473070144653320e-01 7.551301717758178711e-01
3.540000000000000000e+02 3.169977760314941406e+01 3.582123565673828125e+01 -2.969163894653320312e+00 -1.578553915023803711e-01 -9.381057620048522949e-01 8.134517669677734375e-01
3.550000000000000000e+02 3.267118072509765625e+01 3.598502349853515625e+01 -2.514107465744018555e+00 -1.855542212724685669e-01 -8.098984956741333008e-01 8.480693697929382324e-01
3.560000000000000000e+02 3.360902786254882812e+01 3.535334014892578125e+01 -4.149861335754394531e+00 -3.906994760036468506e-01 -1.362168192863464355e+00 9.671419262886047363e-01
3.570000000000000000e+02 3.360127258300781250e+01 3.566730499267578125e+01 -2.943751335144042969e+00 -1.462162584066390991e-01 -9.269902706146240234e-01 7.606717348098754883e-01
3.580000000000000000e+02 3.396004104614257812e+01 3.597775650024414062e+01 -1.828451871871948242e+00 2.172796726226806641e-01 -4.833516478538513184e-01 2.943154871463775635e-01
3.590000000000000000e+02 3.392707061767578125e+01 3.512765884399414062e+01 -4.816770076751708984e+00 -1.878944337368011475e-01 -1.501399278640747070e+00 1.089215517044067383e+00
3.600000000000000000e+02 3.407278442382812500e+01 3.555757522583007812e+01 -2.968460321426391602e+00 -7.769115269184112549e-02 -9.138454198837280273e-01 6.586363911628723145e-01
3.610000000000000000e+02 3.427102661132812500e+01 3.613337707519531250e+01 -1.143972992897033691e+00 4.502620100975036621e-01 -2.081132978200912476e-01 -8.984162658452987671e-02
3.620000000000000000e+02 3.357407379150390625e+01 3.639710998535156250e+01 -1.115269899368286133e+00 3.145475983619689941e-01 -2.402166873216629028e-01 2.814349234104156494e-01
3.630000000000000000e+02 3.311468124389648438e+01 3.574425506591796875e+01 -3.072728872299194336e+00 -1.857523620128631592e-01 -9.775444269180297852e-01 8.316752314567565918e-01
3.640000000000000000e+02 3.358489227294921875e+01 3.601409912109375000e+01 -2.002488851547241211e+00 -8.270653337240219116e-02 -6.255586147308349609e-01 5.578649640083312988e-01
3.650000000000000000e+02 3.302555465698242188e+01 3.648376083374023438e+01 -1.282743096351623535e+00 -3.716690093278884888e-02 -3.959729969501495361e-01 6.190661191940307617e-01
3.660000000000000000e+02 3.241867446899414062e+01 3.559678649902343750e+01 -3.413229942321777344e+00 -2.793572247028350830e-01 -1.107776165008544922e+00 8.888081908226013184e-01
3.670000000000000000e+02 3.310186004638671875e+01 3.607861709594726562e+01 -1.980927824974060059e+00 -4.247465729713439941e-02 -6.070207357406616211e-01 6.489601135253906250e-01
3.680000000000000000e+02 2.946516418457031250e+01 3.621912765502929688e+01 -1.873443841934204102e+00 -1.712392866611480713e-01 -6.134049296379089355e-01 4.576342403888702393e-01
3.690000000000000000e+02 2.958438682556152344e+01 3.694947052001953125e+01 -1.208302140235900879e+00 -1.728274524211883545e-01 -4.143388569355010986e-01 5.823876261711120605e-01
3.700000000000000000e+02 2.872264671325683594e+01 3.634394836425781250e+01 -1.615309000015258789e+00 -4.968297481536865234e-02 -4.994975924491882324e-01 3.980794250965118408e-01
3.710000000000000000e+02 3.020768547058105469e+01 3.609378433227539062e+01 -2.180008649826049805e+00 -7.312136143445968628e-02 -6.759390234947204590e-01 5.470720529556274414e-01
3.720000000000000000e+02 3.095018768310546875e+01 3.596792221069335938e+01 -2.557775259017944336e+00 -2.599688768386840820e-01 -8.453232645988464355e-01 6.477878093719482422e-01
3.730000000000000000e+02 3.108069419860839844e+01 3.669636154174804688e+01 -1.482971787452697754e+00 -2.508668005466461182e-01 -5.201515555381774902e-01 7.065503001213073730e-01
3.740000000000000000e+02 2.883622932434082031e+01 3.707524490356445312e+01 -1.018004059791564941e+00 -2.240164577960968018e-01 -3.726061582565307617e-01 5.202522873878479004e-01
3.750000000000000000e+02 3.033255004882812500e+01 3.682317352294921875e+01 -1.374758005142211914e+00 -2.809065282344818115e-01 -4.966993331909179688e-01 6.665808558464050293e-01
3.760000000000000000e+02 2.647223281860351562e+01 3.666142654418945312e+01 -8.110260367393493652e-01 -2.349100261926651001e-02 -2.503550946712493896e-01 2.350161820650100708e-01
3.770000000000000000e+02 2.572040748596191406e+01 3.676027679443359375e+01 -6.191738247871398926e-01 -9.988146275281906128e-02 -2.157165855169296265e-01 1.552280336618423462e-01
3.780000000000000000e+02 2.731099891662597656e+01 3.729562377929687500e+01 -6.543570756912231445e-01 -2.145014703273773193e-01 -2.606575787067413330e-01 5.126594305038452148e-01
3.790000000000000000e+02 2.722403526306152344e+01 3.656066131591796875e+01 -1.049183249473571777e+00 -6.917916238307952881e-02 -3.355087041854858398e-01 2.547909319400787354e-01
3.800000000000000000e+02 2.797564125061035156e+01 3.645804595947265625e+01 -1.323241949081420898e+00 -1.071116328239440918e-01 -4.291060566902160645e-01 3.481467962265014648e-01
3.810000000000000000e+02 2.807846832275390625e+01 3.719087982177734375e+01 -8.957896232604980469e-01 -6.938949227333068848e-02 -2.895537316799163818e-01 4.824598729610443115e-01
3.820000000000000000e+02 2.577564430236816406e+01 3.749948883056640625e+01 -5.031377673149108887e-01 -9.203323163092136383e-03 -1.537023335695266724e-01 3.063125908374786377e-01
3.830000000000000000e+02 2.654333496093750000e+01 3.739851379394531250e+01 -5.388454198837280273e-01 -1.818849295377731323e-01 -2.162190973758697510e-01 2.593343853950500488e-01
3.840000000000000000e+02 2.340743637084960938e+01 3.754123687744140625e+01 -1.294454038143157959e-01 -8.263896405696868896e-02 -6.362531334161758423e-02 1.216442659497261047e-01
3.850000000000000000e+02 2.266618919372558594e+01 3.679620742797851562e+01 -9.709495306015014648e-02 -4.369359835982322693e-02 -4.223656654357910156e-02 2.954177185893058777e-02
3.860000000000000000e+02 2.419788742065429688e+01 3.680555725097656250e+01 -2.740342617034912109e-01 -5.432064831256866455e-02 -9.850647300481796265e-02 6.204941496253013611e-02
3.870000000000000000e+02 2.496211051940917969e+01 3.680892944335937500e+01 -4.430199861526489258e-01 1.806532032787799835e-02 -1.274864077568054199e-01 1.031617820262908936e-01
3.880000000000000000e+02 2.499495697021484375e+01 3.754912567138671875e+01 -3.403318822383880615e-01 -1.689862608909606934e-01 -1.527954339981079102e-01 2.680913209915161133e-01
3.890000000000000000e+02 2.261228370666503906e+01 3.753591537475585938e+01 -8.564548939466476440e-02 -4.054396878927946091e-03 -2.690996602177619934e-02 5.428565666079521179e-02
3.900000000000000000e+02 2.343242454528808594e+01 3.680136489868164062e+01 -1.689621955156326294e-01 3.168871626257896423e-02 -4.118204116821289062e-02 3.964112699031829834e-02
3.910000000000000000e+02 2.420181655883789062e+01 3.754558944702148438e+01 -2.264943867921829224e-01 -3.245126688852906227e-03 -6.892184913158416748e-02 1.706655770540237427e-01
3.920000000000000000e+02 1.998039245605468750e+01 3.692026138305664062e+01 -9.259764105081558228e-03 2.318066917359828949e-02 4.176271613687276840e-03 9.089058265089988708e-03
3.930000000000000000e+02 2.062745285034179688e+01 3.732268142700195312e+01 -1.279657799750566483e-02 -1.935351081192493439e-02 -9.645026177167892456e-03 2.834844216704368591e-02
3.940000000000000000e+02 2.113145446777343750e+01 3.686664581298828125e+01 -3.431469202041625977e-02 -1.894440129399299622e-02 -1.597772724926471710e-02 -6.314125494100153446e-04
3.950000000000000000e+02 2.021580696105957031e+01 3.715901565551757812e+01 -1.985334418714046478e-02 9.461081586778163910e-03 -3.117678919807076454e-03 1.488703396171331406e-02
3.960000000000000000e+02 2.186282539367675781e+01 3.673282623291015625e+01 -3.990778326988220215e-02 2.690158225595951080e-02 -3.901859978213906288e-03 1.227240078151226044e-02
3.970000000000000000e+02 2.186202239990234375e+01 3.748466491699218750e+01 -7.520584762096405029e-02 -2.833361737430095673e-02 -3.106183931231498718e-02 4.926405474543571472e-02
3.980000000000000000e+02 2.119230079650878906e+01 3.743341445922851562e+01 -3.024942055344581604e-02 3.097637090831995010e-03 -8.145535364747047424e-03 1.221195794641971588e-02
3.990000000000000000e+02 2.068652153015136719e+01 3.649208450317382812e+01 -1.179269608110189438e-02 -2.984642982482910156e-02 -1.249173842370510101e-02 4.211433231830596924e-03
4.000000000000000000e+02 2.102560424804687500e+01 3.579481887817382812e+01 -9.326954372227191925e-03 -7.615838665515184402e-03 -5.082837771624326706e-03 -1.750712096691131592e-02
4.010000000000000000e+02 2.197462081909179688e+01 3.519912338256835938e+01 -7.974194735288619995e-02 -4.979648441076278687e-02 -3.886152803897857666e-02 -1.084471866488456726e-01
4.020000000000000000e+02 2.189435958862304688e+01 3.593660354614257812e+01 -6.467600911855697632e-02 -2.070718258619308472e-02 -2.561495639383792877e-02 -3.951485082507133484e-02
4.030000000000000000e+02 2.057264900207519531e+01 3.514139175415039062e+01 -1.334199449047446251e-03 -2.304247766733169556e-02 -7.313003297895193100e-03 7.041029748506844044e-04
4.040000000000000000e+02 2.112965202331542969e+01 3.506163787841796875e+01 -2.917185612022876740e-02 -7.465896755456924438e-02 -3.114924579858779907e-02 -5.667905509471893311e-02
4.050000000000000000e+02 2.112402343750000000e+01 3.338136672973632812e+01 -2.218095213174819946e-02 -2.509698569774627686e-01 -8.194524049758911133e-02 -1.094547510147094727e-01
4.060000000000000000e+02 2.202550697326660156e+01 3.431392288208007812e+01 -6.852189451456069946e-02 -1.086509376764297485e-01 -5.315184965729713440e-02 -1.662870049476623535e-01
4.070000000000000000e+02 2.546498870849609375e+01 3.342704010009765625e+01 -1.693955808877944946e-01 5.859187617897987366e-02 -3.324111178517341614e-02 -3.500039279460906982e-01
4.080000000000000000e+02 2.698503494262695312e+01 3.426651763916015625e+01 -4.936448335647583008e-01 1.010285317897796631e-01 -1.177848875522613525e-01 -2.655950784683227539e-01
4.090000000000000000e+02 2.201380348205566406e+01 3.331087875366210938e+01 -3.127536550164222717e-02 -2.188703268766403198e-01 -7.504370808601379395e-02 -2.183040529489517212e-01
4.100000000000000000e+02 2.098745346069335938e+01 2.546215820312500000e+01 1.441201660782098770e-02 -9.141566157341003418e-01 -2.699233889579772949e-01 5.066756904125213623e-02
4.110000000000000000e+02 2.594278144836425781e+01 1.623104095458984375e+01 -5.919086188077926636e-02 2.626204967498779297e+00 7.701042294502258301e-01 1.023494958877563477e+00
4.120000000000000000e+02 3.374189758300781250e+01 1.179775238037109375e+01 -5.208889245986938477e-01 5.444667339324951172e+00 1.477133512496948242e+00 1.187887191772460938e+00
4.130000000000000000e+02 3.902413177490234375e+01 2.026006698608398438e+00 -5.661879777908325195e-01 6.145137786865234375e+00 1.673684835433959961e+00 5.030176043510437012e-01
4.140000000000000000e+02 4.888459014892578125e+01 -2.096379995346069336e+00 -5.615979433059692383e-01 7.064662933349609375e+00 1.950919508934020996e+00 -4.904089495539665222e-02
4.150000000000000000e+02 5.781881332397460938e+01 -1.180729770660400391e+01 -2.800103127956390381e-01 7.423754215240478516e+00 2.143123149871826172e+00 -2.120668888092041016e-01
4.160000000000000000e+02 6.456407928466796875e+01 -1.521459770202636719e+01 -1.453456729650497437e-01 7.871543884277343750e+00 2.317859411239624023e+00 -2.087990939617156982e-01
4.170000000000000000e+02 7.047200775146484375e+01 -2.361042976379394531e+01 -4.367367550730705261e-02 8.371597290039062500e+00 2.498377084732055664e+00 -9.924932569265365601e-02
4.180000000000000000e+02 7.791535949707031250e+01 -3.040893363952636719e+01 -3.408424556255340576e-03 9.109624862670898438e+00 2.731864929199218750e+00 -1.534195058047771454e-02
4.190000000000000000e+02 7.931955718994140625e+01 -2.638309288024902344e+01 -3.908939834218472242e-04 9.222782135009765625e+00 2.766717195510864258e+00 -9.213110432028770447e-03
4.200000000000000000e+02 7.802292633056640625e+01 -2.341387939453125000e+01 -2.158375922590494156e-03 9.065318107604980469e+00 2.718947887420654297e+00 -2.745845168828964233e-02
4.210000000000000000e+02 7.935276031494140625e+01 -2.220830345153808594e+01 -6.501559983007609844e-04 9.183257102966308594e+00 2.754782199859619141e+00 -1.363548915833234787e-02
4.220000000000000000e+02 7.283514404296875000e+01 -1.251888561248779297e+01 -4.593058302998542786e-02 8.438743591308593750e+00 2.517843961715698242e+00 -1.785380095243453979e-01
4.230000000000000000e+02 6.668115997314453125e+01 -6.811282634735107422e+00 -1.780611723661422729e-01 7.975110054016113281e+00 2.339114665985107422e+00 -3.546297848224639893e-01
4.240000000000000000e+02 5.969466018676757812e+01 1.830415487289428711e+00 -4.294047057628631592e-01 7.769691467285156250e+00 2.202085971832275391e+00 -5.294194221496582031e-01
4.250000000000000000e+02 5.341016006469726562e+01 1.106726551055908203e+01 -6.405050158500671387e-01 8.059394836425781250e+00 2.225666999816894531e+00 -5.770683884620666504e-01
4.260000000000000000e+02 3.919772720336914062e+01 1.817976760864257812e+01 -7.953796386718750000e-01 7.724154949188232422e+00 2.078632593154907227e+00 1.042556881904602051e+00
4.270000000000000000e+02 3.807665634155273438e+01 2.779694366455078125e+01 1.192880421876907349e-01 1.047825908660888672e+01 3.179264068603515625e+00 2.163341760635375977e+00
4.280000000000000000e+02 3.173685455322265625e+01 3.315621948242187500e+01 5.051085948944091797e-01 2.225816994905471802e-01 2.183070778846740723e-01 2.848685681819915771e-01
4.290000000000000000e+02 3.239189529418945312e+01 3.352840423583984375e+01 2.422480136156082153e-01 1.618252694606781006e-01 1.212219819426536560e-01 2.863459885120391846e-01
4.300000000000000000e+02 2.374169158935546875e+01 -3.461308670043945312e+01 1.909984350204467773e-01 3.978905439376831055e+00 1.250971198081970215e+00 3.863282129168510437e-02
4.310000000000000000e+02 1.661562347412109375e+01 -3.861581802368164062e+01 -3.050709962844848633e-01 -4.845858737826347351e-02 -1.060588732361793518e-01 1.287514120340347290e-01
4.320000000000000000e+02 1.882946586608886719e+01 -3.915597915649414062e+01 -3.305975198745727539e-01 2.275082588195800781e+00 5.833455324172973633e-01 6.988745331764221191e-01
4.330000000000000000e+02 1.453709506988525391e+01 -3.647168731689453125e+01 -8.348605781793594360e-02 -6.275649368762969971e-02 -4.387276619672775269e-02 4.043018445372581482e-02
4.340000000000000000e+02 1.536485195159912109e+01 -3.759600448608398438e+01 -2.140728086233139038e-01 -5.098763480782508850e-02 -7.951813191175460815e-02 8.229050785303115845e-02
4.350000000000000000e+02 1.293502426147460938e+01 -3.139255142211914062e+01 -8.596027269959449768e-03 -5.618528462946414948e-03 -4.264366813004016876e-03 5.212998948991298676e-03
4.360000000000000000e+02 5.886855125427246094e-01 -2.482475662231445312e+01 -5.893993191421031952e-03 1.043840195052325726e-03 -1.455046003684401512e-03 -3.121909976471215487e-04
4.370000000000000000e+02 6.769412755966186523e-01 -3.042698478698730469e+01 -5.769218318164348602e-03 -1.142486580647528172e-04 -1.765040098689496517e-03 -4.486167454160749912e-04
4.380000000000000000e+02 7.580891847610473633e-01 -3.186019134521484375e+01 3.849484724923968315e-03 -2.670113695785403252e-03 3.538113378453999758e-04 -1.895228517241775990e-03
4.390000000000000000e+02 6.226580142974853516e-01 -3.734194564819335938e+01 1.520832069218158722e-02 -1.611852832138538361e-02 -2.730623818933963776e-04 4.663376021198928356e-04
4.400000000000000000e+02 8.946618080139160156e+00 -3.933877182006835938e+01 2.934053353965282440e-02 2.028782106935977936e-02 1.488850638270378113e-02 -3.947881981730461121e-02
4.410000000000000000e+02 1.211783313751220703e+01 -4.143655776977539062e+01 1.393607556819915771e-01 3.963499516248703003e-02 5.369872599840164185e-02 -2.126327715814113617e-02
4.420000000000000000e+02 2.134475135803222656e+01 -3.357675552368164062e+01 1.699641048908233643e-01 4.042884826660156250e+00 1.263854742050170898e+00 2.331070005893707275e-01
4.430000000000000000e+02 1.969427108764648438e+01 -2.799738502502441406e+01 1.390247140079736710e-02 3.802221536636352539e+00 1.144837260246276855e+00 3.439328446984291077e-02
4.440000000000000000e+02 2.117451667785644531e+01 -3.082090950012207031e+01 3.701086621731519699e-03 4.022274971008300781e+00 1.207792878150939941e+00 1.113293915987014771e-01
4.450000000000000000e+02 1.971784782409667969e+01 -3.503681945800781250e+01 1.431138217449188232e-01 4.363625049591064453e+00 1.352021694183349609e+00 3.946026265621185303e-01
4.460000000000000000e+02 1.953060531616210938e+01 -3.644466400146484375e+01 5.175324082374572754e-01 3.966565608978271484e+00 1.345229387283325195e+00 6.889764666557312012e-01
4.470000000000000000e+02 1.974835014343261719e+01 -2.376091766357421875e+01 -4.512865841388702393e-02 3.584819555282592773e+00 1.061907291412353516e+00 8.764510601758956909e-02
4.480000000000000000e+02 1.980475044250488281e+01 -2.091697311401367188e+01 7.747276686131954193e-03 3.657367944717407227e+00 1.099534511566162109e+00 1.065534427762031555e-01
4.490000000000000000e+02 2.138092803955078125e+01 -2.521745872497558594e+01 -4.603042826056480408e-02 3.864134073257446289e+00 1.145431160926818848e+00 1.151517853140830994e-01
4.500000000000000000e+02 2.064308166503906250e+01 -1.256627678871154785e+00 2.047865279018878937e-02 3.475586891174316406e+00 1.048819661140441895e+00 1.878611743450164795e-01
4.510000000000000000e+02 2.034871482849121094e+01 -6.855886936187744141e+00 -2.072257548570632935e-02 3.514768362045288086e+00 1.048213720321655273e+00 9.802247583866119385e-02
4.520000000000000000e+02 2.158821296691894531e+01 -1.095221996307373047e+01 1.576565392315387726e-02 3.946416854858398438e+00 1.188654780387878418e+00 1.645459681749343872e-01
4.530000000000000000e+02 2.883749198913574219e+01 -2.345121574401855469e+01 -7.336960732936859131e-02 4.587348937988281250e+00 1.354193806648254395e+00 1.398977041244506836e-01
4.540000000000000000e+02 4.621509552001953125e+01 -3.678512573242187500e+01 -1.253907382488250732e-01 6.230083465576171875e+00 1.831407785415649414e+00 -4.341383930295705795e-03
4.550000000000000000e+02 4.728473663330078125e+01 -4.056504058837890625e+01 -1.151369586586952209e-01 6.333578586578369141e+00 1.865532398223876953e+00 -5.283645354211330414e-03
4.560000000000000000e+02 5.240457916259765625e+01 -4.061162185668945312e+01 -1.041631102561950684e-01 6.772677421569824219e+00 2.000554323196411133e+00 -4.087027162313461304e-03
4.570000000000000000e+02 6.221058654785156250e+01 -4.094931030273437500e+01 -5.774351209402084351e-02 7.658374786376953125e+00 2.280189514160156250e+00 -6.189848762005567551e-03
4.580000000000000000e+02 5.738006210327148438e+01 -4.089010238647460938e+01 -8.305513113737106323e-02 7.236342430114746094e+00 2.145986318588256836e+00 -9.913024492561817169e-03
4.590000000000000000e+02 5.783608627319335938e+01 -3.072118377685546875e+01 -9.796735644340515137e-02 7.275166511535644531e+00 2.153159856796264648e+00 -5.351662263274192810e-02
4.600000000000000000e+02 6.016031265258789062e+01 -2.063339424133300781e+01 -1.516414582729339600e-01 7.529046058654785156e+00 2.213221311569213867e+00 -1.313447058200836182e-01
4.610000000000000000e+02 5.785230636596679688e+01 -1.673004913330078125e+01 -2.157242000102996826e-01 7.375979423522949219e+00 2.148076534271240234e+00 -1.562799662351608276e-01
4.620000000000000000e+02 5.860096740722656250e+01 -8.898775100708007812e+00 -3.104189634323120117e-01 7.524139404296875000e+00 2.164116144180297852e+00 -2.693443298339843750e-01
4.630000000000000000e+02 4.711528396606445312e+01 -1.087569046020507812e+01 -3.583175837993621826e-01 6.598348617553710938e+00 1.872009277343750000e+00 1.930493861436843872e-02
4.640000000000000000e+02 5.060149383544921875e+01 -4.072964668273925781e+00 -5.023839473724365234e-01 7.116577625274658203e+00 1.984258174896240234e+00 -1.150286346673965454e-01
4.650000000000000000e+02 3.885321044921875000e+01 -5.389355182647705078e+00 -3.869810104370117188e-01 5.845265865325927734e+00 1.637485384941101074e+00 3.251612782478332520e-01
4.660000000000000000e+02 3.407907485961914062e+01 -2.510637521743774414e+00 -3.071379959583282471e-01 5.249675273895263672e+00 1.482761144638061523e+00 4.916725456714630127e-01
4.670000000000000000e+02 2.722963523864746094e+01 -2.088709354400634766e+00 -1.046204268932342529e-01 4.250560283660888672e+00 1.243781924247741699e+00 4.507497549057006836e-01
4.680000000000000000e+02 2.057107543945312500e+01 -2.662137985229492188e+00 5.347594618797302246e-02 3.572104215621948242e+00 1.087674021720886230e+00 2.453762888908386230e-01
4.690000000000000000e+02 2.031245422363281250e+01 -9.668724060058593750e+00 3.602092713117599487e-02 3.877331733703613281e+00 1.174005746841430664e+00 1.232966631650924683e-01
4.700000000000000000e+02 1.995435142517089844e+01 -1.668834686279296875e+01 3.000584198161959648e-03 3.623308181762695312e+00 1.087892651557922363e+00 2.882961034774780273e-01
4.710000000000000000e+02 2.139153861999511719e+01 -1.656957435607910156e+01 -3.074697777628898621e-02 3.883972883224487305e+00 1.155967831611633301e+00 1.669155657291412354e-01
4.720000000000000000e+02 3.737748336791992188e+01 -4.100702285766601562e+01 -1.386139839887619019e-01 5.392401695251464844e+00 1.576136231422424316e+00 -8.282900787889957428e-03
4.730000000000000000e+02 4.226712799072265625e+01 -4.083622741699218750e+01 -1.247879415750503540e-01 5.839506626129150391e+00 1.714415550231933594e+00 -1.005056081339716911e-03
4.740000000000000000e+02 1.327776336669921875e+01 -3.577978134155273438e+01 -5.502481386065483093e-02 -2.147830557078123093e-03 -1.715179346501827240e-02 3.697312995791435242e-02
4.750000000000000000e+02 1.388247871398925781e+01 -3.440499114990234375e+01 2.389649627730250359e-03 -2.220613323152065277e-02 -5.944944918155670166e-03 1.117639336735010147e-02
4.760000000000000000e+02 1.415741920471191406e+01 -3.305408477783203125e+01 -1.096017006784677505e-02 -5.213072989135980606e-03 -4.851973149925470352e-03 5.441849119961261749e-03
4.770000000000000000e+02 1.327939033508300781e+01 -2.620627593994140625e+01 -5.360357463359832764e-03 -4.391325637698173523e-04 -1.739847008138895035e-03 -3.666135307867079973e-04
4.780000000000000000e+02 1.819409012794494629e+00 -1.775760841369628906e+01 -3.015465801581740379e-03 5.306243838276714087e-05 -8.887210278771817684e-04 -1.611562765901908278e-04
4.790000000000000000e+02 6.100670099258422852e-01 -2.342128944396972656e+01 4.986511077731847763e-03 7.779941661283373833e-04 1.729351584799587727e-03 4.506844561547040939e-04
4.800000000000000000e+02 1.443688678741455078e+01 -3.033475685119628906e+01 -8.166063576936721802e-03 9.763922425918281078e-04 -2.156901406124234200e-03 1.666313153691589832e-03
4.810000000000000000e+02 1.320957946777343750e+01 -2.881778335571289062e+01 -6.387844681739807129e-03 -1.374809304252266884e-03 -2.328796079382300377e-03 1.394401420839130878e-03
4.820000000000000000e+02 1.421751022338867188e+01 -2.199889373779296875e+01 -5.096407141536474228e-03 6.386116729117929935e-04 -1.337338704615831375e-03 -1.206666274811141193e-04
4.830000000000000000e+02 1.452075099945068359e+01 -1.347140693664550781e+01 -2.674497896805405617e-03 -1.040569404722191393e-04 -8.335664751939475536e-04 3.580571792554110289e-04
4.840000000000000000e+02 1.462359905242919922e+01 -6.549106121063232422e+00 1.853275927715003490e-03 6.837525870651006699e-05 5.764953675679862499e-04 -1.079961657524108887e-05
4.850000000000000000e+02 1.460419082641601562e+01 -3.861157655715942383e+00 1.351410523056983948e-03 2.547061012592166662e-04 4.818349843844771385e-04 2.938059624284505844e-04
4.860000000000000000e+02 1.442736244201660156e+01 -2.840237617492675781e+00 -1.388881704770028591e-03 -3.452025121077895164e-04 -5.202252650633454323e-04 -6.230204016901552677e-04
4.870000000000000000e+02 1.032658767700195312e+01 -2.604476928710937500e+00 -3.804641310125589371e-04 -2.949909539893269539e-04 -2.026365255005657673e-04 1.533600297989323735e-04
4.880000000000000000e+02 1.351317787170410156e+01 -1.058281707763671875e+01 2.161617390811443329e-03 1.407326344633474946e-04 6.907050264999270439e-04 -2.085601445287466049e-04
4.890000000000000000e+02 1.280303478240966797e+01 -1.869678115844726562e+01 2.629008842632174492e-03 7.189627503976225853e-04 1.004391466267406940e-03 -1.377952285110950470e-03
4.900000000000000000e+02 1.324790859222412109e+01 -2.491850662231445312e+01 5.177469458431005478e-03 1.321597141213715076e-03 1.949719968251883984e-03 4.283529706299304962e-04
4.910000000000000000e+02 1.450183582305908203e+01 -2.620865821838378906e+01 6.438293028622865677e-03 1.718231244012713432e-03 2.446957165375351906e-03 -1.172007541754283011e-04
4.920000000000000000e+02 1.109101295471191406e+01 -1.882417440414428711e+00 -3.994537109974771738e-04 -1.210202535730786622e-04 -1.561421813676133752e-04 2.188870130339637399e-04
4.930000000000000000e+02 4.282654285430908203e+00 -1.900424718856811523e+00 2.900069230236113071e-04 1.629546895856037736e-04 1.358884765068069100e-04 1.137367235060082749e-05
4.940000000000000000e+02 1.670191287994384766e+00 -1.080942630767822266e+01 1.756514771841466427e-03 1.007412865874357522e-04 5.571768269874155521e-04 5.449996024253778160e-05
4.950000000000000000e+02 6.088746190071105957e-01 -1.776567077636718750e+01 2.642994979396462440e-03 1.695872633717954159e-04 8.437746437266469002e-04 5.842911195941269398e-05
4.960000000000000000e+02 2.597538232803344727e+00 -3.747246551513671875e+01 6.023861467838287354e-03 -1.307372376322746277e-02 -2.114958828315138817e-03 -7.529356982558965683e-03
4.970000000000000000e+02 2.156943130493164062e+01 -3.660499572753906250e+01 2.475702315568923950e-01 3.610363960266113281e+00 1.157380223274230957e+00 -2.200603112578392029e-02
4.980000000000000000e+02 2.425822448730468750e+01 -3.649151992797851562e+01 3.024352714419364929e-02 3.987200975418090820e+00 1.205233335494995117e+00 -6.615898013114929199e-02
4.990000000000000000e+02 3.241072463989257812e+01 -3.833591079711914062e+01 -1.313473731279373169e-01 4.915304183959960938e+00 1.435186982154846191e+00 -1.497346721589565277e-02
5.000000000000000000e+02 2.752707290649414062e+01 -3.362142562866210938e+01 3.373157978057861328e-02 4.369580268859863281e+00 1.320993542671203613e+00 2.814242430031299591e-02
5.010000000000000000e+02 1.966854858398437500e+01 -3.079736137390136719e+01 3.532918170094490051e-02 3.948421955108642578e+00 1.195125341415405273e+00 5.165010318160057068e-02
5.020000000000000000e+02 6.159167098999023438e+01 -3.776819992065429688e+01 -6.978648900985717773e-02 7.616463661193847656e+00 2.264003038406372070e+00 -2.204841002821922302e-02
5.030000000000000000e+02 6.386702346801757812e+01 -2.953240776062011719e+01 -7.264015823602676392e-02 7.809880733489990234e+00 2.321172237396240234e+00 -7.926154136657714844e-02
5.040000000000000000e+02 6.349728775024414062e+01 -2.756368446350097656e+01 -9.324960410594940186e-02 7.762131690979003906e+00 2.300664663314819336e+00 -8.325096219778060913e-02
5.050000000000000000e+02 6.519324493408203125e+01 -1.712314605712890625e+01 -1.240746080875396729e-01 7.906280040740966797e+00 2.334661483764648438e+00 -1.820823252201080322e-01
5.060000000000000000e+02 6.707036590576171875e+01 -4.084836196899414062e+01 -3.336276486515998840e-02 8.126570701599121094e+00 2.427962303161621094e+00 -8.570747449994087219e-03
5.070000000000000000e+02 7.173929595947265625e+01 -3.818201828002929688e+01 -1.778666861355304718e-02 8.529361724853515625e+00 2.553472518920898438e+00 -7.992916740477085114e-03
5.080000000000000000e+02 7.230267333984375000e+01 -3.043726539611816406e+01 -1.855273544788360596e-02 8.572525978088378906e+00 2.566191911697387695e+00 -4.603275656700134277e-02
5.090000000000000000e+02 7.172031402587890625e+01 -2.508974647521972656e+01 -3.468516469001770020e-02 8.504014968872070312e+00 2.540799140930175781e+00 -8.142290264368057251e-02
5.100000000000000000e+02 7.796633148193359375e+01 -4.168766784667968750e+01 3.539137169718742371e-02 9.166260719299316406e+00 2.760495662689208984e+00 9.922168217599391937e-03
5.110000000000000000e+02 7.751551818847656250e+01 -3.702591323852539062e+01 -1.807566918432712555e-02 9.099452972412109375e+00 2.724413156509399414e+00 2.831696532666683197e-03
5.120000000000000000e+02 7.925170898437500000e+01 -3.338286209106445312e+01 -1.160219428129494190e-03 9.262719154357910156e+00 2.778467893600463867e+00 -2.984324702993035316e-03
5.130000000000000000e+02 7.809239196777343750e+01 -1.653747940063476562e+01 -3.970647230744361877e-03 8.967136383056640625e+00 2.688949584960937500e+00 -4.661854356527328491e-02
5.140000000000000000e+02 7.935441589355468750e+01 -1.248263740539550781e+01 -1.236295443959534168e-03 8.990797042846679688e+00 2.696868181228637695e+00 -2.665235660970211029e-02
5.150000000000000000e+02 7.194361114501953125e+01 -6.044107437133789062e+00 -7.743541896343231201e-02 8.248103141784667969e+00 2.451200246810913086e+00 -2.876700758934020996e-01
5.160000000000000000e+02 6.139891052246093750e+01 1.044571208953857422e+01 -3.574042022228240967e-01 7.914379119873046875e+00 2.267092466354370117e+00 -8.363474011421203613e-01
5.170000000000000000e+02 4.914039993286132812e+01 1.957558059692382812e+01 -4.471997320652008057e-01 8.831727981567382812e+00 2.515358448028564453e+00 -6.248926520347595215e-01
5.180000000000000000e+02 4.209885406494140625e+01 2.752669525146484375e+01 4.433431029319763184e-01 1.089565658569335938e+01 3.401700019836425781e+00 -9.705382585525512695e-02
5.190000000000000000e+02 3.295689010620117188e+01 3.341071319580078125e+01 7.847391366958618164e-01 2.431789189577102661e-01 3.083754181861877441e-01 4.944311082363128662e-01
5.200000000000000000e+02 7.803485107421875000e+01 -9.570010185241699219e+00 -5.286864936351776123e-03 8.781789779663085938e+00 2.632951021194458008e+00 -7.555230706930160522e-02
5.210000000000000000e+02 7.934980010986328125e+01 -5.501514911651611328e+00 -1.310250838287174702e-03 8.739370346069335938e+00 2.621417999267578125e+00 -3.903616592288017273e-02
5.220000000000000000e+02 6.690172576904296875e+01 9.275688171386718750e+00 -2.081491053104400635e-01 7.789692878723144531e+00 2.274463176727294922e+00 -7.733881473541259766e-01
5.230000000000000000e+02 5.992746353149414062e+01 1.545548915863037109e+01 -2.781848311424255371e-01 8.027500152587890625e+00 2.324794530868530273e+00 -9.759134650230407715e-01
5.240000000000000000e+02 4.569936752319335938e+01 2.326554679870605469e+01 -2.283890992403030396e-01 9.514266014099121094e+00 2.785763025283813477e+00 -4.126628637313842773e-01
5.250000000000000000e+02 4.074710083007812500e+01 3.295502471923828125e+01 4.884273052215576172e+00 1.284306526184082031e+01 5.318201541900634766e+00 -3.271777629852294922e-01
5.260000000000000000e+02 3.921800231933593750e+01 3.475976562500000000e+01 8.633202552795410156e+00 1.529181575775146484e+01 7.177505493164062500e+00 2.733148097991943359e+00
5.270000000000000000e+02 3.892167663574218750e+01 3.332849502563476562e+01 8.012494087219238281e+00 1.659463691711425781e+01 7.382139205932617188e+00 -7.060339450836181641e-01
5.280000000000000000e+02 3.789036560058593750e+01 3.226258850097656250e+01 2.447793006896972656e+00 1.776643180847167969e+01 6.064267635345458984e+00 2.530619621276855469e+00
5.290000000000000000e+02 3.673405456542968750e+01 3.263099288940429688e+01 3.875922203063964844e+00 1.335452175140380859e+01 5.169133186340332031e+00 7.712899684906005859e+00
5.300000000000000000e+02 7.806793212890625000e+01 -2.551730871200561523e+00 -7.215770427137613297e-03 8.498318672180175781e+00 2.547331094741821289e+00 -1.121412962675094604e-01
5.310000000000000000e+02 7.936025238037109375e+01 2.865758419036865234e+00 -9.308623266406357288e-04 8.251566886901855469e+00 2.475190877914428711e+00 -5.760368704795837402e-02
5.320000000000000000e+02 7.283000183105468750e+01 1.019858837127685547e+01 -6.966236233711242676e-02 7.640744686126708984e+00 2.271324872970581055e+00 -5.700444579124450684e-01
5.330000000000000000e+02 6.649599456787109375e+01 1.841875457763671875e+01 -5.223202332854270935e-02 7.581272125244140625e+00 2.258712053298950195e+00 -9.628790020942687988e-01
5.340000000000000000e+02 5.870640182495117188e+01 2.491188049316406250e+01 3.267992436885833740e-01 8.162671089172363281e+00 2.546840906143188477e+00 -1.088224887847900391e+00
5.350000000000000000e+02 4.784243392944335938e+01 3.343407440185546875e+01 2.187387466430664062e+00 9.825951576232910156e+00 3.604001760482788086e+00 -1.457945555448532104e-01
5.360000000000000000e+02 3.521961975097656250e+01 3.638934707641601562e+01 4.119446873664855957e-01 3.163251161575317383e+00 1.072558760643005371e+00 -2.276692152023315430e+00
5.370000000000000000e+02 3.786716461181640625e+01 3.652820587158203125e+01 -9.929615259170532227e-01 1.769687843322753906e+01 5.011174678802490234e+00 -6.792917847633361816e-01
5.380000000000000000e+02 3.869045257568359375e+01 3.540300369262695312e+01 5.113357543945312500e+00 1.788786506652832031e+01 6.900366783142089844e+00 3.774837970733642578e+00
5.390000000000000000e+02 7.807820892333984375e+01 4.405655860900878906e+00 -6.655300967395305634e-03 8.075839042663574219e+00 2.420755147933959961e+00 -1.570639610290527344e-01
5.400000000000000000e+02 7.935909271240234375e+01 8.432500839233398438e+00 -5.883589037694036961e-04 7.788984298706054688e+00 2.336518764495849609e+00 -7.080218940973281860e-02
5.410000000000000000e+02 7.269566345214843750e+01 1.680764579772949219e+01 -3.599430620670318604e-02 7.256190299987792969e+00 2.166058778762817383e+00 -6.686381101608276367e-01
5.420000000000000000e+02 6.559238433837890625e+01 2.154312515258789062e+01 4.870603978633880615e-02 7.557789802551269531e+00 2.281948804855346680e+00 -9.943853020668029785e-01
5.430000000000000000e+02 5.906303405761718750e+01 3.219741821289062500e+01 8.650729060173034668e-01 8.065114974975585938e+00 2.679056406021118164e+00 -7.576602101325988770e-01
5.440000000000000000e+02 5.012526321411132812e+01 3.784808349609375000e+01 1.616150617599487305e+00 9.825139999389648438e+00 3.432387113571166992e+00 1.877041719853878021e-02
5.450000000000000000e+02 4.285558700561523438e+01 3.924319839477539062e+01 4.347426891326904297e-01 1.283534908294677734e+01 3.981027603149414062e+00 1.341986775398254395e+00
5.460000000000000000e+02 7.806764221191406250e+01 1.133434581756591797e+01 -6.971657276153564453e-03 7.502660751342773438e+00 2.248706579208374023e+00 -2.031863927841186523e-01
5.470000000000000000e+02 7.934897613525390625e+01 1.678814888000488281e+01 3.272992616984993219e-04 6.896848201751708984e+00 2.069152593612670898e+00 -8.615281432867050171e-02
5.480000000000000000e+02 7.278543090820312500e+01 2.411467552185058594e+01 4.947204142808914185e-02 6.780700206756591797e+00 2.049051761627197266e+00 -6.575016379356384277e-01
5.490000000000000000e+02 6.269533538818359375e+01 2.752420043945312500e+01 3.843485414981842041e-01 7.689625740051269531e+00 2.422192335128784180e+00 -9.597346782684326172e-01
5.500000000000000000e+02 5.288590621948242188e+01 3.605968856811523438e+01 1.561963558197021484e+00 9.131771087646484375e+00 3.208120346069335938e+00 -2.776288986206054688e-01
5.510000000000000000e+02 4.724111557006835938e+01 4.128356552124023438e+01 1.154405832290649414e+00 1.118727684020996094e+01 3.702504873275756836e+00 1.842698901891708374e-01
5.520000000000000000e+02 7.801710510253906250e+01 1.969406890869140625e+01 -1.706888200715184212e-03 6.653798103332519531e+00 1.995627403259277344e+00 -2.385445982217788696e-01
5.530000000000000000e+02 7.932245635986328125e+01 2.376013755798339844e+01 2.224506111815571785e-03 6.059088706970214844e+00 1.818393945693969727e+00 -8.701437711715698242e-02
5.540000000000000000e+02 7.200012969970703125e+01 3.048677635192871094e+01 1.761520802974700928e-01 6.545000076293945312e+00 2.016345739364624023e+00 -5.547000169754028320e-01
5.550000000000000000e+02 6.284039688110351562e+01 4.091770935058593750e+01 8.182626962661743164e-01 7.564223766326904297e+00 2.514745950698852539e+00 -1.005808413028717041e-01
5.560000000000000000e+02 5.844157028198242188e+01 4.050580215454101562e+01 1.167523264884948730e+00 8.279556274414062500e+00 2.834123849868774414e+00 -1.331586986780166626e-01
5.570000000000000000e+02 7.525433349609375000e+01 2.406881332397460938e+01 2.856564149260520935e-02 6.520133018493652344e+00 1.964609503746032715e+00 -4.866910278797149658e-01
5.580000000000000000e+02 7.929119873046875000e+01 2.934283065795898438e+01 3.776320663746446371e-04 5.470333576202392578e+00 1.641213297843933105e+00 -7.073891907930374146e-02
5.590000000000000000e+02 6.740885925292968750e+01 3.814518737792968750e+01 4.683744907379150391e-01 6.942584037780761719e+00 2.223287582397460938e+00 -2.788821458816528320e-01
5.600000000000000000e+02 7.919443511962890625e+01 3.217595291137695312e+01 4.965985135640949011e-05 5.231922626495361328e+00 1.569591760635375977e+00 -6.523184478282928467e-02
5.610000000000000000e+02 7.916346740722656250e+01 3.747153472900390625e+01 -1.109679788351058960e-02 4.949512958526611328e+00 1.481524825096130371e+00 -1.360723283141851425e-02
5.620000000000000000e+02 7.121728515625000000e+01 3.782707595825195312e+01 2.539809942245483398e-01 6.369147300720214844e+00 1.986938476562500000e+00 -2.559329867362976074e-01
5.630000000000000000e+02 3.488390350341796875e+01 3.655008316040039062e+01 2.280935347080230713e-01 2.647473335266113281e+00 8.626700639724731445e-01 -1.351276159286499023e+00
5.640000000000000000e+02 3.245032501220703125e+01 3.719063568115234375e+01 -4.808928966522216797e-01 -9.991703182458877563e-02 -1.742429882287979126e-01 4.421831965446472168e-01
5.650000000000000000e+02 3.311575698852539062e+01 3.786504364013671875e+01 4.309954643249511719e-01 7.837515473365783691e-01 3.644241094589233398e-01 4.671858623623847961e-02
5.660000000000000000e+02 2.906006813049316406e+01 3.770274353027343750e+01 -6.509970426559448242e-01 -2.050120085477828979e-01 -2.568027079105377197e-01 5.771636366844177246e-01
5.670000000000000000e+02 2.255975914001464844e+01 3.822271728515625000e+01 -8.286818116903305054e-02 -5.800709500908851624e-02 -4.226258397102355957e-02 1.035762056708335876e-01
5.680000000000000000e+02 2.605540466308593750e+01 3.879978942871093750e+01 -2.314606495201587677e-02 -3.580862283706665039e-01 -1.143696829676628113e-01 3.686124980449676514e-01
5.690000000000000000e+02 2.100483894348144531e+01 3.818084335327148438e+01 -4.211347177624702454e-02 -3.024053387343883514e-02 -2.170620113611221313e-02 4.811401665210723877e-02
5.700000000000000000e+02 1.943657684326171875e+01 3.770905685424804688e+01 -9.244716726243495941e-03 1.199624594300985336e-02 8.254590211436152458e-04 -5.010628607124090195e-03
5.710000000000000000e+02 1.796925544738769531e+00 2.607069587707519531e+01 -1.642009941861033440e-03 6.016910992912016809e-05 -4.745522455777972937e-04 -6.679577927570790052e-05
5.720000000000000000e+02 2.036411046981811523e+00 3.026205444335937500e+01 1.636277418583631516e-03 1.268802152480930090e-04 5.289472755976021290e-04 -1.467891124775633216e-04
5.730000000000000000e+02 3.272515058517456055e+00 3.719159698486328125e+01 5.996101026539690793e-05 1.431285520084202290e-03 4.473739827517420053e-04 -4.976323107257485390e-04
5.740000000000000000e+02 2.008385658264160156e+00 4.164243316650390625e+01 -1.654419698752462864e-03 2.467679325491189957e-03 2.439778909320011735e-04 -5.061945412307977676e-04
5.750000000000000000e+02 1.451304054260253906e+01 3.703039169311523438e+01 3.487070091068744659e-03 6.851740181446075439e-03 3.101642942056059837e-03 -6.416891235858201981e-03
5.760000000000000000e+02 1.221794605255126953e+01 3.674434661865234375e+01 5.810078233480453491e-03 -3.894532797858119011e-03 5.746635724790394306e-04 -3.838978009298443794e-03
5.770000000000000000e+02 1.387182521820068359e+01 3.437656402587890625e+01 -7.653249776922166348e-04 -5.464985151775181293e-04 -3.935470595024526119e-04 2.876514103263616562e-03
5.780000000000000000e+02 1.457545852661132812e+01 2.294076156616210938e+01 -3.057840745896100998e-03 -6.269925506785511971e-05 -9.361620177514851093e-04 1.018751718220300972e-04
5.790000000000000000e+02 1.442473030090332031e+01 1.736614036560058594e+01 -2.319931285455822945e-03 -3.344571041452581994e-06 -6.969827809371054173e-04 -6.196304457262158394e-05
5.800000000000000000e+02 1.455834770202636719e+01 1.043031978607177734e+01 1.621210365556180477e-03 5.019468153477646410e-05 5.014215130358934402e-04 6.447158375522121787e-05
5.810000000000000000e+02 1.368165206909179688e+01 1.819106340408325195e+00 9.151906851911917329e-05 2.679401768546085805e-05 3.549392567947506905e-05 1.752034586388617754e-04
5.820000000000000000e+02 1.317483043670654297e+01 1.766198754310607910e+00 -2.094106548611307517e-06 -8.504706056555733085e-05 -2.614235017972532660e-05 -6.033051977283321321e-05
5.830000000000000000e+02 7.209991216659545898e-01 3.463876342773437500e+01 1.801032107323408127e-03 7.935262401588261127e-04 7.783675100654363632e-04 -4.235492378938943148e-04
5.840000000000000000e+02 6.182647347450256348e-01 2.759782981872558594e+01 -1.520529971458017826e-03 -1.009293919196352363e-05 -4.591868782881647348e-04 3.097801527474075556e-05
5.850000000000000000e+02 6.077302694320678711e-01 2.056822013854980469e+01 1.415411941707134247e-03 -2.839188709913287312e-05 4.161060205660760403e-04 -8.568565681343898177e-05
5.860000000000000000e+02 1.889300584793090820e+00 1.631304168701171875e+01 1.028001192025840282e-03 4.973540126229636371e-05 3.233210009057074785e-04 -9.550547838443890214e-05
5.870000000000000000e+02 1.227313995361328125e+01 1.164885616302490234e+01 -9.589171386323869228e-04 -3.607202088460326195e-04 -3.958911984227597713e-04 -3.677356871776282787e-04
5.880000000000000000e+02 1.298254680633544922e+01 1.594025039672851562e+01 -2.131176646798849106e-03 -8.803334640106186271e-05 -6.657629855908453465e-04 -8.747211541049182415e-05
5.890000000000000000e+02 1.182601261138916016e+01 1.884674072265625000e+01 2.284952672198414803e-03 -8.246677316492423415e-05 6.607457762584090233e-04 -6.039821892045438290e-05
5.900000000000000000e+02 1.333459186553955078e+01 2.440899658203125000e+01 -2.919269492849707603e-03 -1.640322880120947957e-04 -9.249905124306678772e-04 -2.011906508414540440e-05
5.910000000000000000e+02 1.244052028656005859e+01 2.879875755310058594e+01 -2.921697683632373810e-03 3.838280099444091320e-04 -7.613609195686876774e-04 -1.986632378248032182e-05
5.920000000000000000e+02 6.204646229743957520e-01 1.491220092773437500e+01 7.923304801806807518e-04 2.544474227761384100e-06 2.384624822298064828e-04 -3.287554136477410793e-05
5.930000000000000000e+02 1.746558308601379395e+00 9.139625549316406250e+00 -7.348249200731515884e-04 -4.514908596320310608e-06 -2.218019508291035891e-04 2.910812872869428247e-05
5.940000000000000000e+02 8.923309326171875000e+00 2.612967967987060547e+00 2.974413509946316481e-04 1.254046364920213819e-04 1.268538035219535232e-04 9.694527398096397519e-05
5.950000000000000000e+02 9.654399871826171875e+00 1.863762974739074707e+00 2.812067687045782804e-04 3.327517333673313260e-05 9.434457751922309399e-05 5.579840944847092032e-05
5.960000000000000000e+02 1.116186261177062988e+00 3.774469852447509766e+00 1.010515461530303583e-05 -1.692206278676167130e-04 -4.773464388563297689e-05 4.198075039312243462e-04
5.970000000000000000e+02 5.386776328086853027e-01 6.398347854614257812e+00 5.318729672580957413e-04 4.563384209177456796e-05 1.732520322548225522e-04 -6.099631264078198001e-06
5.980000000000000000e+02 3.671909570693969727e+00 3.674455881118774414e+00 4.754214605782181025e-04 7.705073221586644650e-05 1.657416578382253647e-04 -3.918905713362619281e-05
5.990000000000000000e+02 1.345335102081298828e+01 1.042471218109130859e+01 -1.276263035833835602e-03 -1.813882263377308846e-04 -4.372953844722360373e-04 -2.235554420622065663e-04
6.000000000000000000e+02 1.445964622497558594e+01 2.015614891052246094e+01 -2.730217063799500465e-03 -6.362630756484577432e-06 -8.209738880395889282e-04 4.990482193534262478e-05
6.010000000000000000e+02 1.560929870605468750e+01 3.124340629577636719e+01 -5.253318697214126587e-03 2.868581213988363743e-04 -1.489938120357692242e-03 8.753041038289666176e-04
6.020000000000000000e+02 1.532514572143554688e+01 2.987961769104003906e+01 5.108060315251350403e-03 1.572215696796774864e-04 1.579584553837776184e-03 -4.011871351394802332e-04
6.030000000000000000e+02 1.809720230102539062e+01 3.778296279907226562e+01 1.741931587457656860e-02 6.107060238718986511e-02 2.354697510600090027e-02 5.815537646412849426e-03
6.040000000000000000e+02 1.863264274597167969e+01 4.007056427001953125e+01 -6.604258902370929718e-03 -7.903372170403599739e-04 -2.218378940597176552e-03 1.708418689668178558e-02
6.050000000000000000e+02 1.198031044006347656e+01 4.133604812622070312e+01 -6.621431559324264526e-03 6.046901457011699677e-03 -1.723590248730033636e-04 -5.552773363888263702e-03
6.060000000000000000e+02 1.978175544738769531e+01 3.784938812255859375e+01 -7.274844683706760406e-03 -6.243476178497076035e-03 -4.055496305227279663e-03 1.946052163839340210e-02
6.070000000000000000e+02 2.786129188537597656e+01 2.425045967102050781e+01 5.336452722549438477e-01 2.094849109649658203e+00 7.885482907295227051e-01 1.222672104835510254e+00
6.080000000000000000e+02 2.612182807922363281e+01 2.619417572021484375e+01 5.378419160842895508e-01 9.861302375793457031e-01 4.571916460990905762e-01 6.268175840377807617e-01
6.090000000000000000e+02 3.880004119873046875e+01 2.813656997680664062e+01 1.837073564529418945e-01 1.122522830963134766e+01 3.422680616378784180e+00 1.640511512756347656e+00
6.100000000000000000e+02 4.252492904663085938e+01 2.841981315612792969e+01 8.854073286056518555e-01 1.105793952941894531e+01 3.583004236221313477e+00 -3.639957606792449951e-01
6.110000000000000000e+02 4.567144393920898438e+01 2.584585952758789062e+01 3.395420610904693604e-01 9.907955169677734375e+00 3.074249267578125000e+00 -6.458647847175598145e-01
6.120000000000000000e+02 5.525019836425781250e+01 2.363484764099121094e+01 2.012478560209274292e-01 8.492710113525390625e+00 2.608187437057495117e+00 -1.090684056282043457e+00
6.130000000000000000e+02 6.437483215332031250e+01 2.290508270263671875e+01 1.155261918902397156e-01 7.624530792236328125e+00 2.322017192840576172e+00 -1.015833139419555664e+00
6.140000000000000000e+02 7.252968597412109375e+01 2.547530174255371094e+01 7.007586956024169922e-02 6.734730720520019531e+00 2.041441917419433594e+00 -6.524422764778137207e-01
6.150000000000000000e+02 7.040928649902343750e+01 2.859758949279785156e+01 1.884546428918838501e-01 6.829729080200195312e+00 2.105455160140991211e+00 -6.836959123611450195e-01
6.160000000000000000e+02 4.857791900634765625e+01 3.028881454467773438e+01 1.572425007820129395e+00 9.548036575317382812e+00 3.336138248443603516e+00 -7.451665401458740234e-01
6.170000000000000000e+02 3.296762084960937500e+01 1.581639480590820312e+01 -4.268031716346740723e-01 5.262462615966796875e+00 1.450697898864746094e+00 1.474771857261657715e+00
6.180000000000000000e+02 3.287869262695312500e+01 1.714140510559082031e+01 -3.645166456699371338e-01 5.256401538848876953e+00 1.467565417289733887e+00 1.566310405731201172e+00
6.190000000000000000e+02 4.296282196044921875e+01 1.883671760559082031e+01 -8.172984719276428223e-01 8.582341194152832031e+00 2.329512834548950195e+00 3.691161572933197021e-01
6.200000000000000000e+02 5.705872726440429688e+01 1.696512413024902344e+01 -3.011188805103302002e-01 8.211138725280761719e+00 2.373005867004394531e+00 -9.668219089508056641e-01
6.210000000000000000e+02 6.749797821044921875e+01 1.916121482849121094e+01 -2.867472171783447266e-02 7.490274429321289062e+00 2.238479852676391602e+00 -9.347339868545532227e-01
6.220000000000000000e+02 7.249308013916015625e+01 1.822528839111328125e+01 -2.204299718141555786e-02 7.185892581939697266e+00 2.149154901504516602e+00 -6.915825605392456055e-01
6.230000000000000000e+02 2.712638282775878906e+01 1.637210464477539062e+01 -8.790553361177444458e-02 3.037962913513183594e+00 8.850172162055969238e-01 1.172337293624877930e+00
6.240000000000000000e+02 2.728548812866210938e+01 1.212902355194091797e+01 -1.558426767587661743e-01 3.509403705596923828e+00 1.006068229675292969e+00 1.026878952980041504e+00
6.250000000000000000e+02 2.606459617614746094e+01 3.383071899414062500e+00 -4.463681951165199280e-02 3.846941709518432617e+00 1.140691399574279785e+00 5.688387751579284668e-01
6.260000000000000000e+02 3.414358139038085938e+01 1.424393415451049805e+00 -3.737514913082122803e-01 5.300272464752197266e+00 1.477956295013427734e+00 6.391872167587280273e-01
6.270000000000000000e+02 3.432142257690429688e+01 4.099717140197753906e+00 -4.326142668724060059e-01 5.389618396759033203e+00 1.487101197242736816e+00 7.503702044486999512e-01
6.280000000000000000e+02 3.499306106567382812e+01 1.059048748016357422e+01 -5.838651657104492188e-01 5.723570346832275391e+00 1.541911602020263672e+00 1.075355648994445801e+00
6.290000000000000000e+02 2.861942672729492188e+01 9.420616149902343750e+00 -2.081402689218521118e-01 4.053200244903564453e+00 1.153517961502075195e+00 9.851852655410766602e-01
6.300000000000000000e+02 4.076661300659179688e+01 1.041966629028320312e+01 -8.300511240959167480e-01 7.047914505004882812e+00 1.865358948707580566e+00 6.254331469535827637e-01
6.310000000000000000e+02 3.886869430541992188e+01 1.255570697784423828e+01 -8.010807037353515625e-01 6.858643054962158203e+00 1.817268610000610352e+00 8.740589618682861328e-01
6.320000000000000000e+02 4.932048416137695312e+01 9.121212959289550781e+00 -7.751638293266296387e-01 7.827248096466064453e+00 2.115625381469726562e+00 -2.199623137712478638e-01
6.330000000000000000e+02 6.037453842163085938e+01 9.016023635864257812e+00 -4.111084043979644775e-01 7.918151378631591797e+00 2.252112865447998047e+00 -7.719094157218933105e-01
6.340000000000000000e+02 6.397584152221679688e+01 9.825684547424316406e+00 -2.902466952800750732e-01 7.853455543518066406e+00 2.268962621688842773e+00 -8.263300657272338867e-01
6.350000000000000000e+02 7.287286376953125000e+01 1.150873756408691406e+01 -6.645108759403228760e-02 7.568264007568359375e+00 2.250543832778930664e+00 -5.901660919189453125e-01
6.360000000000000000e+02 2.104301643371582031e+01 1.844118499755859375e+01 7.125217816792428493e-04 4.044162631034851074e-01 1.215386390686035156e-01 1.430487185716629028e-01
6.370000000000000000e+02 2.104851913452148438e+01 1.703446197509765625e+01 4.618474340531975031e-04 7.388200759887695312e-01 2.217845916748046875e-01 1.450252085924148560e-01
6.380000000000000000e+02 2.106471252441406250e+01 9.996376037597656250e+00 -4.543750081211328506e-03 2.276693820953369141e+00 6.816450357437133789e-01 1.192373186349868774e-01
6.390000000000000000e+02 2.101360321044921875e+01 4.347496509552001953e+00 5.759018287062644958e-02 3.366045236587524414e+00 1.027090668678283691e+00 2.255468815565109253e-01
6.400000000000000000e+02 2.105334281921386719e+01 5.762982845306396484e+00 2.446747198700904846e-02 3.125814676284790039e+00 9.450846314430236816e-01 1.409188359975814819e-01
6.410000000000000000e+02 4.641198348999023438e+01 4.469041824340820312e+00 -7.291507720947265625e-01 7.237582683563232422e+00 1.952529549598693848e+00 6.560064852237701416e-02
6.420000000000000000e+02 4.589935302734375000e+01 3.050700664520263672e+00 -7.013350129127502441e-01 7.082266330718994141e+00 1.914279460906982422e+00 1.115876883268356323e-01
6.430000000000000000e+02 5.741015625000000000e+01 4.029624462127685547e+00 -5.125719308853149414e-01 7.777539730072021484e+00 2.179490327835083008e+00 -5.261614918708801270e-01
6.440000000000000000e+02 6.633453369140625000e+01 4.867205142974853516e+00 -2.460456341505050659e-01 7.864692687988281250e+00 2.285594224929809570e+00 -6.559804081916809082e-01
6.450000000000000000e+02 7.281667327880859375e+01 4.841948509216308594e+00 -7.950919866561889648e-02 7.909495353698730469e+00 2.348995923995971680e+00 -4.698887467384338379e-01
6.460000000000000000e+02 2.106044387817382812e+01 1.281271266937255859e+01 -4.658583551645278931e-03 1.702168345451354980e+00 5.092529654502868652e-01 1.316499859094619751e-01
6.470000000000000000e+02 4.032792663574218750e+01 4.440587043762207031e+00 -6.653004288673400879e-01 6.472446441650390625e+00 1.742143869400024414e+00 5.025750994682312012e-01
6.480000000000000000e+02 5.938720321655273438e+01 -6.341716766357421875e+00 -3.309535682201385498e-01 7.606990337371826172e+00 2.182811021804809570e+00 -3.271795809268951416e-01
6.490000000000000000e+02 5.740053176879882812e+01 -2.991177082061767578e+00 -4.258306622505187988e-01 7.570532798767089844e+00 2.143410682678222656e+00 -3.553426563739776611e-01
6.500000000000000000e+02 6.568305969238281250e+01 -1.479080200195312500e+00 -2.339481562376022339e-01 7.901937961578369141e+00 2.300396919250488281e+00 -4.810934066772460938e-01
6.510000000000000000e+02 7.004724884033203125e+01 -1.450507789850234985e-01 -1.331264376640319824e-01 8.019118309020996094e+00 2.365797519683837891e+00 -4.537754952907562256e-01
6.520000000000000000e+02 2.855332756042480469e+01 -3.305818080902099609e+00 -1.352684199810028076e-01 4.459010601043701172e+00 1.297122597694396973e+00 4.501791000366210938e-01
6.530000000000000000e+02 2.716509056091308594e+01 -8.925211906433105469e+00 -5.961768701672554016e-02 4.361993789672851562e+00 1.290712833404541016e+00 3.208488821983337402e-01
6.540000000000000000e+02 3.395797729492187500e+01 -1.564858055114746094e+01 -1.480586528778076172e-01 5.142836570739746094e+00 1.498433351516723633e+00 1.898288875818252563e-01
6.550000000000000000e+02 4.248994064331054688e+01 -2.095081710815429688e+01 -1.889850944280624390e-01 5.942832469940185547e+00 1.726154208183288574e+00 5.331296473741531372e-02
6.560000000000000000e+02 5.017617797851562500e+01 -2.778934669494628906e+01 -1.488110721111297607e-01 6.624061584472656250e+00 1.942575216293334961e+00 -3.862478956580162048e-02
6.570000000000000000e+02 5.716606903076171875e+01 -3.410693359375000000e+01 -9.599189460277557373e-02 7.200956821441650391e+00 2.131489515304565430e+00 -4.077405482530593872e-02
6.580000000000000000e+02 3.549139785766601562e+01 -2.267161130905151367e+00 -3.534413576126098633e-01 5.459846019744873047e+00 1.531921386718750000e+00 4.773017466068267822e-01
6.590000000000000000e+02 3.669975662231445312e+01 -9.275383949279785156e+00 -2.718890607357025146e-01 5.518990516662597656e+00 1.574130415916442871e+00 2.831443846225738525e-01
6.600000000000000000e+02 4.347826766967773438e+01 -1.310560703277587891e+01 -3.065515756607055664e-01 6.187449455261230469e+00 1.764269351959228516e+00 9.929759055376052856e-02
6.610000000000000000e+02 4.883220672607421875e+01 -2.497537803649902344e+01 -1.693159341812133789e-01 6.518822193145751953e+00 1.904851913452148438e+00 -2.725302241742610931e-02
6.620000000000000000e+02 5.833779144287109375e+01 -2.399351310729980469e+01 -1.431057453155517578e-01 7.366073131561279297e+00 2.166890144348144531e+00 -9.229983389377593994e-02
6.630000000000000000e+02 4.179818725585937500e+01 -4.575368881225585938e+00 -4.569051861763000488e-01 6.237862586975097656e+00 1.734287261962890625e+00 2.406374365091323853e-01
6.640000000000000000e+02 4.171599960327148438e+01 -1.061935138702392578e+01 -3.287920653820037842e-01 6.051014900207519531e+00 1.716666936874389648e+00 1.573141664266586304e-01
6.650000000000000000e+02 6.171739578247070312e+01 -1.898479843139648438e+01 -1.476280391216278076e-01 7.660404682159423828e+00 2.253833055496215820e+00 -1.555874645709991455e-01
6.660000000000000000e+02 6.607277679443359375e+01 -1.204424381256103516e+01 -1.467526704072952271e-01 7.963284492492675781e+00 2.344959497451782227e+00 -2.587938904762268066e-01
6.670000000000000000e+02 6.450241088867187500e+01 -1.200273513793945312e+01 -1.680618673563003540e-01 7.877863883972167969e+00 2.312940597534179688e+00 -2.617106437683105469e-01
6.680000000000000000e+02 7.273769378662109375e+01 -1.118122482299804688e+01 -5.110703781247138977e-02 8.408041954040527344e+00 2.507080316543579102e+00 -1.960292309522628784e-01
6.690000000000000000e+02 2.748781967163085938e+01 -1.306459999084472656e+01 -4.099218547344207764e-02 4.429262638092041016e+00 1.316481113433837891e+00 2.306261509656906128e-01
6.700000000000000000e+02 2.767760467529296875e+01 -1.742099380493164062e+01 -5.475956201553344727e-02 4.482875347137451172e+00 1.328434705734252930e+00 1.702250838279724121e-01
6.710000000000000000e+02 3.673758697509765625e+01 -2.167004585266113281e+01 -1.350881010293960571e-01 5.370185852050781250e+00 1.570529341697692871e+00 9.941262751817703247e-02
6.720000000000000000e+02 4.604375457763671875e+01 -2.599638366699218750e+01 -1.627930253744125366e-01 6.254861354827880859e+00 1.827620506286621094e+00 -6.456143222749233246e-03
6.730000000000000000e+02 5.191536712646484375e+01 -3.079068756103515625e+01 -1.261181682348251343e-01 6.791163444519042969e+00 1.999513506889343262e+00 -3.760452568531036377e-02
6.740000000000000000e+02 3.478478240966796875e+01 -1.037922000885009766e+01 -2.111858129501342773e-01 5.253268241882324219e+00 1.512624740600585938e+00 2.779282331466674805e-01
6.750000000000000000e+02 5.212638473510742188e+01 -8.394000053405761719e+00 -4.029173851013183594e-01 7.092809677124023438e+00 2.006967782974243164e+00 -1.335877180099487305e-01
6.760000000000000000e+02 7.292813110351562500e+01 -1.889961624145507812e+01 -3.649625554680824280e-02 8.539856910705566406e+00 2.551008224487304688e+00 -1.156577095389366150e-01
6.770000000000000000e+02 7.154505920410156250e+01 -1.777936172485351562e+01 -4.486391693353652954e-02 8.418977737426757812e+00 2.512234210968017578e+00 -1.382211148738861084e-01
6.780000000000000000e+02 2.007571029663085938e+01 -1.529239273071289062e+01 4.499120637774467468e-02 3.881469011306762695e+00 1.177938103675842285e+00 3.119713366031646729e-01
6.790000000000000000e+02 2.937458610534667969e+01 -1.735870170593261719e+01 -8.100457489490509033e-02 4.652140140533447266e+00 1.371340632438659668e+00 1.749417185783386230e-01
6.800000000000000000e+02 3.845040512084960938e+01 -1.633202171325683594e+01 -1.982669383287429810e-01 5.597556591033935547e+00 1.619786858558654785e+00 1.487200260162353516e-01
6.810000000000000000e+02 4.132246780395507812e+01 -1.702258300781250000e+01 -2.238371670246124268e-01 5.894196987152099609e+00 1.701107978820800781e+00 9.009256213903427124e-02
6.820000000000000000e+02 4.841431045532226562e+01 -1.609498596191406250e+01 -2.738564014434814453e-01 6.585131645202636719e+00 1.893382549285888672e+00 -1.729156635701656342e-02
6.830000000000000000e+02 2.839299011230468750e+01 -2.761249542236328125e+01 -5.107110482640564442e-04 4.538322448730468750e+00 1.361343502998352051e+00 1.033852249383926392e-01
6.840000000000000000e+02 3.949872207641601562e+01 -2.721770858764648438e+01 -1.218211427330970764e-01 5.610600948333740234e+00 1.646633863449096680e+00 4.318349063396453857e-02
6.850000000000000000e+02 4.074514770507812500e+01 -2.005184555053710938e+01 -1.788541674613952637e-01 5.795458316802978516e+00 1.684981226921081543e+00 7.520510256290435791e-02
6.860000000000000000e+02 5.338917541503906250e+01 -2.239155960083007812e+01 -1.888377219438552856e-01 6.941422462463378906e+00 2.025775432586669922e+00 -7.354877144098281860e-02
6.870000000000000000e+02 3.196147155761718750e+01 -3.234735870361328125e+01 -4.542207717895507812e-02 4.812170505523681641e+00 1.430024504661560059e+00 1.692587137222290039e-02
6.880000000000000000e+02 4.070210647583007812e+01 -3.407617568969726562e+01 -1.180439144372940063e-01 5.705980777740478516e+00 1.676381111145019531e+00 -6.028483621776103973e-03
6.890000000000000000e+02 6.396424102783203125e+01 -3.179209518432617188e+01 -6.803769618272781372e-02 7.830037117004394531e+00 2.328599929809570312e+00 -5.832796171307563782e-02
6.900000000000000000e+02 7.337052917480468750e+01 -3.169163703918457031e+01 -1.384246535599231720e-02 8.697595596313476562e+00 2.605125904083251953e+00 -3.282412886619567871e-02
6.910000000000000000e+02 1.131471538543701172e+01 -3.220286560058593750e+01 -1.559419650584459305e-02 -1.974767073988914490e-03 -5.270689260214567184e-03 1.124007254838943481e-02
6.920000000000000000e+02 1.439736366271972656e+01 -1.764507675170898438e+01 3.571168053895235062e-03 4.179201787337660789e-04 1.196726458147168159e-03 -8.478082600049674511e-04
6.930000000000000000e+02 1.168940734863281250e+01 -1.697385406494140625e+01 2.026319736614823341e-03 9.103603661060333252e-04 8.810040308162570000e-04 -9.965338977053761482e-04
6.940000000000000000e+02 1.458044815063476562e+01 -1.069502449035644531e+01 -2.476394874975085258e-03 -6.644538370892405510e-05 -7.628520252183079720e-04 1.905085809994488955e-04
6.950000000000000000e+02 1.242195320129394531e+01 -1.041415977478027344e+01 -1.871408894658088684e-03 -1.714007230475544930e-04 -6.128429085947573185e-04 1.181518091470934451e-04
6.960000000000000000e+02 5.543504953384399414e-01 -1.073143196105957031e+01 -1.643159077502787113e-03 -2.548416341596748680e-05 -5.005929851904511452e-04 8.704267384018748999e-05
6.970000000000000000e+02 1.350306797027587891e+01 9.105552673339843750e+00 1.158063882030546665e-03 1.449563133064657450e-04 3.909060324076563120e-04 1.223896688316017389e-04
6.980000000000000000e+02 2.625995445251464844e+01 3.432963943481445312e+01 -4.402369260787963867e-01 8.199550211429595947e-02 -1.074724271893501282e-01 -2.820242345333099365e-01
6.990000000000000000e+02 2.471575927734375000e+01 3.441560363769531250e+01 -2.977051138877868652e-01 2.115814574062824249e-02 -8.296409249305725098e-02 -2.804788351058959961e-01
7.000000000000000000e+02 2.093763923645019531e+01 2.964192199707031250e+01 8.569157682359218597e-03 -8.638148307800292969e-01 -2.565737068653106689e-01 -5.385667085647583008e-02
7.010000000000000000e+02 2.095326042175292969e+01 2.825499725341796875e+01 1.384097058326005936e-02 -9.763567447662353516e-01 -2.887547314167022705e-01 -2.298408187925815582e-02
7.020000000000000000e+02 2.213274192810058594e+01 2.420554924011230469e+01 5.518272146582603455e-02 -2.098499238491058350e-01 -4.640015959739685059e-02 2.310589849948883057e-01
7.030000000000000000e+02 2.100256919860839844e+01 2.406010437011718750e+01 1.137437019497156143e-02 -7.488908171653747559e-01 -2.212549448013305664e-01 8.311434835195541382e-02
7.040000000000000000e+02 2.102692031860351562e+01 2.125241470336914062e+01 5.340281408280134201e-03 -2.346183806657791138e-01 -6.878343224525451660e-02 1.259545683860778809e-01
7.050000000000000000e+02 2.228878784179687500e+01 1.578155708312988281e+01 -7.935184054076671600e-03 1.438937902450561523e+00 4.293008148670196533e-01 4.119690358638763428e-01
7.060000000000000000e+02 2.105303192138671875e+01 1.562734985351562500e+01 -2.971966052427887917e-03 1.070456027984619141e+00 3.202452063560485840e-01 1.423537284135818481e-01
7.070000000000000000e+02 2.105708694458007812e+01 1.422011089324951172e+01 -1.293733017519116402e-03 1.393068671226501465e+00 4.175324738025665283e-01 1.382583677768707275e-01
7.080000000000000000e+02 2.231915473937988281e+01 1.155049133300781250e+01 -1.639840751886367798e-02 2.256199598312377930e+00 6.719403862953186035e-01 3.658514022827148438e-01
7.090000000000000000e+02 2.106434822082519531e+01 8.587036132812500000e+00 1.248766318894922733e-03 2.546736478805541992e+00 7.643955349922180176e-01 1.165211498737335205e-01
7.100000000000000000e+02 2.106065559387207031e+01 7.176653385162353516e+00 -3.722878405824303627e-03 2.810122966766357422e+00 8.419200778007507324e-01 1.135280653834342957e-01
7.110000000000000000e+02 2.225489616394042969e+01 4.447401523590087891e+00 8.824650943279266357e-02 3.279485464096069336e+00 1.010319590568542480e+00 3.265464007854461670e-01
7.120000000000000000e+02 2.091884994506835938e+01 2.938697338104248047e+00 5.291626602411270142e-02 3.366673469543457031e+00 1.025876879692077637e+00 3.016112148761749268e-01
7.130000000000000000e+02 2.079431724548339844e+01 1.541041493415832520e+00 4.007339477539062500e-03 3.230541467666625977e+00 9.703646302223205566e-01 2.907096445560455322e-01
7.140000000000000000e+02 2.069555282592773438e+01 1.462590247392654419e-01 -3.625081852078437805e-02 3.223407268524169922e+00 9.561469554901123047e-01 2.107952833175659180e-01
7.150000000000000000e+02 2.046486663818359375e+01 -4.060723304748535156e+00 -1.079244352877140045e-02 3.411082506179809570e+00 1.020087003707885742e+00 2.394605875015258789e-01
7.160000000000000000e+02 2.188512992858886719e+01 -2.566484451293945312e+00 3.613436594605445862e-02 3.558013439178466797e+00 1.078244328498840332e+00 2.381085008382797241e-01
7.170000000000000000e+02 2.033291625976562500e+01 -8.260535240173339844e+00 2.104661660268902779e-03 3.708124160766601562e+00 1.113068580627441406e+00 8.057391643524169922e-02
7.180000000000000000e+02 2.022355651855468750e+01 -1.247962188720703125e+01 -2.079429104924201965e-03 3.918047189712524414e+00 1.174790263175964355e+00 1.410111933946609497e-01
7.190000000000000000e+02 2.026358985900878906e+01 -1.107413291931152344e+01 2.694997703656554222e-03 3.833452939987182617e+00 1.150844454765319824e+00 1.494082510471343994e-01
7.200000000000000000e+02 2.155376815795898438e+01 -1.235897636413574219e+01 4.264316335320472717e-02 3.975018262863159180e+00 1.205298423767089844e+00 2.329285591840744019e-01
7.210000000000000000e+02 1.980720138549804688e+01 -1.949559211730957031e+01 -3.717248886823654175e-02 3.496117591857910156e+00 1.037683486938476562e+00 1.329910755157470703e-01
7.220000000000000000e+02 2.134100914001464844e+01 -1.796770286560058594e+01 -6.972713023424148560e-02 3.828994035720825195e+00 1.127780079841613770e+00 1.743166595697402954e-01
7.230000000000000000e+02 1.978796768188476562e+01 -2.234234428405761719e+01 1.554474793374538422e-02 3.661903858184814453e+00 1.103234529495239258e+00 1.207689717411994934e-01
7.240000000000000000e+02 1.971262741088867188e+01 -2.658986854553222656e+01 -1.612805947661399841e-02 3.734462022781372070e+00 1.115500211715698242e+00 3.754265606403350830e-02
7.250000000000000000e+02 1.972830009460449219e+01 -2.517668151855468750e+01 2.124541671946644783e-03 3.658983230590820312e+00 1.098332285881042480e+00 4.904256761074066162e-02
7.260000000000000000e+02 1.967705726623535156e+01 -2.939907264709472656e+01 -1.528496667742729187e-02 3.867682933807373047e+00 1.155719399452209473e+00 3.436167910695075989e-02
7.270000000000000000e+02 1.967931365966796875e+01 -3.220177841186523438e+01 -2.816054224967956543e-02 4.053751468658447266e+00 1.207677245140075684e+00 5.938256904482841492e-02
7.280000000000000000e+02 2.118597984313964844e+01 -3.218820190429687500e+01 1.049685925245285034e-01 4.112668991088867188e+00 1.265291213989257812e+00 2.059225887060165405e-01
7.290000000000000000e+02 1.435451602935791016e+01 -3.169967651367187500e+01 8.519379422068595886e-03 9.090375388041138649e-04 2.828525146469473839e-03 -1.031481544487178326e-03
7.300000000000000000e+02 1.449863052368164062e+01 -2.758490753173828125e+01 -6.755110342055559158e-03 1.394159742631018162e-03 -1.608285121619701385e-03 2.982254372909665108e-04
7.310000000000000000e+02 1.326226997375488281e+01 -2.751015472412109375e+01 5.481376312673091888e-03 1.369768986478447914e-03 2.055343706160783768e-03 -6.381103885360062122e-04
7.320000000000000000e+02 1.309807109832763672e+01 -2.364027976989746094e+01 -5.111724603921175003e-03 -2.837121137417852879e-04 -1.618630951270461082e-03 -1.809118315577507019e-03
7.330000000000000000e+02 1.440466308593750000e+01 -2.344571685791015625e+01 5.834146402776241302e-03 6.712780450470745564e-04 1.951627316884696484e-03 1.740224397508427501e-04
7.340000000000000000e+02 1.417588615417480469e+01 -2.050501251220703125e+01 4.610391799360513687e-03 1.628418249310925603e-04 1.431970042176544666e-03 -6.515058339573442936e-04
7.350000000000000000e+02 1.300737667083740234e+01 -1.734162902832031250e+01 -2.632847754284739494e-03 -5.339931813068687916e-04 -9.500522864982485771e-04 9.608645341359078884e-04
7.360000000000000000e+02 1.445067882537841797e+01 -1.625065994262695312e+01 -3.144223475828766823e-03 -1.062719529727473855e-04 -9.751486359164118767e-04 6.317580700851976871e-04
7.370000000000000000e+02 1.460653591156005859e+01 -9.311916351318359375e+00 2.335940720513463020e-03 3.922094037989154458e-05 7.125484989956021309e-04 -1.459087216062471271e-04
7.380000000000000000e+02 1.254476928710937500e+01 -1.917556405067443848e+00 -2.474978100508451462e-04 -5.720254193875007331e-05 -9.141010377788916230e-05 9.167823736788704991e-05
7.390000000000000000e+02 1.300879764556884766e+01 -2.807183742523193359e+00 1.477962068747729063e-04 -1.612551423022523522e-04 -4.037683083879528567e-06 1.168388043879531324e-04
7.400000000000000000e+02 1.428567695617675781e+01 -2.022333860397338867e+00 6.727275904268026352e-04 -1.139047185461095069e-06 2.014765486819669604e-04 5.168371717445552349e-04
7.410000000000000000e+02 1.373639202117919922e+01 -2.029762029647827148e+00 -7.948032580316066742e-04 6.067393314879154786e-06 -2.366207627346739173e-04 2.021064574364572763e-04
7.420000000000000000e+02 1.317685699462890625e+01 -1.975104689598083496e+00 9.482128371018916368e-05 2.617161080706864595e-04 1.069612189894542098e-04 -2.456860092934221029e-04
7.430000000000000000e+02 1.182507705688476562e+01 -1.894379973411560059e+00 4.395661526359617710e-04 1.220930244016926736e-05 1.355326385237276554e-04 -1.577846123836934566e-04
7.440000000000000000e+02 9.597523689270019531e+00 -1.861199140548706055e+00 -3.230374422855675220e-04 -2.250310062663629651e-04 -1.644205331103876233e-04 5.217712896410375834e-05
7.450000000000000000e+02 1.034901714324951172e+01 -1.870212912559509277e+00 3.232581075280904770e-04 2.106904576066881418e-04 1.601845724508166313e-04 -1.447649701731279492e-04
7.460000000000000000e+02 8.837356567382812500e+00 -1.858314394950866699e+00 3.415620594751089811e-04 2.186735655413940549e-04 1.680706918705254793e-04 1.624795004318002611e-05
7.470000000000000000e+02 7.316998481750488281e+00 -1.859333276748657227e+00 4.435091395862400532e-04 1.537815551273524761e-04 1.791872055036947131e-04 6.258147914195433259e-05
7.480000000000000000e+02 5.802731513977050781e+00 -1.864196896553039551e+00 4.593362682498991489e-04 1.099568398785777390e-04 1.707879418972879648e-04 -5.738623258366715163e-06
7.490000000000000000e+02 3.524847030639648438e+00 -1.941010355949401855e+00 -3.161849745083600283e-04 -1.117953652283176780e-04 -1.283941091969609261e-04 -1.926741424540523440e-05
7.500000000000000000e+02 5.044196605682373047e+00 -1.874845027923583984e+00 -3.699641383718699217e-04 -1.551816822029650211e-04 -1.575437490828335285e-04 5.564203547692159191e-06
7.510000000000000000e+02 2.766129493713378906e+00 -1.975948333740234375e+00 2.289044059580191970e-04 1.649017067393288016e-04 1.181418338092043996e-04 -4.676297612604685128e-05
7.520000000000000000e+02 2.002094030380249023e+00 -2.036283969879150391e+00 -1.423897338099777699e-04 -2.792371669784188271e-04 -1.264880702365189791e-04 -5.835281626787036657e-05
7.530000000000000000e+02 1.229166984558105469e+00 -2.137363195419311523e+00 4.003115755040198565e-04 1.672842045081779361e-04 1.702787267277017236e-04 1.949048601090908051e-04
7.540000000000000000e+02 2.062568426132202148e+00 -4.160249328613281250e+01 -6.790417828597128391e-04 -2.383475936949253082e-02 -7.354140281677246094e-03 3.149288531858474016e-04
7.550000000000000000e+02 5.226041316986083984e+00 -3.720930099487304688e+01 4.615222569555044174e-03 -6.130439229309558868e-03 -4.545649862848222256e-04 -1.362339034676551819e-02
7.560000000000000000e+02 9.522457122802734375e-01 -3.856783676147460938e+01 -9.006318636238574982e-03 -2.192049659788608551e-02 -9.278045035898685455e-03 -4.534482955932617188e-03
7.570000000000000000e+02 7.591930031776428223e-01 -3.478749084472656250e+01 8.622916415333747864e-03 -8.750927634537220001e-03 -3.840325734927318990e-05 -7.443689355568494648e-06
7.580000000000000000e+02 8.178201317787170410e-01 -3.332487487792968750e+01 -4.553878679871559143e-03 -6.374122574925422668e-03 -3.278400283306837082e-03 -2.442332450300455093e-03
7.590000000000000000e+02 6.137146353721618652e-01 -2.901815795898437500e+01 6.244436372071504593e-03 4.871007113251835108e-04 2.019461011514067650e-03 -1.951788726728409529e-04
7.600000000000000000e+02 5.793564319610595703e-01 -2.761902046203613281e+01 -6.730380468070507050e-03 1.204614527523517609e-03 -1.657729735597968102e-03 -2.948622859548777342e-04
7.610000000000000000e+02 5.737187862396240234e-01 -2.622240447998046875e+01 6.483589299023151398e-03 1.011410378850996494e-03 2.248499775305390358e-03 3.708334697876125574e-04
7.620000000000000000e+02 6.258201599121093750e-01 -2.200938796997070312e+01 -4.104231949895620346e-03 5.834908806718885899e-04 -1.056222361512482166e-03 -2.009434538194909692e-04
7.630000000000000000e+02 6.306945085525512695e-01 -2.059429740905761719e+01 3.431102726608514786e-03 4.339356964919716120e-04 1.159511506557464600e-03 2.717903989832848310e-04
7.640000000000000000e+02 1.900349617004394531e+00 -2.060388565063476562e+01 -3.646999131888151169e-03 1.117492065532132983e-04 -1.060575013980269432e-03 -4.168559389654546976e-04
7.650000000000000000e+02 5.931102633476257324e-01 -1.635179901123046875e+01 -2.420650795102119446e-03 1.182587366201914847e-04 -6.907175993546843529e-04 1.714459176582749933e-05
7.660000000000000000e+02 5.807586312294006348e-01 -1.494051265716552734e+01 2.246639924123883247e-03 4.441931014298461378e-05 6.873178062960505486e-04 1.791481554391793907e-05
7.670000000000000000e+02 5.727639198303222656e-01 -1.353470611572265625e+01 -2.043979009613394737e-03 3.671392914839088917e-05 -6.021795561537146568e-04 9.799548934097401798e-06
7.680000000000000000e+02 1.717062950134277344e+00 -1.356050395965576172e+01 2.305881818756461143e-03 4.253413862898014486e-05 7.045247475616633892e-04 2.292505378136411309e-04
7.690000000000000000e+02 5.429585576057434082e-01 -9.334794998168945312e+00 1.493059447966516018e-03 4.148455627728253603e-05 4.603631969075649977e-04 -1.350548263872042298e-04
7.700000000000000000e+02 5.360523462295532227e-01 -7.943531990051269531e+00 -1.354558044113218784e-03 -5.184291512705385685e-05 -4.219202965032309294e-04 1.841078628785908222e-04
7.710000000000000000e+02 4.422022819519042969e+00 -2.679824590682983398e+00 -4.255686653777956963e-04 -1.318140712101012468e-04 -1.672148209763690829e-04 2.193485124735161662e-05
7.720000000000000000e+02 5.471336245536804199e-01 -6.550196647644042969e+00 1.190277049317955971e-03 -8.557453838875517249e-06 3.545158833730965853e-04 -1.767309586284682155e-04
7.730000000000000000e+02 3.250113296508789062e+01 -4.114867782592773438e+01 -1.558340787887573242e-01 4.907092094421386719e+00 1.425377368927001953e+00 -1.274416572414338589e-03
7.740000000000000000e+02 1.157560157775878906e+01 -3.943605422973632812e+01 1.620235107839107513e-02 3.105847723782062531e-02 1.417824812233448029e-02 -7.502526789903640747e-02
7.750000000000000000e+02 7.861157226562500000e+01 4.026368331909179688e+01 3.640190884470939636e-02 5.029749870300292969e+00 1.519845485687255859e+00 7.246299833059310913e-02
7.760000000000000000e+02 7.805907440185546875e+01 4.174256515502929688e+01 -9.994435310363769531e-02 5.080136775970458984e+00 1.494057655334472656e+00 2.781478501856327057e-02
7.770000000000000000e+02 7.878886413574218750e+01 3.880635070800781250e+01 5.233484134078025818e-02 4.972358703613281250e+00 1.507408022880554199e+00 2.956355176866054535e-02
7.780000000000000000e+02 7.778536224365234375e+01 3.667892837524414062e+01 3.178081661462783813e-02 5.315565109252929688e+00 1.604203820228576660e+00 -1.120183169841766357e-01
7.790000000000000000e+02 7.917971801757812500e+01 3.495064163208007812e+01 1.422748155891895294e-02 5.038801193237304688e+00 1.515908598899841309e+00 -4.899528995156288147e-02
7.800000000000000000e+02 7.748123931884765625e+01 3.382209014892578125e+01 1.954568549990653992e-02 5.500323295593261719e+00 1.655960679054260254e+00 -1.568630635738372803e-01
7.810000000000000000e+02 7.917396545410156250e+01 3.357278823852539062e+01 3.723373869433999062e-03 5.131134986877441406e+00 1.540457606315612793e+00 -6.284935027360916138e-02
7.820000000000000000e+02 7.925350952148437500e+01 3.075582695007324219e+01 2.763839904218912125e-03 5.344886779785156250e+00 1.604295134544372559e+00 -6.816419959068298340e-02
7.830000000000000000e+02 7.651998901367187500e+01 2.823702430725097656e+01 3.530370816588401794e-02 6.003914356231689453e+00 1.811765432357788086e+00 -3.293899893760681152e-01
7.840000000000000000e+02 7.931177520751953125e+01 2.655149078369140625e+01 4.949931986629962921e-03 5.744413852691650391e+00 1.724809169769287109e+00 -7.899972051382064819e-02
7.850000000000000000e+02 7.656671905517578125e+01 2.541994285583496094e+01 2.374964579939842224e-02 6.242609024047851562e+00 1.879907608032226562e+00 -3.624275624752044678e-01
7.860000000000000000e+02 7.931697845458984375e+01 2.515689659118652344e+01 6.807959871366620064e-04 5.897830486297607422e+00 1.769553422927856445e+00 -8.415900170803070068e-02
7.870000000000000000e+02 7.933764648437500000e+01 2.096978187561035156e+01 1.650728700042236596e-05 6.394553184509277344e+00 1.918370842933654785e+00 -8.850476890802383423e-02
7.880000000000000000e+02 7.934260559082031250e+01 1.957595443725585938e+01 2.266913797939196229e-04 6.563925743103027344e+00 1.969245672225952148e+00 -8.862623572349548340e-02
7.890000000000000000e+02 7.934617614746093750e+01 1.818249702453613281e+01 -1.199110760353505611e-03 6.731661796569824219e+00 2.019138813018798828e+00 -8.709768205881118774e-02
7.900000000000000000e+02 7.935321807861328125e+01 1.400345325469970703e+01 1.234589872183278203e-04 7.216208457946777344e+00 2.164899587631225586e+00 -8.237890154123306274e-02
7.910000000000000000e+02 7.935401153564453125e+01 1.260864925384521484e+01 -1.977879554033279419e-03 7.368674278259277344e+00 2.210008859634399414e+00 -7.982454448938369751e-02
7.920000000000000000e+02 7.935587310791015625e+01 1.121547222137451172e+01 -4.620748222805559635e-04 7.515371799468994141e+00 2.254472970962524414e+00 -7.717052847146987915e-02
7.930000000000000000e+02 7.935978698730468750e+01 7.041660785675048828e+00 -2.121740253642201424e-03 7.915328979492187500e+00 2.373962163925170898e+00 -6.738742440938949585e-02
7.940000000000000000e+02 7.936014556884765625e+01 5.649857044219970703e+00 -7.590072927996516228e-04 8.034586906433105469e+00 2.410148382186889648e+00 -6.426506489515304565e-02
7.950000000000000000e+02 7.936013031005859375e+01 4.258415699005126953e+00 -2.028834307566285133e-03 8.146676063537597656e+00 2.443394184112548828e+00 -6.081477925181388855e-02
7.960000000000000000e+02 7.936124420166015625e+01 8.264024555683135986e-02 -1.019996940158307552e-03 8.440606117248535156e+00 2.531875848770141602e+00 -5.104418098926544189e-02
7.970000000000000000e+02 7.936025238037109375e+01 -1.310954332351684570e+00 -1.594911213032901287e-03 8.525197982788085938e+00 2.557080984115600586e+00 -4.791260883212089539e-02
7.980000000000000000e+02 7.805464172363281250e+01 -3.955870628356933594e+00 -6.551489699631929398e-03 8.565388679504394531e+00 2.567651033401489258e+00 -1.036070063710212708e-01
7.990000000000000000e+02 7.935417938232421875e+01 -4.103139877319335938e+00 -1.138933002948760986e-03 8.674119949340820312e+00 2.601894378662109375e+00 -4.174333810806274414e-02
8.000000000000000000e+02 7.934862518310546875e+01 -8.291539192199707031e+00 -1.054315594956278801e-03 8.853672981262207031e+00 2.655785560607910156e+00 -3.389814123511314392e-02
8.010000000000000000e+02 7.804679107666015625e+01 -1.097715091705322266e+01 -5.246588494628667831e-03 8.826242446899414062e+00 2.646298646926879883e+00 -6.832053512334823608e-02
8.020000000000000000e+02 7.935067749023437500e+01 -1.108539390563964844e+01 -8.661684696562588215e-04 8.949251174926757812e+00 2.684515476226806641e+00 -2.907391078770160675e-02
8.030000000000000000e+02 7.936263275146484375e+01 -1.526607131958007812e+01 -9.601881029084324837e-04 9.062525749206542969e+00 2.718469619750976562e+00 -2.249096147716045380e-02
8.040000000000000000e+02 7.809282684326171875e+01 -1.791302680969238281e+01 -3.684470662847161293e-03 8.993127822875976562e+00 2.696832895278930664e+00 -4.194704443216323853e-02
8.050000000000000000e+02 7.936492156982421875e+01 -1.804424095153808594e+01 -8.072531200014054775e-04 9.120698928833007812e+00 2.735967397689819336e+00 -1.872102729976177216e-02
8.060000000000000000e+02 7.934375000000000000e+01 -2.359680366516113281e+01 -4.874590085819363594e-04 9.199089050292968750e+00 2.759580612182617188e+00 -1.235850155353546143e-02
8.070000000000000000e+02 7.798812866210937500e+01 -2.479758262634277344e+01 -3.919980488717556000e-03 9.077280044555664062e+00 2.722008228302001953e+00 -2.442418038845062256e-02
8.080000000000000000e+02 7.933200073242187500e+01 -2.498814201354980469e+01 -1.055545872077345848e-03 9.212209701538085938e+00 2.763346433639526367e+00 -1.069414149969816208e-02
8.090000000000000000e+02 7.930759429931640625e+01 -2.917307472229003906e+01 -1.842990401200950146e-03 9.242071151733398438e+00 2.772068500518798828e+00 -7.771938107907772064e-03
8.100000000000000000e+02 7.785037994384765625e+01 -3.183147048950195312e+01 -1.007513259537518024e-03 9.106086730957031250e+00 2.731523752212524414e+00 -1.382674928754568100e-02
8.110000000000000000e+02 7.927811431884765625e+01 -3.198121833801269531e+01 -2.905329922214150429e-03 9.259283065795898438e+00 2.776913404464721680e+00 -6.668831687420606613e-03
8.120000000000000000e+02 7.922570037841796875e+01 -3.612175750732421875e+01 2.410353190498426557e-04 9.260707855224609375e+00 2.778284549713134766e+00 -1.143451780080795288e-03
8.130000000000000000e+02 7.913121795654296875e+01 -3.746053695678710938e+01 -1.384935807436704636e-02 9.245070457458496094e+00 2.769366502761840820e+00 1.328635681420564651e-02
8.140000000000000000e+02 7.893218231201171875e+01 -3.879001617431640625e+01 -2.191198291257023811e-03 9.214719772338867188e+00 2.763758420944213867e+00 2.263136021792888641e-02
8.150000000000000000e+02 7.862438964843750000e+01 -4.016680145263671875e+01 -6.754045374691486359e-03 9.182031631469726562e+00 2.752583503723144531e+00 2.890625596046447754e-02
8.160000000000000000e+02 4.845289230346679688e+00 4.052985763549804688e+01 8.462816476821899414e-04 -3.083635121583938599e-03 -6.712060421705245972e-04 -2.040769904851913452e-03
8.170000000000000000e+02 2.777763938903808594e+01 3.818909454345703125e+01 -3.555929958820343018e-01 -9.378021210432052612e-02 -1.348119676113128662e-01 6.277474761009216309e-01
8.180000000000000000e+02 6.748661994934082031e-01 3.013451099395751953e+00 -1.660481211729347706e-04 1.164392524515278637e-04 -1.488266116211889312e-05 -4.779502050951123238e-04
8.190000000000000000e+02 3.094104528427124023e+00 2.724298000335693359e+00 2.988121123053133488e-04 1.479659258620813489e-04 1.340334129054099321e-04 1.154853180196369067e-05
8.200000000000000000e+02 5.268307209014892578e+00 2.685818910598754883e+00 -2.767574042081832886e-04 -1.399361644871532917e-04 -1.250080676982179284e-04 4.088968125870451331e-05
8.210000000000000000e+02 1.646614432334899902e+00 6.253287792205810547e+00 -6.356465746648609638e-04 -3.675478728837333620e-05 -2.017204096773639321e-04 5.573595990426838398e-05
8.220000000000000000e+02 5.828558206558227539e-01 9.230144500732421875e+00 5.947313038632273674e-04 -1.142643782259256113e-06 1.780766033334657550e-04 -3.758458842639811337e-05
8.230000000000000000e+02 5.979526042938232422e-01 1.206612396240234375e+01 6.780791445635259151e-04 -3.144251422781962901e-06 2.024804562097415328e-04 -3.030912193935364485e-05
8.240000000000000000e+02 1.785243391990661621e+00 1.199095916748046875e+01 -8.371019503101706505e-04 8.017744221433531493e-06 -2.487252641003578901e-04 1.851134402386378497e-05
8.250000000000000000e+02 6.262185573577880859e-01 1.633148193359375000e+01 -9.063262841664254665e-04 -2.521669375710189342e-05 -2.794628962874412537e-04 5.902539487578906119e-05
8.260000000000000000e+02 1.885039567947387695e+00 1.773300361633300781e+01 -1.154229976236820221e-03 -2.546897849242668599e-05 -3.539097087923437357e-04 1.461882784496992826e-04
8.270000000000000000e+02 6.250472068786621094e-01 1.774574851989746094e+01 1.063842675648629665e-03 -8.045534741540905088e-06 3.167391405440866947e-04 -7.766195631120353937e-05
8.280000000000000000e+02 5.999305844306945801e-01 2.197232055664062500e+01 -1.554300775751471519e-03 -2.148163730453234166e-05 -4.727347404696047306e-04 8.917313971323892474e-05
8.290000000000000000e+02 5.966098308563232422e-01 2.337461280822753906e+01 1.626894343644380569e-03 -5.185153349884785712e-05 4.725128237623721361e-04 -7.358781294897198677e-05
8.300000000000000000e+02 1.780611991882324219e+00 2.329944419860839844e+01 -1.592534244991838932e-03 6.612268771277740598e-05 -4.579234519042074680e-04 2.617292557260952890e-05
8.310000000000000000e+02 5.977842211723327637e-01 2.477946662902832031e+01 -1.628877944312989712e-03 -2.892295560741331428e-05 -4.973402828909456730e-04 6.569374818354845047e-05
8.320000000000000000e+02 6.431395411491394043e-01 2.900863838195800781e+01 1.473877695389091969e-03 2.309288720425684005e-05 4.490911960601806641e-04 -7.803085463820025325e-05
8.330000000000000000e+02 6.743720769882202148e-01 3.042008590698242188e+01 -1.416814397089183331e-03 1.122734029195271432e-04 -3.913622931577265263e-04 1.578952833369839936e-05
8.340000000000000000e+02 2.142929077148437500e+00 3.167852973937988281e+01 -1.470187213271856308e-03 1.638690737308934331e-04 -3.918954462278634310e-04 -1.432826393283903599e-04
8.350000000000000000e+02 7.040709257125854492e-01 3.183151054382324219e+01 1.471499213948845863e-03 2.760499482974410057e-04 5.242647603154182434e-04 -1.895466848509386182e-04
8.360000000000000000e+02 7.136489152908325195e-01 3.602674102783203125e+01 -2.181404503062367439e-03 8.073905482888221741e-04 -4.122042155358940363e-04 3.535374999046325684e-04
8.370000000000000000e+02 2.107773303985595703e+00 3.709291458129882812e+01 -1.840323442593216896e-03 6.393786752596497536e-04 -3.602834476623684168e-04 2.858640509657561779e-04
8.380000000000000000e+02 9.069175124168395996e-01 3.873192596435546875e+01 -2.774002728983759880e-03 1.428992953151464462e-03 -4.035029560327529907e-04 5.016370560042560101e-04
8.390000000000000000e+02 1.277398228645324707e+00 4.008950042724609375e+01 2.674817573279142380e-03 1.900295494124293327e-03 1.372533966787159443e-03 -7.627121522091329098e-04
8.400000000000000000e+02 1.038933563232421875e+01 1.847464323043823242e+00 -3.195148892700672150e-04 6.596764706046087667e-06 -9.387543832417577505e-05 -9.849874913925305009e-06
8.410000000000000000e+02 8.932483673095703125e+00 1.869526863098144531e+00 -2.328949485672637820e-04 -7.447871757904067636e-05 -9.221210348187014461e-05 -6.114228744991123676e-05
8.420000000000000000e+02 8.211268424987792969e+00 1.873018503189086914e+00 2.080108679365366697e-04 9.746148862177506089e-05 9.164170478470623493e-05 4.363087282399646938e-05
8.430000000000000000e+02 8.188507080078125000e+00 2.624420881271362305e+00 -2.623678010422736406e-04 -1.546020794194191694e-04 -1.250909699592739344e-04 -5.423434049589559436e-05
8.440000000000000000e+02 7.491188049316406250e+00 1.876688838005065918e+00 -2.044359716819599271e-04 -1.091115045710466802e-04 -9.406424214830622077e-05 -2.170406332879792899e-05
8.450000000000000000e+02 5.328581809997558594e+00 1.893299460411071777e+00 2.093411312671378255e-04 1.081543159671127796e-04 9.524863708065822721e-05 -3.159420521114952862e-05
8.460000000000000000e+02 4.605545997619628906e+00 1.903903365135192871e+00 -2.274419239256531000e-04 -1.025025558192282915e-04 -9.898334246827289462e-05 3.136065060971304774e-05
8.470000000000000000e+02 3.889005184173583984e+00 1.907459020614624023e+00 2.483108255546540022e-04 1.064758980646729469e-04 1.064360185409896076e-04 -2.162585769838187844e-05
8.480000000000000000e+02 3.184410095214843750e+00 1.898233532905578613e+00 -2.603415050543844700e-04 -1.108309443225152791e-04 -1.113517355406656861e-04 -7.981154340086504817e-06
8.490000000000000000e+02 2.490506887435913086e+00 1.882974743843078613e+00 2.059856051346287131e-04 1.461938081774860620e-04 1.056538167176768184e-04 3.321105032227933407e-05
8.500000000000000000e+02 1.802244067192077637e+00 1.878910779953002930e+00 -1.245486200787127018e-04 -1.882455107988789678e-04 -9.383823635289445519e-05 -4.925381745124468580e-06
8.510000000000000000e+02 1.186640644073486328e+01 1.779263377189636230e+00 -2.927531604655086994e-04 3.818829281954094768e-05 -7.636946247657760978e-05 9.272733586840331554e-05
8.520000000000000000e+02 1.435590744018554688e+01 2.979604721069335938e+00 2.440223324811086059e-04 3.645310935098677874e-04 1.825660292524844408e-04 -4.112663154955953360e-04
8.530000000000000000e+02 1.459588146209716797e+01 3.782558441162109375e+00 -7.319514988921582699e-04 -2.033724595094099641e-04 -2.805971889756619930e-04 2.495262015145272017e-04
8.540000000000000000e+02 1.479367828369140625e+01 2.012003660202026367e+00 4.491198051255196333e-04 3.542358172126114368e-05 1.453630102332681417e-04 -2.285607661178801209e-05
8.550000000000000000e+02 1.461240482330322266e+01 6.347909450531005859e+00 -1.128967269323766232e-03 -5.706765296054072678e-05 -3.558104799594730139e-04 1.266838371520861983e-04
8.560000000000000000e+02 1.459794807434082031e+01 7.700923442840576172e+00 1.280075171962380409e-03 4.839074972551316023e-05 3.985397925134748220e-04 -7.371242099907249212e-05
8.570000000000000000e+02 1.457891845703125000e+01 9.063586235046386719e+00 -1.436801976524293423e-03 -4.998471558792516589e-05 -4.460360214579850435e-04 9.275236152461729944e-06
8.580000000000000000e+02 1.453258991241455078e+01 1.180062675476074219e+01 -1.831083092838525772e-03 -3.416642721276730299e-05 -5.595748662017285824e-04 -1.252375805051997304e-04
8.590000000000000000e+02 1.449152374267578125e+01 1.317946910858154297e+01 2.002815948799252510e-03 -3.933971311198547482e-05 5.890429019927978516e-04 1.063492964021861553e-04
8.600000000000000000e+02 1.443437290191650391e+01 1.456897830963134766e+01 -2.086889697238802910e-03 2.647404653544072062e-05 -6.181246717460453510e-04 -3.030304287676699460e-05
8.610000000000000000e+02 1.440828895568847656e+01 1.596627712249755859e+01 2.144455211237072945e-03 4.438589166966266930e-05 6.566523807123303413e-04 3.296956128906458616e-05
8.620000000000000000e+02 1.315110301971435547e+01 2.019482421875000000e+01 2.498804125934839249e-03 -6.818470865255221725e-05 7.291858200915157795e-04 -7.045925303827971220e-05
8.630000000000000000e+02 1.450248718261718750e+01 2.154956245422363281e+01 2.878147875890135765e-03 -1.930457256094086915e-05 8.576529799029231071e-04 -1.008997787721455097e-04
8.640000000000000000e+02 1.478414249420166016e+01 2.571934509277343750e+01 -3.671624232083559036e-03 -5.930999031988903880e-05 -1.119280233979225159e-03 9.745347779244184494e-05
8.650000000000000000e+02 1.324101352691650391e+01 2.300478172302246094e+01 2.732164692133665085e-03 7.605306018376722932e-05 8.424653206020593643e-04 -6.935790588613599539e-05
8.660000000000000000e+02 1.490919494628906250e+01 2.711385345458984375e+01 4.116491880267858505e-03 -4.420190089149400592e-05 1.221686950884759426e-03 -1.745191839290782809e-04
8.670000000000000000e+02 1.509492969512939453e+01 2.850316047668457031e+01 -4.576364066451787949e-03 3.332512642373330891e-05 -1.362911658361554146e-03 3.749177849385887384e-04
8.680000000000000000e+02 1.597113990783691406e+01 3.258658599853515625e+01 6.124783772975206375e-03 9.149204706773161888e-04 2.111911308020353317e-03 -2.225801727036014199e-04
8.690000000000000000e+02 1.638386154174804688e+01 3.391462707519531250e+01 -5.886934697628021240e-03 1.187574467621743679e-03 -1.409808057360351086e-03 1.525650965049862862e-03
8.700000000000000000e+02 1.557298660278320312e+01 3.546685791015625000e+01 4.367316723801195621e-04 1.629716134630143642e-03 6.199343479238450527e-04 4.234886262565851212e-03
8.710000000000000000e+02 1.721430778503417969e+01 3.646561431884765625e+01 7.099506910890340805e-03 1.182468794286251068e-02 5.677258130162954330e-03 1.328775193542242050e-02
8.720000000000000000e+02 1.896420288085937500e+01 3.817359161376953125e+01 1.808204688131809235e-02 -2.167798951268196106e-02 -1.078782719559967518e-03 2.320085093379020691e-02
8.730000000000000000e+02 2.178977775573730469e+01 3.826012802124023438e+01 -4.150604456663131714e-02 -2.759755030274391174e-02 -2.073107846081256866e-02 5.445879697799682617e-02
8.740000000000000000e+02 2.395230674743652344e+01 3.847307205200195312e+01 -7.774988561868667603e-02 -1.349930018186569214e-01 -6.382286548614501953e-02 2.106721103191375732e-01
8.750000000000000000e+02 2.324922561645507812e+01 3.826169967651367188e+01 -8.176629990339279175e-02 -8.178739994764328003e-02 -4.906611144542694092e-02 1.068310290575027466e-01
8.760000000000000000e+02 2.487135124206542969e+01 3.876977920532226562e+01 -4.209152236580848694e-02 -1.685990691184997559e-01 -6.320717185735702515e-02 2.494922131299972534e-01
8.770000000000000000e+02 2.840908050537109375e+01 3.792088699340820312e+01 -4.705249369144439697e-01 -1.859735697507858276e-01 -1.969495564699172974e-01 5.708283185958862305e-01
8.780000000000000000e+02 3.043755531311035156e+01 3.743533706665039062e+01 -7.399846315383911133e-01 -2.022841870784759521e-01 -2.826806604862213135e-01 6.223201751708984375e-01
8.790000000000000000e+02 3.115357398986816406e+01 3.737512207031250000e+01 -6.980836391448974609e-01 -3.142023980617523193e-01 -3.036858141422271729e-01 5.897239446640014648e-01
8.800000000000000000e+02 3.183105659484863281e+01 3.729862594604492188e+01 -5.416122078895568848e-01 -1.541710793972015381e-01 -2.087349891662597656e-01 4.737534224987030029e-01
8.810000000000000000e+02 3.306224822998046875e+01 3.710245895385742188e+01 -4.296672642230987549e-01 5.850703716278076172e-01 4.662093520164489746e-02 1.898929178714752197e-01
8.820000000000000000e+02 3.427933502197265625e+01 3.686750030517578125e+01 3.891978040337562561e-02 1.346636772155761719e+00 4.156669676303863525e-01 -6.576029658317565918e-01
8.830000000000000000e+02 3.541676330566406250e+01 3.636659622192382812e+01 4.649153053760528564e-01 3.609699487686157227e+00 1.222384452819824219e+00 -2.750590562820434570e+00
8.840000000000000000e+02 3.580222702026367188e+01 3.631868362426757812e+01 5.793718099594116211e-01 5.273108959197998047e+00 1.755744218826293945e+00 -3.483036518096923828e+00
8.850000000000000000e+02 3.504924774169921875e+01 3.644107818603515625e+01 2.291150987148284912e-01 2.926050186157226562e+00 9.465495944023132324e-01 -1.881872415542602539e+00
8.860000000000000000e+02 3.603780746459960938e+01 3.630926513671875000e+01 6.057742834091186523e-01 6.535713672637939453e+00 2.142446279525756836e+00 -4.012413978576660156e+00
8.870000000000000000e+02 3.674824905395507812e+01 3.601800918579101562e+01 -4.024780914187431335e-02 1.278406906127929688e+01 3.823146343231201172e+00 -5.620738506317138672e+00
8.880000000000000000e+02 3.732814025878906250e+01 3.616021728515625000e+01 -6.591361761093139648e-01 1.614218330383300781e+01 4.644914150238037109e+00 -3.075603008270263672e+00
8.890000000000000000e+02 3.660105133056640625e+01 3.607769775390625000e+01 2.115903347730636597e-01 1.099224758148193359e+01 3.361151456832885742e+00 -5.158909320831298828e+00
8.900000000000000000e+02 3.553350830078125000e+01 3.298754119873046875e+01 5.339919567108154297e+00 3.165728092193603516e+00 2.551694154739379883e+00 4.762197971343994141e+00
8.910000000000000000e+02 3.630023193359375000e+01 3.282467269897460938e+01 5.282813072204589844e+00 8.823307991027832031e+00 4.231836318969726562e+00 7.531281471252441406e+00
8.920000000000000000e+02 3.494107055664062500e+01 3.309020233154296875e+01 3.910436868667602539e+00 1.346054673194885254e+00 1.576947450637817383e+00 2.814008235931396484e+00
8.930000000000000000e+02 3.435929107666015625e+01 3.320575714111328125e+01 2.651885032653808594e+00 6.578254103660583496e-01 9.929131269454956055e-01 1.687085509300231934e+00
8.940000000000000000e+02 3.415133285522460938e+01 3.322531127929687500e+01 2.438017368316650391e+00 6.333093047142028809e-01 9.213979840278625488e-01 1.425853848457336426e+00
8.950000000000000000e+02 3.057939720153808594e+01 3.383754730224609375e+01 -3.761670589447021484e-01 1.237894892692565918e-01 -7.571326941251754761e-02 -2.618698403239250183e-02
8.960000000000000000e+02 3.122786712646484375e+01 3.373450469970703125e+01 -2.940140068531036377e-01 1.531149148941040039e-01 -4.226972535252571106e-02 9.298152476549148560e-02
8.970000000000000000e+02 2.914979743957519531e+01 3.403342056274414062e+01 -5.637997388839721680e-01 1.202350184321403503e-01 -1.330694109201431274e-01 -1.645687818527221680e-01
8.980000000000000000e+02 2.842592430114746094e+01 3.412310791015625000e+01 -5.704557299613952637e-01 1.188176199793815613e-01 -1.354914307594299316e-01 -2.096543014049530029e-01
8.990000000000000000e+02 2.770467185974121094e+01 3.420001602172851562e+01 -5.408508181571960449e-01 1.096998751163482666e-01 -1.293452829122543335e-01 -2.413680255413055420e-01
9.000000000000000000e+02 2.382158279418945312e+01 3.440441513061523438e+01 -2.120615690946578979e-01 -2.080249413847923279e-02 -6.985922157764434814e-02 -2.646001875400543213e-01
9.010000000000000000e+02 3.350587463378906250e+01 3.328070068359375000e+01 1.451830863952636719e+00 2.598373293876647949e-01 5.135004520416259766e-01 9.265240430831909180e-01
9.020000000000000000e+02 3.612193298339843750e+01 3.287229156494140625e+01 5.637441635131835938e+00 6.605530738830566406e+00 3.672891616821289062e+00 6.889782428741455078e+00
9.030000000000000000e+02 3.572818756103515625e+01 3.293605422973632812e+01 5.640746593475341797e+00 4.348945617675781250e+00 2.996907711029052734e+00 5.619812965393066406e+00
9.040000000000000000e+02 3.391249847412109375e+01 3.323908615112304688e+01 1.945090651512145996e+00 4.204811751842498779e-01 7.096715569496154785e-01 1.234946012496948242e+00
9.050000000000000000e+02 3.442769622802734375e+01 3.295751571655273438e+01 3.115031242370605469e+00 1.007006883621215820e+00 1.236611485481262207e+00 2.183049678802490234e+00
9.060000000000000000e+02 3.514019775390625000e+01 3.305682373046875000e+01 4.428729057312011719e+00 1.709018230438232422e+00 1.841324210166931152e+00 3.378168344497680664e+00
9.070000000000000000e+02 3.649110031127929688e+01 3.272758865356445312e+01 4.690210819244384766e+00 1.085753154754638672e+01 4.664322376251220703e+00 7.493785858154296875e+00
9.080000000000000000e+02 3.368630218505859375e+01 3.702250671386718750e+01 -1.530221402645111084e-01 8.033071160316467285e-01 1.950854957103729248e-01 -2.590484619140625000e-01
9.090000000000000000e+02 3.594337081909179688e+01 3.688466644287109375e+01 4.444102644920349121e-01 6.654850006103515625e+00 2.129778146743774414e+00 -3.565868139266967773e+00
9.100000000000000000e+02 3.642469787597656250e+01 3.614049148559570312e+01 4.270848631858825684e-01 9.760656356811523438e+00 3.056322336196899414e+00 -5.130980014801025391e+00
9.110000000000000000e+02 3.689712524414062500e+01 3.602019882202148438e+01 -4.225226342678070068e-01 1.448685073852539062e+01 4.219298362731933594e+00 -5.003836154937744141e+00
9.120000000000000000e+02 3.647806930541992188e+01 3.636901855468750000e+01 -1.557135283946990967e-01 1.028155422210693359e+01 3.037752151489257812e+00 -4.653050422668457031e+00
9.130000000000000000e+02 3.756837844848632812e+01 3.604613876342773438e+01 -7.441140413284301758e-01 1.914235115051269531e+01 5.519471168518066406e+00 -1.546553730964660645e+00
9.140000000000000000e+02 3.648648834228515625e+01 3.665523529052734375e+01 -2.417342066764831543e-01 1.052574253082275391e+01 3.085202455520629883e+00 -4.127344131469726562e+00
9.150000000000000000e+02 3.805493927001953125e+01 3.585143661499023438e+01 5.667796730995178223e-01 2.019837760925292969e+01 6.229547500610351562e+00 1.237051129341125488e+00
9.160000000000000000e+02 2.029732131958007812e+01 3.801581573486328125e+01 -2.043055556714534760e-02 -1.119414228014647961e-03 -6.464991252869367599e-03 2.124498784542083740e-02
9.170000000000000000e+02 1.420565509796142578e+01 1.887611150741577148e+00 -1.676087267696857452e-04 1.261771831195801497e-05 -4.649730180972255766e-05 7.342098251683637500e-05
9.180000000000000000e+02 1.257345581054687500e+01 1.750656485557556152e+00 1.565114798722788692e-04 -6.492845386674162000e-06 4.500559225562028587e-05 -7.553811155958101153e-05
9.190000000000000000e+02 3.181470680236816406e+01 3.363363647460937500e+01 -1.059174537658691406e-01 1.302757859230041504e-01 7.307500112801790237e-03 1.364345848560333252e-01
9.200000000000000000e+02 3.279591751098632812e+01 3.293801116943359375e+01 1.386700272560119629e+00 4.258188605308532715e-01 5.437557697296142578e-01 8.070584535598754883e-01
9.210000000000000000e+02 3.115580558776855469e+01 3.322481536865234375e+01 2.648800313472747803e-01 2.157241255044937134e-01 1.441812515258789062e-01 1.186033859848976135e-01
9.220000000000000000e+02 3.326255798339843750e+01 3.276338577270507812e+01 2.008839368820190430e+00 6.255867481231689453e-01 7.903278470039367676e-01 1.213709831237792969e+00
9.230000000000000000e+02 2.986935997009277344e+01 3.393862152099609375e+01 -5.315623879432678223e-01 1.173926591873168945e-01 -1.242509186267852783e-01 -1.222092732787132263e-01
9.240000000000000000e+02 3.228790283203125000e+01 3.307172012329101562e+01 8.710917234420776367e-01 2.727912664413452148e-01 3.431648910045623779e-01 4.681852161884307861e-01
9.250000000000000000e+02 3.395611572265625000e+01 3.291689300537109375e+01 2.478003501892089844e+00 6.415672302246093750e-01 9.358712434768676758e-01 1.693409204483032227e+00
9.260000000000000000e+02 3.253125762939453125e+01 3.789119338989257812e+01 1.944677382707595825e-01 2.713085412979125977e-01 1.397328823804855347e-01 1.326210498809814453e-01
9.270000000000000000e+02 3.517576980590820312e+01 3.687825393676757812e+01 4.147751033306121826e-01 4.342822074890136719e+00 1.427279114723205566e+00 -2.378694295883178711e+00
9.280000000000000000e+02 2.066904640197753906e+01 3.913748550415039062e+01 -8.086793124675750732e-03 -3.054365143179893494e-02 -1.158913318067789078e-02 4.639572277665138245e-02
9.290000000000000000e+02 1.940431785583496094e+01 3.847642517089843750e+01 -7.841025479137897491e-03 -5.608365871012210846e-03 -4.034817218780517578e-03 2.270690537989139557e-02
9.300000000000000000e+02 2.271081352233886719e+01 3.881207656860351562e+01 -4.379798471927642822e-02 -6.864856183528900146e-02 -3.373396396636962891e-02 1.093875542283058167e-01
9.310000000000000000e+02 6.051649570465087891e+00 1.885327816009521484e+00 -2.029808965744450688e-04 -1.131191966123878956e-04 -9.483002941124141216e-05 1.254700600838987157e-05
9.320000000000000000e+02 9.660103797912597656e+00 2.598820447921752930e+00 -3.755398211069405079e-04 -6.541870970977470279e-05 -1.322875614278018475e-04 -1.138477673521265388e-04
9.330000000000000000e+02 6.772268772125244141e+00 1.880958676338195801e+00 2.051044575637206435e-04 1.114450715249404311e-04 9.496486018178984523e-05 2.564162059570662677e-06
9.340000000000000000e+02 7.458202362060546875e+00 2.638978242874145508e+00 2.657091245055198669e-04 1.587877486599609256e-04 1.273490634048357606e-04 1.813716335163917392e-05
9.350000000000000000e+02 8.178910255432128906e+00 3.390623807907104492e+00 2.797842316795140505e-04 2.247077791253104806e-04 1.513476017862558365e-04 6.107508670538663864e-05
9.360000000000000000e+02 5.923539161682128906e+00 4.263222694396972656e+00 4.181908734608441591e-04 1.926684781210497022e-04 1.832577981986105442e-04 -7.602475670864805579e-05
9.370000000000000000e+02 1.702623486518859863e+00 7.711095333099365234e+00 7.143903058022260666e-04 5.081155450170626864e-06 2.158414426958188415e-04 -1.661074747971724719e-05
9.380000000000000000e+02 3.849098980426788330e-01 3.771827936172485352e+00 6.597079336643218994e-04 1.189290414913557470e-04 2.335910830879583955e-04 1.690836070338264108e-04
9.390000000000000000e+02 2.267535448074340820e+00 3.510976791381835938e+00 4.167054430581629276e-04 8.901630644686520100e-05 1.517165219411253929e-04 -2.667760418262332678e-04
9.400000000000000000e+02 3.837400674819946289e-01 2.093036651611328125e+00 -2.779841888695955276e-04 -1.494270400144159794e-04 -1.282233715755864978e-04 1.219718906213529408e-04
9.410000000000000000e+02 1.113101363182067871e+00 1.930606126785278320e+00 9.237311132892500609e-06 2.311538555659353733e-04 7.211734919110313058e-05 -4.721232471638359129e-05
9.420000000000000000e+02 1.113391971588134766e+01 1.817170143127441406e+00 3.318897215649485588e-04 -2.919041799032129347e-05 9.080979361897334456e-05 -4.549093137029558420e-05
9.430000000000000000e+02 9.682151794433593750e+00 3.345121860504150391e+00 4.521403170656412840e-04 1.208204193972051144e-04 1.718882122077047825e-04 1.952593302121385932e-04
9.440000000000000000e+02 2.552706909179687500e+01 3.438917922973632812e+01 -3.763180077075958252e-01 5.643615126609802246e-02 -9.596455097198486328e-02 -2.836641967296600342e-01
9.450000000000000000e+02 2.703022384643554688e+01 3.262134933471679688e+01 7.194973528385162354e-02 1.808774471282958984e-01 7.584815472364425659e-02 -2.809976339340209961e-01
9.460000000000000000e+02 2.697859382629394531e+01 3.344207382202148438e+01 -2.074349373579025269e-01 1.302915960550308228e-01 -2.314300276339054108e-02 -3.124102354049682617e-01
9.470000000000000000e+02 2.289258766174316406e+01 3.223417282104492188e+01 6.275452207773923874e-03 -2.003596276044845581e-01 -5.822525545954704285e-02 -3.053044080734252930e-01
9.480000000000000000e+02 2.843354415893554688e+01 3.342142105102539062e+01 -1.841735839843750000e-01 1.623085737228393555e-01 -6.559505593031644821e-03 -2.231118530035018921e-01
9.490000000000000000e+02 3.168042373657226562e+01 3.267861557006835938e+01 1.022610664367675781e+00 3.685712218284606934e-01 4.173545539379119873e-01 4.587530791759490967e-01
9.500000000000000000e+02 2.984696006774902344e+01 3.334861755371093750e+01 -3.744563460350036621e-02 1.765356808900833130e-01 4.172701761126518250e-02 -7.774761319160461426e-02
9.510000000000000000e+02 1.178170680999755859e+01 -2.635153770446777344e+00 -7.273658411577343941e-04 -6.667980051133781672e-05 -2.382136881351470947e-04 3.445093170739710331e-04
9.520000000000000000e+02 1.029904747009277344e+01 -3.350129127502441406e+00 4.125004052184522152e-04 3.899173752870410681e-04 2.407253341516479850e-04 -9.678682545199990273e-05
9.530000000000000000e+02 1.106384754180908203e+01 -2.622956514358520508e+00 4.414269933477044106e-04 2.675118157640099525e-04 2.126816398231312633e-04 -2.954004157800227404e-04
9.540000000000000000e+02 1.246061038970947266e+01 2.316943407058715820e+00 -2.881166292354464531e-04 -2.424179547233507037e-05 -9.370752377435564995e-05 1.600958494236692786e-04
9.550000000000000000e+02 1.040209388732910156e+01 2.568134307861328125e+00 4.653219657484441996e-04 -1.753246760927140713e-05 1.343368494417518377e-04 6.850451609352603555e-05
9.560000000000000000e+02 1.293857669830322266e+01 2.358921289443969727e+00 -5.943556243437342346e-05 8.134455129038542509e-05 6.572696747753070667e-06 -2.396731179032940418e-05
9.570000000000000000e+02 1.336493873596191406e+01 2.538599729537963867e+00 -5.684615462087094784e-05 -1.534430921310558915e-04 -6.308677984634414315e-05 -2.830871962942183018e-04
9.580000000000000000e+02 3.112274169921875000e+01 3.803884124755859375e+01 -7.553108036518096924e-02 -1.086211130023002625e-01 -5.524566024541854858e-02 4.021732807159423828e-01
9.590000000000000000e+02 2.974048423767089844e+01 3.753804779052734375e+01 -7.088891863822937012e-01 -3.300969302654266357e-01 -3.116958439350128174e-01 6.263889670372009277e-01
9.600000000000000000e+02 2.878440093994140625e+01 3.902146530151367188e+01 1.683213710784912109e-01 -1.360027790069580078e-01 9.695576503872871399e-03 4.690260589122772217e-01
9.610000000000000000e+02 3.007891654968261719e+01 3.923003768920898438e+01 4.032796919345855713e-01 -1.714589297771453857e-01 6.954623013734817505e-02 3.417885303497314453e-01
9.620000000000000000e+02 8.076468467712402344e+00 -1.858204722404479980e+00 -3.957581066060811281e-04 -1.886508252937346697e-04 -1.753226679284125566e-04 -6.138945173006504774e-05
9.630000000000000000e+02 9.585827827453613281e+00 -2.587180376052856445e+00 3.901935415342450142e-04 2.918405516538769007e-04 2.046102308668196201e-04 -3.960015965276397765e-05
9.640000000000000000e+02 7.356254577636718750e+00 -2.588369846343994141e+00 -6.207443657331168652e-04 -1.267200714210048318e-04 -2.242393384221941233e-04 -1.290277432417497039e-04
9.650000000000000000e+02 8.097527503967285156e+00 -2.580882787704467773e+00 5.160055588930845261e-04 2.023678971454501152e-04 2.155120309907943010e-04 1.265377941308543086e-04
9.660000000000000000e+02 8.842449188232421875e+00 -2.578874826431274414e+00 -4.322901077102869749e-04 -2.599583240225911140e-04 -2.076745295198634267e-04 -6.134420254966244102e-05
9.670000000000000000e+02 6.559666633605957031e+00 -1.860809803009033203e+00 -4.824771604035049677e-04 -1.154349956777878106e-04 -1.793736446416005492e-04 -2.916230369010008872e-05
9.680000000000000000e+02 6.621097564697265625e+00 -2.593688726425170898e+00 6.727782310917973518e-04 7.229369657579809427e-05 2.235215797554701567e-04 7.605703285662457347e-05
9.690000000000000000e+02 5.155351638793945312e+00 -2.616034507751464844e+00 5.842038663104176521e-04 4.296844417694956064e-05 1.881516946014016867e-04 -4.253851875546388328e-05
9.700000000000000000e+02 1.617197990417480469e+00 -8.115442276000976562e+00 1.353485044091939926e-03 8.518055255990475416e-05 4.315996484365314245e-04 -1.086213887901976705e-04
9.710000000000000000e+02 3.555603504180908203e+00 -4.197247028350830078e+00 -4.973377217538654804e-04 2.105560997733846307e-04 -8.603448077337816358e-05 5.141588044352829456e-04
9.720000000000000000e+02 1.644370675086975098e+00 -6.801211833953857422e+00 -1.155359437689185143e-03 -2.678283999557606876e-05 -3.546426887623965740e-04 1.849650288932025433e-04
9.730000000000000000e+02 4.188142716884613037e-01 -2.198430299758911133e+00 -6.462150486186146736e-04 -4.267587883077794686e-06 -1.951447920873761177e-04 -7.064927194733172655e-05
9.740000000000000000e+02 5.505847930908203125e-01 -3.638186216354370117e+00 7.825905340723693371e-04 -5.827082713949494064e-05 2.172959066228941083e-04 3.876943083014339209e-05
9.750000000000000000e+02 6.031870841979980469e-01 -5.115420818328857422e+00 -9.591818670742213726e-04 7.241111597977578640e-05 -2.660312165971845388e-04 7.924799137981608510e-05
9.760000000000000000e+02 3.834532546997070312e+01 3.280498886108398438e+01 4.508760929107666016e+00 1.883976936340332031e+01 7.004559040069580078e+00 1.944670677185058594e-01
9.770000000000000000e+02 3.719768142700195312e+01 3.256052398681640625e+01 2.922777175903320312e+00 1.710391235351562500e+01 6.008007049560546875e+00 5.351865291595458984e+00
9.780000000000000000e+02 3.851266098022460938e+01 3.639424896240234375e+01 7.753776907920837402e-01 1.707521820068359375e+01 5.355178833007812500e+00 1.453246474266052246e+00
9.790000000000000000e+02 4.206997680664062500e+01 3.332501983642578125e+01 4.607188224792480469e+00 1.160025787353515625e+01 4.862233638763427734e+00 7.682174444198608398e-02
9.800000000000000000e+02 3.926520156860351562e+01 3.605744934082031250e+01 3.027958393096923828e+00 1.638012504577636719e+01 5.822424888610839844e+00 3.048550844192504883e+00
9.810000000000000000e+02 3.905986404418945312e+01 3.210008239746093750e+01 3.570364475250244141e+00 1.559231853485107422e+01 5.748805046081542969e+00 -1.071839779615402222e-01
9.820000000000000000e+02 3.975306701660156250e+01 3.252778244018554688e+01 4.618884086608886719e+00 1.443186855316162109e+01 5.715225696563720703e+00 -5.106540322303771973e-01
9.830000000000000000e+02 3.992794799804687500e+01 3.393915939331054688e+01 7.515312194824218750e+00 1.408727645874023438e+01 6.480776786804199219e+00 8.555729389190673828e-01
9.840000000000000000e+02 2.708418846130371094e+01 3.849538803100585938e+01 -1.088857948780059814e-01 -3.373639881610870361e-01 -1.338749378919601440e-01 6.056541800498962402e-01
9.850000000000000000e+02 2.903887939453125000e+01 3.849753189086914062e+01 -1.577486693859100342e-01 -1.869872510433197021e-01 -1.034207716584205627e-01 5.520578026771545410e-01
9.860000000000000000e+02 2.943399047851562500e+01 3.817913818359375000e+01 -3.350759446620941162e-01 -2.976816296577453613e-01 -1.898272782564163208e-01 5.653997659683227539e-01
9.870000000000000000e+02 2.403071975708007812e+01 4.013294601440429688e+01 1.211712658405303955e-01 -2.252095043659210205e-01 -3.121147118508815765e-02 2.074189037084579468e-01
9.880000000000000000e+02 2.319707489013671875e+01 3.939775848388671875e+01 -5.161606241017580032e-03 -1.734809577465057373e-01 -5.359276756644248962e-02 1.383017897605895996e-01
9.890000000000000000e+02 2.842446517944335938e+01 3.978902435302734375e+01 3.759955763816833496e-01 -1.496516354382038116e-02 1.083091273903846741e-01 5.405251979827880859e-01
9.900000000000000000e+02 2.509468841552734375e+01 4.122179794311523438e+01 3.273477852344512939e-01 -5.216830372810363770e-01 -5.830057710409164429e-02 -2.351932786405086517e-02
9.910000000000000000e+02 2.291957855224609375e+01 3.438299942016601562e+01 -1.295322924852371216e-01 -7.143363356590270996e-02 -6.028977409005165100e-02 -2.275208681821823120e-01
9.920000000000000000e+02 2.290835952758789062e+01 3.333227920532226562e+01 -6.970549374818801880e-02 -1.324494034051895142e-01 -6.064647063612937927e-02 -2.898595631122589111e-01
9.930000000000000000e+02 2.623101806640625000e+01 3.343880844116210938e+01 -1.922574043273925781e-01 1.011821851134300232e-01 -2.732256427407264709e-02 -3.351802229881286621e-01
9.940000000000000000e+02 2.626920509338378906e+01 3.253947448730468750e+01 4.699746146798133850e-02 1.327933967113494873e-01 5.393725633621215820e-02 -3.227059841156005859e-01
9.950000000000000000e+02 2.095047187805175781e+01 3.233810043334960938e+01 1.441902131773531437e-03 -4.305782020092010498e-01 -1.287408918142318726e-01 -8.837936073541641235e-02
9.960000000000000000e+02 1.987368011474609375e+01 3.883759307861328125e+01 -1.101488340646028519e-02 -1.058441866189241409e-02 -6.479790899902582169e-03 3.580261021852493286e-02
9.970000000000000000e+02 2.282068824768066406e+01 -4.128649520874023438e+01 -4.560210108757019043e-01 3.737273693084716797e+00 9.843757748603820801e-01 -6.952986866235733032e-02
9.980000000000000000e+02 1.906308746337890625e+01 -3.773504638671875000e+01 3.762275278568267822e-01 3.085991144180297852e+00 1.038665533065795898e+00 8.466017246246337891e-01
9.990000000000000000e+02 1.307410335540771484e+01 -3.721501922607421875e+01 -8.468361943960189819e-02 2.345539443194866180e-02 -1.836846768856048584e-02 2.341825142502784729e-02
1.000000000000000000e+03 1.345673942565917969e+01 2.581678962707519531e+01 3.178322920575737953e-03 6.294014019658789039e-05 9.723789407871663570e-04 9.243879321729764342e-05
1.001000000000000000e+03 1.198349380493164062e+01 2.451300430297851562e+01 2.471813699230551720e-03 2.815884363371878862e-04 8.260206668637692928e-04 3.308818850200623274e-05
1.002000000000000000e+03 1.430591964721679688e+01 3.142313194274902344e+01 4.622816108167171478e-03 2.927136956714093685e-04 1.474658958613872528e-03 -9.435623360332101583e-05
1.003000000000000000e+03 1.680111503601074219e+01 3.523424530029296875e+01 7.954816333949565887e-03 2.707218285650014877e-03 3.198610385879874229e-03 7.672255160287022591e-04
1.004000000000000000e+03 1.695960998535156250e+01 3.770210647583007812e+01 7.931341417133808136e-03 -1.696189865469932556e-02 -2.709167310968041420e-03 1.368431281298398972e-02
1.005000000000000000e+03 1.512666034698486328e+01 3.411478805541992188e+01 5.412137601524591446e-03 1.057674642652273178e-03 1.940943649969995022e-03 6.098409648984670639e-04
1.006000000000000000e+03 1.444483184814453125e+01 1.876234054565429688e+01 2.551135607063770294e-03 -3.723479312611743808e-05 7.541702361777424812e-04 7.256261142174480483e-06
1.007000000000000000e+03 1.312399101257324219e+01 1.879543113708496094e+01 -2.432029228657484055e-03 4.568472286337055266e-05 -7.159033557400107384e-04 -1.026174487606112962e-07
1.008000000000000000e+03 1.467630863189697266e+01 2.432917785644531250e+01 3.319594077765941620e-03 3.960376488976180553e-06 9.970663813874125481e-04 -9.749548189574852586e-05
1.009000000000000000e+03 1.378477478027343750e+01 2.864884567260742188e+01 3.824944142252206802e-03 -9.361319825984537601e-05 1.119399210438132286e-03 5.681382754119113088e-05
1.010000000000000000e+03 1.360419273376464844e+01 2.723137092590332031e+01 -3.389971330761909485e-03 7.337060378631576896e-05 -9.949802188202738762e-04 -3.179967461619526148e-05
1.011000000000000000e+03 1.400887107849121094e+01 3.004779434204101562e+01 -3.811523085460066795e-03 2.878804516512900591e-04 -1.057092798873782158e-03 5.643545882776379585e-04
1.012000000000000000e+03 1.307236003875732422e+01 1.739119338989257812e+01 2.346232067793607712e-03 -3.594125519157387316e-05 6.930872914381325245e-04 3.000368633365724236e-05
1.013000000000000000e+03 1.339270591735839844e+01 1.174765014648437500e+01 1.412750920280814171e-03 1.593182096257805824e-04 4.716207331512123346e-04 3.386417229194194078e-04
1.014000000000000000e+03 1.306861209869384766e+01 1.448069667816162109e+01 1.879336661659181118e-03 -1.955134212039411068e-04 5.051469779573380947e-04 2.986814943142235279e-04
1.015000000000000000e+03 1.461708164215087891e+01 5.021287441253662109e+00 9.517813450656831264e-04 7.433314021909609437e-05 3.078343579545617104e-04 -1.698449050309136510e-04
1.016000000000000000e+03 1.184480094909667969e+01 2.416745424270629883e+00 4.123076214455068111e-04 -2.200633025495335460e-05 1.170903851743787527e-04 -1.207457680720835924e-04
1.017000000000000000e+03 1.050826549530029297e+01 4.066030979156494141e+00 7.009906694293022156e-04 9.475793922320008278e-05 2.387245913268998265e-04 2.711435663513839245e-04
1.018000000000000000e+03 1.354851818084716797e+01 7.797966480255126953e+00 -1.054531196132302284e-03 -1.089272045646794140e-04 -3.490374947432428598e-04 -5.612071254290640354e-05
1.019000000000000000e+03 1.328303813934326172e+01 1.308814334869384766e+01 -1.607822603546082973e-03 6.895459137012949213e-07 -4.821399343200027943e-04 -4.248152254149317741e-04
1.020000000000000000e+03 7.931162261962890625e+01 -2.777840232849121094e+01 5.068194004707038403e-04 9.232826232910156250e+00 2.769999980926513672e+00 -9.502774104475975037e-03
1.021000000000000000e+03 7.695620727539062500e+01 -3.815279388427734375e+01 -2.491591311991214752e-02 9.086365699768066406e+00 2.718434810638427734e+00 6.656051147729158401e-03
1.022000000000000000e+03 7.923836517333984375e+01 -3.476194000244140625e+01 -6.227282574400305748e-04 9.262306213378906250e+00 2.778504848480224609e+00 -1.344523276202380657e-03
1.023000000000000000e+03 7.752688598632812500e+01 3.238317489624023438e+01 1.972668245434761047e-02 5.549239635467529297e+00 1.670689821243286133e+00 -1.745176017284393311e-01
1.024000000000000000e+03 7.926380157470703125e+01 3.625608825683593750e+01 2.011037617921829224e-02 4.980377674102783203e+00 1.500146389007568359e+00 -2.088115550577640533e-02
1.025000000000000000e+03 7.935913085937500000e+01 -2.082154273986816406e+01 -6.118441815488040447e-04 9.165352821350097656e+00 2.749422311782836914e+00 -1.497183926403522491e-02
1.026000000000000000e+03 7.792539215087890625e+01 -2.760235786437988281e+01 -1.790545298717916012e-03 9.095191955566406250e+00 2.728020191192626953e+00 -1.719542592763900757e-02
1.027000000000000000e+03 7.795019531250000000e+01 -2.619702148437500000e+01 -2.534138038754463196e-03 9.088145256042480469e+00 2.725683450698852539e+00 -2.161039225757122040e-02
1.028000000000000000e+03 7.929893493652343750e+01 -3.057373428344726562e+01 1.841019839048385620e-03 9.250871658325195312e+00 2.775813817977905273e+00 -8.288092911243438721e-03
1.029000000000000000e+03 7.766500091552734375e+01 -3.463385009765625000e+01 -4.417450691107660532e-04 9.117828369140625000e+00 2.735215902328491211e+00 -9.523572400212287903e-03
1.030000000000000000e+03 7.773461914062500000e+01 -3.325323486328125000e+01 -7.986224256455898285e-03 9.107833862304687500e+00 2.729954242706298828e+00 -1.277368236333131790e-02
1.031000000000000000e+03 7.637456512451171875e+01 -3.942230224609375000e+01 -1.016310602426528931e-02 9.107295036315917969e+00 2.729139566421508789e+00 -6.870331708341836929e-03
1.032000000000000000e+03 7.805870056152343750e+01 1.412273025512695312e+01 -5.584131926298141479e-03 7.232965469360351562e+00 2.168214559555053711e+00 -2.191077619791030884e-01
1.033000000000000000e+03 7.935163879394531250e+01 1.539549827575683594e+01 -1.732535893097519875e-03 7.058503627777099609e+00 2.117031335830688477e+00 -8.409171551465988159e-02
1.034000000000000000e+03 7.800262451171875000e+01 2.108813858032226562e+01 1.458110986277461052e-03 6.505631446838378906e+00 1.952126979827880859e+00 -2.422648668289184570e-01
1.035000000000000000e+03 7.933009338378906250e+01 2.236395072937011719e+01 -6.468191713793203235e-05 6.225583076477050781e+00 1.867655515670776367e+00 -8.887903392314910889e-02
1.036000000000000000e+03 7.780606079101562500e+01 3.088748168945312500e+01 1.241207867860794067e-02 5.605309486389160156e+00 1.685316443443298340e+00 -1.823635399341583252e-01
1.037000000000000000e+03 7.791860198974609375e+01 2.808990478515625000e+01 1.617935299873352051e-02 5.801238059997558594e+00 1.745225191116333008e+00 -2.057872861623764038e-01
1.038000000000000000e+03 7.930562591552734375e+01 2.794504547119140625e+01 1.334679895080626011e-03 5.602850437164306641e+00 1.681255578994750977e+00 -7.248794287443161011e-02
1.039000000000000000e+03 7.794543457031250000e+01 2.529795837402343750e+01 1.051708869636058807e-02 6.071137428283691406e+00 1.824496269226074219e+00 -2.300003468990325928e-01
1.040000000000000000e+03 7.796333312988281250e+01 2.389109992980957031e+01 6.504602264612913132e-03 6.213891983032226562e+00 1.866119027137756348e+00 -2.388305515050888062e-01
1.041000000000000000e+03 7.802940368652343750e+01 1.830061721801757812e+01 -1.128520700149238110e-03 6.800762653350830078e+00 2.039890289306640625e+00 -2.361355721950531006e-01
1.042000000000000000e+03 7.804101562500000000e+01 1.690476226806640625e+01 -3.774132113903760910e-03 6.947885513305664062e+00 2.083233356475830078e+00 -2.308686375617980957e-01
1.043000000000000000e+03 7.806270599365234375e+01 1.272575855255126953e+01 -4.677328281104564667e-03 7.370715618133544922e+00 2.209811449050903320e+00 -2.118157148361206055e-01
1.044000000000000000e+03 7.677919006347656250e+01 1.141614246368408203e+01 -1.475226599723100662e-02 7.504590988159179688e+00 2.246951580047607422e+00 -3.173981904983520508e-01
1.045000000000000000e+03 7.807588195800781250e+01 8.562902450561523438e+00 -7.554586045444011688e-03 7.749806880950927734e+00 2.322675704956054688e+00 -1.851386576890945435e-01
1.046000000000000000e+03 7.935783386230468750e+01 9.823401451110839844e+00 -2.183130942285060883e-03 7.655586242675781250e+00 2.296020984649658203e+00 -7.380352169275283813e-02
1.047000000000000000e+03 7.936317443847656250e+01 -1.943330764770507812e+01 -9.833606891334056854e-04 9.144661903381347656e+00 2.743103742599487305e+00 -1.675947941839694977e-02
1.048000000000000000e+03 7.935897827148437500e+01 -1.387593269348144531e+01 -7.755617261864244938e-04 9.028380393981933594e+00 2.708281517028808594e+00 -2.451225183904170990e-02
1.049000000000000000e+03 7.934836578369140625e+01 -6.897253990173339844e+00 -1.144373090937733650e-03 8.798901557922363281e+00 2.639327049255371094e+00 -3.627419471740722656e-02
1.050000000000000000e+03 7.808148956298828125e+01 2.406106591224670410e-01 -7.204281631857156754e-03 8.347138404846191406e+00 2.501980304718017578e+00 -1.289831250905990601e-01
1.051000000000000000e+03 7.936088562011718750e+01 1.473898530006408691e+00 -1.877018134109675884e-03 8.349478721618652344e+00 2.504280567169189453e+00 -5.419574305415153503e-02
1.052000000000000000e+03 7.678770446777343750e+01 7.291795730590820312e+00 -1.851806603372097015e-02 7.827860832214355469e+00 2.342802762985229492e+00 -2.754371166229248047e-01
1.053000000000000000e+03 7.789728546142578125e+01 2.947555923461914062e+01 1.032755151391029358e-02 5.688400745391845703e+00 1.709618568420410156e+00 -1.871030181646347046e-01
1.054000000000000000e+03 7.419039916992187500e+01 3.651715087890625000e+01 1.432412564754486084e-01 5.926212310791015625e+00 1.820836067199707031e+00 -2.398648560047149658e-01
1.055000000000000000e+03 7.807256317138671875e+01 9.947934150695800781e+00 -5.771838594228029251e-03 7.629091739654541016e+00 2.286995887756347656e+00 -1.945322901010513306e-01
1.056000000000000000e+03 7.679425048828125000e+01 3.834391534328460693e-01 -1.724031008780002594e-02 8.265871047973632812e+00 2.474589347839355469e+00 -2.019271850585937500e-01
1.057000000000000000e+03 7.807878112792968750e+01 3.015484809875488281e+00 -7.632279768586158752e-03 8.172643661499023438e+00 2.449503660202026367e+00 -1.475330591201782227e-01
1.058000000000000000e+03 7.678790283203125000e+01 -1.005536198616027832e+00 -1.739316061139106750e-02 8.337570190429687500e+00 2.496052980422973633e+00 -1.881829500198364258e-01
1.059000000000000000e+03 7.935781097412109375e+01 -2.706269979476928711e+00 -1.382763730362057686e-03 8.602919578552246094e+00 2.580461025238037109e+00 -4.462246969342231750e-02
1.060000000000000000e+03 7.802798461914062500e+01 -6.767540454864501953e+00 -5.694305058568716049e-03 8.682268142700195312e+00 2.602972030639648438e+00 -8.918771892786026001e-02
1.061000000000000000e+03 7.803753662109375000e+01 -5.364832878112792969e+00 -6.043903995305299759e-03 8.626087188720703125e+00 2.586013078689575195e+00 -9.596682339906692505e-02
1.062000000000000000e+03 7.934860229492187500e+01 -9.688078880310058594e+00 -1.229861285537481308e-03 8.903672218322753906e+00 2.670732736587524414e+00 -3.129734471440315247e-02
1.063000000000000000e+03 7.807503509521484375e+01 -1.377599525451660156e+01 -4.205802921205759048e-03 8.903854370117187500e+00 2.669894456863403320e+00 -5.648421123623847961e-02
1.064000000000000000e+03 7.806098937988281250e+01 -1.238246440887451172e+01 -4.450251813977956772e-03 8.866659164428710938e+00 2.658662796020507812e+00 -6.215020269155502319e-02
1.065000000000000000e+03 7.936458587646484375e+01 -1.665576171875000000e+01 -8.021955145522952080e-04 9.093213081359863281e+00 2.727723360061645508e+00 -2.058720774948596954e-02
1.066000000000000000e+03 7.807235717773437500e+01 -2.066616058349609375e+01 -3.727188566699624062e-03 9.036218643188476562e+00 2.709747552871704102e+00 -3.349542990326881409e-02
1.067000000000000000e+03 7.808644104003906250e+01 -1.929047012329101562e+01 -3.745657857507467270e-03 9.016321182250976562e+00 2.703772544860839844e+00 -3.769807144999504089e-02
1.068000000000000000e+03 1.310948085784912109e+01 -3.011450767517089844e+01 5.753192584961652756e-03 1.230665511684492230e-04 1.762877800501883030e-03 -8.084691944532096386e-04
1.069000000000000000e+03 2.210634803771972656e+01 1.628334283828735352e+00 -1.762991212308406830e-02 3.468367576599121094e+00 1.035221219062805176e+00 2.767691612243652344e-01
1.070000000000000000e+03 2.341307640075683594e+01 1.727895736694335938e+00 -2.736501162871718407e-03 3.599217653274536133e+00 1.078944325447082520e+00 3.650541007518768311e-01
1.071000000000000000e+03 2.017978858947753906e+01 -1.388933467864990234e+01 8.911784738302230835e-02 4.090485095977783203e+00 1.253880858421325684e+00 2.292553335428237915e-01
1.072000000000000000e+03 1.380743312835693359e+01 -3.873309707641601562e+01 -1.419935524463653564e-01 4.198355600237846375e-02 -3.000299818813800812e-02 -7.257799059152603149e-02
1.073000000000000000e+03 1.985914230346679688e+01 -1.808740806579589844e+01 -3.220306709408760071e-02 3.494255065917968750e+00 1.038615584373474121e+00 2.146994173526763916e-01
1.074000000000000000e+03 2.038464927673339844e+01 -5.456357479095458984e+00 -3.628095984458923340e-02 3.373259782791137695e+00 1.001093626022338867e+00 1.610858291387557983e-01
1.075000000000000000e+03 2.202672386169433594e+01 2.373867034912109375e-01 -4.353902488946914673e-02 3.537280559539794922e+00 1.048122406005859375e+00 3.185490667819976807e-01
1.076000000000000000e+03 2.165542602539062500e+01 -8.140566825866699219e+00 4.026408307254314423e-03 3.790817499160766602e+00 1.138453125953674316e+00 2.153096050024032593e-01
1.077000000000000000e+03 2.132414436340332031e+01 -1.938446044921875000e+01 -7.195203751325607300e-02 3.824234008789062500e+00 1.125684618949890137e+00 1.900587826967239380e-01
1.078000000000000000e+03 2.174262809753417969e+01 -5.349797725677490234e+00 -7.036492228507995605e-02 3.689670324325561523e+00 1.085791707038879395e+00 2.254332005977630615e-01
1.079000000000000000e+03 1.972295951843261719e+01 -3.361855697631835938e+01 1.592088639736175537e-01 4.291598320007324219e+00 1.335242152214050293e+00 1.759643405675888062e-01
1.080000000000000000e+03 2.145664596557617188e+01 -1.517626094818115234e+01 6.412962079048156738e-02 3.920395612716674805e+00 1.195357561111450195e+00 1.536045372486114502e-01
1.081000000000000000e+03 2.151455879211425781e+01 -1.377207088470458984e+01 9.000106155872344971e-02 3.896879911422729492e+00 1.196064233779907227e+00 2.074827402830123901e-01
1.082000000000000000e+03 2.180929565429687500e+01 -3.961725950241088867e+00 -2.641656994819641113e-02 3.654733419418334961e+00 1.088495016098022461e+00 2.026288807392120361e-01
1.083000000000000000e+03 2.231578445434570312e+01 7.302182674407958984e+00 6.839510519057512283e-03 2.971168756484985352e+00 8.934024572372436523e-01 3.373507261276245117e-01
1.084000000000000000e+03 2.461566352844238281e+01 -2.183114624023437500e+01 -6.144523620605468750e-02 4.172896385192871094e+00 1.233435273170471191e+00 1.361112892627716064e-01
1.085000000000000000e+03 1.199740982055664062e+01 -2.741788482666015625e+01 -5.037549417465925217e-03 -2.201261930167675018e-03 -2.171643311157822609e-03 8.159969584085047245e-04
1.086000000000000000e+03 2.218837928771972656e+01 3.028452634811401367e+00 5.994122475385665894e-02 3.382917642593383789e+00 1.032857656478881836e+00 2.885743677616119385e-01
1.087000000000000000e+03 1.448035144805908203e+01 -2.483348083496093750e+01 -6.242202594876289368e-03 9.057655697688460350e-04 -1.600931165739893913e-03 -5.024613928981125355e-04
1.088000000000000000e+03 1.205467605590820312e+01 -2.499618721008300781e+01 -3.670274512842297554e-03 -1.793583505786955357e-03 -1.639157417230308056e-03 -7.042820798233151436e-04
1.089000000000000000e+03 2.132302856445312500e+01 -2.665005111694335938e+01 5.530363414436578751e-03 3.893718242645263672e+00 1.169774532318115234e+00 9.852967411279678345e-02
1.090000000000000000e+03 2.096988677978515625e+01 2.686028099060058594e+01 1.377918478101491928e-02 -9.939875006675720215e-01 -2.940624952316284180e-01 1.388561446219682693e-02
1.091000000000000000e+03 2.106307601928710938e+01 1.140482330322265625e+01 -1.322757219895720482e-03 1.996630311012268066e+00 5.985922217369079590e-01 1.257476955652236938e-01
1.092000000000000000e+03 2.093033599853515625e+01 3.101289367675781250e+01 7.872648537158966064e-03 -6.708316206932067871e-01 -1.988876909017562866e-01 -7.649844139814376831e-02
1.093000000000000000e+03 1.483022975921630859e+01 -2.151203393936157227e+00 -4.864013171754777431e-04 -4.810000609722919762e-05 -1.603503915248438716e-04 -1.187052475870586932e-04
1.094000000000000000e+03 2.162339019775390625e+01 -9.547153472900390625e+00 3.865433484315872192e-02 3.829118013381958008e+00 1.160331726074218750e+00 1.801700145006179810e-01
1.095000000000000000e+03 2.169260597229003906e+01 -6.741051197052001953e+00 -4.768459498882293701e-02 3.719034433364868164e+00 1.101405024528503418e+00 2.233784794807434082e-01
1.096000000000000000e+03 2.232411956787109375e+01 1.013757801055908203e+01 -1.088855043053627014e-02 2.504539728164672852e+00 7.480953335762023926e-01 3.504784405231475830e-01
1.097000000000000000e+03 2.349823570251464844e+01 1.734716987609863281e+01 -3.792493138462305069e-03 1.563691973686218262e+00 4.679698348045349121e-01 6.537000536918640137e-01
1.098000000000000000e+03 2.101537704467773438e+01 2.265611648559570312e+01 9.035135619342327118e-03 -5.153157711029052734e-01 -1.518841832876205444e-01 1.084661036729812622e-01
1.099000000000000000e+03 2.316478347778320312e+01 2.573993301391601562e+01 1.591614782810211182e-01 4.200484976172447205e-02 6.034990027546882629e-02 2.381278723478317261e-01
1.100000000000000000e+03 2.103596878051757812e+01 1.984744071960449219e+01 3.897741204127669334e-03 7.655759155750274658e-02 2.413659915328025818e-02 1.373728811740875244e-01
1.101000000000000000e+03 2.223843002319335938e+01 2.000602149963378906e+01 1.514906529337167740e-02 5.576426982879638672e-01 1.718375235795974731e-01 3.903079926967620850e-01
1.102000000000000000e+03 2.343965339660644531e+01 2.017011642456054688e+01 4.158826544880867004e-02 1.025112748146057129e+00 3.200103044509887695e-01 6.143903732299804688e-01
1.103000000000000000e+03 2.227536392211914062e+01 1.719044685363769531e+01 -3.398660104721784592e-03 1.146256566047668457e+00 3.428573906421661377e-01 4.153576493263244629e-01
1.104000000000000000e+03 2.225944900512695312e+01 1.859933280944824219e+01 6.591253448277711868e-03 8.509820699691772461e-01 2.572720050811767578e-01 4.102537631988525391e-01
1.105000000000000000e+03 2.199356079101562500e+01 2.835456275939941406e+01 6.227513030171394348e-02 -5.532838702201843262e-01 -1.473026275634765625e-01 -6.258180737495422363e-02
1.106000000000000000e+03 2.324474143981933594e+01 2.435651588439941406e+01 1.311908513307571411e-01 2.531782686710357666e-01 1.153107360005378723e-01 3.730195164680480957e-01
1.107000000000000000e+03 2.230093002319335938e+01 1.437240219116210938e+01 -1.450882758945226669e-02 1.723133921623229980e+00 5.125875473022460938e-01 3.993349969387054443e-01
1.108000000000000000e+03 1.324330615997314453e+01 -1.463606262207031250e+01 -2.363044302910566330e-03 -4.095341719221323729e-04 -8.317735628224909306e-04 5.306581733748316765e-04
1.109000000000000000e+03 1.363937568664550781e+01 -7.932429313659667969e+00 1.846869359724223614e-03 1.045918324962258339e-04 5.854383925907313824e-04 -2.641861501615494490e-04
1.110000000000000000e+03 1.462115001678466797e+01 -7.928169250488281250e+00 -2.105652354657649994e-03 -6.388535985024645925e-05 -6.508613005280494690e-04 9.132506238529458642e-05
1.111000000000000000e+03 1.104265117645263672e+01 -3.386680364608764648e+00 -4.036932077724486589e-04 -4.473905428312718868e-04 -2.553251106292009354e-04 2.900802937801927328e-04
1.112000000000000000e+03 1.342045021057128906e+01 -1.192655944824218750e+01 -2.181950956583023071e-03 -2.264510549139231443e-04 -7.225206354632973671e-04 2.273282152600586414e-04
1.113000000000000000e+03 1.455108833312988281e+01 -1.208213615417480469e+01 2.564216963946819305e-03 1.099324872484430671e-04 8.022448746487498283e-04 -2.709172840695828199e-04
1.114000000000000000e+03 1.362593936920166016e+01 -5.309290409088134766e+00 1.382669084705412388e-03 1.980240922421216965e-04 4.742079472634941339e-04 -1.633227075217291713e-04
1.115000000000000000e+03 1.462060451507568359e+01 -5.184475421905517578e+00 -1.579989446327090263e-03 -1.131682147388346493e-04 -5.079472903162240982e-04 -9.857537224888801575e-05
1.116000000000000000e+03 1.448866844177246094e+01 -1.486045455932617188e+01 2.863228088244795799e-03 2.440040261717513204e-04 9.321696124970912933e-04 -5.189503426663577557e-04
1.117000000000000000e+03 1.431513023376464844e+01 -1.905101203918457031e+01 -4.121446516364812851e-03 7.254850061144679785e-05 -1.214669318869709969e-03 8.566587930545210838e-04
1.118000000000000000e+03 2.195022392272949219e+01 2.970363235473632812e+01 4.886985570192337036e-02 -5.266985297203063965e-01 -1.433486044406890869e-01 -1.466908752918243408e-01
1.119000000000000000e+03 2.302714347839355469e+01 2.846152496337890625e+01 1.492343097925186157e-01 -2.165658324956893921e-01 -2.019945904612541199e-02 -5.902374908328056335e-02
1.120000000000000000e+03 1.380715489387512207e+00 -3.996726989746093750e+01 6.116528064012527466e-03 -2.399252541363239288e-02 -5.362799391150474548e-03 -8.417601347900927067e-04
1.121000000000000000e+03 7.439288496971130371e-01 3.739348220825195312e+01 2.622196450829505920e-03 1.411719596944749355e-03 1.210174756124615669e-03 -8.081225096248090267e-04
1.122000000000000000e+03 7.218598723411560059e-01 3.323901367187500000e+01 -1.549554523080587387e-03 4.236824461258947849e-04 -3.377616230864077806e-04 5.304249498294666409e-05
1.123000000000000000e+03 6.031973958015441895e-01 2.618767929077148438e+01 1.592631684616208076e-03 -5.836357377120293677e-05 4.602804547175765038e-04 -5.462404442369006574e-05
1.124000000000000000e+03 1.928712368011474609e+00 2.885828399658203125e+01 -1.608116319403052330e-03 7.883416401455178857e-05 -4.587846633512526751e-04 -1.036630710586905479e-04
1.125000000000000000e+03 5.802972912788391113e-01 -3.614409255981445312e+01 -1.495865359902381897e-02 -1.173068396747112274e-02 -8.006800897419452667e-03 -3.491589333862066269e-03
1.126000000000000000e+03 2.521203279495239258e+00 -3.333971786499023438e+01 5.968010984361171722e-03 -1.905240234918892384e-03 1.218831283040344715e-03 -4.640844650566577911e-03
1.127000000000000000e+03 3.046733856201171875e+00 2.728519821166992188e+01 -1.781066530384123325e-03 6.861511064926162362e-05 -5.137354601174592972e-04 -1.033250155160203576e-04
1.128000000000000000e+03 2.924504995346069336e+00 2.458184623718261719e+01 -1.645682146772742271e-03 1.674914383329451084e-04 -4.434571892488747835e-04 -8.268048986792564392e-05
1.129000000000000000e+03 2.213375091552734375e+00 3.309546661376953125e+01 1.646011602133512497e-03 3.610882558859884739e-04 6.021299632266163826e-04 -4.307600029278546572e-04
1.130000000000000000e+03 2.432745456695556641e+00 3.813876724243164062e+01 1.813524868339300156e-03 1.483944943174719810e-03 9.892409434542059898e-04 -1.428786665201187134e-03
1.131000000000000000e+03 1.819457530975341797e+00 -2.887588691711425781e+01 -7.668947800993919373e-03 2.670036337804049253e-04 -2.220583381131291389e-03 -1.023522927425801754e-03
1.132000000000000000e+03 1.714154362678527832e+00 -2.618870162963867188e+01 -6.414769217371940613e-03 9.640799253247678280e-04 -1.635206863284111023e-03 -5.503802094608545303e-04
1.133000000000000000e+03 1.766053557395935059e+00 -1.634394073486328125e+01 2.834850689396262169e-03 2.355877768422942609e-05 8.575228857807815075e-04 2.518951660022139549e-04
1.134000000000000000e+03 6.171482205390930176e-01 1.915855979919433594e+01 -1.239872071892023087e-03 -1.495240667281905189e-05 -3.764473658520728350e-04 8.911154873203486204e-05
1.135000000000000000e+03 6.095468997955322266e-01 1.348837947845458984e+01 -7.231596391648054123e-04 -3.036783027710043825e-06 -2.178589202230796218e-04 2.813638457155320793e-05
1.136000000000000000e+03 5.682805180549621582e-01 7.813069820404052734e+00 -5.480925319716334343e-04 -3.377320126674021594e-06 -1.654409570619463921e-04 4.134808477829210460e-05
1.137000000000000000e+03 1.637643456459045410e+00 -9.450078010559082031e+00 -1.545223523862659931e-03 -9.759180102264508605e-05 -4.928446142002940178e-04 4.780096787726506591e-05
1.138000000000000000e+03 3.660899162292480469e+00 -3.878377532958984375e+01 -2.838577202055603266e-04 -1.415605656802654266e-02 -4.331974312663078308e-03 -1.173004135489463806e-02
1.139000000000000000e+03 2.245350599288940430e+00 -3.170612907409667969e+01 -9.878607466816902161e-03 -1.737691462039947510e-03 -3.484889632090926170e-03 -3.624933771789073944e-03
1.140000000000000000e+03 1.721942901611328125e+00 -2.753010559082031250e+01 6.559397559612989426e-03 -1.175743309431709349e-04 1.932547078467905521e-03 1.708789204712957144e-04
1.141000000000000000e+03 2.824940919876098633e+00 -2.618283653259277344e+01 6.172946654260158539e-03 -1.126648974604904652e-03 1.513889292255043983e-03 6.207246333360671997e-04
1.142000000000000000e+03 1.884576082229614258e+00 -2.203365516662597656e+01 4.141082055866718292e-03 3.754821664188057184e-04 1.354969339445233345e-03 9.827439207583665848e-04
1.143000000000000000e+03 1.770794391632080078e+00 -2.483583641052246094e+01 5.578544922173023224e-03 1.525061379652470350e-04 1.719315303489565849e-03 1.004565972834825516e-03
1.144000000000000000e+03 3.139630556106567383e+00 -1.913330268859863281e+01 -3.409222234040498734e-03 -3.996127343270927668e-04 -1.142650493420660496e-03 -5.141898873262107372e-04
1.145000000000000000e+03 6.236287355422973633e-01 -1.917980384826660156e+01 -2.928489353507757187e-03 2.327781839994713664e-04 -8.087133755907416344e-04 -4.239487316226586699e-05
1.146000000000000000e+03 1.874701261520385742e+00 -1.917828369140625000e+01 3.353012958541512489e-03 3.286755818407982588e-04 1.104506547562777996e-03 5.390286678448319435e-04
1.147000000000000000e+03 1.698320865631103516e+00 -1.218315410614013672e+01 -1.997438492253422737e-03 -5.874577254871837795e-05 -6.168552790768444538e-04 -1.173892524093389511e-04
1.148000000000000000e+03 5.644205212593078613e-01 -1.213216686248779297e+01 1.833946327678859234e-03 3.908766666427254677e-05 5.619102157652378082e-04 -2.768272861430887133e-05
1.149000000000000000e+03 5.266402721405029297e+00 -3.338031291961669922e+00 -8.739258046261966228e-04 6.264055991778150201e-05 -2.433855697745457292e-04 -7.795263809384778142e-05
1.150000000000000000e+03 3.684414386749267578e+00 -2.837169885635375977e+00 4.457216127775609493e-04 1.623055286472663283e-04 1.824081409722566605e-04 8.379788050660863519e-05
1.151000000000000000e+03 2.938188552856445312e+00 -2.904532909393310547e+00 -4.627131565939635038e-04 -1.524852268630638719e-04 -1.845595106715336442e-04 1.694798411335796118e-04
1.152000000000000000e+03 1.511268615722656250e+00 -3.422031879425048828e+00 -3.811902715824544430e-04 -2.156821719836443663e-04 -1.790617388905957341e-04 -3.411258512642234564e-04
1.153000000000000000e+03 4.692602157592773438e-01 5.021494865417480469e+00 -6.067077047191560268e-04 -5.442858309834264219e-05 -1.983408874366432428e-04 -7.277496479218825698e-05
1.154000000000000000e+03 2.410176992416381836e+00 4.389348030090332031e+00 -7.737816486041992903e-05 -5.095802407595328987e-05 -3.850085704470984638e-05 3.176166210323572159e-04
1.155000000000000000e+03 1.762407779693603516e+00 1.056602191925048828e+01 7.857619202695786953e-04 -1.100629742722958326e-05 2.324266824871301651e-04 -2.750177191046532243e-05
1.156000000000000000e+03 5.898762345314025879e-01 1.064740943908691406e+01 -6.367543246597051620e-04 -2.815801508404547349e-06 -1.918710477184504271e-04 3.416459003346972167e-05
1.157000000000000000e+03 1.821173906326293945e+00 1.342699909210205078e+01 8.658003644086420536e-04 4.887662271357839927e-06 2.612064126878976822e-04 -2.093425973725970834e-05
1.158000000000000000e+03 1.819720864295959473e+00 2.054777908325195312e+01 -1.419441774487495422e-03 3.356358502060174942e-05 -4.157634684816002846e-04 1.159561579697765410e-04
1.159000000000000000e+03 1.853816628456115723e+00 1.914689826965332031e+01 1.278792391531169415e-03 -4.281188739696517587e-05 3.707941505126655102e-04 -1.350427191937342286e-04
1.160000000000000000e+03 1.779716372489929199e+00 2.468067359924316406e+01 1.634805696085095406e-03 -1.023995573632419109e-04 4.597218357957899570e-04 3.405080133234150708e-05
1.161000000000000000e+03 3.546481704711914062e+01 3.271888732910156250e+01 4.993111133575439453e+00 3.847414970397949219e+00 2.652157783508300781e+00 5.045897960662841797e+00
1.162000000000000000e+03 3.451224899291992188e+01 3.248111724853515625e+01 3.710110902786254883e+00 1.983264446258544922e+00 1.708012580871582031e+00 3.082595109939575195e+00
1.163000000000000000e+03 3.474150466918945312e+01 3.313615036010742188e+01 3.442049503326416016e+00 9.790078401565551758e-01 1.326317191123962402e+00 2.361335992813110352e+00
1.164000000000000000e+03 3.558527374267578125e+01 3.700533294677734375e+01 4.392529129981994629e-01 5.589332580566406250e+00 1.808575630187988281e+00 -3.219514608383178711e+00
1.165000000000000000e+03 3.467407608032226562e+01 3.668791198730468750e+01 1.859067976474761963e-01 2.053203105926513672e+00 6.717329621315002441e-01 -1.089402318000793457e+00
1.166000000000000000e+03 3.573729324340820312e+01 3.655828094482421875e+01 6.011298894882202148e-01 5.348461151123046875e+00 1.784877300262451172e+00 -3.449230194091796875e+00
1.167000000000000000e+03 3.685767364501953125e+01 3.702015304565429688e+01 -5.737926363945007324e-01 1.260029792785644531e+01 3.607951641082763672e+00 -3.696558237075805664e+00
1.168000000000000000e+03 3.366234588623046875e+01 3.254447937011718750e+01 2.639457464218139648e+00 8.988507390022277832e-01 1.061492443084716797e+00 1.728183865547180176e+00
1.169000000000000000e+03 3.463150024414062500e+01 3.773638153076171875e+01 5.478680729866027832e-01 3.388061523437500000e+00 1.180778861045837402e+00 -1.405227303504943848e+00
1.170000000000000000e+03 1.244240188598632812e+01 -2.637932777404785156e+00 7.353510591201484203e-04 -8.768748375587165356e-05 1.942990784300491214e-04 1.608248385309707373e-05
1.171000000000000000e+03 3.217991256713867188e+01 3.264174652099609375e+01 1.291395068168640137e+00 4.048964977264404297e-01 5.088874697685241699e-01 6.711702346801757812e-01
1.172000000000000000e+03 3.052452659606933594e+01 3.329152297973632812e+01 6.294836103916168213e-02 2.174438685178756714e-01 8.411766588687896729e-02 2.645347081124782562e-02
1.173000000000000000e+03 3.050746917724609375e+01 3.273468399047851562e+01 5.408169627189636230e-01 2.977773547172546387e-01 2.515783011913299561e-01 1.328934282064437866e-01
1.174000000000000000e+03 3.388260650634765625e+01 3.798127746582031250e+01 5.730000734329223633e-01 2.274425983428955078e+00 8.542277812957763672e-01 -7.894544005393981934e-01
1.175000000000000000e+03 3.255716705322265625e+01 3.976656341552734375e+01 1.032426714897155762e+00 1.047138810157775879e+00 6.238696575164794922e-01 -2.372558563947677612e-01
1.176000000000000000e+03 3.501805114746093750e+01 3.723860168457031250e+01 4.530692994594573975e-01 4.257113456726074219e+00 1.413054823875427246e+00 -1.886044859886169434e+00
1.177000000000000000e+03 2.914670181274414062e+01 3.339144515991210938e+01 -1.456607282161712646e-01 1.718916296958923340e-01 7.869271561503410339e-03 -1.680618673563003540e-01
1.178000000000000000e+03 3.111898803710937500e+01 3.270824813842773438e+01 7.453806400299072266e-01 3.316687941551208496e-01 3.231148421764373779e-01 2.885664403438568115e-01
1.179000000000000000e+03 2.771156120300292969e+01 3.343650436401367188e+01 -2.069193124771118164e-01 1.529396176338195801e-01 -1.619391143321990967e-02 -2.746087312698364258e-01
1.180000000000000000e+03 2.848178863525390625e+01 3.272646331787109375e+01 1.652476638555526733e-01 2.268284708261489868e-01 1.176228374242782593e-01 -1.705676168203353882e-01
1.181000000000000000e+03 2.179022026062011719e+01 3.910045242309570312e+01 -3.695924952626228333e-02 -7.848294079303741455e-02 -3.463265672326087952e-02 8.698885142803192139e-02
1.182000000000000000e+03 1.386377716064453125e+01 2.695796728134155273e+00 5.822235252708196640e-04 -2.709292748477309942e-04 9.338826930616050959e-05 1.988972799153998494e-04
1.183000000000000000e+03 3.791824102401733398e+00 2.751192808151245117e+00 -3.396063402760773897e-04 -1.007456085062585771e-04 -1.321055751759558916e-04 8.009745215531438589e-06
1.184000000000000000e+03 6.003580570220947266e+00 2.661020755767822266e+00 2.731370332185178995e-04 1.482642837800085545e-04 1.264204038307070732e-04 -1.832324051065370440e-05
1.185000000000000000e+03 5.967176437377929688e+00 3.454734325408935547e+00 -3.236640477553009987e-04 -1.862861827248707414e-04 -1.529850705992430449e-04 3.269132503191940486e-05
1.186000000000000000e+03 6.700730800628662109e+00 3.446905374526977539e+00 3.327028243802487850e-04 1.934869069373235106e-04 1.578569208504632115e-04 -2.404450469839503057e-06
1.187000000000000000e+03 8.929348945617675781e+00 3.365404605865478516e+00 -3.321198455523699522e-04 -1.961725793080404401e-04 -1.584877318236976862e-04 -1.476757170166820288e-04
1.188000000000000000e+03 6.732395172119140625e+00 2.650825262069702148e+00 -2.717482857406139374e-04 -1.562156539876013994e-04 -1.283891760976985097e-04 2.307442201754383859e-07
1.189000000000000000e+03 7.435358524322509766e+00 3.426391601562500000e+00 -3.164664085488766432e-04 -2.138788549927994609e-04 -1.591035834280773997e-04 4.417825039126910269e-06
1.190000000000000000e+03 4.475235462188720703e+00 3.562560558319091797e+00 -3.776448138523846865e-04 -1.358968147542327642e-04 -1.540624798508360982e-04 7.134063343983143568e-05
1.191000000000000000e+03 4.526223659515380859e+00 2.725059032440185547e+00 3.081079048570245504e-04 1.105693809222429991e-04 1.256031828233972192e-04 -5.375820182962343097e-05
1.192000000000000000e+03 1.823446393013000488e+00 2.606453180313110352e+00 2.148282801499590278e-04 1.337692956440150738e-04 1.045792741933837533e-04 7.627110608154907823e-05
1.193000000000000000e+03 1.114074134826660156e+01 2.508449316024780273e+00 -4.887761897407472134e-04 5.610526204691268504e-05 -1.298012793995440006e-04 3.962018672609701753e-05
1.194000000000000000e+03 1.121239471435546875e+01 3.227844238281250000e+00 7.163861300796270370e-04 -9.172731370199471712e-05 1.873976434580981731e-04 1.340410290140425786e-05
1.195000000000000000e+03 2.465645790100097656e+01 3.340609741210937500e+01 -1.393255889415740967e-01 1.006708294153213501e-02 -3.877755254507064819e-02 -3.509494662284851074e-01
1.196000000000000000e+03 2.466587066650390625e+01 3.235993576049804688e+01 1.957705430686473846e-02 4.764718003571033478e-03 7.302531506866216660e-03 -3.498770296573638916e-01
1.197000000000000000e+03 2.194783973693847656e+01 3.223394775390625000e+01 1.465406850911676884e-03 -3.247480094432830811e-01 -9.698478132486343384e-02 -2.351856678724288940e-01
1.198000000000000000e+03 2.475042533874511719e+01 3.123879623413085938e+01 1.774498075246810913e-01 3.371261805295944214e-02 6.334872543811798096e-02 -2.888311445713043213e-01
1.199000000000000000e+03 2.985614395141601562e+01 3.274946975708007812e+01 3.633736670017242432e-01 2.774187624454498291e-01 1.922377347946166992e-01 1.619492657482624054e-02
1.200000000000000000e+03 2.776699829101562500e+01 3.268476867675781250e+01 1.142522841691970825e-01 2.040117233991622925e-01 9.547919780015945435e-02 -2.287692278623580933e-01
1.201000000000000000e+03 3.111816406250000000e+01 3.218937683105468750e+01 1.164998531341552734e+00 4.825471043586730957e-01 4.942637085914611816e-01 4.985488653182983398e-01
1.202000000000000000e+03 1.256245326995849609e+01 2.791706085205078125e+00 2.551829966250807047e-04 1.346926437690854073e-04 1.169626921182498336e-04 -2.189871738664805889e-04
1.203000000000000000e+03 9.569910049438476562e+00 -3.320588111877441406e+00 -4.767542413901537657e-04 -3.285583516117185354e-04 -2.415937779005616903e-04 -2.651612248882884160e-06
1.204000000000000000e+03 1.361722373962402344e+01 -4.061909675598144531e+00 -1.214483403600752354e-03 -2.714644651859998703e-04 -4.457843606360256672e-04 2.153612440451979637e-04
1.205000000000000000e+03 9.539466857910156250e+00 -4.065098762512207031e+00 6.224816315807402134e-04 2.832746249623596668e-04 2.717268653213977814e-04 -4.784722477779723704e-05
1.206000000000000000e+03 1.365037536621093750e+01 -2.974126338958740234e+00 1.125900773331522942e-03 1.628854079172015190e-04 3.866358310915529728e-04 -3.209561400581151247e-04
1.207000000000000000e+03 1.292865753173828125e+01 3.210940361022949219e+00 -1.628982136026024818e-04 4.920158971799537539e-05 -3.410899080336093903e-05 3.535794385243207216e-04
1.208000000000000000e+03 1.353278064727783203e+01 4.222956180572509766e+00 9.659312199801206589e-04 6.314204802038148046e-05 3.087219956796616316e-04 6.362295971484854817e-05
1.209000000000000000e+03 3.162860298156738281e+01 4.167251586914062500e+01 1.029858946800231934e+00 1.589698433876037598e+00 7.858672142028808594e-01 -1.010732129216194153e-01
1.210000000000000000e+03 6.681469440460205078e+00 -3.354953289031982422e+00 -9.062836179509758949e-04 8.573471745876304340e-07 -2.716278831940144300e-04 -1.064696116372942924e-04
1.211000000000000000e+03 2.725428342819213867e+00 -7.089991092681884766e+00 1.258738338947296143e-03 9.413450607098639011e-05 4.058618505951017141e-04 -6.968009256524965167e-05
1.212000000000000000e+03 7.622346401214599609e+00 -4.883793830871582031e+00 1.116419560275971889e-03 1.621670962776988745e-04 3.835759707726538181e-04 6.587498937733471394e-04
1.213000000000000000e+03 5.320911884307861328e+00 -4.043395042419433594e+00 1.151483389548957348e-03 -4.066216934006661177e-05 3.332463675178587437e-04 5.286425584927201271e-04
1.214000000000000000e+03 5.887609481811523438e+00 -2.596958637237548828e+00 -6.595212616957724094e-04 -3.691653182613663375e-05 -2.089313493343070149e-04 -1.521960530226351693e-05
1.215000000000000000e+03 5.964725494384765625e+00 -3.338421344757080078e+00 8.024038397707045078e-04 2.718814903346356004e-05 2.488775935489684343e-04 1.423823141522007063e-05
1.216000000000000000e+03 2.241284132003784180e+00 -3.024740219116210938e+00 1.209997062687762082e-04 2.466151490807533264e-04 1.102844544220715761e-04 2.144360951206181198e-05
1.217000000000000000e+03 1.779621005058288574e+00 -5.479866981506347656e+00 9.022497688420116901e-04 -2.480827060935553163e-05 2.632324467413127422e-04 -2.605848130770027637e-04
1.218000000000000000e+03 8.847733497619628906e+00 -3.303711891174316406e+00 4.994848859496414661e-04 3.120377950835973024e-04 2.434568013995885849e-04 9.051435336004942656e-05
1.219000000000000000e+03 3.851248168945312500e+01 3.167234992980957031e+01 2.121427059173583984e+00 1.600800323486328125e+01 5.438828945159912109e+00 9.958832859992980957e-01
1.220000000000000000e+03 2.974250984191894531e+01 3.862378311157226562e+01 1.052001211792230606e-02 -2.650101482868194580e-01 -7.634703814983367920e-02 4.378556609153747559e-01
1.221000000000000000e+03 2.257713317871093750e+01 4.188383483886718750e+01 7.558073103427886963e-02 -1.518576443195343018e-01 -2.288307249546051025e-02 -8.453691378235816956e-03
1.222000000000000000e+03 3.697000122070312500e+01 3.752730178833007812e+01 -7.471286654472351074e-01 1.174569225311279297e+01 3.299569129943847656e+00 -2.830829858779907227e+00
1.223000000000000000e+03 2.379520034790039062e+01 3.337078094482421875e+01 -1.029627546668052673e-01 -5.917304009199142456e-02 -4.864073917269706726e-02 -3.299739658832550049e-01
1.224000000000000000e+03 1.907064437866210938e+01 3.909601211547851562e+01 -1.576475985348224640e-02 -3.176582977175712585e-02 -1.425917726010084152e-02 1.474273297935724258e-02
1.225000000000000000e+03 1.885339927673339844e+01 3.773072814941406250e+01 -2.171879168599843979e-03 -3.403923660516738892e-02 -1.086333487182855606e-02 1.640678383409976959e-02
1.226000000000000000e+03 2.043948554992675781e+01 4.019737243652343750e+01 -2.381946891546249390e-03 -7.181712985038757324e-02 -2.225972339510917664e-02 3.448958694934844971e-02
1.227000000000000000e+03 4.067151260375976562e+01 3.073502731323242188e+01 2.164171457290649414e+00 1.274904727935791016e+01 4.473965644836425781e+00 -3.134294748306274414e-01
1.228000000000000000e+03 4.079186248779296875e+01 3.705104827880859375e+01 1.911545634269714355e+00 1.380074787139892578e+01 4.713688373565673828e+00 2.391049861907958984e+00
1.229000000000000000e+03 1.159599590301513672e+01 1.611507606506347656e+01 1.876812428236007690e-03 3.882352611981332302e-04 6.795143126510083675e-04 -3.414298407733440399e-04
1.230000000000000000e+03 1.233566761016845703e+01 1.039198493957519531e+01 9.345771395601332188e-04 3.123240603599697351e-04 3.740703687071800232e-04 2.175421104766428471e-04
1.231000000000000000e+03 4.040340042114257812e+01 3.565349578857421875e+01 4.282653808593750000e+00 1.388289546966552734e+01 5.449665069580078125e+00 2.711627244949340820e+00
1.232000000000000000e+03 1.212700557708740234e+01 2.594018745422363281e+01 -2.585957990959286690e-03 -2.134159294655546546e-04 -8.398121572099626064e-04 -1.225200539920479059e-04
1.233000000000000000e+03 2.293494606018066406e+01 -1.082151794433593750e+01 3.749390691518783569e-02 3.981054782867431641e+00 1.205564618110656738e+00 2.383543699979782104e-01
1.234000000000000000e+03 3.281868362426757812e+01 3.846422195434570312e+01 6.711528301239013672e-01 6.155902147293090820e-01 3.860229253768920898e-01 -9.997241199016571045e-02
1.235000000000000000e+03 3.053541183471679688e+01 4.022535705566406250e+01 8.098189830780029297e-01 1.966947764158248901e-01 3.019541203975677490e-01 -2.577066887170076370e-03
1.236000000000000000e+03 2.334589767456054688e+01 3.321857750415802002e-01 -1.969167590141296387e-02 3.650827407836914062e+00 1.089340686798095703e+00 3.542573750019073486e-01
1.237000000000000000e+03 2.437515830993652344e+01 -6.513565063476562500e+00 -5.017990991473197937e-02 4.019311904907226562e+00 1.190739512443542480e+00 3.005121648311614990e-01
1.238000000000000000e+03 2.303067207336425781e+01 -6.631000041961669922e+00 -5.249835178256034851e-02 3.888734102249145508e+00 1.150870680809020996e+00 2.722258567810058594e-01
1.239000000000000000e+03 2.281772041320800781e+01 -1.782209014892578125e+01 -6.105725839734077454e-02 4.014562606811523438e+00 1.186051607131958008e+00 1.552878618240356445e-01
1.240000000000000000e+03 2.195679092407226562e+01 -1.162018179893493652e+00 1.318965200334787369e-02 3.519325017929077148e+00 1.059754371643066406e+00 3.219350278377532959e-01
1.241000000000000000e+03 2.327814292907714844e+01 -1.064769387245178223e+00 -2.512400783598423004e-02 3.705009222030639648e+00 1.103965520858764648e+00 3.363671898841857910e-01
1.242000000000000000e+03 1.290314865112304688e+01 3.166099357604980469e+01 -2.910861745476722717e-03 -2.011262404266744852e-05 -8.792923181317746639e-04 9.512174874544143677e-04
1.243000000000000000e+03 1.468917942047119141e+01 3.277745056152343750e+01 -3.632024629041552544e-03 1.711417717160657048e-04 -1.038264832459390163e-03 1.349688973277807236e-03
1.244000000000000000e+03 1.318242645263671875e+01 2.159939575195312500e+01 -2.594036981463432312e-03 -4.937057383358478546e-05 -7.930222782306373119e-04 8.464408165309578180e-05
1.245000000000000000e+03 1.175995254516601562e+01 1.748058319091796875e+01 -2.196340821683406830e-03 -6.303675763774663210e-05 -6.778132519684731960e-04 1.005751837510615587e-04
1.246000000000000000e+03 2.284918975830078125e+01 -1.642534828186035156e+01 -5.723443813621997833e-03 4.009652137756347656e+00 1.201178669929504395e+00 1.388976275920867920e-01
1.247000000000000000e+03 1.184196090698242188e+01 1.408334541320800781e+01 -6.919941515661776066e-04 2.813964092638343573e-04 -1.231793285114690661e-04 -6.891697994433343410e-04
1.248000000000000000e+03 1.358069610595703125e+01 6.520120620727539062e+00 9.550895192660391331e-04 7.281681610038504004e-05 3.083719057030975819e-04 2.194084299844689667e-05
1.249000000000000000e+03 1.056467437744140625e+01 4.860075473785400391e+00 -7.014435250312089920e-04 -1.887536636786535382e-04 -2.670591638889163733e-04 -3.355257213115692139e-04
1.250000000000000000e+03 1.113987159729003906e+01 1.265789127349853516e+01 -6.372435600496828556e-04 -4.915602621622383595e-04 -3.386411408428102732e-04 -3.224315296392887831e-04
1.251000000000000000e+03 1.358581638336181641e+01 5.301927089691162109e+00 -8.889787713997066021e-04 -3.734257552423514426e-05 -2.778964117169380188e-04 -1.768694528436753899e-05
1.252000000000000000e+03 8.956523895263671875e+00 4.120276927947998047e+00 3.505703352857381105e-04 2.656643919181078672e-04 1.848704268923029304e-04 2.069708280032500625e-04
1.253000000000000000e+03 7.803080558776855469e+00 -3.437548446655273438e+01 -1.169714517891407013e-02 1.605929248034954071e-02 1.308643841184675694e-03 -3.205397399142384529e-03
1.254000000000000000e+03 1.183411598205566406e+01 2.023558998107910156e+01 -2.319228602573275566e-03 8.446279389318078756e-05 -6.704297265969216824e-04 7.840785110602155328e-05
1.255000000000000000e+03 7.469112396240234375e+01 -3.260734176635742188e+01 -8.664472959935665131e-03 8.812147140502929688e+00 2.641044855117797852e+00 -1.916416175663471222e-02
1.256000000000000000e+03 7.628565216064453125e+01 -3.610886001586914062e+01 -1.919678412377834320e-02 8.962091445922851562e+00 2.682868480682373047e+00 -1.361516211181879044e-02
1.257000000000000000e+03 7.538719940185546875e+01 -2.172195434570312500e+01 -1.396874710917472839e-02 8.794911384582519531e+00 2.634282827377319336e+00 -6.394396722316741943e-02
1.258000000000000000e+03 7.792340850830078125e+01 -2.900208473205566406e+01 3.472293028607964516e-04 9.103286743164062500e+00 2.731090068817138672e+00 -1.896197535097599030e-02
1.259000000000000000e+03 7.772230529785156250e+01 -3.591169357299804688e+01 -1.284927409142255783e-02 9.119289398193359375e+00 2.731931924819946289e+00 1.476982026360929012e-03
1.260000000000000000e+03 7.526526641845703125e+01 1.981776428222656250e+01 -5.969516467303037643e-03 6.861973762512207031e+00 2.056801319122314453e+00 -4.953984022140502930e-01
1.261000000000000000e+03 7.805119323730468750e+01 1.551232814788818359e+01 -2.718265401199460030e-03 7.091876983642578125e+00 2.126747608184814453e+00 -2.259168475866317749e-01
1.262000000000000000e+03 7.744248199462890625e+01 3.526161956787109375e+01 4.501664638519287109e-02 5.426035404205322266e+00 1.641315579414367676e+00 -1.327999532222747803e-01
1.263000000000000000e+03 7.612008666992187500e+01 3.211753463745117188e+01 4.978163167834281921e-02 5.761792659759521484e+00 1.743472218513488770e+00 -2.722763717174530029e-01
1.264000000000000000e+03 7.805105590820312500e+01 -2.203816604614257812e+01 -2.757563255727291107e-03 9.052296638488769531e+00 2.714861631393432617e+00 -2.955896779894828796e-02
1.265000000000000000e+03 7.668196105957031250e+01 -2.323218536376953125e+01 -6.211791187524795532e-03 8.935132980346679688e+00 2.678676366806030273e+00 -4.064618796110153198e-02
1.266000000000000000e+03 7.658467102050781250e+01 -3.026413345336914062e+01 -2.852858277037739754e-03 8.973482131958007812e+00 2.691188812255859375e+00 -2.141463942825794220e-02
1.267000000000000000e+03 7.652783966064453125e+01 -2.887218093872070312e+01 -4.385210108011960983e-03 8.970461845397949219e+00 2.689822912216186523e+00 -2.233144268393516541e-02
1.268000000000000000e+03 7.511912536621093750e+01 -3.717980194091796875e+01 -2.454156428575515747e-02 8.878168106079101562e+00 2.656087875366210938e+00 -3.399719670414924622e-02
1.269000000000000000e+03 7.522143554687500000e+01 -2.440118598937988281e+01 -1.044162642210721970e-02 8.813460350036621094e+00 2.640905618667602539e+00 -5.052668973803520203e-02
1.270000000000000000e+03 7.650460052490234375e+01 -2.744639205932617188e+01 -4.610683303326368332e-03 8.961066246032714844e+00 2.686936616897583008e+00 -3.099744766950607300e-02
1.271000000000000000e+03 7.662238311767578125e+01 -2.460176277160644531e+01 -5.165589042007923126e-03 8.942162513732910156e+00 2.681098937988281250e+00 -3.920608013868331909e-02
1.272000000000000000e+03 7.619374084472656250e+01 -3.306578445434570312e+01 -3.885702230036258698e-03 8.945812225341796875e+00 2.682577848434448242e+00 -2.146188542246818542e-02
1.273000000000000000e+03 7.591088104248046875e+01 -3.463092803955078125e+01 -1.323288492858409882e-02 8.928485870361328125e+00 2.674575805664062500e+00 -1.825705729424953461e-02
1.274000000000000000e+03 7.511674499511718750e+01 -4.060528564453125000e+01 1.073952391743659973e-02 8.910317420959472656e+00 2.676316976547241211e+00 -3.428309783339500427e-02
1.275000000000000000e+03 7.798339843750000000e+01 2.248532295227050781e+01 3.440236672759056091e-03 6.358967304229736328e+00 1.908722281455993652e+00 -2.405542284250259399e-01
1.276000000000000000e+03 7.666458129882812500e+01 1.977554130554199219e+01 -1.243939972482621670e-03 6.752389430999755859e+00 2.025343656539916992e+00 -3.754768073558807373e-01
1.277000000000000000e+03 7.526995849609375000e+01 2.263853454589843750e+01 1.442836411297321320e-02 6.634217262268066406e+00 1.994593739509582520e+00 -4.931576550006866455e-01
1.278000000000000000e+03 7.664537811279296875e+01 2.117118453979492188e+01 1.189070986583828926e-03 6.625152587890625000e+00 1.987902402877807617e+00 -3.759314417839050293e-01
1.279000000000000000e+03 7.677269744873046875e+01 1.280428504943847656e+01 -1.501032896339893341e-02 7.386512279510498047e+00 2.211450576782226562e+00 -3.298740684986114502e-01
1.280000000000000000e+03 7.548370361328125000e+01 8.745841979980468750e+00 -3.305615484714508057e-02 7.711839675903320312e+00 2.303635120391845703e+00 -3.848915100097656250e-01
1.281000000000000000e+03 7.676257324218750000e+01 1.419800472259521484e+01 -1.153308153152465820e-02 7.263987064361572266e+00 2.175736188888549805e+00 -3.420849144458770752e-01
1.282000000000000000e+03 7.793003082275390625e+01 2.669831657409667969e+01 1.327960658818483353e-02 5.934515476226806641e+00 1.784338474273681641e+00 -2.201295047998428345e-01
1.283000000000000000e+03 7.673358154296875000e+01 -2.187562370300292969e+01 -8.002116344869136810e-03 8.924659729003906250e+00 2.674997329711914062e+00 -4.706719145178794861e-02
1.284000000000000000e+03 7.653382110595703125e+01 2.683613777160644531e+01 2.967309765517711639e-02 6.119530200958251953e+00 1.844761013984680176e+00 -3.470163643360137939e-01
1.285000000000000000e+03 7.424790191650390625e+01 -1.639250183105468750e+01 -2.537813223898410797e-02 8.617918968200683594e+00 2.577762365341186523e+00 -1.166646853089332581e-01
1.286000000000000000e+03 7.677514648437500000e+01 -2.052192306518554688e+01 -8.334387093782424927e-03 8.909403800964355469e+00 2.670320987701416016e+00 -5.238894373178482056e-02
1.287000000000000000e+03 7.520264434814453125e+01 -8.010708808898925781e+00 -2.736375108361244202e-02 8.507867813110351562e+00 2.544151306152343750e+00 -1.743683665990829468e-01
1.288000000000000000e+03 7.808631896972656250e+01 -1.515852260589599609e+01 -3.703490598127245903e-03 8.937151908874511719e+00 2.680034637451171875e+00 -5.151012167334556580e-02
1.289000000000000000e+03 7.544407653808593750e+01 -2.261664628982543945e+00 -3.168707713484764099e-02 8.318340301513671875e+00 2.485996007919311523e+00 -2.346765100955963135e-01
1.290000000000000000e+03 7.802906036376953125e+01 -8.165630340576171875e+00 -5.451176781207323074e-03 8.733995437622070312e+00 2.618563413619995117e+00 -8.190673589706420898e-02
1.291000000000000000e+03 7.807801818847656250e+01 5.791685104370117188e+00 -7.719826884567737579e-03 7.973408699035644531e+00 2.389706611633300781e+00 -1.664049327373504639e-01
1.292000000000000000e+03 7.548675537109375000e+01 4.644137859344482422e+00 -3.385385870933532715e-02 7.973018169403076172e+00 2.381749153137207031e+00 -3.279359638690948486e-01
1.293000000000000000e+03 7.596308135986328125e+01 3.474843215942382812e+01 5.634758248925209045e-02 5.652216434478759766e+00 1.712569117546081543e+00 -2.051959931850433350e-01
1.294000000000000000e+03 7.807745361328125000e+01 7.177996635437011719e+00 -6.305991206318140030e-03 7.864499568939208984e+00 2.357458114624023438e+00 -1.759480983018875122e-01
1.295000000000000000e+03 7.678842926025390625e+01 5.913723945617675781e+00 -1.757788844406604767e-02 7.925672054290771484e+00 2.372428178787231445e+00 -2.609774768352508545e-01
1.296000000000000000e+03 7.807762908935546875e+01 -1.152257919311523438e+00 -6.394651718437671661e-03 8.425322532653808594e+00 2.525678396224975586e+00 -1.202763766050338745e-01
1.297000000000000000e+03 7.676664733886718750e+01 -2.406756639480590820e+00 -1.654451712965965271e-02 8.403357505798339844e+00 2.516043901443481445e+00 -1.756139248609542847e-01
1.298000000000000000e+03 7.668709564208984375e+01 -9.487077713012695312e+00 -1.389363501220941544e-02 8.665789604187011719e+00 2.595568895339965820e+00 -1.173291206359863281e-01
1.299000000000000000e+03 7.681830596923828125e+01 -1.644964027404785156e+01 -8.883511647582054138e-03 8.845906257629394531e+00 2.651106834411621094e+00 -7.179439067840576172e-02
1.300000000000000000e+03 7.485154724121093750e+01 3.332659530639648438e+01 1.038762554526329041e-01 5.931655406951904297e+00 1.810659408569335938e+00 -3.228568732738494873e-01
1.301000000000000000e+03 7.291557312011718750e+01 3.443256378173828125e+01 1.839490383863449097e-01 6.251951694488525391e+00 1.930770158767700195e+00 -3.663305044174194336e-01
1.302000000000000000e+03 7.653644561767578125e+01 3.088439178466796875e+01 3.617525473237037659e-02 5.783290386199951172e+00 1.745839715003967285e+00 -2.647051513195037842e-01
1.303000000000000000e+03 7.668902587890625000e+01 1.837879371643066406e+01 -6.148777436465024948e-03 6.882182121276855469e+00 2.062809944152832031e+00 -3.690105676651000977e-01
1.304000000000000000e+03 7.671720123291015625e+01 1.697865676879882812e+01 -6.236928049474954605e-03 7.010529041290283203e+00 2.101287603378295898e+00 -3.625050783157348633e-01
1.305000000000000000e+03 7.678366088867187500e+01 1.003964614868164062e+01 -1.738300174474716187e-02 7.617186069488525391e+00 2.279940843582153320e+00 -3.036288321018218994e-01
1.306000000000000000e+03 7.680662536621093750e+01 -1.508736419677734375e+01 -9.672257117927074432e-03 8.818127632141113281e+00 2.642536640167236328e+00 -7.892145216464996338e-02
1.307000000000000000e+03 7.666148376464843750e+01 -8.066079139709472656e+00 -1.389268133789300919e-02 8.619598388671875000e+00 2.581711769104003906e+00 -1.294984072446823120e-01
1.308000000000000000e+03 7.808033752441406250e+01 1.626687049865722656e+00 -6.644836161285638809e-03 8.263034820556640625e+00 2.476916790008544922e+00 -1.381477713584899902e-01
1.309000000000000000e+03 7.678938293457031250e+01 4.533237934112548828e+00 -1.887670159339904785e-02 8.018758773803710938e+00 2.399964570999145508e+00 -2.461165487766265869e-01
1.310000000000000000e+03 7.679033660888671875e+01 3.147921562194824219e+00 -1.781046204268932343e-02 8.106588363647460938e+00 2.426633358001708984e+00 -2.311879545450210571e-01
1.311000000000000000e+03 7.527590942382812500e+01 -5.113623619079589844e+00 -3.265123441815376282e-02 8.418785095214843750e+00 2.515840053558349609e+00 -2.061143070459365845e-01
1.312000000000000000e+03 7.665956115722656250e+01 -6.655979633331298828e+00 -1.457529701292514801e-02 8.571475982666015625e+00 2.567070245742797852e+00 -1.399117559194564819e-01
1.313000000000000000e+03 7.673030090332031250e+01 -3.819454431533813477e+00 -1.756662502884864807e-02 8.464835166931152344e+00 2.534180641174316406e+00 -1.637286543846130371e-01
1.314000000000000000e+03 7.675830078125000000e+01 -1.232494735717773438e+01 -1.120630744844675064e-02 8.749925613403320312e+00 2.621615886688232422e+00 -9.616336971521377563e-02
1.315000000000000000e+03 7.678632354736328125e+01 -1.371512889862060547e+01 -9.977094829082489014e-03 8.786031723022460938e+00 2.632816553115844727e+00 -8.741569519042968750e-02
1.316000000000000000e+03 7.672369384765625000e+01 -1.091180324554443359e+01 -1.264626160264015198e-02 8.709053993225097656e+00 2.608922481536865234e+00 -1.064870953559875488e-01
1.317000000000000000e+03 7.680443572998046875e+01 -1.916545677185058594e+01 -8.842931129038333893e-03 8.892144203186035156e+00 2.664990425109863281e+00 -5.800658836960792542e-02
1.318000000000000000e+03 2.229590225219726562e+01 5.876796245574951172e+00 4.766817390918731689e-02 3.150034666061401367e+00 9.593108296394348145e-01 3.496742546558380127e-01
1.319000000000000000e+03 2.358214569091796875e+01 1.027490711212158203e+01 -3.352137655019760132e-02 2.753562927246093750e+00 8.160124421119689941e-01 5.485175251960754395e-01
1.320000000000000000e+03 2.308380889892578125e+01 -2.530708503723144531e+01 -1.911150477826595306e-02 4.055368423461914062e+00 1.210877060890197754e+00 1.251943558454513550e-01
1.321000000000000000e+03 2.141369056701660156e+01 -2.230267143249511719e+01 -2.653676085174083710e-02 3.804070949554443359e+00 1.133260250091552734e+00 9.933689236640930176e-02
1.322000000000000000e+03 2.192457771301269531e+01 3.101214027404785156e+01 3.119244799017906189e-02 -4.388929009437561035e-01 -1.223101392388343811e-01 -2.062602490186691284e-01
1.323000000000000000e+03 2.355803108215332031e+01 1.310865879058837891e+01 -3.748049959540367126e-02 2.314757108688354492e+00 6.831830143928527832e-01 6.030500531196594238e-01
1.324000000000000000e+03 1.203815841674804688e+01 -2.618673515319824219e+01 3.859197953715920448e-03 1.348702819086611271e-03 1.562370220199227333e-03 -3.796467790380120277e-04
1.325000000000000000e+03 2.385657882690429688e+01 3.112448120117187500e+01 1.279899477958679199e-01 -8.732083439826965332e-02 1.220073550939559937e-02 -2.902011573314666748e-01
1.326000000000000000e+03 2.203796577453613281e+01 2.698220634460449219e+01 6.881728023290634155e-02 -5.090723633766174316e-01 -1.320765316486358643e-01 3.650876134634017944e-02
1.327000000000000000e+03 2.309247970581054688e+01 2.711034011840820312e+01 1.646804958581924438e-01 -1.184548363089561462e-01 1.386770047247409821e-02 8.681568503379821777e-02
1.328000000000000000e+03 1.362950229644775391e+01 -6.608035564422607422e+00 -1.613901229575276375e-03 -1.966576091945171356e-04 -5.431676399894058704e-04 2.376423799432814121e-04
1.329000000000000000e+03 2.208652687072753906e+01 2.559896850585937500e+01 6.508500874042510986e-02 -3.909971714019775391e-01 -9.777365624904632568e-02 1.395059227943420410e-01
1.330000000000000000e+03 2.457324981689453125e+01 2.174931144714355469e+01 1.251976042985916138e-01 1.213083863258361816e+00 4.014844596385955811e-01 7.546683549880981445e-01
1.331000000000000000e+03 2.126888847351074219e+01 -2.805965995788574219e+01 -1.303238980472087860e-02 3.928468227386474609e+00 1.174630761146545410e+00 9.516498446464538574e-02
1.332000000000000000e+03 2.217327308654785156e+01 2.280659675598144531e+01 3.935635834932327271e-02 1.662638410925865173e-02 1.679482311010360718e-02 3.030968904495239258e-01
1.333000000000000000e+03 2.332439804077148438e+01 2.296682357788085938e+01 1.008248776197433472e-01 4.961644709110260010e-01 1.790968030691146851e-01 4.808440804481506348e-01
1.334000000000000000e+03 2.339125633239746094e+01 2.157262039184570312e+01 6.787704676389694214e-02 7.553589940071105957e-01 2.469708174467086792e-01 5.606978535652160645e-01
1.335000000000000000e+03 2.220973014831542969e+01 2.140802764892578125e+01 2.740821056067943573e-02 2.772165536880493164e-01 9.138742834329605103e-02 3.558092713356018066e-01
1.336000000000000000e+03 2.468043899536132812e+01 1.892001724243164062e+01 3.270744904875755310e-02 1.740882992744445801e+00 5.320771336555480957e-01 8.573776483535766602e-01
1.337000000000000000e+03 1.314385509490966797e+01 -1.598889064788818359e+01 2.550064586102962494e-03 6.126404623501002789e-04 9.488115319982171059e-04 -8.723050123080611229e-04
1.338000000000000000e+03 1.143690395355224609e+01 -1.823099136352539062e+01 -1.856350572779774666e-03 -6.679745856672525406e-04 -7.572975591756403446e-04 7.895004819147288799e-04
1.339000000000000000e+03 1.186353397369384766e+01 -1.568430042266845703e+01 -1.934708678163588047e-03 -8.501738193444907665e-04 -8.354647434316575527e-04 6.338121602311730385e-04
1.340000000000000000e+03 1.259499168395996094e+01 -9.177788734436035156e+00 2.024416578933596611e-03 -5.550952118937857449e-05 5.906721344217658043e-04 -2.525102463550865650e-04
1.341000000000000000e+03 1.359894752502441406e+01 -9.258801460266113281e+00 -2.068014815449714661e-03 -6.732837209710851312e-05 -6.406029569916427135e-04 2.279488253407180309e-04
1.342000000000000000e+03 1.226196098327636719e+01 -1.171843528747558594e+01 1.810906804166734219e-03 3.822869621217250824e-04 6.579580949619412422e-04 -2.018289378611370921e-04
1.343000000000000000e+03 2.354048156738281250e+01 1.452346515655517578e+01 -3.039410524070262909e-02 2.075101852416992188e+00 6.134123206138610840e-01 6.278742551803588867e-01
1.344000000000000000e+03 2.352001953125000000e+01 1.593522739410400391e+01 -2.241341769695281982e-02 1.824715018272399902e+00 5.406904816627502441e-01 6.449003219604492188e-01
1.345000000000000000e+03 2.231111717224121094e+01 1.296175479888916016e+01 -1.373232714831829071e-02 1.996067643165588379e+00 5.947006344795227051e-01 3.840754926204681396e-01
1.346000000000000000e+03 2.357260894775390625e+01 1.169310569763183594e+01 -3.576162829995155334e-02 2.542037010192871094e+00 7.518826127052307129e-01 5.767191648483276367e-01
1.347000000000000000e+03 1.105780601501464844e+01 -1.942096710205078125e+01 2.016233047470450401e-03 -4.921765066683292389e-04 4.572169855237007141e-04 -1.295327441766858101e-03
1.348000000000000000e+03 1.200565624237060547e+01 -2.391071128845214844e+01 3.412689315155148506e-03 2.130478154867887497e-03 1.662950264289975166e-03 1.184306689538061619e-03
1.349000000000000000e+03 2.232380867004394531e+01 8.721154212951660156e+00 -9.478720836341381073e-03 2.737947702407836914e+00 8.185406923294067383e-01 3.353809416294097900e-01
1.350000000000000000e+03 2.357636070251464844e+01 7.423475742340087891e+00 1.593211782164871693e-03 3.125591278076171875e+00 9.381553530693054199e-01 5.061988830566406250e-01
1.351000000000000000e+03 2.308400917053222656e+01 -5.243453979492187500e+00 -5.370504036545753479e-02 3.844318151473999023e+00 1.137183904647827148e+00 2.590154111385345459e-01
1.352000000000000000e+03 2.314585494995117188e+01 -3.855539083480834961e+00 -2.802321128547191620e-02 3.779649257659912109e+00 1.125487804412841797e+00 2.771565914154052734e-01
1.353000000000000000e+03 3.410441637039184570e+00 3.002295112609863281e+01 -1.673831022344529629e-03 6.962868064874783158e-05 -4.812607076019048691e-04 -1.656513486523181200e-04
1.354000000000000000e+03 1.845402717590332031e+00 2.746356010437011719e+01 1.687990617938339710e-03 -2.953078546852339059e-05 4.975379561074078083e-04 1.170377800008282065e-05
1.355000000000000000e+03 5.537381172180175781e+00 3.276180267333984375e+01 2.216628286987543106e-03 -2.093640214297920465e-04 6.021793233230710030e-04 -3.465101472102105618e-04
1.356000000000000000e+03 2.152484178543090820e+00 3.585423278808593750e+01 1.536399824544787407e-03 1.061581657268106937e-03 7.793944678269326687e-04 -7.498676422983407974e-04
1.357000000000000000e+03 3.202691316604614258e+00 2.863852119445800781e+01 1.933919615112245083e-03 2.585622678452637047e-05 5.879327654838562012e-04 -9.690511797089129686e-05
1.358000000000000000e+03 4.496828079223632812e+00 3.781014251708984375e+01 7.063284283503890038e-04 -1.472199917770922184e-03 -2.297614555573090911e-04 -2.282844623550772667e-03
1.359000000000000000e+03 2.212819337844848633e+00 3.449637603759765625e+01 -1.493858639150857925e-03 4.075629694852977991e-04 -3.258887154515832663e-04 -2.463039127178490162e-04
1.360000000000000000e+03 3.815457582473754883e+00 3.444840240478515625e+01 1.642942894250154495e-03 -6.265520369197474793e-06 4.910032148472964764e-04 -3.036190464626997709e-04
1.361000000000000000e+03 4.767711162567138672e+00 2.967092132568359375e+01 2.265261951833963394e-03 -1.306601575379318092e-06 6.791866035200655460e-04 -4.059369675815105438e-04
1.362000000000000000e+03 3.636526346206665039e+00 3.146309089660644531e+01 1.817492302507162094e-03 1.222916325787082314e-04 5.819351645186543465e-04 -2.743527002166956663e-04
1.363000000000000000e+03 3.316745996475219727e+00 3.918695831298828125e+01 -1.324519398622214794e-03 1.758015365339815617e-03 1.300487929256632924e-04 -2.965837484225630760e-04
1.364000000000000000e+03 5.189513683319091797e+00 -3.439328384399414062e+01 -2.348605776205658913e-04 3.335108514875173569e-03 9.300743695348501205e-04 -7.193921599537134171e-03
1.365000000000000000e+03 2.000212907791137695e+00 -3.025120925903320312e+01 6.860931403934955597e-03 -1.431097975000739098e-03 1.628950005397200584e-03 -1.192229450680315495e-03
1.366000000000000000e+03 2.975307226181030273e+00 -2.864454269409179688e+01 6.211847066879272461e-03 -1.227844477398321033e-04 1.826718798838555813e-03 4.306847695261240005e-04
1.367000000000000000e+03 1.794672608375549316e+00 2.192682075500488281e+01 1.525338273495435715e-03 -7.582689431728795171e-05 4.348533984739333391e-04 -6.166008824948221445e-05
1.368000000000000000e+03 2.943661689758300781e+00 2.323843383789062500e+01 1.602952950634062290e-03 -1.880455674836412072e-04 4.244722076691687107e-04 5.601711018243804574e-05
1.369000000000000000e+03 3.007501840591430664e+00 -1.769281196594238281e+01 3.472466487437486649e-03 1.744459150359034538e-04 1.094073755666613579e-03 6.563871866092085838e-04
1.370000000000000000e+03 1.732521176338195801e+00 -1.494390487670898438e+01 -2.580999629572033882e-03 1.155335994553752244e-04 -7.396398577839136124e-04 -1.822553167585283518e-04
1.371000000000000000e+03 2.798669338226318359e+00 -1.087507057189941406e+01 -1.776154502294957638e-03 -1.815297000575810671e-04 -5.873052868992090225e-04 -2.010594034800305963e-04
1.372000000000000000e+03 3.182325601577758789e+00 1.775747489929199219e+01 1.232353388331830502e-03 -1.669721496000420302e-05 3.646968398243188858e-04 -1.456490281270816922e-04
1.373000000000000000e+03 2.953212738037109375e+00 1.191301059722900391e+01 9.552956908009946346e-04 1.177074045699555427e-05 2.901199331972748041e-04 -3.403260416234843433e-05
1.374000000000000000e+03 2.844741106033325195e+00 -1.222278976440429688e+01 2.067858586087822914e-03 2.115348761435598135e-04 6.838180706836283207e-04 3.851477522403001785e-04
1.375000000000000000e+03 4.471486568450927734e+00 5.187456130981445312e+00 -4.314969992265105247e-04 -1.583358098287135363e-04 -1.769498485373333097e-04 2.486740704625844955e-04
1.376000000000000000e+03 2.835497379302978516e+00 7.610151290893554688e+00 -8.826407138258218765e-04 3.702135654748417437e-05 -2.536858082748949528e-04 1.664781666477210820e-05
1.377000000000000000e+03 1.862022638320922852e+00 1.487530708312988281e+01 -9.272287716157734394e-04 -4.193269342067651451e-05 -2.907484304159879684e-04 5.515718294191174209e-05
1.378000000000000000e+03 3.186747789382934570e+00 1.630597305297851562e+01 -1.092135091312229633e-03 -1.414572907378897071e-04 -3.700777015183120966e-04 1.166817746707238257e-04
1.379000000000000000e+03 2.916514635086059570e+00 9.056105613708496094e+00 8.758405456319451332e-04 -5.267216693027876318e-06 2.611720119602978230e-04 3.534567804308608174e-05
1.380000000000000000e+03 5.651831626892089844e+00 -4.630883216857910156e+00 -3.804114821832627058e-04 -1.546009589219465852e-04 -1.605037250556051731e-04 -1.116715138778090477e-03
1.381000000000000000e+03 2.208082675933837891e+00 -4.416973114013671875e+00 -4.386222281027585268e-04 1.924475363921374083e-04 -7.385240314761176705e-05 6.624486413784325123e-04
1.382000000000000000e+03 3.193187236785888672e+00 -2.059965133666992188e+01 3.924833610653877258e-03 2.124883612850680947e-04 1.241196645423769951e-03 1.103904913179576397e-03
1.383000000000000000e+03 1.637039899826049805e+00 -3.651652526855468750e+01 -1.383528113365173340e-03 -1.395548880100250244e-02 -4.601704888045787811e-03 -5.730907432734966278e-03
1.384000000000000000e+03 1.838565707206726074e+00 -2.345231246948242188e+01 -4.815902560949325562e-03 4.626977606676518917e-04 -1.305961399339139462e-03 -7.003442151471972466e-04
1.385000000000000000e+03 3.152524471282958984e+00 -2.207340240478515625e+01 -4.100001882761716843e-03 2.997749834321439266e-05 -1.221007318235933781e-03 -6.083701155148446560e-04
1.386000000000000000e+03 2.866064071655273438e+00 -1.492106246948242188e+01 2.933611162006855011e-03 -5.697943197446875274e-05 8.629895164631307125e-04 6.316333310678601265e-04
1.387000000000000000e+03 2.982666730880737305e+00 2.190969467163085938e+01 -1.544289290904998779e-03 1.376987784169614315e-04 -4.219771362841129303e-04 1.649664227443281561e-05
1.388000000000000000e+03 2.745977163314819336e+00 -9.554067611694335938e+00 1.602448639459908009e-03 1.727385824779048562e-04 5.325561505742371082e-04 1.267956395167857409e-04
1.389000000000000000e+03 2.708676576614379883e+00 -8.288369178771972656e+00 -1.438120845705270767e-03 -1.418253959855064750e-04 -4.739838768728077412e-04 -2.500714435882400721e-05
1.390000000000000000e+03 2.345098495483398438e+00 -3.505942153930664062e+01 -5.709266755729913712e-03 -6.640049628913402557e-03 -3.704794915392994881e-03 -7.086044177412986755e-03
1.391000000000000000e+03 4.207978248596191406e+00 -3.286763000488281250e+01 -1.009132526814937592e-02 -5.926017183810472488e-03 -4.805202595889568329e-03 -9.661761112511157990e-03
1.392000000000000000e+03 4.373951911926269531e+00 -2.365491104125976562e+01 -4.294253885746002197e-03 -8.717118180356919765e-04 -1.549789682030677795e-03 -2.946631866507232189e-04
1.393000000000000000e+03 2.967245340347290039e+00 -2.490305709838867188e+01 -5.669391714036464691e-03 9.059842559508979321e-04 -1.429022173397243023e-03 -8.804362732917070389e-04
1.394000000000000000e+03 2.864871025085449219e+00 -1.357352066040039062e+01 -2.444008132442831993e-03 -5.808139030705206096e-05 -7.506268448196351528e-04 -4.762267635669559240e-04
1.395000000000000000e+03 2.911037445068359375e+00 1.049989604949951172e+01 -9.110596729442477226e-04 -1.258409974980168045e-05 -2.770931168925017118e-04 -1.545991653983946890e-05
1.396000000000000000e+03 3.012832880020141602e+00 1.335340690612792969e+01 -1.012064050883054733e-03 -3.670595560834044591e-06 -3.047203936148434877e-04 4.745389742311090231e-05
1.397000000000000000e+03 3.097256422042846680e+00 1.918402099609375000e+01 -1.339484006166458130e-03 1.143019690061919391e-04 -3.675546031445264816e-04 7.979726069606840611e-05
1.398000000000000000e+03 2.347381210327148438e+01 3.134273052215576172e+00 3.330521658062934875e-02 3.500386714935302734e+00 1.060107588768005371e+00 3.847998976707458496e-01
1.399000000000000000e+03 2.295963478088378906e+01 -9.421334266662597656e+00 3.368076635524630547e-03 3.962997913360595703e+00 1.189909815788269043e+00 2.392561435699462891e-01
1.400000000000000000e+03 1.135783290863037109e+01 3.200548934936523438e+01 4.299458581954240799e-03 -4.494751919992268085e-04 1.154995057731866837e-03 -3.285330312792211771e-04
1.401000000000000000e+03 1.187903499603271484e+01 2.307922935485839844e+01 -2.338353544473648071e-03 -2.113975642714649439e-04 -7.649253238923847675e-04 7.078288035700097680e-05
1.402000000000000000e+03 1.596814918518066406e+01 3.690665817260742188e+01 1.607792079448699951e-02 -9.542483836412429810e-03 1.960630994290113449e-03 -7.946622557938098907e-03
1.403000000000000000e+03 1.436766719818115234e+01 3.567437744140625000e+01 6.095455959439277649e-03 -2.305858535692095757e-03 1.136879320256412029e-03 -1.028386992402374744e-03
1.404000000000000000e+03 2.288315963745117188e+01 -1.503487300872802734e+01 3.277447819709777832e-02 3.993830204010009766e+00 1.207981467247009277e+00 1.703797280788421631e-01
1.405000000000000000e+03 2.291679763793945312e+01 -1.222556972503662109e+01 4.868191853165626526e-02 3.999277353286743164e+00 1.214387774467468262e+00 2.028165906667709351e-01
1.406000000000000000e+03 1.154549217224121094e+01 -3.522234725952148438e+01 -3.639395162463188171e-02 6.424840074032545090e-03 -8.990732952952384949e-03 3.898996859788894653e-03
1.407000000000000000e+03 9.556185722351074219e+00 -3.766170883178710938e+01 -2.869214490056037903e-02 3.618884086608886719e-02 2.249008975923061371e-03 -4.484032467007637024e-02
1.408000000000000000e+03 2.355697822570800781e+01 5.990986347198486328e+00 3.299196809530258179e-02 3.273251056671142578e+00 9.918729066848754883e-01 4.737730026245117188e-01
1.409000000000000000e+03 2.321138191223144531e+01 -2.462894916534423828e+00 -2.057020366191864014e-02 3.737844944000244141e+00 1.115182399749755859e+00 3.161829113960266113e-01
1.410000000000000000e+03 2.282058525085449219e+01 -1.923820877075195312e+01 -5.468840897083282471e-02 3.978943109512329102e+00 1.177276372909545898e+00 1.645839214324951172e-01
1.411000000000000000e+03 1.228468513488769531e+01 2.736217689514160156e+01 2.994223264977335930e-03 6.176641909405589104e-05 9.167969110421836376e-04 3.477680729702115059e-04
1.412000000000000000e+03 2.135837364196777344e+01 -2.083217620849609375e+01 -1.443762239068746567e-02 3.771357774734497070e+00 1.127076029777526855e+00 1.708303391933441162e-01
1.413000000000000000e+03 2.287738990783691406e+01 -2.816813278198242188e+01 2.676509320735931396e-02 4.062014579772949219e+00 1.226633906364440918e+00 1.323910802602767944e-01
1.414000000000000000e+03 2.468153953552246094e+01 -2.694278335571289062e+01 4.938040394335985184e-03 4.200426101684570312e+00 1.261609196662902832e+00 1.360905617475509644e-01
1.415000000000000000e+03 2.121695137023925781e+01 -2.945050048828125000e+01 3.575152903795242310e-02 3.979861497879028320e+00 1.204683899879455566e+00 1.110408455133438110e-01
1.416000000000000000e+03 1.514032077789306641e+01 -4.037504577636718750e+01 1.770981848239898682e-01 1.049341708421707153e-01 8.460970968008041382e-02 -3.870884329080581665e-02
1.417000000000000000e+03 2.158330726623535156e+01 -3.502741622924804688e+01 3.443973064422607422e-01 3.847696781158447266e+00 1.257628202438354492e+00 2.163681834936141968e-01
1.418000000000000000e+03 5.133889198303222656e+00 -4.037701797485351562e+01 1.339260581880807877e-02 -2.349634841084480286e-02 -3.031122731044888496e-03 -7.961757481098175049e-03
1.419000000000000000e+03 8.056432723999023438e+00 -4.139410400390625000e+01 3.466880321502685547e-02 -1.147999987006187439e-02 6.956641096621751785e-03 -1.887813769280910492e-02
1.420000000000000000e+03 3.533811187744140625e+01 3.302781295776367188e+01 4.845725059509277344e+00 2.379840373992919922e+00 2.167669773101806641e+00 3.966100931167602539e+00
1.421000000000000000e+03 3.550804519653320312e+01 3.234937667846679688e+01 4.627373695373535156e+00 4.874165534973144531e+00 2.850461721420288086e+00 5.352340698242187500e+00
1.422000000000000000e+03 3.511277770996093750e+01 3.238608169555664062e+01 4.379258155822753906e+00 3.463014602661132812e+00 2.352681875228881836e+00 4.443069934844970703e+00
1.423000000000000000e+03 3.707008743286132812e+01 3.190522766113281250e+01 2.200538873672485352e+00 1.375429725646972656e+01 4.786450862884521484e+00 4.907919883728027344e+00
1.424000000000000000e+03 3.257377624511718750e+01 3.248252868652343750e+01 1.727660179138183594e+00 6.334580779075622559e-01 7.083355188369750977e-01 9.989789724349975586e-01
1.425000000000000000e+03 3.857460784912109375e+01 3.780297470092773438e+01 -7.120205163955688477e-01 1.473306655883789062e+01 4.206313610076904297e+00 -7.448641117662191391e-03
1.426000000000000000e+03 3.724877166748046875e+01 3.843214797973632812e+01 -9.800746440887451172e-01 1.181231689453125000e+01 3.249672889709472656e+00 -2.004166126251220703e+00
1.427000000000000000e+03 3.550265121459960938e+01 3.664632415771484375e+01 5.811100006103515625e-01 4.645856857299804688e+00 1.568089962005615234e+00 -2.991498708724975586e+00
1.428000000000000000e+03 3.524550628662109375e+01 3.661581802368164062e+01 4.887611269950866699e-01 3.751521110534667969e+00 1.272084712982177734e+00 -2.523658752441406250e+00
1.429000000000000000e+03 2.917830657958984375e+01 3.274718093872070312e+01 2.610454559326171875e-01 2.416325360536575317e-01 1.508034020662307739e-01 -8.441612124443054199e-02
1.430000000000000000e+03 2.989536666870117188e+01 3.214986801147460938e+01 7.494367957115173340e-01 3.867118358612060547e-01 3.408445715904235840e-01 1.709932684898376465e-01
1.431000000000000000e+03 2.639037704467773438e+01 3.163417243957519531e+01 2.776765525341033936e-01 2.097346186637878418e-01 1.462233513593673706e-01 -2.296607643365859985e-01
1.432000000000000000e+03 2.548331260681152344e+01 3.244576644897460938e+01 3.504736721515655518e-02 7.677987962961196899e-02 3.354817256331443787e-02 -3.441421985626220703e-01
1.433000000000000000e+03 3.167104911804199219e+01 3.220804214477539062e+01 1.416853904724121094e+00 5.696408748626708984e-01 5.959483981132507324e-01 7.190737128257751465e-01
1.434000000000000000e+03 3.219081878662109375e+01 3.224425506591796875e+01 1.722729802131652832e+00 6.392152309417724609e-01 7.085834741592407227e-01 9.580297470092773438e-01
1.435000000000000000e+03 3.364675140380859375e+01 3.896858596801757812e+01 8.907693624496459961e-01 2.274499177932739258e+00 9.495805501937866211e-01 -5.462341308593750000e-01
1.436000000000000000e+03 2.715078926086425781e+01 3.181608200073242188e+01 3.374664485454559326e-01 2.491290867328643799e-01 1.759786605834960938e-01 -1.817238926887512207e-01
1.437000000000000000e+03 3.782117080688476562e+01 3.976879882812500000e+01 -1.093987107276916504e+00 1.171612834930419922e+01 3.186642169952392578e+00 -1.102105855941772461e+00
1.438000000000000000e+03 8.199331283569335938e+00 4.168574810028076172e+00 -2.753632434178143740e-04 -3.024508769158273935e-04 -1.733442331897094846e-04 -9.225161193171516061e-05
1.439000000000000000e+03 1.044447422027587891e+01 3.308929681777954102e+00 -6.037497660145163536e-04 -1.567044637340586632e-05 -1.858260657172650099e-04 -1.673178630881011486e-04
1.440000000000000000e+03 2.558977508544921875e+01 3.141720199584960938e+01 2.207688242197036743e-01 1.266981065273284912e-01 1.042400747537612915e-01 -2.679672837257385254e-01
1.441000000000000000e+03 7.005552768707275391e+00 5.483893394470214844e+00 2.063504653051495552e-04 2.037645899690687656e-04 1.230345224030315876e-04 3.021976954187266529e-05
1.442000000000000000e+03 5.206503391265869141e+00 4.296751976013183594e+00 -4.572601174004375935e-04 -1.685497554717585444e-04 -1.877429604064673185e-04 8.565983443986624479e-05
1.443000000000000000e+03 4.762748241424560547e+00 6.760614871978759766e+00 -4.724418613477610052e-05 -1.998030056711286306e-04 -7.411415572278201580e-05 4.494604945648461580e-04
1.444000000000000000e+03 5.230230331420898438e+00 3.490756988525390625e+00 3.602940414566546679e-04 1.575284986756742001e-04 1.553467591293156147e-04 -6.259288784349337220e-05
1.445000000000000000e+03 3.017343044281005859e+00 5.061756610870361328e+00 -4.779229930136352777e-04 1.039005801430903375e-04 -1.122067187679931521e-04 -1.920002396218478680e-04
1.446000000000000000e+03 2.938799619674682617e+00 3.610409259796142578e+00 -1.945382828125730157e-04 -2.264388749608770013e-04 -1.262931473320350051e-04 -1.008717226795852184e-04
1.447000000000000000e+03 1.459539771080017090e+00 4.859256744384765625e+00 4.258072003722190857e-04 5.946339661022648215e-05 1.455811870982870460e-04 -1.717145933071151376e-04
1.448000000000000000e+03 1.646482944488525391e+00 3.290529251098632812e+00 -4.130265442654490471e-04 6.507148646051064134e-05 -1.043865195242688060e-04 -1.786251523299142718e-04
1.449000000000000000e+03 2.996106338500976562e+01 3.155217742919921875e+01 1.043400526046752930e+00 5.564120411872863770e-01 4.799437522888183594e-01 3.796527981758117676e-01
1.450000000000000000e+03 9.719961166381835938e+00 4.100232124328613281e+00 -4.985509440302848816e-04 -2.002606051973998547e-04 -2.096434764098376036e-04 -2.831760211847722530e-04
1.451000000000000000e+03 1.086359024047851562e+01 -4.944682121276855469e+00 -3.223655949113890529e-05 -3.042476018890738487e-04 -1.009452535072341561e-04 -5.018890078645199537e-05
1.452000000000000000e+03 1.025192356109619141e+01 -4.105602741241455078e+00 -5.931518389843404293e-04 -2.919790567830204964e-04 -2.655392745509743690e-04 -8.398059435421600938e-05
1.453000000000000000e+03 2.787384605407714844e+01 3.194976806640625000e+01 3.978274762630462646e-01 2.842793464660644531e-01 2.046320438385009766e-01 -1.280507594347000122e-01
1.454000000000000000e+03 2.856819915771484375e+01 3.204320907592773438e+01 4.895897507667541504e-01 3.144888579845428467e-01 2.412235736846923828e-01 -4.742211103439331055e-02
1.455000000000000000e+03 7.401039123535156250e+00 -3.338391304016113281e+00 8.083198918029665947e-04 1.102516325772739947e-04 2.755714522209018469e-04 2.658024313859641552e-04
1.456000000000000000e+03 1.162274551391601562e+01 -5.264853000640869141e+00 4.770150553667917848e-05 4.142067627981305122e-04 1.385724754072725773e-04 -3.548908571247011423e-04
1.457000000000000000e+03 1.195230770111083984e+01 3.063952445983886719e+00 -5.779929342679679394e-04 3.402180300327017903e-05 -1.631913473829627037e-04 2.295693120686337352e-04
1.458000000000000000e+03 1.222526741027832031e+01 3.723042011260986328e+00 9.101570467464625835e-04 -8.904605783754959702e-05 2.463333075866103172e-04 -1.838809257606044412e-04
1.459000000000000000e+03 9.002989768981933594e+00 4.867570877075195312e+00 -3.854488895740360022e-04 -2.865419082809239626e-04 -2.015972422668710351e-04 -2.447017759550362825e-04
1.460000000000000000e+03 3.052401351928710938e+01 3.217409133911132812e+01 9.256130456924438477e-01 4.426421821117401123e-01 4.104765653610229492e-01 3.233290612697601318e-01
1.461000000000000000e+03 4.604218006134033203e+00 -3.377166509628295898e+00 7.728940108790993690e-04 -1.245384628418833017e-04 1.945066615007817745e-04 -1.105363553506322205e-04
1.462000000000000000e+03 6.167911052703857422e+00 -5.232878684997558594e+00 9.305189014412462711e-04 2.099572884617373347e-04 3.421428555157035589e-04 7.165883434936404228e-04
1.463000000000000000e+03 4.024544715881347656e+00 -3.603541851043701172e+00 -1.635540393181145191e-04 -6.437952106352895498e-05 -6.838006811449304223e-05 -3.524420026224106550e-04
1.464000000000000000e+03 4.368643283843994141e+00 -4.683727264404296875e+00 1.039486844092607498e-03 -4.992924514226615429e-04 1.620583061594516039e-04 -5.276059964671730995e-04
1.465000000000000000e+03 8.123706817626953125e+00 -3.311277627944946289e+00 -5.970312049612402916e-04 -2.633701078593730927e-04 -2.581203880254179239e-04 -2.330454881303012371e-04
1.466000000000000000e+03 3.798096179962158203e+00 -8.424607276916503906e+00 1.548800268210470676e-03 2.538957633078098297e-04 5.408088327385485172e-04 2.712412388063967228e-04
1.467000000000000000e+03 2.781868219375610352e+00 -3.689423561096191406e+00 3.338008536957204342e-04 -3.724366979440674186e-05 8.896715735318139195e-05 -4.724821483250707388e-04
1.468000000000000000e+03 3.819780111312866211e+00 -6.323309898376464844e+00 1.329533406533300877e-03 -5.341444193618372083e-05 3.828356857411563396e-04 -3.466389898676425219e-05
1.469000000000000000e+03 2.859316825866699219e+00 -5.971499919891357422e+00 -1.112317549996078014e-03 5.658342342940159142e-05 -3.167202230542898178e-04 1.667338656261563301e-04
1.470000000000000000e+03 1.266577816009521484e+01 -4.200344562530517578e+00 1.164704677648842335e-03 2.819253422785550356e-04 4.339890147093683481e-04 -3.033841785509139299e-04
1.471000000000000000e+03 1.178812885284423828e+01 -3.402713060379028320e+00 8.048848249018192291e-04 3.967185039073228836e-04 3.604810044635087252e-04 -5.622618482448160648e-04
1.472000000000000000e+03 1.133993530273437500e+01 3.966885089874267578e+00 -9.027053602039813995e-04 2.388035682088229805e-05 -2.636474964674562216e-04 -1.535802439320832491e-04
1.473000000000000000e+03 1.356588840484619141e+01 3.384686946868896484e+00 -1.092385500669479370e-03 1.073626917786896229e-04 -2.955068193841725588e-04 -2.034617646131664515e-04
1.474000000000000000e+03 2.380150794982910156e+01 3.228585052490234375e+01 8.327927440404891968e-03 -8.551695197820663452e-02 -2.315670810639858246e-02 -3.426622450351715088e-01
1.475000000000000000e+03 2.290774154663085938e+01 3.104730033874511719e+01 7.379604130983352661e-02 -2.487751245498657227e-01 -5.249372497200965881e-02 -2.705635726451873779e-01
1.476000000000000000e+03 4.032189941406250000e+01 3.164363670349121094e+01 3.160313844680786133e+00 1.328412342071533203e+01 4.933331012725830078e+00 -5.171952247619628906e-01
1.477000000000000000e+03 1.212221145629882812e+01 -1.305016422271728516e+01 -1.853012829087674618e-03 -5.150876240804791451e-04 -7.104301475919783115e-04 2.567558258306235075e-04
1.478000000000000000e+03 1.199564552307128906e+01 -1.437444496154785156e+01 1.964013557881116867e-03 7.424573996104300022e-04 8.119413396343588829e-04 -5.212848773226141930e-04
1.479000000000000000e+03 1.258254051208496094e+01 -6.687829971313476562e+00 1.550762681290507317e-03 2.642470644786953926e-04 5.445029237307608128e-04 -4.119001387152820826e-04
1.480000000000000000e+03 1.266862106323242188e+01 -7.954469680786132812e+00 -1.849391381256282330e-03 -3.178280167048797011e-05 -5.643522599712014198e-04 3.752854827325791121e-04
1.481000000000000000e+03 1.246217918395996094e+01 7.871188163757324219e+00 9.033883106894791126e-04 1.524507097201421857e-04 3.167517133988440037e-04 1.273805974051356316e-04
1.482000000000000000e+03 2.760642814636230469e+01 4.181676101684570312e+01 7.334634065628051758e-01 -6.126937270164489746e-01 3.623090684413909912e-02 2.495093792676925659e-01
1.483000000000000000e+03 1.178858470916748047e+01 -4.259926319122314453e+00 -4.125149280298501253e-04 -6.168684340082108974e-04 -3.088150115218013525e-04 5.126381292939186096e-04
1.484000000000000000e+03 1.789595222473144531e+01 4.159827423095703125e+01 -5.437453277409076691e-03 -2.950436249375343323e-02 -1.048254501074552536e-02 2.367677725851535797e-02
1.485000000000000000e+03 2.466402053833007812e+01 4.373338818550109863e-01 -3.609963133931159973e-02 3.814014434814453125e+00 1.133374452590942383e+00 4.122397601604461670e-01
1.486000000000000000e+03 2.448157310485839844e+01 -3.743693113327026367e+00 -5.401381850242614746e-02 3.946955680847167969e+00 1.167882561683654785e+00 3.351318836212158203e-01
1.487000000000000000e+03 4.324150466918945312e+01 3.702039337158203125e+01 2.237960577011108398e+00 1.217409229278564453e+01 4.323616027832031250e+00 1.661103129386901855e+00
1.488000000000000000e+03 3.571027374267578125e+01 3.754412078857421875e+01 2.599328756332397461e-01 6.981086254119873047e+00 2.172305822372436523e+00 -3.057860374450683594e+00
1.489000000000000000e+03 3.527371978759765625e+01 3.957918167114257812e+01 3.146964907646179199e-01 6.154128551483154297e+00 1.940647482872009277e+00 -1.357897758483886719e+00
1.490000000000000000e+03 2.434784317016601562e+01 -1.767229270935058594e+01 -3.622194007039070129e-02 4.146640300750732422e+00 1.233125567436218262e+00 1.477694809436798096e-01
1.491000000000000000e+03 2.434232330322265625e+01 -1.907911109924316406e+01 -6.934151053428649902e-02 4.159434795379638672e+00 1.227028012275695801e+00 1.454858034849166870e-01
1.492000000000000000e+03 4.130522537231445312e+01 3.188069725036621094e+01 3.500108718872070312e+00 1.234436798095703125e+01 4.753343105316162109e+00 -5.294747948646545410e-01
1.493000000000000000e+03 2.472011947631835938e+01 1.838390588760375977e+00 -1.574026606976985931e-02 3.739389896392822266e+00 1.117094874382019043e+00 4.419049024581909180e-01
1.494000000000000000e+03 2.298901367187500000e+01 -8.022992134094238281e+00 -1.543579716235399246e-02 3.903781414031982422e+00 1.166503667831420898e+00 2.593940794467926025e-01
1.495000000000000000e+03 1.333091163635253906e+01 -1.328157901763916016e+01 2.266907831653952599e-03 3.705305571202188730e-04 7.912315195426344872e-04 -4.003251960966736078e-04
1.496000000000000000e+03 2.432701110839843750e+01 -1.207412052154541016e+01 2.579429373145103455e-02 4.112293243408203125e+00 1.241426348686218262e+00 2.340677380561828613e-01
1.497000000000000000e+03 1.080768680572509766e+01 2.610420608520507812e+01 2.317452570423483849e-03 4.565543786156922579e-04 8.322020876221358776e-04 9.525840869173407555e-05
1.498000000000000000e+03 5.195736408233642578e+00 1.032699680328369141e+01 -6.745575228706002235e-04 -3.711005556397140026e-04 -3.136974119115620852e-04 2.469794417265802622e-04
1.499000000000000000e+03 1.240063381195068359e+01 9.122751235961914062e+00 -9.252717136405408382e-04 -2.234910498373210430e-04 -3.446288174018263817e-04 -1.498632627772167325e-04
1.500000000000000000e+03 4.145239639282226562e+01 3.467706298828125000e+01 4.898608684539794922e+00 1.215294647216796875e+01 5.115466594696044922e+00 1.535872936248779297e+00
1.501000000000000000e+03 4.341249465942382812e+01 3.503947067260742188e+01 3.534379243850708008e+00 1.137627887725830078e+01 4.473197460174560547e+00 1.159604191780090332e+00
1.502000000000000000e+03 9.253531455993652344e+00 2.015534973144531250e+01 -1.788447611033916473e-03 3.695123305078595877e-04 -4.256805987097322941e-04 -2.719420008361339569e-04
1.503000000000000000e+03 1.113363647460937500e+01 1.496829509735107422e+01 -1.060561393387615681e-03 -4.900469793938100338e-04 -4.651825292967259884e-04 9.336973889730870724e-04
1.504000000000000000e+03 7.548413848876953125e+01 1.283849430084228516e+01 -2.542299404740333557e-02 7.413810729980468750e+00 2.216516256332397461e+00 -4.353082180023193359e-01
1.505000000000000000e+03 7.547991180419921875e+01 -8.669683933258056641e-01 -3.199933096766471863e-02 8.259392738342285156e+00 2.468217849731445312e+00 -2.515164017677307129e-01
1.506000000000000000e+03 7.408678436279296875e+01 -2.102050542831420898e+00 -5.087994411587715149e-02 8.240122795104980469e+00 2.456772804260253906e+00 -2.904323935508728027e-01
1.507000000000000000e+03 7.529673767089843750e+01 -9.465568542480468750e+00 -2.654292806982994080e-02 8.553800582885742188e+00 2.558177232742309570e+00 -1.579601466655731201e-01
1.508000000000000000e+03 7.380635070800781250e+01 -4.935056209564208984e+00 -5.126028880476951599e-02 8.319952964782714844e+00 2.480607986450195312e+00 -2.569782435894012451e-01
1.509000000000000000e+03 7.668669891357421875e+01 -5.241466522216796875e+00 -1.610521413385868073e-02 8.521185874938964844e+00 2.551524162292480469e+00 -1.514399796724319458e-01
1.510000000000000000e+03 7.537326812744140625e+01 -3.676471948623657227e+00 -3.119043633341789246e-02 8.370494842529296875e+00 2.501791238784790039e+00 -2.204322367906570435e-01
1.511000000000000000e+03 7.679204559326171875e+01 1.763705015182495117e+00 -1.836400106549263000e-02 8.189126968383789062e+00 2.451228857040405273e+00 -2.164183259010314941e-01
1.512000000000000000e+03 7.548908233642578125e+01 1.888641476631164551e+00 -3.344447165727615356e-02 8.125747680664062500e+00 2.427690982818603516e+00 -2.888571321964263916e-01
1.513000000000000000e+03 7.548438262939453125e+01 6.016709327697753906e+00 -3.460517153143882751e-02 7.890142917633056641e+00 2.356661319732666016e+00 -3.473648428916931152e-01
1.514000000000000000e+03 7.388800811767578125e+01 -9.560489654541015625e+00 -4.099274799227714539e-02 8.454650878906250000e+00 2.524097442626953125e+00 -1.925183385610580444e-01
1.515000000000000000e+03 7.554065704345703125e+01 -1.639881515502929688e+01 -1.681661605834960938e-02 8.731369018554687500e+00 2.614365816116333008e+00 -9.499800950288772583e-02
1.516000000000000000e+03 7.416784667968750000e+01 3.378890752792358398e+00 -5.452393740415573120e-02 8.006380081176757812e+00 2.385556697845458984e+00 -3.787839710712432861e-01
1.517000000000000000e+03 7.549028778076171875e+01 5.138792395591735840e-01 -3.337959945201873779e-02 8.195083618164062500e+00 2.448511123657226562e+00 -2.697792053222656250e-01
1.518000000000000000e+03 7.548830413818359375e+01 3.266775369644165039e+00 -3.478827327489852905e-02 8.051891326904296875e+00 2.405130863189697266e+00 -3.083779513835906982e-01
1.519000000000000000e+03 7.225004577636718750e+01 3.242143630981445312e+01 1.855322271585464478e-01 6.412747383117675781e+00 1.979483842849731445e+00 -4.624575078487396240e-01
1.520000000000000000e+03 7.539720916748046875e+01 3.115209770202636719e+01 7.637757062911987305e-02 5.968908309936523438e+00 1.813585758209228516e+00 -3.679071068763732910e-01
1.521000000000000000e+03 7.544853973388671875e+01 -1.232507991790771484e+01 -2.078331634402275085e-02 8.640040397644042969e+00 2.585777282714843750e+00 -1.283602714538574219e-01
1.522000000000000000e+03 7.549201965332031250e+01 -1.370782947540283203e+01 -1.911903172731399536e-02 8.674825668334960938e+00 2.596711874008178711e+00 -1.151632145047187805e-01
1.523000000000000000e+03 7.538613891601562500e+01 -1.090936279296875000e+01 -2.259706147015094757e-02 8.600090980529785156e+00 2.573248147964477539e+00 -1.415434330701828003e-01
1.524000000000000000e+03 7.551753234863281250e+01 -1.905931282043457031e+01 -1.672972738742828369e-02 8.771969795227050781e+00 2.626572132110595703e+00 -7.844360917806625366e-02
1.525000000000000000e+03 7.530331420898437500e+01 -2.305161666870117188e+01 -1.351282652467489243e-02 8.805897712707519531e+00 2.637715339660644531e+00 -5.924330279231071472e-02
1.526000000000000000e+03 7.678627777099609375e+01 8.666357040405273438e+00 -1.660346798598766327e-02 7.724804401397705078e+00 2.312460422515869141e+00 -2.898356616497039795e-01
1.527000000000000000e+03 7.548348999023437500e+01 7.384879112243652344e+00 -3.280339017510414124e-02 7.802689075469970703e+00 2.330965757369995117e+00 -3.665432929992675781e-01
1.528000000000000000e+03 7.674304962158203125e+01 1.558413314819335938e+01 -1.065587345510721207e-02 7.139215946197509766e+00 2.138567924499511719e+00 -3.528955578804016113e-01
1.529000000000000000e+03 7.543060302734375000e+01 1.560119056701660156e+01 -1.842834055423736572e-02 7.197628974914550781e+00 2.153760194778442383e+00 -4.662905633449554443e-01
1.530000000000000000e+03 7.554202270507812500e+01 -1.772786903381347656e+01 -1.598238386213779449e-02 8.752756118774414062e+00 2.621031999588012695e+00 -8.643805235624313354e-02
1.531000000000000000e+03 7.546286010742187500e+01 -2.039181327819824219e+01 -1.513059902936220169e-02 8.786060333251953125e+00 2.631278991699218750e+00 -7.014270126819610596e-02
1.532000000000000000e+03 7.681865692138671875e+01 -1.780685424804687500e+01 -9.320043027400970459e-03 8.871343612670898438e+00 2.658607006072998047e+00 -6.492213159799575806e-02
1.533000000000000000e+03 7.552212524414062500e+01 -1.506380558013916016e+01 -1.716432534158229828e-02 8.704378128051757812e+00 2.606164216995239258e+00 -1.049217656254768372e-01
1.534000000000000000e+03 7.548589324951171875e+01 1.010246467590332031e+01 -3.008287772536277771e-02 7.616984367370605469e+00 2.276070594787597656e+00 -4.024499654769897461e-01
1.535000000000000000e+03 7.416017150878906250e+01 8.810903549194335938e+00 -5.085656419396400452e-02 7.708189010620117188e+00 2.297199726104736328e+00 -4.706639945507049561e-01
1.536000000000000000e+03 7.536029815673828125e+01 -3.021740722656250000e+01 -8.949633687734603882e-03 8.867121696472167969e+00 2.657451391220092773e+00 -2.721808105707168579e-02
1.537000000000000000e+03 7.372492218017578125e+01 -2.422598648071289062e+01 -1.980304904282093048e-02 8.674220085144042969e+00 2.596325159072875977e+00 -7.087587565183639526e-02
1.538000000000000000e+03 7.412366485595703125e+01 1.556023597717285156e+01 -3.161696717143058777e-02 7.263206958770751953e+00 2.169476985931396484e+00 -5.634154081344604492e-01
1.539000000000000000e+03 7.546710205078125000e+01 1.422087001800537109e+01 -2.394905686378479004e-02 7.306664943695068359e+00 2.184814691543579102e+00 -4.504111111164093018e-01
1.540000000000000000e+03 7.537788391113281250e+01 1.699713134765625000e+01 -1.432352978736162186e-02 7.085832118988037109e+00 2.121452569961547852e+00 -4.801696836948394775e-01
1.541000000000000000e+03 7.662604522705078125e+01 2.257378005981445312e+01 9.424019604921340942e-03 6.496907711029052734e+00 1.951899528503417969e+00 -3.774223029613494873e-01
1.542000000000000000e+03 7.525617980957031250e+01 2.122848892211914062e+01 4.994783550500869751e-03 6.749396324157714844e+00 2.026317358016967773e+00 -5.000406503677368164e-01
1.543000000000000000e+03 7.515466308593750000e+01 -2.580926132202148438e+01 -1.270188950002193451e-02 8.814409255981445312e+00 2.640512228012084961e+00 -4.659183323383331299e-02
1.544000000000000000e+03 7.655763244628906250e+01 -2.600898170471191406e+01 -9.010683745145797729e-03 8.948787689208984375e+00 2.681933164596557617e+00 -3.463588282465934753e-02
1.545000000000000000e+03 7.360179138183593750e+01 -2.694460487365722656e+01 -2.031151391565799713e-02 8.692131042480468750e+00 2.601546049118041992e+00 -5.516116321086883545e-02
1.546000000000000000e+03 7.660093688964843750e+01 2.399497032165527344e+01 1.493408437818288803e-02 6.367605209350585938e+00 1.914761781692504883e+00 -3.697114586830139160e-01
1.547000000000000000e+03 7.396128845214843750e+01 2.411184692382812500e+01 3.671644255518913269e-02 6.662117481231689453e+00 2.009650230407714844e+00 -5.820611715316772461e-01
1.548000000000000000e+03 7.511948394775390625e+01 2.695913505554199219e+01 5.201484635472297668e-02 6.309741497039794922e+00 1.908526897430419922e+00 -4.636579453945159912e-01
1.549000000000000000e+03 7.653298950195312500e+01 2.959895706176757812e+01 4.012947157025337219e-02 5.880771636962890625e+00 1.776270389556884766e+00 -3.024619221687316895e-01
1.550000000000000000e+03 7.508993530273437500e+01 2.841079902648925781e+01 6.252974271774291992e-02 6.204147815704345703e+00 1.880003213882446289e+00 -4.368670284748077393e-01
1.551000000000000000e+03 7.433347320556640625e+01 -3.065662193298339844e+01 -7.696663495153188705e-03 8.769585609436035156e+00 2.628566503524780273e+00 -2.983888797461986542e-02
1.552000000000000000e+03 7.296378326416015625e+01 -3.603773117065429688e+01 -1.212052349001169205e-02 8.634090423583984375e+00 2.586591005325317383e+00 -1.875980384647846222e-02
1.553000000000000000e+03 7.515615081787109375e+01 2.983489799499511719e+01 6.912130862474441528e-02 6.105239391326904297e+00 1.852308273315429688e+00 -4.066897332668304443e-01
1.554000000000000000e+03 7.648351287841796875e+01 -3.164221763610839844e+01 -5.429610144346952438e-03 8.971424102783203125e+00 2.689798355102539062e+00 -1.928078755736351013e-02
1.555000000000000000e+03 7.504946136474609375e+01 -2.887600517272949219e+01 -7.084189448505640030e-03 8.824583053588867188e+00 2.645249605178833008e+00 -3.698486834764480591e-02
1.556000000000000000e+03 7.398789978027343750e+01 -3.419868469238281250e+01 -7.741475012153387070e-03 8.754288673400878906e+00 2.623964071273803711e+00 -2.503426931798458099e-02
1.557000000000000000e+03 2.483616638183593750e+01 1.041140174865722656e+01 -6.288403272628784180e-02 3.029643535614013672e+00 8.900278210639953613e-01 7.176963090896606445e-01
1.558000000000000000e+03 1.268080139160156250e+01 -2.235513687133789062e+01 4.456288646906614304e-03 1.222876948304474354e-03 1.703749643638730049e-03 1.707311603240668774e-03
1.559000000000000000e+03 1.247193050384521484e+01 -2.007104110717773438e+01 -2.240314846858382225e-03 1.494376483606174588e-04 -6.272631580941379070e-04 1.194521901197731495e-03
1.560000000000000000e+03 2.290496826171875000e+01 -1.363443470001220703e+01 4.736108332872390747e-02 4.024796009063720703e+00 1.221647024154663086e+00 1.950534284114837646e-01
1.561000000000000000e+03 2.435176849365234375e+01 -1.347852897644042969e+01 2.444166131317615509e-02 4.116200923919677734e+00 1.242192745208740234e+00 1.971740871667861938e-01
1.562000000000000000e+03 2.609905433654785156e+01 9.116837501525878906e+00 -9.210693091154098511e-02 3.457112073898315430e+00 1.009501576423645020e+00 8.034686446189880371e-01
1.563000000000000000e+03 2.481962966918945312e+01 1.183508300781250000e+01 -6.829356402158737183e-02 2.846808195114135742e+00 8.335543870925903320e-01 7.550802230834960938e-01
1.564000000000000000e+03 6.217871189117431641e+00 -2.466452026367187500e+01 -2.156032482162117958e-03 -2.820218214765191078e-03 -1.492875162512063980e-03 -3.081679169554263353e-04
1.565000000000000000e+03 1.192642116546630859e+01 -2.865345382690429688e+01 3.992610145360231400e-03 7.498779450543224812e-04 1.422746339812874794e-03 -1.906923716887831688e-04
1.566000000000000000e+03 2.576850891113281250e+01 2.194482421875000000e+01 1.958673000335693359e-01 1.651025295257568359e+00 5.540677905082702637e-01 9.490899443626403809e-01
1.567000000000000000e+03 2.463944625854492188e+01 2.033848381042480469e+01 7.742994278669357300e-02 1.476751327514648438e+00 4.662543833255767822e-01 8.196612596511840820e-01
1.568000000000000000e+03 2.479528808593750000e+01 1.325401496887207031e+01 -6.506787240505218506e-02 2.651919364929199219e+00 7.760554552078247070e-01 7.915416359901428223e-01
1.569000000000000000e+03 2.347334289550781250e+01 1.876033020019531250e+01 1.602193340659141541e-02 1.294173479080200195e+00 3.930586278438568115e-01 6.432163119316101074e-01
1.570000000000000000e+03 2.471119117736816406e+01 1.750121116638183594e+01 -1.111332699656486511e-02 1.989176750183105469e+00 5.934190154075622559e-01 8.606290817260742188e-01
1.571000000000000000e+03 9.292551994323730469e+00 -1.632252502441406250e+01 1.634206157177686691e-03 1.220117555931210518e-03 8.562970906496047974e-04 -4.764469922520220280e-04
1.572000000000000000e+03 1.021034145355224609e+01 -1.778201866149902344e+01 1.907432801090180874e-03 4.489033890422433615e-04 7.069008424878120422e-04 -8.680741884745657444e-04
1.573000000000000000e+03 2.474020576477050781e+01 1.608592796325683594e+01 -3.689156845211982727e-02 2.221401691436767578e+00 6.553530097007751465e-01 8.478627800941467285e-01
1.574000000000000000e+03 2.296124267578125000e+01 2.978069686889648438e+01 1.196197643876075745e-01 -2.580245137214660645e-01 -4.152142629027366638e-02 -1.827913969755172729e-01
1.575000000000000000e+03 2.395506286621093750e+01 2.987732124328613281e+01 2.121259123086929321e-01 -3.979107365012168884e-02 5.170045420527458191e-02 -1.742991209030151367e-01
1.576000000000000000e+03 2.358367538452148438e+01 8.850789070129394531e+00 -2.188234776258468628e-02 2.955834150314331055e+00 8.801855444908142090e-01 5.259798765182495117e-01
1.577000000000000000e+03 2.484040832519531250e+01 7.547813415527343750e+00 -2.879504114389419556e-02 3.334605216979980469e+00 9.917430877685546875e-01 6.366330385208129883e-01
1.578000000000000000e+03 8.128441810607910156e+00 -8.131357192993164062e+00 -5.342789227142930031e-04 4.500367504078894854e-04 -2.527265860408078879e-05 4.527909622993320227e-04
1.579000000000000000e+03 2.420433425903320312e+01 2.588089179992675781e+01 2.726502716541290283e-01 4.102588891983032227e-01 2.048727422952651978e-01 3.528546392917633057e-01
1.580000000000000000e+03 2.432991600036621094e+01 2.451799583435058594e+01 2.357167899608612061e-01 6.576365828514099121e-01 2.680060267448425293e-01 5.178846716880798340e-01
1.581000000000000000e+03 2.404170799255371094e+01 2.856840324401855469e+01 2.642482817173004150e-01 5.102078989148139954e-02 9.458071738481521606e-02 -1.805583387613296509e-02
1.582000000000000000e+03 2.493245124816894531e+01 3.000253677368164062e+01 3.282592296600341797e-01 1.387857198715209961e-01 1.401134878396987915e-01 -1.302410811185836792e-01
1.583000000000000000e+03 2.903192996978759766e+00 -1.628866958618164062e+01 -3.182093612849712372e-03 1.159468592959456146e-04 -9.198440238833427429e-04 -5.077229579910635948e-04
1.584000000000000000e+03 3.984271764755249023e+00 -1.489591979980468750e+01 -3.072627354413270950e-03 1.672289363341405988e-04 -8.716195006854832172e-04 -9.675847832113504410e-04
1.585000000000000000e+03 4.182046413421630859e+00 2.193892669677734375e+01 1.401998568326234818e-03 -1.399126776959747076e-04 3.786257584579288960e-04 6.621528882533311844e-05
1.586000000000000000e+03 3.026437044143676758e+00 2.057013511657714844e+01 1.439500250853598118e-03 -9.377550304634496570e-05 4.037173930555582047e-04 -2.735901216510683298e-05
1.587000000000000000e+03 4.147326469421386719e+00 -1.753888702392578125e+01 -3.447313327342271805e-03 -5.010992754250764847e-04 -1.184523687697947025e-03 -1.121610170230269432e-03
1.588000000000000000e+03 3.984712839126586914e+00 -1.618889617919921875e+01 3.412302350625395775e-03 7.765807822579517961e-05 1.046988065354526043e-03 1.136794453486800194e-03
1.589000000000000000e+03 5.342591285705566406e+00 2.673062705993652344e+01 -1.842988654971122742e-03 -3.162895736750215292e-04 -6.477834540419280529e-04 2.310901618329808116e-04
1.590000000000000000e+03 6.046451091766357422e+00 2.538669013977050781e+01 -5.139427375979721546e-04 -6.255142507143318653e-04 -3.418370906729251146e-04 5.682712653651833534e-04
1.591000000000000000e+03 4.455325603485107422e+00 2.832669258117675781e+01 -1.916867564432322979e-03 -7.011112029431387782e-05 -5.960935959592461586e-04 1.089313373086042702e-04
1.592000000000000000e+03 3.819603681564331055e+00 -2.725432968139648438e+01 4.366118926554918289e-03 8.111505885608494282e-04 1.553180860355496407e-03 3.739152743946760893e-04
1.593000000000000000e+03 2.815014123916625977e+00 -2.741198730468750000e+01 -7.398964371532201767e-03 3.188910486642271280e-04 -2.124021993950009346e-03 -1.133669167757034302e-03
1.594000000000000000e+03 3.087841033935546875e+00 -2.352665901184082031e+01 4.467250313609838486e-03 1.099205182981677353e-04 1.373151200823485851e-03 1.267292886041104794e-03
1.595000000000000000e+03 4.392178535461425781e+00 -2.213717269897460938e+01 4.894122481346130371e-03 -7.084800163283944130e-04 1.255692797712981701e-03 6.551194237545132637e-04
1.596000000000000000e+03 4.559108257293701172e+00 1.785049247741699219e+01 -1.300160773098468781e-03 1.624674478080123663e-04 -3.413079830352216959e-04 1.205274202220607549e-05
1.597000000000000000e+03 4.323235034942626953e+00 1.930900764465332031e+01 1.325996010564267635e-03 -2.326030953554436564e-04 3.280178934801369905e-04 1.731226948322728276e-04
1.598000000000000000e+03 4.555826187133789062e+00 1.628642845153808594e+01 1.299735275097191334e-03 2.162039163522422314e-04 4.547817516140639782e-04 -6.460348231485113502e-05
1.599000000000000000e+03 4.539491176605224609e+00 -2.059483146667480469e+01 -4.383863415569067001e-03 2.406271523796021938e-04 -1.242970814928412437e-03 -9.248454007320106030e-04
1.600000000000000000e+03 2.954129457473754883e+00 2.593483924865722656e+01 1.782786566764116287e-03 -9.568886889610439539e-05 5.061292904429137707e-04 6.188444967847317457e-05
1.601000000000000000e+03 4.021106719970703125e+00 2.449495887756347656e+01 1.671014004386961460e-03 -2.263622009195387363e-04 4.333955585025250912e-04 1.432800054317340255e-04
1.602000000000000000e+03 4.084457874298095703e+00 2.321159744262695312e+01 -1.527339685708284378e-03 3.359383263159543276e-04 -3.574203874450176954e-04 -9.522376058157533407e-05
1.603000000000000000e+03 9.986248970031738281e+00 -2.349295997619628906e+01 4.212892090436071157e-04 2.356741810217499733e-03 8.334093145094811916e-04 -1.647459575906395912e-03
1.604000000000000000e+03 4.217222690582275391e+00 -2.510404205322265625e+01 4.202431533485651016e-03 -1.573789515532553196e-03 7.885926752351224422e-04 5.223363405093550682e-04
1.605000000000000000e+03 3.100954771041870117e+00 1.482923984527587891e+01 1.034579006955027580e-03 7.077434565871953964e-05 3.316059883218258619e-04 -3.605531674111261964e-05
1.606000000000000000e+03 4.109419822692871094e+00 1.182855319976806641e+01 -9.395266533829271793e-04 -1.184903303510509431e-04 -3.174050943925976753e-04 1.594955538166686893e-04
1.607000000000000000e+03 4.163958549499511719e+00 1.325943183898925781e+01 1.142324297688901424e-03 1.837483978306408972e-05 3.482097235973924398e-04 -2.241176989628002048e-04
1.608000000000000000e+03 3.859198331832885742e+00 -9.630702018737792969e+00 -1.679991139099001884e-03 -2.011375181609764695e-04 -5.643385811708867550e-04 -3.132479032501578331e-04
1.609000000000000000e+03 4.039228439331054688e+00 -1.359467315673828125e+01 2.362948609516024590e-03 2.943722647614777088e-04 7.971962331794202328e-04 8.847111603245139122e-04
1.610000000000000000e+03 3.624616146087646484e+00 3.590077972412109375e+01 -7.700698333792388439e-04 -4.508339657149917912e-07 -2.311561984242871404e-04 -1.248146989382803440e-03
1.611000000000000000e+03 4.972693443298339844e+00 -3.062251281738281250e+01 -7.840928621590137482e-03 -4.581024404615163803e-03 -3.726586000993847847e-03 -5.827052984386682510e-03
1.612000000000000000e+03 5.488608360290527344e+00 -2.879090881347656250e+01 -6.136520765721797943e-03 -2.938073128461837769e-03 -2.722378121688961983e-03 -3.731586039066314697e-03
1.613000000000000000e+03 3.937759876251220703e+00 -1.092212295532226562e+01 1.823489321395754814e-03 2.755033492576330900e-04 6.296978099271655083e-04 3.577033348847180605e-04
1.614000000000000000e+03 5.830920696258544922e+00 -6.644888401031494141e+00 -3.430272336117923260e-04 -9.106635116040706635e-04 -3.761072293855249882e-04 -4.247655160725116730e-04
1.615000000000000000e+03 4.040846347808837891e+00 1.045193672180175781e+01 8.000648231245577335e-04 1.793935953173786402e-04 2.938375400844961405e-04 2.153331661247648299e-05
1.616000000000000000e+03 6.081919670104980469e+00 2.917886352539062500e+01 -1.818649121560156345e-03 -3.674824838526546955e-04 -6.558395107276737690e-04 7.042227662168443203e-04
1.617000000000000000e+03 3.811455011367797852e+00 3.294886398315429688e+01 -1.349936006590723991e-03 1.136815481004305184e-04 -3.708763397298753262e-04 -3.851261571981012821e-04
1.618000000000000000e+03 5.655246734619140625e+00 -3.188302612304687500e+01 -2.568016992881894112e-03 7.480407599359750748e-03 1.473717158660292625e-03 -2.726982580497860909e-03
1.619000000000000000e+03 3.261314630508422852e+00 -2.992532539367675781e+01 -9.090144187211990356e-03 -1.587213831953704357e-03 -3.203207626938819885e-03 -4.301384557038545609e-03
1.620000000000000000e+03 3.663278341293334961e+00 -3.130364227294921875e+01 4.767695907503366470e-03 1.534784445539116859e-03 1.890744082629680634e-03 8.613673708168789744e-05
1.621000000000000000e+03 4.444859981536865234e+00 8.203025817871093750e+00 -2.687913656700402498e-04 -5.663866249960847199e-05 -9.762900299392640591e-05 6.655943579971790314e-04
1.622000000000000000e+03 3.155173778533935547e+00 -5.010911941528320312e+00 9.637330076657235622e-04 -3.052037500310689211e-04 1.975587802007794380e-04 -4.950349684804677963e-04
1.623000000000000000e+03 3.678834676742553711e+00 6.205410480499267578e+00 -4.406546649988740683e-04 -1.534236507723107934e-04 -1.782234903657808900e-04 3.932255494873970747e-04
1.624000000000000000e+03 5.854002952575683594e+00 5.075816631317138672e+00 -5.919446703046560287e-04 -1.419192412868142128e-04 -2.201591851189732552e-04 9.997370216296985745e-05
1.625000000000000000e+03 6.533170223236083984e+00 -3.569451522827148438e+01 -1.203253306448459625e-02 4.038419108837842941e-03 -2.398234093561768532e-03 -2.246879041194915771e-02
1.626000000000000000e+03 2.311320114135742188e+01 -2.220551300048828125e+01 -4.371933266520500183e-02 4.025654792785644531e+00 1.194580674171447754e+00 1.564279794692993164e-01
1.627000000000000000e+03 2.142471504211425781e+01 -2.376720237731933594e+01 -3.054738231003284454e-02 3.871124505996704102e+00 1.152173161506652832e+00 1.073398515582084656e-01
1.628000000000000000e+03 2.434148025512695312e+01 -7.895694255828857422e+00 -4.030828177928924561e-02 4.057278156280517578e+00 1.205090999603271484e+00 2.925191521644592285e-01
1.629000000000000000e+03 1.708157157897949219e+01 3.911873245239257812e+01 -2.919453894719481468e-03 9.224003297276794910e-04 -5.991160869598388672e-04 1.733043044805526733e-02
1.630000000000000000e+03 8.396276473999023438e+00 3.921341705322265625e+01 -3.406827803701162338e-03 3.188925096765160561e-03 -6.537084118463099003e-05 -2.072883537039160728e-03
1.631000000000000000e+03 2.437232589721679688e+01 -1.627209091186523438e+01 -1.958350464701652527e-02 4.142895221710205078e+00 1.236993432044982910e+00 1.608338803052902222e-01
1.632000000000000000e+03 2.460315132141113281e+01 -9.585962295532226562e-01 -4.179062694311141968e-02 3.858175277709960938e+00 1.144915342330932617e+00 3.888033330440521240e-01
1.633000000000000000e+03 2.352256011962890625e+01 4.557209491729736328e+00 4.842664301395416260e-02 3.394076347351074219e+00 1.032750844955444336e+00 4.335150718688964844e-01
1.634000000000000000e+03 2.482732009887695312e+01 6.111257553100585938e+00 -7.352623622864484787e-03 3.455691337585449219e+00 1.034501552581787109e+00 5.910663604736328125e-01
1.635000000000000000e+03 2.480193710327148438e+01 4.676132678985595703e+00 4.499692469835281372e-03 3.563450574874877930e+00 1.070385098457336426e+00 5.339521765708923340e-01
1.636000000000000000e+03 1.155198287963867188e+01 3.527427673339843750e+01 -1.859804266132414341e-03 6.219397182576358318e-04 -3.713593469001352787e-04 2.112540649250149727e-03
1.637000000000000000e+03 7.338841915130615234e+00 2.858566474914550781e+01 1.893225358799099922e-03 8.643630426377058029e-04 8.272764971479773521e-04 -1.291445689275860786e-03
1.638000000000000000e+03 2.432040023803710938e+01 -1.067623615264892578e+01 8.736914023756980896e-03 4.095596313476562500e+00 1.231299877166748047e+00 2.480987161397933960e-01
1.639000000000000000e+03 2.267544555664062500e+01 -3.090142822265625000e+01 9.079573303461074829e-02 4.086681842803955078e+00 1.253243207931518555e+00 1.855030506849288940e-01
1.640000000000000000e+03 2.278444290161132812e+01 -2.955628204345703125e+01 2.080307714641094208e-02 4.055405139923095703e+00 1.222862362861633301e+00 1.350802779197692871e-01
1.641000000000000000e+03 2.442337608337402344e+01 -5.131261348724365234e+00 -5.602540820837020874e-02 3.985630750656127930e+00 1.178881645202636719e+00 3.165809512138366699e-01
1.642000000000000000e+03 2.239523315429687500e+01 4.081930923461914062e+01 9.222734719514846802e-02 -2.305294573307037354e-01 -4.149063676595687866e-02 4.476812854409217834e-02
1.643000000000000000e+03 1.215348815917968750e+01 1.288265419006347656e+01 9.059227304533123970e-04 2.659141027834266424e-04 3.515510470606386662e-04 5.752459401264786720e-04
1.644000000000000000e+03 2.476634216308593750e+01 3.250948190689086914e+00 -2.151295542716979980e-03 3.661875963211059570e+00 1.097917437553405762e+00 4.862343966960906982e-01
1.645000000000000000e+03 1.098967552185058594e+01 2.750504493713378906e+01 -2.122465521097183228e-03 -3.704876871779561043e-04 -7.478859624825417995e-04 -2.342642110306769609e-04
1.646000000000000000e+03 7.583429718017578125e+01 4.039509582519531250e+01 5.609370395541191101e-02 5.424967288970947266e+00 1.644318222999572754e+00 -1.431875824928283691e-01
1.647000000000000000e+03 6.927100658416748047e+00 1.085353183746337891e+01 3.117924206890165806e-04 -4.447939572855830193e-04 -3.990046025137417018e-05 1.534248731331899762e-04
1.648000000000000000e+03 7.521970272064208984e+00 1.823550224304199219e+01 -1.618809619685634971e-04 -7.872068090364336967e-04 -2.847263240255415440e-04 2.055318473139777780e-04
1.649000000000000000e+03 2.087285995483398438e+01 -3.834000778198242188e+01 -9.738453477621078491e-02 3.328371286392211914e+00 9.692960381507873535e-01 -1.963271945714950562e-01
1.650000000000000000e+03 2.368281555175781250e+01 -3.883577346801757812e+01 -1.500267386436462402e-01 3.900935173034667969e+00 1.125272512435913086e+00 -1.136567145586013794e-01
1.651000000000000000e+03 2.289660072326660156e+01 -2.068422508239746094e+01 -6.916839629411697388e-02 3.999283552169799805e+00 1.179034590721130371e+00 1.479892730712890625e-01
1.652000000000000000e+03 1.009593296051025391e+01 -3.439704895019531250e+01 -2.354895882308483124e-02 1.480738073587417603e-02 -2.622473752126097679e-03 1.245789323002099991e-02
1.653000000000000000e+03 1.220662498474121094e+01 -3.390518569946289062e+01 -2.644248493015766144e-02 -1.745405490510165691e-03 -8.456367067992687225e-03 2.300392836332321167e-02
1.654000000000000000e+03 2.484880638122558594e+01 -2.551854705810546875e+01 -3.725724294781684875e-02 4.202548027038574219e+00 1.249587178230285645e+00 1.381805390119552612e-01
1.655000000000000000e+03 2.297408485412597656e+01 -2.675813865661621094e+01 -2.901227772235870361e-02 4.047415256500244141e+00 1.205520868301391602e+00 1.326152533292770386e-01
1.656000000000000000e+03 2.701024627685546875e+01 4.043280410766601562e+01 5.141798257827758789e-01 -3.716369271278381348e-01 4.276287183165550232e-02 4.909352362155914307e-01
1.657000000000000000e+03 3.602537918090820312e+01 3.198472785949707031e+01 3.793671131134033203e+00 8.399787902832031250e+00 3.658037662506103516e+00 6.139799594879150391e+00
1.658000000000000000e+03 3.661624145507812500e+01 3.209515762329101562e+01 2.987319707870483398e+00 1.232955074310302734e+01 4.595061302185058594e+00 6.408382892608642578e+00
1.659000000000000000e+03 3.630301666259765625e+01 3.233834457397460938e+01 4.154947280883789062e+00 9.304636955261230469e+00 4.037875175476074219e+00 6.826059818267822266e+00
1.660000000000000000e+03 3.697980499267578125e+01 3.131556892395019531e+01 1.820417046546936035e+00 1.251139450073242188e+01 4.299543380737304688e+00 4.752430915832519531e+00
1.661000000000000000e+03 3.564995193481445312e+01 3.839119338989257812e+01 1.901081949472427368e-01 6.878849506378173828e+00 2.120687246322631836e+00 -2.294687271118164062e+00
1.662000000000000000e+03 3.115000152587890625e+01 3.166931915283203125e+01 1.467262744903564453e+00 7.138222455978393555e-01 6.543254852294921875e-01 7.646840810775756836e-01
1.663000000000000000e+03 3.170117950439453125e+01 3.173654174804687500e+01 1.712810754776000977e+00 7.788862586021423340e-01 7.475091218948364258e-01 9.764694571495056152e-01
1.664000000000000000e+03 3.063768959045410156e+01 3.105019378662109375e+01 1.467208981513977051e+00 8.595225214958190918e-01 6.980194449424743652e-01 8.105352520942687988e-01
1.665000000000000000e+03 3.709421396255493164e+00 4.507793426513671875e+00 -5.850077723152935505e-04 3.037142960238270462e-05 -1.663909060880541801e-04 2.908539318013936281e-04
1.666000000000000000e+03 4.473930358886718750e+00 4.377405643463134766e+00 4.853866121266037226e-04 1.283037126995623112e-04 1.841071061789989471e-04 -1.055848260875791311e-04
1.667000000000000000e+03 6.667685031890869141e+00 4.299737453460693359e+00 -3.562434867490082979e-04 -2.253545972052961588e-04 -1.744794135447591543e-04 2.594403304101433605e-05
1.668000000000000000e+03 5.149107933044433594e+00 6.011801719665527344e+00 -4.643774882424622774e-04 -2.162200980819761753e-04 -2.041792758973315358e-04 -5.091424827696755528e-05
1.669000000000000000e+03 2.633423233032226562e+01 2.950956916809082031e+01 5.634924173355102539e-01 4.340247213840484619e-01 2.992551624774932861e-01 9.508085250854492188e-02
1.670000000000000000e+03 2.734612083435058594e+01 3.105743026733398438e+01 5.580496788024902344e-01 3.518855571746826172e-01 2.729805707931518555e-01 -4.319877922534942627e-02
1.671000000000000000e+03 5.179718017578125000e+00 5.116514205932617188e+00 4.977182834409177303e-04 1.995866477955132723e-04 2.091914939228445292e-04 -4.226792589179240167e-05
1.672000000000000000e+03 9.034614562988281250e+00 5.602962493896484375e+00 4.318876890465617180e-04 2.304782392457127571e-04 1.987097784876823425e-04 1.232103531947359443e-04
1.673000000000000000e+03 7.437013149261474609e+00 4.271916389465332031e+00 3.083401825278997421e-04 2.943812869489192963e-04 1.808164524845778942e-04 -4.342820830061100423e-05
1.674000000000000000e+03 8.278293609619140625e+00 4.926658153533935547e+00 3.293000918347388506e-04 2.989014028571546078e-04 1.884604425868019462e-04 1.603668060852214694e-04
1.675000000000000000e+03 8.849409103393554688e+00 -4.020291328430175781e+00 -4.969599540345370770e-04 -3.939203452318906784e-04 -2.672640839591622353e-04 -9.001330909086391330e-05
1.676000000000000000e+03 1.018693923950195312e+01 -4.864988803863525391e+00 9.028097265399992466e-04 2.573314413893967867e-04 3.480423474684357643e-04 3.895953996106982231e-04
1.677000000000000000e+03 2.924131584167480469e+01 3.210789871215820312e+01 5.916562676429748535e-01 3.548713922500610352e-01 2.839582860469818115e-01 4.907783120870590210e-02
1.678000000000000000e+03 8.164427757263183594e+00 -4.032761096954345703e+00 6.471141823567450047e-04 3.730097378138452768e-04 3.060371964238584042e-04 3.752527118194848299e-04
1.679000000000000000e+03 1.161495208740234375e+01 -9.005938529968261719e+00 -1.549231703393161297e-03 3.246143169235438108e-04 -3.673851897474378347e-04 5.379780195653438568e-04
1.680000000000000000e+03 6.883563041687011719e+00 -5.017980575561523438e+00 -1.425414928235113621e-03 9.135954314842820168e-05 -4.002166388090699911e-04 -3.889697545673698187e-04
1.681000000000000000e+03 4.635607242584228516e+00 -4.015876770019531250e+00 -1.192569267004728317e-03 3.860692959278821945e-04 -2.419499942334368825e-04 2.974391682073473930e-04
1.682000000000000000e+03 7.467071056365966797e+00 -4.103516101837158203e+00 -9.655936155468225479e-04 -1.785519125405699015e-04 -3.432436787988990545e-04 -4.719767312053591013e-04
1.683000000000000000e+03 8.269671440124511719e+00 -6.620665550231933594e+00 1.350805978290736675e-03 4.214868822600692511e-04 5.316878668963909149e-04 6.134583964012563229e-04
1.684000000000000000e+03 3.121156120300292969e+01 3.114358901977539062e+01 1.685243844985961914e+00 9.735607504844665527e-01 7.976413965225219727e-01 1.024945855140686035e+00
1.685000000000000000e+03 1.251041126251220703e+01 6.667559623718261719e+00 -8.760542841628193855e-04 -9.199306077789515257e-05 -2.904142020270228386e-04 -1.129064912674948573e-04
1.686000000000000000e+03 6.721765995025634766e+00 -4.167500972747802734e+00 1.241371151991188526e-03 -8.846108539728447795e-05 3.458730352576822042e-04 2.056633093161508441e-04
1.687000000000000000e+03 7.159194469451904297e+00 -5.883005619049072266e+00 1.648879027925431728e-03 -7.107496639946475625e-05 4.733412060886621475e-04 3.247198765166103840e-04
1.688000000000000000e+03 5.631458282470703125e+00 -5.552208900451660156e+00 -3.707104770001024008e-05 -4.805701028089970350e-04 -1.552923495182767510e-04 -5.988734774291515350e-04
1.689000000000000000e+03 2.802945518493652344e+01 3.124527931213378906e+01 6.452503204345703125e-01 3.966455161571502686e-01 3.125687539577484131e-01 2.636010758578777313e-02
1.690000000000000000e+03 2.933211135864257812e+01 3.147646331787109375e+01 8.870346546173095703e-01 4.936717748641967773e-01 4.142119288444519043e-01 2.332839220762252808e-01
1.691000000000000000e+03 1.258619689941406250e+01 -5.405596256256103516e+00 -1.205009641125798225e-03 -2.238784363726153970e-04 -4.286664479877799749e-04 3.223409003112465143e-04
1.692000000000000000e+03 1.245492267608642578e+01 4.529046535491943359e+00 -9.365930454805493355e-04 -6.855416722828522325e-05 -3.015441761817783117e-04 -4.075045217177830637e-05
1.693000000000000000e+03 1.026990985870361328e+01 7.871096134185791016e+00 7.705037714913487434e-04 1.650706835789605975e-04 2.806723350659012794e-04 2.749965933617204428e-04
1.694000000000000000e+03 3.834349441528320312e+01 3.069287872314453125e+01 9.788282513618469238e-01 1.411073112487792969e+01 4.526867866516113281e+00 1.882067799568176270e+00
1.695000000000000000e+03 4.511100769042968750e+01 3.286362838745117188e+01 2.927862405776977539e+00 1.040518379211425781e+01 3.999913930892944336e+00 -9.436270594596862793e-02
1.696000000000000000e+03 3.956665802001953125e+01 3.134562492370605469e+01 2.410815477371215820e+00 1.420487594604492188e+01 4.984707355499267578e+00 -7.166510075330734253e-02
1.697000000000000000e+03 3.628077697753906250e+01 3.735771179199218750e+01 -6.116575002670288086e-02 9.015311241149902344e+00 2.686243772506713867e+00 -3.312226533889770508e+00
1.698000000000000000e+03 1.145582103729248047e+01 4.767940521240234375e+00 8.628086652606725693e-04 1.009652842185460031e-04 2.891321782954037189e-04 2.217654255218803883e-04
1.699000000000000000e+03 2.598674774169921875e+01 5.586298704147338867e-01 -5.966690927743911743e-02 3.978466987609863281e+00 1.175640106201171875e+00 4.756788909435272217e-01
1.700000000000000000e+03 2.723272323608398438e+00 6.219354629516601562e+00 7.482747314497828484e-04 1.912323023134376854e-05 2.302193897776305676e-04 -7.199050287454156205e-06
1.701000000000000000e+03 2.596087646484375000e+01 -1.896407127380371094e+01 -5.452716350555419922e-02 4.310674667358398438e+00 1.276844263076782227e+00 1.574386209249496460e-01
1.702000000000000000e+03 2.597295951843261719e+01 -1.753643608093261719e+01 -4.991133883595466614e-02 4.307341098785400391e+00 1.277228951454162598e+00 1.580549776554107666e-01
1.703000000000000000e+03 2.577543640136718750e+01 -5.003747940063476562e+00 -7.207734882831573486e-02 4.139739036560058594e+00 1.220298409461975098e+00 3.559514880180358887e-01
1.704000000000000000e+03 1.061462974548339844e+01 -1.537940025329589844e+01 1.669036108069121838e-03 1.110044657252728939e-03 8.337242179550230503e-04 -5.243653431534767151e-04
1.705000000000000000e+03 1.119991779327392578e+01 1.035185337066650391e+01 -8.243371266871690750e-04 -3.185832756571471691e-04 -3.428761265240609646e-04 -8.029436867218464613e-05
1.706000000000000000e+03 9.756368637084960938e+00 5.670291900634765625e+00 -3.615838068071752787e-04 -3.449110081419348717e-04 -2.119484415743499994e-04 -2.977432159241288900e-04
1.707000000000000000e+03 1.051166534423828125e+01 1.759336280822753906e+01 1.900589908473193645e-03 1.735271798679605126e-04 6.222351221367716789e-04 1.210914851981215179e-04
1.708000000000000000e+03 1.062758445739746094e+01 2.466062545776367188e+01 -2.039598999544978142e-03 -3.730872122105211020e-04 -7.238058606162667274e-04 4.482022995944134891e-05
1.709000000000000000e+03 1.108763313293457031e+01 -1.147028732299804688e+01 -1.537877018563449383e-03 -4.394795105326920748e-04 -5.932069616392254829e-04 1.181140323751606047e-04
1.710000000000000000e+03 1.090707015991210938e+01 -1.280157756805419922e+01 1.674941042438149452e-03 6.038120482116937637e-04 6.836259271949529648e-04 -1.631355989957228303e-04
1.711000000000000000e+03 2.454216003417968750e+01 -2.352604389190673828e+00 -4.812775552272796631e-02 3.905009984970092773e+00 1.157064676284790039e+00 3.579874932765960693e-01
1.712000000000000000e+03 2.593517494201660156e+01 -8.380883336067199707e-01 -7.026451826095581055e-02 4.033364772796630859e+00 1.188930034637451172e+00 4.382932484149932861e-01
1.713000000000000000e+03 6.833970546722412109e+00 -3.085993194580078125e+01 -8.168872445821762085e-03 -3.789217909798026085e-03 -3.587427083402872086e-03 -2.619433216750621796e-03
1.714000000000000000e+03 7.369077301025390625e+01 2.703634452819824219e+01 7.386342436075210571e-02 6.496500968933105469e+00 1.971109390258789062e+00 -5.554892420768737793e-01
1.715000000000000000e+03 1.515076160430908203e+01 4.030937957763671875e+01 4.544818773865699768e-03 -1.888605393469333649e-02 -4.302370827645063400e-03 -1.075697876513004303e-02
1.716000000000000000e+03 2.579851150512695312e+01 -1.189362144470214844e+01 -7.766709197312593460e-03 4.244298458099365234e+00 1.270959496498107910e+00 2.408915311098098755e-01
1.717000000000000000e+03 7.525946807861328125e+01 -3.135755538940429688e+01 -3.468899521976709366e-03 8.860215187072753906e+00 2.657023906707763672e+00 -2.638213336467742920e-02
1.718000000000000000e+03 7.499731445312500000e+01 -2.732892990112304688e+01 -1.251644548028707504e-02 8.807231903076171875e+00 2.638414621353149414e+00 -3.951266407966613770e-02
1.719000000000000000e+03 7.361229705810546875e+01 -2.940807914733886719e+01 -1.744234934449195862e-02 8.707444190979003906e+00 2.607000589370727539e+00 -4.100137948989868164e-02
1.720000000000000000e+03 2.432534980773925781e+01 -9.283666610717773438e+00 -6.161670666188001633e-03 4.067816734313964844e+00 1.218496441841125488e+00 2.810382843017578125e-01
1.721000000000000000e+03 2.572080421447753906e+01 -7.749333858489990234e+00 -4.925069957971572876e-02 4.188994407653808594e+00 1.241923093795776367e+00 3.201726973056793213e-01
1.722000000000000000e+03 7.225196075439453125e+01 2.700798034667968750e+01 1.068542748689651489e-01 6.684213161468505859e+00 2.037320137023925781e+00 -6.409906148910522461e-01
1.723000000000000000e+03 7.381407928466796875e+01 2.129943466186523438e+01 2.459411974996328354e-03 6.875316143035888672e+00 2.063332557678222656e+00 -6.035276651382446289e-01
1.724000000000000000e+03 7.531520843505859375e+01 1.840587997436523438e+01 -7.058059331029653549e-03 6.970975399017333984e+00 2.089175224304199219e+00 -4.903070926666259766e-01
1.725000000000000000e+03 2.198435211181640625e+01 3.994493865966796875e+01 3.021827712655067444e-02 -9.442557394504547119e-02 -1.926219090819358826e-02 8.500769734382629395e-02
1.726000000000000000e+03 7.386296844482421875e+01 -2.285914993286132812e+01 -2.021221816539764404e-02 8.667942047119140625e+00 2.594318866729736328e+00 -7.437771558761596680e-02
1.727000000000000000e+03 7.548807525634765625e+01 1.146296119689941406e+01 -2.967992611229419708e-02 7.518035411834716797e+00 2.246506690979003906e+00 -4.188152253627777100e-01
1.728000000000000000e+03 7.403188323974609375e+01 1.694633865356445312e+01 -2.274931594729423523e-02 7.169920444488525391e+00 2.144151210784912109e+00 -5.827674865722656250e-01
1.729000000000000000e+03 7.417790985107421875e+01 1.419718742370605469e+01 -3.543602675199508667e-02 7.356519699096679688e+00 2.196325063705444336e+00 -5.461954474449157715e-01
1.730000000000000000e+03 7.415644836425781250e+01 7.465135097503662109e+00 -5.378429219126701355e-02 7.787633895874023438e+00 2.320154905319213867e+00 -4.490025639533996582e-01
1.731000000000000000e+03 7.425536346435546875e+01 -1.768042373657226562e+01 -2.537558786571025848e-02 8.639715194702148438e+00 2.584301948547363281e+00 -1.067163944244384766e-01
1.732000000000000000e+03 7.416294860839843750e+01 4.746302604675292969e+00 -5.550735071301460266e-02 7.937259674072265625e+00 2.364525794982910156e+00 -4.026358127593994141e-01
1.733000000000000000e+03 7.519212341308593750e+01 2.551264572143554688e+01 3.624730929732322693e-02 6.411099433898925781e+00 1.934203982353210449e+00 -4.745641946792602539e-01
1.734000000000000000e+03 7.422478485107421875e+01 -1.508654594421386719e+01 -2.780178375542163849e-02 8.596106529235839844e+00 2.570491313934326172e+00 -1.270846724510192871e-01
1.735000000000000000e+03 7.405366516113281250e+01 -1.099532794952392578e+01 -3.520489111542701721e-02 8.500622749328613281e+00 2.539625406265258789e+00 -1.728199869394302368e-01
1.736000000000000000e+03 7.519287109375000000e+01 -6.559662342071533203e+00 -2.896440029144287109e-02 8.465299606323242188e+00 2.530900478363037109e+00 -1.903723478317260742e-01
1.737000000000000000e+03 7.361700439453125000e+01 -8.037959098815917969e+00 -4.719006270170211792e-02 8.394313812255859375e+00 2.504137039184570312e+00 -2.198139131069183350e-01
1.738000000000000000e+03 7.414096832275390625e+01 -7.255259156227111816e-01 -5.214728787541389465e-02 8.189257621765136719e+00 2.441133260726928711e+00 -3.104031383991241455e-01
1.739000000000000000e+03 7.416798400878906250e+01 2.008702993392944336e+00 -5.469892174005508423e-02 8.072053909301757812e+00 2.405206441879272461e+00 -3.552516996860504150e-01
1.740000000000000000e+03 7.417190551757812500e+01 1.015017318725585938e+01 -4.971265047788619995e-02 7.625883579254150391e+00 2.272851228713989258e+00 -4.910116195678710938e-01
1.741000000000000000e+03 7.398096466064453125e+01 -3.498475074768066406e+00 -5.019189417362213135e-02 8.284563064575195312e+00 2.470311403274536133e+00 -2.718724906444549561e-01
1.742000000000000000e+03 7.414131164550781250e+01 -1.239171028137207031e+01 -3.296693786978721619e-02 8.537656784057617188e+00 2.551406860351562500e+00 -1.552947014570236206e-01
1.743000000000000000e+03 7.422491455078125000e+01 -1.896977233886718750e+01 -2.539700455963611603e-02 8.654208183288574219e+00 2.588643312454223633e+00 -9.703513234853744507e-02
1.744000000000000000e+03 7.377264404296875000e+01 -2.561416053771972656e+01 -1.982996985316276550e-02 8.693432807922363281e+00 2.602080821990966797e+00 -6.096791848540306091e-02
1.745000000000000000e+03 7.360608673095703125e+01 2.858627891540527344e+01 9.842264652252197266e-02 6.418816566467285156e+00 1.955171823501586914e+00 -5.312719941139221191e-01
1.746000000000000000e+03 7.415785217285156250e+01 6.109310626983642578e+00 -5.395002290606498718e-02 7.863927364349365234e+00 2.342993259429931641e+00 -4.263511598110198975e-01
1.747000000000000000e+03 7.402791595458984375e+01 3.180425453186035156e+01 1.156491860747337341e-01 6.189982891082763672e+00 1.891689658164978027e+00 -4.140777885913848877e-01
1.748000000000000000e+03 7.043151855468750000e+01 3.518140411376953125e+01 3.008652627468109131e-01 6.566471099853515625e+00 2.060200929641723633e+00 -3.925755918025970459e-01
1.749000000000000000e+03 7.400271606445312500e+01 -2.155732345581054688e+01 -2.167709544301033020e-02 8.669393539428710938e+00 2.594315052032470703e+00 -8.061547577381134033e-02
1.750000000000000000e+03 7.419641113281250000e+01 1.283797359466552734e+01 -4.235592484474182129e-02 7.449972629547119141e+00 2.222285032272338867e+00 -5.274382829666137695e-01
1.751000000000000000e+03 7.418856048583984375e+01 1.148736381530761719e+01 -4.452423378825187683e-02 7.539547443389892578e+00 2.248507022857666016e+00 -5.098686218261718750e-01
1.752000000000000000e+03 7.380027770996093750e+01 1.982670211791992188e+01 -1.767849316820502281e-03 6.972166061401367188e+00 2.091119527816772461e+00 -6.088584065437316895e-01
1.753000000000000000e+03 7.390723419189453125e+01 1.836566925048828125e+01 -1.367592439055442810e-02 7.075035095214843750e+00 2.118407726287841797e+00 -6.010795235633850098e-01
1.754000000000000000e+03 2.437455940246582031e+01 -1.487892436981201172e+01 7.834766991436481476e-03 4.143678188323974609e+00 1.245453834533691406e+00 1.725779622793197632e-01
1.755000000000000000e+03 7.367150878906250000e+01 3.018542861938476562e+01 1.122472286224365234e-01 6.314169406890869141e+00 1.927924990653991699e+00 -4.779331684112548828e-01
1.756000000000000000e+03 5.858922958374023438e+00 -1.561690616607666016e+01 -3.433443198446184397e-04 2.643882995471358299e-03 6.901615997776389122e-04 7.107758428901433945e-04
1.757000000000000000e+03 1.171561145782470703e+01 -2.128632736206054688e+01 -8.807293488644063473e-04 -5.545839085243642330e-04 -4.305939655750989914e-04 -2.928583649918437004e-03
1.758000000000000000e+03 1.110416316986083984e+01 3.042985534667968750e+01 -2.386952750384807587e-03 1.096157822757959366e-03 -3.872384550049901009e-04 -1.945522963069379330e-04
1.759000000000000000e+03 2.608334350585937500e+01 1.055134677886962891e+01 -1.040339916944503784e-01 3.321470260620117188e+00 9.652308821678161621e-01 8.557405471801757812e-01
1.760000000000000000e+03 5.393604278564453125e+00 -2.576801109313964844e+01 -1.676299376413226128e-03 1.822266960516571999e-03 4.379025631351396441e-05 -1.140116830356419086e-03
1.761000000000000000e+03 4.213293075561523438e+00 2.705027770996093750e+01 2.003322122618556023e-03 9.291272726841270924e-05 6.288704462349414825e-04 -1.260615536011755466e-04
1.762000000000000000e+03 5.689070224761962891e+00 2.788821029663085938e+01 2.018331317231059074e-03 4.943626699969172478e-04 7.538082427345216274e-04 -6.040675798431038857e-04
1.763000000000000000e+03 2.583623123168945312e+01 2.050395393371582031e+01 1.215934455394744873e-01 1.940615892410278320e+00 6.186627745628356934e-01 1.026443362236022949e+00
1.764000000000000000e+03 2.590557670593261719e+01 1.764586830139160156e+01 -1.713147759437561035e-02 2.415455102920532227e+00 7.194970846176147461e-01 1.042120337486267090e+00
1.765000000000000000e+03 2.587148857116699219e+01 1.906795501708984375e+01 3.831710293889045715e-02 2.194130897521972656e+00 6.697344183921813965e-01 1.047259569168090820e+00
1.766000000000000000e+03 2.603133773803710938e+01 1.965494513511657715e+00 -5.347366258502006531e-02 3.922657012939453125e+00 1.160754919052124023e+00 5.191729068756103516e-01
1.767000000000000000e+03 2.605695533752441406e+01 1.197945308685302734e+01 -1.079608723521232605e-01 3.172403335571289062e+00 9.193327426910400391e-01 9.048248529434204102e-01
1.768000000000000000e+03 2.484248733520507812e+01 8.981162071228027344e+00 -4.966128244996070862e-02 3.189671993255615234e+00 9.420031905174255371e-01 6.792652010917663574e-01
1.769000000000000000e+03 2.610636520385742188e+01 7.679698944091796875e+00 -7.524158060550689697e-02 3.573377370834350586e+00 1.049440741539001465e+00 7.495634555816650391e-01
1.770000000000000000e+03 1.447905349731445312e+01 -2.896171569824218750e+01 7.183053530752658844e-03 2.256350358948111534e-03 2.831821097061038017e-03 -8.798521012067794800e-04
1.771000000000000000e+03 3.049622917175292969e+01 1.813012123107910156e+01 -1.443578898906707764e-01 4.204279899597167969e+00 1.217976570129394531e+00 1.562002301216125488e+00
1.772000000000000000e+03 2.476850128173828125e+01 1.467125606536865234e+01 -5.660334601998329163e-02 2.443030834197998047e+00 7.159281969070434570e-01 8.232809305191040039e-01
1.773000000000000000e+03 2.446508026123046875e+01 2.314163208007812500e+01 1.808818429708480835e-01 9.353802204132080078e-01 3.348786234855651855e-01 6.576058268547058105e-01
1.774000000000000000e+03 5.187727928161621094e+00 2.326624107360839844e+01 1.133149606175720692e-03 -3.515288699418306351e-04 2.344862296013161540e-04 5.466029979288578033e-04
1.775000000000000000e+03 1.048262500762939453e+01 2.316737747192382812e+01 1.955955987796187401e-03 3.869108040817081928e-04 7.028600084595382214e-04 -1.421618362655863166e-04
1.776000000000000000e+03 6.127502441406250000e+00 -1.087226963043212891e+01 1.660983311012387276e-03 6.117030861787497997e-04 6.818059482611715794e-04 9.533996926620602608e-04
1.777000000000000000e+03 5.065714836120605469e+00 -1.093265056610107422e+01 -1.871916931122541428e-03 -3.271476307418197393e-04 -6.597193423658609390e-04 -4.899075720459222794e-04
1.778000000000000000e+03 2.583331298828125000e+01 3.033513641357421875e+01 4.254575669765472412e-01 2.528634965419769287e-01 2.034963220357894897e-01 -9.846148639917373657e-02
1.779000000000000000e+03 2.506824302673339844e+01 2.732492446899414062e+01 4.239404797554016113e-01 4.753810465335845947e-01 2.697964608669281006e-01 2.818354666233062744e-01
1.780000000000000000e+03 2.410944747924804688e+01 2.723000335693359375e+01 2.901204526424407959e-01 2.028467655181884766e-01 1.478901654481887817e-01 1.698279082775115967e-01
1.781000000000000000e+03 2.597118568420410156e+01 2.856486320495605469e+01 5.609171390533447266e-01 5.006886720657348633e-01 3.184817433357238770e-01 1.987396478652954102e-01
1.782000000000000000e+03 2.519153404235839844e+01 2.602661895751953125e+01 3.971113562583923340e-01 7.178745865821838379e-01 3.344957828521728516e-01 4.802399277687072754e-01
1.783000000000000000e+03 2.602190971374511719e+01 1.340139293670654297e+01 -1.023114621639251709e-01 3.003428936004638672e+00 8.703352212905883789e-01 9.502308368682861328e-01
1.784000000000000000e+03 2.598292350769042969e+01 1.481826210021972656e+01 -8.658565580844879150e-02 2.822083473205566406e+00 8.206493258476257324e-01 9.904330968856811523e-01
1.785000000000000000e+03 5.552981853485107422e+00 -2.226664924621582031e+01 -4.241091664880514145e-03 8.954408112913370132e-04 -1.003695302642881870e-03 -2.872018667403608561e-04
1.786000000000000000e+03 9.510053634643554688e+00 2.634217453002929688e+01 -1.747757778503000736e-03 -7.517667254433035851e-04 -7.498573395423591137e-04 3.235084586776793003e-04
1.787000000000000000e+03 5.047927379608154297e+00 2.443887138366699219e+01 -1.098878798075020313e-03 2.979125838464824483e-06 -3.287698782514780760e-04 -1.692149089649319649e-04
1.788000000000000000e+03 6.215565681457519531e+00 -1.675750160217285156e+01 -8.064222492976114154e-05 -3.044187324121594429e-03 -9.374488145112991333e-04 -1.258749747648835182e-03
1.789000000000000000e+03 4.977352142333984375e+00 -1.605542945861816406e+01 -2.244214061647653580e-03 -9.755472419783473015e-04 -9.659283678047358990e-04 -8.850888116285204887e-04
1.790000000000000000e+03 5.098222732543945312e+00 -1.496422481536865234e+01 3.088467987254261971e-03 -8.967263856902718544e-04 6.575224688276648521e-04 7.005917723290622234e-04
1.791000000000000000e+03 4.446642398834228516e+00 -1.901276206970214844e+01 3.753524273633956909e-03 7.625246653333306313e-04 1.354814739897847176e-03 1.396085834130644798e-03
1.792000000000000000e+03 6.700233936309814453e+00 1.723589706420898438e+01 7.618896779604256153e-04 5.594997783191502094e-04 3.964168427046388388e-04 -2.747499383985996246e-04
1.793000000000000000e+03 4.229868412017822266e+00 2.065330696105957031e+01 -1.358392764814198017e-03 3.352593557792715728e-05 -3.974600404035300016e-04 -1.439316692994907498e-04
1.794000000000000000e+03 7.426567554473876953e+00 -1.731255340576171875e+01 -6.040240987204015255e-04 -2.753194654360413551e-03 -1.007165643386542797e-03 -1.169801456853747368e-03
1.795000000000000000e+03 4.703619480133056641e+00 -2.679944229125976562e+01 -1.464872155338525772e-03 -4.543773829936981201e-03 -1.802593702450394630e-03 -1.271297223865985870e-03
1.796000000000000000e+03 4.303850650787353516e+00 1.473747730255126953e+01 -1.322072814218699932e-03 -5.706624051526887342e-06 -3.983338247053325176e-04 1.651925849728286266e-04
1.797000000000000000e+03 4.061198711395263672e+00 2.578068161010742188e+01 -1.710280193947255611e-03 7.634612848050892353e-05 -4.901802167296409607e-04 -1.008214821922592819e-04
1.798000000000000000e+03 3.859479904174804688e+00 -2.627554130554199219e+01 -5.870484281331300735e-03 2.070266986265778542e-03 -1.140065258368849754e-03 3.610338899306952953e-04
1.799000000000000000e+03 6.524089813232421875e+00 -2.657583045959472656e+01 9.950176900019869208e-05 8.313084836117923260e-04 2.792430750560015440e-04 1.399951870553195477e-03
1.800000000000000000e+03 4.015326499938964844e+00 -1.225596332550048828e+01 -1.913412706926465034e-03 -4.125306149944663048e-04 -6.977830198593437672e-04 -4.711718356702476740e-04
1.801000000000000000e+03 7.450669288635253906e+00 -1.165851211547851562e+01 -1.710723590804263949e-04 9.565773652866482735e-04 2.356515033170580864e-04 3.487769863568246365e-04
1.802000000000000000e+03 5.144481658935546875e+00 3.113801956176757812e+01 -1.778223086148500443e-03 2.128303458448499441e-05 -5.270820111036300659e-04 -1.369509700452908874e-04
1.803000000000000000e+03 2.639451599121093750e+01 2.496472358703613281e+01 4.847320318222045898e-01 1.333880543708801270e+00 5.455837845802307129e-01 8.411331176757812500e-01
1.804000000000000000e+03 5.465026855468750000e+00 2.202098846435546875e+01 -1.354272011667490005e-03 4.229218175169080496e-04 -2.794050669763237238e-04 -2.197426802013069391e-04
1.805000000000000000e+03 5.874983787536621094e+00 1.833972167968750000e+01 4.634964570868760347e-04 -4.166177823208272457e-04 1.406359842803794891e-05 -1.932281520566903055e-06
1.806000000000000000e+03 5.456780433654785156e+00 2.075215721130371094e+01 1.457216334529221058e-03 2.353412128286436200e-04 5.077672540210187435e-04 8.339923806488513947e-05
1.807000000000000000e+03 2.538301849365234375e+01 2.470775604248046875e+01 3.592217266559600830e-01 1.026458144187927246e+00 4.157039523124694824e-01 6.786220073699951172e-01
1.808000000000000000e+03 5.899716377258300781e+00 -2.091950607299804688e+01 2.819752087816596031e-03 -1.158551312983036041e-03 4.983602557331323624e-04 4.077897756360471249e-04
1.809000000000000000e+03 5.656714916229248047e+00 -1.854306030273437500e+01 -9.818723192438483238e-04 -2.622916130349040031e-03 -1.081436523236334324e-03 -1.632414176128804684e-03
1.810000000000000000e+03 5.546329498291015625e+00 3.451852035522460938e+01 -1.019293209537863731e-03 5.883745034225285053e-04 -1.292756060138344765e-04 -1.181661151349544525e-03
1.811000000000000000e+03 5.244651317596435547e+00 1.316418457031250000e+01 -1.147098373621702194e-03 -1.170271862065419555e-04 -3.792376664932817221e-04 3.929150407202541828e-04
1.812000000000000000e+03 5.396128177642822266e+00 1.453666687011718750e+01 1.223748899064958096e-03 1.986730203498154879e-04 4.267265612725168467e-04 -5.458311643451452255e-04
1.813000000000000000e+03 4.076687335968017578e+00 -2.829333305358886719e+01 -6.224615033715963364e-03 -2.427745610475540161e-03 -2.595708239823579788e-03 -3.362559480592608452e-03
1.814000000000000000e+03 6.625782966613769531e+00 -3.313428115844726562e+01 -1.412514504045248032e-02 1.790786162018775940e-03 -3.700307570397853851e-03 -1.048591919243335724e-02
1.815000000000000000e+03 9.731992721557617188e+00 -3.274657440185546875e+01 -1.922582089900970459e-02 8.651894517242908478e-03 -3.172178054228425026e-03 5.569254979491233826e-03
1.816000000000000000e+03 1.006365871429443359e+01 1.031379413604736328e+01 9.685326949693262577e-04 2.083013096125796437e-04 3.530501853674650192e-04 3.005460166605189443e-05
1.817000000000000000e+03 3.992412805557250977e+00 9.143976211547851562e+00 -6.548103410750627518e-04 -1.663627481320872903e-04 -2.463519049342721701e-04 -2.225190983153879642e-04
1.818000000000000000e+03 5.286358833312988281e+00 1.174332332611083984e+01 9.458635468035936356e-04 1.811120309866964817e-04 3.380926791578531265e-04 -3.336079244036227465e-04
1.819000000000000000e+03 5.220504760742187500e+00 -1.226691150665283203e+01 1.967230811715126038e-03 6.077697034925222397e-04 7.725001778453588486e-04 5.480758845806121826e-04
1.820000000000000000e+03 4.906427860260009766e+00 -8.481299400329589844e+00 -1.656393404118716717e-03 -3.178526530973613262e-04 -5.922738346271216869e-04 -5.684408824890851974e-04
1.821000000000000000e+03 3.896501541137695312e+00 7.297903537750244141e+00 5.378223722800612450e-04 9.567211964167654514e-05 1.900483475765213370e-04 -3.548750828485935926e-04
1.822000000000000000e+03 7.321098804473876953e+00 -2.380978012084960938e+01 1.597090507857501507e-03 2.510147867724299431e-03 1.232171431183815002e-03 -5.642158066621050239e-05
1.823000000000000000e+03 1.089464759826660156e+01 -2.493782234191894531e+01 1.913127489387989044e-03 2.058959566056728363e-03 1.191626186482608318e-03 -6.408578483387827873e-04
1.824000000000000000e+03 1.079019069671630859e+01 -2.611403846740722656e+01 -3.312404965981841087e-03 -2.809770870953798294e-03 -1.836652751080691814e-03 8.867794531397521496e-04
1.825000000000000000e+03 1.087627410888671875e+01 1.351289844512939453e+01 6.784939323551952839e-04 -6.961938925087451935e-04 -5.309987955115502700e-06 9.728630539029836655e-04
1.826000000000000000e+03 4.651733875274658203e+00 -6.524050235748291016e+00 -1.434972626157104969e-03 -8.912177872844040394e-05 -4.572283360175788403e-04 -4.950393922626972198e-04
1.827000000000000000e+03 3.763432741165161133e+00 -7.325297832489013672e+00 -1.428272458724677563e-03 -1.949198776856064796e-04 -4.869576951023191214e-04 -1.198188401758670807e-04
1.828000000000000000e+03 4.027531623840332031e+00 -5.437591075897216797e+00 -1.152253942564129829e-03 3.016141999978572130e-04 -2.551919315010309219e-04 2.850257151294499636e-04
1.829000000000000000e+03 2.573865127563476562e+01 -6.378166675567626953e+00 -6.744305044412612915e-02 4.170170307159423828e+00 1.230818152427673340e+00 3.369806408882141113e-01
1.830000000000000000e+03 2.582476997375488281e+01 -3.620825767517089844e+00 -7.525360584259033203e-02 4.108817100524902344e+00 1.210069060325622559e+00 3.793369829654693604e-01
1.831000000000000000e+03 2.587787246704101562e+01 -1.329567527770996094e+01 -5.603021942079067230e-03 4.267646312713623047e+00 1.278612971305847168e+00 2.185500711202621460e-01
1.832000000000000000e+03 2.574895286560058594e+01 -1.050437927246093750e+01 -1.490511745214462280e-02 4.227723598480224609e+00 1.263845562934875488e+00 2.783267199993133545e-01
1.833000000000000000e+03 1.053152942657470703e+01 -2.965130996704101562e+01 1.146505586802959442e-03 1.973344944417476654e-03 9.359551477245986462e-04 1.604292192496359348e-03
1.834000000000000000e+03 2.610226440429687500e+01 6.241900444030761719e+00 -5.770530551671981812e-02 3.676755666732788086e+00 1.085715174674987793e+00 6.882238984107971191e-01
1.835000000000000000e+03 2.572638893127441406e+01 -9.123208045959472656e+00 -3.820482268929481506e-02 4.215163707733154297e+00 1.253087639808654785e+00 2.956959903240203857e-01
1.836000000000000000e+03 1.183422756195068359e+01 2.164885139465332031e+01 2.314541721716523170e-03 4.381328471936285496e-05 7.075064931996166706e-04 -1.327361242147162557e-04
1.837000000000000000e+03 1.052569770812988281e+01 2.024515724182128906e+01 2.169318730011582375e-03 -2.257820306112989783e-04 5.830609588883817196e-04 -4.218199319439008832e-05
1.838000000000000000e+03 2.439959716796875000e+01 -2.046901893615722656e+01 -5.853373557329177856e-02 4.149303436279296875e+00 1.227230906486511230e+00 1.578823179006576538e-01
1.839000000000000000e+03 2.320493698120117188e+01 -2.378070259094238281e+01 -4.703565686941146851e-02 4.036321163177490234e+00 1.196785688400268555e+00 1.269727051258087158e-01
1.840000000000000000e+03 1.115386295318603516e+01 1.156578636169433594e+01 7.056192262098193169e-04 4.936301265843212605e-04 3.597748000174760818e-04 1.074980536941438913e-04
1.841000000000000000e+03 9.941355705261230469e+00 2.895864105224609375e+01 -8.384782704524695873e-04 -8.057645172812044621e-04 -4.932728479616343975e-04 -3.658137575257569551e-04
1.842000000000000000e+03 1.057150650024414062e+01 1.888497161865234375e+01 -2.097688149660825729e-03 1.181039115181192756e-04 -5.938753020018339157e-04 -1.146806389442645013e-04
1.843000000000000000e+03 8.712779998779296875e+00 -3.243677902221679688e+01 -2.877428662031888962e-03 2.522369381040334702e-03 -1.065177348209545016e-04 1.143966102972626686e-03
1.844000000000000000e+03 1.181180381774902344e+01 -2.986695671081542969e+01 -7.222847081720829010e-03 -4.571508150547742844e-03 -3.538306569680571556e-03 3.858802607282996178e-03
1.845000000000000000e+03 2.588072013854980469e+01 -2.230314731597900391e+00 -7.259749621152877808e-02 4.071167945861816406e+00 1.199571132659912109e+00 4.086334705352783203e-01
1.846000000000000000e+03 2.608753967285156250e+01 4.808675289154052734e+00 -4.752001166343688965e-02 3.767697572708129883e+00 1.116053223609924316e+00 6.298642158508300781e-01
1.847000000000000000e+03 2.594752693176269531e+01 -1.470070838928222656e+01 -1.789156720042228699e-02 4.279983997344970703e+00 1.278627753257751465e+00 1.910289376974105835e-01
1.848000000000000000e+03 2.437840843200683594e+01 -2.975850677490234375e+01 6.329237669706344604e-02 4.178588390350341797e+00 1.272564172744750977e+00 1.432625353336334229e-01
1.849000000000000000e+03 1.112080287933349609e+01 2.891626930236816406e+01 2.720703370869159698e-03 -2.301417262060567737e-04 7.471684366464614868e-04 7.998566725291311741e-04
1.850000000000000000e+03 8.008078575134277344e+00 2.521748733520507812e+01 -1.499384758062660694e-03 -6.687515415251255035e-04 -6.504408665932714939e-04 7.277885451912879944e-04
1.851000000000000000e+03 1.345333385467529297e+01 3.833959960937500000e+01 -3.609604202210903168e-03 1.231240574270486832e-03 -7.135090418159961700e-04 4.713818198069930077e-04
1.852000000000000000e+03 7.212332916259765625e+01 4.086068344116210938e+01 1.931591629981994629e-01 6.204375267028808594e+00 1.919260263442993164e+00 -9.130019694566726685e-02
1.853000000000000000e+03 3.471101760864257812e+01 3.190314292907714844e+01 3.828443050384521484e+00 3.380572319030761719e+00 2.162704467773437500e+00 3.996651887893676758e+00
1.854000000000000000e+03 3.296696853637695312e+01 3.221194076538085938e+01 2.298423290252685547e+00 9.324378967285156250e-01 9.692583680152893066e-01 1.509614109992980957e+00
1.855000000000000000e+03 3.533863830566406250e+01 3.252577209472656250e+01 4.686836242675781250e+00 3.902105093002319336e+00 2.576682329177856445e+00 4.876842975616455078e+00
1.856000000000000000e+03 3.337552261352539062e+01 3.149364662170410156e+01 2.784694910049438477e+00 1.864265322685241699e+00 1.394688129425048828e+00 2.380315065383911133e+00
1.857000000000000000e+03 3.266025924682617188e+01 3.173280143737792969e+01 2.273113489151000977e+00 1.175532579421997070e+00 1.034593820571899414e+00 1.619057536125183105e+00
1.858000000000000000e+03 3.782275009155273438e+01 3.075334167480468750e+01 1.102229714393615723e+00 1.326749992370605469e+01 4.310918807983398438e+00 3.062457799911499023e+00
1.859000000000000000e+03 3.808452606201171875e+01 3.125710678100585938e+01 1.368365049362182617e+00 1.530065536499023438e+01 5.000706195831298828e+00 2.501545667648315430e+00
1.860000000000000000e+03 3.630477905273437500e+01 3.165575981140136719e+01 2.898696422576904297e+00 1.005814170837402344e+01 3.887051582336425781e+00 5.759429931640625000e+00
1.861000000000000000e+03 3.989704895019531250e+01 3.058510780334472656e+01 1.762334227561950684e+00 1.322457122802734375e+01 4.496071815490722656e+00 9.532760083675384521e-02
1.862000000000000000e+03 3.056818389892578125e+01 3.161294364929199219e+01 1.248068809509277344e+00 6.176670789718627930e-01 5.597207546234130859e-01 5.488476753234863281e-01
1.863000000000000000e+03 2.868892097473144531e+01 3.137780952453613281e+01 7.457324266433715820e-01 4.458398222923278809e-01 3.574716746807098389e-01 1.152291074395179749e-01
1.864000000000000000e+03 2.944481468200683594e+01 3.084941673278808594e+01 1.102789998054504395e+00 6.847220063209533691e-01 5.362536311149597168e-01 4.510862529277801514e-01
1.865000000000000000e+03 3.292544937133789062e+01 3.135244178771972656e+01 2.531868696212768555e+00 1.585949301719665527e+00 1.235345363616943359e+00 2.042952060699462891e+00
1.866000000000000000e+03 6.711741924285888672e+00 7.244401931762695312e+00 -8.757966570556163788e-04 -1.211704875458963215e-04 -2.990901411976665258e-04 2.329617855139076710e-04
1.867000000000000000e+03 8.393909454345703125e+00 5.613876342773437500e+00 -5.572695517912507057e-04 -1.075537074939347804e-04 -1.994469785131514072e-04 -1.638532994547858834e-04
1.868000000000000000e+03 9.758639335632324219e+00 4.870177745819091797e+00 4.916826146654784679e-04 2.702161145862191916e-04 2.285696245962753892e-04 3.208649868611246347e-04
1.869000000000000000e+03 7.583187580108642578e+00 5.111702919006347656e+00 -2.747611724771559238e-04 -3.212526789866387844e-04 -1.788041554391384125e-04 2.134898568328935653e-05
1.870000000000000000e+03 5.819333553314208984e+00 5.981278896331787109e+00 5.351918516680598259e-04 2.429238957120105624e-04 2.334347227588295937e-04 -1.213157302117906511e-04
1.871000000000000000e+03 3.731936931610107422e+00 5.264864444732666016e+00 5.665740463882684708e-04 -1.769634036463685334e-05 1.646633027121424675e-04 -4.466430982574820518e-04
1.872000000000000000e+03 6.520905017852783203e+00 5.091377258300781250e+00 4.786165081895887852e-04 8.241734030889347196e-05 1.683101581875234842e-04 -3.959684545407071710e-05
1.873000000000000000e+03 6.467020034790039062e+00 5.795480251312255859e+00 -4.761973978020250797e-04 -1.620411785552278161e-04 -1.914715685416013002e-04 -1.650924532441422343e-04
1.874000000000000000e+03 9.474277496337890625e+00 -4.849717617034912109e+00 -8.628285722807049751e-04 -5.611607048194855452e-05 -2.756833855528384447e-04 1.441734930267557502e-04
1.875000000000000000e+03 8.559770584106445312e+00 -5.291908740997314453e+00 -1.619264003238640726e-05 4.294582759030163288e-04 1.239796838490292430e-04 7.132507162168622017e-04
1.876000000000000000e+03 8.342115402221679688e+00 6.252474784851074219e+00 7.342229364439845085e-04 -4.525083204498514533e-05 2.066916349576786160e-04 1.937623164849355817e-04
1.877000000000000000e+03 2.662342643737792969e+01 3.077148246765136719e+01 4.971840381622314453e-01 3.116705417633056641e-01 2.426563650369644165e-01 -7.856278121471405029e-02
1.878000000000000000e+03 2.696435356140136719e+01 3.005775642395019531e+01 6.434038281440734863e-01 4.491045176982879639e-01 3.277525007724761963e-01 8.176172524690628052e-02
1.879000000000000000e+03 1.056475448608398438e+01 5.736560344696044922e+00 6.307685980573296547e-04 2.100548736052587628e-04 2.522470313124358654e-04 3.563053614925593138e-04
1.880000000000000000e+03 3.015327453613281250e+01 3.035157585144042969e+01 1.432488918304443359e+00 1.018017530441284180e+00 7.351519465446472168e-01 8.624179959297180176e-01
1.881000000000000000e+03 5.110042095184326172e+00 -5.105365276336669922e+00 -5.557975964620709419e-04 4.011391429230570793e-04 -4.639753387891687453e-05 7.029884145595133305e-04
1.882000000000000000e+03 6.438680648803710938e+00 -5.984366416931152344e+00 -1.147354836575686932e-03 -3.740235988516360521e-04 -4.564135451801121235e-04 -3.472260723356157541e-04
1.883000000000000000e+03 2.759571838378906250e+01 3.037489509582519531e+01 7.301813364028930664e-01 4.949436485767364502e-01 3.675374984741210938e-01 1.304048597812652588e-01
1.884000000000000000e+03 2.821811103820800781e+01 3.057708740234375000e+01 8.301455974578857422e-01 5.532883405685424805e-01 4.150301814079284668e-01 2.076998502016067505e-01
1.885000000000000000e+03 9.226237297058105469e+00 7.871841907501220703e+00 -8.035139762796461582e-04 -1.703486777842044830e-04 -2.921588020399212837e-04 -3.086179494857788086e-04
1.886000000000000000e+03 7.042118549346923828e+00 -8.749309539794921875e+00 -1.236204174347221851e-03 -5.547095206566154957e-04 -5.372741143219172955e-04 -2.033574419328942895e-04
1.887000000000000000e+03 8.249039649963378906e+00 -4.715137004852294922e+00 -5.135434330441057682e-04 -5.854451446793973446e-04 -3.296965733170509338e-04 -6.311112665571272373e-04
1.888000000000000000e+03 5.356783866882324219e+00 -5.983862876892089844e+00 -7.574632763862609863e-04 -3.894857654813677073e-04 -3.440847212914377451e-04 -5.493232747539877892e-04
1.889000000000000000e+03 4.163602447509765625e+01 3.079504585266113281e+01 2.331264257431030273e+00 1.197739124298095703e+01 4.292596817016601562e+00 -5.716170668601989746e-01
1.890000000000000000e+03 4.082401657104492188e+01 2.983826065063476562e+01 1.375615239143371582e+00 1.222763729095458984e+01 4.080975532531738281e+00 -1.531037390232086182e-01
1.891000000000000000e+03 1.145003223419189453e+01 6.753383159637451172e+00 7.912028231658041477e-04 1.087893615476787090e-04 2.699976612348109484e-04 1.776989229256287217e-04
1.892000000000000000e+03 3.923086929321289062e+01 3.035313796997070312e+01 1.210952758789062500e+00 1.354944324493408203e+01 4.428118705749511719e+00 7.420467734336853027e-01
1.893000000000000000e+03 1.252069473266601562e+01 5.539176940917968750e+00 8.785990648902952671e-04 5.415901250671595335e-05 2.798274217639118433e-04 8.420609083259478211e-05
1.894000000000000000e+03 1.033727359771728516e+01 1.637632751464843750e+01 -1.694817328825592995e-03 -3.826903121080249548e-04 -6.232522428035736084e-04 -3.282896359451115131e-04
1.895000000000000000e+03 8.527844429016113281e+00 1.271930599212646484e+01 -8.668180089443922043e-04 4.503701056819409132e-04 -1.249343767995014787e-04 -3.697965585161000490e-04
1.896000000000000000e+03 4.476512908935546875e+00 6.028195858001708984e+00 1.802058832254260778e-04 2.988808264490216970e-04 1.437260070815682411e-04 -3.777831443585455418e-04
1.897000000000000000e+03 2.769001960754394531e+01 -2.036224746704101562e+01 -6.437104195356369019e-02 4.475543022155761719e+00 1.323351621627807617e+00 1.600434929132461548e-01
1.898000000000000000e+03 4.768111705780029297e+00 -7.422448635101318359e+00 1.523041864857077599e-03 3.708351287059485912e-04 5.681631155312061310e-04 5.455657956190407276e-04
1.899000000000000000e+03 6.824774742126464844e+00 8.232598304748535156e+00 5.651366082020103931e-04 3.067819052375853062e-04 2.615755656734108925e-04 -3.467362548690289259e-04
1.900000000000000000e+03 2.735113906860351562e+01 2.115002393722534180e+00 -9.653312712907791138e-02 4.118725776672363281e+00 1.206657886505126953e+00 5.847301483154296875e-01
1.901000000000000000e+03 1.128580665588378906e+01 -1.013769245147705078e+01 1.501742051914334297e-03 2.840707602445036173e-04 5.357438349165022373e-04 -1.140492313425056636e-04
1.902000000000000000e+03 8.729958534240722656e+00 -8.833285331726074219e+00 -5.284031503833830357e-04 -1.301946700550615788e-03 -5.491049378179013729e-04 -1.582983531989157200e-04
1.903000000000000000e+03 9.401738166809082031e+00 1.886508369445800781e+01 1.831472618505358696e-03 -1.592020271345973015e-04 5.016811774112284184e-04 3.009941428899765015e-04
1.904000000000000000e+03 8.987249374389648438e+00 1.533607769012451172e+01 -1.392122823745012283e-03 -3.339943068567663431e-04 -5.178351420909166336e-04 -9.884653263725340366e-05
1.905000000000000000e+03 6.811523914337158203e+00 2.250041580200195312e+01 -1.725753536447882652e-04 -6.277528591454029083e-04 -2.400984521955251694e-04 6.293080514296889305e-04
1.906000000000000000e+03 9.030637741088867188e+00 2.327877044677734375e+01 -1.817805226892232895e-03 -4.318278224673122168e-04 -6.748898886144161224e-04 2.572362427599728107e-04
1.907000000000000000e+03 7.190460681915283203e+00 1.332069492340087891e+01 -5.803827662020921707e-04 -1.620593684492632747e-04 -2.227326476713642478e-04 -2.298893377883359790e-04
1.908000000000000000e+03 2.854277992248535156e+01 -6.020189285278320312e+00 -1.173061281442642212e-01 4.494653701782226562e+00 1.313204288482666016e+00 3.873422443866729736e-01
1.909000000000000000e+03 2.718251228332519531e+01 -3.477413892745971680e+00 -1.000530049204826355e-01 4.276889324188232422e+00 1.253050923347473145e+00 4.185180664062500000e-01
1.910000000000000000e+03 1.075104045867919922e+01 -1.410607624053955078e+01 -1.583994482643902302e-03 -9.428149205632507801e-04 -7.580428500659763813e-04 1.878826733445748687e-04
1.911000000000000000e+03 7.050057220458984375e+01 -2.775177001953125000e+01 -3.322683274745941162e-02 8.405023574829101562e+00 2.511538982391357422e+00 -7.872100174427032471e-02
1.912000000000000000e+03 6.831843566894531250e+01 -3.079678535461425781e+01 -4.716544598340988159e-02 8.200653076171875000e+00 2.446046113967895508e+00 -5.950795486569404602e-02
1.913000000000000000e+03 7.093165588378906250e+01 -3.155589485168457031e+01 -2.980731613934040070e-02 8.467519760131835938e+00 2.531313657760620117e+00 -3.882336989045143127e-02
1.914000000000000000e+03 7.224735260009765625e+01 -3.302662658691406250e+01 -1.224711630493402481e-02 8.571410179138183594e+00 2.567748785018920898e+00 -2.904671430587768555e-02
1.915000000000000000e+03 6.585182189941406250e+00 3.062112617492675781e+01 2.666515763849020004e-03 -2.004521064691289212e-07 7.998946239240467548e-04 -1.039129449054598808e-03
1.916000000000000000e+03 9.743881225585937500e+00 2.769758605957031250e+01 1.954071456566452980e-03 8.175256662070751190e-04 8.314791484735906124e-04 -1.446892838430358097e-05
1.917000000000000000e+03 7.213779449462890625e+01 -2.391571426391601562e+01 -2.924838848412036896e-02 8.526977539062500000e+00 2.549318790435791016e+00 -8.518653362989425659e-02
1.918000000000000000e+03 7.384062957763671875e+01 2.554927635192871094e+01 5.719906836748123169e-02 6.573172569274902344e+00 1.989111542701721191e+00 -5.749815702438354492e-01
1.919000000000000000e+03 7.110953521728515625e+01 1.791460227966308594e+01 -3.610722720623016357e-02 7.288181304931640625e+00 2.175622224807739258e+00 -7.652622461318969727e-01
1.920000000000000000e+03 7.283305358886718750e+01 1.545735359191894531e+01 -4.304231703281402588e-02 7.332758903503417969e+00 2.186914920806884766e+00 -6.482408642768859863e-01
1.921000000000000000e+03 7.144405364990234375e+01 1.027128696441650391e+01 -9.600976854562759399e-02 7.661350727081298828e+00 2.269602298736572266e+00 -6.431230306625366211e-01
1.922000000000000000e+03 7.280340576171875000e+01 8.875968933105468750e+00 -7.487802952527999878e-02 7.711881637573242188e+00 2.291100978851318359e+00 -5.484376549720764160e-01
1.923000000000000000e+03 7.291662597656250000e+01 -1.644058609008789062e+01 -3.669483587145805359e-02 8.510543823242187500e+00 2.542154788970947266e+00 -1.338187307119369507e-01
1.924000000000000000e+03 7.293864440917968750e+01 -1.768132209777832031e+01 -3.394835069775581360e-02 8.524744987487792969e+00 2.547238826751708984e+00 -1.243474856019020081e-01
1.925000000000000000e+03 7.252657318115234375e+01 -9.836542129516601562e+00 -5.447532609105110168e-02 8.368494987487792969e+00 2.494205951690673828e+00 -2.168727368116378784e-01
1.926000000000000000e+03 7.145533752441406250e+01 4.923091411590576172e+00 -1.091661080718040466e-01 7.890408039093017578e+00 2.334372520446777344e+00 -5.280608534812927246e-01
1.927000000000000000e+03 7.283323669433593750e+01 2.127650737762451172e+00 -7.845821976661682129e-02 8.026125907897949219e+00 2.384300231933593750e+00 -4.146410524845123291e-01
1.928000000000000000e+03 7.277731323242187500e+01 -5.670663118362426758e-01 -7.578406482934951782e-02 8.126196861267089844e+00 2.415123939514160156e+00 -3.641924560070037842e-01
1.929000000000000000e+03 7.255275726318359375e+01 -3.255380153656005859e+00 -7.459266483783721924e-02 8.204389572143554688e+00 2.438939094543457031e+00 -3.214782178401947021e-01
1.930000000000000000e+03 7.231311035156250000e+01 -4.624493598937988281e+00 -7.444100826978683472e-02 8.232361793518066406e+00 2.447376251220703125e+00 -3.033695518970489502e-01
1.931000000000000000e+03 7.281949615478515625e+01 7.761037945747375488e-01 -7.781807333230972290e-02 8.078811645507812500e+00 2.400298118591308594e+00 -3.886618614196777344e-01
1.932000000000000000e+03 7.357913970947265625e+01 -6.454679012298583984e+00 -5.176650360226631165e-02 8.351318359375000000e+00 2.489865541458129883e+00 -2.411032617092132568e-01
1.933000000000000000e+03 7.419216918945312500e+01 -1.375276184082031250e+01 -3.045042417943477631e-02 8.568634986877441406e+00 2.561455488204956055e+00 -1.412847936153411865e-01
1.934000000000000000e+03 7.001973724365234375e+01 6.327779769897460938e+00 -1.411140859127044678e-01 7.833832263946533203e+00 2.307815551757812500e+00 -6.123170256614685059e-01
1.935000000000000000e+03 7.413452911376953125e+01 -2.026572608947753906e+01 -2.501692995429039001e-02 8.663450241088867188e+00 2.591530084609985352e+00 -8.849001675844192505e-02
1.936000000000000000e+03 8.200077056884765625e+00 3.372791290283203125e+01 3.221655962988734245e-03 -4.944455577060580254e-04 8.181631565093994141e-04 -1.260896795429289341e-03
1.937000000000000000e+03 7.166908264160156250e+01 -2.694329833984375000e+01 -3.334825485944747925e-02 8.493540763854980469e+00 2.538057804107666016e+00 -6.575290858745574951e-02
1.938000000000000000e+03 7.267762756347656250e+01 -2.809983444213867188e+01 -1.876111142337322235e-02 8.607246398925781250e+00 2.576545715332031250e+00 -5.451784655451774597e-02
1.939000000000000000e+03 7.081630706787109375e+01 2.681325721740722656e+01 1.273125708103179932e-01 6.863981246948242188e+00 2.097388029098510742e+00 -7.166178822517395020e-01
1.940000000000000000e+03 7.138169860839843750e+01 1.656586647033691406e+01 -4.717969894409179688e-02 7.345688819885253906e+00 2.189552783966064453e+00 -7.400310039520263672e-01
1.941000000000000000e+03 1.128047084808349609e+01 9.115308761596679688e+00 8.300757035613059998e-04 2.289557305630296469e-04 3.177094331476837397e-04 1.414052239852026105e-04
1.942000000000000000e+03 2.596557807922363281e+01 2.738043975830078125e+01 5.521003007888793945e-01 7.077875733375549316e-01 3.779663741588592529e-01 4.090108573436737061e-01
1.943000000000000000e+03 8.795306205749511719e+00 -1.841277694702148438e+01 1.973770326003432274e-03 -1.005832920782268047e-03 2.903812273871153593e-04 -1.433140831068158150e-03
1.944000000000000000e+03 1.045191383361816406e+01 -1.660985755920410156e+01 -1.577817136421799660e-03 -1.117471256293356419e-03 -8.085865410976111889e-04 5.849428707733750343e-04
1.945000000000000000e+03 2.829307746887207031e+01 1.651317596435546875e+01 -1.209296062588691711e-01 3.455827713012695312e+00 1.000469446182250977e+00 1.301453590393066406e+00
1.946000000000000000e+03 2.707420349121093750e+01 1.777557373046875000e+01 -3.077421337366104126e-02 2.847461938858032227e+00 8.450062870979309082e-01 1.204857945442199707e+00
1.947000000000000000e+03 9.350547790527343750e+00 -1.990611267089843750e+01 2.295918762683868408e-03 -2.245490904897451401e-03 1.512839025963330641e-05 -1.701840199530124664e-03
1.948000000000000000e+03 2.737607383728027344e+01 7.822826862335205078e+00 -1.313826888799667358e-01 3.840123414993286133e+00 1.112622261047363281e+00 8.395769000053405762e-01
1.949000000000000000e+03 2.735564804077148438e+01 9.261706352233886719e+00 -1.460956186056137085e-01 3.744795799255371094e+00 1.079610109329223633e+00 9.053573012351989746e-01
1.950000000000000000e+03 2.982083129882812500e+01 1.103679752349853516e+01 -2.842113077640533447e-01 4.313498973846435547e+00 1.208786368370056152e+00 1.123200774192810059e+00
1.951000000000000000e+03 1.045270633697509766e+01 2.167648315429687500e+01 -2.061098115518689156e-03 2.227816594313480891e-06 -6.176611059345304966e-04 2.042276319116353989e-04
1.952000000000000000e+03 6.006561279296875000e+00 -9.692940711975097656e+00 -1.562540186569094658e-03 -5.256737349554896355e-04 -6.264641997404396534e-04 -6.543497438542544842e-04
1.953000000000000000e+03 4.956160545349121094e+00 -9.668956756591796875e+00 1.829357119277119637e-03 2.199976006522774696e-04 6.148064276203513145e-04 5.506800371222198009e-04
1.954000000000000000e+03 2.718371582031250000e+01 1.496713447570800781e+01 -1.233515813946723938e-01 3.210972547531127930e+00 9.262863397598266602e-01 1.132450461387634277e+00
1.955000000000000000e+03 6.930211544036865234e+00 2.533776473999023438e+01 3.832552174571901560e-04 7.015057490207254887e-04 3.254282928537577391e-04 -5.040257819928228855e-04
1.956000000000000000e+03 5.221933364868164062e+00 -1.722733306884765625e+01 1.869894913397729397e-03 1.811208319850265980e-03 1.104330993257462978e-03 1.790880109183490276e-03
1.957000000000000000e+03 7.661246776580810547e+00 -2.650099563598632812e+01 -2.619850914925336838e-03 -5.794827360659837723e-03 -2.524403622373938560e-03 -2.160321222618222237e-03
1.958000000000000000e+03 6.579243659973144531e+00 -2.278460121154785156e+01 -4.657432436943054199e-04 -1.973977079614996910e-03 -7.319160504266619682e-04 7.543225074186921120e-04
1.959000000000000000e+03 5.594656944274902344e+00 -2.351029968261718750e+01 3.308657091110944748e-03 1.602503587491810322e-03 1.473348238505423069e-03 7.532319868914783001e-04
1.960000000000000000e+03 7.941678047180175781e+00 -1.796517944335937500e+01 -8.447288419120013714e-04 1.077590975910425186e-03 6.985863728914409876e-05 1.579212490469217300e-03
1.961000000000000000e+03 5.888438701629638672e+00 1.593031978607177734e+01 -1.111980061978101730e-03 -3.947673831135034561e-04 -4.520242218859493732e-04 4.214920336380600929e-04
1.962000000000000000e+03 1.064573860168457031e+01 -2.232963943481445312e+01 1.608433551155030727e-03 -5.928925238549709320e-04 3.046622732654213905e-04 1.525632571429014206e-03
1.963000000000000000e+03 1.159461498260498047e+01 -2.303829956054687500e+01 -2.736395457759499550e-03 -5.312839057296514511e-04 -9.803038556128740311e-04 -1.699372660368680954e-03
1.964000000000000000e+03 2.503954887390136719e+01 2.866271972656250000e+01 4.066410362720489502e-01 2.870632410049438477e-01 2.081112861633300781e-01 6.500545889139175415e-02
1.965000000000000000e+03 5.460523605346679688e+00 1.957791519165039062e+01 -1.041200943291187286e-03 5.231970571912825108e-04 -1.554011832922697067e-04 -2.303792862221598625e-04
1.966000000000000000e+03 6.533087253570556641e+00 -1.966025352478027344e+01 -7.035630405880510807e-04 1.517089083790779114e-03 2.440578100504353642e-04 1.683190581388771534e-03
1.967000000000000000e+03 8.280809402465820312e+00 -1.936522674560546875e+01 -1.771032926626503468e-03 1.668615732342004776e-03 -3.072517574764788151e-05 2.267131581902503967e-03
1.968000000000000000e+03 2.769625282287597656e+01 -1.593428230285644531e+01 -5.393005162477493286e-02 4.463707447052001953e+00 1.322933197021484375e+00 1.870158016681671143e-01
1.969000000000000000e+03 2.722731590270996094e+01 -1.028624534606933594e+01 -5.243666470050811768e-02 4.382473468780517578e+00 1.299010992050170898e+00 2.879270017147064209e-01
1.970000000000000000e+03 2.560583305358886719e+01 2.335016632080078125e+01 2.745993733406066895e-01 1.355190038681030273e+00 4.889368414878845215e-01 8.364107012748718262e-01
1.971000000000000000e+03 2.700884056091308594e+01 2.215642166137695312e+01 2.734123468399047852e-01 2.143195867538452148e+00 7.249824404716491699e-01 1.169554710388183594e+00
1.972000000000000000e+03 6.777224063873291016e+00 1.517544841766357422e+01 6.196493632160127163e-04 -1.484076492488384247e-04 1.413725112797692418e-04 -3.803965519182384014e-04
1.973000000000000000e+03 1.071952819824218750e+01 -2.731276702880859375e+01 3.052828833460807800e-03 1.085903961211442947e-03 1.241619815118610859e-03 -6.493844557553529739e-04
1.974000000000000000e+03 4.928006649017333984e+00 9.094073295593261719e+00 4.956576740369200706e-04 3.136761952191591263e-04 2.428001607768237591e-04 -3.650861617643386126e-04
1.975000000000000000e+03 6.065877437591552734e+00 6.888679981231689453e+00 -2.029674797086045146e-04 -1.350719976471737027e-04 -1.014118388411588967e-04 1.326871715718880296e-04
1.976000000000000000e+03 5.859978675842285156e+00 8.636854171752929688e+00 -3.314614295959472656e-04 -3.606705868151038885e-04 -2.076396049233153462e-04 4.533816245384514332e-04
1.977000000000000000e+03 1.022242355346679688e+01 1.277295970916748047e+01 8.025020943023264408e-04 5.562379374168813229e-04 4.076219920534640551e-04 -6.271122838370501995e-04
1.978000000000000000e+03 5.308040142059326172e+00 -1.368496990203857422e+01 -1.954845851287245750e-03 -6.304814596660435200e-04 -7.755982223898172379e-04 -8.309771073982119560e-04
1.979000000000000000e+03 7.344011306762695312e+00 9.296594619750976562e+00 -6.814564112573862076e-04 -1.585283462191000581e-04 -2.519954286981374025e-04 3.235964977648109198e-04
1.980000000000000000e+03 7.474114894866943359e+00 1.230326366424560547e+01 9.260062361136078835e-04 -2.133082307409495115e-04 2.138093987014144659e-04 -9.793778735911473632e-05
1.981000000000000000e+03 6.702037811279296875e+00 -1.363329505920410156e+01 1.737959333695471287e-03 1.204583677463233471e-03 8.827628917060792446e-04 1.205051201395690441e-03
1.982000000000000000e+03 5.854928493499755859e+00 -6.054225921630859375e+00 4.951043520122766495e-04 9.684469550848007202e-04 4.390653921291232109e-04 6.241542287170886993e-04
1.983000000000000000e+03 2.596725273132324219e+01 -2.033422660827636719e+01 -7.412105798721313477e-02 4.327332496643066406e+00 1.275963425636291504e+00 1.469518542289733887e-01
1.984000000000000000e+03 2.767844009399414062e+01 -1.891588973999023438e+01 -6.797031313180923462e-02 4.485765457153320312e+00 1.325338602066040039e+00 1.546848416328430176e-01
1.985000000000000000e+03 2.738434791564941406e+01 6.387475967407226562e+00 -1.168777644634246826e-01 3.922923564910888672e+00 1.141813755035400391e+00 7.748218774795532227e-01
1.986000000000000000e+03 2.597994422912597656e+01 -1.610861396789550781e+01 -2.871574647724628448e-02 4.301753520965576172e+00 1.281911373138427734e+00 1.684761494398117065e-01
1.987000000000000000e+03 2.731781578063964844e+01 7.038297653198242188e-01 -1.011656969785690308e-01 4.172755718231201172e+00 1.221477031707763672e+00 5.335724949836730957e-01
1.988000000000000000e+03 2.737259483337402344e+01 3.536176919937133789e+00 -9.923795610666275024e-02 4.062446594238281250e+00 1.188962578773498535e+00 6.441432237625122070e-01
1.989000000000000000e+03 1.015253829956054688e+01 -3.177984619140625000e+01 -5.355198401957750320e-03 1.332041807472705841e-03 -1.206947024911642075e-03 3.100197296589612961e-03
1.990000000000000000e+03 1.082613849639892578e+01 -3.332304382324218750e+01 -1.707365363836288452e-02 3.230669302865862846e-03 -4.152895417064428329e-03 4.826224874705076218e-03
1.991000000000000000e+03 2.723712158203125000e+01 1.355224418640136719e+01 -1.470802873373031616e-01 3.370033502578735352e+00 9.668859243392944336e-01 1.082686543464660645e+00
1.992000000000000000e+03 2.596769905090332031e+01 -2.159275436401367188e+01 -6.081967055797576904e-02 4.324624538421630859e+00 1.279141545295715332e+00 1.545437276363372803e-01
1.993000000000000000e+03 2.506696701049804688e+01 -2.404253768920898438e+01 -3.523454442620277405e-02 4.227174282073974609e+00 1.257581830024719238e+00 1.446077674627304077e-01
1.994000000000000000e+03 7.014543151855468750e+01 3.058245849609375000e+01 2.337371557950973511e-01 6.779978275299072266e+00 2.104114532470703125e+00 -6.214494109153747559e-01
1.995000000000000000e+03 2.417086601257324219e+01 -3.116647911071777344e+01 8.896150439977645874e-02 4.093467235565185547e+00 1.254728555679321289e+00 1.246306523680686951e-01
1.996000000000000000e+03 2.453098678588867188e+01 -2.834532165527343750e+01 2.371719805523753166e-03 4.176509857177734375e+00 1.253664493560791016e+00 1.403227001428604126e-01
1.997000000000000000e+03 2.646519851684570312e+01 -2.721807861328125000e+01 -1.148616150021553040e-02 4.337037086486816406e+00 1.297665238380432129e+00 1.313887387514114380e-01
1.998000000000000000e+03 1.261033344268798828e+01 3.024125480651855469e+01 3.778632264584302902e-03 -4.503657401073724031e-04 9.984798962250351906e-04 3.665865006041713059e-05
1.999000000000000000e+03 1.267527675628662109e+01 3.477032089233398438e+01 5.952632986009120941e-03 -1.820784644223749638e-03 1.239554374478757381e-03 -3.091642633080482483e-03
2.000000000000000000e+03 1.155763435363769531e+01 -6.986855506896972656e+00 -1.232356065884232521e-03 -4.766402416862547398e-04 -5.126988980919122696e-04 6.840157584520056844e-05
2.001000000000000000e+03 9.810980796813964844e+00 -5.999439239501953125e+00 6.405760068446397781e-04 3.114070277661085129e-04 2.855949278455227613e-04 2.713883586693555117e-04
2.002000000000000000e+03 2.558020782470703125e+01 -2.273841094970703125e+01 -6.661197543144226074e-02 4.279846191406250000e+00 1.263970255851745605e+00 1.466871052980422974e-01
2.003000000000000000e+03 7.233805847167968750e+01 -2.260864067077636719e+01 -2.867547981441020966e-02 8.537802696228027344e+00 2.552738189697265625e+00 -9.385071694850921631e-02
2.004000000000000000e+03 4.357432174682617188e+01 3.346999740600585938e+01 3.818885326385498047e+00 1.089856433868408203e+01 4.415235042572021484e+00 2.657797634601593018e-01
2.005000000000000000e+03 4.569775009155273438e+01 3.453248596191406250e+01 2.710187673568725586e+00 1.045384120941162109e+01 3.949208498001098633e+00 3.751549720764160156e-01
2.006000000000000000e+03 4.250563430786132812e+01 4.144129180908203125e+01 -4.920423030853271484e-01 1.327422618865966797e+01 3.834655284881591797e+00 5.315861105918884277e-01
2.007000000000000000e+03 7.289768218994140625e+01 -1.515729236602783203e+01 -4.165102541446685791e-02 8.488551139831542969e+00 2.534070014953613281e+00 -1.491260230541229248e-01
2.008000000000000000e+03 7.211370849609375000e+01 -8.450373649597167969e+00 -6.649083644151687622e-02 8.308185577392578125e+00 2.472508430480957031e+00 -2.467613667249679565e-01
2.009000000000000000e+03 9.082707405090332031e+00 -3.549834823608398438e+01 -3.419569879770278931e-02 1.970965042710304260e-02 -4.345814231783151627e-03 -1.553163956850767136e-02
2.010000000000000000e+03 4.254875183105468750e+01 3.201763153076171875e+01 3.269840717315673828e+00 1.143380641937255859e+01 4.411094188690185547e+00 -4.999623000621795654e-01
2.011000000000000000e+03 7.416371917724609375e+01 6.418502330780029297e-01 -5.287568643689155579e-02 8.132925987243652344e+00 2.424015045166015625e+00 -3.320989608764648438e-01
2.012000000000000000e+03 1.026941776275634766e+01 3.538536834716796875e+01 2.413798123598098755e-03 -2.962579252198338509e-03 -1.646343298489227891e-04 -2.510030462872236967e-04
2.013000000000000000e+03 9.780534744262695312e+00 3.278256988525390625e+01 -1.867270562797784805e-03 -1.071699894964694977e-03 -8.816911140456795692e-04 1.459330553188920021e-03
2.014000000000000000e+03 7.223817443847656250e+01 1.978915405273437500e+01 -6.808024831116199493e-03 7.108054637908935547e+00 2.130373954772949219e+00 -7.142354846000671387e-01
2.015000000000000000e+03 7.279538726806640625e+01 7.542652606964111328e+00 -7.705578207969665527e-02 7.780620098114013672e+00 2.311069250106811523e+00 -5.238598585128784180e-01
2.016000000000000000e+03 9.924364089965820312e+00 -1.123389530181884766e+01 1.626379438675940037e-03 3.659178037196397781e-04 5.976891843602061272e-04 -5.834324474562890828e-05
2.017000000000000000e+03 9.484501838684082031e+00 -1.385462570190429688e+01 1.496102660894393921e-03 1.040855189785361290e-03 7.610873435623943806e-04 5.308075924403965473e-05
2.018000000000000000e+03 3.342326354980468750e+01 3.202416992187500000e+01 2.718629598617553711e+00 1.365198254585266113e+00 1.225148320198059082e+00 2.042922735214233398e+00
2.019000000000000000e+03 3.496831512451171875e+01 3.121874809265136719e+01 3.221262454986572266e+00 5.030299186706542969e+00 2.475468397140502930e+00 4.453142166137695312e+00
2.020000000000000000e+03 3.573786163330078125e+01 3.170512008666992188e+01 3.537537574768066406e+00 7.137814998626708984e+00 3.202605962753295898e+00 5.483784198760986328e+00
2.021000000000000000e+03 3.860152816772460938e+01 3.001477241516113281e+01 7.643145322799682617e-01 1.320174026489257812e+01 4.189816474914550781e+00 1.838628768920898438e+00
2.022000000000000000e+03 3.450828170776367188e+01 3.142824363708496094e+01 3.389033555984497070e+00 3.642788648605346680e+00 2.109546661376953125e+00 3.831979751586914062e+00
2.023000000000000000e+03 3.177295875549316406e+01 3.124655914306640625e+01 1.939116001129150391e+00 1.115780591964721680e+00 9.164689779281616211e-01 1.315045595169067383e+00
2.024000000000000000e+03 3.554173660278320312e+01 3.191405296325683594e+01 4.026654243469238281e+00 6.035872459411621094e+00 3.018757820129394531e+00 5.398499488830566406e+00
2.025000000000000000e+03 3.128577613830566406e+01 3.060820007324218750e+01 1.815904498100280762e+00 1.273751378059387207e+00 9.268967509269714355e-01 1.298559188842773438e+00
2.026000000000000000e+03 3.004697799682617188e+01 3.095448684692382812e+01 1.278669595718383789e+00 7.625828981399536133e-01 6.123757362365722656e-01 6.118323802947998047e-01
2.027000000000000000e+03 3.228942108154296875e+01 3.074967575073242188e+01 2.199765920639038086e+00 1.666170835494995117e+00 1.159780979156494141e+00 1.835597276687622070e+00
2.028000000000000000e+03 8.283097267150878906e+00 6.998686790466308594e+00 -5.918961251154541969e-04 -3.504122141748666763e-04 -2.826924901455640793e-04 -2.815029292833060026e-04
2.029000000000000000e+03 2.730983352661132812e+01 2.952307510375976562e+01 7.429702281951904297e-01 6.231591701507568359e-01 4.098388254642486572e-01 2.612913846969604492e-01
2.030000000000000000e+03 7.309496402740478516e+00 6.234810829162597656e+00 -4.690088389907032251e-04 -2.608014037832617760e-04 -2.189430815633386374e-04 9.948534716386348009e-05
2.031000000000000000e+03 1.042691802978515625e+01 6.733988761901855469e+00 -6.234117317944765091e-04 -1.505598629591986537e-04 -2.321914798812940717e-04 -3.351601772010326385e-04
2.032000000000000000e+03 2.677476692199707031e+01 2.836695098876953125e+01 7.233611941337585449e-01 7.380414009094238281e-01 4.384207725524902344e-01 3.884800374507904053e-01
2.033000000000000000e+03 7.342036247253417969e+00 -6.823862075805664062e+00 -1.671021687798202038e-03 -1.199474427266977727e-04 -5.372907617129385471e-04 -1.720394066069275141e-04
2.034000000000000000e+03 2.883525848388671875e+01 3.072744750976562500e+01 9.609598517417907715e-01 6.138427257537841797e-01 4.724407494068145752e-01 3.187308609485626221e-01
2.035000000000000000e+03 7.950622558593750000e+00 -9.810259819030761719e+00 -3.058867005165666342e-04 -1.552619272843003273e-03 -5.575518007390201092e-04 -2.149323845515027642e-04
2.036000000000000000e+03 1.067306232452392578e+01 -7.471220493316650391e+00 1.136269071139395237e-03 5.160841974429786205e-04 4.957059863954782486e-04 1.660649868426844478e-04
2.037000000000000000e+03 9.201798439025878906e+00 -5.607225894927978516e+00 1.188484719023108482e-03 -5.396221531555056572e-04 1.946587872225791216e-04 -4.874517326243221760e-04
2.038000000000000000e+03 3.028280639648437500e+01 2.973595809936523438e+01 1.524374485015869141e+00 1.320277810096740723e+00 8.533957004547119141e-01 1.116565823554992676e+00
2.039000000000000000e+03 2.784269905090332031e+01 2.975002670288085938e+01 8.506819009780883789e-01 6.769722700119018555e-01 4.582962393760681152e-01 3.204300999641418457e-01
2.040000000000000000e+03 2.858151054382324219e+01 2.926012802124023438e+01 1.070036053657531738e+00 9.894273877143859863e-01 6.178390383720397949e-01 6.436785459518432617e-01
2.041000000000000000e+03 1.149662494659423828e+01 5.697281360626220703e+00 -7.976078777574002743e-04 -9.558283636579290032e-05 -2.679572207853198051e-04 -2.019654493778944016e-04
2.042000000000000000e+03 1.136536026000976562e+01 7.903022766113281250e+00 -7.920076604932546616e-04 -1.811183319659903646e-04 -2.919377875514328480e-04 -1.630885381018742919e-04
2.043000000000000000e+03 1.106274700164794922e+01 -6.120112419128417969e+00 1.062809722498059273e-03 2.912638774432707578e-05 3.275808412581682205e-04 5.009307642467319965e-04
2.044000000000000000e+03 8.863938331604003906e+00 1.153708553314208984e+01 1.022516284137964249e-03 -1.279564003198174760e-05 3.029161889571696520e-04 3.799006299232132733e-05
2.045000000000000000e+03 1.029929924011230469e+01 1.426995372772216797e+01 -8.198700379580259323e-04 8.128522313199937344e-04 -2.105330622725887224e-06 -1.197361038066446781e-03
2.046000000000000000e+03 8.311216354370117188e+00 1.778170585632324219e+01 1.705518225207924843e-03 7.040418131509795785e-05 5.327766994014382362e-04 3.848386113531887531e-04
2.047000000000000000e+03 8.133454322814941406e+00 -1.500020408630371094e+01 1.590812462382018566e-03 1.369971665553748608e-03 8.882352849468588829e-04 1.823255297495052218e-04
2.048000000000000000e+03 8.827377319335937500e+00 -1.102446651458740234e+01 -1.139060361310839653e-03 -6.352749769575893879e-04 -5.323006189428269863e-04 7.577686483273282647e-05
2.049000000000000000e+03 3.946870040893554688e+01 2.975496101379394531e+01 9.239756464958190918e-01 1.277528953552246094e+01 4.109779357910156250e+00 8.032102584838867188e-01
2.050000000000000000e+03 1.016417884826660156e+01 9.081063270568847656e+00 -8.971725474111735821e-04 -1.469783164793625474e-04 -3.132452548015862703e-04 -1.634617801755666733e-04
2.051000000000000000e+03 3.006785392761230469e+01 5.329339504241943359e+00 -2.400729656219482422e-01 4.523678302764892578e+00 1.285081624984741211e+00 8.178345561027526855e-01
2.052000000000000000e+03 5.339749336242675781e+00 7.542371749877929688e+00 2.434773632558062673e-04 1.855762820923700929e-04 1.287160994252189994e-04 -4.405151703394949436e-04
2.053000000000000000e+03 7.291175842285156250e+01 1.281804752349853516e+01 -5.756992846727371216e-02 7.489958763122558594e+00 2.229716539382934570e+00 -6.092111468315124512e-01
2.054000000000000000e+03 7.290575408935546875e+01 1.413403987884521484e+01 -5.298084765672683716e-02 7.411267280578613281e+00 2.207485914230346680e+00 -6.270536780357360840e-01
2.055000000000000000e+03 1.001354789733886719e+01 1.160851955413818359e+01 -9.930287487804889679e-04 -3.341164556331932545e-04 -3.981435438618063927e-04 2.309498086106032133e-04
2.056000000000000000e+03 1.177182674407958984e+01 -8.033278465270996094e+00 1.432884950190782547e-03 2.754167653620243073e-04 5.124905146658420563e-04 -3.782610001508146524e-04
2.057000000000000000e+03 1.008706760406494141e+01 -9.891687393188476562e+00 -1.440036809071898460e-03 -5.695659783668816090e-04 -6.028808420524001122e-04 -1.401360204908996820e-04
2.058000000000000000e+03 8.120554924011230469e+00 8.664464950561523438e+00 2.956663774966727942e-05 -2.000101176236057654e-06 8.269960744655691087e-06 -3.380193666089326143e-04
2.059000000000000000e+03 7.283052062988281250e+01 3.485281705856323242e+00 -8.032189309597015381e-02 7.970004081726074219e+00 2.366904497146606445e+00 -4.419719576835632324e-01
2.060000000000000000e+03 7.256750488281250000e+01 -2.134480667114257812e+01 -3.145839273929595947e-02 8.536821365356445312e+00 2.551608800888061523e+00 -9.833196550607681274e-02
2.061000000000000000e+03 7.085914611816406250e+01 -2.586518859863281250e+01 -4.319050163030624390e-02 8.415991783142089844e+00 2.511840581893920898e+00 -8.076808601617813110e-02
2.062000000000000000e+03 6.938867950439453125e+01 -3.750981807708740234e+00 -1.368935406208038330e-01 8.066257476806640625e+00 2.378809213638305664e+00 -3.873697817325592041e-01
2.063000000000000000e+03 7.269810485839843750e+01 -1.908740282058715820e+00 -7.483804225921630859e-02 8.168429374694824219e+00 2.428077459335327148e+00 -3.417440056800842285e-01
2.064000000000000000e+03 9.339634895324707031e+00 -8.339970588684082031e+00 1.850988774094730616e-04 4.561103996820747852e-04 1.923627860378473997e-04 -8.202619210351258516e-05
2.065000000000000000e+03 8.210371017456054688e+00 2.669197463989257812e+01 1.812045811675488949e-03 9.655570029281079769e-04 8.332808502018451691e-04 -6.091431714594364166e-04
2.066000000000000000e+03 9.295334815979003906e+00 2.488617515563964844e+01 2.009857911616563797e-03 5.096725071780383587e-04 7.558591314591467381e-04 -3.691158199217170477e-04
2.067000000000000000e+03 9.157394409179687500e+00 1.652095222473144531e+01 1.600347808562219143e-03 3.486977075226604939e-04 5.847136490046977997e-04 4.897700855508446693e-04
2.068000000000000000e+03 9.352667808532714844e+00 1.767435455322265625e+01 -1.817630836740136147e-03 -1.036306930473074317e-04 -5.763784865848720074e-04 -4.748338251374661922e-04
2.069000000000000000e+03 3.088066673278808594e+01 -1.745439910888671875e+01 -8.539313822984695435e-02 4.788389682769775391e+00 1.410898923873901367e+00 1.779775917530059814e-01
2.070000000000000000e+03 7.280197143554687500e+01 6.196834564208984375e+00 -7.962151616811752319e-02 7.846482753753662109e+00 2.330058336257934570e+00 -4.971582293510437012e-01
2.071000000000000000e+03 7.018655395507812500e+01 2.357183933258056641e+00 -1.365993022918701172e-01 7.956344127655029297e+00 2.345923423767089844e+00 -5.097442269325256348e-01
2.072000000000000000e+03 7.117427062988281250e+01 -7.285744667053222656e+00 -8.485198765993118286e-02 8.232292175292968750e+00 2.444231986999511719e+00 -2.819979190826416016e-01
2.073000000000000000e+03 7.265820312500000000e+01 2.291511154174804688e+01 3.762289881706237793e-02 6.879708766937255859e+00 2.075199604034423828e+00 -6.800278425216674805e-01
2.074000000000000000e+03 7.393286132812500000e+01 2.271583557128906250e+01 2.683989703655242920e-02 6.771104812622070312e+00 2.039383411407470703e+00 -5.972959995269775391e-01
2.075000000000000000e+03 7.265473175048828125e+01 -2.601958274841308594e+01 -2.541667036712169647e-02 8.576947212219238281e+00 2.565459251403808594e+00 -6.868195533752441406e-02
2.076000000000000000e+03 9.845725059509277344e+00 -1.887771606445312500e+01 -1.847576815634965897e-03 5.380109068937599659e-04 -3.928697842638939619e-04 1.042901305481791496e-03
2.077000000000000000e+03 8.541965484619140625e+00 -2.200758171081542969e+01 3.586339298635721207e-03 8.695701835677027702e-04 1.336772809736430645e-03 -6.911209202371537685e-04
2.078000000000000000e+03 7.151756286621093750e+01 -1.654814720153808594e+01 -5.315211415290832520e-02 8.396474838256835938e+00 2.502996921539306641e+00 -1.541542559862136841e-01
2.079000000000000000e+03 7.152509307861328125e+01 1.156255245208740234e+01 -8.606760948896408081e-02 7.596804141998291016e+00 2.253221035003662109e+00 -6.614300608634948730e-01
2.080000000000000000e+03 7.124894714355468750e+01 -1.023451137542724609e+01 -7.333606481552124023e-02 8.282928466796875000e+00 2.462877511978149414e+00 -2.350018322467803955e-01
2.081000000000000000e+03 7.143977355957031250e+01 -1.142988967895507812e+01 -6.568530201911926270e-02 8.318302154541015625e+00 2.475785017013549805e+00 -2.141817808151245117e-01
2.082000000000000000e+03 7.110742187500000000e+01 -2.937937259674072266e+00 -1.031087040901184082e-01 8.128155708312988281e+00 2.407513856887817383e+00 -3.678735792636871338e-01
2.083000000000000000e+03 2.732577133178710938e+01 1.069879341125488281e+01 -1.554426848888397217e-01 3.636402845382690430e+00 1.044288039207458496e+00 9.677619934082031250e-01
2.084000000000000000e+03 6.170647621154785156e+00 2.352546501159667969e+01 5.181797314435243607e-04 1.076665066648274660e-04 1.877538743428885937e-04 -6.016026600264012814e-04
2.085000000000000000e+03 2.973488044738769531e+01 1.246062850952148438e+01 -2.768652737140655518e-01 4.230158329010009766e+00 1.185987830162048340e+00 1.198749065399169922e+00
2.086000000000000000e+03 2.929652214050292969e+01 1.932830619812011719e+01 4.613307770341634750e-03 3.572905540466308594e+00 1.073255658149719238e+00 1.513656020164489746e+00
2.087000000000000000e+03 2.703449440002441406e+01 1.918780899047851562e+01 4.169330000877380371e-02 2.636992931365966797e+00 8.036059141159057617e-01 1.215068221092224121e+00
2.088000000000000000e+03 2.936416816711425781e+01 2.440304374694824219e+01 6.457051038742065430e-01 2.731126070022583008e+00 1.013049364089965820e+00 1.552208185195922852e+00
2.089000000000000000e+03 2.817259597778320312e+01 1.927139282226562500e+01 3.761714696884155273e-02 3.096415519714355469e+00 9.402098059654235840e-01 1.375511884689331055e+00
2.090000000000000000e+03 7.287816619873046875e+01 -1.384443569183349609e+01 -4.361053183674812317e-02 8.465092658996582031e+00 2.526444673538208008e+00 -1.632738858461380005e-01
2.091000000000000000e+03 6.631434440612792969e+00 -1.783697509765625000e+01 5.480378167703747749e-04 2.304614754393696785e-03 8.557958062738180161e-04 1.092828693799674511e-03
2.092000000000000000e+03 7.823297977447509766e+00 -2.487350654602050781e+01 -7.405087817460298538e-04 -4.886589944362640381e-03 -1.688129617832601070e-03 -1.396993291564285755e-03
2.093000000000000000e+03 6.189465522766113281e+00 -2.782709884643554688e+01 -3.223995445296168327e-03 7.091810693964362144e-04 -7.544443360529839993e-04 -1.882709097117185593e-03
2.094000000000000000e+03 3.083826446533203125e+01 2.990599060058593750e+01 1.696920514106750488e+00 1.464103341102600098e+00 9.483071565628051758e-01 1.323033452033996582e+00
2.095000000000000000e+03 7.925834178924560547e+00 1.670046043395996094e+01 -1.426491071470081806e-03 -3.329383325763046741e-04 -5.278288153931498528e-04 -4.410984693095088005e-04
2.096000000000000000e+03 6.969508647918701172e+00 1.916710662841796875e+01 -4.532892489805817604e-04 7.250072085298597813e-04 8.151539077516645193e-05 2.509094483684748411e-04
2.097000000000000000e+03 8.195816040039062500e+00 -1.619775772094726562e+01 -1.489275367930531502e-03 -1.652693841606378555e-03 -9.425907628610730171e-04 -1.701096480246633291e-04
2.098000000000000000e+03 2.841211700439453125e+01 2.992557144165039062e+01 9.771179556846618652e-01 7.491947412490844727e-01 5.178937911987304688e-01 4.209761917591094971e-01
2.099000000000000000e+03 7.166931152343750000e+01 1.404661560058593750e+01 -6.773211807012557983e-02 7.465714454650878906e+00 2.219394683837890625e+00 -6.991693973541259766e-01
2.100000000000000000e+03 7.163589477539062500e+01 1.281173992156982422e+01 -8.067401498556137085e-02 7.536371707916259766e+00 2.236709356307983398e+00 -6.778860688209533691e-01
2.101000000000000000e+03 6.456918239593505859e+00 -1.215657234191894531e+01 -1.684627146460115910e-03 -9.204199304804205894e-04 -7.815140997990965843e-04 -8.664854103699326515e-04
2.102000000000000000e+03 2.701551628112792969e+01 2.063350486755371094e+01 1.436983942985534668e-01 2.421423673629760742e+00 7.695366144180297852e-01 1.213534593582153320e+00
2.103000000000000000e+03 2.714755058288574219e+01 -4.852188587188720703e+00 -9.719997644424438477e-02 4.304301738739013672e+00 1.262130618095397949e+00 3.898877501487731934e-01
2.104000000000000000e+03 2.992693138122558594e+01 -3.106885433197021484e+00 -1.707460731267929077e-01 4.643152713775634766e+00 1.341722011566162109e+00 4.761655926704406738e-01
2.105000000000000000e+03 2.844238281250000000e+01 1.370901298522949219e+01 -1.969950199127197266e-01 3.744588375091552734e+00 1.064278006553649902e+00 1.190010786056518555e+00
2.106000000000000000e+03 1.105192565917968750e+01 -2.386768341064453125e+01 -4.789792874362319708e-04 -2.763813594356179237e-03 -9.728378499858081341e-04 3.811120986938476562e-04
2.107000000000000000e+03 9.692882537841796875e+00 -2.154007530212402344e+01 -9.194341255351901054e-04 -2.275372855365276337e-03 -9.584421059116721153e-04 -1.227940199896693230e-03
2.108000000000000000e+03 9.771780967712402344e+00 -2.474448013305664062e+01 -2.097210614010691643e-03 -3.031359985470771790e-03 -1.538571203127503395e-03 2.003005240112543106e-03
2.109000000000000000e+03 9.130516052246093750e+00 -1.741728401184082031e+01 -1.640085480175912380e-03 -7.419002358801662922e-04 -7.145957206375896931e-04 6.676596822217106819e-04
2.110000000000000000e+03 2.851012420654296875e+01 1.228783607482910156e+01 -2.141078114509582520e-01 3.865887165069580078e+00 1.095533847808837891e+00 1.125465750694274902e+00
2.111000000000000000e+03 6.018559932708740234e+00 -8.579841613769531250e+00 1.577548566274344921e-03 3.053975524380803108e-04 5.648838705383241177e-04 3.776732482947409153e-04
2.112000000000000000e+03 6.303115844726562500e+00 9.878751754760742188e+00 2.703235368244349957e-04 5.070499028079211712e-04 2.332120348000898957e-04 -3.063486656174063683e-04
2.113000000000000000e+03 2.678101158142089844e+01 2.363772201538085938e+01 3.956069946289062500e-01 1.779487609863281250e+00 6.525284051895141602e-01 1.046221494674682617e+00
2.114000000000000000e+03 2.866362380981445312e+01 2.342642974853515625e+01 4.698730707168579102e-01 2.593622446060180664e+00 9.190486669540405273e-01 1.425790309906005859e+00
2.115000000000000000e+03 5.116765022277832031e+00 -2.780607986450195312e+01 9.505901834927499294e-04 3.971416037529706955e-03 1.476601813919842243e-03 3.151075914502143860e-03
2.116000000000000000e+03 8.287379264831542969e+00 -2.767410278320312500e+01 -1.358535839244723320e-03 4.650715738534927368e-03 9.876540862023830414e-04 8.123834413709118962e-05
2.117000000000000000e+03 2.816600990295410156e+01 2.067193794250488281e+01 1.481205224990844727e-01 2.878792047500610352e+00 9.080737829208374023e-01 1.385401368141174316e+00
2.118000000000000000e+03 2.713022994995117188e+01 -6.214315414428710938e+00 -8.598013967275619507e-02 4.324748039245605469e+00 1.271630287170410156e+00 3.659010827541351318e-01
2.119000000000000000e+03 2.824399375915527344e+01 2.212780761718750000e+01 3.128411769866943359e-01 2.662589788436889648e+00 8.926293253898620605e-01 1.384431123733520508e+00
2.120000000000000000e+03 7.069762420654296875e+01 1.939065933227539062e+01 -1.225432474166154861e-02 7.239652156829833984e+00 2.168219327926635742e+00 -7.934088110923767090e-01
2.121000000000000000e+03 8.756952285766601562e+00 3.128135871887207031e+01 3.010711167007684708e-03 5.568844499066472054e-04 1.070278696715831757e-03 -1.685099676251411438e-03
2.122000000000000000e+03 8.935810089111328125e+00 2.926283645629882812e+01 1.409693271853029728e-03 1.695089275017380714e-03 9.314347989857196808e-04 -1.457802369259297848e-03
2.123000000000000000e+03 7.043544769287109375e+01 -1.928537940979003906e+01 -5.636551976203918457e-02 8.323962211608886719e+00 2.480279207229614258e+00 -1.387889385223388672e-01
2.124000000000000000e+03 7.280088806152343750e+01 -2.011446952819824219e+01 -3.647133335471153259e-02 8.543411254882812500e+00 2.552082061767578125e+00 -1.048452258110046387e-01
2.125000000000000000e+03 3.046927642822265625e+01 -1.095117855072021484e+01 -1.091305613517761230e-01 4.741496086120605469e+00 1.389709591865539551e+00 2.933335602283477783e-01
2.126000000000000000e+03 2.863716888427734375e+01 -8.676068305969238281e+00 -9.505344927310943604e-02 4.526714801788330078e+00 1.329498529434204102e+00 3.301632404327392578e-01
2.127000000000000000e+03 7.136808776855468750e+01 -2.908210182189941406e+01 -2.942637167870998383e-02 8.492286682128906250e+00 2.538857936859130859e+00 -5.532974377274513245e-02
2.128000000000000000e+03 6.930914306640625000e+01 -3.269970703125000000e+01 -3.591336309909820557e-02 8.315920829772949219e+00 2.484002113342285156e+00 -5.340857431292533875e-02
2.129000000000000000e+03 2.738277816772460938e+01 4.959991931915283203e+00 -1.042737215757369995e-01 3.995435476303100586e+00 1.167348504066467285e+00 7.059176564216613770e-01
2.130000000000000000e+03 2.868750000000000000e+01 6.552810668945312500e+00 -1.815575808286666870e-01 4.191430568695068359e+00 1.202961802482604980e+00 8.401799798011779785e-01
2.131000000000000000e+03 7.803730010986328125e+00 1.130174732208251953e+01 -1.152156037278473377e-03 3.209499409422278404e-04 -2.493618230801075697e-04 2.003094123210757971e-04
2.132000000000000000e+03 7.128377532958984375e+01 2.521496391296386719e+01 9.071007370948791504e-02 6.893781661987304688e+00 2.095347404479980469e+00 -7.264810204505920410e-01
2.133000000000000000e+03 7.226098632812500000e+01 2.148372459411621094e+01 1.461298391222953796e-02 7.006267070770263672e+00 2.106264114379882812e+00 -7.107811570167541504e-01
2.134000000000000000e+03 2.858609771728515625e+01 -1.923341393470764160e+00 -1.383164674043655396e-01 4.433292388916015625e+00 1.288492798805236816e+00 4.892510473728179932e-01
2.135000000000000000e+03 2.727609062194824219e+01 -6.953971982002258301e-01 -1.011699810624122620e-01 4.211651325225830078e+00 1.233144283294677734e+00 4.902260005474090576e-01
2.136000000000000000e+03 8.542922019958496094e+00 2.804581642150878906e+01 -1.333184773102402687e-03 -1.195904798805713654e-03 -7.587269064970314503e-04 8.939938852563500404e-04
2.137000000000000000e+03 7.147624969482421875e+01 9.225289821624755859e-01 -1.046081781387329102e-01 8.031442642211914062e+00 2.378050327301025391e+00 -4.379051029682159424e-01
2.138000000000000000e+03 1.063261127471923828e+01 -2.849693107604980469e+01 -6.505810189992189407e-03 -3.123091766610741615e-03 -2.888670423999428749e-03 2.039072802290320396e-03
2.139000000000000000e+03 8.448146820068359375e+00 -3.094564628601074219e+01 -1.036422047764062881e-02 -2.915352350100874901e-03 -3.983871545642614365e-03 -1.049323356710374355e-03
2.140000000000000000e+03 7.140869903564453125e+01 -3.778476417064666748e-01 -1.039214879274368286e-01 8.069602012634277344e+00 2.389704227447509766e+00 -4.121758937835693359e-01
2.141000000000000000e+03 7.042272186279296875e+01 -5.412182807922363281e+00 -1.106540784239768982e-01 8.146101951599121094e+00 2.410634517669677734e+00 -3.347113132476806641e-01
2.142000000000000000e+03 7.087084960937500000e+01 -9.132674217224121094e+00 -8.536582440137863159e-02 8.239198684692382812e+00 2.446149826049804688e+00 -2.614668011665344238e-01
2.143000000000000000e+03 2.865894317626953125e+01 8.727137446403503418e-01 -1.458291858434677124e-01 4.376029014587402344e+00 1.269059896469116211e+00 5.835508704185485840e-01
2.144000000000000000e+03 2.870095252990722656e+01 5.133158206939697266e+00 -1.692629605531692505e-01 4.247277259826660156e+00 1.223404288291931152e+00 7.721751332283020020e-01
2.145000000000000000e+03 7.141773986816406250e+01 6.273853302001953125e+00 -1.078668609261512756e-01 7.836407184600830078e+00 2.318562030792236328e+00 -5.602358579635620117e-01
2.146000000000000000e+03 2.755319595336914062e+01 -2.175835990905761719e+01 -7.909838855266571045e-02 4.469082355499267578e+00 1.316995143890380859e+00 1.488491147756576538e-01
2.147000000000000000e+03 1.335714149475097656e+01 3.303992080688476562e+01 4.838848020881414413e-03 -3.723518966580741107e-05 1.440483960323035717e-03 -2.953923540189862251e-04
2.148000000000000000e+03 1.202083206176757812e+01 3.343957138061523438e+01 -2.639035927131772041e-03 -2.154890535166487098e-04 -8.563575102016329765e-04 1.846487983129918575e-03
2.149000000000000000e+03 2.870099258422851562e+01 3.711736202239990234e+00 -1.580683439970016479e-01 4.296281814575195312e+00 1.241464018821716309e+00 7.027827501296997070e-01
2.150000000000000000e+03 5.140530109405517578e+00 3.623394012451171875e+01 1.081568654626607895e-03 -2.266159717692062259e-04 2.564858004916459322e-04 7.995693013072013855e-04
2.151000000000000000e+03 8.725674629211425781e+00 3.530862426757812500e+01 -1.050614169798791409e-03 1.062459778040647507e-03 3.553686610757722519e-06 -8.110963972285389900e-04
2.152000000000000000e+03 6.414204120635986328e+00 2.624141311645507812e+01 1.462850952520966530e-03 9.132131235674023628e-04 7.128192228265106678e-04 -7.718820124864578247e-04
2.153000000000000000e+03 7.153437805175781250e+01 -1.526154613494873047e+01 -5.535579472780227661e-02 8.378228187561035156e+00 2.496861696243286133e+00 -1.675384193658828735e-01
2.154000000000000000e+03 2.807326889038085938e+01 -2.900747680664062500e+01 -3.044121200218796730e-03 4.475237846374511719e+00 1.341658115386962891e+00 9.071493893861770630e-02
2.155000000000000000e+03 2.690134620666503906e+01 -2.447012710571289062e+01 -5.581614002585411072e-02 4.415896415710449219e+00 1.308024168014526367e+00 1.304555684328079224e-01
2.156000000000000000e+03 6.948676300048828125e+01 -2.043772125244140625e+01 -6.011012941598892212e-02 8.256871223449707031e+00 2.459028244018554688e+00 -1.336723864078521729e-01
2.157000000000000000e+03 7.068768310546875000e+01 -2.230718421936035156e+01 -4.439909383654594421e-02 8.382352828979492188e+00 2.501385927200317383e+00 -1.086490824818611145e-01
2.158000000000000000e+03 2.572312927246093750e+01 -3.160036277770996094e+01 7.543556392192840576e-02 4.269847869873046875e+00 1.303585052490234375e+00 9.389699250459671021e-02
2.159000000000000000e+03 2.624024581909179688e+01 -2.860522079467773438e+01 3.478018194437026978e-02 4.321166038513183594e+00 1.306783795356750488e+00 1.324500739574432373e-01
2.160000000000000000e+03 4.161065292358398438e+01 2.877203559875488281e+01 8.769359588623046875e-01 1.150528335571289062e+01 3.714665889739990234e+00 -1.466777473688125610e-01
2.161000000000000000e+03 4.399781799316406250e+01 3.209189224243164062e+01 3.060450077056884766e+00 1.072293186187744141e+01 4.135014533996582031e+00 -4.443991482257843018e-01
2.162000000000000000e+03 6.768077850341796875e+01 -2.900079727172851562e+01 -5.468469485640525818e-02 8.145866394042968750e+00 2.427354574203491211e+00 -7.244548201560974121e-02
2.163000000000000000e+03 7.872310638427734375e+00 2.993527603149414062e+01 -1.504631480202078819e-03 -1.006326056085526943e-03 -7.532872841693460941e-04 1.500756712630391121e-03
2.164000000000000000e+03 9.685074806213378906e+00 -1.255242729187011719e+01 -1.570927095599472523e-03 -5.386952543631196022e-04 -6.328867166303098202e-04 -1.467641413910314441e-04
2.165000000000000000e+03 9.378124237060546875e+00 -1.512608146667480469e+01 -1.338393776677548885e-03 -1.384284114465117455e-03 -8.168034255504608154e-04 1.252000220119953156e-04
2.166000000000000000e+03 7.204313659667968750e+01 2.867967605590820312e+01 1.341718733310699463e-01 6.623302936553955078e+00 2.027242422103881836e+00 -6.057212948799133301e-01
2.167000000000000000e+03 6.874662780761718750e+01 2.826577758789062500e+01 2.251302152872085571e-01 7.032422542572021484e+00 2.177265882492065430e+00 -7.616337537765502930e-01
2.168000000000000000e+03 2.763134574890136719e+01 -1.448757266998291016e+01 -4.186483100056648254e-02 4.451646327972412109e+00 1.322934508323669434e+00 2.066705077886581421e-01
2.169000000000000000e+03 7.530298709869384766e+00 2.116814041137695312e+01 -4.482051590457558632e-04 5.625095800496637821e-04 3.429132266319356859e-05 -2.370746806263923645e-04
2.170000000000000000e+03 6.927879333496093750e+00 2.726544761657714844e+01 -1.257182448171079159e-03 -1.107195857912302017e-03 -7.093134918250143528e-04 7.537778001278638840e-04
2.171000000000000000e+03 6.994755554199218750e+01 -2.999393463134765625e+01 -3.995041549205780029e-02 8.365636825561523438e+00 2.497705936431884766e+00 -6.700278818607330322e-02
2.172000000000000000e+03 1.056455516815185547e+01 3.718695831298828125e+01 -8.964377338998019695e-04 1.108645694330334663e-03 6.366240268107503653e-05 -1.655302126891911030e-03
2.173000000000000000e+03 8.604841232299804688e+00 3.718302536010742188e+01 1.326465629972517490e-03 -2.175409346818923950e-03 -2.546830801293253899e-04 -1.010315958410501480e-03
2.174000000000000000e+03 4.671502685546875000e+01 3.886921310424804688e+01 1.384180188179016113e+00 1.111438465118408203e+01 3.749569416046142578e+00 6.054902672767639160e-01
2.175000000000000000e+03 3.783699035644531250e+01 4.151722717285156250e+01 -8.623610734939575195e-01 1.055728435516357422e+01 2.908476829528808594e+00 -3.526098728179931641e-01
2.176000000000000000e+03 7.725040912628173828e+00 2.368736839294433594e+01 1.189054921269416809e-03 1.240987214259803295e-03 7.290126523002982140e-04 -6.074600969441235065e-04
2.177000000000000000e+03 2.286437988281250000e+01 -3.328483963012695312e+01 1.962938904762268066e-01 4.014651298522949219e+00 1.263283491134643555e+00 1.848597228527069092e-01
2.178000000000000000e+03 2.667511367797851562e+01 -2.583383560180664062e+01 -1.771531626582145691e-02 4.376695156097412109e+00 1.307693958282470703e+00 1.319269835948944092e-01
2.179000000000000000e+03 1.130989551544189453e+01 -3.768322372436523438e+01 -8.286403864622116089e-02 4.481108859181404114e-02 -1.141588389873504639e-02 -2.420393191277980804e-02
2.180000000000000000e+03 7.937955379486083984e+00 -2.992994499206542969e+01 -3.843095852062106133e-03 8.649962022900581360e-03 1.442059874534606934e-03 1.116222469136118889e-03
2.181000000000000000e+03 7.673749446868896484e+00 -3.191613388061523438e+01 -1.097056642174720764e-02 1.054383721202611923e-02 -1.280187134398147464e-04 -1.887605030788108706e-04
2.182000000000000000e+03 1.264464664459228516e+01 -3.265553283691406250e+01 1.393998973071575165e-03 -8.052918128669261932e-03 -1.997675746679306030e-03 5.898728501051664352e-03
2.183000000000000000e+03 3.400874710083007812e+01 3.231066131591796875e+01 3.168408393859863281e+00 1.530462861061096191e+00 1.409661412239074707e+00 2.471778392791748047e+00
2.184000000000000000e+03 3.227974700927734375e+01 3.141779708862304688e+01 2.163908958435058594e+00 1.271286487579345703e+00 1.030558586120605469e+00 1.559311509132385254e+00
2.185000000000000000e+03 3.386612319946289062e+01 3.106003761291503906e+01 2.964970350265502930e+00 2.962698698043823242e+00 1.778300642967224121e+00 3.180996179580688477e+00
2.186000000000000000e+03 3.654282760620117188e+01 3.119204139709472656e+01 2.106458663940429688e+00 1.072085571289062500e+01 3.848194360733032227e+00 5.105643272399902344e+00
2.187000000000000000e+03 3.430102157592773438e+01 3.092131614685058594e+01 3.014088392257690430e+00 3.751138210296630859e+00 2.029567956924438477e+00 3.685444831848144531e+00
2.188000000000000000e+03 3.187753677368164062e+01 3.020909690856933594e+01 2.055846214294433594e+00 1.826971769332885742e+00 1.164845466613769531e+00 1.799526691436767578e+00
2.189000000000000000e+03 3.675032043457031250e+01 3.065196228027343750e+01 1.565275311470031738e+00 1.121283340454101562e+01 3.833432674407958984e+00 4.300897121429443359e+00
2.190000000000000000e+03 3.072615051269531250e+01 3.048182487487792969e+01 1.618092298507690430e+00 1.137752294540405273e+00 8.267533779144287109e-01 1.061257839202880859e+00
2.191000000000000000e+03 3.199788856506347656e+01 2.973855400085449219e+01 2.064315795898437500e+00 2.187109470367431641e+00 1.275427579879760742e+00 2.042867898941040039e+00
2.192000000000000000e+03 2.899286270141601562e+01 3.007749366760253906e+01 1.110840201377868652e+00 8.315785527229309082e-01 5.827255845069885254e-01 5.429170727729797363e-01
2.193000000000000000e+03 3.137533187866210938e+01 3.006777954101562500e+01 1.887593984603881836e+00 1.626812696456909180e+00 1.054322004318237305e+00 1.561817049980163574e+00
2.194000000000000000e+03 7.937847614288330078e+00 -5.691302776336669922e+00 -1.350160106085240841e-03 -7.389707025140523911e-05 -4.272171645425260067e-04 -7.907324470579624176e-04
2.195000000000000000e+03 2.987899208068847656e+01 2.889034271240234375e+01 1.394614338874816895e+00 1.519314289093017578e+00 8.741785883903503418e-01 1.180605769157409668e+00
2.196000000000000000e+03 2.746264076232910156e+01 2.899992752075195312e+01 8.491975069046020508e-01 7.745389938354492188e-01 4.871209561824798584e-01 4.201259613037109375e-01
2.197000000000000000e+03 2.680141830444335938e+01 2.743448257446289062e+01 7.010568380355834961e-01 9.324436187744140625e-01 4.900501370429992676e-01 5.593918561935424805e-01
2.198000000000000000e+03 2.944536972045898438e+01 2.790077781677246094e+01 1.230969667434692383e+00 1.720713019371032715e+00 8.855048418045043945e-01 1.242831707000732422e+00
2.199000000000000000e+03 2.801404762268066406e+01 2.911745452880859375e+01 9.455819129943847656e-01 8.808505535125732422e-01 5.479297637939453125e-01 5.209240317344665527e-01
2.200000000000000000e+03 8.987805366516113281e+00 6.297389507293701172e+00 -7.040265481919050217e-04 3.146265225950628519e-05 -2.017691731452941895e-04 6.442349695134907961e-05
2.201000000000000000e+03 2.957525634765625000e+01 3.021756172180175781e+01 1.268062710762023926e+00 9.169290661811828613e-01 6.554975509643554688e-01 6.927559971809387207e-01
2.202000000000000000e+03 4.008025360107421875e+01 2.983410072326660156e+01 1.168175458908081055e+00 1.266635894775390625e+01 4.150360584259033203e+00 2.789767384529113770e-01
2.203000000000000000e+03 3.638963317871093750e+01 3.042865562438964844e+01 1.705683350563049316e+00 9.538981437683105469e+00 3.373399496078491211e+00 4.504740238189697266e+00
2.204000000000000000e+03 3.686518859863281250e+01 3.007173347473144531e+01 1.166080832481384277e+00 1.057981777191162109e+01 3.523769617080688477e+00 3.832067251205444336e+00
2.205000000000000000e+03 7.150032043457031250e+01 2.244465112686157227e+00 -1.073196381330490112e-01 7.988646030426025391e+00 2.364397764205932617e+00 -4.664137959480285645e-01
2.206000000000000000e+03 7.129408264160156250e+01 -1.664469003677368164e+00 -1.020083576440811157e-01 8.102617263793945312e+00 2.400182485580444336e+00 -3.885667324066162109e-01
2.207000000000000000e+03 6.968064117431640625e+01 -2.571217536926269531e+00 -1.333597004413604736e-01 8.058895111083984375e+00 2.377660751342773438e+00 -4.084890186786651611e-01
2.208000000000000000e+03 9.920488357543945312e+00 -7.856326103210449219e+00 -1.654559513553977013e-03 1.038669579429551959e-04 -4.652077623177319765e-04 -1.595665962668135762e-04
2.209000000000000000e+03 9.119332313537597656e+00 -6.345305919647216797e+00 -1.469871844165027142e-03 -1.917382323881611228e-04 -4.984830156899988651e-04 1.044623422785662115e-04
2.210000000000000000e+03 7.815950870513916016e+00 1.030369567871093750e+01 9.753457270562648773e-04 1.494049065513536334e-04 3.374251828063279390e-04 -1.562278484925627708e-04
2.211000000000000000e+03 8.915770530700683594e+00 1.023196983337402344e+01 -1.041166367940604687e-03 -1.115290724555961788e-04 -3.458086284808814526e-04 -1.664979936322197318e-04
2.212000000000000000e+03 7.018154144287109375e+01 -8.204491615295410156e+00 -9.842025488615036011e-02 8.187832832336425781e+00 2.426823854446411133e+00 -2.854672372341156006e-01
2.213000000000000000e+03 7.083054351806640625e+01 -4.196434497833251953e+00 -1.042872071266174316e-01 8.145343780517578125e+00 2.412317037582397461e+00 -3.500702679157257080e-01
2.214000000000000000e+03 2.734983062744140625e+01 2.536243820190429688e+01 6.190592050552368164e-01 1.597783565521240234e+00 6.650528311729431152e-01 9.907022118568420410e-01
2.215000000000000000e+03 7.009550476074218750e+01 4.972787380218505859e+00 -1.406311690807342529e-01 7.877546787261962891e+00 2.321074724197387695e+00 -5.768428444862365723e-01
2.216000000000000000e+03 8.208588600158691406e+00 -1.718558692932128906e+01 1.735381665639579296e-03 1.116667874157428741e-03 8.556148386560380459e-04 -2.958769036922603846e-04
2.217000000000000000e+03 1.099419498443603516e+01 -8.397783279418945312e+00 -5.136038525961339474e-04 -1.077545923180878162e-03 -4.773449618369340897e-04 -3.785628359764814377e-04
2.218000000000000000e+03 2.822129631042480469e+01 1.789200592041015625e+01 -5.913162603974342346e-02 3.285359621047973633e+00 9.678683876991271973e-01 1.342008352279663086e+00
2.219000000000000000e+03 9.093382835388183594e+00 6.974693775177001953e+00 1.078575267456471920e-03 -1.850477815423801076e-06 3.230174188502132893e-04 1.204473010147921741e-04
2.220000000000000000e+03 7.498331546783447266e+00 7.076065540313720703e+00 4.579298256430774927e-04 4.812264814972877502e-04 2.817468775901943445e-04 -2.027434529736638069e-04
2.221000000000000000e+03 7.002722167968750000e+01 -1.059803962707519531e+01 -9.410028904676437378e-02 8.210154533386230469e+00 2.434816360473632812e+00 -2.494613677263259888e-01
2.222000000000000000e+03 6.881890869140625000e+01 -1.077577590942382812e+01 -1.198896616697311401e-01 8.129593849182128906e+00 2.402911186218261719e+00 -2.587918937206268311e-01
2.223000000000000000e+03 7.044095611572265625e+01 -2.480684089660644531e+01 -4.110459238290786743e-02 8.370132446289062500e+00 2.498708486557006836e+00 -8.968489617109298706e-02
2.224000000000000000e+03 6.733368682861328125e+01 -2.738335609436035156e+01 -5.931002274155616760e-02 8.096621513366699219e+00 2.411193370819091797e+00 -8.436365425586700439e-02
2.225000000000000000e+03 7.005596160888671875e+01 -1.667508316040039062e+01 -6.821134686470031738e-02 8.273317337036132812e+00 2.461531877517700195e+00 -1.674033403396606445e-01
2.226000000000000000e+03 7.148912811279296875e+01 3.579833984375000000e+00 -1.078104674816131592e-01 7.940557003021240234e+00 2.349823951721191406e+00 -4.968716800212860107e-01
2.227000000000000000e+03 7.246375560760498047e+00 -7.796182632446289062e+00 1.721997512504458427e-03 -2.147498307749629021e-04 4.521743103396147490e-04 5.830383088323287666e-05
2.228000000000000000e+03 6.995756626129150391e+00 -9.729889869689941406e+00 8.720252662897109985e-04 1.140390639193356037e-03 6.037247367203235626e-04 5.215776036493480206e-04
2.229000000000000000e+03 7.010632324218750000e+01 1.172732543945312500e+01 -1.156833618879318237e-01 7.634025573730468750e+00 2.255502700805664062e+00 -7.306830286979675293e-01
2.230000000000000000e+03 7.140200805664062500e+01 8.953890800476074219e+00 -1.014891490340232849e-01 7.723092555999755859e+00 2.286480903625488281e+00 -6.177731752395629883e-01
2.231000000000000000e+03 2.856921958923339844e+01 1.085805320739746094e+01 -2.150734961032867432e-01 3.966229677200317383e+00 1.125346899032592773e+00 1.055212974548339844e+00
2.232000000000000000e+03 2.837001800537109375e+01 1.512005901336669922e+01 -1.699529737234115601e-01 3.611234903335571289e+00 1.032384514808654785e+00 1.249492406845092773e+00
2.233000000000000000e+03 6.933047485351562500e+01 1.869550132751464844e+01 -3.075511008501052856e-02 7.377798557281494141e+00 2.204113006591796875e+00 -8.623308539390563965e-01
2.234000000000000000e+03 7.156785583496093750e+01 1.529106998443603516e+01 -5.908029153943061829e-02 7.400907039642333984e+00 2.202548027038574219e+00 -7.177269458770751953e-01
2.235000000000000000e+03 3.060270881652832031e+01 1.681985664367675781e+01 -2.227550446987152100e-01 4.327465057373046875e+00 1.231413006782531738e+00 1.492353796958923340e+00
2.236000000000000000e+03 7.021500396728515625e+01 -1.406389522552490234e+01 -7.325144857168197632e-02 8.262226104736328125e+00 2.456692457199096680e+00 -1.972686499357223511e-01
2.237000000000000000e+03 7.152423858642578125e+01 -1.267887878417968750e+01 -6.143043562769889832e-02 8.343372344970703125e+00 2.484582424163818359e+00 -1.974073648452758789e-01
2.238000000000000000e+03 2.713175773620605469e+01 -7.571255683898925781e+00 -7.762753963470458984e-02 4.346383571624755859e+00 1.280626893043518066e+00 3.399789333343505859e-01
2.239000000000000000e+03 7.037905883789062500e+01 1.291951847076416016e+01 -9.791304916143417358e-02 7.573268890380859375e+00 2.242606639862060547e+00 -7.445954680442810059e-01
2.240000000000000000e+03 2.853761100769042969e+01 -4.670242309570312500e+00 -1.242062672972679138e-01 4.475854873657226562e+00 1.305494546890258789e+00 4.174207448959350586e-01
2.241000000000000000e+03 2.997574996948242188e+01 -3.537041246891021729e-01 -1.896713376045227051e-01 4.613045215606689453e+00 1.327012181282043457e+00 5.657991766929626465e-01
2.242000000000000000e+03 2.866012954711914062e+01 7.982208251953125000e+00 -1.966240555047988892e-01 4.129016399383544922e+00 1.179717779159545898e+00 9.138675332069396973e-01
2.243000000000000000e+03 3.108744430541992188e+01 1.124760627746582031e+01 -3.566779196262359619e-01 4.669710159301757812e+00 1.293909668922424316e+00 1.167377710342407227e+00
2.244000000000000000e+03 3.004421043395996094e+01 -7.092249870300292969e+00 -1.397827267646789551e-01 4.686188220977783203e+00 1.363921761512756348e+00 3.733485639095306396e-01
2.245000000000000000e+03 2.997690582275390625e+01 8.166506767272949219e+00 -2.665805816650390625e-01 4.436998844146728516e+00 1.251125454902648926e+00 9.672390222549438477e-01
2.246000000000000000e+03 8.792773246765136719e+00 -2.089575576782226562e+01 -2.833472099155187607e-03 2.000690437853336334e-03 -2.498344692867249250e-04 1.843730220571160316e-03
2.247000000000000000e+03 8.949310302734375000e+00 -9.844538688659667969e+00 9.167854441329836845e-04 1.281158998608589172e-03 6.593833677470684052e-04 2.540020796004682779e-04
2.248000000000000000e+03 7.049167633056640625e+00 -1.072758007049560547e+01 -4.483823722694069147e-04 -1.524669816717505455e-03 -5.919156828895211220e-04 -1.030095969326794147e-03
2.249000000000000000e+03 7.061787128448486328e+00 1.429140090942382812e+01 6.038005085429176688e-05 6.522574694827198982e-04 2.137912524631246924e-04 7.014521397650241852e-04
2.250000000000000000e+03 8.055171012878417969e+00 1.362213897705078125e+01 3.584600635804235935e-04 -1.047414989443495870e-04 7.611556793563067913e-05 8.965712622739374638e-04
2.251000000000000000e+03 2.954625701904296875e+01 1.528227615356445312e+01 -2.198318541049957275e-01 4.017811775207519531e+00 1.139393925666809082e+00 1.343848109245300293e+00
2.252000000000000000e+03 8.632611274719238281e+00 -2.333719635009765625e+01 -2.562196226790547371e-03 -3.181882668286561966e-03 -1.723223715089261532e-03 8.608656935393810272e-04
2.253000000000000000e+03 7.331383228302001953e+00 -1.872151756286621094e+01 3.072755644097924232e-04 -1.599662820808589458e-03 -3.877161652781069279e-04 -1.852626795880496502e-03
2.254000000000000000e+03 7.691753387451171875e+00 -2.039134788513183594e+01 2.212947700172662735e-03 -1.731119235046207905e-03 1.445485540898516774e-04 -1.877679838798940182e-03
2.255000000000000000e+03 9.739468574523925781e+00 3.017391014099121094e+01 3.412109508644789457e-04 -1.872270484454929829e-03 -4.593178746290504932e-04 1.459348364733159542e-03
2.256000000000000000e+03 8.132773399353027344e+00 -1.362157535552978516e+01 -1.393419574014842510e-03 -1.149752293713390827e-03 -7.629515603184700012e-04 -3.609970153775066137e-04
2.257000000000000000e+03 6.772620201110839844e+00 2.423269653320312500e+01 -4.974893527105450630e-04 -1.348434365354478359e-03 -5.537770921364426613e-04 -3.243171886424534023e-05
2.258000000000000000e+03 6.401025772094726562e+00 2.025508499145507812e+01 1.870506966952234507e-04 -1.122053829021751881e-03 -2.805009135045111179e-04 7.470899436157196760e-05
2.259000000000000000e+03 3.098788833618164062e+01 2.933650779724121094e+01 1.719839811325073242e+00 1.825845122337341309e+00 1.063705444335937500e+00 1.579121232032775879e+00
2.260000000000000000e+03 9.530285835266113281e+00 -2.599765586853027344e+01 1.999296015128493309e-03 1.182030537165701389e-03 9.543980122543871403e-04 -4.773597465828061104e-04
2.261000000000000000e+03 9.448943138122558594e+00 -2.721891212463378906e+01 -5.254487972706556320e-03 -3.546305466443300247e-03 -2.640238031744956970e-03 2.515752101317048073e-03
2.262000000000000000e+03 8.473222732543945312e+00 -2.563691902160644531e+01 -1.765527762472629547e-03 5.283810896798968315e-04 -3.711440076585859060e-04 6.460440345108509064e-04
2.263000000000000000e+03 8.721865653991699219e+00 -2.459091758728027344e+01 1.994881778955459595e-03 1.932253013364970684e-03 1.178140402771532536e-03 -1.983671449124813080e-03
2.264000000000000000e+03 1.077833080291748047e+01 3.410764694213867188e+01 4.409853368997573853e-03 -2.179444127250462770e-04 1.257572788745164871e-03 -2.850497141480445862e-03
2.265000000000000000e+03 2.939564323425292969e+01 2.190613937377929688e+01 3.010443449020385742e-01 3.262736558914184570e+00 1.069134235382080078e+00 1.604744315147399902e+00
2.266000000000000000e+03 2.959814071655273438e+01 -2.045707702636718750e+01 -7.875135540962219238e-02 4.665536880493164062e+00 1.376035690307617188e+00 1.396791934967041016e-01
2.267000000000000000e+03 2.939900588989257812e+01 -2.204870796203613281e+01 -7.147525995969772339e-02 4.629647731781005859e+00 1.367451667785644531e+00 1.446057111024856567e-01
2.268000000000000000e+03 6.858850097656250000e+01 -2.361441421508789062e+01 -5.645781755447387695e-02 8.198389053344726562e+00 2.442579269409179688e+00 -1.086444631218910217e-01
2.269000000000000000e+03 7.165337371826171875e+01 -1.888521575927734375e+01 -4.718580842018127441e-02 8.429725646972656250e+00 2.514762163162231445e+00 -1.285135149955749512e-01
2.270000000000000000e+03 8.437575340270996094e+00 -1.225864410400390625e+01 1.603495446033775806e-03 5.082007919554598629e-05 4.962946404702961445e-04 1.512312610429944471e-05
2.271000000000000000e+03 7.869951725006103516e+00 1.446373462677001953e+01 -7.490915595553815365e-04 -2.857272338587790728e-04 -3.104456409346312284e-04 -9.805873269215226173e-04
2.272000000000000000e+03 2.948989295959472656e+01 -1.421898078918457031e+01 -8.007220178842544556e-02 4.648868083953857422e+00 1.370638728141784668e+00 2.215714007616043091e-01
2.273000000000000000e+03 2.914295768737792969e+01 -1.274099922180175781e+01 -7.293727993965148926e-02 4.607285499572753906e+00 1.360304355621337891e+00 2.536964118480682373e-01
2.274000000000000000e+03 4.172492980957031250e+01 2.974911308288574219e+01 1.590724587440490723e+00 1.173896980285644531e+01 3.998908519744873047e+00 -3.831948935985565186e-01
2.275000000000000000e+03 4.283028411865234375e+01 3.073856925964355469e+01 2.435798883438110352e+00 1.131143379211425781e+01 4.124169826507568359e+00 -6.506100296974182129e-01
2.276000000000000000e+03 7.075491333007812500e+01 2.333136749267578125e+01 5.518573150038719177e-02 7.031873226165771484e+00 2.126117706298828125e+00 -7.702273130416870117e-01
2.277000000000000000e+03 6.988156127929687500e+01 2.076381492614746094e+01 6.653171498328447342e-03 7.231531143188476562e+00 2.171455144882202148e+00 -8.340553641319274902e-01
2.278000000000000000e+03 6.890251922607421875e+01 -2.199099159240722656e+01 -6.435345113277435303e-02 8.212985992431640625e+00 2.444589853286743164e+00 -1.203465908765792847e-01
2.279000000000000000e+03 2.964159202575683594e+01 1.387659931182861328e+01 -2.583600282669067383e-01 4.136379718780517578e+00 1.163406014442443848e+00 1.274344325065612793e+00
2.280000000000000000e+03 2.868636512756347656e+01 2.287722349166870117e+00 -1.519061177968978882e-01 4.340763092041015625e+00 1.256657123565673828e+00 6.400939226150512695e-01
2.281000000000000000e+03 3.006399154663085938e+01 3.901859998703002930e+00 -2.245522737503051758e-01 4.552506446838378906e+00 1.298386335372924805e+00 7.485827207565307617e-01
2.282000000000000000e+03 7.105534362792968750e+01 -2.101964187622070312e+01 -4.309234023094177246e-02 8.407260894775390625e+00 2.509250640869140625e+00 -1.187177598476409912e-01
2.283000000000000000e+03 7.884845733642578125e+00 -1.077818679809570312e+01 1.710790238576009870e-04 1.299963449127972126e-03 4.413127317093312740e-04 2.583559835329651833e-04
2.284000000000000000e+03 2.956785011291503906e+01 -1.579250144958496094e+01 -7.404141873121261597e-02 4.667372226715087891e+00 1.377999186515808105e+00 1.991544365882873535e-01
2.285000000000000000e+03 6.882885742187500000e+01 -1.534480285644531250e+01 -8.832285553216934204e-02 8.172939300537109375e+00 2.425384998321533203e+00 -1.915159970521926880e-01
2.286000000000000000e+03 6.911811065673828125e+01 1.467137622833251953e+01 -1.022061333060264587e-01 7.554530143737792969e+00 2.235697269439697266e+00 -8.213092684745788574e-01
2.287000000000000000e+03 6.637553405761718750e+01 -3.144046783447265625e+01 -4.517928510904312134e-02 8.026085853576660156e+00 2.394271850585937500e+00 -6.041418388485908508e-02
2.288000000000000000e+03 7.019820404052734375e+01 -1.283413410186767578e+01 -7.755062729120254517e-02 8.246951103210449219e+00 2.450820207595825195e+00 -2.122630178928375244e-01
2.289000000000000000e+03 7.001184844970703125e+01 1.038435459136962891e+01 -1.242263913154602051e-01 7.689050674438476562e+00 2.269447326660156250e+00 -7.044842243194580078e-01
2.290000000000000000e+03 6.918609619140625000e+01 -2.846834754943847656e+01 -4.254214465618133545e-02 8.282752037048339844e+00 2.472062826156616211e+00 -7.302947342395782471e-02
2.291000000000000000e+03 6.856219482421875000e+01 -2.708415031433105469e+01 -4.842075332999229431e-02 8.236791610717773438e+00 2.456511020660400391e+00 -8.644366264343261719e-02
2.292000000000000000e+03 6.937380218505859375e+01 -8.884233474731445312e+00 -1.076800227165222168e-01 8.150308609008789062e+00 2.412788629531860352e+00 -2.822973132133483887e-01
2.293000000000000000e+03 6.891398620605468750e+01 -2.512016105651855469e+01 -5.169647559523582458e-02 8.231643676757812500e+00 2.453984022140502930e+00 -9.922464936971664429e-02
2.294000000000000000e+03 3.000965118408203125e+01 1.049178004264831543e+00 -2.013313174247741699e-01 4.599369525909423828e+00 1.319411396980285645e+00 6.189272999763488770e-01
2.295000000000000000e+03 2.929190826416015625e+01 2.063754272460937500e+01 1.373296082019805908e-01 3.405100584030151367e+00 1.062729001045227051e+00 1.562320113182067871e+00
2.296000000000000000e+03 6.728404998779296875e+01 -3.375858688354492188e+01 -4.538010433316230774e-02 8.107934951782226562e+00 2.418766498565673828e+00 -5.313325673341751099e-02
2.297000000000000000e+03 9.439204216003417969e+00 1.349596118927001953e+01 -7.851377449696883559e-05 -5.492047639563679695e-04 -1.883155491668730974e-04 5.467319278977811337e-04
2.298000000000000000e+03 1.010337162017822266e+01 1.522930240631103516e+01 1.515624346211552620e-03 2.345439424971118569e-04 5.250505055300891399e-04 5.504616419784724712e-04
2.299000000000000000e+03 7.008586883544921875e+01 2.479197692871093750e+01 9.369765967130661011e-02 7.033784389495849609e+00 2.138244628906250000e+00 -7.894427776336669922e-01
2.300000000000000000e+03 7.178340911865234375e+01 2.376396369934082031e+01 5.099253728985786438e-02 6.915495395660400391e+00 2.089946269989013672e+00 -7.227607369422912598e-01
2.301000000000000000e+03 2.859516143798828125e+01 -2.615528678894042969e+01 -4.590866714715957642e-02 4.576223850250244141e+00 1.359094619750976562e+00 1.219930127263069153e-01
2.302000000000000000e+03 7.958003044128417969e+00 -3.682899475097656250e+01 -1.001949235796928406e-02 2.329974062740802765e-02 3.984074573963880539e-03 -2.113349549472332001e-02
2.303000000000000000e+03 6.776069641113281250e+00 -3.845924377441406250e+01 8.076434955000877380e-03 -3.071647370234131813e-03 1.501436345279216766e-03 -3.360628709197044373e-02
2.304000000000000000e+03 9.003106117248535156e+00 2.163182830810546875e+01 1.859884592704474926e-03 -2.686146472115069628e-04 4.773809923790395260e-04 -4.924414315610192716e-05
2.305000000000000000e+03 3.611516189575195312e+01 3.093330955505371094e+01 2.414699792861938477e+00 8.912528991699218750e+00 3.398168563842773438e+00 5.038630485534667969e+00
2.306000000000000000e+03 3.590088653564453125e+01 3.136656379699707031e+01 2.927289009094238281e+00 8.111721992492675781e+00 3.311703443527221680e+00 5.403946399688720703e+00
2.307000000000000000e+03 3.244355010986328125e+01 2.992521858215332031e+01 2.228494882583618164e+00 2.402610301971435547e+00 1.389331579208374023e+00 2.297809839248657227e+00
2.308000000000000000e+03 3.182926368713378906e+01 3.072600555419921875e+01 2.026054382324218750e+00 1.474461913108825684e+00 1.050154924392700195e+00 1.572783470153808594e+00
2.309000000000000000e+03 3.150790596008300781e+01 2.954611587524414062e+01 1.879799604415893555e+00 2.010174512863159180e+00 1.166992306709289551e+00 1.798631191253662109e+00
2.310000000000000000e+03 3.800830459594726562e+01 2.944170379638671875e+01 5.359246134757995605e-01 1.187752151489257812e+01 3.724033832550048828e+00 2.527079582214355469e+00
2.311000000000000000e+03 2.971844291687011719e+01 2.956740570068359375e+01 1.365445494651794434e+00 1.194539427757263184e+00 7.679954767227172852e-01 9.374955296516418457e-01
2.312000000000000000e+03 2.700092506408691406e+01 2.642052841186523438e+01 6.813406348228454590e-01 1.229010224342346191e+00 5.731052756309509277e-01 7.813194394111633301e-01
2.313000000000000000e+03 2.914940071105957031e+01 2.940785980224609375e+01 1.216995477676391602e+00 1.085139751434326172e+00 6.906405687332153320e-01 7.865926027297973633e-01
2.314000000000000000e+03 2.930154991149902344e+01 2.869804191589355469e+01 1.256037473678588867e+00 1.373917341232299805e+00 7.889864444732666016e-01 1.011751055717468262e+00
2.315000000000000000e+03 8.721652030944824219e+00 -7.536363124847412109e+00 -7.299581193365156651e-04 -4.998528747819364071e-04 -3.689432924147695303e-04 -5.267834058031439781e-04
2.316000000000000000e+03 6.249699592590332031e+00 -7.612648487091064453e+00 -1.615621848031878471e-03 3.291646426077932119e-04 -3.859371645376086235e-04 3.942740295315161347e-05
2.317000000000000000e+03 3.948936462402343750e+01 2.919401741027832031e+01 5.640984177589416504e-01 1.220395946502685547e+01 3.830417156219482422e+00 9.429873824119567871e-01
2.318000000000000000e+03 3.746724700927734375e+01 3.021574401855468750e+01 9.549427628517150879e-01 1.197274875640869141e+01 3.878307580947875977e+00 3.406978845596313477e+00
2.319000000000000000e+03 3.901071166992187500e+01 2.947284126281738281e+01 6.038802862167358398e-01 1.236575984954833984e+01 3.890892028808593750e+00 1.356470465660095215e+00
2.320000000000000000e+03 8.352941513061523438e+00 7.847889423370361328e+00 3.440564323682337999e-04 4.897960461676120758e-04 2.501557464711368084e-04 3.995393926743417978e-04
2.321000000000000000e+03 1.026055431365966797e+01 -6.678417205810546875e+00 -1.406075665727257729e-03 4.185655143373878673e-06 -4.205669974908232689e-04 -1.390074321534484625e-04
2.322000000000000000e+03 9.487854957580566406e+00 -7.107469558715820312e+00 1.433661673218011856e-03 3.759151150006800890e-05 4.413759452290832996e-04 -6.995195144554600120e-05
2.323000000000000000e+03 6.876219940185546875e+01 4.971389770507812500e+00 -1.747614592313766479e-01 7.872606277465820312e+00 2.309353351593017578e+00 -6.108843088150024414e-01
2.324000000000000000e+03 7.014977264404296875e+01 1.089112281799316406e+00 -1.358204931020736694e-01 7.990892887115478516e+00 2.356521844863891602e+00 -4.799858331680297852e-01
2.325000000000000000e+03 2.822638130187988281e+01 2.590314102172851562e+01 7.776799201965332031e-01 1.851855874061584473e+00 7.888607382774353027e-01 1.144513726234436035e+00
2.326000000000000000e+03 6.875695037841796875e+01 -1.180775928497314453e+01 -1.037553176283836365e-01 8.137299537658691406e+00 2.410063266754150391e+00 -2.424645870923995972e-01
2.327000000000000000e+03 6.950201416015625000e+01 1.356109428405761719e+01 -1.062193140387535095e-01 7.578221321105957031e+00 2.241600751876831055e+00 -7.901415228843688965e-01
2.328000000000000000e+03 6.833541870117187500e+01 1.301793289184570312e+01 -1.359258145093917847e-01 7.647467613220214844e+00 2.253462553024291992e+00 -8.233357071876525879e-01
2.329000000000000000e+03 1.013612842559814453e+01 -8.723745346069335938e+00 1.772927818819880486e-03 4.331962554715573788e-04 6.618372281081974506e-04 3.377250395715236664e-04
2.330000000000000000e+03 2.935911750793457031e+01 1.800511550903320312e+01 -9.261507540941238403e-02 3.735097408294677734e+00 1.092744708061218262e+00 1.463692903518676758e+00
2.331000000000000000e+03 3.131899833679199219e+01 -4.200019359588623047e+00 -2.010557651519775391e-01 4.846153259277343750e+00 1.393529295921325684e+00 4.544785320758819580e-01
2.332000000000000000e+03 3.129607772827148438e+01 -2.888085842132568359e+00 -2.158887237310409546e-01 4.839824676513671875e+00 1.387180805206298828e+00 4.932156801223754883e-01
2.333000000000000000e+03 6.664672851562500000e+00 6.488840579986572266e+00 7.161012617871165276e-04 5.664734999299980700e-06 2.165298064937815070e-04 1.749569637468084693e-04
2.334000000000000000e+03 6.773981475830078125e+01 -1.982870674133300781e+01 -8.180406689643859863e-02 8.115345001220703125e+00 2.410062313079833984e+00 -1.463118344545364380e-01
2.335000000000000000e+03 3.120610427856445312e+01 9.824336051940917969e+00 -3.558192849159240723e-01 4.726214408874511719e+00 1.311118483543395996e+00 1.087275147438049316e+00
2.336000000000000000e+03 2.944948196411132812e+01 1.666022872924804688e+01 -1.688313931226730347e-01 3.887302398681640625e+00 1.115541338920593262e+00 1.406707525253295898e+00
2.337000000000000000e+03 3.066553878784179688e+01 2.376864242553710938e+01 5.355851650238037109e-01 3.607950448989868164e+00 1.243060708045959473e+00 1.876791596412658691e+00
2.338000000000000000e+03 2.990105819702148438e+01 9.602831840515136719e+00 -2.782282829284667969e-01 4.382500171661376953e+00 1.231281638145446777e+00 1.043364405632019043e+00
2.339000000000000000e+03 7.197139739990234375e+00 -2.161051940917968750e+01 -1.208389410749077797e-03 -5.991278449073433876e-04 -5.422551766969263554e-04 -1.052361476467922330e-04
2.340000000000000000e+03 3.126558685302734375e+01 -1.360631275177001953e+01 -1.118103563785552979e-01 4.840894222259521484e+00 1.418725132942199707e+00 2.339124977588653564e-01
2.341000000000000000e+03 1.162643909454345703e+01 -3.105151939392089844e+01 1.369512756355106831e-03 -1.477130106650292873e-03 -3.228522837162017822e-05 2.829684410244226456e-03
2.342000000000000000e+03 6.864057159423828125e+01 1.992526435852050781e+01 -7.840594276785850525e-03 7.375823497772216797e+00 2.210394859313964844e+00 -8.903447985649108887e-01
2.343000000000000000e+03 6.811682128906250000e+01 1.805157279968261719e+01 -5.252445489168167114e-02 7.485156059265136719e+00 2.229789495468139648e+00 -9.017501473426818848e-01
2.344000000000000000e+03 8.364763259887695312e+00 1.873760414123535156e+01 -1.312797190621495247e-03 3.932797408197075129e-04 -2.758552436716854572e-04 -3.344436991028487682e-04
2.345000000000000000e+03 6.996096038818359375e+01 7.694956302642822266e+00 -1.381330788135528564e-01 7.787264823913574219e+00 2.294739484786987305e+00 -6.481134295463562012e-01
2.346000000000000000e+03 6.886956024169921875e+01 1.582293510437011719e+01 -8.815232664346694946e-02 7.526432037353515625e+00 2.231483936309814453e+00 -8.513408899307250977e-01
2.347000000000000000e+03 6.978669738769531250e+01 1.745469474792480469e+01 -4.968487471342086792e-02 7.397171974182128906e+00 2.204246044158935547e+00 -8.296665549278259277e-01
2.348000000000000000e+03 2.747582435607910156e+01 2.834362411499023438e+01 8.485565185546875000e-01 9.201899170875549316e-01 5.306239128112792969e-01 5.491572022438049316e-01
2.349000000000000000e+03 2.756744003295898438e+01 2.756282806396484375e+01 8.523335456848144531e-01 1.141390204429626465e+00 5.981171131134033203e-01 7.175028324127197266e-01
2.350000000000000000e+03 3.118262290954589844e+01 2.880372238159179688e+01 1.685553789138793945e+00 2.223486423492431641e+00 1.172711968421936035e+00 1.801589846611022949e+00
2.351000000000000000e+03 2.874786567687988281e+01 2.507903480529785156e+01 7.427038550376892090e-01 2.298234462738037109e+00 9.122815132141113281e-01 1.392307639122009277e+00
2.352000000000000000e+03 7.223660469055175781e+00 -2.872017288208007812e+01 -4.583066795021295547e-03 -4.206983372569084167e-03 -2.637014957144856453e-03 7.072407170198857784e-04
2.353000000000000000e+03 9.322433471679687500e+00 -2.835840797424316406e+01 1.801505917683243752e-03 -1.511299051344394684e-04 4.951127921231091022e-04 6.979769677855074406e-04
2.354000000000000000e+03 6.982953643798828125e+01 -6.534780979156494141e+00 -1.154537126421928406e-01 8.136707305908203125e+00 2.406376123428344727e+00 -3.225473165512084961e-01
2.355000000000000000e+03 6.916587066650390625e+01 -7.550165653228759766e+00 -1.176196858286857605e-01 8.121346473693847656e+00 2.401118278503417969e+00 -3.089331984519958496e-01
2.356000000000000000e+03 7.139507293701171875e+01 7.620926380157470703e+00 -1.059721261262893677e-01 7.780354499816894531e+00 2.302314758300781250e+00 -5.899893641471862793e-01
2.357000000000000000e+03 3.015081405639648438e+01 -8.369997978210449219e+00 -1.290745288133621216e-01 4.704809188842773438e+00 1.372720479965209961e+00 3.494859039783477783e-01
2.358000000000000000e+03 2.996984291076660156e+01 -5.786945819854736328e+00 -1.484121382236480713e-01 4.673056602478027344e+00 1.357393383979797363e+00 4.050684571266174316e-01
2.359000000000000000e+03 2.993378257751464844e+01 -4.454119205474853516e+00 -1.633091121912002563e-01 4.660950183868408203e+00 1.349292397499084473e+00 4.383454322814941406e-01
2.360000000000000000e+03 3.137994384765625000e+01 -1.608755302429199219e+01 -1.036965996026992798e-01 4.847300052642822266e+00 1.423081040382385254e+00 1.921817809343338013e-01
2.361000000000000000e+03 2.940118026733398438e+01 -1.888248825073242188e+01 -7.308787852525711060e-02 4.660724639892578125e+00 1.376290917396545410e+00 1.607253253459930420e-01
2.362000000000000000e+03 3.003934860229492188e+01 6.744149208068847656e+00 -2.555101811885833740e-01 4.487255096435546875e+00 1.269523382186889648e+00 8.940959572792053223e-01
2.363000000000000000e+03 3.133970832824707031e+01 8.391577720642089844e+00 -3.471731841564178467e-01 4.780025959014892578e+00 1.329855799674987793e+00 1.001508712768554688e+00
2.364000000000000000e+03 3.096414184570312500e+01 1.265430164337158203e+01 -3.480271995067596436e-01 4.609714984893798828e+00 1.278506278991699219e+00 1.249714016914367676e+00
2.365000000000000000e+03 6.979273986816406250e+01 -9.656654357910156250e+00 -1.029169857501983643e-01 8.179689407348632812e+00 2.423031568527221680e+00 -2.702154815196990967e-01
2.366000000000000000e+03 3.071235847473144531e+01 1.545514392852783203e+01 -2.819386124610900879e-01 4.443505287170410156e+00 1.248470067977905273e+00 1.415478825569152832e+00
2.367000000000000000e+03 6.970782470703125000e+01 -2.644267845153808594e+01 -4.133319482207298279e-02 8.317104339599609375e+00 2.482731342315673828e+00 -8.692536503076553345e-02
2.368000000000000000e+03 4.136091995239257812e+01 2.787510490417480469e+01 4.629505276679992676e-01 1.119959640502929688e+01 3.498764276504516602e+00 1.437056958675384521e-01
2.369000000000000000e+03 3.147319793701171875e+01 4.076248168945312500e+00 -2.956756651401519775e-01 4.834672451019287109e+00 1.361698985099792480e+00 7.757195234298706055e-01
2.370000000000000000e+03 3.151628494262695312e+01 5.532157897949218750e+00 -3.177732825279235840e-01 4.825281620025634766e+00 1.352252483367919922e+00 8.513588905334472656e-01
2.371000000000000000e+03 4.430473709106445312e+01 3.057529449462890625e+01 2.201340913772583008e+00 1.063844680786132812e+01 3.851936340332031250e+00 -6.681239604949951172e-01
2.372000000000000000e+03 4.279624938964843750e+01 2.951780509948730469e+01 1.528745770454406738e+00 1.120036125183105469e+01 3.818732023239135742e+00 -5.583066940307617188e-01
2.373000000000000000e+03 9.200776100158691406e+00 -2.953473663330078125e+01 -9.390474297106266022e-03 -3.931039478629827499e-03 -3.996454179286956787e-03 2.195968525484204292e-03
2.374000000000000000e+03 6.891326141357421875e+01 2.420570182800292969e+01 9.841308742761611938e-02 7.177524566650390625e+00 2.182781219482421875e+00 -8.509856462478637695e-01
2.375000000000000000e+03 4.597424316406250000e+01 2.991717910766601562e+01 1.783861279487609863e+00 1.015261840820312500e+01 3.580943822860717773e+00 -7.470573186874389648e-01
2.376000000000000000e+03 2.999740600585937500e+01 2.392624092102050781e+01 5.754622817039489746e-01 3.139545679092407227e+00 1.114502429962158203e+00 1.708761572837829590e+00
2.377000000000000000e+03 2.963836669921875000e+01 2.303051948547363281e+01 4.306175410747528076e-01 3.190825462341308594e+00 1.086432933807373047e+00 1.642274022102355957e+00
2.378000000000000000e+03 2.721476745605468750e+01 -2.312111091613769531e+01 -5.659741535782814026e-02 4.439469337463378906e+00 1.314861536026000977e+00 1.459622979164123535e-01
2.379000000000000000e+03 3.291567611694335938e+01 4.168804168701171875e+00 -3.677232861518859863e-01 5.122445583343505859e+00 1.426416635513305664e+00 7.705905437469482422e-01
2.380000000000000000e+03 9.159505844116210938e+00 -3.146765899658203125e+01 -1.731461659073829651e-02 7.560413796454668045e-03 -2.926260931417346001e-03 4.960626829415559769e-03
2.381000000000000000e+03 2.599548912048339844e+01 -3.004531478881835938e+01 3.078371100127696991e-02 4.270526885986328125e+00 1.290393114089965820e+00 1.245476454496383667e-01
2.382000000000000000e+03 6.940411376953125000e+01 2.641851234436035156e+01 1.538747996091842651e-01 7.036054134368896484e+00 2.156978607177734375e+00 -7.879301309585571289e-01
2.383000000000000000e+03 3.031848335266113281e+01 -2.722312545776367188e+01 -3.223451226949691772e-02 4.709419250488281250e+00 1.403155446052551270e+00 9.812691062688827515e-02
2.384000000000000000e+03 6.590106201171875000e+01 -2.933352279663085938e+01 -7.081513106822967529e-02 7.970652103424072266e+00 2.369951248168945312e+00 -6.943769752979278564e-02
2.385000000000000000e+03 7.011708831787109375e+01 3.277919387817382812e+01 2.914672195911407471e-01 6.701352119445800781e+00 2.097845792770385742e+00 -5.310438275337219238e-01
2.386000000000000000e+03 6.699134063720703125e+01 -2.159627914428710938e+01 -8.039204031229019165e-02 8.057871818542480469e+00 2.393243789672851562e+00 -1.309254765510559082e-01
2.387000000000000000e+03 3.565840530395507812e+01 3.069669151306152344e+01 2.490356206893920898e+00 7.389955997467041016e+00 2.964093685150146484e+00 4.803799152374267578e+00
2.388000000000000000e+03 3.266373062133789062e+01 3.078330230712890625e+01 2.423081398010253906e+00 1.894109129905700684e+00 1.295157194137573242e+00 2.128361940383911133e+00
2.389000000000000000e+03 3.216679000854492188e+01 2.931009864807128906e+01 1.997601866722106934e+00 2.587666034698486328e+00 1.375580430030822754e+00 2.242012500762939453e+00
2.390000000000000000e+03 3.306061172485351562e+01 3.088185691833496094e+01 2.611592531204223633e+00 2.218913555145263672e+00 1.449151754379272461e+00 2.472004175186157227e+00
2.391000000000000000e+03 3.542778015136718750e+01 3.161094284057617188e+01 3.556917428970336914e+00 5.962558746337890625e+00 2.855842828750610352e+00 5.142416000366210938e+00
2.392000000000000000e+03 3.044261169433593750e+01 2.911229324340820312e+01 1.552137017250061035e+00 1.675428271293640137e+00 9.682695865631103516e-01 1.368479371070861816e+00
2.393000000000000000e+03 3.145156669616699219e+01 2.549722671508789062e+01 8.977998495101928711e-01 3.637913465499877930e+00 1.360713958740234375e+00 2.077301502227783203e+00
2.394000000000000000e+03 3.667181396484375000e+01 2.943288421630859375e+01 1.025584101676940918e+00 9.805599212646484375e+00 3.249354839324951172e+00 3.710886478424072266e+00
2.395000000000000000e+03 2.871677207946777344e+01 2.856237792968750000e+01 1.132800340652465820e+00 1.245632767677307129e+00 7.135299444198608398e-01 8.597487807273864746e-01
2.396000000000000000e+03 2.822174263000488281e+01 2.775906372070312500e+01 9.614072442054748535e-01 1.288438677787780762e+00 6.749537587165832520e-01 8.442497253417968750e-01
2.397000000000000000e+03 2.781977272033691406e+01 2.674046516418457031e+01 8.346155285835266113e-01 1.450503706932067871e+00 6.855357885360717773e-01 9.303575754165649414e-01
2.398000000000000000e+03 4.079872512817382812e+01 2.896655464172363281e+01 8.607634305953979492e-01 1.182195758819580078e+01 3.804816246032714844e+00 1.417464762926101685e-01
2.399000000000000000e+03 2.972142601013183594e+01 2.710377311706542969e+01 1.155418157577514648e+00 2.117936849594116211e+00 9.820064902305603027e-01 1.448651909828186035e+00
2.400000000000000000e+03 2.811693000793457031e+01 2.844569778442382812e+01 9.913624525070190430e-01 1.097875595092773438e+00 6.267713904380798340e-01 6.996526718139648438e-01
2.401000000000000000e+03 2.852478027343750000e+01 2.717304420471191406e+01 9.966385364532470703e-01 1.601333498954772949e+00 7.793916463851928711e-01 1.067750692367553711e+00
2.402000000000000000e+03 2.951800155639648438e+01 2.580129814147949219e+01 9.274161458015441895e-01 2.451370716094970703e+00 1.013636112213134766e+00 1.544031143188476562e+00
2.403000000000000000e+03 9.051580429077148438e+00 9.006124496459960938e+00 8.872454636730253696e-04 1.682633592281490564e-05 2.712215355131775141e-04 2.865908318199217319e-04
2.404000000000000000e+03 3.742537689208984375e+01 2.874735641479492188e+01 5.219407677650451660e-01 1.052636909484863281e+01 3.314492940902709961e+00 2.907060861587524414e+00
2.405000000000000000e+03 6.741997528076171875e+01 1.215835380554199219e+01 -1.646220684051513672e-01 7.706584930419921875e+00 2.262588977813720703e+00 -8.342205286026000977e-01
2.406000000000000000e+03 6.709526062011718750e+01 1.078671264648437500e+01 -1.871118396520614624e-01 7.751105308532714844e+00 2.269198179244995117e+00 -8.121273517608642578e-01
2.407000000000000000e+03 3.175115776062011719e+01 1.698934936523437500e+01 -2.882382571697235107e-01 4.794138908386230469e+00 1.351770162582397461e+00 1.558686137199401855e+00
2.408000000000000000e+03 3.164473724365234375e+01 1.828746223449707031e+01 -2.032613605260848999e-01 4.684430599212646484e+00 1.344350814819335938e+00 1.638942122459411621e+00
2.409000000000000000e+03 6.828795623779296875e+01 -2.180087327957153320e+00 -1.684082895517349243e-01 7.998055458068847656e+00 2.348894119262695312e+00 -4.405468106269836426e-01
2.410000000000000000e+03 6.796759033203125000e+01 -7.141038417816162109e+00 -1.509862095117568970e-01 8.047652244567871094e+00 2.368999958038330078e+00 -3.369380831718444824e-01
2.411000000000000000e+03 3.185926628112792969e+01 1.563598155975341797e+01 -3.579910099506378174e-01 4.869522571563720703e+00 1.353459477424621582e+00 1.457405090332031250e+00
2.412000000000000000e+03 3.252156448364257812e+01 1.009646129608154297e+01 -4.344199001789093018e-01 5.080695152282714844e+00 1.393882632255554199e+00 1.107244253158569336e+00
2.413000000000000000e+03 3.238244247436523438e+01 1.150395011901855469e+01 -4.353007078170776367e-01 5.042539596557617188e+00 1.382171630859375000e+00 1.193143010139465332e+00
2.414000000000000000e+03 6.663937377929687500e+01 2.030761718750000000e+01 3.390242345631122589e-03 7.512093544006347656e+00 2.254645109176635742e+00 -9.654213190078735352e-01
2.415000000000000000e+03 6.855247497558593750e+01 1.695564460754394531e+01 -7.065848261117935181e-02 7.497986316680908203e+00 2.228198289871215820e+00 -8.798454999923706055e-01
2.416000000000000000e+03 3.040357017517089844e+01 1.938361358642578125e+01 -4.172764346003532410e-02 4.068464756011962891e+00 1.208021163940429688e+00 1.629492640495300293e+00
2.417000000000000000e+03 3.037572097778320312e+01 2.059882545471191406e+01 9.078133106231689453e-02 3.949349880218505859e+00 1.212039351463317871e+00 1.691004276275634766e+00
2.418000000000000000e+03 3.272127532958984375e+01 8.684053421020507812e+00 -4.330352842807769775e-01 5.124711990356445312e+00 1.407503128051757812e+00 1.022915124893188477e+00
2.419000000000000000e+03 3.059303092956542969e+01 2.287455368041992188e+01 3.984429538249969482e-01 3.736253023147583008e+00 1.240408778190612793e+00 1.842136621475219727e+00
2.420000000000000000e+03 3.065437507629394531e+01 2.850582313537597656e+01 1.535683512687683105e+00 2.049110412597656250e+00 1.075438141822814941e+00 1.607508063316345215e+00
2.421000000000000000e+03 8.046976089477539062e+00 1.982421302795410156e+01 7.449632394127547741e-04 -2.696812443900853395e-04 1.425845985068008304e-04 1.827116939239203930e-04
2.422000000000000000e+03 6.863768768310546875e+01 6.331660270690917969e+00 -1.789378970861434937e-01 7.838244438171386719e+00 2.297791957855224609e+00 -6.545994877815246582e-01
2.423000000000000000e+03 6.323249435424804688e+01 -2.020540809631347656e+01 -1.228002682328224182e-01 7.761429309844970703e+00 2.291588544845581055e+00 -1.472761034965515137e-01
2.424000000000000000e+03 6.588047790527343750e+01 -2.545385551452636719e+01 -6.672667711973190308e-02 7.984755039215087891e+00 2.375408411026000977e+00 -1.040143668651580811e-01
2.425000000000000000e+03 3.083334541320800781e+01 1.405726146697998047e+01 -3.241701126098632812e-01 4.530734539031982422e+00 1.261969447135925293e+00 1.331418871879577637e+00
2.426000000000000000e+03 7.013425445556640625e+01 -1.166946506500244141e+01 -8.315412700176239014e-02 8.230074882507324219e+00 2.444076299667358398e+00 -2.289781272411346436e-01
2.427000000000000000e+03 6.885738372802734375e+01 -1.296909427642822266e+01 -9.270568937063217163e-02 8.155046463012695312e+00 2.418702363967895508e+00 -2.264679223299026489e-01
2.428000000000000000e+03 3.149610710144042969e+01 1.948027992248535156e+01 -9.957954287528991699e-02 4.572300434112548828e+00 1.341816306114196777e+00 1.707502841949462891e+00
2.429000000000000000e+03 3.147167778015136719e+01 6.965737819671630859e+00 -3.343443274497985840e-01 4.808468818664550781e+00 1.342237353324890137e+00 9.203975796699523926e-01
2.430000000000000000e+03 6.781752777099609375e+01 1.425566768646240234e+01 -1.269729882478713989e-01 7.627727508544921875e+00 2.250226259231567383e+00 -8.630844354629516602e-01
2.431000000000000000e+03 3.139896202087402344e+01 -5.496033668518066406e+00 -1.916412264108657837e-01 4.862368583679199219e+00 1.401218175888061523e+00 4.169282019138336182e-01
2.432000000000000000e+03 3.141789054870605469e+01 2.628793239593505859e+00 -2.766983807086944580e-01 4.831895351409912109e+00 1.366559147834777832e+00 7.028627991676330566e-01
2.433000000000000000e+03 3.004213714599609375e+01 2.468978404998779297e+00 -2.106213420629501343e-01 4.578225612640380859e+00 1.310281276702880859e+00 6.817005276679992676e-01
2.434000000000000000e+03 3.048222160339355469e+01 2.178693008422851562e+01 2.426985800266265869e-01 3.860912799835205078e+00 1.231083393096923828e+00 1.770376920700073242e+00
2.435000000000000000e+03 3.308990097045898438e+01 5.699622154235839844e+00 -4.052422046661376953e-01 5.179056644439697266e+00 1.432144284248352051e+00 8.499128222465515137e-01
2.436000000000000000e+03 3.221239471435546875e+01 1.288574600219726562e+01 -4.220773279666900635e-01 4.993079662322998047e+00 1.371300697326660156e+00 1.275153636932373047e+00
2.437000000000000000e+03 3.201382446289062500e+01 1.425947475433349609e+01 -3.930870592594146729e-01 4.936821460723876953e+00 1.363120436668395996e+00 1.361113309860229492e+00
2.438000000000000000e+03 3.301876831054687500e+01 7.234339237213134766e+00 -4.281047284603118896e-01 5.181957244873046875e+00 1.426155686378479004e+00 9.319004416465759277e-01
2.439000000000000000e+03 6.885057830810546875e+01 3.684889554977416992e+00 -1.701598167419433594e-01 7.900931835174560547e+00 2.319231510162353516e+00 -5.772969722747802734e-01
2.440000000000000000e+03 6.884955596923828125e+01 1.287641882896423340e+00 -1.669308245182037354e-01 7.955034255981445312e+00 2.336431026458740234e+00 -5.146753787994384766e-01
2.441000000000000000e+03 6.773014068603515625e+01 2.118272209167480469e+01 2.436750940978527069e-02 7.394092082977294922e+00 2.225537776947021484e+00 -9.248203635215759277e-01
2.442000000000000000e+03 3.280412292480468750e+01 2.727409601211547852e+00 -3.388490974903106689e-01 5.083645820617675781e+00 1.423439025878906250e+00 7.060081958770751953e-01
2.443000000000000000e+03 4.198131179809570312e+01 2.603674125671386719e+01 -5.799686163663864136e-02 1.040785408020019531e+01 3.104957103729248047e+00 1.846491694450378418e-01
2.444000000000000000e+03 3.093962097167968750e+01 -1.871757507324218750e+01 -9.637445211410522461e-02 4.789949417114257812e+00 1.408072471618652344e+00 1.618096530437469482e-01
2.445000000000000000e+03 4.532373046875000000e+01 2.831887817382812500e+01 1.127818822860717773e+00 1.024035644531250000e+01 3.410452604293823242e+00 -7.654352784156799316e-01
2.446000000000000000e+03 6.975158691406250000e+01 2.284190368652343750e+01 5.728629603981971741e-02 7.171370029449462891e+00 2.168596744537353516e+00 -8.386187553405761719e-01
2.447000000000000000e+03 3.290136718750000000e+01 -1.691487312316894531e+01 -1.177048161625862122e-01 5.030224323272705078e+00 1.473755955696105957e+00 1.720000207424163818e-01
2.448000000000000000e+03 6.850395202636718750e+01 -1.013799309730529785e+00 -1.656966954469680786e-01 7.988513469696044922e+00 2.346844911575317383e+00 -4.659074544906616211e-01
2.449000000000000000e+03 6.803218841552734375e+01 2.581310462951660156e+01 1.625521332025527954e-01 7.200727939605712891e+00 2.208984136581420898e+00 -8.551394939422607422e-01
2.450000000000000000e+03 6.711244201660156250e+01 2.765859794616699219e+01 2.550758123397827148e-01 7.229485988616943359e+00 2.245368480682373047e+00 -8.405824899673461914e-01
2.451000000000000000e+03 2.523529243469238281e+01 -3.332466506958007812e+01 9.256443381309509277e-02 4.121460437774658203e+00 1.264207482337951660e+00 3.057110309600830078e-02
2.452000000000000000e+03 3.211845016479492188e+01 -3.536637878417968750e+01 -9.549958258867263794e-02 4.853433132171630859e+00 1.427380084991455078e+00 -2.257847227156162262e-02
2.453000000000000000e+03 3.175261306762695312e+01 -2.556446838378906250e+01 -7.498934864997863770e-02 4.866135120391845703e+00 1.437343716621398926e+00 1.076676994562149048e-01
2.454000000000000000e+03 3.014844703674316406e+01 -2.425681686401367188e+01 -5.612727254629135132e-02 4.666871547698974609e+00 1.383223176002502441e+00 1.253457814455032349e-01
2.455000000000000000e+03 3.599512100219726562e+01 3.021088790893554688e+01 1.806711435317993164e+00 8.524301528930664062e+00 3.099303960800170898e+00 4.463649272918701172e+00
2.456000000000000000e+03 3.281844711303710938e+01 3.013303375244140625e+01 2.386664152145385742e+00 2.599597692489624023e+00 1.495878577232360840e+00 2.544097900390625000e+00
2.457000000000000000e+03 3.545433807373046875e+01 3.118412017822265625e+01 3.072496414184570312e+00 6.522298336029052734e+00 2.878438472747802734e+00 4.903102874755859375e+00
2.458000000000000000e+03 3.305233383178710938e+01 2.984907150268554688e+01 2.310257434844970703e+00 3.062464237213134766e+00 1.611816525459289551e+00 2.748041391372680664e+00
2.459000000000000000e+03 3.232383346557617188e+01 3.032142066955566406e+01 2.245371818542480469e+00 1.975043654441833496e+00 1.266124606132507324e+00 2.050510644912719727e+00
2.460000000000000000e+03 3.236147689819335938e+01 2.890772628784179688e+01 1.901944518089294434e+00 2.975850105285644531e+00 1.463338375091552734e+00 2.414453983306884766e+00
2.461000000000000000e+03 3.605954742431640625e+01 2.975039291381835938e+01 1.542987465858459473e+00 8.676831245422363281e+00 3.065945625305175781e+00 4.238590240478515625e+00
2.462000000000000000e+03 3.867320251464843750e+01 2.890740013122558594e+01 3.729700744152069092e-01 1.170165538787841797e+01 3.622387647628784180e+00 1.760921478271484375e+00
2.463000000000000000e+03 4.062869262695312500e+01 2.812362670898437500e+01 3.785271048545837402e-01 1.139969062805175781e+01 3.533465385437011719e+00 4.007222056388854980e-01
2.464000000000000000e+03 3.994492340087890625e+01 2.833262443542480469e+01 3.755603730678558350e-01 1.158570575714111328e+01 3.588379859924316406e+00 8.329886794090270996e-01
2.465000000000000000e+03 2.900577354431152344e+01 2.653777313232421875e+01 9.735493659973144531e-01 1.990218520164489746e+00 8.891303539276123047e-01 1.302448987960815430e+00
2.466000000000000000e+03 3.038920783996582031e+01 2.753230857849121094e+01 1.330623626708984375e+00 2.317566633224487305e+00 1.094457030296325684e+00 1.659026741981506348e+00
2.467000000000000000e+03 3.627276611328125000e+01 2.901529312133789062e+01 1.063544034957885742e+00 8.883921623229980469e+00 2.984239578247070312e+00 3.578813076019287109e+00
2.468000000000000000e+03 3.017538452148437500e+01 2.642699432373046875e+01 1.081077814102172852e+00 2.561364173889160156e+00 1.092732667922973633e+00 1.686829686164855957e+00
2.469000000000000000e+03 3.138396644592285156e+01 2.057778358459472656e+01 2.786249481141567230e-02 4.453976631164550781e+00 1.344551682472229004e+00 1.786843299865722656e+00
2.470000000000000000e+03 3.056895256042480469e+01 2.450707435607910156e+01 6.920887827873229980e-01 3.336422920227050781e+00 1.208553433418273926e+00 1.842386484146118164e+00
2.471000000000000000e+03 3.010449409484863281e+01 2.515439033508300781e+01 8.249410986900329590e-01 2.952080726623535156e+00 1.133106470108032227e+00 1.744889974594116211e+00
2.472000000000000000e+03 3.402965545654296875e+01 1.597594642639160156e+01 -4.879845976829528809e-01 5.653419971466064453e+00 1.549630641937255859e+00 1.447216868400573730e+00
2.473000000000000000e+03 3.283702087402343750e+01 1.850059890747070312e+01 -2.846651375293731689e-01 5.243996143341064453e+00 1.487799286842346191e+00 1.682778596878051758e+00
2.474000000000000000e+03 3.147174453735351562e+01 2.162113952636718750e+01 1.602832674980163574e-01 4.397357940673828125e+00 1.367292404174804688e+00 1.885366201400756836e+00
2.475000000000000000e+03 6.995469665527343750e+01 9.048750877380371094e+00 -1.321700364351272583e-01 7.737549781799316406e+00 2.281613826751708984e+00 -6.787513494491577148e-01
2.476000000000000000e+03 6.719842529296875000e+01 -5.594849586486816406e+00 -1.734733730554580688e-01 7.991888523101806641e+00 2.345524549484252930e+00 -3.758584558963775635e-01
2.477000000000000000e+03 3.404271316528320312e+01 9.090090751647949219e+00 -5.065492987632751465e-01 5.437372207641601562e+00 1.479246854782104492e+00 1.010682463645935059e+00
2.478000000000000000e+03 3.350933837890625000e+01 1.319092273712158203e+01 -5.014860630035400391e-01 5.421419620513916016e+00 1.475980043411254883e+00 1.273931026458740234e+00
2.479000000000000000e+03 6.899610137939453125e+01 -4.896658420562744141e+00 -1.403178274631500244e-01 8.068276405334472656e+00 2.378387451171875000e+00 -3.688932359218597412e-01
2.480000000000000000e+03 6.989371490478515625e+01 -1.364629626274108887e+00 -1.336732804775238037e-01 8.041681289672851562e+00 2.372402429580688477e+00 -4.301265478134155273e-01
2.481000000000000000e+03 3.418738174438476562e+01 1.481305694580078125e+01 -5.308680534362792969e-01 5.638196468353271484e+00 1.532198548316955566e+00 1.373792171478271484e+00
2.482000000000000000e+03 3.380855560302734375e+01 1.038814449310302734e+01 -5.133646130561828613e-01 5.433755874633789062e+00 1.476117491722106934e+00 1.095868468284606934e+00
2.483000000000000000e+03 7.016015625000000000e+01 3.651008367538452148e+00 -1.393878757953643799e-01 7.919417381286621094e+00 2.334008932113647461e+00 -5.415959358215332031e-01
2.484000000000000000e+03 3.266733932495117188e+01 -3.920603752136230469e+00 -2.451898604631423950e-01 5.035793781280517578e+00 1.437181234359741211e+00 4.631454050540924072e-01
2.485000000000000000e+03 3.266442871093750000e+01 -2.668893098831176758e+00 -2.587751746177673340e-01 5.032444000244140625e+00 1.432100653648376465e+00 5.009172558784484863e-01
2.486000000000000000e+03 3.154747390747070312e+01 -6.763201236724853516e+00 -1.771771311759948730e-01 4.881722927093505859e+00 1.411363720893859863e+00 3.836830556392669678e-01
2.487000000000000000e+03 4.062108230590820312e+01 2.670351409912109375e+01 -3.103621676564216614e-02 1.067007160186767578e+01 3.191710710525512695e+00 6.451541781425476074e-01
2.488000000000000000e+03 6.766865539550781250e+01 2.528091430664062500e+00 -2.011426985263824463e-01 7.907912731170654297e+00 2.312031030654907227e+00 -5.739129781723022461e-01
2.489000000000000000e+03 6.753487396240234375e+01 3.657192707061767578e+00 -2.004210352897644043e-01 7.890730857849121094e+00 2.307092905044555664e+00 -5.989475250244140625e-01
2.490000000000000000e+03 6.869496917724609375e+01 1.182919883728027344e+01 -1.387818157672882080e-01 7.667950630187988281e+00 2.258750677108764648e+00 -7.816366553306579590e-01
2.491000000000000000e+03 6.849931335449218750e+01 7.740950107574462891e+00 -1.736961454153060913e-01 7.798337936401367188e+00 2.287392616271972656e+00 -6.958268880844116211e-01
2.492000000000000000e+03 6.854814147949218750e+01 1.052885437011718750e+01 -1.544893383979797363e-01 7.714772224426269531e+00 2.268085002899169922e+00 -7.596223354339599609e-01
2.493000000000000000e+03 2.862371635437011719e+01 -5.297408103942871094e-01 -1.451143324375152588e-01 4.410519123077392578e+00 1.279621362686157227e+00 5.321684479713439941e-01
2.494000000000000000e+03 6.738497924804687500e+01 -1.201866531372070312e+01 -1.204381361603736877e-01 8.059104919433593750e+00 2.381600141525268555e+00 -2.509645819664001465e-01
2.495000000000000000e+03 2.890858078002929688e+01 -1.135131168365478516e+01 -8.042253553867340088e-02 4.571512222290039062e+00 1.347326993942260742e+00 2.767932713031768799e-01
2.496000000000000000e+03 3.075712776184082031e+01 -1.226037693023681641e+01 -1.122159957885742188e-01 4.771500110626220703e+00 1.397785186767578125e+00 2.615864574909210205e-01
2.497000000000000000e+03 3.136973762512207031e+01 1.211920142173767090e+00 -2.569802403450012207e-01 4.827742099761962891e+00 1.371228456497192383e+00 6.403905749320983887e-01
2.498000000000000000e+03 3.418735885620117188e+01 2.750258922576904297e+00 -3.976314663887023926e-01 5.334187507629394531e+00 1.480966806411743164e+00 6.879187822341918945e-01
2.499000000000000000e+03 3.133224296569824219e+01 -1.810169667005538940e-01 -2.420245409011840820e-01 4.830784797668457031e+00 1.376628041267395020e+00 5.841004252433776855e-01
2.500000000000000000e+03 3.130514144897460938e+01 -1.550107002258300781e+00 -2.263567149639129639e-01 4.829881191253662109e+00 1.381057381629943848e+00 5.371271967887878418e-01
2.501000000000000000e+03 3.315633392333984375e+01 1.450412750244140625e+01 -4.712193906307220459e-01 5.329671382904052734e+00 1.457535505294799805e+00 1.381281137466430664e+00
2.502000000000000000e+03 7.032601928710937500e+01 1.504127025604248047e+01 -7.617927342653274536e-02 7.477286338806152344e+00 2.220332145690917969e+00 -7.748343944549560547e-01
2.503000000000000000e+03 7.009706115722656250e+01 1.622311401367187500e+01 -6.555557250976562500e-02 7.433539867401123047e+00 2.210395336151123047e+00 -8.016663193702697754e-01
2.504000000000000000e+03 3.267734146118164062e+01 -1.278331470489501953e+01 -1.469196230173110962e-01 4.994186401367187500e+00 1.454180002212524414e+00 2.477617561817169189e-01
2.505000000000000000e+03 3.227260971069335938e+01 -1.170490455627441406e+01 -1.441282182931900024e-01 4.957542896270751953e+00 1.444024324417114258e+00 2.653405070304870605e-01
2.506000000000000000e+03 7.051422882080078125e+01 1.395120239257812500e+01 -8.507424592971801758e-02 7.512943267822265625e+00 2.228360652923583984e+00 -7.510101199150085449e-01
2.507000000000000000e+03 3.237723541259765625e+01 -1.473768520355224609e+01 -1.224958747625350952e-01 4.953757286071777344e+00 1.449378490447998047e+00 2.102613598108291626e-01
2.508000000000000000e+03 3.714437103271484375e+01 1.320557594299316406e+00 -4.871654808521270752e-01 5.813322067260742188e+00 1.597846984863281250e+00 5.590730309486389160e-01
2.509000000000000000e+03 6.662830352783203125e+01 -1.773587417602539062e+01 -1.027801558375358582e-01 8.018578529357910156e+00 2.374739408493041992e+00 -1.722340583801269531e-01
2.510000000000000000e+03 6.738079071044921875e+01 1.646637725830078125e+01 -9.324733167886734009e-02 7.586501598358154297e+00 2.247976303100585938e+00 -9.143863916397094727e-01
2.511000000000000000e+03 4.145144271850585938e+01 2.701175880432128906e+01 1.383415609598159790e-01 1.085129642486572266e+01 3.296891450881958008e+00 2.398475259542465210e-01
2.512000000000000000e+03 4.401612472534179688e+01 2.907978057861328125e+01 1.370236635208129883e+00 1.067151069641113281e+01 3.612524032592773438e+00 -6.834045052528381348e-01
2.513000000000000000e+03 3.202024841308593750e+01 -1.804006385803222656e+01 -1.039974838495254517e-01 4.909716606140136719e+00 1.441715836524963379e+00 1.627892255783081055e-01
2.514000000000000000e+03 4.890674591064453125e+01 2.737776947021484375e+01 8.638661503791809082e-01 9.438173294067382812e+00 3.090611696243286133e+00 -9.200693368911743164e-01
2.515000000000000000e+03 4.680961608886718750e+01 3.163232994079589844e+01 2.209179401397705078e+00 9.968239784240722656e+00 3.653225660324096680e+00 -5.209749341011047363e-01
2.516000000000000000e+03 6.778137207031250000e+01 2.343864440917968750e+01 9.556448459625244141e-02 7.311532497406005859e+00 2.222129106521606445e+00 -9.100458025932312012e-01
2.517000000000000000e+03 6.641576385498046875e+01 -2.349577903747558594e+01 -7.609795033931732178e-02 8.018466949462890625e+00 2.382710695266723633e+00 -1.149687319993972778e-01
2.518000000000000000e+03 6.764900970458984375e+01 -2.600500488281250000e+01 -5.667081475257873535e-02 8.129490852355957031e+00 2.421845912933349609e+00 -9.461794793605804443e-02
2.519000000000000000e+03 6.755855560302734375e+01 -8.286168098449707031e+00 -1.434209048748016357e-01 8.041821479797363281e+00 2.369520187377929688e+00 -3.138616979122161865e-01
2.520000000000000000e+03 3.100313186645507812e+01 -2.283967018127441406e+01 -8.510901033878326416e-02 4.797714233398437500e+00 1.413781642913818359e+00 1.239925771951675415e-01
2.521000000000000000e+03 3.304862594604492188e+01 3.044488906860351562e+01 2.532320022583007812e+00 2.563706636428833008e+00 1.528807997703552246e+00 2.613312244415283203e+00
2.522000000000000000e+03 3.636438751220703125e+01 2.854393196105957031e+01 8.289161324501037598e-01 8.885305404663085938e+00 2.914266347885131836e+00 3.411593675613403320e+00
2.523000000000000000e+03 3.262741088867187500e+01 2.955675315856933594e+01 2.149750471115112305e+00 2.846915960311889648e+00 1.498999953269958496e+00 2.503438472747802734e+00
2.524000000000000000e+03 3.477951049804687500e+01 3.068567657470703125e+01 2.829600572586059570e+00 5.151137828826904297e+00 2.394221544265747070e+00 4.197502613067626953e+00
2.525000000000000000e+03 3.212726593017578125e+01 2.821976089477539062e+01 1.682742357254028320e+00 3.120528221130371094e+00 1.440981149673461914e+00 2.333439588546752930e+00
2.526000000000000000e+03 3.168525886535644531e+01 2.906810188293457031e+01 1.851310014724731445e+00 2.376276493072509766e+00 1.268275976181030273e+00 2.026660919189453125e+00
2.527000000000000000e+03 3.226966476440429688e+01 2.390616226196289062e+01 4.610492885112762451e-01 4.584860324859619141e+00 1.513772845268249512e+00 2.169239997863769531e+00
2.528000000000000000e+03 3.114833259582519531e+01 2.654726219177246094e+01 1.163087129592895508e+00 3.182333707809448242e+00 1.303626179695129395e+00 2.027103424072265625e+00
2.529000000000000000e+03 3.094562721252441406e+01 2.795870399475097656e+01 1.485014200210571289e+00 2.476255655288696289e+00 1.188380956649780273e+00 1.825819373130798340e+00
2.530000000000000000e+03 3.184895896911621094e+01 2.244259834289550781e+01 2.431269884109497070e-01 4.488578319549560547e+00 1.419511556625366211e+00 1.985874056816101074e+00
2.531000000000000000e+03 3.222972869873046875e+01 2.472667121887207031e+01 6.653088331222534180e-01 4.419974803924560547e+00 1.525585055351257324e+00 2.248698234558105469e+00
2.532000000000000000e+03 3.071822738647460938e+01 2.693849754333496094e+01 1.235832333564758301e+00 2.729917526245117188e+00 1.189724922180175781e+00 1.813679814338684082e+00
2.533000000000000000e+03 3.295993804931640625e+01 2.494650840759277344e+01 6.191759705543518066e-01 4.896146774291992188e+00 1.654596924781799316e+00 2.361117601394653320e+00
2.534000000000000000e+03 3.642169952392578125e+01 2.768039512634277344e+01 5.288628935813903809e-01 8.578305244445800781e+00 2.732150316238403320e+00 3.011668205261230469e+00
2.535000000000000000e+03 3.929266357421875000e+01 2.857042121887207031e+01 3.224717676639556885e-01 1.170707988739013672e+01 3.608865499496459961e+00 1.141462087631225586e+00
2.536000000000000000e+03 3.933001327514648438e+01 2.724674797058105469e+01 -4.114742949604988098e-02 1.073969650268554688e+01 3.209564685821533203e+00 1.309888720512390137e+00
2.537000000000000000e+03 3.076633071899414062e+01 2.587089347839355469e+01 9.847103357315063477e-01 3.130687713623046875e+00 1.234619498252868652e+00 1.909533262252807617e+00
2.538000000000000000e+03 3.182117652893066406e+01 2.705482673645019531e+01 1.354557991027832031e+00 3.396364688873291016e+00 1.425276756286621094e+00 2.275886297225952148e+00
2.539000000000000000e+03 3.136505126953125000e+01 2.469301223754882812e+01 7.126123905181884766e-01 3.744220733642578125e+00 1.337049961090087891e+00 2.022259235382080078e+00
2.540000000000000000e+03 6.748884582519531250e+01 4.913150787353515625e+00 -2.125176191329956055e-01 7.869677066802978516e+00 2.297147750854492188e+00 -6.363424658775329590e-01
2.541000000000000000e+03 3.229355239868164062e+01 2.140750694274902344e+01 5.605294182896614075e-02 4.874854564666748047e+00 1.479272246360778809e+00 1.938821792602539062e+00
2.542000000000000000e+03 3.142205429077148438e+01 2.385475921630859375e+01 5.212647318840026855e-01 3.972549438476562500e+00 1.348144292831420898e+00 1.999128937721252441e+00
2.543000000000000000e+03 3.227078628540039062e+01 2.063844871520996094e+01 -3.476810082793235779e-02 4.912955284118652344e+00 1.463456273078918457e+00 1.866531610488891602e+00
2.544000000000000000e+03 4.283794021606445312e+01 2.678964233398437500e+01 2.965502440929412842e-01 1.057458019256591797e+01 3.261339187622070312e+00 -2.093702852725982666e-01
2.545000000000000000e+03 6.890373992919921875e+01 2.461717605590820312e+00 -1.696224510669708252e-01 7.931222915649414062e+00 2.328480243682861328e+00 -5.446708202362060547e-01
2.546000000000000000e+03 3.400489044189453125e+01 1.852674484252929688e+01 -3.795109987258911133e-01 5.752775192260742188e+00 1.611979246139526367e+00 1.672827482223510742e+00
2.547000000000000000e+03 3.395497894287109375e+01 1.721641921997070312e+01 -4.477261900901794434e-01 5.677645206451416016e+00 1.568975687026977539e+00 1.548982381820678711e+00
2.548000000000000000e+03 3.293693161010742188e+01 2.293655586242675781e+01 2.276872992515563965e-01 5.092986106872558594e+00 1.596202015876770020e+00 2.132671833038330078e+00
2.549000000000000000e+03 3.468162918090820312e+01 1.383011627197265625e+01 -5.772020220756530762e-01 5.800924777984619141e+00 1.567116856575012207e+00 1.277722954750061035e+00
2.550000000000000000e+03 3.505827713012695312e+01 1.607648468017578125e+01 -5.744841098785400391e-01 6.069844245910644531e+00 1.648607969284057617e+00 1.399959087371826172e+00
2.551000000000000000e+03 3.508743286132812500e+01 1.181897735595703125e+01 -5.968183875083923340e-01 5.809655666351318359e+00 1.563851118087768555e+00 1.145343780517578125e+00
2.552000000000000000e+03 3.604863739013671875e+01 5.012314319610595703e+00 -5.292367935180664062e-01 5.759092807769775391e+00 1.568956732749938965e+00 7.401298880577087402e-01
2.553000000000000000e+03 3.526359939575195312e+01 9.582769393920898438e+00 -5.852636694908142090e-01 5.777728080749511719e+00 1.557739377021789551e+00 9.918755292892456055e-01
2.554000000000000000e+03 3.172735023498535156e+01 -8.001216888427734375e+00 -1.691445708274841309e-01 4.892064571380615234e+00 1.416876077651977539e+00 3.499102294445037842e-01
2.555000000000000000e+03 2.874372100830078125e+01 -1.000302028656005859e+01 -8.128930628299713135e-02 4.545315742492675781e+00 1.339208006858825684e+00 3.103349506855010986e-01
2.556000000000000000e+03 6.845772552490234375e+01 9.155828475952148438e+00 -1.657299250364303589e-01 7.760375976562500000e+00 2.278393745422363281e+00 -7.302355766296386719e-01
2.557000000000000000e+03 6.771166992187500000e+01 1.548166179656982422e+01 -1.118652820587158203e-01 7.599195480346679688e+00 2.246198892593383789e+00 -8.870594501495361328e-01
2.558000000000000000e+03 3.269939422607421875e+01 -2.380526065826416016e-02 -2.939934432506561279e-01 5.050671577453613281e+00 1.427003383636474609e+00 5.915808677673339844e-01
2.559000000000000000e+03 3.274103546142578125e+01 1.339610457420349121e+00 -3.171863555908203125e-01 5.065658569335937500e+00 1.424541711807250977e+00 6.456138491630554199e-01
2.560000000000000000e+03 3.408752059936523438e+01 1.020219996571540833e-01 -3.506821393966674805e-01 5.283796787261962891e+00 1.479934453964233398e+00 5.882498621940612793e-01
2.561000000000000000e+03 6.855228424072265625e+01 -9.212666511535644531e+00 -1.217626929283142090e-01 8.109094619750976562e+00 2.396199703216552734e+00 -2.879451811313629150e-01
2.562000000000000000e+03 6.681766510009765625e+01 -1.099953079223632812e+01 -1.489505916833877563e-01 8.007780075073242188e+00 2.357648849487304688e+00 -2.710217833518981934e-01
2.563000000000000000e+03 6.716714477539062500e+01 -1.634844589233398438e+01 -9.977543354034423828e-02 8.063597679138183594e+00 2.389146566390991211e+00 -1.900849342346191406e-01
2.564000000000000000e+03 3.397529220581054688e+01 -4.746345520019531250e+00 -2.678686678409576416e-01 5.201468944549560547e+00 1.480080127716064453e+00 4.203554093837738037e-01
2.565000000000000000e+03 6.694382476806640625e+01 -1.795932769775390625e+00 -2.029933780431747437e-01 7.947295665740966797e+00 2.323290824890136719e+00 -4.663620889186859131e-01
2.566000000000000000e+03 6.670437622070312500e+01 -2.938064813613891602e+00 -2.021015286445617676e-01 7.948070526123046875e+00 2.323790550231933594e+00 -4.401536583900451660e-01
2.567000000000000000e+03 6.475667572021484375e+01 1.818462181091308594e+01 -7.829532027244567871e-02 7.710351467132568359e+00 2.289616823196411133e+00 -1.001648068428039551e+00
2.568000000000000000e+03 6.486733245849609375e+01 1.474412250518798828e+01 -1.771645247936248779e-01 7.770303249359130859e+00 2.277941465377807617e+00 -9.442101120948791504e-01
2.569000000000000000e+03 6.526138305664062500e+01 3.213931655883789062e+01 4.988477826118469238e-01 7.310504436492919922e+00 2.342805624008178711e+00 -6.882070302963256836e-01
2.570000000000000000e+03 6.816547393798828125e+01 3.035913276672363281e+01 3.124098181724548340e-01 7.023248195648193359e+00 2.200697422027587891e+00 -6.985589861869812012e-01
2.571000000000000000e+03 6.858808135986328125e+01 -1.665424919128417969e+01 -8.267897367477416992e-02 8.165127754211425781e+00 2.424734592437744141e+00 -1.771486550569534302e-01
2.572000000000000000e+03 6.698026275634765625e+01 1.745233345031738281e+01 -7.739947736263275146e-02 7.580560684204101562e+00 2.250948429107666016e+00 -9.378756880760192871e-01
2.573000000000000000e+03 6.673039245605468750e+01 2.501070594787597656e+01 1.658151894807815552e-01 7.351401805877685547e+00 2.255165100097656250e+00 -9.171951413154602051e-01
2.574000000000000000e+03 4.619481277465820312e+01 3.656813812255859375e+01 2.076263904571533203e+00 1.068649101257324219e+01 3.828826427459716797e+00 7.084834575653076172e-01
2.575000000000000000e+03 6.191625595092773438e+01 -2.220347976684570312e+01 -1.257311701774597168e-01 7.652731418609619141e+00 2.258100032806396484e+00 -1.215457171201705933e-01
2.576000000000000000e+03 3.562724685668945312e+01 2.999418258666992188e+01 1.948255538940429688e+00 7.510550022125244141e+00 2.837641716003417969e+00 4.346455574035644531e+00
2.577000000000000000e+03 3.535900497436523438e+01 2.962510299682617188e+01 1.916165232658386230e+00 6.956194400787353516e+00 2.661707878112792969e+00 4.127347469329833984e+00
2.578000000000000000e+03 3.375055313110351562e+01 2.991168975830078125e+01 2.392036914825439453e+00 3.910754919052124023e+00 1.890837550163269043e+00 3.273905038833618164e+00
2.579000000000000000e+03 3.406818008422851562e+01 3.041167449951171875e+01 2.678837299346923828e+00 3.985536813735961914e+00 1.999312162399291992e+00 3.510027170181274414e+00
2.580000000000000000e+03 3.524135589599609375e+01 3.036508941650390625e+01 2.437423467636108398e+00 6.414019107818603516e+00 2.655432701110839844e+00 4.385191917419433594e+00
2.581000000000000000e+03 3.318862152099609375e+01 2.836553764343261719e+01 1.744759202003479004e+00 4.064873695373535156e+00 1.742889881134033203e+00 2.908395051956176758e+00
2.582000000000000000e+03 3.339422988891601562e+01 3.024208641052246094e+01 2.543957710266113281e+00 3.099302053451538086e+00 1.692977905273437500e+00 2.942766189575195312e+00
2.583000000000000000e+03 3.186994743347167969e+01 2.754983520507812500e+01 1.467326879501342773e+00 3.256533622741699219e+00 1.417158126831054688e+00 2.275328636169433594e+00
2.584000000000000000e+03 3.142466926574707031e+01 2.834245300292968750e+01 1.653368949890136719e+00 2.583980798721313477e+00 1.271204948425292969e+00 2.018577098846435547e+00
2.585000000000000000e+03 3.176272583007812500e+01 2.652110862731933594e+01 1.140902280807495117e+00 3.567364215850830078e+00 1.412479996681213379e+00 2.218950033187866211e+00
2.586000000000000000e+03 3.124662399291992188e+01 2.710434722900390625e+01 1.333468794822692871e+00 2.963747262954711914e+00 1.289164900779724121e+00 2.037745475769042969e+00
2.587000000000000000e+03 3.261920928955078125e+01 2.214879035949707031e+01 1.183869317173957825e-01 4.965629100799560547e+00 1.525204896926879883e+00 2.015886545181274414e+00
2.588000000000000000e+03 3.343837356567382812e+01 2.449579238891601562e+01 4.573172926902770996e-01 5.327815055847167969e+00 1.735539674758911133e+00 2.381169080734252930e+00
2.589000000000000000e+03 3.316579055786132812e+01 2.376936149597167969e+01 3.615580797195434570e-01 5.194717407226562500e+00 1.666882634162902832e+00 2.265744686126708984e+00
2.590000000000000000e+03 3.979729843139648438e+01 2.635587120056152344e+01 -1.796571463346481323e-01 1.036187171936035156e+01 3.054664373397827148e+00 1.088632345199584961e+00
2.591000000000000000e+03 3.504046630859375000e+01 1.833150482177734375e+01 -4.867962300777435303e-01 6.221546173095703125e+00 1.720425009727478027e+00 1.600956082344055176e+00
2.592000000000000000e+03 4.015736007690429688e+01 2.550217247009277344e+01 -3.260696530342102051e-01 1.003046035766601562e+01 2.911317110061645508e+00 9.700675010681152344e-01
2.593000000000000000e+03 4.102994155883789062e+01 2.567562675476074219e+01 -2.200177907943725586e-01 1.021030807495117188e+01 2.997087001800537109e+00 5.538010597229003906e-01
2.594000000000000000e+03 3.555393981933593750e+01 1.306062984466552734e+01 -6.234620809555053711e-01 6.015518665313720703e+00 1.617617011070251465e+00 1.187988162040710449e+00
2.595000000000000000e+03 2.994529724121093750e+01 -1.739843368530273438e+00 -1.830433458089828491e-01 4.632107257843017578e+00 1.334719181060791016e+00 5.172179341316223145e-01
2.596000000000000000e+03 3.448016357421875000e+01 7.820358276367187500e+00 -5.094003677368164062e-01 5.507304191589355469e+00 1.499371170997619629e+00 9.335553050041198730e-01
2.597000000000000000e+03 3.405735015869140625e+01 -1.237741184234619141e+01 -1.746968179941177368e-01 5.162989139556884766e+00 1.496487617492675781e+00 2.500895261764526367e-01
2.598000000000000000e+03 3.377250289916992188e+01 -1.124835395812988281e+01 -1.815726757049560547e-01 5.142514705657958984e+00 1.488282561302185059e+00 2.699693739414215088e-01
2.599000000000000000e+03 6.731420135498046875e+01 5.346233248710632324e-01 -1.973964124917984009e-01 7.932959556579589844e+00 2.320668935775756836e+00 -5.217134356498718262e-01
2.600000000000000000e+03 3.539799118041992188e+01 -1.079253554344177246e+00 -3.750157654285430908e-01 5.469672203063964844e+00 1.528396964073181152e+00 5.202443003654479980e-01
2.601000000000000000e+03 4.369227600097656250e+01 2.579935073852539062e+01 1.096968203783035278e-01 1.021275997161865234e+01 3.096737146377563477e+00 -2.818111181259155273e-01
2.602000000000000000e+03 4.351712036132812500e+01 2.781849670410156250e+01 7.606518268585205078e-01 1.065114307403564453e+01 3.423538446426391602e+00 -4.963968694210052490e-01
2.603000000000000000e+03 3.560442352294921875e+01 3.887124300003051758e+00 -4.913052022457122803e-01 5.629995822906494141e+00 1.541607141494750977e+00 7.242087125778198242e-01
2.604000000000000000e+03 6.800852966308593750e+01 -3.326965808868408203e+00 -1.689673811197280884e-01 8.003592491149902344e+00 2.350387334823608398e+00 -4.175770878791809082e-01
2.605000000000000000e+03 7.016159820556640625e+01 -1.534447002410888672e+01 -7.080690562725067139e-02 8.271787643432617188e+00 2.460294246673583984e+00 -1.817824095487594604e-01
2.606000000000000000e+03 6.286758422851562500e+01 -1.396973800659179688e+01 -1.834923923015594482e-01 7.750275135040283203e+00 2.270034790039062500e+00 -2.221591174602508545e-01
2.607000000000000000e+03 6.751014709472656250e+01 -1.315750598907470703e+01 -1.100741922855377197e-01 8.076004028320312500e+00 2.389778852462768555e+00 -2.328814119100570679e-01
2.608000000000000000e+03 6.733284759521484375e+01 6.241781234741210938e+00 -2.148065865039825439e-01 7.844513416290283203e+00 2.288912057876586914e+00 -6.796937584877014160e-01
2.609000000000000000e+03 3.302964782714843750e+01 -6.333318710327148438e+00 -2.252522706985473633e-01 5.074583530426025391e+00 1.454799413681030273e+00 3.885739147663116455e-01
2.610000000000000000e+03 6.635169219970703125e+01 1.425311088562011719e+01 -1.557495296001434326e-01 7.701301097869873047e+00 2.263665437698364258e+00 -9.040641188621520996e-01
2.611000000000000000e+03 6.600515747070312500e+01 1.272959518432617188e+01 -1.906526982784271240e-01 7.749269962310791016e+00 2.267585039138793945e+00 -8.761254549026489258e-01
2.612000000000000000e+03 3.276840591430664062e+01 -5.142368316650390625e+00 -2.322527915239334106e-01 5.047874450683593750e+00 1.444686412811279297e+00 4.260449707508087158e-01
2.613000000000000000e+03 6.611173248291015625e+01 -9.762212753295898438e+00 -1.651282459497451782e-01 7.959849357604980469e+00 2.338416337966918945e+00 -2.948608994483947754e-01
2.614000000000000000e+03 3.666054916381835938e+01 1.761485290527343750e+01 -6.519085764884948730e-01 6.800510883331298828e+00 1.844580650329589844e+00 1.396374464035034180e+00
2.615000000000000000e+03 6.617024993896484375e+01 -8.208692550659179688e+00 -1.789560765027999878e-01 7.953667163848876953e+00 2.332413196563720703e+00 -3.272874355316162109e-01
2.616000000000000000e+03 6.475206756591796875e+01 8.492579460144042969e+00 -2.769202589988708496e-01 7.843990802764892578e+00 2.270121097564697266e+00 -7.742736935615539551e-01
2.617000000000000000e+03 6.829412078857421875e+01 -1.815409851074218750e+01 -7.886444777250289917e-02 8.152692794799804688e+00 2.422148704528808594e+00 -1.619511097669601440e-01
2.618000000000000000e+03 6.401283264160156250e+01 -1.642613601684570312e+01 -1.415943652391433716e-01 7.832199573516845703e+00 2.307181596755981445e+00 -1.926160901784896851e-01
2.619000000000000000e+03 6.790937042236328125e+01 -1.035987186431884766e+01 -1.334638446569442749e-01 8.075390815734863281e+00 2.382578134536743164e+00 -2.769641578197479248e-01
2.620000000000000000e+03 6.750722503662109375e+01 -9.393528938293457031e+00 -1.392593979835510254e-01 8.047551155090332031e+00 2.372487545013427734e+00 -2.971309423446655273e-01
2.621000000000000000e+03 6.453092956542968750e+01 2.040565109252929688e+01 5.627600941807031631e-03 7.673917293548583984e+00 2.303863525390625000e+00 -1.022652029991149902e+00
2.622000000000000000e+03 6.549893951416015625e+01 -2.599401712417602539e+00 -2.307002395391464233e-01 7.904150009155273438e+00 2.302034854888916016e+00 -4.586757123470306396e-01
2.623000000000000000e+03 6.560990905761718750e+01 1.933403587341308594e+01 -3.015682846307754517e-02 7.617247104644775391e+00 2.276127099990844727e+00 -9.920190572738647461e-01
2.624000000000000000e+03 6.406288909912109375e+01 1.685917091369628906e+01 -1.307816803455352783e-01 7.782143592834472656e+00 2.295408725738525391e+00 -1.000014543533325195e+00
2.625000000000000000e+03 6.620471191406250000e+01 5.986629486083984375e+00 -2.408101260662078857e-01 7.849421024322509766e+00 2.282583236694335938e+00 -6.879091858863830566e-01
2.626000000000000000e+03 6.649799346923828125e+01 2.236413478851318359e+00 -2.336796075105667114e-01 7.892750263214111328e+00 2.297721147537231445e+00 -5.799729824066162109e-01
2.627000000000000000e+03 3.332142257690429688e+01 2.949175071716308594e+01 2.191604614257812500e+00 3.630816936492919922e+00 1.746726512908935547e+00 2.970576286315917969e+00
2.628000000000000000e+03 3.283164596557617188e+01 2.918558120727539062e+01 2.036449193954467773e+00 3.272655010223388672e+00 1.592731356620788574e+00 2.644515514373779297e+00
2.629000000000000000e+03 3.189621925354003906e+01 2.863735389709472656e+01 1.775989770889282227e+00 2.748272418975830078e+00 1.357278704643249512e+00 2.186201572418212891e+00
2.630000000000000000e+03 3.448722076416015625e+01 3.016798400878906250e+01 2.487530231475830078e+00 4.890582084655761719e+00 2.213433742523193359e+00 3.815846681594848633e+00
2.631000000000000000e+03 3.135776519775390625e+01 2.760799026489257812e+01 1.444239854812622070e+00 2.866129398345947266e+00 1.293110728263854980e+00 2.039166212081909180e+00
2.632000000000000000e+03 3.348434448242187500e+01 2.579227256774902344e+01 7.507846355438232422e-01 5.242737293243408203e+00 1.798056602478027344e+00 2.573918104171752930e+00
2.633000000000000000e+03 3.689646530151367188e+01 2.813841629028320312e+01 5.147855877876281738e-01 9.300990104675292969e+00 2.944732666015625000e+00 3.040031909942626953e+00
2.634000000000000000e+03 3.595297241210937500e+01 2.874875640869140625e+01 1.100779414176940918e+00 8.104558944702148438e+00 2.761601448059082031e+00 3.640380620956420898e+00
2.635000000000000000e+03 3.213270950317382812e+01 2.544517898559570312e+01 8.479956984519958496e-01 4.150975704193115234e+00 1.499691486358642578e+00 2.271278142929077148e+00
2.636000000000000000e+03 3.338577651977539062e+01 2.180015373229980469e+01 -1.297582406550645828e-02 5.466398715972900391e+00 1.636026859283447266e+00 2.010692358016967773e+00
2.637000000000000000e+03 3.723671722412109375e+01 2.353020668029785156e+01 -3.539148569107055664e-01 8.042443275451660156e+00 2.306558370590209961e+00 1.908553481101989746e+00
2.638000000000000000e+03 3.195379257202148438e+01 2.600320816040039062e+01 1.001422166824340820e+00 3.784768819808959961e+00 1.435857295989990234e+00 2.216255187988281250e+00
2.639000000000000000e+03 3.855822753906250000e+01 2.682296562194824219e+01 -1.059818565845489502e-01 1.016843700408935547e+01 3.018736600875854492e+00 1.746149778366088867e+00
2.640000000000000000e+03 3.353351593017578125e+01 2.037219810485839844e+01 -1.925613135099411011e-01 5.577107429504394531e+00 1.615363717079162598e+00 1.859196901321411133e+00
2.641000000000000000e+03 3.260427093505859375e+01 1.971183395385742188e+01 -1.673356592655181885e-01 5.119658470153808594e+00 1.485696792602539062e+00 1.785223364830017090e+00
2.642000000000000000e+03 3.375999069213867188e+01 2.265011215209960938e+01 5.484410747885704041e-02 5.697885513305664062e+00 1.725818872451782227e+00 2.138550043106079102e+00
2.643000000000000000e+03 3.578515625000000000e+01 2.658507156372070312e+01 4.589385390281677246e-01 7.453439235687255859e+00 2.373713254928588867e+00 2.846036911010742188e+00
2.644000000000000000e+03 6.662744140625000000e+01 -1.463772773742675781e+01 -1.227272972464561462e-01 8.009890556335449219e+00 2.366148948669433594e+00 -2.154033184051513672e-01
2.645000000000000000e+03 3.495355987548828125e+01 2.325799560546875000e+01 -3.111913241446018219e-02 6.516696929931640625e+00 1.945673346519470215e+00 2.202172994613647461e+00
2.646000000000000000e+03 3.438403320312500000e+01 1.978114509582519531e+01 -3.352016210556030273e-01 5.970533370971679688e+00 1.690599560737609863e+00 1.778679490089416504e+00
2.647000000000000000e+03 4.030411148071289062e+01 2.469121551513671875e+01 -4.101168513298034668e-01 9.709091186523437500e+00 2.789692401885986328e+00 9.381994605064392090e-01
2.648000000000000000e+03 3.633991241455078125e+01 1.155312252044677734e+01 -6.709173917770385742e-01 6.185523509979248047e+00 1.654381752014160156e+00 1.029931783676147461e+00
2.649000000000000000e+03 3.405521774291992188e+01 -1.211227774620056152e+00 -3.262932002544403076e-01 5.264657020568847656e+00 1.481509208679199219e+00 5.379516482353210449e-01
2.650000000000000000e+03 3.564075088500976562e+01 1.496682286262512207e+00 -4.381727874279022217e-01 5.570038318634033203e+00 1.539559721946716309e+00 6.125294566154479980e-01
2.651000000000000000e+03 6.587127685546875000e+01 1.746070098876953125e+01 -8.680662512779235840e-02 7.650097370147705078e+00 2.268987178802490234e+00 -9.685061573982238770e-01
2.652000000000000000e+03 6.439437103271484375e+01 1.321258354187011719e+01 -2.227970659732818604e-01 7.812684535980224609e+00 2.276966094970703125e+00 -9.172053933143615723e-01
2.653000000000000000e+03 6.760427856445312500e+01 1.555820822715759277e+00 -2.027605324983596802e-01 7.925903797149658203e+00 2.316942930221557617e+00 -5.402827858924865723e-01
2.654000000000000000e+03 6.769635772705078125e+01 -1.421368026733398438e+01 -1.096250712871551514e-01 8.087471961975097656e+00 2.393354177474975586e+00 -2.168899178504943848e-01
2.655000000000000000e+03 6.760417938232421875e+01 -1.520234107971191406e+01 -1.058323830366134644e-01 8.085103988647460938e+00 2.393781423568725586e+00 -2.007483989000320435e-01
2.656000000000000000e+03 6.712031555175781250e+01 -6.241599321365356445e-01 -2.048930227756500244e-01 7.940663337707519531e+00 2.320731163024902344e+00 -4.953363537788391113e-01
2.657000000000000000e+03 4.179708862304687500e+01 2.421541213989257812e+01 -3.969900310039520264e-01 9.799674034118652344e+00 2.820805072784423828e+00 4.310364723205566406e-01
2.658000000000000000e+03 4.268300628662109375e+01 2.493761253356933594e+01 -1.962518393993377686e-01 1.004977130889892578e+01 2.956055879592895508e+00 8.364351093769073486e-02
2.659000000000000000e+03 3.465036392211914062e+01 5.516234874725341797e+00 -4.785847961902618408e-01 5.487904548645019531e+00 1.502795934677124023e+00 8.207964897155761719e-01
2.660000000000000000e+03 6.538706970214843750e+01 5.305228233337402344e+00 -2.664273679256439209e-01 7.858739376068115234e+00 2.277693510055541992e+00 -6.796323657035827637e-01
2.661000000000000000e+03 6.700914764404296875e+01 7.701498508453369141e+00 -2.154265940189361572e-01 7.819114208221435547e+00 2.281106233596801758e+00 -7.293370962142944336e-01
2.662000000000000000e+03 6.540598297119140625e+01 -6.373043060302734375e+00 -2.040277421474456787e-01 7.913890838623046875e+00 2.312958955764770508e+00 -3.687146604061126709e-01
2.663000000000000000e+03 6.472498321533203125e+01 -7.759298801422119141e+00 -2.096826881170272827e-01 7.876785755157470703e+00 2.300130844116210938e+00 -3.375484645366668701e-01
2.664000000000000000e+03 3.028310585021972656e+01 -9.651066780090332031e+00 -1.210957095026969910e-01 4.721520900726318359e+00 1.380127549171447754e+00 3.127555847167968750e-01
2.665000000000000000e+03 3.201173400878906250e+01 -1.051679897308349609e+01 -1.501054763793945312e-01 4.930938720703125000e+00 1.434249997138977051e+00 2.920615673065185547e-01
2.666000000000000000e+03 3.590193939208984375e+01 -3.337982177734375000e+00 -3.478519320487976074e-01 5.492551326751708984e+00 1.543409824371337891e+00 4.343683719635009766e-01
2.667000000000000000e+03 3.395969772338867188e+01 -3.715776920318603516e+00 -2.867957651615142822e-01 5.221126556396484375e+00 1.480299234390258789e+00 4.563551843166351318e-01
2.668000000000000000e+03 6.329117202758789062e+01 2.159479331970214844e+01 6.185957789421081543e-02 7.752881526947021484e+00 2.344422340393066406e+00 -1.051972150802612305e+00
2.669000000000000000e+03 6.668132019042968750e+01 2.254584693908691406e+01 7.936622947454452515e-02 7.433505058288574219e+00 2.253861427307128906e+00 -9.523730278015136719e-01
2.670000000000000000e+03 6.637901306152343750e+01 -4.044609069824218750e+00 -2.010987848043441772e-01 7.945584297180175781e+00 2.323345661163330078e+00 -4.167846441268920898e-01
2.671000000000000000e+03 6.477407836914062500e+01 -4.670138835906982422e+00 -2.338461726903915405e-01 7.884313106536865234e+00 2.295140027999877930e+00 -4.073871374130249023e-01
2.672000000000000000e+03 6.612208557128906250e+01 -1.347493267059326172e+01 -1.352602094411849976e-01 7.973597049713134766e+00 2.351500988006591797e+00 -2.343354374170303345e-01
2.673000000000000000e+03 6.275130844116210938e+01 1.769575691223144531e+01 -1.225762143731117249e-01 7.856569290161132812e+00 2.320197820663452148e+00 -1.028897643089294434e+00
2.674000000000000000e+03 7.154727172851562500e+01 -1.396228122711181641e+01 -5.796596035361289978e-02 8.362154006958007812e+00 2.491256475448608398e+00 -1.814354956150054932e-01
2.675000000000000000e+03 3.502733230590820312e+01 -1.420877933502197266e+01 -1.730117797851562500e-01 5.246628284454345703e+00 1.522084951400756836e+00 2.098152786493301392e-01
2.676000000000000000e+03 3.349357986450195312e+01 -1.018292903900146484e+01 -1.876047402620315552e-01 5.111599922180175781e+00 1.477198600769042969e+00 3.006291985511779785e-01
2.677000000000000000e+03 6.540333557128906250e+01 1.617341232299804688e+01 -1.288058310747146606e-01 7.708734035491943359e+00 2.273978471755981445e+00 -9.596237540245056152e-01
2.678000000000000000e+03 6.202978134155273438e+01 1.619138908386230469e+01 -1.947106420993804932e-01 7.913170814514160156e+00 2.315538167953491211e+00 -1.005512833595275879e+00
2.679000000000000000e+03 5.450161743164062500e+01 2.974811935424804688e+01 9.799966812133789062e-01 8.655241012573242188e+00 2.890571355819702148e+00 -9.297125339508056641e-01
2.680000000000000000e+03 4.978212356567382812e+01 3.199431228637695312e+01 1.728587627410888672e+00 9.441821098327636719e+00 3.351122617721557617e+00 -5.723721385002136230e-01
2.681000000000000000e+03 3.301959609985351562e+01 2.878024673461914062e+01 1.892338514328002930e+00 3.673677206039428711e+00 1.669804692268371582e+00 2.784376144409179688e+00
2.682000000000000000e+03 3.399839782714843750e+01 2.859782409667968750e+01 1.710272192955017090e+00 4.983886718750000000e+00 2.008247613906860352e+00 3.222958564758300781e+00
2.683000000000000000e+03 3.235902023315429688e+01 2.776099205017089844e+01 1.522897839546203613e+00 3.562287807464599609e+00 1.525555729866027832e+00 2.427655220031738281e+00
2.684000000000000000e+03 3.169584274291992188e+01 2.796200370788574219e+01 1.583145022392272949e+00 2.919864892959594727e+00 1.350903034210205078e+00 2.157387018203735352e+00
2.685000000000000000e+03 3.492264556884765625e+01 2.990105628967285156e+01 2.207766294479370117e+00 5.907404422760009766e+00 2.434551239013671875e+00 4.022742748260498047e+00
2.686000000000000000e+03 3.417570877075195312e+01 2.963598632812500000e+01 2.228562593460083008e+00 4.682762622833251953e+00 2.073397636413574219e+00 3.498655557632446289e+00
2.687000000000000000e+03 3.502300643920898438e+01 2.874764251708984375e+01 1.523661613464355469e+00 6.502847194671630859e+00 2.407952785491943359e+00 3.644615888595581055e+00
2.688000000000000000e+03 3.270636749267578125e+01 2.731800460815429688e+01 1.361478328704833984e+00 4.103957176208496094e+00 1.639630556106567383e+00 2.579835891723632812e+00
2.689000000000000000e+03 3.605698394775390625e+01 2.812250709533691406e+01 7.759891748428344727e-01 8.258173942565917969e+00 2.710248947143554688e+00 3.308994531631469727e+00
2.690000000000000000e+03 3.572068023681640625e+01 2.842969131469726562e+01 1.125638961791992188e+00 7.697311878204345703e+00 2.646885156631469727e+00 3.559799671173095703e+00
2.691000000000000000e+03 3.264154052734375000e+01 2.629562568664550781e+01 1.059600114822387695e+00 4.305907249450683594e+00 1.609652161598205566e+00 2.482221126556396484e+00
2.692000000000000000e+03 3.232706069946289062e+01 2.683941268920898438e+01 1.227064132690429688e+00 3.922035217285156250e+00 1.544729828834533691e+00 2.410942554473876953e+00
2.693000000000000000e+03 3.536619567871093750e+01 1.940633392333984375e+01 -4.688692390918731689e-01 6.421743869781494141e+00 1.785862445831298828e+00 1.671112179756164551e+00
2.694000000000000000e+03 3.417560958862304688e+01 2.585748100280761719e+01 6.702592372894287109e-01 5.857919216156005859e+00 1.958453536033630371e+00 2.696375608444213867e+00
2.695000000000000000e+03 3.676113891601562500e+01 2.701484870910644531e+01 2.967239916324615479e-01 8.712509155273437500e+00 2.702769994735717773e+00 2.756828308105468750e+00
2.696000000000000000e+03 3.423743438720703125e+01 2.726003265380859375e+01 1.103813171386718750e+00 5.711421966552734375e+00 2.044570446014404297e+00 3.044343709945678711e+00
2.697000000000000000e+03 3.415124511718750000e+01 2.134719467163085938e+01 -1.636760681867599487e-01 5.950343608856201172e+00 1.736000180244445801e+00 1.966907262802124023e+00
2.698000000000000000e+03 3.620158004760742188e+01 2.684416007995605469e+01 3.895187675952911377e-01 8.051002502441406250e+00 2.532156229019165039e+00 2.798995494842529297e+00
2.699000000000000000e+03 3.901862335205078125e+01 2.596731758117675781e+01 -2.680422961711883545e-01 9.951572418212890625e+00 2.905059099197387695e+00 1.481880068778991699e+00
2.700000000000000000e+03 3.959941482543945312e+01 2.457108116149902344e+01 -4.438900649547576904e-01 9.543637275695800781e+00 2.729923963546752930e+00 1.188436627388000488e+00
2.701000000000000000e+03 3.516060638427734375e+01 1.489506530761718750e+01 -5.940748453140258789e-01 6.027960777282714844e+00 1.630165815353393555e+00 1.295643091201782227e+00
2.702000000000000000e+03 3.608479690551757812e+01 1.623402214050292969e+01 -6.482351422309875488e-01 6.431679725646972656e+00 1.735033392906188965e+00 1.367726683616638184e+00
2.703000000000000000e+03 3.776622009277343750e+01 2.634549903869628906e+01 -9.551522135734558105e-02 9.358525276184082031e+00 2.778903007507324219e+00 2.143647909164428711e+00
2.704000000000000000e+03 4.104444122314453125e+01 2.469275665283203125e+01 -3.797108232975006104e-01 9.875922203063964844e+00 2.848863363265991211e+00 5.956908464431762695e-01
2.705000000000000000e+03 3.739976882934570312e+01 2.733809280395507812e+01 1.686036139726638794e-01 9.614332199096679688e+00 2.934880733489990234e+00 2.613116741180419922e+00
2.706000000000000000e+03 3.340264511108398438e+01 -7.546389579772949219e+00 -2.136234790086746216e-01 5.115383148193359375e+00 1.470527887344360352e+00 3.572154343128204346e-01
2.707000000000000000e+03 3.405304336547851562e+01 2.351090812683105469e+01 1.731975227594375610e-01 5.890852928161621094e+00 1.819215178489685059e+00 2.281997680664062500e+00
2.708000000000000000e+03 3.460104751586914062e+01 2.230495071411132812e+01 -1.086214482784271240e-01 6.239679813385009766e+00 1.839317560195922852e+00 2.080155134201049805e+00
2.709000000000000000e+03 3.772891235351562500e+01 2.613772869110107422e+00 -5.387153625488281250e-01 5.961430072784423828e+00 1.626814484596252441e+00 5.827913880348205566e-01
2.710000000000000000e+03 6.583934783935546875e+01 1.139873266220092773e+00 -2.457585483789443970e-01 7.892823696136474609e+00 2.294119596481323242e+00 -5.579602122306823730e-01
2.711000000000000000e+03 3.724484634399414062e+01 1.002607917785644531e+01 -6.948356628417968750e-01 6.281497478485107422e+00 1.675998568534851074e+00 9.027362465858459473e-01
2.712000000000000000e+03 3.763024520874023438e+01 1.132944583892822266e+01 -7.260739207267761230e-01 6.461445808410644531e+00 1.720611572265625000e+00 9.216427803039550781e-01
2.713000000000000000e+03 3.771019363403320312e+01 1.254725170135498047e+01 -7.464843988418579102e-01 6.573034286499023438e+00 1.747964978218078613e+00 9.894505143165588379e-01
2.714000000000000000e+03 3.538135147094726562e+01 6.810641765594482422e+00 -5.341199040412902832e-01 5.672640323638916016e+00 1.541556119918823242e+00 8.506957292556762695e-01
2.715000000000000000e+03 3.569865417480468750e+01 8.615786552429199219e+00 -5.923390984535217285e-01 5.846536159515380859e+00 1.576259136199951172e+00 9.249749183654785156e-01
2.716000000000000000e+03 4.460782623291015625e+01 2.454018211364746094e+01 -9.616770595312118530e-02 9.823016166687011719e+00 2.918054580688476562e+00 -3.318493664264678955e-01
2.717000000000000000e+03 4.457580947875976562e+01 2.695113754272460938e+01 5.674409866333007812e-01 1.025350570678710938e+01 3.246284008026123047e+00 -5.738077163696289062e-01
2.718000000000000000e+03 6.574801635742187500e+01 -2.726854681968688965e-01 -2.484615147113800049e-01 7.901924133300781250e+00 2.296038866043090820e+00 -5.142310261726379395e-01
2.719000000000000000e+03 3.557411193847656250e+01 2.766294240951538086e+00 -4.579324126243591309e-01 5.592493057250976562e+00 1.540368080139160156e+00 6.636069416999816895e-01
2.720000000000000000e+03 3.683269882202148438e+01 4.607601463794708252e-02 -4.463896453380584717e-01 5.710591793060302734e+00 1.579260706901550293e+00 5.269981622695922852e-01
2.721000000000000000e+03 6.564116668701171875e+01 7.244686126708984375e+00 -2.567692399024963379e-01 7.841940402984619141e+00 2.275551319122314453e+00 -7.344750165939331055e-01
2.722000000000000000e+03 6.540915679931640625e+01 9.649588584899902344e+00 -2.430138438940048218e-01 7.818956851959228516e+00 2.272783041000366211e+00 -8.091224431991577148e-01
2.723000000000000000e+03 6.241663360595703125e+01 -5.976834297180175781e+00 -2.724153399467468262e-01 7.776852130889892578e+00 2.251331090927124023e+00 -3.705596923828125000e-01
2.724000000000000000e+03 6.518551635742187500e+01 -3.636636734008789062e+00 -2.352395802736282349e-01 7.897842884063720703e+00 2.298780918121337891e+00 -4.315758943557739258e-01
2.725000000000000000e+03 3.489420318603515625e+01 -4.082708835601806641e+00 -3.110151588916778564e-01 5.346827030181884766e+00 1.510743618011474609e+00 4.393960237503051758e-01
2.726000000000000000e+03 3.545869827270507812e+01 -4.940764427185058594e+00 -3.113181889057159424e-01 5.427124500274658203e+00 1.534741997718811035e+00 3.975976407527923584e-01
2.727000000000000000e+03 6.299204635620117188e+01 -1.758382606506347656e+01 -1.444410532712936401e-01 7.753163814544677734e+00 2.282616853713989258e+00 -1.758348792791366577e-01
2.728000000000000000e+03 6.141494369506835938e+01 1.859936332702636719e+01 -1.043747290968894958e-01 7.947216033935546875e+00 2.352852344512939453e+00 -1.057059764862060547e+00
2.729000000000000000e+03 6.343333435058593750e+01 1.540926837921142578e+01 -1.892425119876861572e-01 7.835958480834960938e+00 2.294014930725097656e+00 -9.772527813911437988e-01
2.730000000000000000e+03 6.395519256591796875e+01 1.151797103881835938e+01 -2.655419409275054932e-01 7.842724800109863281e+00 2.273154973983764648e+00 -8.703223466873168945e-01
2.731000000000000000e+03 3.356821441650390625e+01 -8.887213706970214844e+00 -2.036282122135162354e-01 5.122033119201660156e+00 1.475521445274353027e+00 3.221282958984375000e-01
2.732000000000000000e+03 6.558405303955078125e+01 2.678938484191894531e+01 2.587542533874511719e-01 7.413209438323974609e+00 2.301589012145996094e+00 -9.112632274627685547e-01
2.733000000000000000e+03 6.551538085937500000e+01 2.404163551330566406e+01 1.496358811855316162e-01 7.494567394256591797e+00 2.293261051177978516e+00 -9.748823046684265137e-01
2.734000000000000000e+03 3.657705307006835938e+01 1.265829753875732422e+01 -6.870234012603759766e-01 6.305355548858642578e+00 1.685499548912048340e+00 1.050789475440979004e+00
2.735000000000000000e+03 6.347839355468750000e+01 -6.918250560760498047e+00 -2.435199916362762451e-01 7.813528537750244141e+00 2.271002531051635742e+00 -3.540923893451690674e-01
2.736000000000000000e+03 6.423085021972656250e+01 -5.766936302185058594e+00 -2.364499419927597046e-01 7.854943752288818359e+00 2.285548210144042969e+00 -3.811440765857696533e-01
2.737000000000000000e+03 6.456275939941406250e+01 -1.370278549194335938e+01 -1.612831205129623413e-01 7.875257015228271484e+00 2.314192295074462891e+00 -2.322329878807067871e-01
2.738000000000000000e+03 3.396921920776367188e+01 2.910101127624511719e+01 1.997680783271789551e+00 4.655139446258544922e+00 1.995846033096313477e+00 3.327135324478149414e+00
2.739000000000000000e+03 3.305822372436523438e+01 2.770030593872070312e+01 1.519994735717773438e+00 4.286845684051513672e+00 1.742052078247070312e+00 2.818240404129028320e+00
2.740000000000000000e+03 3.510930252075195312e+01 2.918423461914062500e+01 1.748389840126037598e+00 6.580837726593017578e+00 2.498768329620361328e+00 3.859633922576904297e+00
2.741000000000000000e+03 3.358421325683593750e+01 2.849555397033691406e+01 1.717601537704467773e+00 4.559132099151611328e+00 1.883020043373107910e+00 3.046318531036376953e+00
2.742000000000000000e+03 3.379667663574218750e+01 2.764504241943359375e+01 1.330986022949218750e+00 5.099437236785888672e+00 1.929126977920532227e+00 2.972654819488525391e+00
2.743000000000000000e+03 3.278958511352539062e+01 2.808232688903808594e+01 1.634500384330749512e+00 3.871254444122314453e+00 1.651726484298706055e+00 2.678143501281738281e+00
2.744000000000000000e+03 3.465433502197265625e+01 2.655644035339355469e+01 7.542314529418945312e-01 6.296574592590332031e+00 2.115241765975952148e+00 2.925455570220947266e+00
2.745000000000000000e+03 3.357651901245117188e+01 2.511935615539550781e+01 5.799123644828796387e-01 5.412074089050292969e+00 1.797595977783203125e+00 2.516201972961425781e+00
2.746000000000000000e+03 3.472822570800781250e+01 2.704095458984375000e+01 8.820773959159851074e-01 6.329105377197265625e+00 2.163354873657226562e+00 3.033055543899536133e+00
2.747000000000000000e+03 3.408383178710937500e+01 2.658810043334960938e+01 9.037757515907287598e-01 5.663919448852539062e+00 1.970308542251586914e+00 2.861451625823974609e+00
2.748000000000000000e+03 3.496742248535156250e+01 2.088707351684570312e+01 -2.958218157291412354e-01 6.349903583526611328e+00 1.816224455833435059e+00 1.882413148880004883e+00
2.749000000000000000e+03 3.590645217895507812e+01 2.738458061218261719e+01 6.343325376510620117e-01 7.791194438934326172e+00 2.527658224105834961e+00 3.062498807907104492e+00
2.750000000000000000e+03 3.566814422607421875e+01 2.783835601806640625e+01 8.531947731971740723e-01 7.543504238128662109e+00 2.519009590148925781e+00 3.259153127670288086e+00
2.751000000000000000e+03 3.892494583129882812e+01 2.479773330688476562e+01 -3.994090557098388672e-01 9.329624176025390625e+00 2.679064512252807617e+00 1.446643710136413574e+00
2.752000000000000000e+03 3.546160507202148438e+01 2.191744232177734375e+01 -2.628903388977050781e-01 6.706998348236083984e+00 1.933232426643371582e+00 1.963452100753784180e+00
2.753000000000000000e+03 3.667135238647460938e+01 2.507589340209960938e+01 -6.791955232620239258e-02 8.064567565917968750e+00 2.398994445800781250e+00 2.301675558090209961e+00
2.754000000000000000e+03 3.425737762451171875e+01 2.432962036132812500e+01 2.922790050506591797e-01 5.958227157592773438e+00 1.875151872634887695e+00 2.413769960403442383e+00
2.755000000000000000e+03 3.778911590576171875e+01 1.371929645538330078e+01 -7.675893306732177734e-01 6.729475975036621094e+00 1.788565993309020996e+00 1.040680050849914551e+00
2.756000000000000000e+03 3.631017684936523438e+01 1.497528839111328125e+01 -6.778812408447265625e-01 6.424379825592041016e+00 1.723949551582336426e+00 1.262330532073974609e+00
2.757000000000000000e+03 6.089635467529296875e+01 2.594969987869262695e+00 -3.940859735012054443e-01 7.815172195434570312e+00 2.226325750350952148e+00 -5.791764259338378906e-01
2.758000000000000000e+03 6.438227081298828125e+01 -2.469773143529891968e-01 -2.847206294536590576e-01 7.865442276000976562e+00 2.274216413497924805e+00 -5.171091556549072266e-01
2.759000000000000000e+03 3.718257522583007812e+01 1.847739601135253906e+01 -6.622986793518066406e-01 7.077395915985107422e+00 1.924529075622558594e+00 1.388810873031616211e+00
2.760000000000000000e+03 6.404148101806640625e+01 -3.176489353179931641e+00 -2.663100957870483398e-01 7.852788925170898438e+00 2.275943517684936523e+00 -4.427584707736968994e-01
2.761000000000000000e+03 6.441435241699218750e+01 -2.313677549362182617e+00 -2.568435668945312500e-01 7.870488643646240234e+00 2.284093618392944336e+00 -4.686101973056793213e-01
2.762000000000000000e+03 3.847355270385742188e+01 8.614096641540527344e-01 -5.231837034225463867e-01 6.028189659118652344e+00 1.651501774787902832e+00 4.928531646728515625e-01
2.763000000000000000e+03 4.220760345458984375e+01 2.332765960693359375e+01 -5.155045390129089355e-01 9.529392242431640625e+00 2.704166173934936523e+00 3.488429188728332520e-01
2.764000000000000000e+03 4.338015365600585938e+01 2.368445396423339844e+01 -3.573381304740905762e-01 9.670382499694824219e+00 2.793913364410400391e+00 4.092096816748380661e-03
2.765000000000000000e+03 3.670805740356445312e+01 -1.941334366798400879e+00 -4.001770913600921631e-01 5.657837867736816406e+00 1.577298164367675781e+00 4.550049602985382080e-01
2.766000000000000000e+03 3.905910110473632812e+01 1.142313480377197266e+01 -7.907699942588806152e-01 6.764627456665039062e+00 1.792157173156738281e+00 8.226327896118164062e-01
2.767000000000000000e+03 3.660361862182617188e+01 -1.034151673316955566e+00 -4.157987833023071289e-01 5.661000251770019531e+00 1.573560476303100586e+00 4.930989444255828857e-01
2.768000000000000000e+03 3.665365600585937500e+01 6.160146236419677734e+00 -5.777726173400878906e-01 5.914534091949462891e+00 1.601028561592102051e+00 7.565272450447082520e-01
2.769000000000000000e+03 3.663056945800781250e+01 3.333873510360717773e+00 -5.200352072715759277e-01 5.809306621551513672e+00 1.586781382560729980e+00 6.447295546531677246e-01
2.770000000000000000e+03 6.298474121093750000e+01 2.436671829223632812e+01 2.117009907960891724e-01 7.721457481384277344e+00 2.379947423934936523e+00 -1.032130241394042969e+00
2.771000000000000000e+03 5.947449874877929688e+01 2.209660339355468750e+01 8.386725187301635742e-02 8.099634170532226562e+00 2.455050230026245117e+00 -1.094843745231628418e+00
2.772000000000000000e+03 6.869054412841796875e+01 1.438438296318054199e-01 -1.666178852319717407e-01 7.972946643829345703e+00 2.341898679733276367e+00 -4.896091222763061523e-01
2.773000000000000000e+03 3.628839492797851562e+01 1.900146675109863281e+01 -5.679978132247924805e-01 6.760662555694580078e+00 1.857799410820007324e+00 1.559665203094482422e+00
2.774000000000000000e+03 3.731605529785156250e+01 2.094137573242187500e+01 -5.701009035110473633e-01 7.547521591186523438e+00 2.093226194381713867e+00 1.568062424659729004e+00
2.775000000000000000e+03 3.641185379028320312e+01 -4.231536865234375000e+00 -3.496567010879516602e-01 5.552909374237060547e+00 1.560975790023803711e+00 4.076715111732482910e-01
2.776000000000000000e+03 3.603021240234375000e+01 -5.721228122711181641e+00 -3.136428296566009521e-01 5.491996765136718750e+00 1.553506135940551758e+00 3.715239465236663818e-01
2.777000000000000000e+03 6.560922241210937500e+01 1.118236637115478516e+01 -2.207452207803726196e-01 7.789419651031494141e+00 2.270602226257324219e+00 -8.425679206848144531e-01
2.778000000000000000e+03 6.225128936767578125e+01 1.210716629028320312e+01 -3.054943382740020752e-01 7.901731491088867188e+00 2.278871059417724609e+00 -8.914662599563598633e-01
2.779000000000000000e+03 3.710140228271484375e+01 1.662545776367187500e+01 -7.060865759849548340e-01 6.827875614166259766e+00 1.836536765098571777e+00 1.286245107650756836e+00
2.780000000000000000e+03 6.284604263305664062e+01 1.384339523315429688e+01 -2.454103827476501465e-01 7.875617980957031250e+00 2.289062261581420898e+00 -9.441765546798706055e-01
2.781000000000000000e+03 6.136136627197265625e+01 1.462971115112304688e+01 -2.658158540725708008e-01 7.949295043945312500e+00 2.305043697357177734e+00 -9.624115228652954102e-01
2.782000000000000000e+03 3.584261322021484375e+01 -7.504703521728515625e+00 -2.746537625789642334e-01 5.421867847442626953e+00 1.544164299964904785e+00 3.333899378776550293e-01
2.783000000000000000e+03 3.490370559692382812e+01 -6.734284877777099609e+00 -2.648890018463134766e-01 5.312081336975097656e+00 1.514157652854919434e+00 3.595499694347381592e-01
2.784000000000000000e+03 6.125592422485351562e+01 -9.489158630371093750e+00 -2.527260780334472656e-01 7.677423477172851562e+00 2.227409124374389648e+00 -2.899490892887115479e-01
2.785000000000000000e+03 6.445412445068359375e+01 -1.029554367065429688e+01 -1.905744671821594238e-01 7.869470596313476562e+00 2.303668737411499023e+00 -2.889681160449981689e-01
2.786000000000000000e+03 6.063526153564453125e+01 1.702279853820800781e+01 -1.961011439561843872e-01 8.000670433044433594e+00 2.341370820999145508e+00 -1.020916223526000977e+00
2.787000000000000000e+03 6.432097625732421875e+01 -1.856512641906738281e+01 -1.227429509162902832e-01 7.849659442901611328e+00 2.318074941635131836e+00 -1.676074415445327759e-01
2.788000000000000000e+03 6.591488647460937500e+01 -1.928893661499023438e+01 -1.014694720506668091e-01 7.964073657989501953e+00 2.358781337738037109e+00 -1.565233767032623291e-01
2.789000000000000000e+03 6.420713043212890625e+01 2.569398880004882812e+01 2.511876821517944336e-01 7.572964191436767578e+00 2.347245693206787109e+00 -9.733052849769592285e-01
2.790000000000000000e+03 6.256052398681640625e+01 -1.217922210693359375e+01 -2.074611186981201172e-01 7.736711978912353516e+00 2.258775234222412109e+00 -2.540700733661651611e-01
2.791000000000000000e+03 6.326734542846679688e+01 -1.543333148956298828e+01 -1.602968424558639526e-01 7.774008750915527344e+00 2.284113645553588867e+00 -2.072751969099044800e-01
2.792000000000000000e+03 6.229473876953125000e+01 2.014171218872070312e+01 -1.473161950707435608e-02 7.860600948333740234e+00 2.353760719299316406e+00 -1.064561724662780762e+00
2.793000000000000000e+03 6.004087066650390625e+01 1.948578453063964844e+01 -8.125362545251846313e-02 8.050174713134765625e+00 2.390676498413085938e+00 -1.068768858909606934e+00
2.794000000000000000e+03 3.646133804321289062e+01 -1.956363487243652344e+01 -1.411057859659194946e-01 5.368940353393554688e+00 1.568350434303283691e+00 1.245770826935768127e-01
2.795000000000000000e+03 3.709403610229492188e+01 -7.864805221557617188e+00 -2.936166822910308838e-01 5.585254669189453125e+00 1.587491393089294434e+00 3.045155704021453857e-01
2.796000000000000000e+03 3.520241165161132812e+01 -8.937652587890625000e+00 -2.373948693275451660e-01 5.331389427185058594e+00 1.528198361396789551e+00 3.081225752830505371e-01
2.797000000000000000e+03 3.458092498779296875e+01 2.777270698547363281e+01 1.226881504058837891e+00 6.012434959411621094e+00 2.171794891357421875e+00 3.256127834320068359e+00
2.798000000000000000e+03 3.336938476562500000e+01 2.654492187500000000e+01 1.030265569686889648e+00 4.964829921722412109e+00 1.798528671264648438e+00 2.683062791824340820e+00
2.799000000000000000e+03 3.545622253417968750e+01 2.816234207153320312e+01 1.084428310394287109e+00 7.275008678436279297e+00 2.507831096649169922e+00 3.480859279632568359e+00
2.800000000000000000e+03 3.517983627319335938e+01 2.841854667663574219e+01 1.316067695617675781e+00 6.812383174896240234e+00 2.438535451889038086e+00 3.503690481185913086e+00
2.801000000000000000e+03 3.326000595092773438e+01 2.723527908325195312e+01 1.254595875740051270e+00 4.651102542877197266e+00 1.771709442138671875e+00 2.758553028106689453e+00
2.802000000000000000e+03 3.429039001464843750e+01 2.511272048950195312e+01 4.656272828578948975e-01 5.943894863128662109e+00 1.922856688499450684e+00 2.541321516036987305e+00
2.803000000000000000e+03 3.585371780395507812e+01 2.557916069030761719e+01 2.081559300422668457e-01 7.417189121246337891e+00 2.287603378295898438e+00 2.606175422668457031e+00
2.804000000000000000e+03 3.584624099731445312e+01 2.045001029968261719e+01 -4.434206485748291016e-01 6.736967563629150391e+00 1.888064026832580566e+00 1.740423679351806641e+00
2.805000000000000000e+03 3.826559066772460938e+01 2.542555618286132812e+01 -2.681130170822143555e-01 9.251589775085449219e+00 2.695043087005615234e+00 1.801496982574462891e+00
2.806000000000000000e+03 3.829753494262695312e+01 1.574479293823242188e+01 -7.936813831329345703e-01 7.100361824035644531e+00 1.892004132270812988e+00 1.093981385231018066e+00
2.807000000000000000e+03 3.693170928955078125e+01 2.611278533935546875e+01 4.442788287997245789e-02 8.608887672424316406e+00 2.595994472503662109e+00 2.465481281280517578e+00
2.808000000000000000e+03 6.414996337890625000e+01 1.250162243843078613e+00 -2.932088673114776611e-01 7.859758377075195312e+00 2.269964933395385742e+00 -5.642834305763244629e-01
2.809000000000000000e+03 6.044279098510742188e+01 -4.384940624237060547e+00 -3.368051648139953613e-01 7.688269615173339844e+00 2.205439329147338867e+00 -3.864750862121582031e-01
2.810000000000000000e+03 3.967942047119140625e+01 3.201801538467407227e+00 -6.162987351417541504e-01 6.299997329711914062e+00 1.705109596252441406e+00 5.072121620178222656e-01
2.811000000000000000e+03 3.729310989379882812e+01 4.448225021362304688e+00 -5.671297907829284668e-01 5.975388526916503906e+00 1.622477650642395020e+00 6.561942696571350098e-01
2.812000000000000000e+03 4.120640563964843750e+01 2.339642715454101562e+01 -5.563277602195739746e-01 9.421032905578613281e+00 2.659411668777465820e+00 6.908168792724609375e-01
2.813000000000000000e+03 6.371361541748046875e+01 2.954688549041748047e+00 -3.116173744201660156e-01 7.854543685913085938e+00 2.262877941131591797e+00 -6.124457120895385742e-01
2.814000000000000000e+03 3.656819152832031250e+01 1.373911857604980469e+01 -7.009986042976379395e-01 6.380799293518066406e+00 1.703940153121948242e+00 1.150523185729980469e+00
2.815000000000000000e+03 3.741096496582031250e+01 -3.953547954559326172e+00 -3.783538043498992920e-01 5.693011283874511719e+00 1.594397187232971191e+00 3.927189409732818604e-01
2.816000000000000000e+03 3.680737686157226562e+01 8.809246063232421875e+00 -6.485175490379333496e-01 6.082817077636718750e+00 1.630289912223815918e+00 8.862076401710510254e-01
2.817000000000000000e+03 4.055005264282226562e+01 1.190590286254882812e+01 -8.467136621475219727e-01 7.151822090148925781e+00 1.891532540321350098e+00 6.728239655494689941e-01
2.818000000000000000e+03 3.630350112915039062e+01 7.818623542785644531e+00 -6.021199822425842285e-01 5.922768592834472656e+00 1.596194624900817871e+00 8.565588593482971191e-01
2.819000000000000000e+03 3.672434997558593750e+01 1.997439956665039062e+01 -5.602669119834899902e-01 7.066240787506103516e+00 1.951792120933532715e+00 1.568405032157897949e+00
2.820000000000000000e+03 3.684151077270507812e+01 2.249163436889648438e+01 -3.940927684307098389e-01 7.562463283538818359e+00 2.150511026382446289e+00 1.857659816741943359e+00
2.821000000000000000e+03 4.218612289428710938e+01 2.221398353576660156e+01 -6.146578788757324219e-01 9.289851188659667969e+00 2.602558135986328125e+00 4.053600728511810303e-01
2.822000000000000000e+03 3.732753753662109375e+01 7.278306007385253906e+00 -6.345600485801696777e-01 6.090702056884765625e+00 1.636842608451843262e+00 7.898230552673339844e-01
2.823000000000000000e+03 3.750702667236328125e+01 1.948041534423828125e+01 -6.548279523849487305e-01 7.358774662017822266e+00 2.011183977127075195e+00 1.437414050102233887e+00
2.824000000000000000e+03 4.679057693481445312e+01 2.462785339355468750e+01 1.317604482173919678e-01 9.615851402282714844e+00 2.924283742904663086e+00 -6.877425312995910645e-01
2.825000000000000000e+03 4.899507141113281250e+01 2.467317199707031250e+01 2.649225890636444092e-01 9.303021430969238281e+00 2.870383262634277344e+00 -8.814107775688171387e-01
2.826000000000000000e+03 6.764781951904296875e+01 -4.454144954681396484e+00 -1.722988039255142212e-01 8.000740051269531250e+00 2.348532199859619141e+00 -3.968661725521087646e-01
2.827000000000000000e+03 3.700045013427734375e+01 -1.785581970214843750e+01 -1.735309064388275146e-01 5.419560909271240234e+00 1.573809027671813965e+00 1.437200456857681274e-01
2.828000000000000000e+03 6.319124221801757812e+01 -5.059105396270751953e+00 -2.662202715873718262e-01 7.806132316589355469e+00 2.261973619461059570e+00 -3.920089304447174072e-01
2.829000000000000000e+03 6.142052459716796875e+01 -6.991859436035156250e+00 -2.842277884483337402e-01 7.711445331573486328e+00 2.228165388107299805e+00 -3.414068818092346191e-01
2.830000000000000000e+03 6.264180374145507812e+01 9.074978828430175781e+00 -3.322463333606719971e-01 7.878308296203613281e+00 2.263818502426147461e+00 -8.019799590110778809e-01
2.831000000000000000e+03 3.574734497070312500e+01 -1.257378673553466797e+01 -2.036318182945251465e-01 5.337124347686767578e+00 1.540047764778137207e+00 2.335951775312423706e-01
2.832000000000000000e+03 3.456820297241210938e+01 -1.960064697265625000e+01 -1.307277381420135498e-01 5.172988414764404297e+00 1.512678265571594238e+00 1.362780481576919556e-01
2.833000000000000000e+03 3.701005935668945312e+01 -4.889254093170166016e+00 -3.514409065246582031e-01 5.636202812194824219e+00 1.585428476333618164e+00 3.779357969760894775e-01
2.834000000000000000e+03 3.758241271972656250e+01 -5.636370658874511719e+00 -3.544128239154815674e-01 5.684046268463134766e+00 1.598889946937561035e+00 3.528466522693634033e-01
2.835000000000000000e+03 4.085535049438476562e+01 2.100328636169433594e+01 -7.240676879882812500e-01 8.731045722961425781e+00 2.402093410491943359e+00 7.887616753578186035e-01
2.836000000000000000e+03 6.067860412597656250e+01 1.303214645385742188e+01 -3.336111903190612793e-01 7.968564510345458984e+00 2.290485858917236328e+00 -9.109170436859130859e-01
2.837000000000000000e+03 6.454328155517578125e+01 -1.313542604446411133e+00 -2.559830844402313232e-01 7.872914791107177734e+00 2.285079479217529297e+00 -4.891014993190765381e-01
2.838000000000000000e+03 6.341190338134765625e+01 -2.309412479400634766e+00 -2.869701981544494629e-01 7.832714557647705078e+00 2.263723373413085938e+00 -4.648561477661132812e-01
2.839000000000000000e+03 6.363449859619140625e+01 -4.106074810028076172e+00 -2.703880369663238525e-01 7.833868980407714844e+00 2.269044160842895508e+00 -4.204086065292358398e-01
2.840000000000000000e+03 6.370699691772460938e+01 -9.046140670776367188e+00 -2.167762070894241333e-01 7.823244571685791016e+00 2.281940460205078125e+00 -3.143398761749267578e-01
2.841000000000000000e+03 3.760815048217773438e+01 -1.404321908950805664e+00 -4.428685009479522705e-01 5.811722755432128906e+00 1.610656261444091797e+00 4.588797986507415771e-01
2.842000000000000000e+03 5.783217620849609375e+01 1.857373237609863281e+01 -1.848976612091064453e-01 8.204847335815429688e+00 2.405985116958618164e+00 -1.030951499938964844e+00
2.843000000000000000e+03 6.195735931396484375e+01 -1.627028465270996094e+01 -1.713295280933380127e-01 7.684370517730712891e+00 2.253912210464477539e+00 -1.900039464235305786e-01
2.844000000000000000e+03 3.489474487304687500e+01 2.815287971496582031e+01 1.268691778182983398e+00 6.414813995361328125e+00 2.305051803588867188e+00 3.370525121688842773e+00
2.845000000000000000e+03 3.544573974609375000e+01 2.706535339355468750e+01 6.943149566650390625e-01 7.143734931945800781e+00 2.351414918899536133e+00 3.031704187393188477e+00
2.846000000000000000e+03 3.507558059692382812e+01 2.671809768676757812e+01 7.010965943336486816e-01 6.700935840606689453e+00 2.220609903335571289e+00 2.978383064270019531e+00
2.847000000000000000e+03 3.525391006469726562e+01 2.785427856445312500e+01 1.041974782943725586e+00 6.939584732055664062e+00 2.394467830657958984e+00 3.292222023010253906e+00
2.848000000000000000e+03 3.483336639404296875e+01 2.594495391845703125e+01 5.588223338127136230e-01 6.470998764038085938e+00 2.108946323394775391e+00 2.787817478179931641e+00
2.849000000000000000e+03 3.502380752563476562e+01 2.745571327209472656e+01 9.366589784622192383e-01 6.643451213836669922e+00 2.274033069610595703e+00 3.166986465454101562e+00
2.850000000000000000e+03 3.520229721069335938e+01 2.423810958862304688e+01 9.072878211736679077e-02 6.776348590850830078e+00 2.060123205184936523e+00 2.376561880111694336e+00
2.851000000000000000e+03 3.622418594360351562e+01 2.399434661865234375e+01 -1.343161314725875854e-01 7.459856986999511719e+00 2.197662353515625000e+00 2.197367429733276367e+00
2.852000000000000000e+03 3.512751007080078125e+01 2.517578506469726562e+01 2.869175374507904053e-01 6.778813362121582031e+00 2.119719266891479492e+00 2.573734998703002930e+00
2.853000000000000000e+03 3.816542053222656250e+01 1.690980720520019531e+01 -7.622752189636230469e-01 7.209104537963867188e+00 1.934048771858215332e+00 1.153077960014343262e+00
2.854000000000000000e+03 3.622748565673828125e+01 2.623873138427734375e+01 2.601253092288970947e-01 7.895895481109619141e+00 2.446806192398071289e+00 2.643910884857177734e+00
2.855000000000000000e+03 3.951120758056640625e+01 2.260715675354003906e+01 -6.223362684249877930e-01 8.827051162719726562e+00 2.461414575576782227e+00 1.152151346206665039e+00
2.856000000000000000e+03 3.961774444580078125e+01 2.371923255920410156e+01 -5.306754112243652344e-01 9.201549530029296875e+00 2.601262092590332031e+00 1.143787503242492676e+00
2.857000000000000000e+03 4.051728057861328125e+01 2.394994544982910156e+01 -5.158668756484985352e-01 9.451056480407714844e+00 2.680556774139404297e+00 8.427345156669616699e-01
2.858000000000000000e+03 4.086488723754882812e+01 2.231329154968261719e+01 -6.433622241020202637e-01 9.047945976257324219e+00 2.521375179290771484e+00 7.787113785743713379e-01
2.859000000000000000e+03 3.587654495239257812e+01 2.293000793457031250e+01 -2.131191790103912354e-01 7.066250324249267578e+00 2.055939435958862305e+00 2.062429904937744141e+00
2.860000000000000000e+03 3.636822128295898438e+01 2.147354125976562500e+01 -4.069629609584808350e-01 7.153488636016845703e+00 2.023957729339599609e+00 1.799171090126037598e+00
2.861000000000000000e+03 3.892212295532226562e+01 1.350949573516845703e+01 -8.123523592948913574e-01 7.011706829071044922e+00 1.859806418418884277e+00 9.090895056724548340e-01
2.862000000000000000e+03 3.920751953125000000e+01 1.452378559112548828e+01 -8.332765102386474609e-01 7.136301040649414062e+00 1.890907406806945801e+00 9.228605628013610840e-01
2.863000000000000000e+03 4.350659942626953125e+01 2.222961235046386719e+01 -5.278835296630859375e-01 9.362199783325195312e+00 2.650294780731201172e+00 7.388109713792800903e-02
2.864000000000000000e+03 3.889304733276367188e+01 2.048713874816894531e+01 -7.044743299484252930e-01 8.023150444030761719e+00 2.195602655410766602e+00 1.254921793937683105e+00
2.865000000000000000e+03 3.940579223632812500e+01 9.132845878601074219e+00 -7.529848814010620117e-01 6.672514915466308594e+00 1.775858998298645020e+00 6.955125331878662109e-01
2.866000000000000000e+03 3.935131454467773438e+01 1.024093341827392578e+01 -7.738904953002929688e-01 6.728214263916015625e+00 1.786297082901000977e+00 7.514852285385131836e-01
2.867000000000000000e+03 3.902014160156250000e+01 7.966465950012207031e+00 -7.248020172119140625e-01 6.511146545410156250e+00 1.735903382301330566e+00 6.965981721878051758e-01
2.868000000000000000e+03 3.861986923217773438e+01 -3.826074838638305664e+00 -4.132660329341888428e-01 5.871461391448974609e+00 1.637458682060241699e+00 3.704782128334045410e-01
2.869000000000000000e+03 3.828646850585937500e+01 -2.416147708892822266e+00 -4.404840767383575439e-01 5.866322040557861328e+00 1.627751469612121582e+00 4.147369563579559326e-01
2.870000000000000000e+03 3.958152389526367188e+01 3.913997709751129150e-01 -5.358226299285888672e-01 6.152450561523437500e+00 1.684988379478454590e+00 4.344640374183654785e-01
2.871000000000000000e+03 3.847146987915039062e+01 3.828019380569458008e+00 -5.967627763748168945e-01 6.147719860076904297e+00 1.665287137031555176e+00 5.920088291168212891e-01
2.872000000000000000e+03 3.790244674682617188e+01 5.595368385314941406e+00 -6.182535886764526367e-01 6.131779193878173828e+00 1.654057741165161133e+00 6.824946403503417969e-01
2.873000000000000000e+03 3.815945434570312500e+01 1.816105842590332031e+01 -7.407397627830505371e-01 7.386809349060058594e+00 1.993820786476135254e+00 1.234653115272521973e+00
2.874000000000000000e+03 4.783797073364257812e+01 2.598371696472167969e+01 5.080139636993408203e-01 9.570950508117675781e+00 3.023689270019531250e+00 -8.653007149696350098e-01
2.875000000000000000e+03 4.661886596679687500e+01 2.723582839965820312e+01 8.092826604843139648e-01 9.889556884765625000e+00 3.209651708602905273e+00 -8.197962641716003418e-01
2.876000000000000000e+03 6.152798080444335938e+01 -4.899556636810302734e+00 -3.083235621452331543e-01 7.737118721008300781e+00 2.228638410568237305e+00 -3.893636167049407959e-01
2.877000000000000000e+03 6.052895355224609375e+01 -2.671813488006591797e+00 -3.588970601558685303e-01 7.715852737426757812e+00 2.207086801528930664e+00 -4.247581064701080322e-01
2.878000000000000000e+03 6.247465515136718750e+01 -8.113801956176757812e+00 -2.471425980329513550e-01 7.765902519226074219e+00 2.255627870559692383e+00 -3.269348442554473877e-01
2.879000000000000000e+03 6.256351089477539062e+01 6.506032943725585938e+00 -3.514760732650756836e-01 7.866911411285400391e+00 2.254630565643310547e+00 -7.176488041877746582e-01
2.880000000000000000e+03 6.454186248779296875e+01 6.342508316040039062e+00 -2.934658229351043701e-01 7.858161926269531250e+00 2.269408702850341797e+00 -7.126699686050415039e-01
2.881000000000000000e+03 6.352307128906250000e+01 -1.032931208610534668e+00 -2.944916486740112305e-01 7.838369369506835938e+00 2.263163328170776367e+00 -4.978508353233337402e-01
2.882000000000000000e+03 6.221348953247070312e+01 -7.817320823669433594e-01 -3.323597311973571777e-01 7.799443244934082031e+00 2.240125179290771484e+00 -4.992817342281341553e-01
2.883000000000000000e+03 3.810908126831054688e+01 -3.655110895633697510e-01 -4.786207079887390137e-01 5.911227226257324219e+00 1.629781842231750488e+00 4.722627997398376465e-01
2.884000000000000000e+03 3.711793136596679688e+01 -2.882388591766357422e+00 -3.933523893356323242e-01 5.684525012969970703e+00 1.587351799011230469e+00 4.282593727111816406e-01
2.885000000000000000e+03 3.849951553344726562e+01 6.770701408386230469e+00 -6.749488115310668945e-01 6.317419528961181641e+00 1.692741155624389648e+00 6.930847764015197754e-01
2.886000000000000000e+03 6.474654388427734375e+01 4.058256149291992188e+00 -2.869326770305633545e-01 7.863234043121337891e+00 2.272890567779541016e+00 -6.396956443786621094e-01
2.887000000000000000e+03 6.050411605834960938e+01 -1.740162658691406250e+01 -1.776370853185653687e-01 7.569480419158935547e+00 2.217552900314331055e+00 -1.718040853738784790e-01
2.888000000000000000e+03 6.412302398681640625e+01 -2.302531242370605469e+01 -1.015572994947433472e-01 7.820229530334472656e+00 2.315601587295532227e+00 -1.206886693835258484e-01
2.889000000000000000e+03 6.503451538085937500e+01 -2.103223609924316406e+01 -1.015706807374954224e-01 7.900510787963867188e+00 2.339682102203369141e+00 -1.417500525712966919e-01
2.890000000000000000e+03 6.119590759277343750e+01 -1.464190292358398438e+01 -1.963562220335006714e-01 7.635059356689453125e+00 2.231611013412475586e+00 -2.113600969314575195e-01
2.891000000000000000e+03 6.360221862792968750e+01 5.273389816284179688e+00 -3.291890621185302734e-01 7.857482433319091797e+00 2.258487939834594727e+00 -6.824463605880737305e-01
2.892000000000000000e+03 6.229064559936523438e+01 2.696957349777221680e+00 -3.573324084281921387e-01 7.834915161132812500e+00 2.243274927139282227e+00 -5.963009595870971680e-01
2.893000000000000000e+03 3.624734497070312500e+01 -1.086163902282714844e+01 -2.307872921228408813e-01 5.426106929779052734e+00 1.558595895767211914e+00 2.597886919975280762e-01
2.894000000000000000e+03 3.422689819335937500e+01 2.814654350280761719e+01 1.473954200744628906e+00 5.435325145721435547e+00 2.072783946990966797e+00 3.253855466842651367e+00
2.895000000000000000e+03 3.765693664550781250e+01 2.457913780212402344e+01 -2.944876849651336670e-01 8.585228919982910156e+00 2.487222194671630859e+00 1.927161693572998047e+00
2.896000000000000000e+03 3.859751892089843750e+01 2.401692771911621094e+01 -4.492426812648773193e-01 8.914663314819335938e+00 2.539626121520996094e+00 1.528703927993774414e+00
2.897000000000000000e+03 3.829074096679687500e+01 2.303556251525878906e+01 -5.221282243728637695e-01 8.473007202148437500e+00 2.385263919830322266e+00 1.571425199508666992e+00
2.898000000000000000e+03 6.063597488403320312e+01 -5.757494926452636719e+00 -3.159704208374023438e-01 7.676297664642333984e+00 2.208098173141479492e+00 -3.572153449058532715e-01
2.899000000000000000e+03 5.892819213867187500e+01 -2.776203632354736328e+00 -3.958625793457031250e-01 7.644615173339843750e+00 2.174625873565673828e+00 -3.955667614936828613e-01
2.900000000000000000e+03 3.904893493652343750e+01 2.150540351867675781e+01 -6.601656675338745117e-01 8.348752021789550781e+00 2.306575775146484375e+00 1.226602911949157715e+00
2.901000000000000000e+03 3.911370468139648438e+01 1.936894989013671875e+01 -7.535349130630493164e-01 7.879626274108886719e+00 2.137827396392822266e+00 1.140049219131469727e+00
2.902000000000000000e+03 4.042939376831054688e+01 1.420805263519287109e+01 -8.615454435348510742e-01 7.391128063201904297e+00 1.958874821662902832e+00 7.314699888229370117e-01
2.903000000000000000e+03 4.420109939575195312e+01 2.042803382873535156e+01 -6.731280684471130371e-01 8.991485595703125000e+00 2.495507240295410156e+00 6.101196259260177612e-02
2.904000000000000000e+03 4.199647521972656250e+01 1.978159523010253906e+01 -7.911244630813598633e-01 8.658819198608398438e+00 2.360308647155761719e+00 5.354453921318054199e-01
2.905000000000000000e+03 3.927128219604492188e+01 1.694314956665039062e+01 -8.191894888877868652e-01 7.552452564239501953e+00 2.019979000091552734e+00 9.948889017105102539e-01
2.906000000000000000e+03 3.980348205566406250e+01 2.073768424987792969e+01 -7.296094894409179688e-01 8.447200775146484375e+00 2.315277338027954102e+00 1.029467225074768066e+00
2.907000000000000000e+03 4.233640670776367188e+01 1.042276573181152344e+01 -8.512282967567443848e-01 7.294167518615722656e+00 1.932881832122802734e+00 4.448110163211822510e-01
2.908000000000000000e+03 3.990431213378906250e+01 1.304141902923583984e+01 -8.383372426033020020e-01 7.151090621948242188e+00 1.893826007843017578e+00 7.633251547813415527e-01
2.909000000000000000e+03 4.024208068847656250e+01 7.584379673004150391e+00 -7.454755902290344238e-01 6.691575527191162109e+00 1.783830046653747559e+00 5.796846151351928711e-01
2.910000000000000000e+03 3.911859512329101562e+01 5.030086517333984375e+00 -6.474438309669494629e-01 6.319954872131347656e+00 1.701753377914428711e+00 5.917562246322631836e-01
2.911000000000000000e+03 4.130542755126953125e+01 4.846900105476379395e-01 -5.775086283683776855e-01 6.399543762207031250e+00 1.746610641479492188e+00 3.490265309810638428e-01
2.912000000000000000e+03 4.089963531494140625e+01 2.512270689010620117e+00 -6.265008449554443359e-01 6.437733173370361328e+00 1.743369698524475098e+00 4.219102561473846436e-01
2.913000000000000000e+03 4.481251525878906250e+01 2.180001258850097656e+01 -4.886687695980072021e-01 9.302158355712890625e+00 2.644046783447265625e+00 -1.524136662483215332e-01
2.914000000000000000e+03 4.205834579467773438e+01 2.099547576904296875e+01 -7.103879451751708984e-01 8.983598709106445312e+00 2.481963157653808594e+00 4.839722514152526855e-01
2.915000000000000000e+03 5.943970108032226562e+01 7.686223983764648438e+00 -4.535251259803771973e-01 7.902178764343261719e+00 2.234596014022827148e+00 -7.100485563278198242e-01
2.916000000000000000e+03 4.793730163574218750e+01 2.337431144714355469e+01 -4.545523598790168762e-02 9.332838058471679688e+00 2.786215066909790039e+00 -7.256839871406555176e-01
2.917000000000000000e+03 5.009266662597656250e+01 2.599650764465332031e+01 5.463756918907165527e-01 9.229656219482421875e+00 2.932809591293334961e+00 -9.690973162651062012e-01
2.918000000000000000e+03 5.909694290161132812e+01 1.001243400573730469e+01 -4.403387308120727539e-01 7.958972930908203125e+00 2.255590200424194336e+00 -7.839410901069641113e-01
2.919000000000000000e+03 5.771279907226562500e+01 1.080729293823242188e+01 -4.826297163963317871e-01 8.012821197509765625e+00 2.259057521820068359e+00 -7.718539834022521973e-01
2.920000000000000000e+03 6.240015411376953125e+01 9.790499210357666016e-01 -3.503511548042297363e-01 7.819030761718750000e+00 2.240603923797607422e+00 -5.441082715988159180e-01
2.921000000000000000e+03 6.361742019653320312e+01 7.599816799163818359e+00 -3.133843839168548584e-01 7.857908725738525391e+00 2.263357162475585938e+00 -7.512902617454528809e-01
2.922000000000000000e+03 6.246834182739257812e+01 -4.065059185028076172e+00 -2.942556440830230713e-01 7.782509326934814453e+00 2.246475934982299805e+00 -4.137601852416992188e-01
2.923000000000000000e+03 6.213520812988281250e+01 -2.556025028228759766e+00 -3.211984932422637939e-01 7.781824111938476562e+00 2.238187789916992188e+00 -4.470782279968261719e-01
2.924000000000000000e+03 6.014507675170898438e+01 -7.985162258148193359e+00 -2.958333790302276611e-01 7.621886730194091797e+00 2.197815895080566406e+00 -3.081555962562561035e-01
2.925000000000000000e+03 6.151591110229492188e+01 5.227140903472900391e+00 -3.887723386287689209e-01 7.857276916503906250e+00 2.240551471710205078e+00 -6.648451685905456543e-01
2.926000000000000000e+03 4.034874725341796875e+01 -3.353355228900909424e-01 -5.343631505966186523e-01 6.228842735290527344e+00 1.708343863487243652e+00 3.793882429599761963e-01
2.927000000000000000e+03 3.823086166381835938e+01 -9.379339218139648438e+00 -2.936587333679199219e-01 5.679695129394531250e+00 1.615810871124267578e+00 2.581280767917633057e-01
2.928000000000000000e+03 6.051747131347656250e+01 -7.172855734825134277e-01 -3.815315961837768555e-01 7.747722625732421875e+00 2.209857225418090820e+00 -4.799295365810394287e-01
2.929000000000000000e+03 4.889316177368164062e+01 3.547452163696289062e+01 1.914140224456787109e+00 9.917387008666992188e+00 3.549458026885986328e+00 4.114484414458274841e-02
2.930000000000000000e+03 3.344960403442382812e+01 2.803660774230957031e+01 1.566714882850646973e+00 4.523977279663085938e+00 1.827207684516906738e+00 2.950551033020019531e+00
2.931000000000000000e+03 3.789672851562500000e+01 2.196451377868652344e+01 -5.545210242271423340e-01 8.036494255065917969e+00 2.244591951370239258e+00 1.566138029098510742e+00
2.932000000000000000e+03 4.033354949951171875e+01 1.699599075317382812e+01 -8.480145931243896484e-01 7.799232006072998047e+00 2.085365295410156250e+00 8.174775838851928711e-01
2.933000000000000000e+03 4.514089584350585938e+01 1.961656951904296875e+01 -6.802530884742736816e-01 8.917660713195800781e+00 2.471222400665283203e+00 -7.766491919755935669e-02
2.934000000000000000e+03 6.055924606323242188e+01 -1.273492431640625000e+01 -2.304460853338241577e-01 7.602805137634277344e+00 2.211707830429077148e+00 -2.315643727779388428e-01
2.935000000000000000e+03 5.965975189208984375e+01 -1.078444480895996094e+01 -2.696291208267211914e-01 7.565937519073486328e+00 2.188892364501953125e+00 -2.509174644947052002e-01
2.936000000000000000e+03 3.932588577270507812e+01 1.569633483886718750e+01 -8.237385749816894531e-01 7.335494995117187500e+00 1.953526973724365234e+00 9.394900202751159668e-01
2.937000000000000000e+03 4.019332122802734375e+01 1.828141212463378906e+01 -8.262305259704589844e-01 7.995123863220214844e+00 2.150668144226074219e+00 8.821560740470886230e-01
2.938000000000000000e+03 3.971591949462890625e+01 6.277036190032958984e+00 -7.009489536285400391e-01 6.501675128936767578e+00 1.740217924118041992e+00 5.914291739463806152e-01
2.939000000000000000e+03 4.196465682983398438e+01 8.689951896667480469e+00 -8.073854446411132812e-01 7.055250167846679688e+00 1.874359369277954102e+00 4.599907100200653076e-01
2.940000000000000000e+03 4.181003952026367188e+01 1.413862037658691406e+01 -8.896937370300292969e-01 7.650244712829589844e+00 2.028165340423583984e+00 5.598528385162353516e-01
2.941000000000000000e+03 5.789052200317382812e+01 -6.920037269592285156e+00 -3.510883152484893799e-01 7.513386249542236328e+00 2.148689270019531250e+00 -2.912921607494354248e-01
2.942000000000000000e+03 4.148786544799804688e+01 7.160456180572509766e+00 -7.618713974952697754e-01 6.843690395355224609e+00 1.824545741081237793e+00 4.765174090862274170e-01
2.943000000000000000e+03 4.317870712280273438e+01 2.086258888244628906e+01 -6.791523694992065430e-01 9.025206565856933594e+00 2.503816366195678711e+00 2.322713881731033325e-01
2.944000000000000000e+03 4.101332092285156250e+01 1.969562149047851562e+01 -7.911517620086669922e-01 8.457732200622558594e+00 2.299973964691162109e+00 7.336415052413940430e-01
2.945000000000000000e+03 4.021715164184570312e+01 1.371626138687133789e+00 -5.805574655532836914e-01 6.290499687194824219e+00 1.712982654571533203e+00 4.309787452220916748e-01
2.946000000000000000e+03 4.338650894165039062e+01 4.533976554870605469e+00 -7.237064838409423828e-01 6.904597759246826172e+00 1.854267358779907227e+00 2.974798381328582764e-01
2.947000000000000000e+03 3.955566787719726562e+01 -1.971631169319152832e+00 -4.789867103099822998e-01 6.046600818634033203e+00 1.670284271240234375e+00 3.851477801799774170e-01
2.948000000000000000e+03 5.903295135498046875e+01 -4.601271629333496094e+00 -3.662699162960052490e-01 7.616986274719238281e+00 2.175215005874633789e+00 -3.582145571708679199e-01
2.949000000000000000e+03 5.765236282348632812e+01 5.292947292327880859e+00 -5.139268636703491211e-01 7.821220874786376953e+00 2.192188024520874023e+00 -5.748582482337951660e-01
2.950000000000000000e+03 6.079886245727539062e+01 1.033673882484436035e+00 -3.927977979183197021e-01 7.781443119049072266e+00 2.216593742370605469e+00 -5.243440866470336914e-01
2.951000000000000000e+03 5.756171417236328125e+01 7.278385639190673828e+00 -5.180150866508483887e-01 7.891894340515136719e+00 2.212163686752319336e+00 -6.404982805252075195e-01
2.952000000000000000e+03 4.805133438110351562e+01 2.085701942443847656e+01 -3.816116452217102051e-01 9.036207199096679688e+00 2.596378564834594727e+00 -5.819025039672851562e-01
2.953000000000000000e+03 6.275210571289062500e+01 -1.039833450317382812e+01 -2.236266285181045532e-01 7.753316879272460938e+00 2.258907079696655273e+00 -2.822217047214508057e-01
2.954000000000000000e+03 5.007643127441406250e+01 2.882498168945312500e+01 1.134961009025573730e+00 9.306355476379394531e+00 3.132395029067993164e+00 -8.993552327156066895e-01
2.955000000000000000e+03 6.617760467529296875e+01 2.976190185546875000e+01 3.758025765419006348e-01 7.264302253723144531e+00 2.292031526565551758e+00 -7.867289185523986816e-01
2.956000000000000000e+03 5.661359405517578125e+01 7.968838214874267578e+00 -5.472190380096435547e-01 7.913403034210205078e+00 2.209855318069458008e+00 -6.292798519134521484e-01
2.957000000000000000e+03 3.770574188232421875e+01 -1.304887580871582031e+01 -2.293566912412643433e-01 5.572291374206542969e+00 1.602880358695983887e+00 2.016036212444305420e-01
2.958000000000000000e+03 3.976721191406250000e+01 -9.169223785400390625e+00 -3.252406120300292969e-01 5.875092983245849609e+00 1.664955735206604004e+00 2.274906784296035767e-01
2.959000000000000000e+03 3.832433700561523438e+01 -7.975971221923828125e+00 -3.191357851028442383e-01 5.721243858337402344e+00 1.620632410049438477e+00 2.756743729114532471e-01
2.960000000000000000e+03 3.803065872192382812e+01 -1.107979202270507812e+01 -2.672964632511138916e-01 5.641891002655029297e+00 1.612378358840942383e+00 2.270202487707138062e-01
2.961000000000000000e+03 5.881904983520507812e+01 -8.420193195343017578e-01 -4.233614802360534668e-01 7.685946464538574219e+00 2.178775548934936523e+00 -4.414895176887512207e-01
2.962000000000000000e+03 5.870475387573242188e+01 -1.374869060516357422e+01 -2.416422069072723389e-01 7.462966918945312500e+00 2.166397571563720703e+00 -1.999257355928421021e-01
2.963000000000000000e+03 5.694869613647460938e+01 -1.480949878692626953e+01 -2.512666881084442139e-01 7.328277587890625000e+00 2.123103380203247070e+00 -1.712643653154373169e-01
2.964000000000000000e+03 4.063283157348632812e+01 8.969498634338378906e+00 -7.858945131301879883e-01 6.868573665618896484e+00 1.824803709983825684e+00 5.895768404006958008e-01
2.965000000000000000e+03 5.842499160766601562e+01 1.238943576812744141e+01 -4.242992401123046875e-01 8.036992073059082031e+00 2.283807992935180664e+00 -8.484924435615539551e-01
2.966000000000000000e+03 5.718897247314453125e+01 9.279095649719238281e+00 -5.202073454856872559e-01 7.960982799530029297e+00 2.232232570648193359e+00 -6.946025490760803223e-01
2.967000000000000000e+03 4.086962509155273438e+01 -1.519549608230590820e+00 -5.188511013984680176e-01 6.241914272308349609e+00 1.716918945312500000e+00 3.387038409709930420e-01
2.968000000000000000e+03 4.033747100830078125e+01 -5.131194591522216797e+00 -4.200074672698974609e-01 6.038144588470458984e+00 1.685441136360168457e+00 2.907054126262664795e-01
2.969000000000000000e+03 4.413372421264648438e+01 -1.768829226493835449e+00 -5.601625442504882812e-01 6.618823528289794922e+00 1.817598342895507812e+00 1.835982650518417358e-01
2.970000000000000000e+03 6.565792846679687500e+01 -2.737006378173828125e+01 -7.441562414169311523e-02 7.961966037750244141e+00 2.366265058517456055e+00 -9.118914604187011719e-02
2.971000000000000000e+03 2.922228050231933594e+01 -3.226240158081054688e+01 4.491526633501052856e-03 4.539777755737304688e+00 1.363280773162841797e+00 2.022368088364601135e-02
2.972000000000000000e+03 2.762921524047851562e+01 -3.033209991455078125e+01 3.728197515010833740e-02 4.391904354095458984e+00 1.328755855560302734e+00 7.894163578748703003e-02
2.973000000000000000e+03 6.152021408081054688e+01 7.811248302459716797e+00 -3.830966353416442871e-01 7.888014316558837891e+00 2.251475334167480469e+00 -7.506370544433593750e-01
2.974000000000000000e+03 6.049012374877929688e+01 6.545478343963623047e+00 -4.238531589508056641e-01 7.875425815582275391e+00 2.235471725463867188e+00 -6.923924684524536133e-01
2.975000000000000000e+03 7.082156372070312500e+01 -3.456709671020507812e+01 -1.897205784916877747e-02 8.470616340637207031e+00 2.535493135452270508e+00 -2.105509862303733826e-02
2.976000000000000000e+03 2.873598480224609375e+01 -2.477925491333007812e+01 -5.124991759657859802e-02 4.571840286254882812e+00 1.356177091598510742e+00 1.428837180137634277e-01
2.977000000000000000e+03 3.152668571472167969e+01 -2.948656463623046875e+01 -3.416303545236587524e-02 4.813420295715332031e+00 1.433777213096618652e+00 6.779868900775909424e-02
2.978000000000000000e+03 3.435982894897460938e+01 4.092367553710937500e+01 6.874898076057434082e-01 4.347318172454833984e+00 1.510442376136779785e+00 -4.900811910629272461e-01
2.979000000000000000e+03 6.746176147460937500e+01 3.531952285766601562e+01 4.631578326225280762e-01 6.967100143432617188e+00 2.229077339172363281e+00 -4.738167226314544678e-01
2.980000000000000000e+03 6.746522521972656250e+01 4.105105590820312500e+01 4.967396557331085205e-01 6.936000823974609375e+00 2.229822158813476562e+00 -8.508781343698501587e-02
2.981000000000000000e+03 2.790332603454589844e+01 -3.869224548339843750e+01 -1.837997734546661377e-01 4.420511722564697266e+00 1.271013617515563965e+00 -8.902084082365036011e-02
2.982000000000000000e+03 7.872904300689697266e+00 4.138315582275390625e+01 -5.490461480803787708e-04 4.109003930352628231e-04 -4.144372724113054574e-05 3.252503694966435432e-03
2.983000000000000000e+03 3.267313385009765625e+01 -1.367702603340148926e+00 -2.753402888774871826e-01 5.043742656707763672e+00 1.430520653724670410e+00 5.421614646911621094e-01
2.984000000000000000e+03 2.788323020935058594e+01 -3.595845413208007812e+01 -2.782990038394927979e-02 4.373756408691406250e+00 1.303778052330017090e+00 -4.949988424777984619e-02
2.985000000000000000e+03 4.363989257812500000e+01 1.940726280212402344e+01 -7.562643885612487793e-01 8.773753166198730469e+00 2.405246734619140625e+00 1.973223388195037842e-01
2.986000000000000000e+03 4.430801010131835938e+01 1.860247230529785156e+01 -7.795344591140747070e-01 8.678368568420410156e+00 2.369650125503540039e+00 1.170335337519645691e-01
2.987000000000000000e+03 4.338119125366210938e+01 1.785595512390136719e+01 -8.381961584091186523e-01 8.451825141906738281e+00 2.284088850021362305e+00 3.058178424835205078e-01
2.988000000000000000e+03 4.322494506835937500e+01 1.459872245788574219e+01 -8.903583288192749023e-01 7.914286613464355469e+00 2.107178449630737305e+00 3.668515682220458984e-01
2.989000000000000000e+03 4.004442214965820312e+01 1.952977561950683594e+01 -7.965057492256164551e-01 8.229597091674804688e+00 2.229927539825439453e+00 9.393740892410278320e-01
2.990000000000000000e+03 4.136407089233398438e+01 1.712968826293945312e+01 -8.661485314369201660e-01 8.029254913330078125e+00 2.148931980133056641e+00 6.525705456733703613e-01
2.991000000000000000e+03 4.893683624267578125e+01 1.715046691894531250e+01 -6.395660042762756348e-01 8.587560653686523438e+00 2.384398460388183594e+00 -4.729378521442413330e-01
2.992000000000000000e+03 4.597891998291015625e+01 2.081590461730957031e+01 -5.159504413604736328e-01 9.115923881530761719e+00 2.579992055892944336e+00 -3.029487431049346924e-01
2.993000000000000000e+03 4.044985198974609375e+01 1.564664554595947266e+01 -8.676871657371520996e-01 7.620962619781494141e+00 2.025982618331909180e+00 7.621756196022033691e-01
2.994000000000000000e+03 4.330366897583007812e+01 8.175656318664550781e+00 -8.116773366928100586e-01 7.181469917297363281e+00 1.910937786102294922e+00 3.404967188835144043e-01
2.995000000000000000e+03 4.093466949462890625e+01 5.756277561187744141e+00 -7.138372063636779785e-01 6.657563209533691406e+00 1.783117771148681641e+00 4.866972863674163818e-01
2.996000000000000000e+03 5.582482528686523438e+01 -1.360457181930541992e+00 -4.890539050102233887e-01 7.541536331176757812e+00 2.115744829177856445e+00 -3.418960869312286377e-01
2.997000000000000000e+03 5.833412551879882812e+01 8.600850105285644531e+00 -4.877292513847351074e-01 7.936675071716308594e+00 2.234683752059936523e+00 -7.106520533561706543e-01
2.998000000000000000e+03 5.012704849243164062e+01 2.337098121643066406e+01 6.440088152885437012e-02 9.093111991882324219e+00 2.747253894805908203e+00 -9.018027186393737793e-01
2.999000000000000000e+03 5.365260314941406250e+01 2.682020378112792969e+01 6.353861689567565918e-01 8.739821434020996094e+00 2.812562227249145508e+00 -1.047075033187866211e+00
3.000000000000000000e+03 4.213260269165039062e+01 -8.258463144302368164e-01 -5.568784475326538086e-01 6.440781593322753906e+00 1.765170931816101074e+00 2.876853942871093750e-01
3.001000000000000000e+03 5.845548629760742188e+01 4.486607551574707031e+00 -4.761279821395874023e-01 7.810320854187011719e+00 2.200257778167724609e+00 -5.781049728393554688e-01
3.002000000000000000e+03 5.026388549804687500e+01 2.078979873657226562e+01 -2.668207883834838867e-01 8.884377479553222656e+00 2.585266828536987305e+00 -7.916250228881835938e-01
3.003000000000000000e+03 4.908774566650390625e+01 2.209064102172851562e+01 -1.692739576101303101e-01 9.083212852478027344e+00 2.674181461334228516e+00 -7.571808099746704102e-01
3.004000000000000000e+03 4.182887268066406250e+01 -1.258127784729003906e+01 -2.955309748649597168e-01 6.037916660308837891e+00 1.722715616226196289e+00 1.340438723564147949e-01
3.005000000000000000e+03 6.072654724121093750e+01 -2.481219291687011719e+01 -1.117215156555175781e-01 7.551741123199462891e+00 2.232005834579467773e+00 -9.832638502120971680e-02
3.006000000000000000e+03 6.338165664672851562e+01 -2.534974861145019531e+01 -8.619056642055511475e-02 7.762748718261718750e+00 2.302967309951782227e+00 -1.000137701630592346e-01
3.007000000000000000e+03 5.841564941406250000e+01 9.993426203727722168e-01 -4.553199112415313721e-01 7.717274188995361328e+00 2.178586244583129883e+00 -4.776811003684997559e-01
3.008000000000000000e+03 4.079711151123046875e+01 -6.899157524108886719e+00 -3.916167020797729492e-01 6.037602424621582031e+00 1.693795800209045410e+00 2.418132871389389038e-01
3.009000000000000000e+03 4.227751159667968750e+01 -6.273041725158691406e+00 -4.258155524730682373e-01 6.228030681610107422e+00 1.740664601325988770e+00 2.075774073600769043e-01
3.010000000000000000e+03 5.353377914428710938e+01 9.607451438903808594e+00 -6.481963992118835449e-01 7.971565246582031250e+00 2.197010755538940430e+00 -5.329763889312744141e-01
3.011000000000000000e+03 4.216001129150390625e+01 5.181319713592529297e+00 -7.223985791206359863e-01 6.789373874664306641e+00 1.820092558860778809e+00 3.925155699253082275e-01
3.012000000000000000e+03 5.680848312377929688e+01 -9.718799591064453125e+00 -3.251592814922332764e-01 7.390459537506103516e+00 2.119590044021606445e+00 -2.259149700403213501e-01
3.013000000000000000e+03 5.852963256835937500e+01 6.453485488891601562e+00 -4.910883903503417969e-01 7.872801780700683594e+00 2.214514017105102539e+00 -6.423482298851013184e-01
3.014000000000000000e+03 3.668002319335937500e+01 -6.362924575805664062e+00 -3.167974054813385010e-01 5.548013687133789062e+00 1.569364905357360840e+00 3.513133823871612549e-01
3.015000000000000000e+03 3.647568511962890625e+01 -3.476340484619140625e+01 -1.032983809709548950e-01 5.304899692535400391e+00 1.560480475425720215e+00 4.511716775596141815e-03
3.016000000000000000e+03 6.455033874511718750e+01 -3.445658111572265625e+01 -5.732172355055809021e-02 7.881943225860595703e+00 2.347386360168457031e+00 -3.935875743627548218e-02
3.017000000000000000e+03 3.451975631713867188e+01 -2.390858268737792969e+01 -9.722546488046646118e-02 5.100385189056396484e+00 1.500947952270507812e+00 9.360962361097335815e-02
3.018000000000000000e+03 3.250475311279296875e+01 -2.363094329833984375e+01 -8.068770915269851685e-02 4.959064483642578125e+00 1.463513016700744629e+00 1.277620792388916016e-01
3.019000000000000000e+03 6.034957885742187500e+01 2.399024200439453125e+01 2.396818697452545166e-01 7.998031616210937500e+00 2.471313953399658203e+00 -1.092133045196533203e+00
3.020000000000000000e+03 6.091948699951171875e+01 2.117079544067382812e+01 3.756070882081985474e-02 7.972024917602539062e+00 2.402875661849975586e+00 -1.090444445610046387e+00
3.021000000000000000e+03 6.432020568847656250e+01 2.880753898620605469e+01 4.077651500701904297e-01 7.491439819335937500e+00 2.369761466979980469e+00 -8.810580372810363770e-01
3.022000000000000000e+03 6.357831954956054688e+01 3.778161621093750000e+01 7.707306146621704102e-01 7.490848541259765625e+00 2.478473663330078125e+00 -3.400683999061584473e-01
3.023000000000000000e+03 4.336800003051757812e+01 1.092336535453796387e+00 -6.284068822860717773e-01 6.677724838256835938e+00 1.814795374870300293e+00 2.551509439945220947e-01
3.024000000000000000e+03 5.851417922973632812e+01 1.624379730224609375e+01 -2.906630933284759521e-01 8.118768692016601562e+00 2.348431587219238281e+00 -9.763224720954895020e-01
3.025000000000000000e+03 5.923668289184570312e+01 1.782984352111816406e+01 -1.899923682212829590e-01 8.094533920288085938e+00 2.371362447738647461e+00 -1.032626271247863770e+00
3.026000000000000000e+03 1.820605659484863281e+01 -4.124377441406250000e+01 -4.336499422788619995e-02 1.530181288719177246e+00 4.460448622703552246e-01 2.282844036817550659e-01
3.027000000000000000e+03 6.102887630462646484e+00 3.861822891235351562e+01 4.708819906227290630e-04 -1.681086432654410601e-04 9.083199984161183238e-05 2.515386557206511497e-03
3.028000000000000000e+03 1.112339115142822266e+01 3.915382766723632812e+01 1.248365733772516251e-04 -3.714495571330189705e-03 -1.076897722668945789e-03 -2.582267625257372856e-03
3.029000000000000000e+03 6.880201721191406250e+01 2.202745628356933594e+01 4.888545721769332886e-02 7.269035339355468750e+00 2.195376157760620117e+00 -8.792645335197448730e-01
3.030000000000000000e+03 7.448049163818359375e+01 -3.879488754272460938e+01 -1.941327378153800964e-02 8.782102584838867188e+00 2.628806829452514648e+00 -4.545095562934875488e-02
3.031000000000000000e+03 5.587994003295898438e+01 6.898880958557128906e+00 -5.777300000190734863e-01 7.859136104583740234e+00 2.184421777725219727e+00 -5.578569173812866211e-01
3.032000000000000000e+03 5.622666168212890625e+01 3.716794490814208984e+00 -5.392151474952697754e-01 7.740069389343261719e+00 2.160256147384643555e+00 -4.816517829895019531e-01
3.033000000000000000e+03 4.276199340820312500e+01 1.607612037658691406e+01 -8.826751112937927246e-01 8.070945739746093750e+00 2.156481266021728516e+00 4.317460060119628906e-01
3.034000000000000000e+03 4.116054534912109375e+01 1.842414474487304688e+01 -8.396179676055908203e-01 8.229944229125976562e+00 2.217097997665405273e+00 6.985810995101928711e-01
3.035000000000000000e+03 4.209787750244140625e+01 1.859689521789550781e+01 -8.293413519859313965e-01 8.415707588195800781e+00 2.275909900665283203e+00 5.208289623260498047e-01
3.036000000000000000e+03 4.160051345825195312e+01 1.573537540435791016e+01 -8.852828741073608398e-01 7.846569061279296875e+00 2.088385820388793945e+00 6.059280633926391602e-01
3.037000000000000000e+03 4.391811370849609375e+01 9.877097129821777344e+00 -8.528745174407958984e-01 7.446897983551025391e+00 1.978206992149353027e+00 2.897773981094360352e-01
3.038000000000000000e+03 4.273803329467773438e+01 6.627503871917724609e+00 -7.678385376930236816e-01 6.980978965759277344e+00 1.863942027091979980e+00 3.688640296459197998e-01
3.039000000000000000e+03 4.376148605346679688e+01 -5.642977237701416016e+00 -4.567336142063140869e-01 6.422009944915771484e+00 1.789582848548889160e+00 1.523195952177047729e-01
3.040000000000000000e+03 4.801029586791992188e+01 1.842975425720214844e+01 -6.068932414054870605e-01 8.747786521911621094e+00 2.442267894744873047e+00 -4.371975958347320557e-01
3.041000000000000000e+03 4.490698242187500000e+01 1.141361141204833984e+01 -8.709013462066650391e-01 7.715777873992919922e+00 2.053462982177734375e+00 1.804736107587814331e-01
3.042000000000000000e+03 4.385629653930664062e+01 1.293196296691894531e+01 -8.862732052803039551e-01 7.780773639678955078e+00 2.068350076675415039e+00 2.897911369800567627e-01
3.043000000000000000e+03 4.219559478759765625e+01 1.231363010406494141e+01 -8.753905296325683594e-01 7.476117610931396484e+00 1.980218052864074707e+00 4.883724153041839600e-01
3.044000000000000000e+03 4.454428100585937500e+01 1.536501026153564453e+01 -8.687687516212463379e-01 8.179986000061035156e+00 2.193365335464477539e+00 1.649256944656372070e-01
3.045000000000000000e+03 4.237820434570312500e+01 1.739174842834472656e+01 -8.626029491424560547e-01 8.235211372375488281e+00 2.211782455444335938e+00 4.867624938488006592e-01
3.046000000000000000e+03 5.671341705322265625e+01 6.020790576934814453e+00 -5.457062125205993652e-01 7.837522983551025391e+00 2.187545061111450195e+00 -5.648984313011169434e-01
3.047000000000000000e+03 5.117188262939453125e+01 2.465645790100097656e+01 3.216812014579772949e-01 9.010942459106445312e+00 2.799787044525146484e+00 -9.930509328842163086e-01
3.048000000000000000e+03 4.521275711059570312e+01 5.214518547058105469e+00 -7.524400949478149414e-01 7.172137737274169922e+00 1.925909280776977539e+00 1.639072597026824951e-01
3.049000000000000000e+03 4.154830551147460938e+01 3.805735349655151367e+00 -6.751775145530700684e-01 6.612708091735839844e+00 1.781259179115295410e+00 4.049970805644989014e-01
3.050000000000000000e+03 5.696825790405273438e+01 5.598174333572387695e-01 -4.867812693119049072e-01 7.652504444122314453e+00 2.149716854095458984e+00 -4.243655204772949219e-01
3.051000000000000000e+03 6.031697845458984375e+01 4.103970050811767578e+00 -4.165256619453430176e-01 7.827925682067871094e+00 2.223419904708862305e+00 -6.128450632095336914e-01
3.052000000000000000e+03 5.786520004272460938e+01 1.473603916168212891e+01 -3.684445917606353760e-01 8.109920501708984375e+00 2.322442770004272461e+00 -9.152696728706359863e-01
3.053000000000000000e+03 5.476200866699218750e+01 1.114935874938964844e+01 -5.878559947013854980e-01 8.062314033508300781e+00 2.242337465286254883e+00 -6.588057279586791992e-01
3.054000000000000000e+03 5.618424606323242188e+01 -7.398048877716064453e+00 -3.723884224891662598e-01 7.392990112304687500e+00 2.106180429458618164e+00 -2.461012452840805054e-01
3.055000000000000000e+03 5.755055618286132812e+01 -4.916081428527832031e+00 -3.917705714702606201e-01 7.529988288879394531e+00 2.141465425491333008e+00 -3.220760524272918701e-01
3.056000000000000000e+03 4.029269790649414062e+01 -1.509100723266601562e+01 -2.352282404899597168e-01 5.813199043273925781e+00 1.673391222953796387e+00 1.333108693361282349e-01
3.057000000000000000e+03 5.622480773925781250e+01 1.116112041473388672e+01 -5.290179848670959473e-01 8.045302391052246094e+00 2.254885435104370117e+00 -7.289116382598876953e-01
3.058000000000000000e+03 5.476847839355468750e+01 9.762584686279296875e+00 -6.019045114517211914e-01 7.990417957305908203e+00 2.216554164886474609e+00 -6.073126196861267090e-01
3.059000000000000000e+03 5.130642700195312500e+01 2.731072425842285156e+01 7.927172780036926270e-01 9.061441421508789062e+00 2.956247568130493164e+00 -9.912096858024597168e-01
3.060000000000000000e+03 6.110939788818359375e+01 -3.158185386657714844e+01 -8.949580788612365723e-02 7.567843914031982422e+00 2.243504524230957031e+00 -5.860670283436775208e-02
3.061000000000000000e+03 4.128592300415039062e+01 -8.685896873474121094e+00 -3.560493588447570801e-01 6.052600383758544922e+00 1.708965301513671875e+00 1.986213177442550659e-01
3.062000000000000000e+03 3.981006622314453125e+01 -1.302718544006347656e+01 -2.609804570674896240e-01 5.790047645568847656e+00 1.658720135688781738e+00 1.675589978694915771e-01
3.063000000000000000e+03 4.340379714965820312e+01 -2.821132838726043701e-01 -5.893446207046508789e-01 6.613157272338867188e+00 1.807143807411193848e+00 2.386323958635330200e-01
3.064000000000000000e+03 5.307248687744140625e+01 3.193129158020019531e+01 1.333459615707397461e+00 8.910633087158203125e+00 3.073227882385253906e+00 -7.010243535041809082e-01
3.065000000000000000e+03 5.144444274902343750e+01 3.034313583374023438e+01 1.294399023056030273e+00 9.085184097290039062e+00 3.113874912261962891e+00 -8.215182423591613770e-01
3.066000000000000000e+03 5.229968643188476562e+01 2.585091400146484375e+01 5.155300498008728027e-01 8.917976379394531250e+00 2.830051898956298828e+00 -1.027326941490173340e+00
3.067000000000000000e+03 5.274875259399414062e+01 2.857155990600585938e+01 9.447224140167236328e-01 8.894794464111328125e+00 2.951855182647705078e+00 -9.502233862876892090e-01
3.068000000000000000e+03 5.725176620483398438e+01 -1.159427523612976074e+00 -4.612728357315063477e-01 7.613474369049072266e+00 2.145660400390625000e+00 -3.896437883377075195e-01
3.069000000000000000e+03 4.603600692749023438e+01 1.854665565490722656e+01 -7.051463127136230469e-01 8.766536712646484375e+00 2.418417215347290039e+00 -1.780622303485870361e-01
3.070000000000000000e+03 4.776590728759765625e+01 1.607803153991699219e+01 -7.442479729652404785e-01 8.470522880554199219e+00 2.317882537841796875e+00 -2.940134406089782715e-01
3.071000000000000000e+03 4.271097183227539062e+01 -2.386574506759643555e+00 -5.260556340217590332e-01 6.428461074829101562e+00 1.770721673965454102e+00 2.377352267503738403e-01
3.072000000000000000e+03 5.647135162353515625e+01 1.926868057250976562e+01 -1.628193557262420654e-01 8.315634727478027344e+00 2.445844650268554688e+00 -1.026669740676879883e+00
3.073000000000000000e+03 4.135002899169921875e+01 -2.974077701568603516e+00 -4.949073791503906250e-01 6.245606899261474609e+00 1.725209832191467285e+00 2.934429347515106201e-01
3.074000000000000000e+03 6.156749725341796875e+01 3.373991394042968750e+01 7.568077445030212402e-01 7.744390010833740234e+00 2.550359249114990234e+00 -6.356577277183532715e-01
3.075000000000000000e+03 7.183704376220703125e+01 -4.093978500366210938e+01 -1.308394130319356918e-02 8.555075645446777344e+00 2.562597513198852539e+00 -6.176076363772153854e-03
3.076000000000000000e+03 5.730916213989257812e+01 2.793247795104980469e+01 6.388360261917114258e-01 8.279033660888671875e+00 2.675360918045043945e+00 -1.002642035484313965e+00
3.077000000000000000e+03 5.416425323486328125e+01 2.526711845397949219e+01 4.233432412147521973e-01 8.653348922729492188e+00 2.723007440567016602e+00 -1.067942857742309570e+00
3.078000000000000000e+03 5.607900619506835938e+01 -1.286240196228027344e+01 -2.800561189651489258e-01 7.293090820312500000e+00 2.103910446166992188e+00 -1.778797358274459839e-01
3.079000000000000000e+03 5.506957244873046875e+01 -1.086060523986816406e+01 -3.307218253612518311e-01 7.249027729034423828e+00 2.075491666793823242e+00 -1.798655241727828979e-01
3.080000000000000000e+03 4.462334060668945312e+01 3.815754413604736328e+00 -7.126374244689941406e-01 6.995861053466796875e+00 1.884967088699340820e+00 2.035055309534072876e-01
3.081000000000000000e+03 4.392084884643554688e+01 1.668697929382324219e+01 -8.569525480270385742e-01 8.314852714538574219e+00 2.237370014190673828e+00 2.378631085157394409e-01
3.082000000000000000e+03 5.571690750122070312e+01 5.064097404479980469e+00 -5.671727657318115234e-01 7.774492740631103516e+00 2.162195920944213867e+00 -4.952722787857055664e-01
3.083000000000000000e+03 4.342761993408203125e+01 -9.829774856567382812e+00 -3.586367666721343994e-01 6.252233505249023438e+00 1.768079042434692383e+00 1.231509074568748474e-01
3.084000000000000000e+03 4.399999237060546875e+01 2.436705350875854492e+00 -6.773937344551086426e-01 6.834512710571289062e+00 1.847135663032531738e+00 2.371042817831039429e-01
3.085000000000000000e+03 5.551749420166015625e+01 1.766475486755371094e+01 -3.186880350112915039e-01 8.339113235473632812e+00 2.406127452850341797e+00 -9.411925673484802246e-01
3.086000000000000000e+03 5.571297454833984375e+01 8.480817794799804688e+00 -5.767517685890197754e-01 7.930443763732910156e+00 2.206107616424560547e+00 -6.077529191970825195e-01
3.087000000000000000e+03 4.502120971679687500e+01 1.753463172912597656e+01 -8.020068407058715820e-01 8.558794021606445312e+00 2.327036142349243164e+00 3.359467536211013794e-02
3.088000000000000000e+03 4.690585708618164062e+01 1.734091949462890625e+01 -7.291843295097351074e-01 8.612795829772949219e+00 2.365083456039428711e+00 -2.400957047939300537e-01
3.089000000000000000e+03 5.610435485839843750e+01 1.263823890686035156e+01 -5.062953233718872070e-01 8.108467102050781250e+00 2.280651569366455078e+00 -7.762615084648132324e-01
3.090000000000000000e+03 5.470003509521484375e+01 1.261708831787109375e+01 -5.579265356063842773e-01 8.125697135925292969e+00 2.270331144332885742e+00 -7.044880390167236328e-01
3.091000000000000000e+03 4.212597274780273438e+01 1.696987986564636230e+00 -6.289274692535400391e-01 6.567523956298828125e+00 1.781579017639160156e+00 3.329978883266448975e-01
3.092000000000000000e+03 4.547429656982421875e+01 -7.755051851272583008e-01 -5.931574702262878418e-01 6.815468311309814453e+00 1.866693258285522461e+00 1.200936287641525269e-01
3.093000000000000000e+03 5.440411376953125000e+01 -7.299494743347167969e+00 -3.980194330215454102e-01 7.284639835357666016e+00 2.065986156463623047e+00 -2.056017369031906128e-01
3.094000000000000000e+03 5.604898452758789062e+01 1.397990226745605469e+01 -4.686218500137329102e-01 8.175970077514648438e+00 2.312204360961914062e+00 -8.306960463523864746e-01
3.095000000000000000e+03 5.718509292602539062e+01 1.333152675628662109e+01 -4.449425041675567627e-01 8.104605674743652344e+00 2.297899007797241211e+00 -8.460921049118041992e-01
3.096000000000000000e+03 4.457656478881835938e+01 -3.363400936126708984e+00 -5.228931903839111328e-01 6.596377849578857422e+00 1.822045445442199707e+00 1.445590257644653320e-01
3.097000000000000000e+03 5.516552352905273438e+01 7.672015190124511719e+00 -5.963713526725769043e-01 7.887861728668212891e+00 2.187447071075439453e+00 -5.533077120780944824e-01
3.098000000000000000e+03 5.500066757202148438e+01 6.097910404205322266e+00 -5.996088385581970215e-01 7.810949802398681641e+00 2.163402318954467773e+00 -4.966229200363159180e-01
3.099000000000000000e+03 5.905491256713867188e+01 3.248352289199829102e+00 -4.594736099243164062e-01 7.787932872772216797e+00 2.198537826538085938e+00 -5.543954968452453613e-01
3.100000000000000000e+03 4.528513336181640625e+01 1.396545982360839844e+01 -8.646987676620483398e-01 8.072908401489257812e+00 2.162462949752807617e+00 8.536250889301300049e-02
3.101000000000000000e+03 5.597042846679687500e+01 2.153656768798828125e+01 -1.132644340395927429e-02 8.390510559082031250e+00 2.513755083084106445e+00 -1.067877531051635742e+00
3.102000000000000000e+03 4.398379135131835938e+01 5.965291023254394531e+00 -7.620955705642700195e-01 7.082860946655273438e+00 1.896229743957519531e+00 2.641371190547943115e-01
3.103000000000000000e+03 4.531689834594726562e+01 8.885390281677246094e+00 -8.317002058029174805e-01 7.515267372131347656e+00 2.005070209503173828e+00 1.380047053098678589e-01
3.104000000000000000e+03 3.984429550170898438e+01 -1.098370552062988281e+01 -2.965086698532104492e-01 5.831078052520751953e+00 1.660370826721191406e+00 2.017577439546585083e-01
3.105000000000000000e+03 5.783869934082031250e+01 2.592719316482543945e+00 -4.913717508316040039e-01 7.744526386260986328e+00 2.175946474075317383e+00 -5.019237399101257324e-01
3.106000000000000000e+03 6.581898498535156250e+01 -3.753688049316406250e+01 -4.341531172394752502e-02 8.013958930969238281e+00 2.391163110733032227e+00 -2.647610567510128021e-02
3.107000000000000000e+03 6.895023345947265625e+01 -3.633646011352539062e+01 -2.632058784365653992e-02 8.293413162231445312e+00 2.480127811431884766e+00 -3.234978020191192627e-02
3.108000000000000000e+03 5.561165237426757812e+01 2.656139731407165527e-01 -5.183047056198120117e-01 7.591215133666992188e+00 2.121873140335083008e+00 -3.713398277759552002e-01
3.109000000000000000e+03 5.667143630981445312e+01 3.081474685668945312e+01 9.401839971542358398e-01 8.329455375671386719e+00 2.780891656875610352e+00 -8.554348945617675781e-01
3.110000000000000000e+03 6.087287902832031250e+01 2.955556106567382812e+01 6.069373488426208496e-01 7.862472057342529297e+00 2.540822744369506836e+00 -9.037566184997558594e-01
3.111000000000000000e+03 5.118412780761718750e+01 3.389015197753906250e+01 1.668938994407653809e+00 9.265372276306152344e+00 3.280293464660644531e+00 -3.946010172367095947e-01
3.112000000000000000e+03 5.420945739746093750e+01 1.877859687805175781e+01 -2.901910543441772461e-01 8.467061042785644531e+00 2.453061103820800781e+00 -9.359623193740844727e-01
3.113000000000000000e+03 4.577138519287109375e+01 1.630886077880859375e+01 -8.170799612998962402e-01 8.425909996032714844e+00 2.282649040222167969e+00 -4.306470602750778198e-02
3.114000000000000000e+03 4.659988021850585938e+01 6.713362932205200195e-01 -6.361323595046997070e-01 7.024959087371826172e+00 1.916648030281066895e+00 5.716174468398094177e-02
3.115000000000000000e+03 4.619736862182617188e+01 1.262319755554199219e+01 -8.565233349800109863e-01 7.986167430877685547e+00 2.138893127441406250e+00 1.073455251753330231e-02
3.116000000000000000e+03 4.656955337524414062e+01 1.501748847961425781e+01 -8.207789659500122070e-01 8.299627304077148438e+00 2.243654489517211914e+00 -1.021821498870849609e-01
3.117000000000000000e+03 4.460601425170898438e+01 7.431097507476806641e+00 -8.072533607482910156e-01 7.295890331268310547e+00 1.946591138839721680e+00 2.211980372667312622e-01
3.118000000000000000e+03 4.619207382202148438e+01 1.021282672882080078e+01 -8.413805961608886719e-01 7.707173824310302734e+00 2.059737920761108398e+00 4.756104573607444763e-02
3.119000000000000000e+03 4.446488189697265625e+01 4.174177050590515137e-01 -6.194440126419067383e-01 6.783339023590087891e+00 1.849168539047241211e+00 1.812756210565567017e-01
3.120000000000000000e+03 4.525737762451171875e+01 1.638209700584411621e+00 -6.613370180130004883e-01 6.926965236663818359e+00 1.879688501358032227e+00 1.465166956186294556e-01
3.121000000000000000e+03 5.106112289428710938e+01 9.389694213867187500e+00 -7.243328094482421875e-01 7.903744697570800781e+00 2.153823614120483398e+00 -3.682438731193542480e-01
3.122000000000000000e+03 5.599833679199218750e+01 9.679352760314941406e+00 -5.558685660362243652e-01 7.981165885925292969e+00 2.227589130401611328e+00 -6.645288467407226562e-01
3.123000000000000000e+03 5.480611038208007812e+01 8.572845458984375000e+00 -6.079910397529602051e-01 7.929714202880859375e+00 2.196516990661621094e+00 -5.683271288871765137e-01
3.124000000000000000e+03 5.430390930175781250e+01 7.092751026153564453e+00 -6.232262849807739258e-01 7.845832347869873047e+00 2.166781902313232422e+00 -4.960413873195648193e-01
3.125000000000000000e+03 4.584652328491210938e+01 6.592155933380126953e+00 -7.841380238533020020e-01 7.357651710510253906e+00 1.972054004669189453e+00 1.021938621997833252e-01
3.126000000000000000e+03 5.488344955444335938e+01 1.593675708770751953e+01 -4.321527481079101562e-01 8.299750328063964844e+00 2.360279321670532227e+00 -8.534216284751892090e-01
3.127000000000000000e+03 5.645359039306640625e+01 1.541888809204101562e+01 -3.955953121185302734e-01 8.204936981201171875e+00 2.342802524566650391e+00 -8.965657949447631836e-01
3.128000000000000000e+03 4.657095336914062500e+01 7.901723384857177734e+00 -8.034431338310241699e-01 7.533965587615966797e+00 2.019156694412231445e+00 3.390733897686004639e-02
3.129000000000000000e+03 5.152101516723632812e+01 1.945216178894042969e+01 -3.354924023151397705e-01 8.678463935852050781e+00 2.502891540527343750e+00 -8.261338472366333008e-01
3.130000000000000000e+03 5.018623733520507812e+01 1.825808715820312500e+01 -5.053055882453918457e-01 8.657883644104003906e+00 2.445773601531982422e+00 -6.516667604446411133e-01
3.131000000000000000e+03 5.130285263061523438e+01 2.211513328552246094e+01 -6.475120037794113159e-02 8.874288558959960938e+00 2.642861127853393555e+00 -9.215143322944641113e-01
3.132000000000000000e+03 4.418320083618164062e+01 -7.325515747070312500e+00 -4.235823750495910645e-01 6.409279346466064453e+00 1.795709133148193359e+00 1.204607561230659485e-01
3.133000000000000000e+03 4.277260971069335938e+01 -8.016548156738281250e+00 -3.939351141452789307e-01 6.220585823059082031e+00 1.747995138168334961e+00 1.680801361799240112e-01
3.134000000000000000e+03 5.224167251586914062e+01 2.345188903808593750e+01 1.400761157274246216e-01 8.848870277404785156e+00 2.696683883666992188e+00 -1.007629036903381348e+00
3.135000000000000000e+03 5.551066970825195312e+01 2.544633483886718750e+01 4.029193818569183350e-01 8.495252609252929688e+00 2.669451713562011719e+00 -1.083912491798400879e+00
3.136000000000000000e+03 5.802001953125000000e+01 2.282266807556152344e+01 1.362010687589645386e-01 8.219503402709960938e+00 2.506711244583129883e+00 -1.100878477096557617e+00
3.137000000000000000e+03 4.881021499633789062e+01 2.236734390258789062e+00 -6.676006317138671875e-01 7.295869827270507812e+00 1.988480687141418457e+00 -7.591284066438674927e-02
3.138000000000000000e+03 4.703971862792968750e+01 -4.532654285430908203e+00 -5.145901441574096680e-01 6.808092594146728516e+00 1.888050794601440430e+00 4.261140897870063782e-02
3.139000000000000000e+03 5.592625427246093750e+01 -3.135573863983154297e+00 -4.507850110530853271e-01 7.494354724884033203e+00 2.113070964813232422e+00 -3.128627836704254150e-01
3.140000000000000000e+03 4.617760467529296875e+01 -5.935219764709472656e+00 -4.701309502124786377e-01 6.655489444732666016e+00 1.855607628822326660e+00 6.948626786470413208e-02
3.141000000000000000e+03 4.507531738281250000e+01 -4.819578170776367188e+00 -4.872547090053558350e-01 6.582250118255615234e+00 1.828498601913452148e+00 1.100150868296623230e-01
3.142000000000000000e+03 4.786156082153320312e+01 -6.271457672119140625e-01 -6.037007570266723633e-01 7.062560081481933594e+00 1.937657833099365234e+00 -5.867460742592811584e-03
3.143000000000000000e+03 5.367222976684570312e+01 -9.346524238586425781e+00 -3.680300712585449219e-01 7.181971073150634766e+00 2.044182300567626953e+00 -1.648003458976745605e-01
3.144000000000000000e+03 5.357808685302734375e+01 -1.217281532287597656e+01 -3.167223334312438965e-01 7.108881473541259766e+00 2.037647724151611328e+00 -1.390558034181594849e-01
3.145000000000000000e+03 5.658608245849609375e+01 2.163737773895263672e+00 -5.123681426048278809e-01 7.693355083465576172e+00 2.154296159744262695e+00 -4.539473354816436768e-01
3.146000000000000000e+03 5.433149719238281250e+01 2.363076806068420410e-02 -5.417609810829162598e-01 7.528254985809326172e+00 2.095948219299316406e+00 -3.183808922767639160e-01
3.147000000000000000e+03 4.216522979736328125e+01 -1.429199790954589844e+01 -2.688379585742950439e-01 6.032002925872802734e+00 1.728949546813964844e+00 1.063230186700820923e-01
3.148000000000000000e+03 4.463075256347656250e+01 -1.148187828063964844e+01 -3.328449130058288574e-01 6.317353725433349609e+00 1.795352697372436523e+00 8.268824964761734009e-02
3.149000000000000000e+03 4.744271087646484375e+01 1.373247432708740234e+01 -8.096525073051452637e-01 8.185267448425292969e+00 2.212684392929077148e+00 -1.662189811468124390e-01
3.150000000000000000e+03 5.177543640136718750e+01 1.548870849609375000e+01 -5.775951743125915527e-01 8.403800010681152344e+00 2.347861528396606445e+00 -6.580218076705932617e-01
3.151000000000000000e+03 5.448122024536132812e+01 -1.405137777328491211e+00 -5.135407447814941406e-01 7.470043182373046875e+00 2.086950778961181641e+00 -2.938876152038574219e-01
3.152000000000000000e+03 5.453031539916992188e+01 -5.107418537139892578e+00 -4.372892379760742188e-01 7.358994007110595703e+00 2.076511383056640625e+00 -2.409223467111587524e-01
3.153000000000000000e+03 4.772494125366210938e+01 6.926655292510986328e+00 -7.768676877021789551e-01 7.549392700195312500e+00 2.031757593154907227e+00 -5.055430904030799866e-02
3.154000000000000000e+03 5.603469467163085938e+01 -5.127062320709228516e+00 -4.183171093463897705e-01 7.443140983581542969e+00 2.107447147369384766e+00 -2.790904939174652100e-01
3.155000000000000000e+03 4.586901473999023438e+01 -3.541451930999755859e+00 -5.308190584182739258e-01 6.732658386230468750e+00 1.860551714897155762e+00 8.967071771621704102e-02
3.156000000000000000e+03 5.275242614746093750e+01 1.503980517387390137e+00 -5.881556868553161621e-01 7.507216453552246094e+00 2.075718164443969727e+00 -2.842519879341125488e-01
3.157000000000000000e+03 5.019662857055664062e+01 2.434240341186523438e+00 -6.562494039535522461e-01 7.404722690582275391e+00 2.024542093276977539e+00 -1.556402146816253662e-01
3.158000000000000000e+03 4.962909317016601562e+01 1.350384521484375000e+01 -7.371712327003479004e-01 8.230976104736328125e+00 2.248141527175903320e+00 -3.874858319759368896e-01
3.159000000000000000e+03 4.723321151733398438e+01 1.138923358917236328e+01 -8.371670246124267578e-01 7.911536216735839844e+00 2.122310638427734375e+00 -7.347253710031509399e-02
3.160000000000000000e+03 5.470796966552734375e+01 1.417467784881591797e+01 -5.156187415122985840e-01 8.216070175170898438e+00 2.310135364532470703e+00 -7.716293334960937500e-01
3.161000000000000000e+03 4.981509399414062500e+01 1.585907173156738281e+01 -6.597335338592529297e-01 8.447360038757324219e+00 2.336287975311279297e+00 -4.976113438606262207e-01
3.162000000000000000e+03 5.070138931274414062e+01 1.461612892150878906e+01 -6.639543771743774414e-01 8.330774307250976562e+00 2.300045967102050781e+00 -5.236120223999023438e-01
3.163000000000000000e+03 5.500104904174804688e+01 3.276738882064819336e+00 -5.692765116691589355e-01 7.685356140136718750e+00 2.134823799133300781e+00 -4.218003451824188232e-01
3.164000000000000000e+03 5.529881668090820312e+01 1.818475961685180664e+00 -5.395744442939758301e-01 7.638819217681884766e+00 2.129773378372192383e+00 -3.974105715751647949e-01
3.165000000000000000e+03 4.788567733764648438e+01 -9.262901306152343750e+00 -4.004803597927093506e-01 6.717898845672607422e+00 1.895225524902343750e+00 -1.681657886365428567e-04
3.166000000000000000e+03 4.548485946655273438e+01 -7.436341285705566406e+00 -4.314416348934173584e-01 6.540491580963134766e+00 1.832715034484863281e+00 7.906918972730636597e-02
3.167000000000000000e+03 5.467029953002929688e+01 2.200656127929687500e+01 2.012567222118377686e-02 8.534486770629882812e+00 2.566383838653564453e+00 -1.047788262367248535e+00
3.168000000000000000e+03 5.526519393920898438e+01 1.997178268432617188e+01 -1.488549411296844482e-01 8.406811714172363281e+00 2.477386951446533203e+00 -1.013327836990356445e+00
3.169000000000000000e+03 5.468841171264648438e+01 4.511924743652343750e+00 -5.847999453544616699e-01 7.724134922027587891e+00 2.141800403594970703e+00 -4.386331140995025635e-01
3.170000000000000000e+03 5.410822296142578125e+01 5.410137653350830078e+00 -6.166855692863464355e-01 7.745724201202392578e+00 2.138711690902709961e+00 -4.336598813533782959e-01
3.171000000000000000e+03 5.865020370483398438e+01 2.028614997863769531e+01 -4.692510887980461121e-02 8.158355712890625000e+00 2.433429241180419922e+00 -1.077135443687438965e+00
3.172000000000000000e+03 5.261197280883789062e+01 2.095801734924316406e+01 -1.582468003034591675e-01 8.695933341979980469e+00 2.561305999755859375e+00 -9.474146962165832520e-01
3.173000000000000000e+03 4.799857711791992188e+01 4.962315082550048828e+00 -7.368940711021423340e-01 7.425221920013427734e+00 2.006498336791992188e+00 -5.212792754173278809e-02
3.174000000000000000e+03 4.699930572509765625e+01 5.757367610931396484e+00 -7.606046795845031738e-01 7.399592399597167969e+00 1.991696357727050781e+00 1.494855619966983795e-02
3.175000000000000000e+03 5.278445434570312500e+01 -6.685010433197021484e+00 -4.303187131881713867e-01 7.179803371429443359e+00 2.024845361709594727e+00 -1.617307513952255249e-01
3.176000000000000000e+03 5.204354095458984375e+01 -1.280414295196533203e+01 -3.192777037620544434e-01 6.971135139465332031e+00 1.995557308197021484e+00 -9.809898585081100464e-02
3.177000000000000000e+03 5.263932418823242188e+01 7.796664237976074219e+00 -6.758529543876647949e-01 7.847702503204345703e+00 2.151554822921752930e+00 -4.221974909305572510e-01
3.178000000000000000e+03 3.683218765258789062e+01 -1.502267742156982422e+01 -1.954509168863296509e-01 5.453701972961425781e+00 1.577475309371948242e+00 1.833286583423614502e-01
3.179000000000000000e+03 3.963487625122070312e+01 -1.812514877319335938e+01 -1.963506639003753662e-01 5.704595565795898438e+00 1.652473449707031250e+00 1.038528233766555786e-01
3.180000000000000000e+03 5.099389648437500000e+01 1.069906330108642578e+01 -7.201645970344543457e-01 8.011419296264648438e+00 2.187376499176025391e+00 -4.108113944530487061e-01
3.181000000000000000e+03 4.316318511962890625e+01 -1.600570487976074219e+01 -2.527280449867248535e-01 6.088353633880615234e+00 1.750687718391418457e+00 8.571008592844009399e-02
3.182000000000000000e+03 4.496534347534179688e+01 -1.472689628601074219e+01 -2.833397984504699707e-01 6.304177761077880859e+00 1.806251287460327148e+00 5.436138063669204712e-02
3.183000000000000000e+03 4.894475173950195312e+01 -4.325541973114013672e+00 -5.117326378822326660e-01 6.979033946990966797e+00 1.940190434455871582e+00 -4.191657900810241699e-02
3.184000000000000000e+03 4.667120361328125000e+01 -2.044423341751098633e+00 -5.707063674926757812e-01 6.868045806884765625e+00 1.889201879501342773e+00 6.226239725947380066e-02
3.185000000000000000e+03 4.729380416870117188e+01 2.338467121124267578e+00 -6.818704605102539062e-01 7.176327228546142578e+00 1.948337078094482422e+00 1.957497000694274902e-02
3.186000000000000000e+03 5.728992080688476562e+01 2.096716308593750000e+01 -2.910079620778560638e-02 8.278252601623535156e+00 2.474745512008666992e+00 -1.073353171348571777e+00
3.187000000000000000e+03 5.659808349609375000e+01 2.331582069396972656e+01 1.812218278646469116e-01 8.362137794494628906e+00 2.563007831573486328e+00 -1.094559431076049805e+00
3.188000000000000000e+03 5.379001998901367188e+01 8.262250900268554688e+00 -6.380060315132141113e-01 7.901569843292236328e+00 2.179069280624389648e+00 -5.061451196670532227e-01
3.189000000000000000e+03 5.330973434448242188e+01 1.258888435363769531e+01 -6.112126111984252930e-01 8.154472351074218750e+00 2.262977838516235352e+00 -6.356899738311767578e-01
3.190000000000000000e+03 5.445167160034179688e+01 -3.109070301055908203e+00 -4.789808690547943115e-01 7.414629936218261719e+00 2.080694675445556641e+00 -2.677620351314544678e-01
3.191000000000000000e+03 4.628894042968750000e+01 -1.286790657043457031e+01 -3.180796205997467041e-01 6.456898212432861328e+00 1.841645598411560059e+00 3.269746527075767517e-02
3.192000000000000000e+03 4.738002395629882812e+01 9.107524871826171875e+00 -8.130024671554565430e-01 7.707215785980224609e+00 2.068264007568359375e+00 -5.092368274927139282e-02
3.193000000000000000e+03 5.379560089111328125e+01 3.051736116409301758e+00 -5.972974300384521484e-01 7.631975173950195312e+00 2.110403299331665039e+00 -3.603961765766143799e-01
3.194000000000000000e+03 6.189539337158203125e+01 2.282570838928222656e+01 1.376558989286422729e-01 7.852510929107666016e+00 2.397050142288208008e+00 -1.071203231811523438e+00
3.195000000000000000e+03 5.132400131225585938e+01 -5.969402790069580078e-01 -5.754118561744689941e-01 7.324078083038330078e+00 2.024599790573120117e+00 -1.759566962718963623e-01
3.196000000000000000e+03 5.368403625488281250e+01 4.409913539886474609e+00 -6.137174963951110840e-01 7.687609672546386719e+00 2.122167587280273438e+00 -3.892050981521606445e-01
3.197000000000000000e+03 5.401366806030273438e+01 2.037376594543457031e+01 -1.649558991193771362e-01 8.530609130859375000e+00 2.509696006774902344e+00 -9.755663275718688965e-01
3.198000000000000000e+03 5.266937637329101562e+01 1.784229278564453125e+01 -4.075969755649566650e-01 8.509372711181640625e+00 2.430532693862915039e+00 -8.224257230758666992e-01
3.199000000000000000e+03 5.152015304565429688e+01 7.009051322937011719e+00 -6.956763267517089844e-01 7.762115955352783203e+00 2.119931936264038086e+00 -3.383698761463165283e-01
3.200000000000000000e+03 5.149419021606445312e+01 4.890403747558593750e+00 -6.788924932479858398e-01 7.627251625061035156e+00 2.084507703781127930e+00 -2.785873711109161377e-01
3.201000000000000000e+03 5.110767364501953125e+01 1.687902069091796875e+01 -5.474249124526977539e-01 8.509084701538085938e+00 2.388497829437255859e+00 -6.653563380241394043e-01
3.202000000000000000e+03 4.864772033691406250e+01 1.479864025115966797e+01 -7.472132444381713867e-01 8.346381187438964844e+00 2.279750347137451172e+00 -3.368088006973266602e-01
3.203000000000000000e+03 5.255628585815429688e+01 2.999768972396850586e+00 -6.144868731498718262e-01 7.569028377532958984e+00 2.086362600326538086e+00 -3.040220439434051514e-01
3.204000000000000000e+03 5.246234512329101562e+01 -1.102217006683349609e+01 -3.478776216506958008e-01 7.038653850555419922e+00 2.007232904434204102e+00 -1.202984675765037537e-01
3.205000000000000000e+03 5.213684463500976562e+01 1.091755294799804688e+01 -6.916753649711608887e-01 8.044939041137695312e+00 2.205978870391845703e+00 -4.881394207477569580e-01
3.206000000000000000e+03 5.136261749267578125e+01 -6.024416446685791016e+00 -4.555042088031768799e-01 7.103274345397949219e+00 1.994331002235412598e+00 -1.249718815088272095e-01
3.207000000000000000e+03 5.309175872802734375e+01 -4.885898590087890625e+00 -4.594317972660064697e-01 7.271387100219726562e+00 2.043586730957031250e+00 -1.974250823259353638e-01
3.208000000000000000e+03 5.946463012695312500e+01 2.734331512451171875e+01 5.184388160705566406e-01 8.046719551086425781e+00 2.569547414779663086e+00 -1.011946320533752441e+00
3.209000000000000000e+03 5.324203109741210938e+01 1.595895576477050781e+01 -4.945519566535949707e-01 8.365405082702636719e+00 2.361255884170532227e+00 -7.744129896163940430e-01
3.210000000000000000e+03 4.838132095336914062e+01 1.247659397125244141e+01 -7.975218892097473145e-01 8.084960937500000000e+00 2.186231851577758789e+00 -2.233233451843261719e-01
3.211000000000000000e+03 4.787589645385742188e+01 -3.218822717666625977e+00 -5.403938293457031250e-01 6.939422130584716797e+00 1.919708371162414551e+00 -2.060378392343409359e-05
3.212000000000000000e+03 4.941870880126953125e+01 -6.531076908111572266e+00 -4.577342271804809570e-01 6.932209968566894531e+00 1.942342758178710938e+00 -5.050884932279586792e-02
3.213000000000000000e+03 4.754790496826171875e+01 3.888850927352905273e+00 -7.123944759368896484e-01 7.305799961090087891e+00 1.978021621704101562e+00 -1.104901265352964401e-02
3.214000000000000000e+03 5.056066131591796875e+01 8.747794032096862793e-01 -6.240500211715698242e-01 7.354108333587646484e+00 2.019017457962036133e+00 -1.573687195777893066e-01
3.215000000000000000e+03 4.903945922851562500e+01 -1.009064960479736328e+01 -3.784784674644470215e-01 6.794183731079101562e+00 1.924711585044860840e+00 -3.269839659333229065e-02
3.216000000000000000e+03 5.255761337280273438e+01 4.469337463378906250e+00 -6.461237668991088867e-01 7.643711566925048828e+00 2.099276304244995117e+00 -3.318443596363067627e-01
3.217000000000000000e+03 4.876799011230468750e+01 5.906688690185546875e+00 -7.460967302322387695e-01 7.536335468292236328e+00 2.037071466445922852e+00 -1.109826043248176575e-01
3.218000000000000000e+03 5.329426574707031250e+01 1.418000602722167969e+01 -5.682907700538635254e-01 8.238280296325683594e+00 2.300997018814086914e+00 -6.929555535316467285e-01
3.219000000000000000e+03 4.863767242431640625e+01 3.908726215362548828e+00 -7.054347991943359375e-01 7.393907546997070312e+00 2.006541728973388672e+00 -8.419853448867797852e-02
3.220000000000000000e+03 5.333338165283203125e+01 6.416661739349365234e+00 -6.458576321601867676e-01 7.779894828796386719e+00 2.140211105346679688e+00 -4.207869470119476318e-01
3.221000000000000000e+03 5.057968139648437500e+01 5.913558483123779297e+00 -7.067692875862121582e-01 7.639168739318847656e+00 2.079719781875610352e+00 -2.452430576086044312e-01
3.222000000000000000e+03 5.114371490478515625e+01 -1.003296566009521484e+01 -3.709201216697692871e-01 6.965358257293701172e+00 1.978331446647644043e+00 -9.395387768745422363e-02
3.223000000000000000e+03 4.988701629638671875e+01 -1.124477767944335938e+01 -3.543786704540252686e-01 6.828607559204101562e+00 1.942268729209899902e+00 -5.665097013115882874e-02
3.224000000000000000e+03 5.187276077270507812e+01 1.407158756256103516e+01 -6.368035674095153809e-01 8.274275779724121094e+00 2.291241645812988281e+00 -5.982316732406616211e-01
3.225000000000000000e+03 5.227920150756835938e+01 9.338170051574707031e+00 -6.874010562896728516e-01 7.928485393524169922e+00 2.172325134277343750e+00 -4.440199136734008789e-01
3.226000000000000000e+03 5.186676025390625000e+01 1.250926399230957031e+01 -6.701691150665283203e-01 8.163009643554687500e+00 2.247852087020874023e+00 -5.330602526664733887e-01
3.227000000000000000e+03 5.310216140747070312e+01 -3.147864818572998047e+00 -5.003186464309692383e-01 7.340509891510009766e+00 2.052057266235351562e+00 -2.221745550632476807e-01
3.228000000000000000e+03 4.827757644653320312e+01 1.022205257415771484e+01 -8.055312633514404297e-01 7.859688282012939453e+00 2.116246938705444336e+00 -1.502202004194259644e-01
3.229000000000000000e+03 4.851264572143554688e+01 8.040235519409179688e+00 -7.763661146163940430e-01 7.686958789825439453e+00 2.073177814483642578e+00 -1.318963766098022461e-01
3.230000000000000000e+03 4.928303146362304688e+01 1.124024963378906250e+01 -7.814168930053710938e-01 8.005607604980468750e+00 2.167257308959960938e+00 -2.692679464817047119e-01
3.231000000000000000e+03 5.046926879882812500e+01 1.209175300598144531e+01 -7.289349436759948730e-01 8.119650840759277344e+00 2.217214822769165039e+00 -4.154349863529205322e-01
3.232000000000000000e+03 5.241802597045898438e+01 -1.809179186820983887e+00 -5.379685163497924805e-01 7.337060928344726562e+00 2.039727687835693359e+00 -2.085323184728622437e-01
3.233000000000000000e+03 4.819840240478515625e+01 -5.547291755676269531e+00 -4.884032011032104492e-01 6.868782043457031250e+00 1.914113640785217285e+00 -6.678218021988868713e-03
3.234000000000000000e+03 4.867612075805664062e+01 -7.855367660522460938e+00 -4.323515892028808594e-01 6.832503795623779297e+00 1.920045733451843262e+00 -2.101221866905689240e-02
3.235000000000000000e+03 4.921797180175781250e+01 3.499783277511596680e-01 -6.194213628768920898e-01 7.219828128814697266e+00 1.980121970176696777e+00 -7.997583597898483276e-02
3.236000000000000000e+03 5.398305892944335938e+01 1.529114961624145508e+00 -5.667334198951721191e-01 7.569659233093261719e+00 2.100877761840820312e+00 -3.345873951911926270e-01
3.237000000000000000e+03 5.234935760498046875e+01 3.045087158679962158e-01 -5.797501802444458008e-01 7.435091018676757812e+00 2.056602239608764648e+00 -2.413617521524429321e-01
3.238000000000000000e+03 5.176199340820312500e+01 -4.517633914947509766e+00 -4.844380915164947510e-01 7.175933361053466797e+00 2.007448434829711914e+00 -1.475896686315536499e-01
3.239000000000000000e+03 5.333537292480468750e+01 -7.469196915626525879e-01 -5.456999540328979492e-01 7.439968585968017578e+00 2.068280696868896484e+00 -2.624072134494781494e-01
3.240000000000000000e+03 3.416687393188476562e+01 -1.800292015075683594e+01 -1.303529441356658936e-01 5.167322158813476562e+00 1.511090755462646484e+00 1.577478051185607910e-01
3.241000000000000000e+03 3.810908126831054688e+01 -1.920026969909667969e+01 -1.671741008758544922e-01 5.540133953094482422e+00 1.611887931823730469e+00 1.241119131445884705e-01
3.242000000000000000e+03 4.224975585937500000e+01 -1.890017509460449219e+01 -2.065019905567169189e-01 5.967905044555664062e+00 1.728420972824096680e+00 7.487469166517257690e-02
3.243000000000000000e+03 4.821929550170898438e+01 -1.350969696044921875e+01 -3.149223923683166504e-01 6.615256786346435547e+00 1.890100359916687012e+00 -1.022296212613582611e-02
3.244000000000000000e+03 4.412973403930664062e+01 -1.808941650390625000e+01 -2.310736328363418579e-01 6.136298656463623047e+00 1.771567583084106445e+00 5.465254932641983032e-02
3.245000000000000000e+03 4.992184066772460938e+01 -8.859130859375000000e+00 -4.089546799659729004e-01 6.892550468444824219e+00 1.945078730583190918e+00 -5.910691991448402405e-02
3.246000000000000000e+03 4.959756088256835938e+01 6.985413074493408203e+00 -7.399797439575195312e-01 7.660888671875000000e+00 2.076272726058959961e+00 -1.966474205255508423e-01
3.247000000000000000e+03 5.064774322509765625e+01 3.763139963150024414e+00 -6.701539754867553711e-01 7.504558086395263672e+00 2.050321340560913086e+00 -2.084449529647827148e-01
3.248000000000000000e+03 5.046520614624023438e+01 8.130914688110351562e+00 -7.314780354499816895e-01 7.797431945800781250e+00 2.119786262512207031e+00 -2.956610620021820068e-01
3.249000000000000000e+03 5.009450912475585938e+01 1.010914230346679688e+01 -7.556287646293640137e-01 7.933016777038574219e+00 2.153216361999511719e+00 -3.092255890369415283e-01
3.250000000000000000e+03 5.073120880126953125e+01 -7.475034713745117188e+00 -4.291902184486389160e-01 7.004980564117431641e+00 1.972737073898315430e+00 -9.538596868515014648e-02
3.251000000000000000e+03 4.744789123535156250e+01 -6.891950130462646484e+00 -4.527223408222198486e-01 6.754154682159423828e+00 1.890429735183715820e+00 1.752533204853534698e-02
3.252000000000000000e+03 5.010322952270507812e+01 -1.312870860099792480e+00 -5.695623755455017090e-01 7.200885772705078125e+00 1.989397048950195312e+00 -1.143683716654777527e-01
3.253000000000000000e+03 4.581332015991210938e+01 -9.888944625854492188e+00 -3.735969066619873047e-01 6.492268562316894531e+00 1.835601568222045898e+00 5.687827244400978088e-02
3.254000000000000000e+03 4.619848251342773438e+01 -1.698091125488281250e+01 -2.597336173057556152e-01 6.369566440582275391e+00 1.832949876785278320e+00 1.898996531963348389e-02
3.255000000000000000e+03 5.024309158325195312e+01 -1.317443847656250000e+01 -3.196541368961334229e-01 6.816538810729980469e+00 1.949065446853637695e+00 -6.309124082326889038e-02
3.256000000000000000e+03 3.897698593139648438e+01 -2.124730873107910156e+01 -1.645445376634597778e-01 5.622959136962890625e+00 1.637524366378784180e+00 8.942206948995590210e-02
3.257000000000000000e+03 4.478327560424804688e+01 -2.048163223266601562e+01 -2.085889726877212524e-01 6.178803920745849609e+00 1.791064381599426270e+00 2.430173382163047791e-02
3.258000000000000000e+03 4.849369430541992188e+01 -1.146552467346191406e+01 -3.511974811553955078e-01 6.693516731262207031e+00 1.902695775032043457e+00 -1.487537939101457596e-02
3.259000000000000000e+03 4.971648788452148438e+01 -3.315875530242919922e+00 -5.279166698455810547e-01 7.079861640930175781e+00 1.965583443641662598e+00 -7.882604002952575684e-02
3.260000000000000000e+03 5.188605499267578125e+01 -2.985634326934814453e+00 -5.196807384490966797e-01 7.250335693359375000e+00 2.019196510314941406e+00 -1.703843325376510620e-01
3.261000000000000000e+03 4.669333267211914062e+01 -8.345276832580566406e+00 -4.180408418178558350e-01 6.643136501312255859e+00 1.867528676986694336e+00 4.039375856518745422e-02
3.262000000000000000e+03 4.918851852416992188e+01 -1.872470092773437500e+01 -2.375196367502212524e-01 6.611089706420898438e+00 1.912070989608764648e+00 -3.275875374674797058e-02
3.263000000000000000e+03 4.291984558105468750e+01 -2.675491714477539062e+01 -1.419077366590499878e-01 5.943623065948486328e+00 1.740514516830444336e+00 1.374626066535711288e-02
3.264000000000000000e+03 4.530805206298828125e+01 -2.312678909301757812e+01 -1.789116859436035156e-01 6.210726261138916016e+00 1.809544444084167480e+00 8.528922684490680695e-03
3.265000000000000000e+03 5.058578109741210938e+01 -1.551227378845214844e+01 -2.783968150615692139e-01 6.800965785980224609e+00 1.956770777702331543e+00 -6.249667704105377197e-02
3.266000000000000000e+03 4.702225494384765625e+01 -1.963055419921875000e+01 -2.241270691156387329e-01 6.408202171325683594e+00 1.855222463607788086e+00 -4.823492781724780798e-04
3.267000000000000000e+03 3.459844589233398438e+01 -2.860887336730957031e+01 -6.970026344060897827e-02 5.116265296936035156e+00 1.513969540596008301e+00 5.570586770772933960e-02
3.268000000000000000e+03 4.248709487915039062e+01 -2.362544441223144531e+01 -1.635832488536834717e-01 5.923216819763183594e+00 1.727890014648437500e+00 3.600510954856872559e-02
3.269000000000000000e+03 5.830725860595703125e+01 -2.180486488342285156e+01 -1.522488445043563843e-01 7.380986690521240234e+00 2.168621301651000977e+00 -1.154965758323669434e-01
3.270000000000000000e+03 5.658469390869140625e+01 -2.286828994750976562e+01 -1.695658117532730103e-01 7.217837333679199219e+00 2.114481449127197266e+00 -9.372384846210479736e-02
3.271000000000000000e+03 6.439511871337890625e+01 3.481135559082031250e+01 6.125102043151855469e-01 7.398002147674560547e+00 2.403153657913208008e+00 -5.519116520881652832e-01
3.272000000000000000e+03 5.327657318115234375e+01 -1.690392112731933594e+01 -2.490891069173812866e-01 7.003573894500732422e+00 2.026345491409301758e+00 -1.011234670877456665e-01
3.273000000000000000e+03 5.954141998291015625e+01 -1.562493610382080078e+01 -2.093683928251266479e-01 7.507725715637207031e+00 2.189507246017456055e+00 -1.847298294305801392e-01
3.274000000000000000e+03 6.755561828613281250e+00 3.676328659057617188e+01 -1.468293950892984867e-03 1.347003737464547157e-03 -3.638704947661608458e-05 -1.897738547995686531e-03
3.275000000000000000e+03 7.179173946380615234e+00 3.498016357421875000e+01 8.694609277881681919e-04 -1.367027056403458118e-03 -1.492698356742039323e-04 -2.830591693054884672e-04
3.276000000000000000e+03 5.340652847290039062e+01 2.255869102478027344e+01 6.098468601703643799e-02 8.666925430297851562e+00 2.618373155593872070e+00 -1.035996556282043457e+00
3.277000000000000000e+03 5.608486175537109375e+01 -1.785490798950195312e+01 -2.200220227241516113e-01 7.227528572082519531e+00 2.102252006530761719e+00 -1.329590082168579102e-01
3.278000000000000000e+03 6.109194564819335938e+01 -3.456454467773437500e+01 -7.219644635915756226e-02 7.585362434387207031e+00 2.253949880599975586e+00 -4.529162868857383728e-02
3.279000000000000000e+03 4.782551956176757812e+01 -2.226763916015625000e+01 -1.962286829948425293e-01 6.448523998260498047e+00 1.875688672065734863e+00 -1.768118329346179962e-02
3.280000000000000000e+03 5.420615005493164062e+01 -1.899674415588378906e+01 -2.184325754642486572e-01 7.053903579711914062e+00 2.050641298294067383e+00 -1.023953780531883240e-01
3.281000000000000000e+03 5.435206222534179688e+01 -1.394070625305175781e+01 -2.876702547073364258e-01 7.143260002136230469e+00 2.056676864624023438e+00 -1.383567452430725098e-01
3.282000000000000000e+03 5.516159057617187500e+01 -1.588241291046142578e+01 -2.517331242561340332e-01 7.175757408142089844e+00 2.077207326889038086e+00 -1.344706416130065918e-01
3.283000000000000000e+03 3.238453292846679688e+01 -2.185465240478515625e+01 -9.343557804822921753e-02 4.926604747772216797e+00 1.449950695037841797e+00 1.289898902177810669e-01
3.284000000000000000e+03 5.706008529663085938e+01 2.538928604125976562e+01 3.751770555973052979e-01 8.305961608886718750e+00 2.604341506958007812e+00 -1.091912388801574707e+00
3.285000000000000000e+03 3.451230621337890625e+01 -2.167589569091796875e+01 -1.071442663669586182e-01 5.154416084289550781e+00 1.514181613922119141e+00 1.198552176356315613e-01
3.286000000000000000e+03 3.579527664184570312e+01 -3.149891662597656250e+01 -9.604819118976593018e-02 5.233211040496826172e+00 1.541148900985717773e+00 1.168793532997369766e-02
3.287000000000000000e+03 3.653641510009765625e+01 -2.678528594970703125e+01 -1.015273481607437134e-01 5.314812183380126953e+00 1.563985466957092285e+00 4.452534765005111694e-02
3.288000000000000000e+03 2.765073585510253906e+01 -4.126797485351562500e+01 -2.279309332370758057e-01 4.489304542541503906e+00 1.278412103652954102e+00 -3.505764156579971313e-02
3.289000000000000000e+03 5.725179290771484375e+01 -3.760469055175781250e+01 -9.158274531364440918e-02 7.208578586578369141e+00 2.135098695755004883e+00 -2.652102522552013397e-02
3.290000000000000000e+03 4.160451507568359375e+01 -3.747448730468750000e+01 -1.240102574229240417e-01 5.793394565582275391e+00 1.700815200805664062e+00 -1.054798811674118042e-02
3.291000000000000000e+03 3.701861953735351562e+01 -3.793708419799804688e+01 -1.246870905160903931e-01 5.341600418090820312e+00 1.565074086189270020e+00 -7.343648467212915421e-03
3.292000000000000000e+03 5.732957458496093750e+01 3.536508941650390625e+01 1.135681271553039551e+00 8.286228179931640625e+00 2.826572656631469727e+00 -5.053457617759704590e-01
3.293000000000000000e+03 5.165512847900390625e+01 4.081741714477539062e+01 1.447821140289306641e+00 9.569345474243164062e+00 3.305150032043457031e+00 8.706683292984962463e-03
3.294000000000000000e+03 6.013262176513671875e+01 3.684951019287109375e+01 9.815489649772644043e-01 7.954227924346923828e+00 2.680733203887939453e+00 -4.207891523838043213e-01
3.295000000000000000e+03 5.508498764038085938e+01 3.873208999633789062e+01 1.364812850952148438e+00 8.797324180603027344e+00 3.048641204833984375e+00 -1.842181682586669922e-01
3.296000000000000000e+03 5.890020370483398438e+01 -1.864645957946777344e+01 -1.867187023162841797e-01 7.435321807861328125e+00 2.174581050872802734e+00 -1.442812681198120117e-01
3.297000000000000000e+03 5.254084014892578125e+01 -1.482410049438476562e+01 -2.847779393196105957e-01 6.968775749206542969e+00 2.005199432373046875e+00 -9.868020564317703247e-02
3.298000000000000000e+03 5.530456542968750000e+01 2.752006149291992188e+01 6.966490149497985840e-01 8.524799346923828125e+00 2.766434431076049805e+00 -1.026112437248229980e+00
3.299000000000000000e+03 5.715360641479492188e+01 -1.981636238098144531e+01 -1.859765499830245972e-01 7.303358554840087891e+00 2.135214567184448242e+00 -1.249852776527404785e-01
3.300000000000000000e+03 5.689691162109375000e+01 -2.635825157165527344e+01 -1.245453581213951111e-01 7.242454051971435547e+00 2.135372638702392578e+00 -7.314062118530273438e-02
3.301000000000000000e+03 5.941896820068359375e+01 -2.773458862304687500e+01 -1.111344546079635620e-01 7.433639526367187500e+00 2.196751594543457031e+00 -7.218220829963684082e-02
3.302000000000000000e+03 3.955941772460937500e+01 -2.396549224853515625e+01 -1.436968743801116943e-01 5.642518997192382812e+00 1.649646639823913574e+00 6.540223211050033569e-02
3.303000000000000000e+03 5.010612487792968750e+01 -2.124519157409667969e+01 -2.068537771701812744e-01 6.664754390716552734e+00 1.937370181083679199e+00 -4.104650020599365234e-02
3.304000000000000000e+03 5.502613067626953125e+01 3.360842895507812500e+01 1.261003136634826660e+00 8.637497901916503906e+00 2.969550132751464844e+00 -6.116427779197692871e-01
3.305000000000000000e+03 3.688744735717773438e+01 -2.408652877807617188e+01 -1.198930591344833374e-01 5.380953788757324219e+00 1.578318238258361816e+00 7.464691251516342163e-02
3.306000000000000000e+03 5.126284790039062500e+01 -2.374845504760742188e+01 -1.790701895952224731e-01 6.743665695190429688e+00 1.969378709793090820e+00 -5.108455196022987366e-02
3.307000000000000000e+03 5.127981185913085938e+01 -1.784095954895019531e+01 -2.487178295850753784e-01 6.812804222106933594e+00 1.969225883483886719e+00 -6.548260152339935303e-02
3.308000000000000000e+03 5.531789398193359375e+01 -2.102824592590332031e+01 -1.841359734535217285e-01 7.127686023712158203e+00 2.083065032958984375e+00 -1.008159816265106201e-01
3.309000000000000000e+03 3.979311752319335938e+01 -3.064595603942871094e+01 -1.174600869417190552e-01 5.618769645690917969e+00 1.650392889976501465e+00 2.009253203868865967e-02
3.310000000000000000e+03 4.364029312133789062e+01 -2.994176292419433594e+01 -1.333058774471282959e-01 6.001581192016601562e+00 1.760482549667358398e+00 3.105686279013752937e-03
3.311000000000000000e+03 5.221604919433593750e+01 -2.014256668090820312e+01 -2.107528150081634521e-01 6.862820625305175781e+00 1.995620369911193848e+00 -6.900629401206970215e-02
3.312000000000000000e+03 6.180822372436523438e+01 -2.895557975769042969e+01 -8.638087660074234009e-02 7.621650218963623047e+00 2.260580778121948242e+00 -7.271819561719894409e-02
3.313000000000000000e+03 5.487175369262695312e+01 -2.884376525878906250e+01 -1.234000474214553833e-01 7.045623779296875000e+00 2.076667070388793945e+00 -5.074432492256164551e-02
3.314000000000000000e+03 5.490507507324218750e+01 -2.453148269653320312e+01 -1.608943641185760498e-01 7.066545486450195312e+00 2.071695327758789062e+00 -7.980912178754806519e-02
3.315000000000000000e+03 4.473292541503906250e+01 -3.324589920043945312e+01 -1.336791366338729858e-01 6.090692520141601562e+00 1.787104010581970215e+00 7.742117741145193577e-04
3.316000000000000000e+03 5.279545593261718750e+01 -2.627195167541503906e+01 -1.551500707864761353e-01 6.860054492950439453e+00 2.011471271514892578e+00 -5.783161148428916931e-02
3.317000000000000000e+03 4.708298110961914062e+01 -2.899425506591796875e+01 -1.342833042144775391e-01 6.329110145568847656e+00 1.858448028564453125e+00 -1.580291986465454102e-02
3.318000000000000000e+03 4.993022155761718750e+01 -3.530987167358398438e+01 -1.158886998891830444e-01 6.556426525115966797e+00 1.932161331176757812e+00 -2.448466233909130096e-02
3.319000000000000000e+03 5.320550918579101562e+01 -3.401159667968750000e+01 -1.053361743688583374e-01 6.885565280914306641e+00 2.034068822860717773e+00 -2.164359763264656067e-02
3.320000000000000000e+03 4.838594055175781250e+01 -3.210127639770507812e+01 -1.307308375835418701e-01 6.416282653808593750e+00 1.885665535926818848e+00 -2.773048169910907745e-02
3.321000000000000000e+03 5.291726303100585938e+01 -3.719719314575195312e+01 -1.070282906293869019e-01 6.826948642730712891e+00 2.015976190567016602e+00 -1.271387934684753418e-02
3.322000000000000000e+03 3.560529327392578125e+01 3.632173156738281250e+01 4.798162877559661865e-01 4.153954029083251953e+00 1.390131115913391113e+00 -3.042068243026733398e+00
3.323000000000000000e+03 3.624002838134765625e+01 3.621642303466796875e+01 5.350202322006225586e-01 8.127219200134277344e+00 2.598671913146972656e+00 -4.489532947540283203e+00
3.324000000000000000e+03 3.675308990478515625e+01 3.614364242553710938e+01 -2.112918049097061157e-01 1.268567848205566406e+01 3.742316007614135742e+00 -5.077741146087646484e+00
3.325000000000000000e+03 3.592639160156250000e+01 3.289140701293945312e+01 5.663579463958740234e+00 5.557644367218017578e+00 3.366367101669311523e+00 6.430230617523193359e+00
3.326000000000000000e+03 3.564876937866210938e+01 3.262842178344726562e+01 5.010582923889160156e+00 4.805598258972167969e+00 2.944854259490966797e+00 5.583795547485351562e+00
3.327000000000000000e+03 3.588061523437500000e+01 3.254655838012695312e+01 4.923543453216552734e+00 6.400413036346435547e+00 3.397186756134033203e+00 6.180601596832275391e+00
3.328000000000000000e+03 3.509299468994140625e+01 3.273935699462890625e+01 4.423191547393798828e+00 2.435276746749877930e+00 2.057540416717529297e+00 3.843144655227661133e+00
3.329000000000000000e+03 3.529209899902343750e+01 3.275504684448242188e+01 4.743275642395019531e+00 3.020330429077148438e+00 2.329081773757934570e+00 4.390615463256835938e+00
3.330000000000000000e+03 3.455292510986328125e+01 3.319413757324218750e+01 3.072712182998657227e+00 8.400883674621582031e-01 1.173840165138244629e+00 1.971748709678649902e+00
3.331000000000000000e+03 3.464237213134765625e+01 3.282349777221679688e+01 3.650480747222900391e+00 1.582009911537170410e+00 1.569747209548950195e+00 2.799149036407470703e+00
3.332000000000000000e+03 3.422421264648437500e+01 3.268389892578125000e+01 3.141355037689208984e+00 1.297222614288330078e+00 1.331573367118835449e+00 2.289570331573486328e+00
3.333000000000000000e+03 1.267744183540344238e+00 2.699158191680908203e+00 2.331136056454852223e-05 -1.757839199854061007e-04 -4.574177000904455781e-05 6.414176459657028317e-05
3.334000000000000000e+03 2.117808341979980469e+01 3.421670913696289062e+01 -1.526975817978382111e-02 -1.423458009958267212e-01 -4.728466644883155823e-02 -1.006516814231872559e-01
3.335000000000000000e+03 2.060493850708007812e+01 3.400483322143554688e+01 -1.380222383886575699e-03 -1.930281519889831543e-01 -5.832251161336898804e-02 -2.113845758140087128e-02
3.336000000000000000e+03 3.194399452209472656e+01 3.884672927856445312e+01 6.425516009330749512e-01 2.615401446819305420e-01 2.712275087833404541e-01 -1.268575806170701981e-02
3.337000000000000000e+03 3.852632045745849609e+00 -3.591032409667968750e+01 -4.002264235168695450e-03 -7.697259541600942612e-03 -3.509856993332505226e-03 -1.173322927206754684e-02
3.338000000000000000e+03 2.434022188186645508e+00 2.670132398605346680e+00 -3.233522002119570971e-04 -1.037205074680969119e-04 -1.281218137592077255e-04 5.081892595626413822e-06
3.339000000000000000e+03 3.761064529418945312e+01 3.165989494323730469e+01 1.749308705329895020e+00 1.470792198181152344e+01 4.937169075012207031e+00 3.670947790145874023e+00
3.340000000000000000e+03 3.739528274536132812e+01 3.113698959350585938e+01 1.542275309562683105e+00 1.307799911499023438e+01 4.386082172393798828e+00 3.888169050216674805e+00
3.341000000000000000e+03 1.048695182800292969e+01 -3.642624282836914062e+01 -4.114926233887672424e-02 2.694043144583702087e-02 -4.262649454176425934e-03 9.781791828572750092e-03
3.342000000000000000e+03 2.994412422180175781e+01 3.797618103027343750e+01 -4.088684320449829102e-01 -2.724359631538391113e-01 -2.043913304805755615e-01 5.366855263710021973e-01
3.343000000000000000e+03 1.827627944946289062e+01 3.859172821044921875e+01 -1.709984801709651947e-02 1.244235411286354065e-02 -1.397248124703764915e-03 4.229998681694269180e-03
3.344000000000000000e+03 2.060624694824218750e+01 4.135897445678710938e+01 3.716989420354366302e-03 -1.244966499507427216e-02 -2.619802718982100487e-03 7.100101094692945480e-03
3.345000000000000000e+03 3.997822570800781250e+01 3.874459457397460938e+01 -2.933854162693023682e-01 1.357893276214599609e+01 3.985664129257202148e+00 1.013257265090942383e+00
3.346000000000000000e+03 3.186503791809082031e+01 3.804180908203125000e+01 5.244204029440879822e-02 -1.174770370125770569e-01 -1.951049827039241791e-02 3.075168132781982422e-01
3.347000000000000000e+03 3.047379875183105469e+01 3.793227767944335938e+01 -3.162057399749755859e-01 -2.416860908269882202e-01 -1.673675477504730225e-01 6.084218621253967285e-01
3.348000000000000000e+03 3.028154945373535156e+01 3.835963821411132812e+01 -3.430581465363502502e-02 -3.066662847995758057e-01 -1.022916361689567566e-01 5.093281865119934082e-01
3.349000000000000000e+03 1.047923660278320312e+01 -2.051790237426757812e+01 -5.550846690312027931e-04 1.182389678433537483e-03 1.881915086414664984e-04 1.530968584120273590e-03
3.350000000000000000e+03 3.893094635009765625e+01 3.101513099670410156e+01 1.687653064727783203e+00 1.438890361785888672e+01 4.822967052459716797e+00 8.418517112731933594e-01
3.351000000000000000e+03 3.709843826293945312e+01 3.630382156372070312e+01 -9.124821424484252930e-01 1.452799892425537109e+01 4.084655284881591797e+00 -3.952502489089965820e+00
3.352000000000000000e+03 3.613123321533203125e+01 3.259280395507812500e+01 4.845097541809082031e+00 7.892627239227294922e+00 3.821317434310913086e+00 6.866576671600341797e+00
3.353000000000000000e+03 1.334816932678222656e+01 3.607073211669921875e+01 2.401452547928784043e-05 -3.181029576808214188e-03 -9.471045341342687607e-04 5.059849936515092850e-03
3.354000000000000000e+03 1.253007793426513672e+01 -3.310194492340087891e+00 -1.609517959877848625e-03 -9.151722042588517070e-05 -5.103105795569717884e-04 1.933932653628289700e-04
3.355000000000000000e+03 3.679194259643554688e+01 3.636969757080078125e+01 -6.671432256698608398e-01 1.229088115692138672e+01 3.487121582031250000e+00 -4.408909797668457031e+00
3.356000000000000000e+03 3.715257263183593750e+01 3.677644729614257812e+01 -8.883708119392395020e-01 1.423176097869873047e+01 4.003016948699951172e+00 -3.673380374908447266e+00
3.357000000000000000e+03 3.093716239929199219e+01 3.876159667968750000e+01 3.436872363090515137e-01 -4.335920792073011398e-03 1.018053963780403137e-01 3.368640840053558350e-01
3.358000000000000000e+03 3.927358627319335938e+01 3.688617324829101562e+01 9.155557751655578613e-01 1.573311519622802734e+01 4.994601249694824219e+00 1.982746005058288574e+00
3.359000000000000000e+03 3.383109664916992188e+01 3.191295814514160156e+01 3.131899833679199219e+00 1.807569146156311035e+00 1.481840729713439941e+00 2.585121631622314453e+00
3.360000000000000000e+03 3.487167739868164062e+01 3.275315093994140625e+01 4.116754531860351562e+00 1.948261976242065430e+00 1.819504976272583008e+00 3.394877910614013672e+00
3.361000000000000000e+03 3.481849670410156250e+01 3.235723876953125000e+01 4.089002609252929688e+00 2.847444772720336914e+00 2.080934286117553711e+00 3.821568489074707031e+00
3.362000000000000000e+03 3.620176315307617188e+01 3.669314956665039062e+01 2.422848939895629883e-01 8.317024230957031250e+00 2.567792654037475586e+00 -3.877535104751586914e+00
3.363000000000000000e+03 3.681681442260742188e+01 3.669036483764648438e+01 -6.089262366294860840e-01 1.222749233245849609e+01 3.485569715499877930e+00 -4.198345661163330078e+00
3.364000000000000000e+03 3.768251419067382812e+01 3.712122726440429688e+01 -1.038220524787902832e+00 1.511314868927001953e+01 4.222478389739990234e+00 -1.384004831314086914e+00
3.365000000000000000e+03 7.629678344726562500e+01 3.809177017211914062e+01 1.082379817962646484e-01 5.516471862792968750e+00 1.687412977218627930e+00 -1.039893627166748047e-01
3.366000000000000000e+03 1.041790103912353516e+01 -3.075086593627929688e+01 -1.151973661035299301e-02 -2.687070285901427269e-03 -4.262042231857776642e-03 6.348198279738426208e-03
3.367000000000000000e+03 3.713143920898437500e+01 3.080302619934082031e+01 1.396472454071044922e+00 1.181738662719726562e+01 3.964157581329345703e+00 4.280579566955566406e+00
3.368000000000000000e+03 6.295557403564453125e+01 3.108532333374023438e+01 5.885736346244812012e-01 7.604773998260498047e+00 2.458004236221313477e+00 -7.917329668998718262e-01
3.369000000000000000e+03 3.575656509399414062e+01 3.220193481445312500e+01 4.344024181365966797e+00 6.353204250335693359e+00 3.209168672561645508e+00 5.863031387329101562e+00
3.370000000000000000e+03 3.435298919677734375e+01 3.209529495239257812e+01 3.575469732284545898e+00 2.377644777297973633e+00 1.785934329032897949e+00 3.196878433227539062e+00
3.371000000000000000e+03 1.099849319458007812e+01 -4.174037456512451172e+00 2.237227163277566433e-04 5.594316171482205391e-04 2.349463029531762004e-04 -7.597797230118885636e-05
3.372000000000000000e+03 3.646446609497070312e+01 3.696953582763671875e+01 -1.357353180646896362e-01 1.034313869476318359e+01 3.062221050262451172e+00 -3.559270381927490234e+00
3.373000000000000000e+03 2.257656097412109375e+01 -3.214283752441406250e+01 1.173377782106399536e-01 4.029831886291503906e+00 1.244150876998901367e+00 1.752030998468399048e-01
3.374000000000000000e+03 3.382634353637695312e+01 3.150586128234863281e+01 3.108107328414916992e+00 2.414791345596313477e+00 1.656869649887084961e+00 2.958832979202270508e+00
3.375000000000000000e+03 3.415305328369140625e+01 3.169936943054199219e+01 3.366764307022094727e+00 2.590443611145019531e+00 1.787162423133850098e+00 3.233638525009155273e+00
3.376000000000000000e+03 6.137924957275390625e+01 2.587708663940429688e+01 3.379042744636535645e-01 7.846331119537353516e+00 2.455270528793334961e+00 -1.026350140571594238e+00
3.377000000000000000e+03 6.771768188476562500e+01 3.271176910400390625e+01 3.898892402648925781e-01 7.007766246795654297e+00 2.219296693801879883e+00 -6.013658642768859863e-01
3.378000000000000000e+03 3.528124237060546875e+01 3.208813476562500000e+01 4.228755474090576172e+00 4.583397865295410156e+00 2.643646001815795898e+00 4.946509838104248047e+00
3.379000000000000000e+03 6.141809940338134766e+00 -2.974918174743652344e+01 -1.675873878411948681e-03 5.567388143390417099e-03 1.167454407550394535e-03 -1.305816345848143101e-03
3.380000000000000000e+03 4.444287300109863281e+00 -2.942955970764160156e+01 2.647442277520895004e-03 2.793968887999653816e-03 1.632423256523907185e-03 1.309998100623488426e-03
3.381000000000000000e+03 3.508120727539062500e+01 3.172300720214843750e+01 3.808908224105834961e+00 4.687251567840576172e+00 2.548847913742065430e+00 4.642323970794677734e+00
3.382000000000000000e+03 4.755156326293945312e+01 2.871790313720703125e+01 1.260900378227233887e+00 9.740534782409667969e+00 3.300430536270141602e+00 -8.642280101776123047e-01
3.383000000000000000e+03 3.346483612060546875e+01 3.099966239929199219e+01 2.769202947616577148e+00 2.443286657333374023e+00 1.563746809959411621e+00 2.736166954040527344e+00
3.384000000000000000e+03 5.987297058105468750e+00 -4.080665111541748047e+00 -7.807295187376439571e-04 -3.303457924630492926e-05 -2.441292308503761888e-04 1.900948846014216542e-04
3.385000000000000000e+03 4.777542114257812500e+00 -5.753105640411376953e+00 1.174002303741872311e-03 -1.535053743282333016e-04 3.061490715481340885e-04 3.683540853671729565e-05
3.386000000000000000e+03 9.337003707885742188e+00 -3.060368728637695312e+01 -6.468978826887905598e-04 4.736176691949367523e-03 1.226783613674342632e-03 9.899868164211511612e-04
3.387000000000000000e+03 3.222278213500976562e+01 3.182784652709960938e+01 1.964611887931823730e+00 8.912243247032165527e-01 8.567508459091186523e-01 1.229169249534606934e+00
3.388000000000000000e+03 8.965171813964843750e+00 -3.349224472045898438e+01 -2.752167731523513794e-02 8.341333828866481781e-03 -5.754102952778339386e-03 -4.966865759342908859e-03
3.389000000000000000e+03 7.244559288024902344e+00 3.221302795410156250e+01 -1.867762533947825432e-03 -4.673436342272907495e-04 -7.005318184383213520e-04 4.593647317960858345e-04
3.390000000000000000e+03 2.380582237243652344e+01 -3.245662307739257812e+01 1.640478968620300293e-01 4.062366485595703125e+00 1.267924308776855469e+00 1.491635441780090332e-01
3.391000000000000000e+03 7.800880432128906250e+00 1.550945758819580078e+01 8.894979837350547314e-04 4.034175653941929340e-04 3.878746647387742996e-04 4.919609636999666691e-04
3.392000000000000000e+03 4.011753082275390625e+01 2.757781410217285156e+01 1.451520770788192749e-01 1.114863872528076172e+01 3.388137340545654297e+00 7.796233892440795898e-01
3.393000000000000000e+03 4.009242630004882812e+01 2.908495521545410156e+01 6.646988987922668457e-01 1.206505393981933594e+01 3.818925857543945312e+00 5.124751925468444824e-01
3.394000000000000000e+03 5.312409591674804688e+01 2.461275482177734375e+01 3.283174932003021240e-01 8.769528388977050781e+00 2.729353904724121094e+00 -1.059358239173889160e+00
3.395000000000000000e+03 1.043444252014160156e+01 -5.521463394165039062e+00 -7.339338189922273159e-04 -2.294222213095054030e-04 -2.890067989937961102e-04 -5.716512678191065788e-04
3.396000000000000000e+03 7.867734432220458984e+00 5.860217571258544922e+00 1.961347734322771430e-04 2.701172488741576672e-04 1.398755994159728289e-04 3.781405439440277405e-06
3.397000000000000000e+03 2.744321060180664062e+01 -3.186042785644531250e+01 4.259610176086425781e-02 4.321556568145751953e+00 1.309245705604553223e+00 8.026637136936187744e-02
3.398000000000000000e+03 5.295933723449707031e+00 -6.566231727600097656e+00 5.884876009076833725e-04 1.038479036651551723e-03 4.880900087300688028e-04 1.146747032180428505e-03
3.399000000000000000e+03 3.538917922973632812e+01 2.866929054260253906e+01 1.326344370841979980e+00 7.188889980316162109e+00 2.554570436477661133e+00 3.698805093765258789e+00
3.400000000000000000e+03 7.028325080871582031e+00 -2.556790924072265625e+01 -5.856928182765841484e-04 2.418885240331292152e-03 5.499576800502836704e-04 2.872959244996309280e-03
3.401000000000000000e+03 8.693426132202148438e+00 1.426236629486083984e+01 1.186596229672431946e-03 1.751218660501763225e-04 4.085154214408248663e-04 -4.060024220962077379e-04
3.402000000000000000e+03 3.270301055908203125e+01 3.042994689941406250e+01 2.410677909851074219e+00 2.183055639266967773e+00 1.378120064735412598e+00 2.312152624130249023e+00
3.403000000000000000e+03 3.368643569946289062e+01 3.064763259887695312e+01 2.759555339813232422e+00 3.147562265396118164e+00 1.772135257720947266e+00 3.130990505218505859e+00
3.404000000000000000e+03 6.889984607696533203e+00 -1.511664867401123047e+01 -1.180328545160591602e-03 -1.922964234836399555e-03 -9.309878223575651646e-04 -1.039154012687504292e-03
3.405000000000000000e+03 3.581576919555664062e+01 2.936392211914062500e+01 1.480292797088623047e+00 8.180442810058593750e+00 2.898220539093017578e+00 4.015594005584716797e+00
3.406000000000000000e+03 3.556617355346679688e+01 2.900485229492187500e+01 1.406154274940490723e+00 7.554639816284179688e+00 2.688238143920898438e+00 3.831904888153076172e+00
3.407000000000000000e+03 2.733654022216796875e+01 -1.166253852844238281e+01 -4.009832814335823059e-02 4.405184268951416016e+00 1.309525847434997559e+00 2.653863430023193359e-01
3.408000000000000000e+03 5.104832649230957031e+00 2.560394287109375000e+01 1.637221197597682476e-03 1.184813299914821982e-04 5.267107626423239708e-04 -1.867676910478621721e-04
3.409000000000000000e+03 8.820127487182617188e+00 -4.700869560241699219e+00 4.273545637261122465e-04 3.609872073866426945e-04 2.365025284234434366e-04 -1.067821795004419982e-04
3.410000000000000000e+03 7.174124240875244141e+00 -1.634144210815429688e+01 1.129688927903771400e-03 2.273439662531018257e-03 1.020938623696565628e-03 1.168429502286016941e-03
3.411000000000000000e+03 3.464128494262695312e+01 2.939252853393554688e+01 2.004987239837646484e+00 5.660539627075195312e+00 2.299658060073852539e+00 3.725886106491088867e+00
3.412000000000000000e+03 5.405307006835937500e+01 2.392075157165527344e+01 2.137829214334487915e-01 8.648548126220703125e+00 2.658699274063110352e+00 -1.068632841110229492e+00
3.413000000000000000e+03 4.691388320922851562e+01 2.209238433837890625e+01 -3.053832054138183594e-01 9.248594284057617188e+00 2.682963371276855469e+00 -5.121456384658813477e-01
3.414000000000000000e+03 9.618380546569824219e+00 6.496987819671630859e+00 -8.537310236533812713e-07 2.475772926118224859e-04 7.401706534437835217e-05 1.914179592858999968e-04
3.415000000000000000e+03 3.409237289428710938e+01 -2.622088432312011719e+01 -8.223512023687362671e-02 5.051283359527587891e+00 1.490714430809020996e+00 9.242351353168487549e-02
3.416000000000000000e+03 2.857305908203125000e+01 -7.354238510131835938e+00 -1.036018580198287964e-01 4.510354042053222656e+00 1.322025656700134277e+00 3.623477518558502197e-01
3.417000000000000000e+03 3.250234222412109375e+01 3.109683418273925781e+01 2.261126041412353516e+00 1.557892560958862305e+00 1.145705580711364746e+00 1.805480957031250000e+00
3.418000000000000000e+03 7.641716957092285156e+00 7.948619842529296875e+00 -2.717935713008046150e-04 -5.774070741608738899e-04 -2.547601761762052774e-04 1.581876276759430766e-04
3.419000000000000000e+03 6.287909507751464844e+00 1.428286361694335938e+01 -7.017839234322309494e-04 -6.100196624174714088e-04 -3.935410641133785248e-04 3.525715437717735767e-04
3.420000000000000000e+03 6.246207714080810547e+00 1.315911388397216797e+01 8.546453900635242462e-04 2.263368369312956929e-04 3.242946695536375046e-04 -2.042233973043039441e-04
3.421000000000000000e+03 6.482972621917724609e+00 -6.782532215118408203e+00 1.227416214533150196e-03 3.061245661228895187e-04 4.600622341968119144e-04 2.736905480560380965e-05
3.422000000000000000e+03 2.925596237182617188e+01 -3.019747161865234375e+01 5.092983134090900421e-03 4.553696155548095703e+00 1.367636680603027344e+00 6.596460938453674316e-02
3.423000000000000000e+03 4.703115463256835938e+01 1.966704368591308594e+01 -5.603108406066894531e-01 8.921177864074707031e+00 2.508260011672973633e+00 -3.801568746566772461e-01
3.424000000000000000e+03 5.960303306579589844e+00 2.442727279663085938e+01 2.443455741740763187e-04 7.528661517426371574e-04 2.991635119542479515e-04 4.083145176991820335e-05
3.425000000000000000e+03 3.435656356811523438e+01 2.891346359252929688e+01 1.803465723991394043e+00 5.433535099029541016e+00 2.171100139617919922e+00 3.508516550064086914e+00
3.426000000000000000e+03 5.525693893432617188e+00 -7.186942577362060547e+00 2.045482833636924624e-04 -9.014529059641063213e-04 -2.090713824145495892e-04 -5.579444696195423603e-04
3.427000000000000000e+03 6.357279205322265625e+01 1.911358642578125000e+01 -5.344333872199058533e-02 7.778649330139160156e+00 2.317561626434326172e+00 -1.037359118461608887e+00
3.428000000000000000e+03 7.932516098022460938e+00 -8.908303260803222656e+00 5.722052883356809616e-04 1.116502447985112667e-03 5.066123558208346367e-04 -2.378482458880171180e-04
3.429000000000000000e+03 3.463031005859375000e+01 2.853930664062500000e+01 1.586382031440734863e+00 5.951241016387939453e+00 2.261286973953247070e+00 3.512783288955688477e+00
3.430000000000000000e+03 2.693267059326171875e+01 2.909631729125976562e+01 7.195358872413635254e-01 6.359100341796875000e-01 4.066337943077087402e-01 2.878381013870239258e-01
3.431000000000000000e+03 3.538229370117187500e+01 2.620172691345214844e+01 4.819929003715515137e-01 6.991268157958984375e+00 2.241978406906127930e+00 2.824194669723510742e+00
3.432000000000000000e+03 6.420270442962646484e+00 1.191557598114013672e+01 -7.556463242508471012e-04 -4.206694939057342708e-05 -2.393139729974791408e-04 1.707120973151177168e-04
3.433000000000000000e+03 3.160350036621093750e+01 -2.016429901123046875e+01 -9.450057893991470337e-02 4.870748043060302734e+00 1.432874202728271484e+00 1.482864767313003540e-01
3.434000000000000000e+03 3.943678665161132812e+01 2.525465202331542969e+01 -3.683910071849822998e-01 9.742609024047851562e+00 2.812265396118164062e+00 1.278798460960388184e+00
3.435000000000000000e+03 3.187092590332031250e+01 -9.254651069641113281e+00 -1.598594635725021362e-01 4.908342361450195312e+00 1.424544811248779297e+00 3.301152884960174561e-01
3.436000000000000000e+03 3.349806594848632812e+01 2.902419662475585938e+01 2.023515462875366211e+00 4.150854587554931641e+00 1.852311134338378906e+00 3.095527172088623047e+00
3.437000000000000000e+03 7.080418395996093750e+01 2.192151451110839844e+01 2.776907943189144135e-02 7.102912902832031250e+00 2.139204740524291992e+00 -7.861074805259704590e-01
3.438000000000000000e+03 3.256784439086914062e+01 2.850032615661621094e+01 1.771173596382141113e+00 3.388056039810180664e+00 1.547768950462341309e+00 2.526489496231079102e+00
3.439000000000000000e+03 3.303174209594726562e+01 -1.912636184692382812e+01 -1.104209572076797485e-01 5.014360427856445312e+00 1.471181869506835938e+00 1.472175419330596924e-01
3.440000000000000000e+03 3.354228591918945312e+01 -1.357380390167236328e+01 -1.582154184579849243e-01 5.102111816406250000e+00 1.483168959617614746e+00 2.317737936973571777e-01
3.441000000000000000e+03 7.150404357910156250e+01 -1.989434432983398438e+01 -4.801552370190620422e-02 8.424036979675292969e+00 2.512806415557861328e+00 -1.215524673461914062e-01
3.442000000000000000e+03 3.550872039794921875e+01 -1.675716590881347656e+01 -1.526130288839340210e-01 5.289604187011718750e+00 1.541097402572631836e+00 1.676602810621261597e-01
3.443000000000000000e+03 6.849778747558593750e+01 -6.016366004943847656e+00 -1.462630629539489746e-01 8.060629844665527344e+00 2.374310255050659180e+00 -3.537487089633941650e-01
3.444000000000000000e+03 4.290158843994140625e+01 1.976682662963867188e+01 -7.708812355995178223e-01 8.783289909362792969e+00 2.403722524642944336e+00 3.383267819881439209e-01
3.445000000000000000e+03 3.280478286743164062e+01 2.563141059875488281e+01 8.186523318290710449e-01 4.642220497131347656e+00 1.638261914253234863e+00 2.442294359207153320e+00
3.446000000000000000e+03 5.923040390014648438e+01 1.391448020935058594e+01 -3.535508215427398682e-01 8.043021202087402344e+00 2.306840896606445312e+00 -9.194386601448059082e-01
3.447000000000000000e+03 6.864849090576171875e+01 -8.434631347656250000e+00 -1.245405599474906921e-01 8.104539871215820312e+00 2.393999814987182617e+00 -3.012945652008056641e-01
3.448000000000000000e+03 2.880819129943847656e+01 2.781211662292480469e+01 1.093299508094787598e+00 1.545592904090881348e+00 7.916676998138427734e-01 1.044457912445068359e+00
3.449000000000000000e+03 3.436352539062500000e+01 -5.718913555145263672e+00 -2.637534439563751221e-01 5.238557815551757812e+00 1.492441296577453613e+00 3.991614580154418945e-01
3.450000000000000000e+03 6.999736785888671875e+01 -1.808235549926757812e+01 -6.338530033826828003e-02 8.282818794250488281e+00 2.465830087661743164e+00 -1.537271440029144287e-01
3.451000000000000000e+03 3.008501052856445312e+01 2.819540596008300781e+01 1.386415600776672363e+00 1.905929446220397949e+00 9.877035021781921387e-01 1.426303386688232422e+00
3.452000000000000000e+03 3.216996383666992188e+01 2.311950492858886719e+01 3.463255763053894043e-01 4.627325534820556641e+00 1.492095351219177246e+00 2.099021911621093750e+00
3.453000000000000000e+03 3.143983840942382812e+01 2.301897048950195312e+01 3.689540922641754150e-01 4.192282199859619141e+00 1.368370771408081055e+00 1.969962835311889648e+00
3.454000000000000000e+03 6.891252899169921875e+01 -1.413513469696044922e+01 -9.116422384977340698e-02 8.170331954956054688e+00 2.423750162124633789e+00 -2.102612704038619995e-01
3.455000000000000000e+03 3.803767776489257812e+01 2.021263885498046875e+01 -6.623568534851074219e-01 7.701352596282958984e+00 2.111698865890502930e+00 1.375776052474975586e+00
3.456000000000000000e+03 5.990482330322265625e+01 1.148294162750244141e+01 -3.922953605651855469e-01 7.971366405487060547e+00 2.273721218109130859e+00 -8.489088416099548340e-01
3.457000000000000000e+03 3.825859832763671875e+01 1.927553367614746094e+01 -7.139951586723327637e-01 7.622107028961181641e+00 2.072433710098266602e+00 1.266833066940307617e+00
3.458000000000000000e+03 3.547990036010742188e+01 1.633022427558898926e-01 -4.023115932941436768e-01 5.512042045593261719e+00 1.532919168472290039e+00 5.619304776191711426e-01
3.459000000000000000e+03 3.292631530761718750e+01 2.104637908935546875e+01 -5.340197682380676270e-02 5.219176292419433594e+00 1.549732327461242676e+00 1.922382950782775879e+00
3.460000000000000000e+03 6.879540252685546875e+01 -9.958788871765136719e+00 -1.140350848436355591e-01 8.123421669006347656e+00 2.402816057205200195e+00 -2.748297154903411865e-01
3.461000000000000000e+03 4.472772598266601562e+01 -8.741904258728027344e+00 -3.887109458446502686e-01 6.413674831390380859e+00 1.807489156723022461e+00 9.192542731761932373e-02
3.462000000000000000e+03 6.595229339599609375e+01 -5.163973331451416016e+00 -2.050958275794982910e-01 7.933776855468750000e+00 2.318604230880737305e+00 -3.930481970310211182e-01
3.463000000000000000e+03 3.753812408447265625e+01 -6.667979240417480469e+00 -3.340873420238494873e-01 5.663513660430908203e+00 1.598827958106994629e+00 3.283747434616088867e-01
3.464000000000000000e+03 6.662004089355468750e+01 1.561266326904296875e+01 -1.200141608715057373e-01 7.649744033813476562e+00 2.258919000625610352e+00 -9.257597327232360840e-01
3.465000000000000000e+03 3.948664093017578125e+01 -7.596855163574218750e+00 -3.529268503189086914e-01 5.872076511383056641e+00 1.655744910240173340e+00 2.647796869277954102e-01
3.466000000000000000e+03 3.866653060913085938e+01 -6.780195236206054688e+00 -3.507318496704101562e-01 5.801444053649902344e+00 1.635213613510131836e+00 2.957011759281158447e-01
3.467000000000000000e+03 6.585596466064453125e+01 -1.572230720520019531e+01 -1.251782774925231934e-01 7.958032608032226562e+00 2.349856138229370117e+00 -2.015417665243148804e-01
3.468000000000000000e+03 3.593433380126953125e+01 1.811192512512207031e+01 -5.711705088615417480e-01 6.566529750823974609e+00 1.798607707023620605e+00 1.513132452964782715e+00
3.469000000000000000e+03 4.319744110107421875e+01 -3.975366353988647461e+00 -4.970765709877014160e-01 6.423780918121337891e+00 1.778011202812194824e+00 2.055587321519851685e-01
3.470000000000000000e+03 3.739097976684570312e+01 1.545199012756347656e+01 -7.411634922027587891e-01 6.797858238220214844e+00 1.817008376121520996e+00 1.158589482307434082e+00
3.471000000000000000e+03 3.998139190673828125e+01 -3.464998483657836914e+00 -4.512889981269836426e-01 6.045120239257812500e+00 1.678149461746215820e+00 3.310648500919342041e-01
3.472000000000000000e+03 3.809142684936523438e+01 1.476288986206054688e+01 -7.844381928443908691e-01 6.914616107940673828e+00 1.839053273200988770e+00 1.061977624893188477e+00
3.473000000000000000e+03 5.007769393920898438e+01 -5.262641906738281250e+00 -4.829720258712768555e-01 7.031884670257568359e+00 1.964673876762390137e+00 -8.432247489690780640e-02
3.474000000000000000e+03 3.587529754638671875e+01 1.725506210327148438e+01 -6.033989787101745605e-01 6.452280998229980469e+00 1.754664659500122070e+00 1.441140413284301758e+00
3.475000000000000000e+03 5.068982315063476562e+01 -2.798603057861328125e+00 -5.316589474678039551e-01 7.178477764129638672e+00 1.994045615196228027e+00 -1.262868344783782959e-01
3.476000000000000000e+03 3.839334487915039062e+01 9.543072700500488281e+00 -7.281958460807800293e-01 6.493656158447265625e+00 1.729638099670410156e+00 8.066611886024475098e-01
3.477000000000000000e+03 3.788547134399414062e+01 8.400055885314941406e+00 -6.912763118743896484e-01 6.302467346191406250e+00 1.683357238769531250e+00 8.093742728233337402e-01
3.478000000000000000e+03 5.945874023437500000e+01 5.410348892211914062e+00 -4.554241299629211426e-01 7.846619606018066406e+00 2.217358589172363281e+00 -6.333304643630981445e-01
3.479000000000000000e+03 3.604319763183593750e+01 1.040741920471191406e+01 -6.476523280143737793e-01 6.017572879791259766e+00 1.610976099967956543e+00 1.004471302032470703e+00
3.480000000000000000e+03 6.265358734130859375e+01 4.121181488037109375e+00 -3.505289852619171143e-01 7.848383426666259766e+00 2.249356269836425781e+00 -6.448550224304199219e-01
3.481000000000000000e+03 3.495938873291015625e+01 1.721837997436523438e+01 -5.335782170295715332e-01 6.096926212310791016e+00 1.669004440307617188e+00 1.512007474899291992e+00
3.482000000000000000e+03 4.276886749267578125e+01 3.127073764801025391e+00 -6.785584092140197754e-01 6.735907077789306641e+00 1.817204594612121582e+00 3.201627433300018311e-01
3.483000000000000000e+03 3.930574798583984375e+01 -6.623176336288452148e-01 -5.034484267234802246e-01 6.062969207763671875e+00 1.667856216430664062e+00 4.212400317192077637e-01
3.484000000000000000e+03 6.611515045166015625e+01 3.526176452636718750e+00 -2.463615983724594116e-01 7.876886367797851562e+00 2.289157390594482422e+00 -6.151272058486938477e-01
3.485000000000000000e+03 4.966623687744140625e+01 4.747555732727050781e+00 -7.084443569183349609e-01 7.507717609405517578e+00 2.039782047271728516e+00 -1.580632925033569336e-01
3.486000000000000000e+03 5.167735671997070312e+01 1.362012386322021484e+00 -6.126156449317932129e-01 7.446512699127197266e+00 2.050169229507446289e+00 -2.263457328081130981e-01
3.487000000000000000e+03 5.136309432983398438e+01 2.704253911972045898e+00 -6.339830756187438965e-01 7.497182369232177734e+00 2.058959722518920898e+00 -2.368371188640594482e-01
3.488000000000000000e+03 5.232477569580078125e+01 5.759661197662353516e+00 -6.588264107704162598e-01 7.716488361358642578e+00 2.117298603057861328e+00 -3.591922819614410400e-01
3.489000000000000000e+03 1.426702117919921875e+01 1.252673983573913574e+00 2.151874214177951217e-04 -5.266484095045598224e-06 6.297627987805753946e-05 2.708981337491422892e-04
3.490000000000000000e+03 1.462149238586425781e+01 1.164639949798583984e+00 -7.756283739581704140e-04 -1.882963260868564248e-04 -2.891774056479334831e-04 5.627731661661528051e-05
3.491000000000000000e+03 1.332876110076904297e+01 1.093653082847595215e+00 3.383677540114149451e-05 4.590776370605453849e-05 2.392336136836092919e-05 8.493084897054359317e-05
3.492000000000000000e+03 1.406522464752197266e+01 3.572364747524261475e-01 7.920535426819697022e-05 2.845901690307073295e-05 3.229931098758243024e-05 2.054023298114771023e-06
3.493000000000000000e+03 1.336003494262695312e+01 3.511472940444946289e-01 -2.733517067099455744e-05 -6.418790871975943446e-05 -2.745692472672089934e-05 -3.008734165632631630e-05
3.494000000000000000e+03 1.476313018798828125e+01 5.016638040542602539e-01 -2.419979500700719655e-05 -1.660288398852571845e-05 -1.224080369865987450e-05 -7.670662853342946619e-06
3.495000000000000000e+03 1.414069938659667969e+01 9.322270154953002930e-01 -4.410657275002449751e-04 1.637746609048917890e-04 -8.318731852341443300e-05 -2.614331315271556377e-04
3.496000000000000000e+03 1.384797477722167969e+01 1.187353014945983887e+00 1.697667357802856714e-05 8.303114009322598577e-05 3.000234391947742552e-05 -7.808548252796754241e-05
3.497000000000000000e+03 1.112969017028808594e+01 3.708996772766113281e-01 4.871212149737402797e-05 2.038303500739857554e-05 2.072854658763390034e-05 -1.877291833807248622e-05
3.498000000000000000e+03 1.113907623291015625e+01 1.110847473144531250e+00 -1.656927197473123670e-04 -8.845994670991785824e-06 -5.236161450739018619e-05 4.470018393476493657e-05
3.499000000000000000e+03 1.263169097900390625e+01 3.451149165630340576e-01 3.536844815243966877e-05 8.325075759785249829e-05 3.558576281648129225e-05 -6.019759439368499443e-06
3.500000000000000000e+03 1.037880802154541016e+01 3.837110698223114014e-01 -5.480336403707042336e-05 4.150666427449323237e-06 -1.519580928288633004e-05 7.169648597482591867e-06
3.501000000000000000e+03 1.188065242767333984e+01 3.580341637134552002e-01 -4.374144555185921490e-05 -5.752610377385281026e-05 -3.038026443391572684e-05 1.927100493048783392e-05
3.502000000000000000e+03 1.264514160156250000e+01 1.084993243217468262e+00 -8.294216968351975083e-05 -5.480090840137563646e-05 -4.132292451686225832e-05 1.927489574882201850e-05
3.503000000000000000e+03 1.038616180419921875e+01 1.123693704605102539e+00 1.700191787676885724e-04 8.573976629122626036e-06 5.357794725568965077e-05 -9.046991181094199419e-06
3.504000000000000000e+03 1.189207077026367188e+01 1.097947120666503906e+00 1.273919915547594428e-04 3.305858626845292747e-05 4.813517080037854612e-05 -5.965303716948255897e-05
3.505000000000000000e+03 9.625078201293945312e+00 3.871397972106933594e-01 5.037834489485248923e-05 -2.022746002694475465e-06 1.450667969038477167e-05 7.952845407999120653e-06
3.506000000000000000e+03 8.868724822998046875e+00 3.828192353248596191e-01 -4.963959145243279636e-05 -2.037557533185463399e-05 -2.100455094478093088e-05 -1.516104657639516518e-05
3.507000000000000000e+03 9.644926071166992188e+00 1.127139806747436523e+00 -1.603084965609014034e-04 -2.347794725210405886e-05 -5.513593350769951940e-05 -2.386734740866813809e-05
3.508000000000000000e+03 8.112174034118652344e+00 3.804100155830383301e-01 4.789407830685377121e-05 4.768789949594065547e-05 2.867459261324256659e-05 1.803176201065070927e-05
3.509000000000000000e+03 7.356014251708984375e+00 3.793691694736480713e-01 -4.872724821325391531e-05 -7.028073741821572185e-05 -3.570239641703665257e-05 -1.828082531574182212e-05
3.510000000000000000e+03 5.843623161315917969e+00 3.767499327659606934e-01 -5.045563375460915267e-05 -8.649550727568566799e-05 -4.108534267288632691e-05 -1.653607796470168978e-05
3.511000000000000000e+03 5.088051319122314453e+00 3.757717311382293701e-01 4.753243410959839821e-05 8.126372267724946141e-05 3.863884921884164214e-05 1.385880295856622979e-05
3.512000000000000000e+03 3.576755046844482422e+00 3.680583238601684570e-01 6.297088839346542954e-05 7.423240458592772484e-05 4.116098716622218490e-05 2.680193392734508961e-05
3.513000000000000000e+03 2.822042465209960938e+00 3.613462746143341064e-01 -7.292063673958182335e-05 -8.489646279485896230e-05 -4.734512913273647428e-05 -3.839713099296204746e-05
3.514000000000000000e+03 2.068703651428222656e+00 3.577998280525207520e-01 6.033840691088698804e-05 9.108211088459938765e-05 4.542615715763531625e-05 3.666023258119821548e-05
3.515000000000000000e+03 2.358754634857177734e+00 1.097799897193908691e+00 -1.286473270738497376e-04 -7.881844794610515237e-05 -6.223973468877375126e-05 -3.133909194730222225e-05
3.516000000000000000e+03 1.327708005905151367e+00 3.658417165279388428e-01 -1.849088039307389408e-05 -6.372208736138418317e-05 -2.466389014443848282e-05 1.455049641663208604e-06
3.517000000000000000e+03 1.644779324531555176e+00 1.105841755867004395e+00 7.004204962868243456e-05 1.201110062538646162e-04 5.704591603716835380e-05 8.935467121773399413e-06
3.518000000000000000e+03 6.509408354759216309e-01 3.937322795391082764e-01 -6.824019510531798005e-05 -3.434392419876530766e-05 -3.077523433603346348e-05 -9.369719191454350948e-05
3.519000000000000000e+03 3.482567369937896729e-01 9.569563269615173340e-01 1.700179418548941612e-04 1.023715594783425331e-04 8.171684748958796263e-05 6.897776529513066635e-06
3.520000000000000000e+03 3.085073232650756836e+00 1.101346254348754883e+00 1.589013263583183289e-04 6.487755308626219630e-05 6.713366019539535046e-05 3.515950447763316333e-05
3.521000000000000000e+03 3.812765598297119141e+00 1.108058333396911621e+00 -1.624614087631925941e-04 -6.601404311368241906e-05 -6.854263483546674252e-05 -1.764223998179659247e-05
3.522000000000000000e+03 4.332499980926513672e+00 3.732680678367614746e-01 -5.847355350852012634e-05 -7.353258843068033457e-05 -3.960184403695166111e-05 -1.690798308118246496e-05
3.523000000000000000e+03 5.998572826385498047e+00 1.116749882698059082e+00 1.284634927287697792e-04 8.674565469846129417e-05 6.456274422816932201e-05 1.349169633613200858e-05
3.524000000000000000e+03 6.600036144256591797e+00 3.784387111663818359e-01 4.796155917574651539e-05 8.313809667015448213e-05 3.932989784516394138e-05 1.746817179082427174e-05
3.525000000000000000e+03 8.186062812805175781e+00 1.120409965515136719e+00 -1.344013726338744164e-04 -6.324357673292979598e-05 -5.929348481004126370e-05 -3.910090163117274642e-05
3.526000000000000000e+03 8.915593147277832031e+00 1.122819185256958008e+00 1.435653975931927562e-04 4.350018207333050668e-05 5.611967571894638240e-05 4.000494300271384418e-05
3.527000000000000000e+03 7.456923484802246094e+00 1.119369149208068848e+00 1.316013222094625235e-04 7.628988532815128565e-05 6.236736226128414273e-05 3.103334893239662051e-05
3.528000000000000000e+03 6.727965354919433594e+00 1.118438720703125000e+00 -1.313345419475808740e-04 -8.442638500127941370e-05 -6.472827953984960914e-05 -2.328089613001793623e-05
3.529000000000000000e+03 5.270021438598632812e+00 1.115771770477294922e+00 -1.318328140769153833e-04 -8.574092498747631907e-05 -6.527212099172174931e-05 -8.528721082257106900e-06
3.530000000000000000e+03 4.541490077972412109e+00 1.113268017768859863e+00 1.406422961736097932e-04 7.875768642406910658e-05 6.581999332411214709e-05 6.516832854686072096e-06
3.531000000000000000e+03 9.950323700904846191e-01 1.133732318878173828e+00 1.217740418724133633e-06 -2.066990418825298548e-04 -6.164438673295080662e-05 7.967947021825239062e-05
3.532000000000000000e+03 7.951600551605224609e+00 -3.791473805904388428e-01 -9.120522736338898540e-05 -2.455374051351100206e-04 -1.010227861115708947e-04 1.425843856850406155e-05
3.533000000000000000e+03 8.812386512756347656e+00 -1.121279358863830566e+00 -2.183815668104216456e-04 -2.133193047484382987e-04 -1.295102556468918920e-04 1.326316669292282313e-05
3.534000000000000000e+03 9.587816238403320312e+00 -3.863115906715393066e-01 -8.340614294866099954e-05 -2.202937612310051918e-04 -9.110997052630409598e-05 2.459575262037105858e-05
3.535000000000000000e+03 7.132064342498779297e+00 -3.779651820659637451e-01 8.449153392575681210e-05 2.329692943021655083e-04 9.523824701318517327e-05 -2.111473804689012468e-05
3.536000000000000000e+03 6.306247234344482422e+00 -3.772793114185333252e-01 -8.882377733243629336e-05 -2.172064123442396522e-04 -9.180905908579006791e-05 2.267455238325055689e-05
3.537000000000000000e+03 5.442752361297607422e+00 -3.835102021694183350e-01 8.182296005543321371e-05 1.994752965401858091e-04 8.438947406830266118e-05 -1.535545561637263745e-05
3.538000000000000000e+03 4.552286148071289062e+00 -3.399353623390197754e-01 -6.067467256798408926e-05 -2.259577595395967364e-04 -8.598972635809332132e-05 2.835550390045682434e-07
3.539000000000000000e+03 4.371328830718994141e+00 -8.708365559577941895e-01 1.106986601371318102e-04 3.586441744118928909e-05 4.396892109070904553e-05 -8.870903548086062074e-05
3.540000000000000000e+03 2.785328388214111328e+00 -7.796061038970947266e-01 2.958331315312534571e-04 -2.052046511380467564e-05 8.259379683295264840e-05 1.526541309431195259e-04
3.541000000000000000e+03 1.180722951889038086e+00 -3.608860373497009277e-01 -2.485831209924072027e-04 -9.421077993465587497e-05 -1.028381739160977304e-04 -6.717173528159037232e-05
3.542000000000000000e+03 4.099212884902954102e-01 -5.526853203773498535e-01 3.977846063207834959e-05 3.837564145214855671e-05 2.344623135286383331e-05 2.316107566002756357e-05
3.543000000000000000e+03 7.477942705154418945e-01 -1.100885987281799316e+00 7.521678344346582890e-04 -6.028845382388681173e-05 2.075638185488060117e-04 4.507832272793166339e-05
3.544000000000000000e+03 9.597747802734375000e+00 -1.126311540603637695e+00 2.044995053438469768e-04 2.055547229247167706e-04 1.230162743013352156e-04 -5.166308255866169930e-05
3.545000000000000000e+03 8.026608467102050781e+00 -1.119147419929504395e+00 2.266949159093201160e-04 2.071839844575151801e-04 1.301636657444760203e-04 5.795621291326824576e-06
3.546000000000000000e+03 7.239610195159912109e+00 -1.117965221405029297e+00 -2.526583557482808828e-04 -1.914636377478018403e-04 -1.332365936832502484e-04 -4.666578206524718553e-06
3.547000000000000000e+03 6.446331024169921875e+00 -1.117279291152954102e+00 2.510281628929078579e-04 1.895836030598729849e-04 1.321835297858342528e-04 -2.688815766305197030e-05
3.548000000000000000e+03 5.615375041961669922e+00 -1.123510241508483887e+00 -2.735064190346747637e-04 -1.771362876752391458e-04 -1.351928076473996043e-04 5.969224730506539345e-05
3.549000000000000000e+03 4.879715442657470703e+00 -1.221276640892028809e+00 3.205148095730692148e-04 2.129215135937556624e-04 1.600308896740898490e-04 -5.423444963525980711e-05
3.550000000000000000e+03 4.223337173461914062e+00 -1.290901184082031250e+00 -3.730811004061251879e-04 -1.446911919629201293e-04 -1.553316833451390266e-04 6.637116166530176997e-05
3.551000000000000000e+03 3.489140987396240234e+00 -1.263193726539611816e+00 3.994254220742732286e-04 9.964078344637528062e-05 1.497198536526411772e-04 3.623471639002673328e-05
3.552000000000000000e+03 2.723763942718505859e+00 -1.258556365966796875e+00 -3.170431009493768215e-04 -1.682629954302683473e-04 -1.455918245483189821e-04 -2.003860572585836053e-04
3.553000000000000000e+03 1.357383847236633301e+00 -1.202877521514892578e+00 -7.830343674868345261e-04 -7.981371163623407483e-05 -2.588544448371976614e-04 -1.575132337165996432e-04
3.554000000000000000e+03 8.769917488098144531e+00 -3.812793791294097900e-01 7.211554475361481309e-05 2.465928264427930117e-04 9.561250772094354033e-05 -1.629482358111999929e-05
3.555000000000000000e+03 3.581377506256103516e+00 -7.854385375976562500e-01 -2.915336517617106438e-04 -3.879817086271941662e-05 -9.909954678732901812e-05 -2.840451270458288491e-05
3.556000000000000000e+03 3.695749998092651367e+00 -2.822447717189788818e-01 1.176361038233153522e-04 2.674665593076497316e-04 1.155307982116937637e-04 5.420003435574471951e-05
3.557000000000000000e+03 2.864297151565551758e+00 -2.810497581958770752e-01 -1.303453464061021805e-04 -2.618185244500637054e-04 -1.176491568912751973e-04 -7.768449722789227962e-05
3.558000000000000000e+03 1.994235515594482422e+00 -3.319245874881744385e-01 7.241683488246053457e-05 1.852905697887763381e-04 7.731222285656258464e-05 1.466537214582785964e-04
3.559000000000000000e+03 1.981270551681518555e+00 -1.274680376052856445e+00 3.391473146621137857e-04 2.471004554536193609e-04 1.758743310347199440e-04 3.100727917626500130e-04
3.560000000000000000e+03 1.973554253578186035e+00 -8.466050028800964355e-01 5.587832492892630398e-05 2.477029556757770479e-05 2.419458542135544121e-05 -2.806075208354741335e-04
3.561000000000000000e+03 1.332448291778564453e+01 -3.621845245361328125e-01 1.954549079528078437e-04 -2.635222044773399830e-04 -2.042019150394480675e-05 1.258136126125464216e-05
3.562000000000000000e+03 1.426397991180419922e+01 -1.317608714103698730e+00 -5.869322340004146099e-04 -2.790586149785667658e-04 -2.597972634248435497e-04 -3.113996644970029593e-04
3.563000000000000000e+03 1.327361392974853516e+01 -1.248556852340698242e+00 -4.567856012727133930e-05 -7.676993845961987972e-05 -3.673454921226948500e-05 3.577268798835575581e-04
3.564000000000000000e+03 1.480296707153320312e+01 -1.047354817390441895e+00 4.947006236761808395e-04 3.182075452059507370e-04 2.438724477542564273e-04 2.402023237664252520e-04
3.565000000000000000e+03 1.356446647644042969e+01 -7.579438090324401855e-01 -4.636959056369960308e-04 -9.688619320513680577e-05 -1.681746362010017037e-04 -3.828771586995571852e-04
3.566000000000000000e+03 1.393659019470214844e+01 -3.302382230758666992e-01 8.141337457345798612e-05 2.667902153916656971e-04 1.044610762619413435e-04 1.284159225178882480e-04
3.567000000000000000e+03 1.449034786224365234e+01 -4.399540424346923828e-01 -4.868146788794547319e-04 -3.942214825656265020e-04 -2.643108600750565529e-04 -4.594533820636570454e-04
3.568000000000000000e+03 1.380024147033691406e+01 -1.352263331413269043e+00 6.220306386239826679e-04 -6.641898653469979763e-05 1.666834868956357241e-04 -1.001348136924207211e-04
3.569000000000000000e+03 1.402595424652099609e+01 -9.610455632209777832e-01 9.060163283720612526e-04 1.286541373701766133e-04 3.104011411778628826e-04 5.319929332472383976e-04
3.570000000000000000e+03 1.185737037658691406e+01 -1.162281751632690430e+00 -2.044459833996370435e-04 -4.925850589643232524e-05 -7.611134788021445274e-05 1.224064762936905026e-04
3.571000000000000000e+03 1.112013435363769531e+01 -4.102526009082794189e-01 -8.487837476423010230e-05 -1.073944076779298484e-04 -5.768183473264798522e-05 3.654765896499156952e-05
3.572000000000000000e+03 1.261753940582275391e+01 -4.348734915256500244e-01 -6.743398262187838554e-05 1.582299446454271674e-04 2.723878787946887314e-05 1.052234947565011680e-04
3.573000000000000000e+03 1.037124824523925781e+01 -3.971002995967864990e-01 7.514157914556562901e-05 1.819050667108967900e-04 7.711399666732177138e-05 -3.161732092848978937e-05
3.574000000000000000e+03 1.036389350891113281e+01 -1.137082934379577637e+00 -2.327358815819025040e-04 -1.709715143078938127e-04 -1.211122216773219407e-04 9.915456757880747318e-05
3.575000000000000000e+03 1.260408973693847656e+01 -1.174751639366149902e+00 1.496167096775025129e-04 5.417601278168149292e-05 6.113781273597851396e-05 -1.922604569699615240e-04
3.576000000000000000e+03 1.111074829101562500e+01 -1.150200366973876953e+00 2.417808282189071178e-04 9.384329314343631268e-05 1.006872334983199835e-04 -1.123164111049845815e-04
3.577000000000000000e+03 1.186878871917724609e+01 -4.223687946796417236e-01 5.800736471428535879e-05 6.218785529199521989e-06 1.926784534589387476e-05 -6.076155113987624645e-05
3.578000000000000000e+03 3.703564453125000000e+01 3.435455703735351562e+01 3.441683578491210938e+01 2.541291236877441406e+00 1.108743858337402344e+01 6.009612560272216797e+00
3.579000000000000000e+03 3.703570556640625000e+01 3.433509063720703125e+01 3.647467041015625000e+01 9.673979759216308594e+00 1.384459495544433594e+01 1.867325782775878906e+01
3.580000000000000000e+03 3.703955459594726562e+01 3.431600952148437500e+01 3.621367263793945312e+01 1.946001815795898438e+01 1.670210838317871094e+01 2.480138015747070312e+01
3.581000000000000000e+03 3.704704666137695312e+01 3.429803848266601562e+01 3.351701736450195312e+01 3.021141052246093750e+01 1.911852836608886719e+01 2.874522018432617188e+01
3.582000000000000000e+03 3.705789184570312500e+01 3.428187179565429688e+01 3.019095420837402344e+01 4.157937240600585938e+01 2.153109741210937500e+01 2.972254180908203125e+01
3.583000000000000000e+03 3.707167816162109375e+01 3.426812362670898438e+01 2.592771339416503906e+01 5.190129852294921875e+01 2.334870338439941406e+01 2.824628639221191406e+01
3.584000000000000000e+03 3.708787918090820312e+01 3.425732803344726562e+01 2.251968574523925781e+01 6.085322952270507812e+01 2.501187324523925781e+01 2.424915122985839844e+01
3.585000000000000000e+03 3.710586929321289062e+01 3.424988555908203125e+01 1.998829078674316406e+01 6.713040924072265625e+01 2.613561058044433594e+01 1.854069900512695312e+01
3.586000000000000000e+03 3.712496185302734375e+01 3.424609375000000000e+01 1.949590682983398438e+01 7.061800384521484375e+01 2.703417205810546875e+01 1.183785724639892578e+01
3.587000000000000000e+03 3.714443206787109375e+01 3.424608993530273438e+01 2.062875175476074219e+01 7.098262023925781250e+01 2.748341178894042969e+01 5.257154464721679688e+00
3.588000000000000000e+03 3.716352844238281250e+01 3.424987411499023438e+01 2.377220344543457031e+01 6.891539001464843750e+01 2.780627822875976562e+01 -3.401091098785400391e-01
3.589000000000000000e+03 3.718152236938476562e+01 3.425730514526367188e+01 2.784945106506347656e+01 6.486317443847656250e+01 2.781378746032714844e+01 -4.365036964416503906e+00
3.590000000000000000e+03 3.719772720336914062e+01 3.426809692382812500e+01 3.257382202148437500e+01 6.004914855957031250e+01 2.778689193725585938e+01 -6.355162620544433594e+00
3.591000000000000000e+03 3.721151733398437500e+01 3.428183746337890625e+01 3.718641662597656250e+01 5.503540802001953125e+01 2.766654586791992188e+01 -6.442610740661621094e+00
3.592000000000000000e+03 3.722237014770507812e+01 3.429800033569335938e+01 4.113507461547851562e+01 5.071207809448242188e+01 2.755414581298828125e+01 -4.825420856475830078e+00
3.593000000000000000e+03 3.722986984252929688e+01 3.431596755981445312e+01 4.396421051025390625e+01 4.756927108764648438e+01 2.746004486083984375e+01 -1.952593922615051270e+00
3.594000000000000000e+03 3.723372650146484375e+01 3.433504867553710938e+01 4.567487716674804688e+01 4.615123367309570312e+01 2.754783248901367188e+01 1.922871589660644531e+00
3.595000000000000000e+03 3.723379516601562500e+01 3.435451507568359375e+01 4.572195053100585938e+01 4.617945098876953125e+01 2.757042121887207031e+01 6.248930454254150391e+00
3.596000000000000000e+03 3.723007202148437500e+01 3.437362670898437500e+01 4.411413192749023438e+01 4.765491867065429688e+01 2.753071403503417969e+01 1.011241626739501953e+01
3.597000000000000000e+03 3.722270202636718750e+01 3.439164352416992188e+01 4.117859268188476562e+01 5.235623168945312500e+01 2.806044769287109375e+01 1.349025917053222656e+01
3.598000000000000000e+03 3.721196365356445312e+01 3.440788269042968750e+01 3.587991333007812500e+01 5.615399932861328125e+01 2.761017417907714844e+01 1.575603771209716797e+01
3.599000000000000000e+03 3.719826889038085938e+01 3.442172241210937500e+01 3.070411872863769531e+01 6.232384872436523438e+01 2.790839004516601562e+01 1.563341045379638672e+01
3.600000000000000000e+03 3.718214416503906250e+01 3.443262863159179688e+01 2.428493118286132812e+01 6.757771301269531250e+01 2.755879211425781250e+01 1.358429718017578125e+01
3.601000000000000000e+03 3.716420364379882812e+01 3.444018554687500000e+01 1.834824943542480469e+01 7.174467468261718750e+01 2.702787780761718750e+01 9.240831375122070312e+00
3.602000000000000000e+03 3.714513397216796875e+01 3.444410705566406250e+01 1.372436714172363281e+01 7.366390228271484375e+01 2.621648025512695312e+01 3.244729280471801758e+00
3.603000000000000000e+03 3.712566757202148438e+01 3.444424057006835938e+01 1.101192283630371094e+01 7.284609222412109375e+01 2.515740394592285156e+01 -3.964909791946411133e+00
3.604000000000000000e+03 3.710654449462890625e+01 3.444058227539062500e+01 9.738173484802246094e+00 6.859365844726562500e+01 2.349954986572265625e+01 -1.119894123077392578e+01
3.605000000000000000e+03 3.708850097656250000e+01 3.443327331542968750e+01 1.095863056182861328e+01 6.158305358886718750e+01 2.176250457763671875e+01 -1.742429924011230469e+01
3.606000000000000000e+03 3.707222747802734375e+01 3.442258834838867188e+01 1.296298789978027344e+01 5.170262145996093750e+01 1.939968299865722656e+01 -2.199412918090820312e+01
3.607000000000000000e+03 3.705834579467773438e+01 3.440893936157226562e+01 1.677344322204589844e+01 4.010840225219726562e+01 1.706455421447753906e+01 -2.398778915405273438e+01
3.608000000000000000e+03 3.704738235473632812e+01 3.439284896850585938e+01 2.007079696655273438e+01 2.728376007080078125e+01 1.420636653900146484e+01 -2.322554397583007812e+01
3.609000000000000000e+03 3.703976440429687500e+01 3.437493515014648438e+01 2.654084014892578125e+01 1.182879161834716797e+01 1.151089000701904297e+01 -1.598911952972412109e+01
