# el_label, x, y, sXX, sYY, sZZ, sXY
1.000000000000000000e+00 2.799451255798339844e+01 3.602898788452148438e+01 -4.282709121704101562e+00 -1.375814557075500488e+00 -1.697557091712951660e+00 -1.674427509307861328e+00
2.000000000000000000e+00 2.779555320739746094e+01 3.603468704223632812e+01 -5.590788722038269043e-01 5.338716506958007812e-01 -7.562170270830392838e-03 7.311154007911682129e-01
3.000000000000000000e+00 2.759659385681152344e+01 3.604038619995117188e+01 -1.632857084274291992e+00 -2.973225414752960205e-01 -5.790538787841796875e-01 1.520954966545104980e-01
4.000000000000000000e+00 2.739763450622558594e+01 3.604608154296875000e+01 -1.686654686927795410e+00 1.550167948007583618e-01 -4.594913721084594727e-01 2.752175033092498779e-01
5.000000000000000000e+00 2.799855995178222656e+01 3.597072219848632812e+01 7.584240913391113281e+00 -2.013323783874511719e+00 1.671275019645690918e+00 1.638066768646240234e-01
6.000000000000000000e+00 2.780229759216308594e+01 3.593757629394531250e+01 2.343269824981689453e+00 3.718173131346702576e-02 7.141354680061340332e-01 7.142592072486877441e-01
7.000000000000000000e+00 2.760603523254394531e+01 3.590443420410156250e+01 2.440474271774291992e+00 2.797879874706268311e-01 8.160786628723144531e-01 1.245037317276000977e+00
8.000000000000000000e+00 2.740977478027343750e+01 3.587128829956054688e+01 1.329321265220642090e+00 4.583085328340530396e-02 4.125456213951110840e-01 7.293922305107116699e-01
9.000000000000000000e+00 2.801387214660644531e+01 3.591436004638671875e+01 1.255568790435791016e+01 3.201989233493804932e-01 3.862766027450561523e+00 5.205483913421630859e+00
1.000000000000000000e+01 2.782781791687011719e+01 3.584363937377929688e+01 7.306435108184814453e+00 2.915018498897552490e-01 2.279381036758422852e+00 2.908036470413208008e+00
1.100000000000000000e+01 2.764176559448242188e+01 3.577291870117187500e+01 4.859788417816162109e+00 7.807007431983947754e-01 1.692146778106689453e+00 2.517765045166015625e+00
1.200000000000000000e+01 2.745571136474609375e+01 3.570220184326171875e+01 4.222468852996826172e+00 8.696357011795043945e-01 1.527631402015686035e+00 2.426465988159179688e+00
1.300000000000000000e+01 2.803986358642578125e+01 3.586205673217773438e+01 1.476725673675537109e+01 4.308580875396728516e+00 5.722751140594482422e+00 9.465104103088378906e+00
1.400000000000000000e+01 2.787113761901855469e+01 3.575646972656250000e+01 9.261010169982910156e+00 2.703776359558105469e+00 3.589436054229736328e+00 6.121892452239990234e+00
1.500000000000000000e+01 2.770241355895996094e+01 3.565087890625000000e+01 7.217718124389648438e+00 2.208809614181518555e+00 2.827958345413208008e+00 4.722237586975097656e+00
1.600000000000000000e+01 2.753368759155273438e+01 3.554528808593750000e+01 5.690408229827880859e+00 2.010271787643432617e+00 2.310204029083251953e+00 4.129846096038818359e+00
1.700000000000000000e+01 2.807554054260253906e+01 3.581581497192382812e+01 1.399320507049560547e+01 1.007854938507080078e+01 7.221526622772216797e+00 1.277266979217529297e+01
1.800000000000000000e+01 2.793060111999511719e+01 3.567939758300781250e+01 9.903575897216796875e+00 6.222770214080810547e+00 4.837903499603271484e+00 8.741614341735839844e+00
1.900000000000000000e+01 2.778566169738769531e+01 3.554298019409179688e+01 7.640453338623046875e+00 5.115502357482910156e+00 3.826786756515502930e+00 6.931218624114990234e+00
2.000000000000000000e+01 2.764072036743164062e+01 3.540656280517578125e+01 6.375170230865478516e+00 4.200921058654785156e+00 3.172827243804931641e+00 5.955620765686035156e+00
2.100000000000000000e+01 2.811953926086425781e+01 3.577740478515625000e+01 1.210361480712890625e+01 1.602674865722656250e+01 8.439108848571777344e+00 1.436667919158935547e+01
2.200000000000000000e+01 2.800393104553222656e+01 3.561537933349609375e+01 8.890633583068847656e+00 1.109586238861083984e+01 5.995948791503906250e+00 1.027485084533691406e+01
2.300000000000000000e+01 2.788832092285156250e+01 3.545335388183593750e+01 7.218216896057128906e+00 8.515702247619628906e+00 4.720175743103027344e+00 8.481378555297851562e+00
2.400000000000000000e+01 2.777271270751953125e+01 3.529133224487304688e+01 5.962088108062744141e+00 7.544579982757568359e+00 4.052000522613525391e+00 7.324196815490722656e+00
2.500000000000000000e+01 2.817017364501953125e+01 3.574829101562500000e+01 9.686678886413574219e+00 2.245868492126464844e+01 9.643609046936035156e+00 1.378801059722900391e+01
2.600000000000000000e+01 2.808831977844238281e+01 3.556686019897460938e+01 7.336341381072998047e+00 1.555885505676269531e+01 6.868558883666992188e+00 1.079464149475097656e+01
2.700000000000000000e+01 2.800646781921386719e+01 3.538542938232421875e+01 5.974549293518066406e+00 1.296652889251708984e+01 5.682323455810546875e+00 8.747317314147949219e+00
2.800000000000000000e+01 2.792461395263671875e+01 3.520399856567382812e+01 5.160398483276367188e+00 1.068341732025146484e+01 4.753144741058349609e+00 7.865588188171386719e+00
2.900000000000000000e+01 2.822550582885742188e+01 3.572959518432617188e+01 7.461884021759033203e+00 2.752076721191406250e+01 1.049479484558105469e+01 1.188895797729492188e+01
3.000000000000000000e+01 2.818054199218750000e+01 3.553570175170898438e+01 5.986701965332031250e+00 2.002459144592285156e+01 7.803388118743896484e+00 9.570074081420898438e+00
3.100000000000000000e+01 2.813557624816894531e+01 3.534180450439453125e+01 4.531541347503662109e+00 1.661204147338867188e+01 6.343074798583984375e+00 8.509861946105957031e+00
3.200000000000000000e+01 2.809061050415039062e+01 3.514791107177734375e+01 4.043322086334228516e+00 1.485923957824707031e+01 5.670768737792968750e+00 7.022978782653808594e+00
3.300000000000000000e+01 2.828341865539550781e+01 3.572203063964843750e+01 6.408225536346435547e+00 3.116608810424804688e+01 1.127229404449462891e+01 8.693520545959472656e+00
3.400000000000000000e+01 2.827706336975097656e+01 3.552309036254882812e+01 4.977058410644531250e+00 2.357135772705078125e+01 8.564524650573730469e+00 7.633734703063964844e+00
3.500000000000000000e+01 2.827070808410644531e+01 3.532415008544921875e+01 3.801131248474121094e+00 1.957419395446777344e+01 7.012597560882568359e+00 6.813702583312988281e+00
3.600000000000000000e+01 2.826435279846191406e+01 3.512521362304687500e+01 2.887913703918457031e+00 1.767321014404296875e+01 6.168336868286132812e+00 6.360983848571777344e+00
3.700000000000000000e+01 2.834169578552246094e+01 3.572588348388671875e+01 7.037568569183349609e+00 3.319221115112304688e+01 1.206893348693847656e+01 5.207203865051269531e+00
3.800000000000000000e+01 2.837419319152832031e+01 3.552951431274414062e+01 4.465264797210693359e+00 2.574545669555664062e+01 9.063216209411621094e+00 5.022848129272460938e+00
3.900000000000000000e+01 2.840669059753417969e+01 3.533314514160156250e+01 3.978132724761962891e+00 2.195536994934082031e+01 7.780050754547119141e+00 4.621714591979980469e+00
4.000000000000000000e+01 2.843918609619140625e+01 3.513677597045898438e+01 2.625255584716796875e+00 1.872863578796386719e+01 6.406167507171630859e+00 4.375590801239013672e+00
4.100000000000000000e+01 2.839810943603515625e+01 3.574101257324218750e+01 8.366118431091308594e+00 3.335063934326171875e+01 1.251502799987792969e+01 1.824908614158630371e+00
4.200000000000000000e+01 2.846821594238281250e+01 3.555472564697265625e+01 5.528698444366455078e+00 2.678697967529296875e+01 9.694703102111816406e+00 2.570880413055419922e+00
4.300000000000000000e+01 2.853832054138183594e+01 3.536843872070312500e+01 4.141079902648925781e+00 2.284067344665527344e+01 8.094526290893554688e+00 2.193879604339599609e+00
4.400000000000000000e+01 2.860842514038085938e+01 3.518215179443359375e+01 3.752243995666503906e+00 2.096053886413574219e+01 7.413835048675537109e+00 2.056236267089843750e+00
4.500000000000000000e+01 2.845049858093261719e+01 3.576683044433593750e+01 1.060174274444580078e+01 3.247624588012695312e+01 1.292339611053466797e+01 -5.444662570953369141e-01
4.600000000000000000e+01 2.855552864074707031e+01 3.559775924682617188e+01 7.394598960876464844e+00 2.641567230224609375e+01 1.014308166503906250e+01 3.518687784671783447e-01
4.700000000000000000e+01 2.866056060791015625e+01 3.542868423461914062e+01 5.162146568298339844e+00 2.295660209655761719e+01 8.435625076293945312e+00 3.303602039813995361e-01
4.800000000000000000e+01 2.876559066772460938e+01 3.525960922241210938e+01 4.799862384796142578e+00 2.140193939208984375e+01 7.860540390014648438e+00 8.029608726501464844e-01
4.900000000000000000e+01 2.849685859680175781e+01 3.580235671997070312e+01 1.366333198547363281e+01 3.094857978820800781e+01 1.338357353210449219e+01 -1.729648113250732422e+00
5.000000000000000000e+01 2.863279533386230469e+01 3.565696716308593750e+01 9.342930793762207031e+00 2.513281059265136719e+01 1.034272289276123047e+01 -1.281812667846679688e+00
5.100000000000000000e+01 2.876873207092285156e+01 3.551157379150390625e+01 7.400193214416503906e+00 2.230768394470214844e+01 8.912363052368164062e+00 -5.729449987411499023e-01
5.200000000000000000e+01 2.890467071533203125e+01 3.536618423461914062e+01 5.893050193786621094e+00 1.902192878723144531e+01 7.474493980407714844e+00 -1.494727879762649536e-01
5.300000000000000000e+01 2.853541374206542969e+01 3.584622573852539062e+01 1.629871940612792969e+01 2.886677551269531250e+01 1.354964828491210938e+01 -1.996840000152587891e+00
5.400000000000000000e+01 2.869705581665039062e+01 3.573008346557617188e+01 1.173131370544433594e+01 2.375934028625488281e+01 1.064719581604003906e+01 -1.666441082954406738e+00
5.500000000000000000e+01 2.885869789123535156e+01 3.561393737792968750e+01 9.525586128234863281e+00 2.052737617492675781e+01 9.015888214111328125e+00 -9.992594122886657715e-01
5.600000000000000000e+01 2.902033996582031250e+01 3.549779510498046875e+01 8.185326576232910156e+00 1.768574523925781250e+01 7.761322021484375000e+00 -1.152719855308532715e+00
5.700000000000000000e+01 2.856469345092773438e+01 3.589676284790039062e+01 1.834996414184570312e+01 2.706177902221679688e+01 1.362352275848388672e+01 -1.335013389587402344e+00
5.800000000000000000e+01 2.874585342407226562e+01 3.581431198120117188e+01 1.382853126525878906e+01 2.236191749572753906e+01 1.085713481903076172e+01 -1.034093022346496582e+00
5.900000000000000000e+01 2.892701339721679688e+01 3.573185729980468750e+01 1.139995288848876953e+01 1.879211807250976562e+01 9.057621002197265625e+00 -9.075186252593994141e-01
6.000000000000000000e+01 2.910817337036132812e+01 3.564940643310546875e+01 9.773866653442382812e+00 1.762561225891113281e+01 8.219843864440917969e+00 -1.054057002067565918e+00
6.100000000000000000e+01 2.858357238769531250e+01 3.595203399658203125e+01 1.983633232116699219e+01 2.629576492309570312e+01 1.383962917327880859e+01 1.935954540967941284e-01
6.200000000000000000e+01 2.877731704711914062e+01 3.590642929077148438e+01 1.510245800018310547e+01 2.077940940856933594e+01 1.076455974578857422e+01 1.620146483182907104e-01
6.300000000000000000e+01 2.897106361389160156e+01 3.586082077026367188e+01 1.254069519042968750e+01 1.843510246276855469e+01 9.292739868164062500e+00 9.167913347482681274e-03
6.400000000000000000e+01 2.916480827331542969e+01 3.581521987915039062e+01 1.057181262969970703e+01 1.646950531005859375e+01 8.112395286560058594e+00 1.648759394884109497e-01
6.500000000000000000e+01 2.859132957458496094e+01 3.600992202758789062e+01 2.011311340332031250e+01 2.543843841552734375e+01 1.366546535491943359e+01 2.137388229370117188e+00
6.600000000000000000e+01 2.879024505615234375e+01 3.600291061401367188e+01 1.549316883087158203e+01 2.075869941711425781e+01 1.087556076049804688e+01 1.771447777748107910e+00
6.700000000000000000e+01 2.898916244506835938e+01 3.599589538574218750e+01 1.257844448089599609e+01 1.789512252807617188e+01 9.142069816589355469e+00 1.526480793952941895e+00
6.800000000000000000e+01 2.918807983398437500e+01 3.598888397216796875e+01 1.103142642974853516e+01 1.627674484252929688e+01 8.192451477050781250e+00 1.344294428825378418e+00
6.900000000000000000e+01 2.858766746520996094e+01 3.606821441650390625e+01 1.949308586120605469e+01 2.590344238281250000e+01 1.361895847320556641e+01 3.983862876892089844e+00
7.000000000000000000e+01 2.878414344787597656e+01 3.610005950927734375e+01 1.459883880615234375e+01 2.106497001647949219e+01 1.069914245605468750e+01 3.561966180801391602e+00
7.100000000000000000e+01 2.898061943054199219e+01 3.613190841674804688e+01 1.188388538360595703e+01 1.846110153198242188e+01 9.103496551513671875e+00 2.979790210723876953e+00
7.200000000000000000e+01 2.917709732055664062e+01 3.616375732421875000e+01 1.000139617919921875e+01 1.657443809509277344e+01 7.972750186920166016e+00 2.509570121765136719e+00
7.300000000000000000e+01 2.857272720336914062e+01 3.612467575073242188e+01 1.764173889160156250e+01 2.707379531860351562e+01 1.341466045379638672e+01 5.677464962005615234e+00
7.400000000000000000e+01 2.875924491882324219e+01 3.619416427612304688e+01 1.285111808776855469e+01 2.216372299194335938e+01 1.050445270538330078e+01 4.836808681488037109e+00
7.500000000000000000e+01 2.894576072692871094e+01 3.626365661621093750e+01 1.020898246765136719e+01 1.955465698242187500e+01 8.929091453552246094e+00 4.135943412780761719e+00
7.600000000000000000e+01 2.913227653503417969e+01 3.633314514160156250e+01 8.279493331909179688e+00 1.762931442260742188e+01 7.772642135620117188e+00 3.628776550292968750e+00
7.700000000000000000e+01 2.854708099365234375e+01 3.617715072631835938e+01 1.485899448394775391e+01 2.877825164794921875e+01 1.309117412567138672e+01 6.666366100311279297e+00
7.800000000000000000e+01 2.871650123596191406e+01 3.628162384033203125e+01 1.027617931365966797e+01 2.386799240112304688e+01 1.024325180053710938e+01 5.317720413208007812e+00
7.900000000000000000e+01 2.888591957092285156e+01 3.638609313964843750e+01 7.984226226806640625e+00 2.077946472167968750e+01 8.629107475280761719e+00 4.603244781494140625e+00
8.000000000000000000e+01 2.905533790588378906e+01 3.649056625366210938e+01 6.614246368408203125e+00 1.901223373413085938e+01 7.687943935394287109e+00 4.191611766815185547e+00
8.100000000000000000e+01 2.851170921325683594e+01 3.622362518310546875e+01 1.145028781890869141e+01 3.086612510681152344e+01 1.269492340087890625e+01 6.558652877807617188e+00
8.200000000000000000e+01 2.865754699707031250e+01 3.635908508300781250e+01 7.342344284057617188e+00 2.554916191101074219e+01 9.867451667785644531e+00 4.896876335144042969e+00
8.300000000000000000e+01 2.880338668823242188e+01 3.649454116821289062e+01 5.507616043090820312e+00 2.213896369934082031e+01 8.293973922729492188e+00 4.038804054260253906e+00
8.400000000000000000e+01 2.894922447204589844e+01 3.662999725341796875e+01 4.694349288940429688e+00 1.985345077514648438e+01 7.364339828491210938e+00 3.625813484191894531e+00
8.500000000000000000e+01 2.846796607971191406e+01 3.626232910156250000e+01 7.823699951171875000e+00 3.293887710571289062e+01 1.222877311706542969e+01 5.168772697448730469e+00
8.600000000000000000e+01 2.858464241027832031e+01 3.642358398437500000e+01 4.529606819152832031e+00 2.664649772644042969e+01 9.352831840515136719e+00 3.427454471588134766e+00
8.700000000000000000e+01 2.870131874084472656e+01 3.658484268188476562e+01 3.200243473052978516e+00 2.323623657226562500e+01 7.930944442749023438e+00 2.663866281509399414e+00
8.800000000000000000e+01 2.881799507141113281e+01 3.674610137939453125e+01 2.277739524841308594e+00 2.054527473449707031e+01 6.846904277801513672e+00 1.982217311859130859e+00
8.900000000000000000e+01 2.841752624511718750e+01 3.629177093505859375e+01 4.530708789825439453e+00 3.404273986816406250e+01 1.157203483581542969e+01 2.602029561996459961e+00
9.000000000000000000e+01 2.850057411193847656e+01 3.647266006469726562e+01 2.322600126266479492e+00 2.708216476440429688e+01 8.821429252624511719e+00 1.017076492309570312e+00
9.100000000000000000e+01 2.858362388610839844e+01 3.665354537963867188e+01 1.315241932868957520e+00 2.316453933715820312e+01 7.343934059143066406e+00 6.163351535797119141e-01
9.200000000000000000e+01 2.866667366027832031e+01 3.683443069458007812e+01 5.609145760536193848e-01 2.121800422668457031e+01 6.533675670623779297e+00 3.813698887825012207e-01
9.300000000000000000e+01 2.836231803894042969e+01 3.631083297729492188e+01 2.190505981445312500e+00 3.389580154418945312e+01 1.082589244842529297e+01 -1.005282998085021973e+00
9.400000000000000000e+01 2.840856170654296875e+01 3.650442886352539062e+01 1.018801569938659668e+00 2.613183975219726562e+01 8.145192146301269531e+00 -1.787395596504211426e+00
9.500000000000000000e+01 2.845480537414550781e+01 3.669802093505859375e+01 1.432635784149169922e-01 2.226634025573730469e+01 6.722880840301513672e+00 -1.834416627883911133e+00
9.600000000000000000e+01 2.850104904174804688e+01 3.689161682128906250e+01 1.485021710395812988e-01 1.977117919921875000e+01 5.975904464721679688e+00 -1.422067165374755859e+00
9.700000000000000000e+01 2.830445480346679688e+01 3.631878280639648438e+01 1.443036913871765137e+00 3.196291923522949219e+01 1.002178668975830078e+01 -4.895457267761230469e+00
9.800000000000000000e+01 2.831212425231933594e+01 3.651767349243164062e+01 4.523524343967437744e-01 2.385240936279296875e+01 7.291428565979003906e+00 -4.679966449737548828e+00
9.900000000000000000e+01 2.831979370117187500e+01 3.671656799316406250e+01 2.179186642169952393e-01 2.001502990722656250e+01 6.069884777069091797e+00 -4.025506019592285156e+00
1.000000000000000000e+02 2.832746124267578125e+01 3.691545867919921875e+01 -9.332779794931411743e-02 1.733555412292480469e+01 5.172667980194091797e+00 -3.804688692092895508e+00
1.010000000000000000e+02 2.824615287780761719e+01 3.631531143188476562e+01 1.743331670761108398e+00 2.801062583923339844e+01 8.926186561584472656e+00 -8.532917022705078125e+00
1.020000000000000000e+02 2.821495246887207031e+01 3.651189422607421875e+01 1.203970789909362793e+00 2.034634780883789062e+01 6.465095520019531250e+00 -6.819752216339111328e+00
1.030000000000000000e+02 2.818375396728515625e+01 3.670847320556640625e+01 6.021085977554321289e-01 1.658042335510253906e+01 5.154759407043457031e+00 -5.969104290008544922e+00
1.040000000000000000e+02 2.815255355834960938e+01 3.690505218505859375e+01 4.607116281986236572e-01 1.457613658905029297e+01 4.511054515838623047e+00 -5.220076084136962891e+00
1.050000000000000000e+02 2.818964004516601562e+01 3.630055999755859375e+01 3.508558511734008789e+00 2.266183853149414062e+01 7.851119041442871094e+00 -1.080038261413574219e+01
1.060000000000000000e+02 2.812076759338378906e+01 3.648730468750000000e+01 2.217976093292236328e+00 1.559772396087646484e+01 5.344709873199462891e+00 -8.150169372558593750e+00
1.070000000000000000e+02 2.805189323425292969e+01 3.667404937744140625e+01 1.615922927856445312e+00 1.273584556579589844e+01 4.305530548095703125e+00 -6.684230327606201172e+00
1.080000000000000000e+02 2.798301887512207031e+01 3.686079406738281250e+01 1.146169304847717285e+00 1.090018939971923828e+01 3.613907814025878906e+00 -5.871971130371093750e+00
1.090000000000000000e+02 2.813708305358886719e+01 3.627508544921875000e+01 5.343769073486328125e+00 1.598672008514404297e+01 6.399146556854248047e+00 -1.145333290100097656e+01
1.100000000000000000e+02 2.803317070007324219e+01 3.644485092163085938e+01 3.539007425308227539e+00 1.072900485992431641e+01 4.280403614044189453e+00 -7.982659339904785156e+00
1.110000000000000000e+02 2.792925834655761719e+01 3.661461257934570312e+01 2.367368221282958984e+00 8.350389480590820312e+00 3.215327262878417969e+00 -6.368579864501953125e+00
1.120000000000000000e+02 2.782534408569335938e+01 3.678437423706054688e+01 1.797479271888732910e+00 7.264633655548095703e+00 2.718633890151977539e+00 -5.346186161041259766e+00
1.130000000000000000e+02 2.809048843383789062e+01 3.623986816406250000e+01 7.135601043701171875e+00 9.487573623657226562e+00 4.986952304840087891e+00 -9.945522308349609375e+00
1.140000000000000000e+02 2.795551490783691406e+01 3.638615036010742188e+01 3.748305320739746094e+00 5.666346073150634766e+00 2.824395418167114258e+00 -6.490615367889404297e+00
1.150000000000000000e+02 2.782053947448730469e+01 3.653243637084960938e+01 2.742978096008300781e+00 4.841083049774169922e+00 2.275218248367309570e+00 -4.840048313140869141e+00
1.160000000000000000e+02 2.768556594848632812e+01 3.667871856689453125e+01 1.705792069435119629e+00 3.840211391448974609e+00 1.663800954818725586e+00 -4.242962837219238281e+00
1.170000000000000000e+02 2.805164527893066406e+01 3.619625091552734375e+01 6.503381729125976562e+00 3.135547161102294922e+00 2.891678571701049805e+00 -6.750398159027099609e+00
1.180000000000000000e+02 2.789077186584472656e+01 3.631345748901367188e+01 3.183619499206542969e+00 2.183606147766113281e+00 1.610167741775512695e+00 -3.659822463989257812e+00
1.190000000000000000e+02 2.772990036010742188e+01 3.643066406250000000e+01 1.329871654510498047e+00 1.785202622413635254e+00 9.345222711563110352e-01 -2.787900686264038086e+00
1.200000000000000000e+02 2.756902885437011719e+01 3.654787445068359375e+01 8.716812133789062500e-01 2.267414331436157227e+00 9.417287111282348633e-01 -2.471768379211425781e+00
1.210000000000000000e+02 2.802203369140625000e+01 3.614590835571289062e+01 4.004683971405029297e+00 -1.179103732109069824e+00 8.476740121841430664e-01 -1.737193226814270020e+00
1.220000000000000000e+02 2.784142112731933594e+01 3.622955322265625000e+01 -6.796227693557739258e-01 -3.042157739400863647e-02 -2.130133062601089478e-01 -6.054688096046447754e-01
1.230000000000000000e+02 2.766080856323242188e+01 3.631319808959960938e+01 -6.433681249618530273e-01 1.190800309181213379e+00 1.642296612262725830e-01 -1.121220350265502930e+00
1.240000000000000000e+02 2.748019599914550781e+01 3.639684295654296875e+01 -1.122667312622070312e+00 5.774754099547863007e-03 -3.350677788257598877e-01 -6.894481182098388672e-01
1.250000000000000000e+02 2.800279045104980469e+01 3.609076309204101562e+01 -6.669681549072265625e+00 -3.065575361251831055e+00 -2.920577049255371094e+00 2.842601776123046875e+00
1.260000000000000000e+02 2.780934906005859375e+01 3.613764572143554688e+01 -3.553464412689208984e+00 1.152709960937500000e+00 -7.202263474464416504e-01 2.168177068233489990e-01
1.270000000000000000e+02 2.761590957641601562e+01 3.618452835083007812e+01 -4.109564304351806641e+00 -7.832151651382446289e-01 -1.467833876609802246e+00 5.690287947654724121e-01
1.280000000000000000e+02 2.742246818542480469e+01 3.623141098022460938e+01 -4.221817970275878906e+00 3.961811959743499756e-01 -1.147691130638122559e+00 5.849867463111877441e-01
1.290000000000000000e+02 2.430074310302734375e+01 3.554321670532226562e+01 -2.407385855913162231e-01 1.133448258042335510e-01 -3.821812570095062256e-02 -1.445462107658386230e-01
1.300000000000000000e+02 2.461381149291992188e+01 3.599322891235351562e+01 -1.242031455039978027e+00 -7.114668190479278564e-02 -3.939534127712249756e-01 -9.051086008548736572e-02
1.310000000000000000e+02 2.285605239868164062e+01 3.527659606933593750e+01 -1.643841266632080078e-01 -3.286771010607481003e-03 -5.030126869678497314e-02 -3.182449340820312500e-01
1.320000000000000000e+02 2.467706680297851562e+01 3.528322601318359375e+01 1.477386057376861572e-01 2.192048132419586182e-01 1.100830212235450745e-01 2.537212148308753967e-02
1.330000000000000000e+02 2.512148094177246094e+01 3.547060012817382812e+01 6.451842188835144043e-02 1.722921580076217651e-01 7.104317098855972290e-02 1.495750844478607178e-01
1.340000000000000000e+02 2.488976287841796875e+01 3.583159255981445312e+01 -8.822321295738220215e-01 7.636630535125732422e-02 -2.417597472667694092e-01 -5.668918043375015259e-02
1.350000000000000000e+02 2.501657676696777344e+01 3.625815963745117188e+01 -1.760732293128967285e+00 5.587645247578620911e-02 -5.114567875862121582e-01 -4.472068697214126587e-02
1.360000000000000000e+02 2.349399566650390625e+01 3.604072570800781250e+01 -1.024049639701843262e+00 -3.063148818910121918e-02 -3.164043426513671875e-01 -1.866838783025741577e-01
1.370000000000000000e+02 2.274453163146972656e+01 3.601598358154296875e+01 -6.648195385932922363e-01 1.447786670178174973e-02 -1.951024979352951050e-01 -1.818077713251113892e-01
1.380000000000000000e+02 2.512534904479980469e+01 3.603314590454101562e+01 -1.272225379943847656e+00 1.779896765947341919e-01 -3.282707035541534424e-01 -5.064905434846878052e-02
1.390000000000000000e+02 2.515082168579101562e+01 3.584532546997070312e+01 -8.176470398902893066e-01 1.907418668270111084e-01 -1.880715489387512207e-01 -9.421338886022567749e-02
1.400000000000000000e+02 2.415990829467773438e+01 3.610282516479492188e+01 -1.367582559585571289e+00 8.646612614393234253e-02 -3.843349218368530273e-01 -1.327102482318878174e-01
1.410000000000000000e+02 2.514872360229492188e+01 3.565264129638671875e+01 -5.407695770263671875e-01 1.894408464431762695e-01 -1.053986102342605591e-01 -3.188403695821762085e-02
1.420000000000000000e+02 2.489934730529785156e+01 3.503230285644531250e+01 5.219181776046752930e-01 2.468083947896957397e-01 2.306179702281951904e-01 2.025960087776184082e-01
1.430000000000000000e+02 2.506096839904785156e+01 3.526432037353515625e+01 3.946850597858428955e-01 1.379721164703369141e-01 1.597971469163894653e-01 6.716592609882354736e-02
1.440000000000000000e+02 2.369182777404785156e+01 3.530181503295898438e+01 -1.231361925601959229e-01 1.032658070325851440e-01 -5.961114540696144104e-03 -2.208243757486343384e-01
1.450000000000000000e+02 2.490616989135742188e+01 3.558630752563476562e+01 -4.605116248130798340e-01 6.766781210899353027e-02 -1.178531423211097717e-01 3.526851907372474670e-02
1.460000000000000000e+02 2.541226577758789062e+01 3.628157424926757812e+01 -1.926692247390747070e+00 -1.937328651547431946e-02 -5.838196277618408203e-01 1.467864960432052612e-01
1.470000000000000000e+02 2.699432373046875000e+01 3.554848861694335938e+01 2.681828498840332031e+00 5.935258269309997559e-01 9.826062917709350586e-01 1.679703712463378906e+00
1.480000000000000000e+02 2.801345443725585938e+01 3.474203109741210938e+01 2.980300903320312500e+00 1.177738952636718750e+01 4.427307128906250000e+00 6.080074310302734375e+00
1.490000000000000000e+02 2.929674911499023438e+01 3.562770462036132812e+01 8.258577346801757812e+00 1.632352066040039062e+01 7.374629497528076172e+00 -9.898962378501892090e-01
1.500000000000000000e+02 2.950959777832031250e+01 3.575035858154296875e+01 8.069655418395996094e+00 1.488149642944335938e+01 6.885345458984375000e+00 2.237414270639419556e-01
1.510000000000000000e+02 2.931220436096191406e+01 3.619524002075195312e+01 8.447991371154785156e+00 1.586520481109619141e+01 7.293959140777587891e+00 2.411345481872558594e+00
1.520000000000000000e+02 2.918693542480468750e+01 3.677590179443359375e+01 4.031718730926513672e+00 1.778573417663574219e+01 6.545236110687255859e+00 2.996796607971191406e+00
1.530000000000000000e+02 2.908439254760742188e+01 3.671529769897460938e+01 4.451756477355957031e+00 1.892408561706542969e+01 7.012752532958984375e+00 3.570733070373535156e+00
1.540000000000000000e+02 2.567955970764160156e+01 3.757199859619140625e+01 -8.390412926673889160e-01 5.679981112480163574e-01 -8.131296932697296143e-02 -4.704805016517639160e-01
1.550000000000000000e+02 2.845017814636230469e+01 3.737461471557617188e+01 -2.770624458789825439e-01 1.496951198577880859e+01 4.407734870910644531e+00 -2.314187765121459961e+00
1.560000000000000000e+02 2.824345397949218750e+01 3.484492111206054688e+01 2.508608102798461914e+00 1.510827064514160156e+01 5.285063743591308594e+00 4.938390254974365234e+00
1.570000000000000000e+02 2.533837890625000000e+01 3.501321029663085938e+01 1.101253867149353027e+00 7.087109088897705078e-01 5.429894328117370605e-01 6.077997088432312012e-01
1.580000000000000000e+02 2.575620841979980469e+01 3.495808029174804688e+01 1.466211438179016113e+00 7.134207487106323242e-01 6.538896560668945312e-01 9.229388833045959473e-01
1.590000000000000000e+02 2.632281875610351562e+01 3.593896102905273438e+01 -1.095966219902038574e+00 6.537939608097076416e-02 -3.091760277748107910e-01 1.718733161687850952e-01
1.600000000000000000e+02 2.779430389404296875e+01 3.470529174804687500e+01 3.299265861511230469e+00 9.394701004028320312e+00 3.808189868927001953e+00 6.163135051727294922e+00
1.610000000000000000e+02 2.749906349182128906e+01 3.523592376708984375e+01 5.461193084716796875e+00 4.239820957183837891e+00 2.910304307937622070e+00 5.378932952880859375e+00
1.620000000000000000e+02 2.719837760925292969e+01 3.582806015014648438e+01 9.407150745391845703e-01 8.122791349887847900e-02 3.065828979015350342e-01 7.961555719375610352e-01
1.630000000000000000e+02 2.595772743225097656e+01 3.493441009521484375e+01 1.838107347488403320e+00 7.892813682556152344e-01 7.882165908813476562e-01 1.182959675788879395e+00
1.640000000000000000e+02 2.555073928833007812e+01 3.498793792724609375e+01 1.154243588447570801e+00 4.805518686771392822e-01 4.904386401176452637e-01 6.556096076965332031e-01
1.650000000000000000e+02 2.550495529174804688e+01 3.780082321166992188e+01 -5.361758470535278320e-01 7.807063460350036621e-01 7.335915416479110718e-02 -5.440185666084289551e-01
1.660000000000000000e+02 2.549315261840820312e+01 3.758988952636718750e+01 -9.672232866287231445e-01 5.460968613624572754e-01 -1.263379305601119995e-01 -3.803500160574913025e-02
1.670000000000000000e+02 2.574439811706542969e+01 3.714660263061523438e+01 -1.914613723754882812e+00 1.306869834661483765e-01 -5.351780056953430176e-01 -4.616615176200866699e-02
1.680000000000000000e+02 2.582887649536132812e+01 3.650128555297851562e+01 -4.528676033020019531e+00 -4.604610055685043335e-02 -1.372416615486145020e+00 5.897623300552368164e-01
1.690000000000000000e+02 2.704272651672363281e+01 3.651916122436523438e+01 -2.247578144073486328e+00 5.667444202117621899e-04 -6.741033792495727539e-01 -1.414159387350082397e-01
1.700000000000000000e+02 2.754007720947265625e+01 3.685398483276367188e+01 1.315956950187683105e+00 4.092768192291259766e+00 1.622617483139038086e+00 -3.710786581039428711e+00
1.710000000000000000e+02 2.542780113220214844e+01 3.653242874145507812e+01 -5.029352664947509766e+00 -2.905248701572418213e-01 -1.595963239669799805e+00 3.519054353237152100e-01
1.720000000000000000e+02 2.582005310058593750e+01 3.675925445556640625e+01 -3.398594617843627930e+00 -9.591183066368103027e-02 -1.048352003097534180e+00 4.354850351810455322e-01
1.730000000000000000e+02 2.663364410400390625e+01 3.634726715087890625e+01 -4.583519935607910156e+00 1.903072297573089600e-01 -1.317963838577270508e+00 7.177435159683227539e-01
1.740000000000000000e+02 2.718025970458984375e+01 3.686660003662109375e+01 1.335464715957641602e-01 1.622131228446960449e+00 5.267032980918884277e-01 -1.762249112129211426e+00
1.750000000000000000e+02 2.722386360168457031e+01 3.627500152587890625e+01 -4.359780311584472656e+00 -4.001644253730773926e-01 -1.427983403205871582e+00 5.595315694808959961e-01
1.760000000000000000e+02 2.885283851623535156e+01 3.722644042968750000e+01 -7.153132464736700058e-03 1.744257736206054688e+01 5.230627536773681641e+00 -1.050264090299606323e-01
1.770000000000000000e+02 2.829800605773925781e+01 3.713510894775390625e+01 -2.040286213159561157e-01 1.520875644683837891e+01 4.501418113708496094e+00 -3.565706729888916016e+00
1.780000000000000000e+02 2.802162742614746094e+01 3.741242599487304688e+01 1.202281191945075989e-01 1.078154277801513672e+01 3.270531177520751953e+00 -4.380927085876464844e+00
1.790000000000000000e+02 2.737673759460449219e+01 3.668378829956054688e+01 2.397807389497756958e-01 1.276533246040344238e+00 4.548941850662231445e-01 -2.002959012985229492e+00
1.800000000000000000e+02 2.719264793395996094e+01 3.604719924926757812e+01 -1.754365921020507812e+00 -1.369601041078567505e-01 -5.673977732658386230e-01 1.966692209243774414e-01
1.810000000000000000e+02 2.673623657226562500e+01 3.605465316772460938e+01 -1.885487794876098633e+00 -1.009382456541061401e-01 -5.959278345108032227e-01 2.985951602458953857e-01
1.820000000000000000e+02 2.919132804870605469e+01 3.525672912597656250e+01 5.480816364288330078e+00 1.688519287109375000e+01 6.709802627563476562e+00 -4.402546882629394531e-01
1.830000000000000000e+02 2.565641593933105469e+01 3.542954635620117188e+01 4.034457206726074219e-01 3.031395077705383301e-01 2.119755744934082031e-01 2.828918993473052979e-01
1.840000000000000000e+02 2.540056610107421875e+01 3.586227798461914062e+01 -8.355947732925415039e-01 1.075756698846817017e-01 -2.184057384729385376e-01 -7.338542491197586060e-02
1.850000000000000000e+02 2.561327362060546875e+01 3.626124954223632812e+01 -2.100823163986206055e+00 -7.908372208476066589e-03 -6.326194405555725098e-01 1.577691137790679932e-01
1.860000000000000000e+02 2.569737243652343750e+01 3.777385330200195312e+01 -4.661268293857574463e-01 5.937230587005615234e-01 3.827886655926704407e-02 -3.061576783657073975e-01
1.870000000000000000e+02 2.624985885620117188e+01 3.645758819580078125e+01 -4.451833724975585938e+00 -4.257681220769882202e-02 -1.348323106765747070e+00 6.616596579551696777e-01
1.880000000000000000e+02 2.702142143249511719e+01 3.630303192138671875e+01 -4.437874794006347656e+00 1.990561336278915405e-01 -1.271645665168762207e+00 6.342916488647460938e-01
1.890000000000000000e+02 2.588770484924316406e+01 3.773841094970703125e+01 -3.870134949684143066e-01 1.040536284446716309e+00 1.960568279027938843e-01 -9.288482069969177246e-01
1.900000000000000000e+02 2.851424980163574219e+01 3.710880279541015625e+01 -2.332081645727157593e-01 1.723880004882812500e+01 5.101677417755126953e+00 -1.901596307754516602e+00
1.910000000000000000e+02 2.934187316894531250e+01 3.579398345947265625e+01 9.564301490783691406e+00 1.572843074798583984e+01 7.587819576263427734e+00 6.120702028274536133e-01
1.920000000000000000e+02 2.957148933410644531e+01 3.633766174316406250e+01 7.464718341827392578e+00 1.468721675872802734e+01 6.645580291748046875e+00 2.566849708557128906e+00
1.930000000000000000e+02 2.678455352783203125e+01 3.483602905273437500e+01 3.346784830093383789e+00 2.213409900665283203e+00 1.668058395385742188e+00 3.017688989639282227e+00
1.940000000000000000e+02 2.846382522583007812e+01 3.492319869995117188e+01 1.834460973739624023e+00 1.881154441833496094e+01 6.193801879882812500e+00 4.470515251159667969e+00
1.950000000000000000e+02 2.868435668945312500e+01 3.490811920166015625e+01 2.707504987716674805e+00 1.665981674194335938e+01 5.810196399688720703e+00 2.721256017684936523e+00
1.960000000000000000e+02 2.758933258056640625e+01 3.472214126586914062e+01 3.774523258209228516e+00 7.309762477874755859e+00 3.325285673141479492e+00 5.778541088104248047e+00
1.970000000000000000e+02 2.761393737792968750e+01 3.494425582885742188e+01 4.533578872680664062e+00 7.070497035980224609e+00 3.481222867965698242e+00 6.268381595611572266e+00
1.980000000000000000e+02 2.847548484802246094e+01 3.469566345214843750e+01 1.916024208068847656e+00 1.613895416259765625e+01 5.416493892669677734e+00 4.091529369354248047e+00
1.990000000000000000e+02 2.899521446228027344e+01 3.502199935913085938e+01 3.646270990371704102e+00 1.746346855163574219e+01 6.332921504974365234e+00 2.903529070317745209e-02
2.000000000000000000e+02 2.923902130126953125e+01 3.545098495483398438e+01 8.306314468383789062e+00 1.696710395812988281e+01 7.582025527954101562e+00 -1.247879624366760254e+00
2.010000000000000000e+02 2.698771286010742188e+01 3.480109786987304688e+01 3.869772195816040039e+00 3.008855342864990234e+00 2.063588142395019531e+00 3.799165964126586914e+00
2.020000000000000000e+02 2.733772277832031250e+01 3.539554595947265625e+01 4.926241874694824219e+00 2.031168699264526367e+00 2.087223291397094727e+00 3.735825777053833008e+00
2.030000000000000000e+02 2.952208328247070312e+01 3.603154754638671875e+01 8.659361839294433594e+00 1.468231487274169922e+01 7.002502918243408203e+00 1.654971480369567871e+00
2.040000000000000000e+02 2.878168487548828125e+01 3.700999832153320312e+01 4.282861649990081787e-01 1.931727218627929688e+01 5.923667430877685547e+00 5.901715755462646484e-01
2.050000000000000000e+02 2.933584785461425781e+01 3.685937118530273438e+01 3.591724872589111328e+00 1.618095016479492188e+01 5.931802749633789062e+00 3.261791467666625977e+00
2.060000000000000000e+02 2.772225570678710938e+01 3.696616363525390625e+01 1.400010824203491211e+00 6.346491336822509766e+00 2.323950529098510742e+00 -4.891211509704589844e+00
2.070000000000000000e+02 2.772894668579101562e+01 3.717448806762695312e+01 1.020349502563476562e+00 7.269699096679687500e+00 2.487014532089233398e+00 -4.648561477661132812e+00
2.080000000000000000e+02 2.717376327514648438e+01 3.735204696655273438e+01 5.120515823364257812e-01 3.648911952972412109e+00 1.248289108276367188e+00 -2.912477731704711914e+00
2.090000000000000000e+02 2.808438682556152344e+01 3.712831115722656250e+01 2.991524040699005127e-01 1.227403545379638672e+01 3.771956205368041992e+00 -4.890313148498535156e+00
2.100000000000000000e+02 2.933538818359375000e+01 3.650104522705078125e+01 6.958102703094482422e+00 1.598712921142578125e+01 6.883569717407226562e+00 3.363243579864501953e+00
2.110000000000000000e+02 2.926315879821777344e+01 3.636035537719726562e+01 8.021610260009765625e+00 1.628470802307128906e+01 7.291895389556884766e+00 3.491613626480102539e+00
2.120000000000000000e+02 2.684623336791992188e+01 3.649279022216796875e+01 -3.164171457290649414e+00 3.377093076705932617e-01 -8.479386568069458008e-01 2.415578812360763550e-01
2.130000000000000000e+02 2.727234840393066406e+01 3.648624420166015625e+01 -1.516638040542602539e+00 6.686915755271911621e-01 -2.543839514255523682e-01 -5.412704348564147949e-01
2.140000000000000000e+02 2.935879325866699219e+01 3.599831008911132812e+01 1.024292945861816406e+01 1.517387866973876953e+01 7.625042438507080078e+00 1.254347801208496094e+00
2.150000000000000000e+02 2.657670211791992188e+01 3.486907577514648438e+01 3.042991876602172852e+00 1.724161267280578613e+00 1.430145978927612305e+00 2.564192295074462891e+00
2.160000000000000000e+02 2.536307907104492188e+01 3.523016357421875000e+01 5.105956792831420898e-01 4.026017785072326660e-01 2.739592492580413818e-01 2.888951897621154785e-01
2.170000000000000000e+02 2.540424346923828125e+01 3.607239532470703125e+01 -1.491431593894958496e+00 1.948825456202030182e-02 -4.415830075740814209e-01 2.494229003787040710e-02
2.180000000000000000e+02 2.653562736511230469e+01 3.658940505981445312e+01 -3.469353199005126953e+00 1.913274973630905151e-01 -9.834076762199401855e-01 3.067763745784759521e-01
2.190000000000000000e+02 2.670994377136230469e+01 3.735759735107421875e+01 6.454611197113990784e-03 1.787061095237731934e+00 5.380547046661376953e-01 -1.634954929351806641e+00
2.200000000000000000e+02 2.603800773620605469e+01 3.681694030761718750e+01 -2.766257762908935547e+00 4.466128349304199219e-02 -8.164789080619812012e-01 1.824021339416503906e-01
2.210000000000000000e+02 2.644537925720214844e+01 3.639247512817382812e+01 -4.494410037994384766e+00 -2.806510329246520996e-01 -1.432518243789672852e+00 6.940805912017822266e-01
2.220000000000000000e+02 2.616009902954101562e+01 3.491312789916992188e+01 2.201275825500488281e+00 1.014781951904296875e+00 9.648173451423645020e-01 1.568119525909423828e+00
2.230000000000000000e+02 2.684276199340820312e+01 3.508032989501953125e+01 3.546637058258056641e+00 1.742338657379150391e+00 1.586692690849304199e+00 2.841564416885375977e+00
2.240000000000000000e+02 2.738858795166015625e+01 3.475096511840820312e+01 3.919064760208129883e+00 5.607605934143066406e+00 2.858001232147216797e+00 5.367226600646972656e+00
2.250000000000000000e+02 2.629663085937500000e+01 3.534975433349609375e+01 1.545439362525939941e+00 4.523687660694122314e-01 5.993424654006958008e-01 9.391598701477050781e-01
2.260000000000000000e+02 2.559497833251953125e+01 3.520939254760742188e+01 9.776098132133483887e-01 4.626006484031677246e-01 4.320631325244903564e-01 5.759607553482055664e-01
2.270000000000000000e+02 2.602821540832519531e+01 3.609067916870117188e+01 -1.767686247825622559e+00 1.182788535952568054e-01 -4.948222041130065918e-01 8.939963579177856445e-02
2.280000000000000000e+02 2.538599777221679688e+01 3.544350814819335938e+01 1.810387670993804932e-01 2.048414200544357300e-01 1.157640516757965088e-01 1.003580614924430847e-01
2.290000000000000000e+02 2.539811897277832031e+01 3.565254211425781250e+01 -3.303339183330535889e-01 1.913311630487442017e-01 -4.170083254575729370e-02 3.390828520059585571e-02
2.300000000000000000e+02 2.605012321472167969e+01 3.743505477905273438e+01 -7.463623881340026855e-01 6.916093826293945312e-01 -1.642589457333087921e-02 -7.447829246520996094e-01
2.310000000000000000e+02 2.570884895324707031e+01 3.738367462158203125e+01 -1.268048644065856934e+00 3.740572333335876465e-01 -2.681974172592163086e-01 -1.333752274513244629e-01
2.320000000000000000e+02 2.563801956176757812e+01 3.672526931762695312e+01 -3.866584062576293945e+00 -1.460679471492767334e-01 -1.203795671463012695e+00 2.987810969352722168e-01
2.330000000000000000e+02 2.696551322937011719e+01 3.578596878051757812e+01 7.009935975074768066e-01 -4.899291321635246277e-02 1.956001967191696167e-01 6.918438673019409180e-01
2.340000000000000000e+02 2.562831687927246094e+01 3.651084518432617188e+01 -4.628243446350097656e+00 -1.055070981383323669e-01 -1.420125126838684082e+00 6.082691550254821777e-01
2.350000000000000000e+02 2.608105278015136719e+01 3.770112609863281250e+01 -1.597364395856857300e-01 9.076182842254638672e-01 2.243645489215850830e-01 -9.553691148757934570e-01
2.360000000000000000e+02 2.696302795410156250e+01 3.732572555541992188e+01 3.432376086711883545e-01 2.092734575271606445e+00 7.307916283607482910e-01 -2.086804389953613281e+00
2.370000000000000000e+02 2.663664245605468750e+01 3.765734100341796875e+01 1.809546351432800293e-01 2.177527666091918945e+00 7.075446844100952148e-01 -1.950246453285217285e+00
2.380000000000000000e+02 2.759650611877441406e+01 3.749067687988281250e+01 5.809696912765502930e-01 6.546009063720703125e+00 2.138093709945678711e+00 -3.977267980575561523e+00
2.390000000000000000e+02 2.780295181274414062e+01 3.744161987304687500e+01 2.875439524650573730e-01 8.865907669067382812e+00 2.746035337448120117e+00 -4.398763179779052734e+00
2.400000000000000000e+02 2.740473365783691406e+01 3.753326034545898438e+01 6.850830316543579102e-01 5.547904491424560547e+00 1.869896292686462402e+00 -3.671382665634155273e+00
2.410000000000000000e+02 2.646913146972656250e+01 3.767986297607421875e+01 1.921853274106979370e-01 1.337269783020019531e+00 4.588365256786346436e-01 -1.344564795494079590e+00
2.420000000000000000e+02 2.628105163574218750e+01 3.767914962768554688e+01 8.027098327875137329e-02 1.319529294967651367e+00 4.199400842189788818e-01 -1.412635087966918945e+00
2.430000000000000000e+02 2.721335411071777344e+01 3.756183624267578125e+01 7.982715964317321777e-01 3.821076393127441406e+00 1.385804414749145508e+00 -3.108013153076171875e+00
2.440000000000000000e+02 2.701530456542968750e+01 3.757830810546875000e+01 4.801889061927795410e-01 3.512686014175415039e+00 1.197862505912780762e+00 -2.614706277847290039e+00
2.450000000000000000e+02 2.617002296447753906e+01 3.619539260864257812e+01 -2.348392963409423828e+00 -5.840383097529411316e-02 -7.220389842987060547e-01 3.249952793121337891e-01
2.460000000000000000e+02 2.600221443176269531e+01 3.623674774169921875e+01 -2.410947799682617188e+00 2.666254900395870209e-02 -7.152855992317199707e-01 2.867893278598785400e-01
2.470000000000000000e+02 2.635421371459960938e+01 3.615333938598632812e+01 -2.210823535919189453e+00 -1.073043979704380035e-02 -6.664662361145019531e-01 3.631350696086883545e-01
2.480000000000000000e+02 2.581253814697265625e+01 3.624618530273437500e+01 -2.297924995422363281e+00 -3.041793126612901688e-03 -6.902900338172912598e-01 1.882800012826919556e-01
2.490000000000000000e+02 2.718851661682128906e+01 3.477479553222656250e+01 3.993359565734863281e+00 4.285227775573730469e+00 2.483576059341430664e+00 4.650458812713623047e+00
2.500000000000000000e+02 2.638582038879394531e+01 3.572262191772460938e+01 5.464795231819152832e-02 8.365345746278762817e-02 4.149042442440986633e-02 3.444558382034301758e-01
2.510000000000000000e+02 2.658494949340820312e+01 3.709722518920898438e+01 -6.716719865798950195e-01 5.590662360191345215e-01 -3.378172591328620911e-02 -9.014702439308166504e-01
2.520000000000000000e+02 2.561546897888183594e+01 3.606248474121093750e+01 -1.472290992736816406e+00 1.406046561896800995e-02 -4.374691545963287354e-01 5.584471672773361206e-02
2.530000000000000000e+02 2.722154045104980469e+01 3.718103408813476562e+01 6.639417409896850586e-01 3.208814620971679688e+00 1.161826968193054199e+00 -2.714515447616577148e+00
2.540000000000000000e+02 2.648503303527832031e+01 3.686441421508789062e+01 -1.771084547042846680e+00 3.992013037204742432e-01 -4.115649759769439697e-01 -2.524036169052124023e-01
2.550000000000000000e+02 2.606322288513183594e+01 3.590880203247070312e+01 -8.615281581878662109e-01 1.529887020587921143e-01 -2.125618457794189453e-01 1.357420086860656738e-01
2.560000000000000000e+02 2.697612380981445312e+01 3.673950958251953125e+01 -9.833526611328125000e-01 6.031450629234313965e-01 -1.140622645616531372e-01 -8.870463371276855469e-01
2.570000000000000000e+02 2.665872001647949219e+01 3.676651000976562500e+01 -1.766513824462890625e+00 3.329372406005859375e-02 -5.199660062789916992e-01 -1.735659241676330566e-01
2.580000000000000000e+02 2.630151367187500000e+01 3.714368057250976562e+01 -1.105796337127685547e+00 6.167004108428955078e-01 -1.467287689447402954e-01 -6.350985765457153320e-01
2.590000000000000000e+02 2.638862609863281250e+01 3.514118576049804688e+01 2.276575326919555664e+00 8.203148841857910156e-01 9.290670752525329590e-01 1.508026003837585449e+00
2.600000000000000000e+02 2.693699455261230469e+01 3.531531143188476562e+01 3.502113819122314453e+00 1.086829423904418945e+00 1.376682996749877930e+00 2.394510507583618164e+00
2.610000000000000000e+02 2.669932556152343750e+01 3.537488174438476562e+01 2.371449232101440430e+00 5.764904618263244629e-01 8.843818902969360352e-01 1.472112894058227539e+00
2.620000000000000000e+02 2.714325714111328125e+01 3.521510314941406250e+01 4.294211387634277344e+00 2.074458360671997070e+00 1.910600900650024414e+00 3.493774175643920898e+00
2.630000000000000000e+02 2.566975784301757812e+01 3.564765167236328125e+01 -1.086396425962448120e-01 1.741345524787902832e-01 1.964847184717655182e-02 9.743715077638626099e-02
2.640000000000000000e+02 2.601967620849609375e+01 3.713694000244140625e+01 -1.593371272087097168e+00 1.293554604053497314e-01 -4.392047524452209473e-01 -1.266376376152038574e-01
2.650000000000000000e+02 2.751543998718261719e+01 3.723785781860351562e+01 9.815135002136230469e-01 5.713843345642089844e+00 2.008607149124145508e+00 -4.038260459899902344e+00
2.660000000000000000e+02 2.678985977172851562e+01 3.556120681762695312e+01 1.780380964279174805e+00 1.538852304220199585e-01 5.802798271179199219e-01 1.092271685600280762e+00
2.670000000000000000e+02 2.627891921997070312e+01 3.686629486083984375e+01 -2.254029512405395508e+00 1.466915011405944824e-02 -6.718081235885620117e-01 5.167823284864425659e-02
2.680000000000000000e+02 2.610445594787597656e+01 3.553915786743164062e+01 5.553700327873229980e-01 2.544029057025909424e-01 2.429318875074386597e-01 4.185762703418731689e-01
2.690000000000000000e+02 2.593822860717773438e+01 3.572391510009765625e+01 -3.308509290218353271e-01 9.710461646318435669e-02 -7.012389600276947021e-02 1.914113610982894897e-01
2.700000000000000000e+02 2.549062919616699219e+01 3.738070297241210938e+01 -1.491260766983032227e+00 8.185411244630813599e-02 -4.228219985961914062e-01 8.205178380012512207e-02
2.710000000000000000e+02 2.548747253417968750e+01 3.716786575317382812e+01 -2.070532321929931641e+00 -8.503311872482299805e-02 -6.466696262359619141e-01 2.424441277980804443e-01
2.720000000000000000e+02 2.584865570068359375e+01 3.750917053222656250e+01 -7.730804681777954102e-01 3.079933524131774902e-01 -1.395261436700820923e-01 -3.929123580455780029e-01
2.730000000000000000e+02 2.546639633178710938e+01 3.695563888549804688e+01 -2.711862325668334961e+00 -5.428229272365570068e-02 -8.298433423042297363e-01 3.927452862262725830e-01
2.740000000000000000e+02 2.544342613220214844e+01 3.674618911743164062e+01 -3.497777700424194336e+00 -3.548513948917388916e-01 -1.155788779258728027e+00 4.367769062519073486e-01
2.750000000000000000e+02 2.568841361999511719e+01 3.691432189941406250e+01 -2.621334075927734375e+00 -2.716554105281829834e-01 -8.678968548774719238e-01 3.198423683643341064e-01
2.760000000000000000e+02 2.630334091186523438e+01 3.742131042480468750e+01 -4.863513708114624023e-01 7.765222191810607910e-01 8.705125004053115845e-02 -8.571686744689941406e-01
2.770000000000000000e+02 2.681543922424316406e+01 3.760704421997070312e+01 5.012041330337524414e-01 2.341822385787963867e+00 8.529079556465148926e-01 -2.062787532806396484e+00
2.780000000000000000e+02 2.733967781066894531e+01 3.732401275634765625e+01 9.109089374542236328e-01 3.953230619430541992e+00 1.459241867065429688e+00 -3.429780483245849609e+00
2.790000000000000000e+02 2.823422241210937500e+01 3.740055465698242188e+01 -1.624132543802261353e-01 1.311540412902832031e+01 3.885897159576416016e+00 -3.796938419342041016e+00
2.800000000000000000e+02 2.897542572021484375e+01 3.686403656005859375e+01 2.414200782775878906e+00 1.883133888244628906e+01 6.373661518096923828e+00 1.844088077545166016e+00
2.810000000000000000e+02 2.563318252563476562e+01 3.585996627807617188e+01 -9.286901950836181641e-01 9.156864881515502930e-02 -2.511364519596099854e-01 6.373819708824157715e-02
2.820000000000000000e+02 2.582364273071289062e+01 3.606894302368164062e+01 -1.475150823593139648e+00 2.237652987241744995e-02 -4.358322918415069580e-01 7.297769933938980103e-02
2.830000000000000000e+02 2.653927230834960938e+01 3.610750579833984375e+01 -1.976353406906127930e+00 -4.971585050225257874e-02 -6.078207492828369141e-01 3.710901439189910889e-01
2.840000000000000000e+02 2.697115707397460938e+01 3.604462814331054688e+01 -1.794351696968078613e+00 -2.241445519030094147e-02 -5.450298786163330078e-01 2.882655858993530273e-01
2.850000000000000000e+02 2.579681205749511719e+01 3.516699218750000000e+01 1.133517503738403320e+00 4.665545225143432617e-01 4.800215959548950195e-01 6.472357511520385742e-01
2.860000000000000000e+02 2.598276710510253906e+01 3.516334915161132812e+01 1.428665041923522949e+00 5.734398961067199707e-01 6.006314754486083984e-01 9.292685985565185547e-01
2.870000000000000000e+02 2.636675262451171875e+01 3.489212036132812500e+01 2.709757804870605469e+00 1.251731872558593750e+00 1.188446879386901855e+00 1.999093294143676758e+00
2.880000000000000000e+02 2.661630439758300781e+01 3.513415527343750000e+01 2.887411355972290039e+00 1.042937159538269043e+00 1.179104566574096680e+00 1.952007055282592773e+00
2.890000000000000000e+02 2.721693801879882812e+01 3.501481246948242188e+01 4.511397361755371094e+00 3.311129570007324219e+00 2.346758127212524414e+00 4.477278709411621094e+00
2.900000000000000000e+02 2.741542434692382812e+01 3.500277328491210938e+01 4.750550270080566406e+00 4.773525238037109375e+00 2.857222557067871094e+00 5.300712108612060547e+00
2.910000000000000000e+02 2.797952079772949219e+01 3.497882843017578125e+01 3.766523361206054688e+00 1.226978397369384766e+01 4.810892105102539062e+00 6.822439193725585938e+00
2.920000000000000000e+02 2.767266464233398438e+01 3.512847900390625000e+01 5.401232719421386719e+00 6.915763378143310547e+00 3.695098876953125000e+00 6.656190395355224609e+00
2.930000000000000000e+02 2.784099578857421875e+01 3.505136108398437500e+01 4.637752532958984375e+00 9.960528373718261719e+00 4.379484176635742188e+00 7.147614002227783203e+00
2.940000000000000000e+02 2.780034637451171875e+01 3.491254425048828125e+01 4.117305755615234375e+00 9.214682579040527344e+00 3.999596595764160156e+00 6.640771389007568359e+00
2.950000000000000000e+02 2.603886604309082031e+01 3.649909591674804688e+01 -4.467927455902099609e+00 -1.780178695917129517e-01 -1.393783688545227051e+00 6.167685985565185547e-01
2.960000000000000000e+02 2.682427406311035156e+01 3.631937789916992188e+01 -4.567242622375488281e+00 -3.564826846122741699e-01 -1.477117538452148438e+00 5.697682499885559082e-01
2.970000000000000000e+02 2.737104606628417969e+01 3.703155517578125000e+01 9.996538758277893066e-01 3.287571191787719727e+00 1.286167502403259277e+00 -3.257538318634033203e+00
2.980000000000000000e+02 2.789605331420898438e+01 3.705642318725585938e+01 8.788254857063293457e-01 9.800091743469238281e+00 3.203675270080566406e+00 -5.163807392120361328e+00
2.990000000000000000e+02 2.936024856567382812e+01 3.628121566772460938e+01 7.906243801116943359e+00 1.566161823272705078e+01 7.070358753204345703e+00 2.980404138565063477e+00
3.000000000000000000e+02 2.723864555358886719e+01 3.560779571533203125e+01 3.310264587402343750e+00 5.602129697799682617e-01 1.161143183708190918e+00 2.019835472106933594e+00
3.010000000000000000e+02 2.919886207580566406e+01 3.653790283203125000e+01 6.195121765136718750e+00 1.770748329162597656e+01 7.170781135559082031e+00 3.593369007110595703e+00
3.020000000000000000e+02 2.950357437133789062e+01 3.546256637573242188e+01 7.462885856628417969e+00 1.492462444305419922e+01 6.716253280639648438e+00 -6.188728809356689453e-01
3.030000000000000000e+02 2.652186012268066406e+01 3.749361419677734375e+01 2.351384796202182770e-02 1.153712153434753418e+00 3.531678020954132080e-01 -1.550333857536315918e+00
3.040000000000000000e+02 2.664158439636230469e+01 3.580450820922851562e+01 1.129673272371292114e-01 4.178100451827049255e-02 4.642450064420700073e-02 4.378186464309692383e-01
3.050000000000000000e+02 2.678237533569335938e+01 3.572644424438476562e+01 6.727859377861022949e-01 5.161077901721000671e-02 2.173190116882324219e-01 6.654742956161499023e-01
3.060000000000000000e+02 2.618064498901367188e+01 3.515335083007812500e+01 1.732296109199523926e+00 6.491261124610900879e-01 7.144266963005065918e-01 1.088734388351440430e+00
3.070000000000000000e+02 2.666083145141601562e+01 3.564184570312500000e+01 9.660643935203552246e-01 2.172406911849975586e-01 3.549915254116058350e-01 8.521888852119445801e-01
3.080000000000000000e+02 2.585101699829101562e+01 3.589257431030273438e+01 -9.627629518508911133e-01 3.447408229112625122e-02 -2.784866690635681152e-01 1.425350904464721680e-01
3.090000000000000000e+02 2.589475440979003906e+01 3.534962081909179688e+01 9.222118854522705078e-01 2.954267561435699463e-01 3.652915954589843750e-01 5.601625442504882812e-01
3.100000000000000000e+02 2.650441360473632812e+01 3.551284408569335938e+01 1.369088530540466309e+00 3.784911632537841797e-01 5.242739319801330566e-01 8.534235358238220215e-01
3.110000000000000000e+02 2.703481292724609375e+01 3.502449035644531250e+01 3.794938564300537109e+00 2.408648967742919922e+00 1.861076235771179199e+00 3.422074794769287109e+00
3.120000000000000000e+02 2.668966484069824219e+01 3.651463317871093750e+01 -3.392709493637084961e+00 -2.119223028421401978e-01 -1.081389546394348145e+00 4.160201251506805420e-01
3.130000000000000000e+02 2.636694526672363281e+01 3.668182754516601562e+01 -2.988993883132934570e+00 -7.812840491533279419e-02 -9.201366901397705078e-01 2.369389235973358154e-01
3.140000000000000000e+02 2.681423950195312500e+01 3.694477081298828125e+01 -5.794174671173095703e-01 1.063919544219970703e+00 1.453506201505661011e-01 -9.866262674331665039e-01
3.150000000000000000e+02 2.702051544189453125e+01 3.708367538452148438e+01 2.141191512346267700e-01 1.788178920745849609e+00 6.006894111633300781e-01 -2.016981124877929688e+00
3.160000000000000000e+02 2.679509735107421875e+01 3.664179611206054688e+01 -2.424576520919799805e+00 3.544844090938568115e-01 -6.210276484489440918e-01 6.227540317922830582e-03
3.170000000000000000e+02 2.516357994079589844e+01 3.676486587524414062e+01 -3.516283035278320312e+00 2.988516539335250854e-02 -1.045919299125671387e+00 4.916406869888305664e-01
3.180000000000000000e+02 2.357966423034667969e+01 3.680728149414062500e+01 -2.509798765182495117e+00 4.927173629403114319e-02 -7.381580471992492676e-01 3.368099927902221680e-01
3.190000000000000000e+02 2.457840156555175781e+01 3.751376342773437500e+01 -1.463834762573242188e+00 1.736621558666229248e-02 -4.339405596256256104e-01 5.643706917762756348e-01
3.200000000000000000e+02 2.429015922546386719e+01 3.674207687377929688e+01 -3.152910709381103516e+00 1.919625885784626007e-02 -9.401143193244934082e-01 2.574521601200103760e-01
3.210000000000000000e+02 2.323763847351074219e+01 3.762587356567382812e+01 -1.161136150360107422e+00 -7.085765898227691650e-02 -3.695981502532958984e-01 6.758640408515930176e-01
3.220000000000000000e+02 2.508085632324218750e+01 3.778699874877929688e+01 -8.702583312988281250e-01 3.122269511222839355e-01 -1.674094051122665405e-01 1.387768089771270752e-01
3.230000000000000000e+02 2.266536712646484375e+01 3.725267791748046875e+01 -1.398208260536193848e+00 -3.664621151983737946e-03 -4.205618500709533691e-01 5.201951861381530762e-01
3.240000000000000000e+02 2.478936386108398438e+01 3.672243118286132812e+01 -3.764380931854248047e+00 -9.053826332092285156e-02 -1.156475782394409180e+00 2.711055278778076172e-01
3.250000000000000000e+02 2.273329544067382812e+01 3.673511505126953125e+01 -2.066876649856567383e+00 -1.816025376319885254e-01 -6.745437383651733398e-01 1.366276144981384277e-01
3.260000000000000000e+02 2.505036163330078125e+01 3.654906082153320312e+01 -4.328695774078369141e+00 3.612435236573219299e-02 -1.287771463394165039e+00 2.817559838294982910e-01
3.270000000000000000e+02 2.524672126770019531e+01 3.736153793334960938e+01 -1.544790983200073242e+00 -3.721920773386955261e-02 -4.746030569076538086e-01 3.311375081539154053e-01
3.280000000000000000e+02 2.518760871887207031e+01 3.755300903320312500e+01 -1.282079696655273438e+00 -1.180940307676792145e-02 -3.881667256355285645e-01 1.788162440061569214e-01
3.290000000000000000e+02 2.519642639160156250e+01 3.697497558593750000e+01 -2.849341154098510742e+00 -1.492717862129211426e-01 -8.995838761329650879e-01 3.575986325740814209e-01
3.300000000000000000e+02 2.503324317932128906e+01 3.723651504516601562e+01 -1.804522752761840820e+00 -1.794653236865997314e-01 -5.951964259147644043e-01 3.389726877212524414e-01
3.310000000000000000e+02 2.456286048889160156e+01 3.715827560424804688e+01 -1.978387475013732910e+00 -4.275532439351081848e-02 -6.063428521156311035e-01 4.394330978393554688e-01
3.320000000000000000e+02 2.488011550903320312e+01 3.701588058471679688e+01 -2.688579559326171875e+00 -8.577595651149749756e-02 -8.323066234588623047e-01 2.640974223613739014e-01
3.330000000000000000e+02 2.395897865295410156e+01 3.754940795898437500e+01 -1.414682507514953613e+00 1.679498143494129181e-02 -4.193662405014038086e-01 4.942515194416046143e-01
3.340000000000000000e+02 2.257127952575683594e+01 3.768151473999023438e+01 -8.731911182403564453e-01 -8.796980977058410645e-02 -2.883482873439788818e-01 5.745269656181335449e-01
3.350000000000000000e+02 2.486006355285644531e+01 3.738444519042968750e+01 -1.685733199119567871e+00 8.338137716054916382e-02 -4.807055592536926270e-01 4.674567282199859619e-01
3.360000000000000000e+02 2.524490928649902344e+01 3.717774963378906250e+01 -2.107342481613159180e+00 -1.097886562347412109e-01 -6.651393771171569824e-01 2.400675415992736816e-01
3.370000000000000000e+02 2.195135498046875000e+01 3.709726715087890625e+01 -1.332691788673400879e+00 -1.958219334483146667e-02 -4.056822061538696289e-01 4.617066681385040283e-01
3.380000000000000000e+02 2.081866455078125000e+01 3.653364562988281250e+01 -4.568201601505279541e-01 -1.696356385946273804e-01 -1.879367381334304810e-01 1.882591247558593750e-01
3.390000000000000000e+02 2.186710739135742188e+01 3.758106994628906250e+01 -9.563060402870178223e-01 6.386228650808334351e-02 -2.677331268787384033e-01 5.735418796539306641e-01
3.400000000000000000e+02 2.060360717773437500e+01 3.724676895141601562e+01 -9.631347060203552246e-01 7.282461971044540405e-02 -2.670930325984954834e-01 3.555646240711212158e-01
3.410000000000000000e+02 2.141997337341308594e+01 3.682466125488281250e+01 -1.001209139823913574e+00 2.167027145624160767e-01 -2.353519201278686523e-01 1.133023053407669067e-01
3.420000000000000000e+02 2.010578727722167969e+01 3.695741271972656250e+01 -5.789291262626647949e-01 -1.903457790613174438e-01 -2.307824641466140747e-01 4.106159210205078125e-01
3.430000000000000000e+02 2.121720504760742188e+01 3.741237640380859375e+01 -8.095801472663879395e-01 -1.075352635234594345e-02 -2.461000978946685791e-01 4.542445242404937744e-01
3.440000000000000000e+02 2.191666793823242188e+01 3.660264205932617188e+01 -1.248685479164123535e+00 1.377894729375839233e-01 -3.332688212394714355e-01 7.638164609670639038e-02
3.450000000000000000e+02 2.102560424804687500e+01 3.579481887817382812e+01 -7.069098204374313354e-02 -4.548695310950279236e-02 -3.485338017344474792e-02 -1.149936616420745850e-01
3.460000000000000000e+02 2.197462081909179688e+01 3.519912338256835938e+01 -1.077795103192329407e-01 -5.618628486990928650e-02 -4.918973892927169800e-02 -3.171936571598052979e-01
3.470000000000000000e+02 2.189435958862304688e+01 3.593660354614257812e+01 -3.486956954002380371e-01 -4.773474484682083130e-02 -1.189291328191757202e-01 -1.709737479686737061e-01
3.480000000000000000e+02 2.057264900207519531e+01 3.514139175415039062e+01 -1.878343708813190460e-02 -2.404788732528686523e-01 -7.777869701385498047e-02 -3.513291850686073303e-02
3.490000000000000000e+02 2.112965202331542969e+01 3.506163787841796875e+01 -7.225239276885986328e-02 -2.395958304405212402e-01 -9.355446696281433105e-02 -2.234616130590438843e-01
3.500000000000000000e+02 2.117004776000976562e+01 3.423714065551757812e+01 1.013274714350700378e-01 -3.210949301719665527e-01 -6.593023985624313354e-02 -1.904651820659637451e-01
3.510000000000000000e+02 2.200571060180664062e+01 3.435712814331054688e+01 1.307398378849029541e-01 -1.146689578890800476e-01 4.821265581995248795e-03 -2.851422131061553955e-01
3.520000000000000000e+02 2.460877227783203125e+01 3.458451843261718750e+01 9.244164824485778809e-01 5.329306721687316895e-01 4.372041523456573486e-01 3.963078260421752930e-01
3.530000000000000000e+02 2.776997756958007812e+01 3.439652252197265625e+01 2.576390027999877930e+00 9.486758232116699219e+00 3.618944406509399414e+00 5.309458255767822266e+00
3.540000000000000000e+02 2.197634887695312500e+01 3.341352081298828125e+01 2.428224980831146240e-01 -4.063626751303672791e-02 6.065586954355239868e-02 -9.280331432819366455e-02
3.550000000000000000e+02 2.099685287475585938e+01 2.540409278869628906e+01 -1.947710476815700531e-02 2.505322933197021484e+00 7.457537651062011719e-01 2.813551127910614014e-01
3.560000000000000000e+02 2.586378860473632812e+01 1.850044441223144531e+01 -2.718218564987182617e-01 6.101885318756103516e+00 1.749019026756286621e+00 9.052848219871520996e-01
3.570000000000000000e+02 3.488339996337890625e+01 1.176432228088378906e+01 -3.933593928813934326e-01 7.502318382263183594e+00 2.132687807083129883e+00 4.646928608417510986e-01
3.580000000000000000e+02 4.067414093017578125e+01 7.188744544982910156e+00 -3.257873356342315674e-01 7.633218765258789062e+00 2.192229509353637695e+00 1.505340188741683960e-01
3.590000000000000000e+02 5.711431121826171875e+01 -9.303005218505859375e+00 -1.161025390028953552e-01 7.688198566436767578e+00 2.271628856658935547e+00 -1.411732286214828491e-01
3.600000000000000000e+02 6.681532287597656250e+01 -1.893678283691406250e+01 -3.732199594378471375e-02 7.907611846923828125e+00 2.361086845397949219e+00 -9.722940623760223389e-02
3.610000000000000000e+02 7.191948699951171875e+01 -2.448137092590332031e+01 -1.443704497069120407e-02 8.080108642578125000e+00 2.419701576232910156e+00 -5.264427140355110168e-02
3.620000000000000000e+02 7.803910064697265625e+01 -3.062773513793945312e+01 -2.883009146898984909e-03 8.335840225219726562e+00 2.499887228012084961e+00 -1.061686035245656967e-02
3.630000000000000000e+02 7.932317352294921875e+01 -2.646317291259765625e+01 -1.152625336544588208e-04 8.363501548767089844e+00 2.509016036987304688e+00 -6.528425961732864380e-03
3.640000000000000000e+02 7.804979705810546875e+01 -2.361270141601562500e+01 -1.882093347376212478e-04 8.291190147399902344e+00 2.487300634384155273e+00 -1.813562028110027313e-02
3.650000000000000000e+02 7.935057830810546875e+01 -2.226651954650878906e+01 8.958237012848258018e-04 8.329384803771972656e+00 2.499084234237670898e+00 -8.127574808895587921e-03
3.660000000000000000e+02 7.268126678466796875e+01 -1.243525981903076172e+01 -1.715954393148422241e-02 8.023153305053710938e+00 2.401798248291015625e+00 -9.154882282018661499e-02
3.670000000000000000e+02 6.701605987548828125e+01 -5.041520595550537109e+00 -6.008229777216911316e-02 7.856974601745605469e+00 2.339067697525024414e+00 -1.780876815319061279e-01
3.680000000000000000e+02 4.904425430297851562e+01 7.639865398406982422e+00 -2.907726466655731201e-01 7.838119029998779297e+00 2.264204025268554688e+00 -1.398833394050598145e-01
3.690000000000000000e+02 4.074629974365234375e+01 1.962999725341796875e+01 -4.631611406803131104e-01 8.353077888488769531e+00 2.366975069046020508e+00 -4.161417856812477112e-02
3.700000000000000000e+02 3.298607635498046875e+01 2.532468223571777344e+01 -7.252204418182373047e-01 8.730501174926757812e+00 2.401584386825561523e+00 5.552392601966857910e-01
3.710000000000000000e+02 2.909066200256347656e+01 3.346077728271484375e+01 7.024953961372375488e-01 1.253598308563232422e+01 3.971543550491333008e+00 2.056727409362792969e+00
3.720000000000000000e+02 2.801149749755859375e+01 3.430844116210937500e+01 1.916764378547668457e+00 1.130814933776855469e+01 3.967474222183227539e+00 5.351850509643554688e+00
3.730000000000000000e+02 2.226012802124023438e+01 -3.543784332275390625e+01 3.753837645053863525e-01 6.015841960906982422e+00 1.917367696762084961e+00 6.120987236499786377e-02
3.740000000000000000e+02 1.647677803039550781e+01 -3.864951324462890625e+01 -5.814856886863708496e-01 1.078609079122543335e-01 -1.420874446630477905e-01 5.689272880554199219e-01
3.750000000000000000e+02 1.903423881530761719e+01 -3.784928512573242188e+01 3.855290412902832031e-01 4.925723552703857422e+00 1.593375802040100098e+00 1.085680007934570312e+00
3.760000000000000000e+02 1.761984634399414062e+01 -4.140859222412109375e+01 3.179394453763961792e-02 2.042870998382568359e+00 6.223995089530944824e-01 4.890846908092498779e-01
3.770000000000000000e+02 1.452086353302001953e+01 -3.646494293212890625e+01 -6.699190475046634674e-03 -1.803273521363735199e-02 -7.419577799737453461e-03 2.113366276025772095e-01
3.780000000000000000e+02 1.532041358947753906e+01 -3.760122299194335938e+01 -7.810251712799072266e-01 -2.068801075220108032e-01 -2.963715791702270508e-01 2.608790062367916107e-02
3.790000000000000000e+02 1.298188304901123047e+01 -3.147583198547363281e+01 1.901173591613769531e-02 6.987157743424177170e-03 7.799667771905660629e-03 -8.730876259505748749e-03
3.800000000000000000e+02 6.353622674942016602e-01 -2.472299003601074219e+01 9.417593479156494141e-03 2.521441085264086723e-03 3.581710392609238625e-03 1.688676537014544010e-03
3.810000000000000000e+02 6.844862103462219238e-01 -3.035430145263671875e+01 9.222778491675853729e-03 1.025112229399383068e-03 3.074367297813296318e-03 4.004605871159583330e-04
3.820000000000000000e+02 7.107627987861633301e-01 -3.175953292846679688e+01 -1.033424865454435349e-02 -3.055004402995109558e-03 -4.016776103526353836e-03 -3.781978506594896317e-03
3.830000000000000000e+02 8.531935811042785645e-01 -3.734190750122070312e+01 -1.394701190292835236e-02 -3.680196404457092285e-02 -1.522469241172075272e-02 -1.000304799526929855e-02
3.840000000000000000e+02 8.909791946411132812e+00 -3.937759399414062500e+01 7.366658747196197510e-02 -3.750922530889511108e-02 1.084720902144908905e-02 -7.212916016578674316e-02
3.850000000000000000e+02 1.209314346313476562e+01 -4.143665313720703125e+01 2.669899761676788330e-01 -4.228677973151206970e-02 6.741096079349517822e-02 -7.371097803115844727e-02
3.860000000000000000e+02 2.091246223449707031e+01 -3.389060211181640625e+01 3.878391385078430176e-01 6.585917472839355469e+00 2.092127084732055664e+00 4.597204923629760742e-01
3.870000000000000000e+02 1.972665214538574219e+01 -2.808836936950683594e+01 -1.285267062485218048e-02 6.376921653747558594e+00 1.909220695495605469e+00 6.156181544065475464e-02
3.880000000000000000e+02 2.149969100952148438e+01 -3.139459800720214844e+01 1.309690475463867188e-01 6.548589706420898438e+00 2.003867626190185547e+00 2.525503933429718018e-01
3.890000000000000000e+02 1.951524543762207031e+01 -3.508275222778320312e+01 3.568690717220306396e-01 7.455090522766113281e+00 2.343587875366210938e+00 7.244909405708312988e-01
3.900000000000000000e+02 1.938274002075195312e+01 -3.647750854492187500e+01 4.662719368934631348e-01 6.604588985443115234e+00 2.121258258819580078e+00 1.132895708084106445e+00
3.910000000000000000e+02 1.965923309326171875e+01 -2.381836318969726562e+01 -4.426829144358634949e-02 6.014150142669677734e+00 1.790964603424072266e+00 1.441719532012939453e-01
3.920000000000000000e+02 1.974921035766601562e+01 -2.101525115966796875e+01 4.054766148328781128e-02 6.185347080230712891e+00 1.867768406867980957e+00 1.653943061828613281e-01
3.930000000000000000e+02 2.259599876403808594e+01 -2.402384376525878906e+01 -3.784158080816268921e-02 6.358188629150390625e+00 1.896104097366333008e+00 1.742251068353652954e-01
3.940000000000000000e+02 2.064974594116210938e+01 -1.304211735725402832e+00 4.977481067180633545e-02 6.669175624847412109e+00 2.015685081481933594e+00 2.964827716350555420e-01
3.950000000000000000e+02 2.035681915283203125e+01 -6.917617321014404297e+00 -2.716115303337574005e-02 6.326243400573730469e+00 1.889724612236022949e+00 1.416815966367721558e-01
3.960000000000000000e+02 2.166853141784667969e+01 -1.119099521636962891e+01 3.903158754110336304e-02 6.735575675964355469e+00 2.032382249832153320e+00 2.195651829242706299e-01
3.970000000000000000e+02 2.731764411926269531e+01 -2.346088790893554688e+01 -5.141424387693405151e-02 6.609348297119140625e+00 1.967380166053771973e+00 1.531863659620285034e-01
3.980000000000000000e+02 3.328565979003906250e+01 -3.098522949218750000e+01 -5.465134978294372559e-02 6.725142955780029297e+00 2.001147508621215820e+00 -1.237657386809587479e-02
3.990000000000000000e+02 4.776356506347656250e+01 -3.725384902954101562e+01 -1.195462122559547424e-01 7.314449787139892578e+00 2.158471107482910156e+00 -2.633176371455192566e-02
4.000000000000000000e+02 4.751104354858398438e+01 -4.073255920410156250e+01 -1.221616640686988831e-01 7.312293052673339844e+00 2.157039403915405273e+00 -8.171460591256618500e-03
4.010000000000000000e+02 5.192372512817382812e+01 -3.744960403442382812e+01 -9.805090725421905518e-02 7.462344169616699219e+00 2.209287881851196289e+00 -2.291544340550899506e-02
4.020000000000000000e+02 6.225830078125000000e+01 -4.047584152221679688e+01 -5.129904299974441528e-02 7.793224334716796875e+00 2.322577714920043945e+00 -9.794635698199272156e-03
4.030000000000000000e+02 5.723250198364257812e+01 -4.048291397094726562e+01 -7.257343828678131104e-02 7.642687320709228516e+00 2.271034240722656250e+00 -9.650754742324352264e-03
4.040000000000000000e+02 4.960510253906250000e+01 -3.089096260070800781e+01 -1.025731638073921204e-01 7.385074138641357422e+00 2.184750318527221680e+00 -4.742388054728507996e-02
4.050000000000000000e+02 5.527400207519531250e+01 -2.371610069274902344e+01 -7.713031768798828125e-02 7.581892013549804688e+00 2.251428604125976562e+00 -7.740659266710281372e-02
4.060000000000000000e+02 5.623358917236328125e+01 -1.837372779846191406e+01 -8.800490200519561768e-02 7.625139236450195312e+00 2.261140346527099609e+00 -9.958187490701675415e-02
4.070000000000000000e+02 5.953174591064453125e+01 -8.907275199890136719e+00 -1.034182012081146240e-01 7.737164497375488281e+00 2.290123939514160156e+00 -1.550064682960510254e-01
4.080000000000000000e+02 4.869195175170898438e+01 -8.041248321533203125e+00 -1.482693403959274292e-01 7.508991241455078125e+00 2.208216667175292969e+00 -6.211049109697341919e-02
4.090000000000000000e+02 5.173705673217773438e+01 -3.666010856628417969e+00 -1.730427891016006470e-01 7.639388084411621094e+00 2.239903688430786133e+00 -1.166670024394989014e-01
4.100000000000000000e+02 4.228702545166015625e+01 -2.202333211898803711e+00 -1.894811689853668213e-01 7.417418003082275391e+00 2.168381214141845703e+00 5.622272938489913940e-02
4.110000000000000000e+02 2.755397415161132812e+01 -3.141746759414672852e+00 -5.410521104931831360e-02 6.837601661682128906e+00 2.035048961639404297e+00 2.447109371423721313e-01
4.120000000000000000e+02 2.057778930664062500e+01 -2.712255716323852539e+00 8.838025480508804321e-02 6.708082675933837891e+00 2.038938999176025391e+00 4.038919806480407715e-01
4.130000000000000000e+02 2.033375740051269531e+01 -9.738297462463378906e+00 7.434596121311187744e-02 6.815818309783935547e+00 2.067049264907836914e+00 1.906761080026626587e-01
4.140000000000000000e+02 1.996799468994140625e+01 -1.680627441406250000e+01 -1.527009531855583191e-02 6.157552242279052734e+00 1.842684626579284668e+00 4.724794328212738037e-01
4.150000000000000000e+02 2.143721199035644531e+01 -1.693837738037109375e+01 -6.566552072763442993e-02 6.445134162902832031e+00 1.913840532302856445e+00 2.420715838670730591e-01
4.160000000000000000e+02 3.007936477661132812e+01 -2.997207832336425781e+01 1.648231968283653259e-02 6.578456401824951172e+00 1.978481650352478027e+00 5.655190348625183105e-02
4.170000000000000000e+02 3.741816711425781250e+01 -4.044708633422851562e+01 -1.764715462923049927e-01 6.944765090942382812e+00 2.030488014221191406e+00 -1.240641158074140549e-02
4.180000000000000000e+02 4.253434371948242188e+01 -4.038184356689453125e+01 -1.499704271554946899e-01 7.121388435363769531e+00 2.091425418853759766e+00 -1.263097673654556274e-02
4.190000000000000000e+02 1.328716182708740234e+01 -3.575274658203125000e+01 -1.054233163595199585e-01 -6.753189116716384888e-02 -5.188656225800514221e-02 -2.390597015619277954e-02
4.200000000000000000e+02 1.391456222534179688e+01 -3.440029907226562500e+01 -8.813616633415222168e-02 -4.245065897703170776e-02 -3.917604684829711914e-02 5.558525025844573975e-02
4.210000000000000000e+02 1.418994903564453125e+01 -3.306556320190429688e+01 4.405345395207405090e-02 1.124126091599464417e-02 1.658841408789157867e-02 -1.481722295284271240e-02
4.220000000000000000e+02 1.329180526733398438e+01 -2.626338005065917969e+01 1.406901516020298004e-02 4.747274797409772873e-03 5.644887220114469528e-03 -1.742518623359501362e-03
4.230000000000000000e+02 1.903104782104492188e+00 -1.760190391540527344e+01 6.236769258975982666e-03 5.529075860977172852e-04 2.036903053522109985e-03 1.350876060314476490e-03
4.240000000000000000e+02 6.351899504661560059e-01 -2.331789970397949219e+01 -9.022853337228298187e-03 1.537573989480733871e-03 -2.245583804324269295e-03 -1.137587707489728928e-03
4.250000000000000000e+02 1.444769191741943359e+01 -3.036179733276367188e+01 2.542761899530887604e-02 8.344985544681549072e-03 1.013178098946809769e-02 -4.731277469545602798e-03
4.260000000000000000e+02 1.323833656311035156e+01 -2.890063667297363281e+01 1.791771873831748962e-02 3.662738716229796410e-03 6.474137306213378906e-03 -5.798664409667253494e-03
4.270000000000000000e+02 1.422485160827636719e+01 -2.201177406311035156e+01 1.272767502814531326e-02 7.876867894083261490e-04 4.054608289152383804e-03 -2.010023890761658549e-04
4.280000000000000000e+02 1.452432918548583984e+01 -1.347767829895019531e+01 6.934515666216611862e-03 2.990702050738036633e-04 2.170075662434101105e-03 -9.767170995473861694e-04
4.290000000000000000e+02 1.462381362915039062e+01 -6.553518295288085938e+00 -4.305771086364984512e-03 -1.651423663133755326e-04 -1.341274124570190907e-03 -2.210904131061397493e-05
4.300000000000000000e+02 1.460846614837646484e+01 -3.864503145217895508e+00 -3.045581514015793800e-03 -5.376051412895321846e-04 -1.074956031516194344e-03 -6.441966979764401913e-04
4.310000000000000000e+02 1.442899894714355469e+01 -2.842022895812988281e+00 2.978191711008548737e-03 6.554048741236329079e-04 1.090078963898122311e-03 1.450181822292506695e-03
4.320000000000000000e+02 1.031603908538818359e+01 -2.650484085083007812e+00 1.030871761031448841e-03 7.845351938158273697e-04 5.446220748126506805e-04 -8.696336881257593632e-04
4.330000000000000000e+02 1.348817920684814453e+01 -1.060338115692138672e+01 -5.190705880522727966e-03 -4.148425650782883167e-04 -1.681664609350264072e-03 7.821108447387814522e-04
4.340000000000000000e+02 1.284130859375000000e+01 -1.870636177062988281e+01 -6.419106852263212204e-03 -1.259662327356636524e-03 -2.303630812093615532e-03 2.655694726854562759e-03
4.350000000000000000e+02 1.324285602569580078e+01 -2.496902847290039062e+01 -1.251189596951007843e-02 -1.463881344534456730e-03 -4.192733205854892731e-03 -2.462570322677493095e-03
4.360000000000000000e+02 1.450599193572998047e+01 -2.622268295288085938e+01 -1.649770513176918030e-02 2.852794947102665901e-03 -4.093473311513662338e-03 -2.993738162331283092e-04
4.370000000000000000e+02 1.108933067321777344e+01 -1.891232848167419434e+00 1.219271449372172356e-03 2.808573481161147356e-04 4.500386421568691730e-04 -7.859302568249404430e-04
4.380000000000000000e+02 4.269246101379394531e+00 -1.891682744026184082e+00 -4.117584321647882462e-04 -4.687766486313194036e-04 -2.641605387907475233e-04 -2.420313539914786816e-04
4.390000000000000000e+02 1.773465275764465332e+00 -1.058597755432128906e+01 -3.631152678281068802e-03 -2.662304032128304243e-04 -1.169214956462383270e-03 -2.212305553257465363e-04
4.400000000000000000e+02 6.346695423126220703e-01 -1.770554542541503906e+01 -6.074123084545135498e-03 2.137210394721478224e-04 -1.758120721206068993e-03 -6.736678187735378742e-04
4.410000000000000000e+02 2.789991378784179688e+00 -3.801184082031250000e+01 -1.155459228903055191e-02 -2.969114109873771667e-02 -1.237371936440467834e-02 -2.658528275787830353e-02
4.420000000000000000e+02 2.113281059265136719e+01 -3.644873809814453125e+01 4.287411272525787354e-01 5.948517799377441406e+00 1.913177609443664551e+00 1.933206915855407715e-01
4.430000000000000000e+02 3.205747985839843750e+01 -3.774753570556640625e+01 -1.777796447277069092e-01 6.690080165863037109e+00 1.953690171241760254e+00 -5.037379637360572815e-02
4.440000000000000000e+02 2.787633895874023438e+01 -3.820807647705078125e+01 -2.404666244983673096e-01 6.418507099151611328e+00 1.853412151336669922e+00 -1.418295353651046753e-01
4.450000000000000000e+02 2.774874496459960938e+01 -3.242382431030273438e+01 6.580775231122970581e-02 6.430195808410644531e+00 1.948801040649414062e+00 4.187349602580070496e-02
4.460000000000000000e+02 1.974703216552734375e+01 -3.096195220947265625e+01 -1.097990106791257858e-02 6.631408691406250000e+00 1.986128687858581543e+00 1.050041094422340393e-01
4.470000000000000000e+02 6.264180755615234375e+01 -3.664501953125000000e+01 -4.702343791723251343e-02 7.804940700531005859e+00 2.327375173568725586e+00 -2.393817529082298279e-02
4.480000000000000000e+02 6.703468322753906250e+01 -2.847825622558593750e+01 -2.939661964774131775e-02 7.943832874298095703e+00 2.374330759048461914e+00 -5.300713330507278442e-02
4.490000000000000000e+02 6.701437377929687500e+01 -2.557644653320312500e+01 -3.606570512056350708e-02 7.931852817535400391e+00 2.368736028671264648e+00 -6.625779718160629272e-02
4.500000000000000000e+02 6.708306121826171875e+01 -1.695861816406250000e+01 -4.255779087543487549e-02 7.905528545379638672e+00 2.358891248703002930e+00 -1.070744395256042480e-01
4.510000000000000000e+02 6.714041137695312500e+01 -4.084770202636718750e+01 -2.895399369299411774e-02 7.964067935943603516e+00 2.380534172058105469e+00 -6.343381945043802261e-03
4.520000000000000000e+02 7.233909606933593750e+01 -3.082792091369628906e+01 -1.296570803970098495e-02 8.122654914855957031e+00 2.432906866073608398e+00 -3.368319943547248840e-02
4.530000000000000000e+02 7.367308044433593750e+01 -2.429009056091308594e+01 -9.153596125543117523e-03 8.140940666198730469e+00 2.439536094665527344e+00 -4.480139166116714478e-02
4.540000000000000000e+02 7.793161773681640625e+01 -4.161446380615234375e+01 1.313522923737764359e-02 8.361875534057617188e+00 2.512503147125244141e+00 3.704396542161703110e-03
4.550000000000000000e+02 7.798140716552734375e+01 -3.684289932250976562e+01 -1.560196862556040287e-03 8.353829383850097656e+00 2.505680561065673828e+00 1.283001154661178589e-03
4.560000000000000000e+02 7.937636566162109375e+01 -3.340266799926757812e+01 7.593272603116929531e-04 8.399073600769042969e+00 2.519949674606323242e+00 -2.353284275159239769e-03
4.570000000000000000e+02 7.805063629150390625e+01 -1.665520477294921875e+01 -2.437426475808024406e-03 8.227489471435546875e+00 2.467515468597412109e+00 -2.453332580626010895e-02
4.580000000000000000e+02 7.935733795166015625e+01 -1.251514339447021484e+01 -1.447884598746895790e-03 8.219576835632324219e+00 2.465438842773437500e+00 -1.200613006949424744e-02
4.590000000000000000e+02 7.268251800537109375e+01 -5.513053894042968750e+00 -2.384841442108154297e-02 7.949199199676513672e+00 2.377605199813842773e+00 -1.252507716417312622e-01
4.600000000000000000e+02 6.534071350097656250e+01 4.309992790222167969e+00 -8.973120152950286865e-02 7.796067714691162109e+00 2.311900854110717773e+00 -2.722070217132568359e-01
4.610000000000000000e+02 6.010478973388671875e+01 7.063258647918701172e+00 -1.478228121995925903e-01 7.815711975097656250e+00 2.300366640090942383e+00 -3.058210015296936035e-01
4.620000000000000000e+02 4.955998992919921875e+01 1.748244857788085938e+01 -2.183401882648468018e-01 8.091104507446289062e+00 2.361829280853271484e+00 -3.414186239242553711e-01
4.630000000000000000e+02 4.581048202514648438e+01 2.412425804138183594e+01 -5.349165573716163635e-02 8.373543739318847656e+00 2.496015787124633789e+00 -4.437428116798400879e-01
4.640000000000000000e+02 3.635003280639648438e+01 3.465810012817382812e+01 1.723702788352966309e+00 9.393986701965332031e+00 3.335306882858276367e+00 -1.244911327958106995e-01
4.650000000000000000e+02 2.942768859863281250e+01 3.464809799194335938e+01 3.175302505493164062e+00 1.521879291534423828e+01 5.518228530883789062e+00 -8.434714376926422119e-02
4.660000000000000000e+02 2.913455200195312500e+01 3.414558410644531250e+01 1.410925745964050293e+00 1.474278736114501953e+01 4.846113681793212891e+00 1.349552154541015625e+00
4.670000000000000000e+02 7.807138824462890625e+01 -9.678707122802734375e+00 -6.556527223438024521e-04 8.137107849121093750e+00 2.440935611724853516e+00 -3.406281396746635437e-02
4.680000000000000000e+02 7.935897827148437500e+01 -5.544888019561767578e+00 7.177529041655361652e-04 8.101240158081054688e+00 2.430587530136108398e+00 -1.630685478448867798e-02
4.690000000000000000e+02 7.259419250488281250e+01 1.577613592147827148e+00 -2.526360005140304565e-02 7.845973968505859375e+00 2.346213102340698242e+00 -1.688221544027328491e-01
4.700000000000000000e+02 6.498703002929687500e+01 1.139819717407226562e+01 -7.789656519889831543e-02 7.756214618682861328e+00 2.303495407104492188e+00 -3.440018892288208008e-01
4.710000000000000000e+02 5.992938995361328125e+01 1.491752815246582031e+01 -1.030191630125045776e-01 7.836513996124267578e+00 2.320048332214355469e+00 -4.001294076442718506e-01
4.720000000000000000e+02 5.158727645874023438e+01 2.148950958251953125e+01 -6.728132069110870361e-02 8.104991912841796875e+00 2.411313295364379883e+00 -4.518096446990966797e-01
4.730000000000000000e+02 4.136771011352539062e+01 2.971364784240722656e+01 4.470898509025573730e-01 8.774833679199218750e+00 2.766577005386352539e+00 -5.058060288429260254e-01
4.740000000000000000e+02 3.437577056884765625e+01 3.720415115356445312e+01 2.084832668304443359e+00 1.021274757385253906e+01 3.689274072647094727e+00 8.335894346237182617e-01
4.750000000000000000e+02 2.970787620544433594e+01 3.713832855224609375e+01 2.831615924835205078e+00 1.483435916900634766e+01 5.299792766571044922e+00 2.779468774795532227e+00
4.760000000000000000e+02 7.806788635253906250e+01 -2.706845045089721680e+00 -3.458873601630330086e-03 8.009972572326660156e+00 2.401954174041748047e+00 -4.652255773544311523e-02
4.770000000000000000e+02 7.935528564453125000e+01 2.819990634918212891e+00 9.166667005047202110e-04 7.898195266723632812e+00 2.369733572006225586e+00 -2.248894609510898590e-02
4.780000000000000000e+02 7.293740844726562500e+01 8.435505867004394531e+00 -2.516374364495277405e-02 7.716943740844726562e+00 2.307533979415893555e+00 -2.074066102504730225e-01
4.790000000000000000e+02 6.698106384277343750e+01 1.880715942382812500e+01 -1.190811023116111755e-02 7.628310203552246094e+00 2.284920692443847656e+00 -3.648420572280883789e-01
4.800000000000000000e+02 5.628472900390625000e+01 2.338634872436523438e+01 5.551804602146148682e-02 7.930520534515380859e+00 2.395811557769775391e+00 -4.776039719581604004e-01
4.810000000000000000e+02 4.954422760009765625e+01 2.718836402893066406e+01 2.255450040102005005e-01 8.193255424499511719e+00 2.525640010833740234e+00 -5.074655413627624512e-01
4.820000000000000000e+02 4.242621612548828125e+01 4.082621002197265625e+01 1.201567769050598145e+00 8.806486129760742188e+00 3.002416133880615234e+00 -4.432900622487068176e-02
4.830000000000000000e+02 3.761019134521484375e+01 4.131906509399414062e+01 1.127030849456787109e+00 9.939776420593261719e+00 3.320042133331298828e+00 8.641210198402404785e-02
4.840000000000000000e+02 7.806777954101562500e+01 4.274451255798339844e+00 -9.339291136711835861e-04 7.838067531585693359e+00 2.351140022277832031e+00 -6.119344383478164673e-02
4.850000000000000000e+02 7.935854339599609375e+01 8.399295806884765625e+00 1.255443668924272060e-03 7.718677043914794922e+00 2.315979719161987305e+00 -2.681082300841808319e-02
4.860000000000000000e+02 7.243830108642578125e+01 1.652072906494140625e+01 -1.283002831041812897e-02 7.538467407226562500e+00 2.257691144943237305e+00 -2.572720050811767578e-01
4.870000000000000000e+02 6.362694549560546875e+01 1.975543403625488281e+01 -5.957677494734525681e-03 7.707898139953613281e+00 2.310582160949707031e+00 -4.155238568782806396e-01
4.880000000000000000e+02 5.584512329101562500e+01 3.289239120483398438e+01 4.356416761875152588e-01 7.859352111816406250e+00 2.488498210906982422e+00 -3.756956160068511963e-01
4.890000000000000000e+02 4.746932983398437500e+01 4.057563018798828125e+01 1.018652081489562988e+00 8.304648399353027344e+00 2.796990156173706055e+00 -1.022486314177513123e-01
4.900000000000000000e+02 7.806840515136718750e+01 1.124793720245361328e+01 -3.668133867904543877e-03 7.616380214691162109e+00 2.283813714981079102e+00 -7.603609561920166016e-02
4.910000000000000000e+02 7.935110473632812500e+01 1.675744056701660156e+01 1.541035715490579605e-03 7.386205196380615234e+00 2.216323852539062500e+00 -3.179414197802543640e-02
4.920000000000000000e+02 6.071372604370117188e+01 2.758623695373535156e+01 1.707695424556732178e-01 7.720356941223144531e+00 2.367337942123413086e+00 -4.160551130771636963e-01
4.930000000000000000e+02 5.244416427612304688e+01 3.697595977783203125e+01 6.959906816482543945e-01 7.984008312225341797e+00 2.603999614715576172e+00 -2.548731863498687744e-01
4.940000000000000000e+02 5.249060440063476562e+01 4.065099716186523438e+01 7.558528780937194824e-01 7.956765174865722656e+00 2.613785505294799805e+00 -8.964599668979644775e-02
4.950000000000000000e+02 7.801991271972656250e+01 1.961326599121093750e+01 -9.115344728343188763e-04 7.299947738647460938e+00 2.189710855484008789e+00 -8.627164363861083984e-02
4.960000000000000000e+02 7.935471343994140625e+01 2.370525932312011719e+01 -1.622084877453744411e-03 7.084220886230468750e+00 2.124779701232910156e+00 -3.093682974576950073e-02
4.970000000000000000e+02 7.143801116943359375e+01 3.242615890502929688e+01 8.593288809061050415e-02 7.235173702239990234e+00 2.196331977844238281e+00 -1.995490640401840210e-01
4.980000000000000000e+02 6.252968597412109375e+01 4.062793350219726562e+01 3.537090420722961426e-01 7.544488430023193359e+00 2.369459152221679688e+00 -6.603911519050598145e-02
4.990000000000000000e+02 5.749716567993164062e+01 4.047240447998046875e+01 5.256826281547546387e-01 7.731488227844238281e+00 2.477151393890380859e+00 -8.387753367424011230e-02
5.000000000000000000e+02 7.663002777099609375e+01 2.246908569335937500e+01 2.124285325407981873e-03 7.240851879119873047e+00 2.172892808914184570e+00 -1.356444358825683594e-01
5.010000000000000000e+02 7.935327911376953125e+01 2.926325607299804688e+01 -3.787206078413873911e-04 6.855606079101562500e+00 2.056568145751953125e+00 -2.810014039278030396e-02
5.020000000000000000e+02 6.727793121337890625e+01 3.803087615966796875e+01 1.983285546302795410e-01 7.352451324462890625e+00 2.265233993530273438e+00 -1.164837703108787537e-01
5.030000000000000000e+02 7.938912200927734375e+01 3.203494644165039062e+01 -7.844465435482561588e-04 6.760817527770996094e+00 2.028009891510009766e+00 -1.886868849396705627e-02
5.040000000000000000e+02 7.904101562500000000e+01 3.739524459838867188e+01 3.749856259673833847e-03 6.692306518554687500e+00 2.008816957473754883e+00 3.300493815913796425e-03
5.050000000000000000e+02 7.091358947753906250e+01 3.797238159179687500e+01 1.073125600814819336e-01 7.175116539001464844e+00 2.184728860855102539e+00 -9.613005816936492920e-02
5.060000000000000000e+02 7.708013153076171875e+01 3.905055618286132812e+01 1.727226004004478455e-02 6.754240036010742188e+00 2.031453609466552734e+00 -8.792046457529067993e-03
5.070000000000000000e+02 3.030217552185058594e+01 3.769767761230468750e+01 1.672799587249755859e+00 1.333525943756103516e+01 4.502417564392089844e+00 1.990049839019775391e+00
5.080000000000000000e+02 2.845837593078613281e+01 3.776788711547851562e+01 -6.492931842803955078e-01 1.255161666870117188e+01 3.570696830749511719e+00 -2.614045858383178711e+00
5.090000000000000000e+02 2.351281356811523438e+01 3.824052810668945312e+01 -4.858425259590148926e-01 -8.809368312358856201e-02 -1.721808612346649170e-01 5.757357478141784668e-01
5.100000000000000000e+02 2.552741241455078125e+01 3.813238906860351562e+01 -1.250741630792617798e-01 8.623296618461608887e-01 2.211766391992568970e-01 -3.369751572608947754e-01
5.110000000000000000e+02 2.324816131591796875e+01 3.914287948608398438e+01 3.232746720314025879e-01 -1.547593474388122559e-01 5.055459588766098022e-02 3.305906653404235840e-01
5.120000000000000000e+02 2.127784347534179688e+01 3.838757705688476562e+01 -4.762468338012695312e-01 -2.955147251486778259e-02 -1.517394930124282837e-01 5.714216232299804688e-01
5.130000000000000000e+02 2.056763839721679688e+01 3.976152038574218750e+01 6.362140178680419922e-02 -1.800294220447540283e-01 -3.492240607738494873e-02 4.376588761806488037e-01
5.140000000000000000e+02 1.845711827278137207e+00 2.566930770874023438e+01 4.778360947966575623e-03 1.377852866426110268e-03 1.846864121034741402e-03 -1.709023490548133850e-03
5.150000000000000000e+02 1.887090325355529785e+00 2.984887504577636719e+01 -5.438580643385648727e-03 2.613367512822151184e-03 -8.475639624521136284e-04 -5.069029284641146660e-04
5.160000000000000000e+02 4.294827938079833984e+00 3.751552581787109375e+01 4.130704328417778015e-03 9.063640609383583069e-03 3.958303481340408325e-03 -5.833220668137073517e-03
5.170000000000000000e+02 2.050479173660278320e+00 4.162442398071289062e+01 3.113925224170088768e-03 1.754036918282508850e-02 6.196288391947746277e-03 9.941266616806387901e-04
5.180000000000000000e+02 1.246726226806640625e+01 3.673877334594726562e+01 1.593209430575370789e-02 -2.352373860776424408e-02 -2.277493244037032127e-03 -2.414632355794310570e-03
5.190000000000000000e+02 1.276066398620605469e+01 3.427095794677734375e+01 2.049495466053485870e-02 -1.407842431217432022e-02 1.924958894960582256e-03 -1.918771420605480671e-03
5.200000000000000000e+02 1.459925937652587891e+01 2.290017509460449219e+01 -6.915097590535879135e-03 -2.553256053943186998e-04 -2.151126973330974579e-03 -1.934841711772605777e-04
5.210000000000000000e+02 1.448899555206298828e+01 1.738438987731933594e+01 -5.498722661286592484e-03 -1.987081195693463087e-04 -1.709229312837123871e-03 1.059563437593169510e-04
5.220000000000000000e+02 1.446795177459716797e+01 1.044862747192382812e+01 3.596071619540452957e-03 -1.124850750784389675e-04 1.045075943693518639e-03 -1.116006606025621295e-04
5.230000000000000000e+02 1.476007843017578125e+01 1.958114147186279297e+00 7.647957536391913891e-04 2.407257707091048360e-04 3.016564587596803904e-04 4.302994057070463896e-05
5.240000000000000000e+02 1.185937023162841797e+01 1.924356102943420410e+00 4.817716835532337427e-04 2.867482835426926613e-04 2.305559901287779212e-04 5.220139864832162857e-04
5.250000000000000000e+02 6.965925693511962891e-01 3.451320648193359375e+01 -4.890418611466884613e-03 1.110642403364181519e-02 1.864801510237157345e-03 -2.953624934889376163e-04
5.260000000000000000e+02 6.244944334030151367e-01 2.745157623291015625e+01 4.919203463941812515e-03 1.915077446028590202e-03 2.050284296274185181e-03 -1.909690210595726967e-03
5.270000000000000000e+02 6.041737794876098633e-01 2.045583343505859375e+01 -4.083073232322931290e-03 -5.133666563779115677e-04 -1.378931920044124126e-03 9.593493887223303318e-04
5.280000000000000000e+02 1.975483536720275879e+00 1.596303653717041016e+01 -2.998159965500235558e-03 -4.535383486654609442e-04 -1.035509514622390270e-03 4.423190839588642120e-04
5.290000000000000000e+02 1.162272262573242188e+01 1.156762886047363281e+01 -2.195667242631316185e-03 -3.651411389000713825e-04 -7.682425202801823616e-04 -1.296639326028525829e-03
5.300000000000000000e+02 1.320101356506347656e+01 1.609406661987304688e+01 -4.761859774589538574e-03 -1.197946112370118499e-04 -1.464496250264346600e-03 2.016676007770001888e-04
5.310000000000000000e+02 1.205376148223876953e+01 1.882294654846191406e+01 5.093788262456655502e-03 1.116740168072283268e-04 1.561638666316866875e-03 -1.256924442714080215e-04
5.320000000000000000e+02 1.336829185485839844e+01 2.424217796325683594e+01 -6.821893621236085892e-03 -8.255537250079214573e-05 -2.071334747597575188e-03 -4.905938403680920601e-04
5.330000000000000000e+02 1.223505306243896484e+01 2.839440345764160156e+01 -6.212818436324596405e-03 -1.649181940592825413e-04 -1.913320971652865410e-03 -8.145108586177229881e-04
5.340000000000000000e+02 6.359560489654541016e-01 1.479529476165771484e+01 -2.771200146526098251e-03 -2.188473881687968969e-04 -8.970142807811498642e-04 4.899359773844480515e-04
5.350000000000000000e+02 1.674588441848754883e+00 8.943967819213867188e+00 2.117785625159740448e-03 2.892897464334964752e-04 7.221226114779710770e-04 -7.135774940252304077e-04
5.360000000000000000e+02 8.060646057128906250e+00 2.519280910491943359e+00 6.212326698005199432e-04 5.465626018121838570e-04 3.503385814838111401e-04 9.726104326546192169e-05
5.370000000000000000e+02 8.886561393737792969e+00 1.850960493087768555e+00 4.030653799418359995e-04 5.562563310377299786e-04 2.877965162042528391e-04 1.591420877957716584e-04
5.380000000000000000e+02 1.227769017219543457e+00 3.360645532608032227e+00 6.502171163447201252e-04 3.117675078101456165e-04 2.885953872464597225e-04 -4.937284975312650204e-04
5.390000000000000000e+02 5.162867307662963867e-01 6.353873252868652344e+00 -1.555537222884595394e-03 -1.690807112026959658e-04 -5.173853714950382710e-04 3.446149348746985197e-04
5.400000000000000000e+02 3.771858930587768555e+00 3.584207296371459961e+00 -8.575600804761052132e-04 -1.136779319494962692e-03 -5.983018199913203716e-04 5.251607581158168614e-05
5.410000000000000000e+02 1.320338535308837891e+01 1.044591236114501953e+01 -3.512566676363348961e-03 1.380190951749682426e-04 -1.012364285998046398e-03 -4.656697565224021673e-04
5.420000000000000000e+02 1.449870491027832031e+01 2.014074134826660156e+01 -6.117954384535551071e-03 -3.129433025605976582e-04 -1.929269288666546345e-03 -2.555490482336608693e-06
5.430000000000000000e+02 1.542186450958251953e+01 3.132682800292968750e+01 -6.821143906563520432e-03 1.214651018381118774e-02 1.597609720192849636e-03 8.993458002805709839e-03
5.440000000000000000e+02 1.518977069854736328e+01 2.988915824890136719e+01 1.272630970925092697e-02 6.664882414042949677e-03 5.817357450723648071e-03 2.570364391431212425e-03
5.450000000000000000e+02 1.782586669921875000e+01 3.796644973754882812e+01 -2.129588127136230469e-01 7.021703571081161499e-02 -4.282252863049507141e-02 7.176585495471954346e-02
5.460000000000000000e+02 1.721438217163085938e+01 3.925518417358398438e+01 -2.004427760839462280e-01 -1.016935184597969055e-01 -9.064088761806488037e-02 2.415671050548553467e-01
5.470000000000000000e+02 1.837488365173339844e+01 3.955263519287109375e+01 7.961826026439666748e-02 -2.783309221267700195e-01 -5.961380153894424438e-02 2.634216547012329102e-01
5.480000000000000000e+02 1.257562828063964844e+01 4.161408615112304688e+01 -2.284701541066169739e-02 -4.208033904433250427e-02 -1.947820745408535004e-02 -6.739910459145903587e-04
5.490000000000000000e+02 1.966736984252929688e+01 3.822355270385742188e+01 -5.945991277694702148e-01 -2.856416702270507812e-01 -2.640722393989562988e-01 3.589289784431457520e-01
5.500000000000000000e+02 2.736118316650390625e+01 2.271387481689453125e+01 -5.529493093490600586e-01 6.470684051513671875e+00 1.775320410728454590e+00 1.312760591506958008e+00
5.510000000000000000e+02 2.650214385986328125e+01 2.609150314331054688e+01 -4.851893186569213867e-01 6.111341476440429688e+00 1.687845587730407715e+00 1.696177840232849121e+00
5.520000000000000000e+02 3.689736938476562500e+01 2.890649414062500000e+01 1.445662379264831543e-01 9.209827423095703125e+00 2.806318044662475586e+00 -3.407835960388183594e-01
5.530000000000000000e+02 3.835948944091796875e+01 2.514811706542968750e+01 -2.956041693687438965e-01 8.820215225219726562e+00 2.557383298873901367e+00 -1.775096058845520020e-01
5.540000000000000000e+02 6.292660140991210938e+01 2.585249328613281250e+01 1.064790114760398865e-01 7.657598972320556641e+00 2.329223394393920898e+00 -4.061104059219360352e-01
5.550000000000000000e+02 7.335707092285156250e+01 2.606503295898437500e+01 3.020784072577953339e-02 7.274563312530517578e+00 2.191431283950805664e+00 -2.315253168344497681e-01
5.560000000000000000e+02 6.949192810058593750e+01 3.026117134094238281e+01 8.311480283737182617e-02 7.359790802001953125e+00 2.232871770858764648e+00 -2.538482248783111572e-01
5.570000000000000000e+02 6.466084289550781250e+01 3.470545578002929688e+01 2.230358570814132690e-01 7.493164539337158203e+00 2.314860105514526367e+00 -2.350967824459075928e-01
5.580000000000000000e+02 4.799649047851562500e+01 3.678602218627929688e+01 8.727515339851379395e-01 8.262067794799804688e+00 2.740445852279663086e+00 -2.642651200294494629e-01
5.590000000000000000e+02 4.342516708374023438e+01 3.112702941894531250e+01 6.225707530975341797e-01 8.600723266601562500e+00 2.766988277435302734e+00 -5.006743669509887695e-01
5.600000000000000000e+02 3.545717239379882812e+01 3.301171112060546875e+01 1.434620022773742676e+00 9.519928932189941406e+00 3.286364793777465820e+00 -4.018488824367523193e-01
5.610000000000000000e+02 3.459039688110351562e+01 1.498190212249755859e+01 -5.115438699722290039e-01 7.668000221252441406e+00 2.146936893463134766e+00 5.263133049011230469e-01
5.620000000000000000e+02 3.303477096557617188e+01 1.936328887939453125e+01 -6.739227771759033203e-01 7.835639476776123047e+00 2.148514986038208008e+00 7.106515765190124512e-01
5.630000000000000000e+02 4.030235290527343750e+01 2.163590621948242188e+01 -4.376710355281829834e-01 8.496937751770019531e+00 2.417779922485351562e+00 -9.973315149545669556e-02
5.640000000000000000e+02 4.809049606323242188e+01 1.875077629089355469e+01 -2.305127978324890137e-01 8.169932365417480469e+00 2.381825923919677734e+00 -3.345724046230316162e-01
5.650000000000000000e+02 6.120744323730468750e+01 1.878239059448242188e+01 -3.338620439171791077e-02 7.791208744049072266e+00 2.327346801757812500e+00 -4.314253032207489014e-01
5.660000000000000000e+02 6.413584899902343750e+01 1.566773509979248047e+01 -5.593767762184143066e-02 7.735211372375488281e+00 2.303782224655151367e+00 -3.859763145446777344e-01
5.670000000000000000e+02 7.214573669433593750e+01 1.938358688354492188e+01 -2.199535956606268883e-03 7.476122379302978516e+00 2.242176771163940430e+00 -2.692019939422607422e-01
5.680000000000000000e+02 2.711875724792480469e+01 1.712970352172851562e+01 -3.110266625881195068e-01 6.479526996612548828e+00 1.850550055503845215e+00 8.690425157546997070e-01
5.690000000000000000e+02 2.738460350036621094e+01 1.295208168029785156e+01 -1.865311861038208008e-01 6.659483909606933594e+00 1.941885709762573242e+00 6.576741933822631836e-01
5.700000000000000000e+02 2.603518104553222656e+01 3.173414230346679688e+00 4.793190211057662964e-02 6.772982120513916016e+00 2.046274185180664062e+00 3.029143214225769043e-01
5.710000000000000000e+02 3.373682785034179688e+01 4.508407115936279297e+00 -1.662142425775527954e-01 7.175027847290039062e+00 2.102644205093383789e+00 3.340862691402435303e-01
5.720000000000000000e+02 3.254013824462890625e+01 3.647762537002563477e+00 -1.265541613101959229e-01 7.095297813415527344e+00 2.090623140335083008e+00 3.211725652217864990e-01
5.730000000000000000e+02 3.508200073242187500e+01 1.039052772521972656e+01 -3.499758839607238770e-01 7.449393272399902344e+00 2.129825115203857422e+00 4.238162636756896973e-01
5.740000000000000000e+02 2.739235877990722656e+01 8.685791015625000000e+00 -4.572105035185813904e-02 6.755388736724853516e+00 2.012900352478027344e+00 5.048624873161315918e-01
5.750000000000000000e+02 3.869694519042968750e+01 9.754904747009277344e+00 -3.734198510646820068e-01 7.653319358825683594e+00 2.183969736099243164e+00 2.470330446958541870e-01
5.760000000000000000e+02 3.995333480834960938e+01 1.083027458190917969e+01 -4.053116738796234131e-01 7.769150733947753906e+00 2.209151744842529297e+00 1.937677413225173950e-01
5.770000000000000000e+02 4.725288009643554688e+01 7.587883949279785156e+00 -3.040267527103424072e-01 7.814303874969482422e+00 2.253083229064941406e+00 -8.362768590450286865e-02
5.780000000000000000e+02 5.833110427856445312e+01 9.033807754516601562e+00 -1.662539243698120117e-01 7.837461948394775391e+00 2.301362276077270508e+00 -3.181140124797821045e-01
5.790000000000000000e+02 6.616563415527343750e+01 8.718517303466796875e+00 -7.568836957216262817e-02 7.763243675231933594e+00 2.306266546249389648e+00 -3.094142079353332520e-01
5.800000000000000000e+02 7.283167266845703125e+01 1.107307624816894531e+01 -2.316805906593799591e-02 7.660370826721191406e+00 2.291160821914672852e+00 -2.239747345447540283e-01
5.810000000000000000e+02 2.104780387878417969e+01 1.838317871093750000e+01 -6.986794061958789825e-03 5.011364459991455078e+00 1.501313328742980957e+00 1.421146541833877563e-01
5.820000000000000000e+02 2.105628013610839844e+01 1.697769927978515625e+01 -8.729065768420696259e-03 5.320216655731201172e+00 1.593446373939514160e+00 1.242462098598480225e-01
5.830000000000000000e+02 2.107093048095703125e+01 9.947169303894042969e+00 4.098555946256965399e-04 6.407168388366699219e+00 1.922273516654968262e+00 7.819121330976486206e-02
5.840000000000000000e+02 2.101011085510253906e+01 4.307692527770996094e+00 1.264086663722991943e-01 7.294265747070312500e+00 2.226202249526977539e+00 3.546736538410186768e-01
5.850000000000000000e+02 2.105120086669921875e+01 5.721750259399414062e+00 5.737169086933135986e-02 7.117682456970214844e+00 2.152516126632690430e+00 1.609757244586944580e-01
5.860000000000000000e+02 4.749708938598632812e+01 4.189489841461181641e+00 -2.659938037395477295e-01 7.719964504241943359e+00 2.236191272735595703e+00 -7.376749813556671143e-02
5.870000000000000000e+02 4.773724365234375000e+01 6.129792690277099609e+00 -2.901021838188171387e-01 7.776082038879394531e+00 2.245794057846069336e+00 -8.724157512187957764e-02
5.880000000000000000e+02 5.794889068603515625e+01 2.191959619522094727e+00 -1.646249294281005859e-01 7.785736560821533203e+00 2.286333560943603516e+00 -2.358379960060119629e-01
5.890000000000000000e+02 7.279417419433593750e+01 4.407383918762207031e+00 -2.505091764032840729e-02 7.797384262084960938e+00 2.331700086593627930e+00 -1.844742745161056519e-01
5.900000000000000000e+02 2.107052040100097656e+01 1.276042747497558594e+01 -2.203539479523897171e-03 6.033565998077392578e+00 1.809408783912658691e+00 8.773950487375259399e-02
5.910000000000000000e+02 4.099478149414062500e+01 1.193069100379943848e+00 -2.233506590127944946e-01 7.451300144195556641e+00 2.168384790420532227e+00 1.083179116249084473e-01
5.920000000000000000e+02 5.994012451171875000e+01 -5.070198059082031250e+00 -1.134362742304801941e-01 7.759481430053710938e+00 2.293813467025756836e+00 -1.838794201612472534e-01
5.930000000000000000e+02 5.718074798583984375e+01 -2.744716882705688477e+00 -1.484855115413665771e-01 7.736297607421875000e+00 2.276343584060668945e+00 -1.848398894071578979e-01
5.940000000000000000e+02 7.127866363525390625e+01 -4.141510486602783203e+00 -3.351619094610214233e-02 7.908792018890380859e+00 2.362582683563232422e+00 -1.503931879997253418e-01
5.950000000000000000e+02 2.887532043457031250e+01 -3.499985218048095703e+00 -6.525051593780517578e-02 6.877993106842041016e+00 2.043822765350341797e+00 2.371366620063781738e-01
5.960000000000000000e+02 2.733538627624511719e+01 -9.843165397644042969e+00 -9.851878508925437927e-03 6.746011734008789062e+00 2.020848035812377930e+00 2.259368598461151123e-01
5.970000000000000000e+02 3.589245605468750000e+01 -1.427529525756835938e+01 -7.462512701749801636e-02 7.008715629577636719e+00 2.080227136611938477e+00 7.447675615549087524e-02
5.980000000000000000e+02 4.429938507080078125e+01 -2.197737503051757812e+01 -9.071546047925949097e-02 7.240478038787841797e+00 2.144928932189941406e+00 -3.163392096757888794e-02
5.990000000000000000e+02 5.116482925415039062e+01 -2.808364105224609375e+01 -8.725904673337936401e-02 7.439595699310302734e+00 2.205700874328613281e+00 -5.356368795037269592e-02
6.000000000000000000e+02 6.075923919677734375e+01 -3.146722602844238281e+01 -5.453412607312202454e-02 7.755170345306396484e+00 2.310190916061401367e+00 -4.991568252444267273e-02
6.010000000000000000e+02 3.680678176879882812e+01 -2.574568688869476318e-01 -1.612824648618698120e-01 7.241875648498535156e+00 2.124177932739257812e+00 1.815145909786224365e-01
6.020000000000000000e+02 3.406459426879882812e+01 -1.158555412292480469e+01 -6.907182186841964722e-02 6.968298435211181641e+00 2.069767951965332031e+00 1.153763309121131897e-01
6.030000000000000000e+02 4.237747955322265625e+01 -1.556037712097167969e+01 -9.997145831584930420e-02 7.230058193206787109e+00 2.139025926589965820e+00 -2.225584583356976509e-03
6.040000000000000000e+02 4.916974639892578125e+01 -2.164380455017089844e+01 -9.805806726217269897e-02 7.407654285430908203e+00 2.192878961563110352e+00 -6.145828962326049805e-02
6.050000000000000000e+02 5.724577331542968750e+01 -2.545393943786621094e+01 -7.535655051469802856e-02 7.635747909545898438e+00 2.268117427825927734e+00 -7.657102495431900024e-02
6.060000000000000000e+02 4.239785003662109375e+01 -4.200385570526123047e+00 -1.734822243452072144e-01 7.389432907104492188e+00 2.164785146713256836e+00 4.163216426968574524e-02
6.070000000000000000e+02 4.135378265380859375e+01 -1.281843757629394531e+01 -1.065372899174690247e-01 7.224772930145263672e+00 2.135470867156982422e+00 1.834107562899589539e-02
6.080000000000000000e+02 4.883026504516601562e+01 -1.794560050964355469e+01 -1.092048808932304382e-01 7.412151336669921875e+00 2.190883874893188477e+00 -5.706309154629707336e-02
6.090000000000000000e+02 5.808735275268554688e+01 -1.976049041748046875e+01 -7.319959998130798340e-02 7.674724578857421875e+00 2.280457496643066406e+00 -9.841153770685195923e-02
6.100000000000000000e+02 6.557405853271484375e+01 -1.236826133728027344e+01 -5.592143163084983826e-02 7.858421802520751953e+00 2.340750217437744141e+00 -1.349659711122512817e-01
6.110000000000000000e+02 6.595292663574218750e+01 -9.827466964721679688e+00 -5.595201626420021057e-02 7.856835842132568359e+00 2.340265274047851562e+00 -1.481377929449081421e-01
6.120000000000000000e+02 7.124442291259765625e+01 -9.683307647705078125e+00 -2.890493720769882202e-02 7.963965892791748047e+00 2.380518198013305664e+00 -1.190048307180404663e-01
6.130000000000000000e+02 2.756387710571289062e+01 -1.277858924865722656e+01 3.321956610307097435e-04 6.717690467834472656e+00 2.015406847000122070e+00 1.782393604516983032e-01
6.140000000000000000e+02 2.774013710021972656e+01 -1.587728118896484375e+01 -3.035780973732471466e-02 6.696164608001708984e+00 1.999742031097412109e+00 1.350273787975311279e-01
6.150000000000000000e+02 3.391562271118164062e+01 -2.733257865905761719e+01 -4.696080833673477173e-02 6.786117076873779297e+00 2.021746873855590820e+00 3.102425485849380493e-02
6.160000000000000000e+02 4.401719665527343750e+01 -2.828620338439941406e+01 -1.031182631850242615e-01 7.199833869934082031e+00 2.129014730453491211e+00 -3.311169147491455078e-02
6.170000000000000000e+02 4.844926452636718750e+01 -3.392847061157226562e+01 -1.020396724343299866e-01 7.338592529296875000e+00 2.170965909957885742e+00 -3.762453049421310425e-02
6.180000000000000000e+02 3.457825088500976562e+01 -1.305415058135986328e+01 -6.883199512958526611e-02 6.972569942474365234e+00 2.071121454238891602e+00 9.551376849412918091e-02
6.190000000000000000e+02 4.205488204956054688e+01 -1.105163860321044922e+01 -1.231032684445381165e-01 7.267122268676757812e+00 2.143205642700195312e+00 1.936610974371433258e-02
6.200000000000000000e+02 5.007991790771484375e+01 -5.677493572235107422e+00 -1.642416864633560181e-01 7.575088977813720703e+00 2.223254203796386719e+00 -8.409579098224639893e-02
6.210000000000000000e+02 7.272253417968750000e+01 -1.971910476684570312e+01 -1.226272806525230408e-02 8.085899353027343750e+00 2.422091007232666016e+00 -6.423315405845642090e-02
6.220000000000000000e+02 7.127171325683593750e+01 -1.844151878356933594e+01 -1.803082786500453949e-02 8.031881332397460938e+00 2.404155254364013672e+00 -7.865245640277862549e-02
6.230000000000000000e+02 2.010036277770996094e+01 -1.539909362792968750e+01 7.531711459159851074e-02 6.613584995269775391e+00 2.006670475006103516e+00 5.158848166465759277e-01
6.240000000000000000e+02 2.950783348083496094e+01 -1.588628387451171875e+01 -3.040460310876369476e-02 6.759750843048095703e+00 2.018803834915161133e+00 1.242240741848945618e-01
6.250000000000000000e+02 3.760271453857421875e+01 -1.537294292449951172e+01 -8.622061461210250854e-02 7.062139987945556641e+00 2.092775821685791016e+00 4.944009706377983093e-02
6.260000000000000000e+02 4.132337570190429688e+01 -1.753334999084472656e+01 -9.879109263420104980e-02 7.171804428100585938e+00 2.121904134750366211e+00 3.536255331709980965e-03
6.270000000000000000e+02 5.112219619750976562e+01 -1.803914260864257812e+01 -9.721221029758453369e-02 7.484502315521240234e+00 2.216187000274658203e+00 -7.171051949262619019e-02
6.280000000000000000e+02 3.876616287231445312e+01 -2.156342124938964844e+01 -8.466967940330505371e-02 7.042222976684570312e+00 2.087265968322753906e+00 1.349168736487627029e-02
6.290000000000000000e+02 4.303337097167968750e+01 -2.432363510131835938e+01 -9.790696203708648682e-02 7.179665088653564453e+00 2.124527454376220703e+00 -2.443139813840389252e-02
6.300000000000000000e+02 4.744783782958984375e+01 -2.091207695007324219e+01 -9.246992319822311401e-02 7.358108043670654297e+00 2.179691553115844727e+00 -5.073345080018043518e-02
6.310000000000000000e+02 6.562361145019531250e+01 -2.683574676513671875e+01 -3.659730032086372375e-02 7.897260665893554688e+00 2.358198881149291992e+00 -6.469395756721496582e-02
6.320000000000000000e+02 3.469979858398437500e+01 -3.356623458862304688e+01 -1.043426766991615295e-01 6.802608013153076172e+00 2.009479522705078125e+00 -2.578173391520977020e-02
6.330000000000000000e+02 4.220971679687500000e+01 -3.120462417602539062e+01 -9.820941835641860962e-02 7.128822803497314453e+00 2.109184026718139648e+00 -3.366479277610778809e-02
6.340000000000000000e+02 6.544454193115234375e+01 -3.049053573608398438e+01 -3.371595963835716248e-02 7.893507480621337891e+00 2.357937574386596680e+00 -4.731158539652824402e-02
6.350000000000000000e+02 7.452835083007812500e+01 -3.157769775390625000e+01 -1.107826270163059235e-02 8.202989578247070312e+00 2.457573413848876953e+00 -2.508087828755378723e-02
6.360000000000000000e+02 1.148360252380371094e+01 -3.236015319824218750e+01 -2.163776196539402008e-02 2.261216752231121063e-02 2.923217252828180790e-04 1.929366588592529297e-02
6.370000000000000000e+02 1.440680694580078125e+01 -1.764598464965820312e+01 -8.840157650411128998e-03 -3.129538672510534525e-04 -2.745933597907423973e-03 1.847400213591754436e-03
6.380000000000000000e+02 1.171037864685058594e+01 -1.699022483825683594e+01 -5.023784935474395752e-03 -1.904580625705420971e-03 -2.078509656712412834e-03 1.543120131827890873e-03
6.390000000000000000e+02 1.457065296173095703e+01 -1.069759464263916016e+01 5.968436133116483688e-03 1.660344569245353341e-04 1.840341137722134590e-03 -5.788088310509920120e-04
6.400000000000000000e+02 1.239851951599121094e+01 -1.049524879455566406e+01 4.688286222517490387e-03 5.617223214358091354e-04 1.575002563185989857e-03 -8.828764548525214195e-04
6.410000000000000000e+02 5.901836156845092773e-01 -1.065957927703857422e+01 3.306173719465732574e-03 6.684712570859119296e-05 1.011906191706657410e-03 1.546610146760940552e-04
6.420000000000000000e+02 1.334057044982910156e+01 9.096821784973144531e+00 3.167930524796247482e-03 -7.027907849987968802e-05 9.292954346165060997e-04 3.852608497254550457e-04
6.430000000000000000e+02 2.592049407958984375e+01 3.463346099853515625e+01 2.185841083526611328e+00 1.250521063804626465e+00 1.030908703804016113e+00 1.606832385063171387e+00
6.440000000000000000e+02 2.283147239685058594e+01 3.245389556884765625e+01 5.455828309059143066e-01 7.753277420997619629e-01 3.962731659412384033e-01 4.972055554389953613e-01
6.450000000000000000e+02 2.097081375122070312e+01 2.963392066955566406e+01 2.593648061156272888e-02 2.489049732685089111e-01 8.245243132114410400e-02 2.795467972755432129e-01
6.460000000000000000e+02 2.099055862426757812e+01 2.822435951232910156e+01 -5.815104581415653229e-03 9.997172951698303223e-01 2.981706559658050537e-01 3.053180873394012451e-01
6.470000000000000000e+02 2.213017082214355469e+01 2.400524139404296875e+01 -6.890083849430084229e-02 3.684554576873779297e+00 1.084696173667907715e+00 6.861424446105957031e-01
6.480000000000000000e+02 2.100170898437500000e+01 2.399831008911132812e+01 -1.053606159985065460e-02 3.168709278106689453e+00 9.474519491195678711e-01 2.447181493043899536e-01
6.490000000000000000e+02 2.102452468872070312e+01 2.119182968139648438e+01 -9.234685450792312622e-03 4.233839511871337891e+00 1.267381548881530762e+00 1.870584189891815186e-01
6.500000000000000000e+02 2.231156921386718750e+01 1.560777759552001953e+01 -3.214557096362113953e-02 5.720632076263427734e+00 1.706545948982238770e+00 3.171463012695312500e-01
6.510000000000000000e+02 2.106188774108886719e+01 1.557159137725830078e+01 -4.950440023094415665e-03 5.588295459747314453e+00 1.675003528594970703e+00 1.090909317135810852e-01
6.520000000000000000e+02 2.106654739379882812e+01 1.416601467132568359e+01 -6.106459069997072220e-03 5.823746681213378906e+00 1.745292067527770996e+00 9.673552960157394409e-02
6.530000000000000000e+02 2.234164810180664062e+01 1.139122772216796875e+01 -1.016921270638704300e-02 6.285232067108154297e+00 1.882518887519836426e+00 2.378911525011062622e-01
6.540000000000000000e+02 2.106746673583984375e+01 8.540190696716308594e+00 3.831377252936363220e-03 6.590733051300048828e+00 1.978369355201721191e+00 8.307398110628128052e-02
6.550000000000000000e+02 2.106074905395507812e+01 7.132444858551025391e+00 2.585520269349217415e-03 6.786131858825683594e+00 2.036615133285522461e+00 9.024211764335632324e-02
6.560000000000000000e+02 2.223673820495605469e+01 4.326528549194335938e+00 1.929613798856735229e-01 6.837235450744628906e+00 2.109059095382690430e+00 3.059170544147491455e-01
6.570000000000000000e+02 2.091642189025878906e+01 2.897682666778564453e+00 9.221275150775909424e-02 7.002790451049804688e+00 2.128500938415527344e+00 5.211367011070251465e-01
6.580000000000000000e+02 2.079474067687988281e+01 1.497322559356689453e+00 -3.808090405073016882e-04 6.508443832397460938e+00 1.952418923377990723e+00 5.003153085708618164e-01
6.590000000000000000e+02 2.069946098327636719e+01 1.000433713197708130e-01 -7.859255373477935791e-02 6.331675529479980469e+00 1.875924825668334961e+00 3.438055515289306641e-01
6.600000000000000000e+02 2.046959304809570312e+01 -4.114543437957763672e+00 -2.259751036763191223e-02 6.297699451446533203e+00 1.882530570030212402e+00 3.970612585544586182e-01
6.610000000000000000e+02 2.191009521484375000e+01 -2.724047183990478516e+00 6.684374064207077026e-02 6.513208389282226562e+00 1.974015593528747559e+00 2.634361684322357178e-01
6.620000000000000000e+02 2.034728050231933594e+01 -8.325895309448242188e+00 1.172884367406368256e-03 6.596775531768798828e+00 1.979384541511535645e+00 1.147682666778564453e-01
6.630000000000000000e+02 2.025503921508789062e+01 -1.256573390960693359e+01 1.959944330155849457e-02 6.783719062805175781e+00 2.040995597839355469e+00 2.330016046762466431e-01
6.640000000000000000e+02 2.029138183593750000e+01 -1.115174770355224609e+01 -1.108927838504314423e-02 6.682130336761474609e+00 2.001312255859375000e+00 2.390620708465576172e-01
6.650000000000000000e+02 2.164462661743164062e+01 -1.262572002410888672e+01 8.541633933782577515e-02 6.719603538513183594e+00 2.041506052017211914e+00 3.402070403099060059e-01
6.660000000000000000e+02 1.978249740600585938e+01 -1.961353111267089844e+01 -7.367869466543197632e-02 5.922035694122314453e+00 1.754507064819335938e+00 2.122536897659301758e-01
6.670000000000000000e+02 2.134780502319335938e+01 -1.835610198974609375e+01 -1.418616771697998047e-01 6.337310791015625000e+00 1.858634829521179199e+00 2.580015063285827637e-01
6.680000000000000000e+02 1.970470237731933594e+01 -2.241662788391113281e+01 4.216899105813354254e-04 6.167692661285400391e+00 1.850434303283691406e+00 1.977670341730117798e-01
6.690000000000000000e+02 1.968911743164062500e+01 -2.665114021301269531e+01 1.220478210598230362e-02 6.266780853271484375e+00 1.883695721626281738e+00 5.860183387994766235e-02
6.700000000000000000e+02 1.966043853759765625e+01 -2.522756958007812500e+01 -2.520182356238365173e-02 6.145259380340576172e+00 1.836017251014709473e+00 7.469418644905090332e-02
6.710000000000000000e+02 1.975702857971191406e+01 -2.953300666809082031e+01 3.684961050748825073e-02 6.490547180175781250e+00 1.958219051361083984e+00 7.348953187465667725e-02
6.720000000000000000e+02 1.966027259826660156e+01 -3.233655548095703125e+01 4.413113743066787720e-02 6.823792457580566406e+00 2.060377120971679688e+00 1.210793182253837585e-01
6.730000000000000000e+02 2.118724822998046875e+01 -3.273874664306640625e+01 1.874508112668991089e-01 6.641233444213867188e+00 2.048605203628540039e+00 3.693951666355133057e-01
6.740000000000000000e+02 1.437467002868652344e+01 -3.172061347961425781e+01 -3.345494717359542847e-02 5.698478198610246181e-04 -9.865529835224151611e-03 1.029357593506574631e-02
6.750000000000000000e+02 1.450557613372802734e+01 -2.760373115539550781e+01 1.845882646739482880e-02 5.619515199214220047e-03 7.223502732813358307e-03 -1.910996157675981522e-03
6.760000000000000000e+02 1.328910636901855469e+01 -2.757612228393554688e+01 -1.601865515112876892e-02 -1.591864041984081268e-03 -5.283155944198369980e-03 2.426040126010775566e-03
6.770000000000000000e+02 1.308491802215576172e+01 -2.368581962585449219e+01 1.205853093415498734e-02 2.746104495599865913e-03 4.441390745341777802e-03 3.237899858504533768e-03
6.780000000000000000e+02 1.440546607971191406e+01 -2.345820999145507812e+01 -1.442932337522506714e-02 2.193005755543708801e-03 -3.670895239338278770e-03 -1.545945531688630581e-03
6.790000000000000000e+02 1.418996429443359375e+01 -2.051240348815917969e+01 -1.108504831790924072e-02 1.356436521746218204e-03 -2.918583573773503304e-03 1.147708971984684467e-03
6.800000000000000000e+02 1.303135681152343750e+01 -1.734822845458984375e+01 6.869403179734945297e-03 1.670637400820851326e-03 2.562012290582060814e-03 -2.522767754271626472e-03
6.810000000000000000e+02 1.445704269409179688e+01 -1.625311660766601562e+01 8.047030307352542877e-03 6.189995910972356796e-04 2.599808853119611740e-03 -1.592368702404201031e-03
6.820000000000000000e+02 1.459143638610839844e+01 -9.311938285827636719e+00 -5.473626311868429184e-03 -1.743028260534629226e-04 -1.694378675892949104e-03 3.846827021334320307e-04
6.830000000000000000e+02 1.254409408569335938e+01 -1.922081351280212402e+00 8.151522488333284855e-04 1.400875189574435353e-04 2.865719143301248550e-04 -2.513538638595491648e-04
6.840000000000000000e+02 1.301057434082031250e+01 -2.823088884353637695e+00 2.104747545672580600e-05 5.347229889594018459e-04 1.667311298660933971e-04 -4.932354786433279514e-04
6.850000000000000000e+02 1.428614330291748047e+01 -2.022718667984008789e+00 -1.444780849851667881e-03 -6.389498594217002392e-05 -4.526027478277683258e-04 -1.186503446660935879e-03
6.860000000000000000e+02 1.373734951019287109e+01 -2.031344413757324219e+00 2.027550246566534042e-03 -9.805230365600436926e-05 5.788494017906486988e-04 -3.908943326678127050e-04
6.870000000000000000e+02 1.317774581909179688e+01 -1.977848529815673828e+00 -5.536770913749933243e-04 -5.718708853237330914e-04 -3.376643871888518333e-04 6.677538040094077587e-04
6.880000000000000000e+02 1.182323074340820312e+01 -1.900666952133178711e+00 -1.316141919232904911e-03 -4.920548235531896353e-06 -3.963187627959996462e-04 4.885785165242850780e-04
6.890000000000000000e+02 9.591838836669921875e+00 -1.876955866813659668e+00 7.973905885592103004e-04 7.173892809078097343e-04 4.544339608401060104e-04 -4.893634468317031860e-04
6.900000000000000000e+02 1.034681320190429688e+01 -1.882986307144165039e+00 -9.319840464740991592e-04 -5.930441548116505146e-04 -4.575084603857249022e-04 7.395607535727322102e-04
6.910000000000000000e+02 8.827023506164550781e+00 -1.874598741531372070e+00 -8.125618332996964455e-04 -7.646111771464347839e-04 -4.731518856715410948e-04 2.881288528442382812e-04
6.920000000000000000e+02 7.300208091735839844e+00 -1.869915723800659180e+00 -9.356873342767357826e-04 -7.351740496233105659e-04 -5.012584151700139046e-04 -2.325887180631980300e-05
6.930000000000000000e+02 5.781849861145019531e+00 -1.865430474281311035e+00 -7.037203758955001831e-04 -7.806712528690695763e-04 -4.453174769878387451e-04 -2.016473445110023022e-04
6.940000000000000000e+02 3.513939142227172852e+00 -1.933953046798706055e+00 4.753096727654337883e-04 2.450103638693690300e-04 2.160960139008238912e-04 3.250691806897521019e-04
6.950000000000000000e+02 5.025444984436035156e+00 -1.871303319931030273e+00 4.254335362929850817e-04 7.706447504460811615e-04 3.588235122151672840e-04 2.090386551572009921e-04
6.960000000000000000e+02 4.375107288360595703e+00 -2.664428949356079102e+00 6.138295866549015045e-04 6.964316125959157944e-04 3.930783714167773724e-04 5.193895776756107807e-04
6.970000000000000000e+02 2.753562927246093750e+00 -2.005383491516113281e+00 -3.795841475948691368e-04 -3.813607909251004457e-04 -2.282834902871400118e-04 -3.051678068004548550e-04
6.980000000000000000e+02 1.986650705337524414e+00 -2.100847959518432617e+00 7.655720110051333904e-04 3.722377878148108721e-04 3.413429367356002331e-04 3.915195702575147152e-04
6.990000000000000000e+02 1.206716656684875488e+00 -2.175966978073120117e+00 -1.789633184671401978e-03 -8.953150245361030102e-05 -5.637494032271206379e-04 -2.296678139828145504e-04
7.000000000000000000e+02 2.049054145812988281e+00 -4.164172744750976562e+01 1.276399847120046616e-02 -6.181176006793975830e-02 -1.471432764083147049e-02 -3.825439140200614929e-03
7.010000000000000000e+02 5.229622840881347656e+00 -3.754461669921875000e+01 -1.430982351303100586e-02 2.260501030832529068e-03 -3.614796791225671768e-03 -4.307384416460990906e-02
7.020000000000000000e+02 1.023204922676086426e+00 -3.870199584960937500e+01 1.251285709440708160e-02 -4.785552620887756348e-02 -1.060280017554759979e-02 -5.171196535229682922e-03
7.030000000000000000e+02 7.661485671997070312e-01 -3.456074905395507812e+01 -1.028363592922687531e-02 -1.744461804628372192e-02 -8.318476378917694092e-03 -6.661032326519489288e-03
7.040000000000000000e+02 7.388705611228942871e-01 -3.316039276123046875e+01 8.914927020668983459e-03 -8.515134453773498535e-03 1.199379257741384208e-04 -2.012989250943064690e-03
7.050000000000000000e+02 6.640872955322265625e-01 -2.894492340087890625e+01 -9.892008267343044281e-03 2.247843891382217407e-03 -2.293249359354376793e-03 -1.844037906266748905e-03
7.060000000000000000e+02 6.504122614860534668e-01 -2.753536224365234375e+01 9.594020433723926544e-03 3.121763234958052635e-03 3.814734984189271927e-03 1.510608592070639133e-03
7.070000000000000000e+02 6.409170627593994141e-01 -2.612815475463867188e+01 -9.675211273133754730e-03 2.500574337318539619e-03 -2.152391243726015091e-03 -1.321774907410144806e-03
7.080000000000000000e+02 6.364247798919677734e-01 -2.191481208801269531e+01 8.531718514859676361e-03 1.494419761002063751e-03 3.007841529324650764e-03 1.457983744330704212e-03
7.090000000000000000e+02 6.360409855842590332e-01 -2.051432037353515625e+01 -7.764516863971948624e-03 6.825758027844130993e-04 -2.124582417309284210e-03 -9.512518299743533134e-04
7.100000000000000000e+02 1.909528613090515137e+00 -2.037727737426757812e+01 7.733599748462438583e-03 8.308963151648640633e-04 2.569348784163594246e-03 1.789209549315273762e-03
7.110000000000000000e+02 6.317287683486938477e-01 -1.629755401611328125e+01 5.334937479346990585e-03 3.155289159622043371e-04 1.695139915682375431e-03 6.676481571048498154e-04
7.120000000000000000e+02 6.264147758483886719e-01 -1.488864994049072266e+01 -4.632039461284875870e-03 -7.934919921126493136e-08 -1.389635726809501648e-03 -4.560214874800294638e-04
7.130000000000000000e+02 6.189751029014587402e-01 -1.347866249084472656e+01 4.068516194820404053e-03 1.372683909721672535e-04 1.261735451407730579e-03 3.884507459588348866e-04
7.140000000000000000e+02 1.857580065727233887e+00 -1.339676952362060547e+01 -4.389336332678794861e-03 -2.492237545084208250e-04 -1.391567988321185112e-03 -5.930960178375244141e-04
7.150000000000000000e+02 5.674867630004882812e-01 -9.254203796386718750e+00 -3.086166456341743469e-03 -6.718086660839617252e-05 -9.460041765123605728e-04 -6.633866723859682679e-05
7.160000000000000000e+02 5.410298109054565430e-01 -7.852462768554687500e+00 2.868108218535780907e-03 -5.346547368390019983e-06 8.588284836150705814e-04 3.258024298702366650e-05
7.170000000000000000e+02 5.181587338447570801e-01 -6.448364257812500000e+00 -2.567145740613341331e-03 -1.755508492351509631e-05 -7.754102116450667381e-04 -3.439934880589134991e-05
7.180000000000000000e+02 7.041712188720703125e+01 -3.790756988525390625e+01 -1.788646355271339417e-02 8.078467369079589844e+00 2.418174266815185547e+00 -1.483230106532573700e-02
7.190000000000000000e+02 5.233544921875000000e+01 -4.079280471801757812e+01 -9.787350893020629883e-02 7.470285415649414062e+00 2.211723566055297852e+00 -8.002977818250656128e-03
7.200000000000000000e+02 3.244351959228515625e+01 -4.090650939941406250e+01 -2.337441444396972656e-01 6.711246013641357422e+00 1.943250656127929688e+00 -2.865021862089633942e-02
7.210000000000000000e+02 1.153127861022949219e+01 -3.942562103271484375e+01 1.099039688706398010e-01 8.611384779214859009e-02 5.880534648895263672e-02 -1.796006411314010620e-01
7.220000000000000000e+02 7.894301605224609375e+01 3.880099487304687500e+01 -1.326723676174879074e-02 6.690028190612792969e+00 2.003028392791748047e+00 -5.996451247483491898e-03
7.230000000000000000e+02 7.878975677490234375e+01 4.014916229248046875e+01 2.545097656548023224e-02 6.697270393371582031e+00 2.016816377639770508e+00 1.082137227058410645e-02
7.240000000000000000e+02 7.945303344726562500e+01 3.474507904052734375e+01 4.102786071598529816e-03 6.696143627166748047e+00 2.010073900222778320e+00 -8.103909902274608612e-03
7.250000000000000000e+02 7.841490173339843750e+01 3.459315490722656250e+01 1.327260397374629974e-02 6.768674850463867188e+00 2.034584283828735352e+00 -2.924675680696964264e-02
7.260000000000000000e+02 7.942642211914062500e+01 3.340152359008789062e+01 2.515401225537061691e-03 6.723441600799560547e+00 2.017786979675292969e+00 -1.686759106814861298e-02
7.270000000000000000e+02 7.937149810791015625e+01 3.065097618103027344e+01 4.749813117086887360e-03 6.803911209106445312e+00 2.042598485946655273e+00 -2.338081412017345428e-02
7.280000000000000000e+02 7.798802947998046875e+01 2.790637016296386719e+01 1.198191544972360134e-03 6.986687660217285156e+00 2.096365928649902344e+00 -7.786612957715988159e-02
7.290000000000000000e+02 7.934046936035156250e+01 2.648809814453125000e+01 -2.777939662337303162e-04 6.965762615203857422e+00 2.089645385742187500e+00 -2.905003167688846588e-02
7.300000000000000000e+02 7.678437805175781250e+01 2.509836006164550781e+01 4.665038548409938812e-03 7.147097110748291016e+00 2.145528554916381836e+00 -1.277094930410385132e-01
7.310000000000000000e+02 7.935040283203125000e+01 2.509406089782714844e+01 1.863011042587459087e-03 7.023832798004150391e+00 2.107708692550659180e+00 -3.085925057530403137e-02
7.320000000000000000e+02 7.934838867187500000e+01 2.093754768371582031e+01 -1.457727514207363129e-03 7.205069065093994141e+00 2.161083459854125977e+00 -3.142281994223594666e-02
7.330000000000000000e+02 7.934707641601562500e+01 1.954593086242675781e+01 1.652913168072700500e-03 7.265512943267822266e+00 2.180149793624877930e+00 -3.186235949397087097e-02
7.340000000000000000e+02 7.934862518310546875e+01 1.815180015563964844e+01 -1.595154637470841408e-03 7.325813293457031250e+00 2.197265386581420898e+00 -3.163754194974899292e-02
7.350000000000000000e+02 7.935413360595703125e+01 1.397360420227050781e+01 1.521148951724171638e-03 7.503932952880859375e+00 2.251636266708374023e+00 -3.054173663258552551e-02
7.360000000000000000e+02 7.935458374023437500e+01 1.257967758178710938e+01 -2.176582347601652145e-03 7.560444831848144531e+00 2.267480611801147461e+00 -2.953104488551616669e-02
7.370000000000000000e+02 7.935614013671875000e+01 1.118642616271972656e+01 1.364646130241453648e-03 7.615240573883056641e+00 2.284981489181518555e+00 -2.887635305523872375e-02
7.380000000000000000e+02 7.935843658447265625e+01 7.005218982696533203e+00 -2.137050731107592583e-03 7.767066955566406250e+00 2.329478979110717773e+00 -2.559150196611881256e-02
7.390000000000000000e+02 7.935739135742187500e+01 5.609994411468505859e+00 1.108311698772013187e-03 7.813125133514404297e+00 2.344269990921020508e+00 -2.465271763503551483e-02
7.400000000000000000e+02 7.935605621337890625e+01 4.215279102325439453e+00 -1.978564774617552757e-03 7.856823921203613281e+00 2.356453657150268555e+00 -2.349925413727760315e-02
7.410000000000000000e+02 7.935581970214843750e+01 3.348745405673980713e-02 8.203322067856788635e-04 7.974217891693115234e+00 2.392511606216430664e+00 -2.035877108573913574e-02
7.420000000000000000e+02 7.935600280761718750e+01 -1.361458301544189453e+00 -1.722739427350461483e-03 8.008991241455078125e+00 2.402180433273315430e+00 -1.923616416752338409e-02
7.430000000000000000e+02 7.807084655761718750e+01 -4.102445125579833984e+00 -8.454028284177184105e-04 8.038756370544433594e+00 2.411373138427734375e+00 -4.366151615977287292e-02
7.440000000000000000e+02 7.935793304443359375e+01 -4.150652885437011719e+00 -1.619815710000693798e-03 8.072407722473144531e+00 2.421236276626586914e+00 -1.721429824829101562e-02
7.450000000000000000e+02 7.935997009277343750e+01 -8.330446243286132812e+00 7.281305151991546154e-04 8.153520584106445312e+00 2.446274518966674805e+00 -1.451433077454566956e-02
7.460000000000000000e+02 7.806890106201171875e+01 -1.107543087005615234e+01 -2.911337884142994881e-03 8.157867431640625000e+00 2.446486711502075195e+00 -3.189959749579429626e-02
7.470000000000000000e+02 7.935826110839843750e+01 -1.112008666992187500e+01 7.264353334903717041e-04 8.199121475219726562e+00 2.459954500198364258e+00 -1.285486854612827301e-02
7.480000000000000000e+02 7.935601043701171875e+01 -1.530060291290283203e+01 -1.400352455675601959e-03 8.256207466125488281e+00 2.476442098617553711e+00 -1.053845323622226715e-02
7.490000000000000000e+02 7.804407501220703125e+01 -1.805339050292968750e+01 -1.173996424768120050e-04 8.242043495178222656e+00 2.472577810287475586e+00 -2.289340458810329437e-02
7.500000000000000000e+02 7.935048675537109375e+01 -1.809030151367187500e+01 -1.320777693763375282e-03 8.287844657897949219e+00 2.485957145690917969e+00 -9.348638355731964111e-03
7.510000000000000000e+02 7.934542083740234375e+01 -2.366093826293945312e+01 -1.113937003538012505e-03 8.342191696166992188e+00 2.502323150634765625e+00 -7.862079888582229614e-03
7.520000000000000000e+02 7.801647949218750000e+01 -2.502157974243164062e+01 -2.694785362109541893e-03 8.301640510559082031e+00 2.489683866500854492e+00 -1.794895157217979431e-02
7.530000000000000000e+02 7.933462524414062500e+01 -2.506128883361816406e+01 -2.952872637251857668e-05 8.353470802307128906e+00 2.506032228469848633e+00 -6.617280188947916031e-03
7.540000000000000000e+02 7.932815551757812500e+01 -2.925004577636718750e+01 9.061692981049418449e-05 8.381672859191894531e+00 2.514528989791870117e+00 -5.574956536293029785e-03
7.550000000000000000e+02 7.808308410644531250e+01 -3.199578857421875000e+01 -2.773235552012920380e-03 8.344432830810546875e+00 2.502497911453247070e+00 -8.142515085637569427e-03
7.560000000000000000e+02 7.936043548583984375e+01 -3.202497863769531250e+01 -1.225714804604649544e-03 8.395652770996093750e+00 2.518328189849853516e+00 -2.848566276952624321e-03
7.570000000000000000e+02 7.938261413574218750e+01 -3.609772491455078125e+01 2.577553037554025650e-03 8.396814346313476562e+00 2.519817590713500977e+00 7.218281098175793886e-05
7.580000000000000000e+02 7.926431274414062500e+01 -3.740066909790039062e+01 -5.019935313612222672e-03 8.389183044433593750e+00 2.515249013900756836e+00 4.664535634219646454e-03
7.590000000000000000e+02 7.900121307373046875e+01 -3.868320083618164062e+01 1.276934170164167881e-03 8.379192352294921875e+00 2.514140844345092773e+00 5.762566812336444855e-03
7.600000000000000000e+02 7.860199737548828125e+01 -4.002744293212890625e+01 -6.107300985604524612e-03 8.366925239562988281e+00 2.508245468139648438e+00 1.106573641300201416e-02
7.610000000000000000e+02 2.652427482604980469e+01 3.796265792846679688e+01 4.327228963375091553e-01 2.165009737014770508e+00 7.793198227882385254e-01 -1.974345207214355469e+00
7.620000000000000000e+02 3.644298017024993896e-01 2.179424524307250977e+00 1.186522771604359150e-03 2.544975432101637125e-04 4.323060857132077217e-04 -5.267838423606008291e-05
7.630000000000000000e+02 2.547541618347167969e+00 2.745367288589477539e+00 9.564682841300964355e-04 2.688314125407487154e-04 3.675899351947009563e-04 -4.163956036791205406e-04
7.640000000000000000e+02 4.523086547851562500e+00 2.676196336746215820e+00 -7.963890093378722668e-04 -8.103317813947796822e-04 -4.820162430405616760e-04 2.846120041795074940e-04
7.650000000000000000e+02 1.565295457839965820e+00 6.144536018371582031e+00 1.640246016904711723e-03 2.430334425298497081e-04 5.649838130921125412e-04 -5.095798987895250320e-04
7.660000000000000000e+02 5.560257434844970703e-01 9.162232398986816406e+00 -2.208569319918751717e-03 -2.085132873617112637e-04 -7.251247880049049854e-04 5.761826178058981895e-04
7.670000000000000000e+02 5.808174014091491699e-01 1.197538757324218750e+01 -2.764722332358360291e-03 -1.040288843796588480e-04 -8.606253541074693203e-04 5.757291219197213650e-04
7.680000000000000000e+02 1.742734670639038086e+00 1.171665763854980469e+01 2.848082454875111580e-03 -1.988486292248126119e-05 8.484593126922845840e-04 -7.265915628522634506e-04
7.690000000000000000e+02 6.519266366958618164e-01 1.621263313293457031e+01 2.844853559508919716e-03 6.354483048198744655e-05 8.725195075385272503e-04 -5.323513178154826164e-04
7.700000000000000000e+02 1.940162658691406250e+00 1.741714477539062500e+01 3.205267479643225670e-03 3.312312182970345020e-04 1.060949638485908508e-03 -5.863683763891458511e-04
7.710000000000000000e+02 6.454153060913085938e-01 1.763215065002441406e+01 -3.143777837976813316e-03 -4.307360213715583086e-04 -1.072354149073362350e-03 7.353191613219678402e-04
7.720000000000000000e+02 5.912321209907531738e-01 2.185403633117675781e+01 4.365828353911638260e-03 7.482385262846946716e-05 1.332195708528161049e-03 -1.040974748320877552e-03
7.730000000000000000e+02 5.929552316665649414e-01 2.325069618225097656e+01 -4.438598640263080597e-03 -4.451931454241275787e-04 -1.465137582272291183e-03 1.008762512356042862e-03
7.740000000000000000e+02 1.770788550376892090e+00 2.293907546997070312e+01 4.770805593580007553e-03 4.318547144066542387e-04 1.560798147693276405e-03 -9.586547384969890118e-04
7.750000000000000000e+02 6.045846343040466309e-01 2.464721679687500000e+01 4.514545202255249023e-03 6.315595237538218498e-04 1.543831313028931618e-03 -1.328133977949619293e-03
7.760000000000000000e+02 6.313215494155883789e-01 2.885651397705078125e+01 -4.944093991070985794e-03 1.918054302223026752e-03 -9.078118600882589817e-04 1.020787865854799747e-03
7.770000000000000000e+02 6.371806859970092773e-01 3.026497840881347656e+01 5.205682944506406784e-03 4.499988164752721786e-03 2.911701332777738571e-03 -2.307837363332509995e-03
7.780000000000000000e+02 1.928444862365722656e+00 3.126393508911132812e+01 6.183534394949674606e-03 4.456919617950916290e-03 3.192136297002434731e-03 -3.788317088037729263e-03
7.790000000000000000e+02 6.521465778350830078e-01 3.168208503723144531e+01 -4.930062685161828995e-03 5.592141300439834595e-03 1.986235729418694973e-04 4.453927977010607719e-04
7.800000000000000000e+02 7.503636479377746582e-01 3.591643142700195312e+01 4.213326610624790192e-03 1.385246310383081436e-02 5.419736728072166443e-03 -1.951468875631690025e-03
7.810000000000000000e+02 2.444033622741699219e+00 3.674477386474609375e+01 4.474737681448459625e-03 1.269189268350601196e-02 5.149988923221826553e-03 -4.487198311835527420e-03
7.820000000000000000e+02 1.033422470092773438e+00 3.868310928344726562e+01 5.253157112747430801e-03 1.821874082088470459e-02 7.041569333523511887e-03 -3.087795106694102287e-03
7.830000000000000000e+02 1.374063491821289062e+00 4.006031417846679688e+01 -7.207443471997976303e-03 1.844017207622528076e-02 3.369818674400448799e-03 1.002436620183289051e-03
7.840000000000000000e+02 1.034146213531494141e+01 1.885300397872924805e+00 2.894195786211639643e-04 4.751817905344069004e-04 2.293804136570543051e-04 3.871866501867771149e-04
7.850000000000000000e+02 8.171839714050292969e+00 1.842242717742919922e+00 -4.711966030299663544e-04 -5.998569540679454803e-04 -3.213160671293735504e-04 -5.348860941012389958e-05
7.860000000000000000e+02 7.353385925292968750e+00 2.512447118759155273e+00 -6.680153892375528812e-04 -5.798349156975746155e-04 -3.743550914805382490e-04 -3.706095958477817476e-05
7.870000000000000000e+02 6.741770267486572266e+00 1.843674540519714355e+00 -5.089472979307174683e-04 -7.208900060504674911e-04 -3.689511795528233051e-04 1.269396452698856592e-04
7.880000000000000000e+02 4.605958938598632812e+00 1.878818750381469727e+00 5.821791710332036018e-04 9.317253716289997101e-04 4.541713569778949022e-04 -3.246853302698582411e-04
7.890000000000000000e+02 3.907977581024169922e+00 1.887429952621459961e+00 -6.397138931788504124e-04 -9.217126644216477871e-04 -4.684279556386172771e-04 3.110341785941272974e-04
7.900000000000000000e+02 3.209440708160400391e+00 1.899201869964599609e+00 5.681166076101362705e-04 8.279441390186548233e-04 4.188182356301695108e-04 -2.441390679450705647e-04
7.910000000000000000e+02 1.803385496139526367e+00 2.007544755935668945e+00 -1.778704463504254818e-04 8.779880590736865997e-04 2.100352867273613811e-04 -3.315239737275987864e-04
7.920000000000000000e+02 1.090680956840515137e+00 2.107789516448974609e+00 -1.104301045415922999e-04 -7.338721770793199539e-04 -2.532906946726143360e-04 3.060455783270299435e-04
7.930000000000000000e+02 9.604876518249511719e+00 1.866616964340209961e+00 -3.315981011837720871e-04 -5.282407510094344616e-04 -2.579516440164297819e-04 -2.791987208183854818e-04
7.940000000000000000e+02 1.109644794464111328e+01 1.904633164405822754e+00 -3.330410982016474009e-04 -4.097867058590054512e-04 -2.228483499493449926e-04 -4.908461123704910278e-04
7.950000000000000000e+02 1.342481327056884766e+01 2.870825767517089844e+00 -1.683600130490958691e-03 -1.890464773168787360e-05 -5.107514443807303905e-04 -2.351891016587615013e-04
7.960000000000000000e+02 1.257831859588623047e+01 2.890383958816528320e+00 1.064537675119936466e-03 2.817172207869589329e-04 4.038764745928347111e-04 6.125664222054183483e-04
7.970000000000000000e+02 1.407788944244384766e+01 1.863830327987670898e+00 -5.571109359152615070e-04 -1.975869236048310995e-04 -2.264093636767938733e-04 5.316183669492602348e-04
7.980000000000000000e+02 1.345434856414794922e+01 3.888570547103881836e+00 1.769425696693360806e-03 1.266995968762785196e-04 5.688376259058713913e-04 3.148438117932528257e-04
7.990000000000000000e+02 1.453677463531494141e+01 3.664445400238037109e+00 -1.694537233561277390e-03 -1.814446150092408061e-04 -5.627945647574961185e-04 3.711128083523362875e-04
8.000000000000000000e+02 1.452534675598144531e+01 6.315306186676025391e+00 -2.299496438354253769e-03 -1.008607578114606440e-04 -7.201071712188422680e-04 3.392172584426589310e-05
8.010000000000000000e+02 1.453011035919189453e+01 7.687018871307373047e+00 2.785349264740943909e-03 -1.767208595992997289e-05 8.303031208924949169e-04 4.061286017531529069e-05
8.020000000000000000e+02 1.451314258575439453e+01 9.064584732055664062e+00 -3.276635892689228058e-03 2.800369475153274834e-05 -9.745896677486598492e-04 -1.028095539368223399e-05
8.030000000000000000e+02 1.441121006011962891e+01 1.184001255035400391e+01 -3.796584438532590866e-03 -8.385653927689418197e-05 -1.164132263511419296e-03 1.440389314666390419e-04
8.040000000000000000e+02 1.439841651916503906e+01 1.323140525817871094e+01 4.123019985854625702e-03 9.954222832675441168e-07 1.237204647623002529e-03 -6.096290235291235149e-05
8.050000000000000000e+02 1.443496990203857422e+01 1.461976242065429688e+01 -4.630665760487318039e-03 -1.928124402184039354e-05 -1.394984079524874687e-03 4.107347922399640083e-05
8.060000000000000000e+02 1.447025394439697266e+01 1.600412559509277344e+01 5.114994011819362640e-03 -1.387418014928698540e-04 1.492875744588673115e-03 -1.566759019624441862e-04
8.070000000000000000e+02 1.326586532592773438e+01 2.014233779907226562e+01 5.675593391060829163e-03 8.896398503566160798e-05 1.729367184452712536e-03 -1.866700040409341455e-05
8.080000000000000000e+02 1.453421592712402344e+01 2.152037429809570312e+01 6.476447451859712601e-03 -1.823436468839645386e-04 1.888231141492724419e-03 1.060594513546675444e-04
8.090000000000000000e+02 1.477870464324951172e+01 2.566140365600585938e+01 -8.366658352315425873e-03 6.686689448542892933e-04 -2.309396862983703613e-03 -9.698351641418412328e-05
8.100000000000000000e+02 1.331160449981689453e+01 2.287241172790527344e+01 6.610301788896322250e-03 5.158856511116027832e-04 2.137856092303991318e-03 8.002239046618342400e-04
8.110000000000000000e+02 1.487659454345703125e+01 2.705684471130371094e+01 9.865806438028812408e-03 1.632385072298347950e-03 3.449457697570323944e-03 1.213402254506945610e-03
8.120000000000000000e+02 1.501944732666015625e+01 2.846358108520507812e+01 -9.278087876737117767e-03 4.084405489265918732e-03 -1.558104762807488441e-03 2.083341125398874283e-03
8.130000000000000000e+02 1.581022739410400391e+01 3.272631072998046875e+01 2.259404025971889496e-02 1.982382684946060181e-02 1.272535976022481918e-02 9.636168368160724640e-03
8.140000000000000000e+02 1.632256317138671875e+01 3.405213928222656250e+01 -1.547802798449993134e-02 2.947378903627395630e-02 4.198728129267692566e-03 2.059512957930564880e-02
8.150000000000000000e+02 1.569418907165527344e+01 3.574848556518554688e+01 -4.229723010212182999e-03 4.226977471262216568e-03 -8.237247470788133796e-07 1.967662014067173004e-02
8.160000000000000000e+02 1.724235725402832031e+01 3.648340606689453125e+01 -3.099983558058738708e-02 6.930197030305862427e-02 1.149063929915428162e-02 3.500304743647575378e-02
8.170000000000000000e+02 2.203795623779296875e+01 3.838821792602539062e+01 -4.057831764221191406e-01 -1.320568621158599854e-01 -1.613520085811614990e-01 6.158309578895568848e-01
8.180000000000000000e+02 2.047124862670898438e+01 3.833339309692382812e+01 -3.798155784606933594e-01 -1.510385870933532715e-01 -1.592562496662139893e-01 4.508096277713775635e-01
8.190000000000000000e+02 2.427104377746582031e+01 3.820440292358398438e+01 -3.697647154331207275e-01 3.002509176731109619e-01 -2.085413224995136261e-02 6.414723992347717285e-01
8.200000000000000000e+02 2.276603126525878906e+01 3.832642364501953125e+01 -5.005159974098205566e-01 9.197761304676532745e-03 -1.473954766988754272e-01 7.573146820068359375e-01
8.210000000000000000e+02 2.502803039550781250e+01 3.819443893432617188e+01 -2.992342412471771240e-01 6.064092516899108887e-01 9.215249866247177124e-02 -1.304127126932144165e-01
8.220000000000000000e+02 2.631994819641113281e+01 3.795785903930664062e+01 2.436963170766830444e-01 1.493323683738708496e+00 5.211060047149658203e-01 -1.437059044837951660e+00
8.230000000000000000e+02 2.673626136779785156e+01 3.794236755371093750e+01 6.437154412269592285e-01 2.521295547485351562e+00 9.495033025741577148e-01 -2.050572395324707031e+00
8.240000000000000000e+02 2.726691246032714844e+01 3.780567932128906250e+01 5.844509601593017578e-01 5.043057918548583984e+00 1.688252568244934082e+00 -3.295938014984130859e+00
8.250000000000000000e+02 2.707260322570800781e+01 3.802340316772460938e+01 5.467013716697692871e-01 4.431204319000244141e+00 1.493371725082397461e+00 -3.053287744522094727e+00
8.260000000000000000e+02 2.798808479309082031e+01 3.770848846435546875e+01 -3.007193207740783691e-01 1.005232715606689453e+01 2.925482511520385742e+00 -3.853282451629638672e+00
8.270000000000000000e+02 2.748121643066406250e+01 3.779037094116210938e+01 5.679159164428710938e-01 6.133852958679199219e+00 2.010530710220336914e+00 -3.520333290100097656e+00
8.280000000000000000e+02 2.783855628967285156e+01 3.784893417358398438e+01 -7.031581550836563110e-02 9.292096138000488281e+00 2.766533851623535156e+00 -3.714848518371582031e+00
8.290000000000000000e+02 2.757215881347656250e+01 3.443575286865234375e+01 3.161520719528198242e+00 7.299190044403076172e+00 3.138213157653808594e+00 5.403274059295654297e+00
8.300000000000000000e+02 2.544952392578125000e+01 3.460398864746093750e+01 1.608313083648681641e+00 9.426183104515075684e-01 7.652794122695922852e-01 1.013703465461730957e+00
8.310000000000000000e+02 2.376245689392089844e+01 3.453078460693359375e+01 5.205051898956298828e-01 2.754527926445007324e-01 2.387873828411102295e-01 -1.396493148058652878e-02
8.320000000000000000e+02 2.690937614440917969e+01 3.785195159912109375e+01 4.553516209125518799e-01 3.830554962158203125e+00 1.285771965980529785e+00 -2.426149129867553711e+00
8.330000000000000000e+02 2.573925971984863281e+01 3.803773880004882812e+01 -1.588120907545089722e-01 1.532644748687744141e+00 4.121497869491577148e-01 -8.321231603622436523e-01
8.340000000000000000e+02 2.646770095825195312e+01 3.823893356323242188e+01 5.420368313789367676e-01 2.466085195541381836e+00 9.024366140365600586e-01 -1.991940379142761230e+00
8.350000000000000000e+02 2.819155883789062500e+01 3.772566986083984375e+01 -5.755913853645324707e-01 1.116984367370605469e+01 3.178275823593139648e+00 -3.515676498413085938e+00
8.360000000000000000e+02 2.783267784118652344e+01 3.813580322265625000e+01 -4.997107386589050293e-02 8.647839546203613281e+00 2.579360723495483398e+00 -3.266667604446411133e+00
8.370000000000000000e+02 2.901842689514160156e+01 3.764815902709960938e+01 -2.384365200996398926e-01 1.514208412170410156e+01 4.471094608306884766e+00 -2.860029041767120361e-02
8.380000000000000000e+02 2.828545951843261719e+01 3.808470535278320312e+01 -5.728862285614013672e-01 1.139066982269287109e+01 3.245335102081298828e+00 -2.903111219406127930e+00
8.390000000000000000e+02 2.569533157348632812e+01 3.461822891235351562e+01 1.881345510482788086e+00 1.017311215400695801e+00 8.695970177650451660e-01 1.275905251502990723e+00
8.400000000000000000e+02 2.736386680603027344e+01 3.444927215576171875e+01 3.399490594863891602e+00 6.275581359863281250e+00 2.902521610260009766e+00 5.234924316406250000e+00
8.410000000000000000e+02 2.697199630737304688e+01 3.453661346435546875e+01 3.400357007980346680e+00 3.660456657409667969e+00 2.118244171142578125e+00 3.909122228622436523e+00
8.420000000000000000e+02 2.656010627746582031e+01 3.456031799316406250e+01 3.093047857284545898e+00 2.424345016479492188e+00 1.655217885971069336e+00 2.910222768783569336e+00
8.430000000000000000e+02 2.677456283569335938e+01 3.453440856933593750e+01 3.372901201248168945e+00 2.999697685241699219e+00 1.911779642105102539e+00 3.509516477584838867e+00
8.440000000000000000e+02 2.592164611816406250e+01 3.429318237304687500e+01 2.388687372207641602e+00 1.689290165901184082e+00 1.223393321037292480e+00 2.044871568679809570e+00
8.450000000000000000e+02 2.516901779174804688e+01 3.460295104980468750e+01 1.322884917259216309e+00 6.721942424774169922e-01 5.985237360000610352e-01 7.707673907279968262e-01
8.460000000000000000e+02 1.872339057922363281e+01 3.816719055175781250e+01 -6.629732251167297363e-01 -2.993232309818267822e-01 -2.886889278888702393e-01 3.984167277812957764e-01
8.470000000000000000e+02 2.164536476135253906e+01 3.965599060058593750e+01 2.611872553825378418e-01 -1.895361691713333130e-01 2.149532176554203033e-02 4.564584493637084961e-01
8.480000000000000000e+02 5.312033653259277344e+00 1.867019057273864746e+00 -5.185787449590861797e-04 -8.649912197142839432e-04 -4.150710010435432196e-04 3.000224241986870766e-04
8.490000000000000000e+02 6.026141643524169922e+00 1.853875041007995605e+00 4.788411897607147694e-04 8.051802287809550762e-04 3.852064255625009537e-04 -2.252373524243012071e-04
8.500000000000000000e+02 8.768462181091308594e+00 2.545426368713378906e+00 -5.347242113202810287e-04 -5.421341629698872566e-04 -3.230575239285826683e-04 -1.834940194385126233e-04
8.510000000000000000e+02 7.457299709320068359e+00 1.839829325675964355e+00 5.014585331082344055e-04 6.512408144772052765e-04 3.458098217379301786e-04 -4.941158840665593743e-05
8.520000000000000000e+02 6.642335414886474609e+00 2.526623249053955078e+00 6.663588574156165123e-04 6.235228502191603184e-04 3.869645297527313232e-04 -3.771636693272739649e-05
8.530000000000000000e+02 7.939773559570312500e+00 3.177765369415283203e+00 -8.663439075462520123e-04 -4.280199354980140924e-04 -3.883091558236628771e-04 -1.692377409199252725e-04
8.540000000000000000e+02 5.871776580810546875e+00 3.929021358489990234e+00 -1.039943308569490910e-03 -5.186013295315206051e-04 -4.675633972510695457e-04 2.016356738749891520e-04
8.550000000000000000e+02 1.654312014579772949e+00 7.544158458709716797e+00 -1.854743924923241138e-03 -3.919127047993242741e-04 -6.739969830960035324e-04 5.925135919824242592e-04
8.560000000000000000e+02 2.506753921508789062e+00 1.929531455039978027e+00 -3.114271385129541159e-04 -7.547059794887900352e-04 -3.198399208486080170e-04 1.327701320406049490e-04
8.570000000000000000e+02 1.941067695617675781e+00 3.002761363983154297e+00 5.404313560575246811e-04 -2.601755841169506311e-04 8.407673885812982917e-05 6.107721128500998020e-05
8.580000000000000000e+02 8.628561019897460938e+00 3.221155166625976562e+00 7.363486802205443382e-04 4.319592262618243694e-04 3.504923661239445210e-04 1.765504566719755530e-04
8.590000000000000000e+02 1.177302742004394531e+01 -2.662539243698120117e+00 2.233589068055152893e-03 -7.207393355201929808e-05 6.484545301645994186e-04 -8.601075969636440277e-04
8.600000000000000000e+02 1.027044773101806641e+01 -3.446189403533935547e+00 -9.757567313499748707e-04 -1.046896097250282764e-03 -6.067958311177790165e-04 9.259872022084891796e-04
8.610000000000000000e+02 1.105505657196044922e+01 -2.660201072692871094e+00 -1.522375154308974743e-03 -5.013186018913984299e-04 -6.071081152185797691e-04 1.122600166127085686e-03
8.620000000000000000e+02 1.262872600555419922e+01 1.935714602470397949e+00 -7.917241309769451618e-04 -9.337427763966843486e-05 -2.655295247677713633e-04 -4.455295274965465069e-04
8.630000000000000000e+02 1.176024532318115234e+01 2.828342437744140625e+00 -6.022586603648960590e-04 -4.776547721121460199e-04 -3.239740326534956694e-04 -6.293525802902877331e-04
8.640000000000000000e+02 9.484969139099121094e+00 2.592585086822509766e+00 4.313905083108693361e-04 5.411462043412029743e-04 2.917610108852386475e-04 2.767467231024056673e-04
8.650000000000000000e+02 1.337921714782714844e+01 1.922804236412048340e+00 1.059559406712651253e-03 -1.074628380592912436e-04 2.856289793271571398e-04 3.321060648886486888e-05
8.660000000000000000e+02 8.062916755676269531e+00 -1.872407793998718262e+00 8.763829828239977360e-04 7.596111390739679337e-04 4.907982656732201576e-04 -9.979194874176755548e-05
8.670000000000000000e+02 9.561938285827636719e+00 -2.638452768325805664e+00 -9.139494504779577255e-04 -8.384700049646198750e-04 -5.257258308120071888e-04 5.250007379800081253e-04
8.680000000000000000e+02 7.294730663299560547e+00 -2.618443250656127930e+00 1.218175282701849937e-03 6.783081917092204094e-04 5.689450772479176521e-04 9.150610276265069842e-05
8.690000000000000000e+02 8.045602798461914062e+00 -2.624234914779663086e+00 -1.113907317630946636e-03 -7.502203225158154964e-04 -5.592383095063269138e-04 3.455795376794412732e-05
8.700000000000000000e+02 8.801143646240234375e+00 -2.630486965179443359e+00 9.693506290204823017e-04 8.188359206542372704e-04 5.364559474401175976e-04 -2.296391903655603528e-04
8.710000000000000000e+02 6.539475440979003906e+00 -1.866794943809509277e+00 8.801146177574992180e-04 7.416043081320822239e-04 4.865156952291727066e-04 1.154357087216340005e-04
8.720000000000000000e+02 6.550263404846191406e+00 -2.609950542449951172e+00 -1.241827616468071938e-03 -6.348470342345535755e-04 -5.630024243146181107e-04 -1.221914280904456973e-04
8.730000000000000000e+02 5.092967987060546875e+00 -2.613827228546142578e+00 -7.904266822151839733e-04 -7.289522327482700348e-04 -4.558136861305683851e-04 -2.736508031375706196e-04
8.740000000000000000e+02 1.619944691658020020e+00 -7.818984985351562500e+00 -3.267335006967186928e-03 -5.671917460858821869e-05 -9.972162079066038132e-04 -2.132239933416713029e-05
8.750000000000000000e+02 3.865530014038085938e+00 -3.546507835388183594e+00 1.142906141467392445e-03 4.856185696553438902e-04 4.885573871433734894e-04 1.430571777746081352e-03
8.760000000000000000e+02 4.593596756458282471e-01 -3.614497900009155273e+00 -2.102725440636277199e-03 2.521864735172130167e-05 -6.232520099729299545e-04 6.633833982050418854e-05
8.770000000000000000e+02 4.054450392723083496e-01 -2.203245639801025391e+00 1.929226331412792206e-03 -1.709557909634895623e-05 5.736392340622842312e-04 -4.130924207856878638e-05
8.780000000000000000e+02 5.003026127815246582e-01 -5.033527374267578125e+00 2.269915305078029633e-03 8.287350647151470184e-05 7.058366318233311176e-04 -2.993717680510599166e-05
8.790000000000000000e+02 2.981081199645996094e+01 3.335121917724609375e+01 9.500336647033691406e-01 1.268543434143066406e+01 4.090640544891357422e+00 5.605360865592956543e-01
8.800000000000000000e+02 2.849241256713867188e+01 3.426684188842773438e+01 1.437498569488525391e+00 1.362419700622558594e+01 4.518508911132812500e+00 3.514404773712158203e+00
8.810000000000000000e+02 3.016064834594726562e+01 3.642975997924804688e+01 6.119493484497070312e+00 1.274592399597167969e+01 5.659625530242919922e+00 2.121088743209838867e+00
8.820000000000000000e+02 2.750074195861816406e+01 3.808126449584960938e+01 9.910318255424499512e-02 6.925421237945556641e+00 2.107357263565063477e+00 -3.529042482376098633e+00
8.830000000000000000e+02 3.041180229187011719e+01 3.427767562866210938e+01 2.803420543670654297e+00 1.270881271362304688e+01 4.653669834136962891e+00 -3.333044350147247314e-01
8.840000000000000000e+02 2.995826339721679688e+01 3.508840942382812500e+01 5.594957828521728516e+00 1.345563125610351562e+01 5.715176582336425781e+00 -5.748535394668579102e-01
8.850000000000000000e+02 3.395351409912109375e+01 3.929434204101562500e+01 1.037889957427978516e+00 1.086891555786132812e+01 3.572041511535644531e+00 1.009845852851867676e+00
8.860000000000000000e+02 2.974338722229003906e+01 3.409291076660156250e+01 2.359062433242797852e+00 1.342058944702148438e+01 4.733895778656005859e+00 6.807519495487213135e-02
8.870000000000000000e+02 2.441891670227050781e+01 3.879200363159179688e+01 6.365199387073516846e-02 8.909821510314941406e-01 2.863902449607849121e-01 2.668133080005645752e-01
8.880000000000000000e+02 2.288384628295898438e+01 3.446353530883789062e+01 2.393693178892135620e-01 1.072276756167411804e-01 1.039790958166122437e-01 -2.376150190830230713e-01
8.890000000000000000e+02 2.283015251159667969e+01 3.352973937988281250e+01 5.292190313339233398e-01 3.597281277179718018e-01 2.666841447353363037e-01 8.823613822460174561e-02
8.900000000000000000e+02 2.536705970764160156e+01 3.402070236206054688e+01 1.876780748367309570e+00 1.502431273460388184e+00 1.013763666152954102e+00 1.583143234252929688e+00
8.910000000000000000e+02 2.193119239807128906e+01 3.234023666381835938e+01 2.628753781318664551e-01 2.294300347566604614e-01 1.476916223764419556e-01 2.137518972158432007e-01
8.920000000000000000e+02 2.094927215576171875e+01 3.236770248413085938e+01 4.915381968021392822e-02 -6.836451888084411621e-01 -1.903474181890487671e-01 4.503413289785385132e-02
8.930000000000000000e+02 2.318815040588378906e+01 -4.106702423095703125e+01 -6.245685815811157227e-01 5.897524356842041016e+00 1.581886649131774902e+00 -9.521450102329254150e-02
8.940000000000000000e+02 1.304761600494384766e+01 -3.718815612792968750e+01 -3.028851151466369629e-01 8.332136273384094238e-02 -6.586913019418716431e-02 1.142571493983268738e-01
8.950000000000000000e+02 1.344369602203369141e+01 2.562404632568359375e+01 8.794408291578292847e-03 9.650684078224003315e-04 2.927842782810330391e-03 2.377115190029144287e-03
8.960000000000000000e+02 1.203659248352050781e+01 2.420522117614746094e+01 6.941829342395067215e-03 1.169539638794958591e-03 2.433410845696926117e-03 2.071903320029377937e-03
8.970000000000000000e+02 1.372484970092773438e+01 3.164982604980468750e+01 2.331271953880786896e-02 -6.808757316321134567e-04 6.789552979171276093e-03 7.501972373574972153e-03
8.980000000000000000e+02 1.682590484619140625e+01 3.531134796142578125e+01 4.648999869823455811e-02 4.777923598885536194e-02 2.828077040612697601e-02 1.955240406095981598e-02
8.990000000000000000e+02 1.680843353271484375e+01 3.752214813232421875e+01 -3.812240064144134521e-02 1.574868336319923401e-02 -6.712114904075860977e-03 4.904746264219284058e-02
9.000000000000000000e+02 1.497113609313964844e+01 3.464577865600585938e+01 3.105625510215759277e-02 1.981657231226563454e-03 9.911374188959598541e-03 1.136005669832229614e-02
9.010000000000000000e+02 1.449593162536621094e+01 1.876264762878417969e+01 5.838376004248857498e-03 -1.957799249794334173e-04 1.692778780125081539e-03 -1.033496810123324394e-04
9.020000000000000000e+02 1.326906204223632812e+01 1.879006767272949219e+01 -5.390434525907039642e-03 -1.751076633809134364e-04 -1.669662655331194401e-03 6.338649836834520102e-05
9.030000000000000000e+02 1.468788337707519531e+01 2.427818489074707031e+01 7.806836161762475967e-03 2.075213851640000939e-04 2.404307248070836067e-03 6.159599288366734982e-04
9.040000000000000000e+02 1.360239219665527344e+01 2.847493934631347656e+01 1.335219014436006546e-02 1.246001222170889378e-03 4.379457328468561172e-03 4.737311974167823792e-03
9.050000000000000000e+02 1.352552986145019531e+01 2.703048133850097656e+01 -8.194574154913425446e-03 1.535106915980577469e-03 -1.997840125113725662e-03 2.637913275975733995e-04
9.060000000000000000e+02 1.365859127044677734e+01 2.999324035644531250e+01 -7.757720537483692169e-03 3.522542770951986313e-03 -1.270553329959511757e-03 4.285860806703567505e-03
9.070000000000000000e+02 1.325583362579345703e+01 1.744202041625976562e+01 5.082169082015752792e-03 -1.534627335786353797e-05 1.520046847872436047e-03 -2.097080287057906389e-04
9.080000000000000000e+02 1.296535205841064453e+01 1.185961055755615234e+01 3.892141161486506462e-03 -1.285177422687411308e-04 1.129087060689926147e-03 2.398458454990759492e-04
9.090000000000000000e+02 1.309162044525146484e+01 1.473023509979248047e+01 4.468739032745361328e-03 -1.523046084912493825e-04 1.294930349104106426e-03 -3.689968143589794636e-04
9.100000000000000000e+02 1.453319835662841797e+01 4.962341785430908203e+00 1.965162344276905060e-03 1.286239130422472954e-04 6.281358655542135239e-04 -2.105155144818127155e-04
9.110000000000000000e+02 1.097558498382568359e+01 2.742520093917846680e+00 4.047589027322828770e-04 5.591347580775618553e-04 2.891680924221873283e-04 5.059951799921691418e-04
9.120000000000000000e+02 1.054276752471923828e+01 4.356842041015625000e+00 6.039031432010233402e-04 3.592165594454854727e-04 2.889359020628035069e-04 6.633517914451658726e-04
9.130000000000000000e+02 1.338156318664550781e+01 7.766846179962158203e+00 -2.889437833800911903e-03 2.203434087277855724e-05 -8.602210436947643757e-04 -3.512156254146248102e-04
9.140000000000000000e+02 1.292112064361572266e+01 1.331486034393310547e+01 -4.284022375941276550e-03 3.092632687184959650e-05 -1.275928807444870472e-03 1.020037379930727184e-04
9.150000000000000000e+02 7.931951904296875000e+01 -2.785965347290039062e+01 -4.506778204813599586e-04 8.372898101806640625e+00 2.511734247207641602e+00 -5.875040777027606964e-03
9.160000000000000000e+02 7.729010772705078125e+01 -3.775724411010742188e+01 -7.637397851794958115e-03 8.329718589782714844e+00 2.496624231338500977e+00 5.566064268350601196e-03
9.170000000000000000e+02 7.939179992675781250e+01 -3.476145172119140625e+01 -2.989839063957333565e-03 8.399168014526367188e+00 2.518853425979614258e+00 4.220581613481044769e-04
9.180000000000000000e+02 7.824102783203125000e+01 3.337466430664062500e+01 1.018438860774040222e-02 6.802555561065673828e+00 2.043822050094604492e+00 -4.242540150880813599e-02
9.190000000000000000e+02 7.935144805908203125e+01 3.606125640869140625e+01 1.196894212625920773e-03 6.687907695770263672e+00 2.006731271743774414e+00 -2.147656166926026344e-03
9.200000000000000000e+02 7.935065460205078125e+01 -2.087684822082519531e+01 -1.300305011682212353e-03 8.316132545471191406e+00 2.494449615478515625e+00 -8.538853377103805542e-03
9.210000000000000000e+02 7.794898986816406250e+01 -2.785559654235839844e+01 -8.016687934286892414e-04 8.317864418029785156e+00 2.495118856430053711e+00 -1.456577796489000320e-02
9.220000000000000000e+02 7.797102355957031250e+01 -2.644235992431640625e+01 -7.708576740697026253e-04 8.310440063476562500e+00 2.492900609970092773e+00 -1.473391894251108170e-02
9.230000000000000000e+02 7.934458160400390625e+01 -3.063883781433105469e+01 -6.840247660875320435e-04 8.389840126037597656e+00 2.516746759414672852e+00 -4.866042174398899078e-03
9.240000000000000000e+02 7.811559295654296875e+01 -3.334674072265625000e+01 -2.846589311957359314e-03 8.350232124328613281e+00 2.504215717315673828e+00 -3.241031430661678314e-03
9.250000000000000000e+02 7.486884307861328125e+01 -3.702128601074218750e+01 -9.915029630064964294e-03 8.242573738098144531e+00 2.469797611236572266e+00 -1.968443579971790314e-02
9.260000000000000000e+02 7.628987121582031250e+01 -3.881655883789062500e+01 -5.017435178160667419e-03 8.316857337951660156e+00 2.493551969528198242e+00 -3.979763481765985489e-03
9.270000000000000000e+02 7.805887603759765625e+01 1.403547573089599609e+01 -3.217159071937203407e-03 7.515322685241699219e+00 2.253631830215454102e+00 -8.104132115840911865e-02
9.280000000000000000e+02 7.935321807861328125e+01 1.536530494689941406e+01 -2.089990302920341492e-03 7.445678710937500000e+00 2.233076572418212891e+00 -3.091158345341682434e-02
9.290000000000000000e+02 7.801651763916015625e+01 2.100883483886718750e+01 1.483553904108703136e-03 7.245706081390380859e+00 2.174156904220581055e+00 -8.625969290733337402e-02
9.300000000000000000e+02 7.935197448730468750e+01 2.232276153564453125e+01 1.812995062209665775e-03 7.144811153411865234e+00 2.143987417221069336e+00 -3.131982684135437012e-02
9.310000000000000000e+02 7.811392211914062500e+01 3.203068161010742188e+01 7.099608425050973892e-03 6.846273899078369141e+00 2.056011915206909180e+00 -5.998890101909637451e-02
9.320000000000000000e+02 7.933826446533203125e+01 2.787820434570312500e+01 8.009125012904405594e-04 6.910747528076171875e+00 2.073464632034301758e+00 -2.863985486328601837e-02
9.330000000000000000e+02 7.805266571044921875e+01 2.510625839233398438e+01 5.993883241899311543e-04 7.088838577270507812e+00 2.126831293106079102e+00 -8.207690715789794922e-02
9.340000000000000000e+02 7.805417633056640625e+01 2.373588371276855469e+01 2.255366416648030281e-03 7.140093326568603516e+00 2.142704725265502930e+00 -8.416324108839035034e-02
9.350000000000000000e+02 7.803106689453125000e+01 1.821258354187011719e+01 1.356603810563683510e-03 7.355206012725830078e+00 2.206968784332275391e+00 -8.662579953670501709e-02
9.360000000000000000e+02 7.805295562744140625e+01 1.542459297180175781e+01 3.062634787056595087e-04 7.463019371032714844e+00 2.238997697830200195e+00 -8.342561125755310059e-02
9.370000000000000000e+02 7.804394531250000000e+01 1.681510734558105469e+01 -2.524430630728602409e-03 7.409764289855957031e+00 2.222172021865844727e+00 -8.473816514015197754e-02
9.380000000000000000e+02 7.806262207031250000e+01 1.264021110534667969e+01 -1.840136392274871469e-04 7.566754341125488281e+00 2.269971132278442383e+00 -7.894224673509597778e-02
9.390000000000000000e+02 7.677937316894531250e+01 1.127183341979980469e+01 -3.512918250635266304e-03 7.622101306915283203e+00 2.285576581954956055e+00 -1.193290427327156067e-01
9.400000000000000000e+02 7.807666015625000000e+01 8.462571144104003906e+00 -3.901975695043802261e-03 7.710839271545410156e+00 2.312081336975097656e+00 -7.027015089988708496e-02
9.410000000000000000e+02 7.935768127441406250e+01 9.792809486389160156e+00 -2.225152915343642235e-03 7.668019294738769531e+00 2.299738168716430664e+00 -2.765609696507453918e-02
9.420000000000000000e+02 7.934956359863281250e+01 -1.948497962951660156e+01 9.344192221760749817e-04 8.302274703979492188e+00 2.490962743759155273e+00 -8.956060744822025299e-03
9.430000000000000000e+02 7.935712432861328125e+01 -1.390806198120117188e+01 7.584656123071908951e-04 8.238554954528808594e+00 2.471794128417968750e+00 -1.129359006881713867e-02
9.440000000000000000e+02 7.935995483398437500e+01 -6.937514305114746094e+00 -1.535341958515346050e-03 8.128224372863769531e+00 2.438006639480590820e+00 -1.532384194433689117e-02
9.450000000000000000e+02 7.806609344482421875e+01 8.971574902534484863e-02 -3.615830792114138603e-03 7.946810722351074219e+00 2.382958412170410156e+00 -5.226683616638183594e-02
9.460000000000000000e+02 7.935547637939453125e+01 1.426321983337402344e+00 -1.831910572946071625e-03 7.937272071838378906e+00 2.380632162094116211e+00 -2.133653871715068817e-02
9.470000000000000000e+02 7.679290008544921875e+01 7.103382110595703125e+00 -7.465356960892677307e-03 7.747986316680908203e+00 2.322156190872192383e+00 -1.054882034659385681e-01
9.480000000000000000e+02 7.804283905029296875e+01 2.928095626831054688e+01 5.494494456797838211e-03 6.944080829620361328e+00 2.084872722625732422e+00 -7.063694298267364502e-02
9.490000000000000000e+02 7.801326751708984375e+01 4.163727951049804688e+01 -1.751293055713176727e-02 6.704416275024414062e+00 2.006071090698242188e+00 4.904664587229490280e-03
9.500000000000000000e+02 7.388745117187500000e+01 3.767609024047851562e+01 6.335506588220596313e-02 7.039435386657714844e+00 2.130836963653564453e+00 -8.406520634889602661e-02
9.510000000000000000e+02 7.610498809814453125e+01 3.732325744628906250e+01 2.902901545166969299e-02 6.862701416015625000e+00 2.067519187927246094e+00 -6.196730583906173706e-02
9.520000000000000000e+02 7.807386016845703125e+01 9.856185913085937500e+00 -5.220853490754961967e-04 7.664481163024902344e+00 2.299187660217285156e+00 -7.334239780902862549e-02
9.530000000000000000e+02 7.676703643798828125e+01 1.240590959787368774e-01 -4.472226370126008987e-03 7.923455715179443359e+00 2.375694990158081055e+00 -8.193290233612060547e-02
9.540000000000000000e+02 7.806488800048828125e+01 2.876255273818969727e+00 -3.785772947594523430e-03 7.876379966735839844e+00 2.361778259277343750e+00 -5.830087885260581970e-02
9.550000000000000000e+02 7.806661987304687500e+01 -1.307909846305847168e+00 -9.499054285697638988e-04 7.979338645935058594e+00 2.393516540527343750e+00 -4.932107776403427124e-02
9.560000000000000000e+02 7.935675048828125000e+01 -2.756507158279418945e+00 7.497705519199371338e-04 8.041698455810546875e+00 2.412734508514404297e+00 -1.827240362763404846e-02
9.570000000000000000e+02 7.807417297363281250e+01 -8.281767845153808594e+00 -2.970728091895580292e-03 8.114811897277832031e+00 2.433552503585815430e+00 -3.634914010763168335e-02
9.580000000000000000e+02 7.807297515869140625e+01 -5.498072147369384766e+00 -3.169373609125614166e-03 8.065760612487792969e+00 2.418777227401733398e+00 -4.115016013383865356e-02
9.590000000000000000e+02 7.935904693603515625e+01 -9.725396156311035156e+00 -1.474755234085023403e-03 8.177118301391601562e+00 2.452692985534667969e+00 -1.361693255603313446e-02
9.600000000000000000e+02 7.806501770019531250e+01 -1.247361278533935547e+01 -5.281196208670735359e-04 8.177207946777343750e+00 2.453003883361816406e+00 -2.973793633282184601e-02
9.610000000000000000e+02 7.935304260253906250e+01 -1.669550514221191406e+01 8.101955754682421684e-04 8.272566795349121094e+00 2.482013225555419922e+00 -9.935901500284671783e-03
9.620000000000000000e+02 7.804951477050781250e+01 -2.084213638305664062e+01 3.788366739172488451e-04 8.268499374389648438e+00 2.480663299560546875e+00 -2.062693610787391663e-02
9.630000000000000000e+02 7.804283905029296875e+01 -1.945218658447265625e+01 -1.924355165101587772e-03 8.255661964416503906e+00 2.476121425628662109e+00 -2.170624956488609314e-02
9.640000000000000000e+02 1.313426113128662109e+01 -3.020799827575683594e+01 -2.238673530519008636e-02 -7.173965685069561005e-03 -8.868210017681121826e-03 8.228360675275325775e-03
9.650000000000000000e+02 2.210981941223144531e+01 1.497658491134643555e+00 -5.722346156835556030e-02 6.781585693359375000e+00 2.017308712005615234e+00 2.827092707157135010e-01
9.660000000000000000e+02 2.343373107910156250e+01 1.518807411193847656e+00 1.310673076659440994e-02 6.786950111389160156e+00 2.040017127990722656e+00 2.786760330200195312e-01
9.670000000000000000e+02 2.021049308776855469e+01 -1.398421764373779297e+01 1.454554945230484009e-01 7.013835906982421875e+00 2.147787332534790039e+00 3.757342398166656494e-01
9.680000000000000000e+02 1.985703468322753906e+01 -1.821092796325683594e+01 -4.435689002275466919e-02 5.926343441009521484e+00 1.764595985412597656e+00 3.482684195041656494e-01
9.690000000000000000e+02 2.038904953002929688e+01 -5.513886928558349609e+00 -7.300381362438201904e-02 6.145961761474609375e+00 1.821887373924255371e+00 2.535869479179382324e-01
9.700000000000000000e+02 2.204439926147460938e+01 9.787741303443908691e-02 -7.995180785655975342e-02 6.745245456695556641e+00 1.999588131904602051e+00 3.930163681507110596e-01
9.710000000000000000e+02 2.169511032104492188e+01 -8.341677665710449219e+00 3.194915875792503357e-02 6.589032649993896484e+00 1.986294627189636230e+00 2.830883264541625977e-01
9.720000000000000000e+02 2.127078819274902344e+01 -1.976140785217285156e+01 -8.363816142082214355e-02 6.298310756683349609e+00 1.864401817321777344e+00 2.917299866676330566e-01
9.730000000000000000e+02 2.175324440002441406e+01 -5.529863834381103516e+00 -1.203869134187698364e-01 6.555918216705322266e+00 1.930659413337707520e+00 2.830735743045806885e-01
9.740000000000000000e+02 1.958210182189941406e+01 -3.369404220581054688e+01 1.417327374219894409e-01 7.281060695648193359e+00 2.226838111877441406e+00 3.005450963973999023e-01
9.750000000000000000e+02 2.152926254272460938e+01 -1.551062679290771484e+01 6.501475721597671509e-02 6.538571834564208984e+00 1.981076002120971680e+00 2.014124095439910889e-01
9.760000000000000000e+02 2.160313415527343750e+01 -1.407031536102294922e+01 1.680527925491333008e-01 6.535253047943115234e+00 2.010991811752319336e+00 2.841069698333740234e-01
9.770000000000000000e+02 2.182369995117187500e+01 -4.131382465362548828e+00 -6.897516548633575439e-02 6.585817813873291016e+00 1.955052733421325684e+00 2.226435840129852295e-01
9.780000000000000000e+02 2.230671882629394531e+01 7.166583061218261719e+00 3.948465734720230103e-02 6.768300056457519531e+00 2.042335510253906250e+00 2.687673568725585938e-01
9.790000000000000000e+02 2.425147056579589844e+01 -2.146277427673339844e+01 -9.089407324790954590e-02 6.485617160797119141e+00 1.918416976928710938e+00 1.913241893053054810e-01
9.800000000000000000e+02 1.206103897094726562e+01 -2.756708526611328125e+01 1.291109342128038406e-02 4.570031538605690002e-03 5.244337487965822220e-03 -5.306394305080175400e-03
9.810000000000000000e+02 2.217838668823242188e+01 2.905594587326049805e+00 1.168967634439468384e-01 6.812704086303710938e+00 2.078880310058593750e+00 2.655608952045440674e-01
9.820000000000000000e+02 1.448147106170654297e+01 -2.484557342529296875e+01 1.541455090045928955e-02 3.460215637460350990e-03 5.662430077791213989e-03 6.639733910560607910e-04
9.830000000000000000e+02 1.201751136779785156e+01 -2.512905883789062500e+01 8.782374672591686249e-03 5.327103659510612488e-03 4.232843406498432159e-03 -1.802697661332786083e-04
9.840000000000000000e+02 2.122781753540039062e+01 -2.678070449829101562e+01 -2.304393798112869263e-02 6.352475166320800781e+00 1.898829340934753418e+00 1.442437469959259033e-01
9.850000000000000000e+02 2.099566841125488281e+01 2.681219482421875000e+01 2.332670148462057114e-03 1.766664862632751465e+00 5.306992530822753906e-01 3.024329543113708496e-01
9.860000000000000000e+02 2.107188224792480469e+01 1.135380649566650391e+01 -3.518080571666359901e-03 6.225497245788574219e+00 1.866593837738037109e+00 8.141630887985229492e-02
9.870000000000000000e+02 2.094670677185058594e+01 3.102717781066894531e+01 4.704637452960014343e-02 -3.743295967578887939e-01 -9.818496555089950562e-02 1.802919805049896240e-01
9.880000000000000000e+02 1.483040523529052734e+01 -2.151141643524169922e+00 1.103929011151194572e-03 2.382197853876277804e-04 4.026446549687534571e-04 1.724707253742963076e-04
9.890000000000000000e+02 2.168484115600585938e+01 -9.762971878051757812e+00 6.268644332885742188e-02 6.589281082153320312e+00 1.995590329170227051e+00 2.249752283096313477e-01
9.900000000000000000e+02 2.171319961547851562e+01 -6.931541919708251953e+00 -8.144924044609069824e-02 6.535216808319091797e+00 1.936130285263061523e+00 2.871058285236358643e-01
9.910000000000000000e+02 2.233847045898437500e+01 9.984445571899414062e+00 -2.233558101579546928e-03 6.446161270141601562e+00 1.933178305625915527e+00 2.307543158531188965e-01
9.920000000000000000e+02 2.351772689819335938e+01 1.703783607482910156e+01 -9.196264296770095825e-02 5.700041770935058594e+00 1.682423710823059082e+00 5.540079474449157715e-01
9.930000000000000000e+02 2.101132774353027344e+01 2.259379768371582031e+01 -1.404600683599710464e-02 3.742208957672119141e+00 1.118448972702026367e+00 2.147073596715927124e-01
9.940000000000000000e+02 2.211698913574218750e+01 2.540580749511718750e+01 -6.325609236955642700e-02 3.171472549438476562e+00 9.324648976325988770e-01 7.689814567565917969e-01
9.950000000000000000e+02 2.103722763061523438e+01 1.978837585449218750e+01 -1.130590122193098068e-02 4.652554512023925781e+00 1.392374515533447266e+00 1.629495918750762939e-01
9.960000000000000000e+02 2.223639488220214844e+01 1.982214164733886719e+01 -4.830066114664077759e-02 4.909193515777587891e+00 1.458267807960510254e+00 4.658110737800598145e-01
9.970000000000000000e+02 2.342181396484375000e+01 1.984664154052734375e+01 -1.244623437523841858e-01 5.229883670806884766e+00 1.531626343727111816e+00 7.093710303306579590e-01
9.980000000000000000e+02 2.229297447204589844e+01 1.701280021667480469e+01 -3.551184013485908508e-02 5.485590934753417969e+00 1.635023832321166992e+00 3.589118719100952148e-01
9.990000000000000000e+02 2.226896667480468750e+01 1.841948127746582031e+01 -4.591334983706474304e-02 5.217453002929687500e+00 1.551461935043334961e+00 4.088395833969116211e-01
1.000000000000000000e+03 2.210985565185546875e+01 2.825909614562988281e+01 9.268602356314659119e-03 1.953456997871398926e+00 5.888176560401916504e-01 8.640727400779724121e-01
1.001000000000000000e+03 2.324249649047851562e+01 2.398423957824707031e+01 -1.538303345441818237e-01 4.273339748382568359e+00 1.235852837562561035e+00 1.012394547462463379e+00
1.002000000000000000e+03 2.232684898376464844e+01 1.420434856414794922e+01 -2.291558124125003815e-02 5.928210735321044922e+00 1.771588563919067383e+00 2.834802567958831787e-01
1.003000000000000000e+03 1.325824928283691406e+01 -1.465145111083984375e+01 6.261607632040977478e-03 9.257179917767643929e-04 2.156197559088468552e-03 -1.428809482604265213e-03
1.004000000000000000e+03 1.359787559509277344e+01 -7.932483196258544922e+00 -4.217329435050487518e-03 -4.039031045977026224e-04 -1.386369694955646992e-03 5.399610381573438644e-04
1.005000000000000000e+03 1.461007881164550781e+01 -7.929656982421875000e+00 4.905351437628269196e-03 1.361094036838039756e-04 1.512438291683793068e-03 -1.813961425796151161e-04
1.006000000000000000e+03 1.101967239379882812e+01 -3.480084896087646484e+00 1.601999043487012386e-03 8.502135169692337513e-04 7.356638088822364807e-04 -1.351100043393671513e-03
1.007000000000000000e+03 1.342246437072753906e+01 -1.195378208160400391e+01 5.571547895669937134e-03 4.834328428842127323e-04 1.816494157537817955e-03 -9.330133325420320034e-04
1.008000000000000000e+03 1.454956531524658203e+01 -1.208792400360107422e+01 -6.432647351175546646e-03 -2.057368983514606953e-04 -1.991515280678868294e-03 7.524226093664765358e-04
1.009000000000000000e+03 1.365245628356933594e+01 -5.323001384735107422e+00 -3.412557067349553108e-03 -3.551806730683892965e-04 -1.130321412347257137e-03 3.249962464906275272e-04
1.010000000000000000e+03 1.462692832946777344e+01 -5.189101219177246094e+00 3.636128036305308342e-03 2.175918052671477199e-04 1.156116020865738392e-03 2.553889062255620956e-04
1.011000000000000000e+03 1.449372291564941406e+01 -1.486506557464599609e+01 -7.428908254951238632e-03 -3.107332158833742142e-04 -2.321892417967319489e-03 1.204891595989465714e-03
1.012000000000000000e+03 1.432843589782714844e+01 -1.905272674560546875e+01 1.010965649038553238e-02 9.323887643404304981e-04 3.312613582238554955e-03 -2.316001337021589279e-03
1.013000000000000000e+03 2.204474067687988281e+01 2.969393730163574219e+01 8.874006569385528564e-02 1.299363613128662109e+00 4.164310991764068604e-01 7.599653601646423340e-01
1.014000000000000000e+03 2.311410713195800781e+01 2.981602287292480469e+01 1.990634202957153320e-01 2.289033889770507812e+00 7.464292049407958984e-01 1.239106297492980957e+00
1.015000000000000000e+03 1.375782728195190430e+00 -4.007714080810546875e+01 -9.843323379755020142e-03 -5.707431212067604065e-02 -2.007528953254222870e-02 -8.726582862436771393e-03
1.016000000000000000e+03 8.547046780586242676e-01 3.730645751953125000e+01 -4.210133105516433716e-03 1.498616021126508713e-02 3.232808085158467293e-03 4.210525730741210282e-05
1.017000000000000000e+03 6.726052761077880859e-01 3.310357666015625000e+01 5.189928691834211349e-03 8.826282806694507599e-03 4.204863682389259338e-03 -2.578007290139794350e-03
1.018000000000000000e+03 6.148947477340698242e-01 2.604899597167968750e+01 -4.555705469101667404e-03 5.374535248847678304e-05 -1.350588048808276653e-03 1.150036463513970375e-03
1.019000000000000000e+03 1.880625724792480469e+00 2.845420455932617188e+01 5.667868070304393768e-03 2.380326157435774803e-03 2.414458198472857475e-03 -3.008238971233367920e-03
1.020000000000000000e+03 7.963132858276367188e-01 -3.595604324340820312e+01 1.092673651874065399e-02 -2.463858947157859802e-02 -4.113555420190095901e-03 -2.119421027600765228e-03
1.021000000000000000e+03 2.237081050872802734e+00 -3.282353210449218750e+01 -1.500434987246990204e-02 -6.283306516706943512e-03 -6.386296823620796204e-03 -1.088106539100408554e-02
1.022000000000000000e+03 3.106937408447265625e+00 2.811185073852539062e+01 -4.293478094041347504e-03 3.021245356649160385e-04 -1.197406090795993805e-03 -2.550414355937391520e-04
1.023000000000000000e+03 3.073028326034545898e+00 2.531099700927734375e+01 -4.065988585352897644e-03 -5.897785886190831661e-04 -1.396730076521635056e-03 3.522996121319010854e-05
1.024000000000000000e+03 1.996717333793640137e+00 3.269504165649414062e+01 -5.407274235039949417e-03 5.573119502514600754e-03 4.975363117409870028e-05 -2.051574643701314926e-03
1.025000000000000000e+03 2.802006244659423828e+00 3.798834228515625000e+01 -3.221483435481786728e-03 8.370641618967056274e-03 1.544747501611709595e-03 -1.928963465616106987e-03
1.026000000000000000e+03 3.628004074096679688e+00 3.901134872436523438e+01 -1.221602433361113071e-04 1.212620921432971954e-02 3.601214615628123283e-03 -8.974536322057247162e-03
1.027000000000000000e+03 2.052882432937622070e+00 -3.006950569152832031e+01 -1.261594891548156738e-02 -1.285457517951726913e-03 -4.170421976596117020e-03 -4.351337440311908722e-03
1.028000000000000000e+03 1.937729716300964355e+00 -2.728453063964843750e+01 -1.078871078789234161e-02 8.756852475926280022e-04 -2.973907627165317535e-03 -1.496549230068922043e-03
1.029000000000000000e+03 2.432383775711059570e+00 -3.690061187744140625e+01 8.291560225188732147e-03 -2.600123919546604156e-02 -5.312903784215450287e-03 -1.345665380358695984e-02
1.030000000000000000e+03 1.904596447944641113e+00 -2.175193595886230469e+01 -8.282736875116825104e-03 5.120849818922579288e-04 -2.331195399165153503e-03 -9.237765916623175144e-04
1.031000000000000000e+03 6.251254081726074219e-01 1.904953384399414062e+01 3.607680555433034897e-03 1.083160987036535516e-05 1.085553667508065701e-03 -8.355036261491477489e-04
1.032000000000000000e+03 6.063244938850402832e-01 1.338286590576171875e+01 2.792673418298363686e-03 3.086081414949148893e-05 8.470602915622293949e-04 -4.752637178171426058e-04
1.033000000000000000e+03 5.443213582038879395e-01 7.758111476898193359e+00 1.857206108979880810e-03 1.484369422541931272e-04 6.016928819008171558e-04 -4.671784117817878723e-04
1.034000000000000000e+03 3.669387817382812500e+00 -3.910429000854492188e+01 1.424051728099584579e-02 -3.563966229557991028e-02 -6.419743876904249191e-03 -2.834398113191127777e-02
1.035000000000000000e+03 5.698813915252685547e+00 -3.476097106933593750e+01 -3.534607961773872375e-02 7.968283258378505707e-03 -8.213338442146778107e-03 -2.738388255238533020e-02
1.036000000000000000e+03 2.323451280593872070e+00 -3.420701980590820312e+01 7.669894024729728699e-03 -1.121549960225820541e-02 -1.063681789673864841e-03 -1.165543776005506516e-02
1.037000000000000000e+03 2.143235683441162109e+00 -3.145119094848632812e+01 8.559223264455795288e-03 -2.603786066174507141e-03 1.786631182767450809e-03 -3.468394977971911430e-03
1.038000000000000000e+03 3.197538375854492188e+00 -2.700723266601562500e+01 9.620976634323596954e-03 1.706061884760856628e-04 2.937474753707647324e-03 1.571443513967096806e-03
1.039000000000000000e+03 1.895996809005737305e+00 -2.313272285461425781e+01 8.977538906037807465e-03 1.080247340723872185e-03 3.017335897311568260e-03 1.902546733617782593e-03
1.040000000000000000e+03 1.908401250839233398e+00 -2.589826774597167969e+01 9.795829653739929199e-03 1.343931769952178001e-03 3.341928590089082718e-03 1.811448484659194946e-03
1.041000000000000000e+03 3.180767059326171875e+00 -2.026351928710937500e+01 -7.716421503573656082e-03 -5.944191434537060559e-05 -2.332759089767932892e-03 -1.101204310543835163e-03
1.042000000000000000e+03 6.355644464492797852e-01 -1.911174583435058594e+01 6.946643348783254623e-03 7.521649822592735291e-04 2.309642499312758446e-03 1.041458221152424812e-03
1.043000000000000000e+03 1.908836960792541504e+00 -1.899519538879394531e+01 -6.796813104301691055e-03 3.129248216282576323e-05 -2.029656199738383293e-03 -9.881696896627545357e-04
1.044000000000000000e+03 1.891137599945068359e+00 -1.620411109924316406e+01 -5.490508861839771271e-03 -1.459441555198282003e-04 -1.690935925580561161e-03 -8.442610269412398338e-04
1.045000000000000000e+03 6.070846319198608398e-01 -1.206851196289062500e+01 -3.614849643781781197e-03 -7.696893590036779642e-05 -1.107545569539070129e-03 -2.453293127473443747e-04
1.046000000000000000e+03 1.824466586112976074e+00 -1.198908901214599609e+01 3.971869591623544693e-03 3.222153172828257084e-04 1.288225408643484116e-03 4.674290248658508062e-04
1.047000000000000000e+03 4.627585887908935547e+00 -4.121067047119140625e+00 -6.521897739730775356e-05 1.517714932560920715e-03 4.357487778179347515e-04 1.100415945984423161e-03
1.048000000000000000e+03 3.666781187057495117e+00 -2.770967721939086914e+00 -8.836978231556713581e-04 -3.009571810252964497e-04 -3.553965070750564337e-04 -6.461743032559752464e-04
1.049000000000000000e+03 2.953403711318969727e+00 -2.960306882858276367e+00 1.005398225970566273e-03 -1.326648489339277148e-04 2.618200087454169989e-04 3.880040894728153944e-04
1.050000000000000000e+03 1.383297204971313477e+00 -3.567023277282714844e+00 2.229383680969476700e-03 -1.360638561891391873e-04 6.279959343373775482e-04 2.395480260020121932e-04
1.051000000000000000e+03 4.684236347675323486e-01 4.946139335632324219e+00 1.374863204546272755e-03 1.138799125328660011e-04 4.466229293029755354e-04 -2.199840964749455452e-04
1.052000000000000000e+03 2.436104774475097656e+00 3.532022953033447266e+00 -2.250675344839692116e-03 -2.251812256872653961e-04 -7.427569944411516190e-04 1.018001814372837543e-03
1.053000000000000000e+03 1.694609045982360840e+00 1.033543205261230469e+01 -2.429490908980369568e-03 -2.083088475046679378e-04 -7.913399022072553635e-04 7.605637074448168278e-04
1.054000000000000000e+03 5.649890899658203125e-01 1.056913948059082031e+01 2.541401190683245659e-03 1.141880056820809841e-04 7.966767298057675362e-04 -6.217219633981585503e-04
1.055000000000000000e+03 1.820556163787841797e+00 1.310006904602050781e+01 -3.154511330649256706e-03 9.027936903294175863e-05 -9.192696306854486465e-04 5.314475274644792080e-04
1.056000000000000000e+03 1.804329156875610352e+00 2.023592185974121094e+01 4.177518188953399658e-03 1.259748678421601653e-04 1.291047898121178150e-03 -8.884096168912947178e-04
1.057000000000000000e+03 1.871095538139343262e+00 1.884771537780761719e+01 -3.553882241249084473e-03 -4.387645749375224113e-04 -1.197793986648321152e-03 8.540794951841235161e-04
1.058000000000000000e+03 1.811983823776245117e+00 2.429246711730957031e+01 -4.511577077209949493e-03 -3.134519211016595364e-04 -1.447508693672716618e-03 5.271375994198024273e-04
1.059000000000000000e+03 2.634536933898925781e+01 3.459619140625000000e+01 2.808059692382812500e+00 1.885380625724792480e+00 1.408032059669494629e+00 2.440750360488891602e+00
1.060000000000000000e+03 2.763308334350585938e+01 3.410078811645507812e+01 2.266394615173339844e+00 8.274974822998046875e+00 3.162410736083984375e+00 4.904701232910156250e+00
1.061000000000000000e+03 2.496161270141601562e+01 3.395909118652343750e+01 1.532565474510192871e+00 1.195599913597106934e+00 8.184496164321899414e-01 1.126784801483154297e+00
1.062000000000000000e+03 2.715905952453613281e+01 3.450865173339843750e+01 3.397501945495605469e+00 5.128356933593750000e+00 2.557757616043090820e+00 4.622000217437744141e+00
1.063000000000000000e+03 2.631998252868652344e+01 3.426847076416015625e+01 2.736043930053710938e+00 2.413925647735595703e+00 1.544990897178649902e+00 2.669623613357543945e+00
1.064000000000000000e+03 2.613427734375000000e+01 3.462594604492187500e+01 2.555374383926391602e+00 1.454545378684997559e+00 1.202975988388061523e+00 1.981408715248107910e+00
1.065000000000000000e+03 2.592284774780273438e+01 3.800054931640625000e+01 1.212500631809234619e-01 1.215266227722167969e+00 4.009549021720886230e-01 -1.093666076660156250e+00
1.066000000000000000e+03 2.741488838195800781e+01 3.909746170043945312e+01 -3.858331218361854553e-02 6.967844486236572266e+00 2.078778266906738281e+00 -2.467181444168090820e+00
1.067000000000000000e+03 2.728521537780761719e+01 3.805684280395507812e+01 4.028275310993194580e-01 5.091557979583740234e+00 1.648315668106079102e+00 -2.933578014373779297e+00
1.068000000000000000e+03 2.844206619262695312e+01 3.856673431396484375e+01 -7.474284172058105469e-01 1.054544448852539062e+01 2.939404964447021484e+00 -2.126540184020996094e+00
1.069000000000000000e+03 2.679129791259765625e+01 3.858990478515625000e+01 5.162962675094604492e-01 3.671273708343505859e+00 1.256271004676818848e+00 -2.235874652862548828e+00
1.070000000000000000e+03 2.439371299743652344e+01 3.384393692016601562e+01 1.140451908111572266e+00 9.435880780220031738e-01 6.252120137214660645e-01 6.839472651481628418e-01
1.071000000000000000e+03 2.380992317199707031e+01 3.887208175659179688e+01 3.567644655704498291e-01 -7.336267828941345215e-02 8.502053469419479370e-02 7.815505862236022949e-01
1.072000000000000000e+03 2.518579292297363281e+01 3.881519317626953125e+01 3.783405721187591553e-01 1.459149479866027832e+00 5.512470006942749023e-01 -3.899466097354888916e-01
1.073000000000000000e+03 2.700505447387695312e+01 3.826110839843750000e+01 4.641718566417694092e-01 4.670884609222412109e+00 1.540516853332519531e+00 -2.465262889862060547e+00
1.074000000000000000e+03 2.845306015014648438e+01 3.362574386596679688e+01 8.989479541778564453e-01 1.166141510009765625e+01 3.768109083175659180e+00 3.131181240081787109e+00
1.075000000000000000e+03 1.430685043334960938e+01 2.668999195098876953e+00 1.339767361059784889e-03 1.190692200907506049e-04 4.376509750727564096e-04 -7.690437487326562405e-04
1.076000000000000000e+03 3.191515445709228516e+00 2.709017276763916016e+00 -5.972062353976070881e-04 -8.703680359758436680e-04 -4.402722697705030441e-04 5.357441841624677181e-04
1.077000000000000000e+03 5.218321323394775391e+00 2.620657682418823242e+00 5.416151834651827812e-04 7.941981311887502670e-04 4.007440002169460058e-04 -2.194621338276192546e-04
1.078000000000000000e+03 5.172299385070800781e+00 3.397443771362304688e+00 -6.644126842729747295e-04 -6.395475356839597225e-04 -3.911880776286125183e-04 -8.547953621018677950e-05
1.079000000000000000e+03 5.872410297393798828e+00 3.264722347259521484e+00 9.145850199274718761e-04 5.233965348452329636e-04 4.313944664318114519e-04 -7.041838216537144035e-06
1.080000000000000000e+03 5.930751800537109375e+00 2.564439058303833008e+00 -6.192462751641869545e-04 -7.058038609102368355e-04 -3.975150466430932283e-04 7.946978439576923847e-05
1.081000000000000000e+03 7.252816677093505859e+00 3.165496110916137695e+00 8.890838944353163242e-04 4.861254128627479076e-04 4.125628038309514523e-04 1.373007980873808265e-04
1.082000000000000000e+03 6.560951232910156250e+00 3.190646648406982422e+00 -8.738233591429889202e-04 -5.374204483814537525e-04 -4.233731597196310759e-04 -4.702198566519655287e-05
1.083000000000000000e+03 4.445184707641601562e+00 3.592785596847534180e+00 6.546973017975687981e-04 9.674849570728838444e-04 4.866546660196036100e-04 -2.567447954788804054e-04
1.084000000000000000e+03 3.855683803558349609e+00 2.695719242095947266e+00 7.516623591072857380e-04 9.642307995818555355e-04 5.147679476067423820e-04 -1.676829415373504162e-04
1.085000000000000000e+03 1.021989631652832031e+01 2.660520553588867188e+00 -3.722994006238877773e-04 -5.499377730302512646e-04 -2.766711404547095299e-04 -3.808840119745582342e-04
1.086000000000000000e+03 1.004982185363769531e+01 3.414585828781127930e+00 4.555311461444944143e-04 5.231778486631810665e-04 2.936127129942178726e-04 3.903212782461196184e-04
1.087000000000000000e+03 9.512386322021484375e+00 -3.414124488830566406e+00 9.456338593736290932e-04 9.737691725604236126e-04 5.758209154009819031e-04 -4.230029007885605097e-04
1.088000000000000000e+03 1.363041973114013672e+01 -4.078213691711425781e+00 3.045608988031744957e-03 5.123364971950650215e-04 1.067383680492639542e-03 -4.399517201818525791e-04
1.089000000000000000e+03 9.431199073791503906e+00 -4.192033767700195312e+00 -1.089420751668512821e-03 -9.458301356062293053e-04 -6.105752545408904552e-04 3.044562472496181726e-04
1.090000000000000000e+03 1.365394306182861328e+01 -2.983407497406005859e+00 -2.881440566852688789e-03 -2.784681855700910091e-04 -9.479725849814713001e-04 6.542715127579867840e-04
1.091000000000000000e+03 1.243826675415039062e+01 -2.658191919326782227e+00 -1.906489953398704529e-03 2.173419052269309759e-04 -5.067444290034472942e-04 -1.233774528373032808e-04
1.092000000000000000e+03 1.160104656219482422e+01 3.722471952438354492e+00 5.760797648690640926e-04 6.052713142707943916e-04 3.544053179211914539e-04 5.732512217946350574e-04
1.093000000000000000e+03 9.328492164611816406e+00 3.298625469207763672e+00 -5.532869254238903522e-04 -4.989857552573084831e-04 -3.156817983835935593e-04 -2.580448053777217865e-04
1.094000000000000000e+03 6.538073062896728516e+00 -3.379105329513549805e+00 1.620159368030726910e-03 5.457687075249850750e-04 6.497784052044153214e-04 2.138877025572583079e-04
1.095000000000000000e+03 2.697230339050292969e+00 -7.751613140106201172e+00 3.409189172089099884e-03 1.650827034609392285e-04 1.072281622327864170e-03 5.779731873190030456e-05
1.096000000000000000e+03 7.900644302368164062e+00 -4.986551761627197266e+00 1.894335728138685226e-03 9.667185368016362190e-04 8.583163144066929817e-04 3.620579082053154707e-04
1.097000000000000000e+03 5.833069324493408203e+00 -3.359067201614379883e+00 -1.543633756227791309e-03 -5.642228061333298683e-04 -6.323569687083363533e-04 -5.144552778801880777e-05
1.098000000000000000e+03 5.817337512969970703e+00 -2.603248834609985352e+00 1.052943523973226547e-03 6.939199520274996758e-04 5.240590544417500496e-04 1.377141306875273585e-04
1.099000000000000000e+03 2.725174665451049805e+00 -4.165310859680175781e+00 -1.806619809940457344e-03 -3.674646723084151745e-04 -6.522253388538956642e-04 1.201695995405316353e-03
1.100000000000000000e+03 4.309187889099121094e+00 -5.159515857696533203e+00 1.629923004657030106e-03 5.928514292463660240e-04 6.668323185294866562e-04 2.105401130393147469e-03
1.101000000000000000e+03 2.219770431518554688e+00 -3.303656339645385742e+00 -7.277743425220251083e-04 -1.491220132265880238e-06 -2.187796635553240776e-04 -5.284770159050822258e-04
1.102000000000000000e+03 1.507170438766479492e+00 -5.017874717712402344e+00 -2.648018999025225639e-03 -9.232275624526664615e-05 -8.221025345847010612e-04 -8.905249706003814936e-05
1.103000000000000000e+03 8.753403663635253906e+00 -3.398819684982299805e+00 -1.139709027484059334e-03 -8.580121793784201145e-04 -5.993163213133811951e-04 1.266929612029343843e-04
1.104000000000000000e+03 2.655815315246582031e+01 3.953730010986328125e+01 3.728623688220977783e-01 4.581841468811035156e+00 1.486411094665527344e+00 -1.866372585296630859e+00
1.105000000000000000e+03 2.364993095397949219e+01 3.368470382690429688e+01 8.309512734413146973e-01 6.187943816184997559e-01 4.349237084388732910e-01 3.446734845638275146e-01
1.106000000000000000e+03 2.535216522216796875e+01 3.340081024169921875e+01 1.823558807373046875e+00 2.161777734756469727e+00 1.195600986480712891e+00 1.904763817787170410e+00
1.107000000000000000e+03 1.952130699157714844e+01 3.962111663818359375e+01 2.322473227977752686e-01 -4.165331125259399414e-01 -5.528573319315910339e-02 4.286771416664123535e-01
1.108000000000000000e+03 3.092308807373046875e+01 3.697480010986328125e+01 3.954404830932617188e+00 1.211933898925781250e+01 4.822123050689697266e+00 2.281649351119995117e+00
1.109000000000000000e+03 3.121751785278320312e+01 3.925677490234375000e+01 1.757417768239974976e-01 1.232165622711181641e+01 3.749219417572021484e+00 1.158904075622558594e+00
1.110000000000000000e+03 2.792827224731445312e+01 3.381937408447265625e+01 1.461439609527587891e+00 1.025780105590820312e+01 3.515772104263305664e+00 4.502847671508789062e+00
1.111000000000000000e+03 3.058993148803710938e+01 3.336215972900390625e+01 1.492645978927612305e+00 1.187316226959228516e+01 4.009742259979248047e+00 -1.791852116584777832e-01
1.112000000000000000e+03 3.078592109680175781e+01 3.555382537841796875e+01 5.265218734741210938e+00 1.184561920166015625e+01 5.133251190185546875e+00 4.550336599349975586e-01
1.113000000000000000e+03 3.131071662902832031e+01 3.449763488769531250e+01 3.091099739074707031e+00 1.136065864562988281e+01 4.335527420043945312e+00 -4.181862473487854004e-01
1.114000000000000000e+03 1.195453166961669922e+01 1.626127243041992188e+01 4.246734082698822021e-03 2.855191705748438835e-04 1.359675894491374493e-03 -3.517721779644489288e-04
1.115000000000000000e+03 1.201434993743896484e+01 1.031166553497314453e+01 2.721418393775820732e-03 2.645585045684129000e-04 8.957930840551853180e-04 1.008705468848347664e-03
1.116000000000000000e+03 1.210932445526123047e+01 2.558323287963867188e+01 -5.864763632416725159e-03 -5.973299266770482063e-04 -1.938628149218857288e-03 -9.249076829291880131e-04
1.117000000000000000e+03 2.306167221069335938e+01 -1.123268508911132812e+01 7.708491384983062744e-02 6.631420612335205078e+00 2.012551546096801758e+00 2.841957509517669678e-01
1.118000000000000000e+03 2.340643119812011719e+01 1.024741232395172119e-01 -2.510814927518367767e-02 6.727278232574462891e+00 2.010651111602783203e+00 3.032583594322204590e-01
1.119000000000000000e+03 4.057482182979583740e-01 3.550158500671386719e+00 -1.287199556827545166e-03 -1.828368294809479266e-05 -3.916449786629527807e-04 1.846246013883501291e-04
1.120000000000000000e+03 2.442436599731445312e+01 -7.016041755676269531e+00 -5.231134593486785889e-02 6.690709590911865234e+00 1.991519570350646973e+00 2.700161039829254150e-01
1.121000000000000000e+03 2.306147003173828125e+01 -6.965582847595214844e+00 -5.864799395203590393e-02 6.652749061584472656e+00 1.978230237960815430e+00 3.007371723651885986e-01
1.122000000000000000e+03 2.285071182250976562e+01 -1.850027084350585938e+01 -9.396103769540786743e-02 6.486027240753173828e+00 1.917619943618774414e+00 2.145301997661590576e-01
1.123000000000000000e+03 2.198409843444824219e+01 -1.309004783630371094e+00 2.809819392859935760e-02 6.562623500823974609e+00 1.977216482162475586e+00 4.085234403610229492e-01
1.124000000000000000e+03 2.335743522644042969e+01 -1.316643595695495605e+00 -2.226207777857780457e-02 6.696893692016601562e+00 2.002389430999755859e+00 2.998721301555633545e-01
1.125000000000000000e+03 1.201578044891357422e+01 3.158105468750000000e+01 4.649519396480172873e-04 -7.128320634365081787e-03 -1.999010564759373665e-03 -2.114520873874425888e-03
1.126000000000000000e+03 1.418331909179687500e+01 3.327453231811523438e+01 -4.535024054348468781e-03 -1.215282900375314057e-04 -1.396965701133012772e-03 1.267768628895282745e-02
1.127000000000000000e+03 1.327791118621826172e+01 2.150455665588378906e+01 -5.864635109901428223e-03 -3.239659126847982407e-04 -1.856580260209739208e-03 -1.507054985268041492e-04
1.128000000000000000e+03 1.204350376129150391e+01 1.753313827514648438e+01 -4.749442450702190399e-03 -1.271798828383907676e-04 -1.462986692786216736e-03 7.722838927293196321e-05
1.129000000000000000e+03 2.292673683166503906e+01 -1.706606864929199219e+01 -5.716492235660552979e-02 6.517018318176269531e+00 1.937956094741821289e+00 1.606766432523727417e-01
1.130000000000000000e+03 1.177523994445800781e+01 1.498430442810058594e+01 -3.552096197381615639e-03 -4.040380590595304966e-04 -1.186840236186981201e-03 7.076636538840830326e-04
1.131000000000000000e+03 1.332260322570800781e+01 6.424607276916503906e+00 2.435700269415974617e-03 1.547303545521572232e-04 7.771292002871632576e-04 3.208053822163492441e-04
1.132000000000000000e+03 1.335425090789794922e+01 5.093588352203369141e+00 -1.923989388160407543e-03 -1.791834656614810228e-04 -6.309518357738852501e-04 -2.746563404798507690e-04
1.133000000000000000e+03 9.139075279235839844e+00 3.969559669494628906e+00 7.673263899050652981e-04 2.906283771153539419e-04 3.173864388372749090e-04 2.312571305083110929e-04
1.134000000000000000e+03 1.094361400604248047e+01 5.428723335266113281e+00 1.475823228247463703e-03 -3.550245310179889202e-04 3.362396091688424349e-04 8.792025619186460972e-04
1.135000000000000000e+03 1.146494197845458984e+01 1.369015693664550781e+01 2.828370081260800362e-03 3.346455923747271299e-04 9.489046642556786537e-04 -1.189147122204303741e-03
1.136000000000000000e+03 7.930474281311035156e+00 -3.449631118774414062e+01 -4.795913025736808777e-02 5.571260116994380951e-03 -1.271636132150888443e-02 -2.739333733916282654e-02
1.137000000000000000e+03 7.562743377685546875e+01 -3.199800872802734375e+01 -7.788729853928089142e-03 8.251437187194824219e+00 2.473094463348388672e+00 -1.791982725262641907e-02
1.138000000000000000e+03 7.722823333740234375e+01 -3.593090057373046875e+01 -5.580515135079622269e-03 8.323753356933593750e+00 2.495451927185058594e+00 -3.018753370270133018e-03
1.139000000000000000e+03 7.551051330566406250e+01 -2.230255317687988281e+01 -5.308373831212520599e-03 8.192121505737304688e+00 2.456043958663940430e+00 -3.897486999630928040e-02
1.140000000000000000e+03 7.797810363769531250e+01 -2.924910926818847656e+01 -7.869574474170804024e-04 8.327116012573242188e+00 2.497898578643798828e+00 -1.329671125859022141e-02
1.141000000000000000e+03 7.822979736328125000e+01 -3.585002517700195312e+01 -4.648177418857812881e-03 8.361024856567382812e+00 2.506912946701049805e+00 1.679719076491892338e-03
1.142000000000000000e+03 7.310044860839843750e+01 -3.762567520141601562e+01 -1.215420663356781006e-02 8.161104202270507812e+00 2.444684982299804688e+00 -1.643323898315429688e-02
1.143000000000000000e+03 7.538505554199218750e+01 1.540533065795898438e+01 -5.076537840068340302e-03 7.509406566619873047e+00 2.251298904418945312e+00 -1.744304448366165161e-01
1.144000000000000000e+03 7.673458099365234375e+01 1.544279766082763672e+01 -4.774964414536952972e-03 7.484444141387939453e+00 2.243900775909423828e+00 -1.305551379919052124e-01
1.145000000000000000e+03 7.822827148437500000e+01 3.560524368286132812e+01 9.917564690113067627e-03 6.756135463714599609e+00 2.029815912246704102e+00 -2.140777371823787689e-02
1.146000000000000000e+03 7.695927429199218750e+01 3.354972839355468750e+01 2.707544155418872833e-02 6.900677204132080078e+00 2.078325748443603516e+00 -8.576847612857818604e-02
1.147000000000000000e+03 7.805725860595703125e+01 -2.222235488891601562e+01 -1.945943571627140045e-03 8.280906677246093750e+00 2.483688354492187500e+00 -1.995519176125526428e-02
1.148000000000000000e+03 7.679541778564453125e+01 -2.358512306213378906e+01 -4.241104237735271454e-03 8.245440483093261719e+00 2.472359895706176758e+00 -2.857243642210960388e-02
1.149000000000000000e+03 7.675460052490234375e+01 -3.067995643615722656e+01 -5.307525396347045898e-03 8.284474372863769531e+00 2.483750104904174805e+00 -1.653578132390975952e-02
1.150000000000000000e+03 7.659742736816406250e+01 -2.931653022766113281e+01 -3.120083594694733620e-03 8.273307800292968750e+00 2.481056213378906250e+00 -1.950679719448089600e-02
1.151000000000000000e+03 7.816900634765625000e+01 -3.465144729614257812e+01 -1.030692248605191708e-03 8.357064247131347656e+00 2.506809949874877930e+00 -3.587748156860470772e-03
1.152000000000000000e+03 7.561187744140625000e+01 -2.359929847717285156e+01 -3.597864415496587753e-03 8.200753211975097656e+00 2.459146738052368164e+00 -3.485665097832679749e-02
1.153000000000000000e+03 7.653984832763671875e+01 -2.787953567504882812e+01 -1.615909393876791000e-03 8.266372680664062500e+00 2.479427099227905273e+00 -2.140303514897823334e-02
1.154000000000000000e+03 7.674073791503906250e+01 -2.498110580444335938e+01 -1.899951137602329254e-03 8.251504898071289062e+00 2.474881410598754883e+00 -2.543386630713939667e-02
1.155000000000000000e+03 7.683191680908203125e+01 -3.334373855590820312e+01 -5.625845864415168762e-03 8.304471969604492188e+00 2.489653825759887695e+00 -1.224153302609920502e-02
1.156000000000000000e+03 7.693340301513671875e+01 -3.468826675415039062e+01 -5.568503867834806442e-03 8.313587188720703125e+00 2.492405652999877930e+00 -4.604076500982046127e-03
1.157000000000000000e+03 7.475603485107421875e+01 -4.013677978515625000e+01 4.383494961075484753e-04 8.242089271545410156e+00 2.472758293151855469e+00 -1.406043395400047302e-02
1.158000000000000000e+03 7.802934265136718750e+01 2.238174057006835938e+01 -7.851985865272581577e-04 7.192442417144775391e+00 2.157497167587280273e+00 -8.534886687994003296e-02
1.159000000000000000e+03 7.663981628417968750e+01 1.965573883056640625e+01 2.091399393975734711e-03 7.338858127593994141e+00 2.202284812927246094e+00 -1.394223421812057495e-01
1.160000000000000000e+03 7.508644104003906250e+01 2.268060302734375000e+01 4.248154815286397934e-03 7.289011478424072266e+00 2.187978029251098633e+00 -1.861124187707901001e-01
1.161000000000000000e+03 7.660987091064453125e+01 2.107951354980468750e+01 7.432912243530154228e-04 7.287727832794189453e+00 2.186541318893432617e+00 -1.378685384988784790e-01
1.162000000000000000e+03 7.676626586914062500e+01 1.266264915466308594e+01 -6.086492910981178284e-03 7.577183723449707031e+00 2.271329164505004883e+00 -1.233073845505714417e-01
1.163000000000000000e+03 7.551202392578125000e+01 8.500265121459960938e+00 -1.204072125256061554e-02 7.707920551300048828e+00 2.308763980865478516e+00 -1.461876332759857178e-01
1.164000000000000000e+03 7.675279235839843750e+01 1.405571937561035156e+01 -2.616911660879850388e-03 7.531134605407714844e+00 2.258555412292480469e+00 -1.274110376834869385e-01
1.165000000000000000e+03 7.673085021972656250e+01 2.378562927246093750e+01 2.631938317790627480e-03 7.194890975952148438e+00 2.159256935119628906e+00 -1.306949406862258911e-01
1.166000000000000000e+03 7.801446533203125000e+01 2.650531959533691406e+01 4.180947784334421158e-03 7.037363052368164062e+00 2.112463235855102539e+00 -8.224087953567504883e-02
1.167000000000000000e+03 7.677790069580078125e+01 -2.221870040893554688e+01 -7.874902221374213696e-04 8.233747482299804688e+00 2.469887971878051758e+00 -2.968855574727058411e-02
1.168000000000000000e+03 7.809496307373046875e+01 3.065011024475097656e+01 4.992878064513206482e-03 6.897200107574462891e+00 2.070657968521118164e+00 -6.602477282285690308e-02
1.169000000000000000e+03 7.653912353515625000e+01 2.797316932678222656e+01 8.314502425491809845e-03 7.070064544677734375e+00 2.123513698577880859e+00 -1.235967278480529785e-01
1.170000000000000000e+03 7.399589538574218750e+01 -1.670831298828125000e+01 -9.373805485665798187e-03 8.099774360656738281e+00 2.427120208740234375e+00 -6.364291161298751831e-02
1.171000000000000000e+03 7.673964691162109375e+01 -2.085160827636718750e+01 -2.888830611482262611e-03 8.222816467285156250e+00 2.465978145599365234e+00 -3.176304325461387634e-02
1.172000000000000000e+03 7.544407653808593750e+01 -8.252560615539550781e+00 -9.806165471673011780e-03 8.044722557067871094e+00 2.410474777221679688e+00 -7.656965404748916626e-02
1.173000000000000000e+03 7.805846405029296875e+01 -1.525811100006103516e+01 -3.159790067002177238e-04 8.211872100830078125e+00 2.463466882705688477e+00 -2.599636279046535492e-02
1.174000000000000000e+03 7.544225311279296875e+01 -1.261016249656677246e+00 -9.337730705738067627e-03 7.930127620697021484e+00 2.376236915588378906e+00 -1.035946309566497803e-01
1.175000000000000000e+03 7.677495574951171875e+01 -6.865457057952880859e+00 -5.952093750238418579e-03 8.056774139404296875e+00 2.415246725082397461e+00 -6.074480339884757996e-02
1.176000000000000000e+03 7.807209014892578125e+01 5.670384407043457031e+00 -3.932867199182510376e-03 7.797780990600585938e+00 2.338154315948486328e+00 -6.429910659790039062e-02
1.177000000000000000e+03 7.676639556884765625e+01 2.911045551300048828e+00 -4.620087798684835434e-03 7.858744144439697266e+00 2.356237173080444336e+00 -9.127766638994216919e-02
1.178000000000000000e+03 7.752176666259765625e+01 3.656177520751953125e+01 1.663964241743087769e-02 6.758584976196289062e+00 2.032567501068115234e+00 -3.052219934761524200e-02
1.179000000000000000e+03 7.807580566406250000e+01 7.067273616790771484e+00 -7.886252133175730705e-04 7.755267620086669922e+00 2.326343536376953125e+00 -6.727231293916702271e-02
1.180000000000000000e+03 7.678515625000000000e+01 5.707827568054199219e+00 -4.596699029207229614e-03 7.786659717559814453e+00 2.334618806838989258e+00 -1.006902381777763367e-01
1.181000000000000000e+03 7.676980590820312500e+01 -2.677963495254516602e+00 -4.181704018265008926e-03 7.981578826904296875e+00 2.393218994140625000e+00 -7.284208387136459351e-02
1.182000000000000000e+03 7.676702117919921875e+01 -9.654401779174804688e+00 -5.657668691128492355e-03 8.099372863769531250e+00 2.428114414215087891e+00 -5.355715379118919373e-02
1.183000000000000000e+03 7.672510528564453125e+01 -1.664116668701171875e+01 -2.171518048271536827e-03 8.183430671691894531e+00 2.454377889633178711e+00 -3.828773275017738342e-02
1.184000000000000000e+03 7.668841552734375000e+01 3.535978317260742188e+01 3.092411905527114868e-02 6.861966133117675781e+00 2.067867040634155273e+00 -7.788351178169250488e-02
1.185000000000000000e+03 7.382735443115234375e+01 3.538896942138671875e+01 5.992247909307479858e-02 7.057613372802734375e+00 2.135260581970214844e+00 -1.148506328463554382e-01
1.186000000000000000e+03 7.667380523681640625e+01 1.823629951477050781e+01 -2.743918914347887039e-03 7.388879299163818359e+00 2.215840578079223633e+00 -1.364618241786956787e-01
1.187000000000000000e+03 7.679013824462890625e+01 9.885111808776855469e+00 -6.991693750023841858e-03 7.665522575378417969e+00 2.297559261322021484e+00 -1.146327182650566101e-01
1.188000000000000000e+03 7.806213378906250000e+01 -1.386695861816406250e+01 -2.693666378036141396e-03 8.195190429687500000e+00 2.457748889923095703e+00 -2.785822376608848572e-02
1.189000000000000000e+03 7.673764801025390625e+01 -1.524030971527099609e+01 -4.634929355233907700e-03 8.169156074523925781e+00 2.449356555938720703e+00 -4.104360938072204590e-02
1.190000000000000000e+03 7.807452392578125000e+01 -6.889830112457275391e+00 -7.215126533992588520e-04 8.091126441955566406e+00 2.427121400833129883e+00 -3.861446306109428406e-02
1.191000000000000000e+03 7.677312469482421875e+01 -8.256510734558105469e+00 -3.379230154678225517e-03 8.078850746154785156e+00 2.422641515731811523e+00 -5.688866600394248962e-02
1.192000000000000000e+03 7.806472778320312500e+01 1.481405019760131836e+00 -9.706073906272649765e-04 7.912689685821533203e+00 2.373515844345092773e+00 -5.518902093172073364e-02
1.193000000000000000e+03 7.676868438720703125e+01 -1.274855852127075195e+00 -6.948282010853290558e-03 7.953279972076416016e+00 2.383899450302124023e+00 -7.744923979043960571e-02
1.194000000000000000e+03 7.677448272705078125e+01 4.310113906860351562e+00 -7.514051627367734909e-03 7.823624134063720703e+00 2.344833135604858398e+00 -9.624710679054260254e-02
1.195000000000000000e+03 7.677282714843750000e+01 -5.475560665130615234e+00 -3.727204399183392525e-03 8.033422470092773438e+00 2.408908605575561523e+00 -6.437022238969802856e-02
1.196000000000000000e+03 7.677151489257812500e+01 -4.078340053558349609e+00 -6.505181081593036652e-03 8.008317947387695312e+00 2.400543928146362305e+00 -6.873537600040435791e-02
1.197000000000000000e+03 7.674483489990234375e+01 -1.384879970550537109e+01 -2.779786009341478348e-03 8.153579711914062500e+00 2.445240020751953125e+00 -4.361043497920036316e-02
1.198000000000000000e+03 7.676097869873046875e+01 -1.105315113067626953e+01 -3.224042942747473717e-03 8.118745803833007812e+00 2.434656620025634766e+00 -4.999552667140960693e-02
1.199000000000000000e+03 7.543654632568359375e+01 -9.648512840270996094e+00 -7.164372131228446960e-03 8.063680648803710938e+00 2.416954755783081055e+00 -7.168474793434143066e-02
1.200000000000000000e+03 7.671797943115234375e+01 -1.945845222473144531e+01 -1.489721005782485008e-03 8.210424423217773438e+00 2.462680578231811523e+00 -3.363993018865585327e-02
1.201000000000000000e+03 2.068238067626953125e+01 4.118454742431640625e+01 6.957941651344299316e-01 -3.275273740291595459e-01 1.104800403118133545e-01 2.776275873184204102e-01
1.202000000000000000e+03 2.227965927124023438e+01 5.750696182250976562e+00 1.352818757295608521e-01 6.840747833251953125e+00 2.092808961868286133e+00 3.272805213928222656e-01
1.203000000000000000e+03 2.359394645690917969e+01 1.000676918029785156e+01 -7.145596668124198914e-03 6.489224910736083984e+00 1.944623827934265137e+00 3.515630066394805908e-01
1.204000000000000000e+03 2.262854957580566406e+01 -2.540217399597167969e+01 -5.909672752022743225e-02 6.414553165435791016e+00 1.906636953353881836e+00 1.709757298231124878e-01
1.205000000000000000e+03 2.115864372253417969e+01 -2.254236030578613281e+01 -1.719268970191478729e-02 6.219134807586669922e+00 1.860582590103149414e+00 1.354046463966369629e-01
1.206000000000000000e+03 2.195668220520019531e+01 3.107679939270019531e+01 1.950166374444961548e-01 6.594740152359008789e-01 2.563472092151641846e-01 5.475630760192871094e-01
1.207000000000000000e+03 2.367053031921386719e+01 3.264840316772460938e+01 8.975687026977539062e-01 1.283024668693542480e+00 6.541780233383178711e-01 8.530140519142150879e-01
1.208000000000000000e+03 2.359521865844726562e+01 1.282285404205322266e+01 -4.358017817139625549e-02 6.222699642181396484e+00 1.853735804557800293e+00 4.010906517505645752e-01
1.209000000000000000e+03 1.205146503448486328e+01 -2.633414649963378906e+01 -1.046385709196329117e-02 -6.491608917713165283e-03 -5.086639896035194397e-03 1.670485711656510830e-03
1.210000000000000000e+03 2.290907096862792969e+01 3.121354484558105469e+01 4.407683908939361572e-01 1.400916934013366699e+00 5.525055527687072754e-01 8.938849568367004395e-01
1.211000000000000000e+03 2.211767768859863281e+01 2.682123184204101562e+01 -3.656537085771560669e-02 2.601270914077758789e+00 7.694116830825805664e-01 8.485738039016723633e-01
1.212000000000000000e+03 2.325167274475097656e+01 2.829733276367187500e+01 6.209364626556634903e-03 2.981036663055419922e+00 8.961738348007202148e-01 1.319757342338562012e+00
1.213000000000000000e+03 1.363364887237548828e+01 -6.614155769348144531e+00 3.819664008915424347e-03 3.625493845902383327e-04 1.254664035513997078e-03 -3.977171145379543304e-04
1.214000000000000000e+03 2.440289688110351562e+01 2.259342193603515625e+01 -2.470764964818954468e-01 5.133746623992919922e+00 1.466001033782958984e+00 1.111824274063110352e+00
1.215000000000000000e+03 2.323134231567382812e+01 2.679442787170410156e+01 -1.059025302529335022e-01 3.467620134353637695e+00 1.008515238761901855e+00 1.251722574234008789e+00
1.216000000000000000e+03 2.134650230407714844e+01 -2.827058219909667969e+01 3.238010033965110779e-02 6.417480945587158203e+00 1.934958338737487793e+00 1.584640741348266602e-01
1.217000000000000000e+03 2.215829467773437500e+01 2.260854339599609375e+01 -6.037893518805503845e-02 4.149577617645263672e+00 1.226759672164916992e+00 6.010369062423706055e-01
1.218000000000000000e+03 2.329109191894531250e+01 2.260717391967773438e+01 -1.502431780099868774e-01 4.623255252838134766e+00 1.341903686523437500e+00 9.006369113922119141e-01
1.219000000000000000e+03 2.335545730590820312e+01 2.123081207275390625e+01 -1.323481500148773193e-01 4.945050239562988281e+00 1.443810582160949707e+00 7.992734313011169434e-01
1.220000000000000000e+03 2.219666099548339844e+01 2.121681213378906250e+01 -5.877331271767616272e-02 4.554267406463623047e+00 1.348648190498352051e+00 5.296407341957092285e-01
1.221000000000000000e+03 2.467493247985839844e+01 1.847087860107421875e+01 -1.882760226726531982e-01 5.778639793395996094e+00 1.677109122276306152e+00 7.921915054321289062e-01
1.222000000000000000e+03 1.315983200073242188e+01 -1.599840354919433594e+01 -6.549617741256952286e-03 -9.844432352110743523e-04 -2.260218374431133270e-03 1.678005559369921684e-03
1.223000000000000000e+03 1.148381328582763672e+01 -1.825632858276367188e+01 5.093595013022422791e-03 1.928651705384254456e-03 2.106674015522003174e-03 -2.254030667245388031e-03
1.224000000000000000e+03 1.187864208221435547e+01 -1.569925594329833984e+01 5.374860949814319611e-03 1.717322855256497860e-03 2.127655083313584328e-03 -1.589131308719515800e-03
1.225000000000000000e+03 1.249413490295410156e+01 -9.216199874877929688e+00 -4.352416843175888062e-03 -5.086429882794618607e-04 -1.458317972719669342e-03 8.360099745914340019e-04
1.226000000000000000e+03 1.354855918884277344e+01 -9.264798164367675781e+00 4.750792402774095535e-03 3.966675431001931429e-04 1.544237951748073101e-03 -6.763853598386049271e-04
1.227000000000000000e+03 1.228772640228271484e+01 -1.179288291931152344e+01 -4.891524557024240494e-03 -6.239095819182693958e-04 -1.654630177654325962e-03 8.912584162317216396e-04
1.228000000000000000e+03 2.357857131958007812e+01 1.423085117340087891e+01 -6.224373728036880493e-02 6.068448543548583984e+00 1.801861405372619629e+00 4.423582255840301514e-01
1.229000000000000000e+03 2.355097389221191406e+01 1.563290309906005859e+01 -7.300946116447448730e-02 5.895013809204101562e+00 1.746601343154907227e+00 4.929333925247192383e-01
1.230000000000000000e+03 2.233710861206054688e+01 1.279808616638183594e+01 -1.942953653633594513e-02 6.115245342254638672e+00 1.828744769096374512e+00 2.571141123771667480e-01
1.231000000000000000e+03 2.360180091857910156e+01 1.141420936584472656e+01 -3.025570698082447052e-02 6.365031719207763672e+00 1.900432825088500977e+00 3.726238608360290527e-01
1.232000000000000000e+03 1.113772583007812500e+01 -1.946346664428710938e+01 -3.847101470455527306e-03 -3.269067092332988977e-04 -1.252202433533966541e-03 2.083434024825692177e-03
1.233000000000000000e+03 1.194648456573486328e+01 -2.401515197753906250e+01 -7.372383959591388702e-03 -5.036858376115560532e-03 -3.722772700712084770e-03 -4.239255096763372421e-03
1.234000000000000000e+03 2.232538986206054688e+01 8.575911521911621094e+00 1.051147002726793289e-02 6.596052169799804688e+00 1.981969118118286133e+00 2.292846888303756714e-01
1.235000000000000000e+03 2.353884506225585938e+01 7.193717956542968750e+00 7.781734317541122437e-02 6.683450222015380859e+00 2.028380393981933594e+00 3.588804900646209717e-01
1.236000000000000000e+03 2.310189056396484375e+01 -5.567400932312011719e+00 -9.392524510622024536e-02 6.655794143676757812e+00 1.968560576438903809e+00 2.546472251415252686e-01
1.237000000000000000e+03 2.318057823181152344e+01 -4.163965702056884766e+00 -4.023819789290428162e-02 6.629208087921142578e+00 1.976691007614135742e+00 2.552300393581390381e-01
1.238000000000000000e+03 3.131117820739746094e+00 3.087752342224121094e+01 -6.020335946232080460e-03 2.520364243537187576e-03 -1.049991580657660961e-03 -1.966687850654125214e-03
1.239000000000000000e+03 1.868538022041320801e+00 2.705862808227539062e+01 -4.475131165236234665e-03 3.814907104242593050e-04 -1.228092121891677380e-03 4.378946905490010977e-04
1.240000000000000000e+03 5.355407238006591797e+00 3.300805282592773438e+01 6.842780392616987228e-03 1.926212571561336517e-04 2.110620494931936264e-03 -8.568791672587394714e-03
1.241000000000000000e+03 2.171508789062500000e+00 3.544028854370117188e+01 -6.801628973335027695e-03 9.543088264763355255e-03 8.224379271268844604e-04 -3.030045656487345695e-03
1.242000000000000000e+03 3.021846532821655273e+00 2.394290542602539062e+01 4.924198612570762634e-03 1.074866624549031258e-03 1.799719524569809437e-03 -9.448731434531509876e-04
1.243000000000000000e+03 3.080054998397827148e+00 2.949155235290527344e+01 7.530685048550367355e-03 1.699159853160381317e-03 2.768953563645482063e-03 -4.536408931016921997e-03
1.244000000000000000e+03 5.819997310638427734e+00 3.674109268188476562e+01 -4.527930635958909988e-03 -5.796160548925399780e-03 -3.097227541729807854e-03 -6.938646081835031509e-03
1.245000000000000000e+03 2.045222282409667969e+00 3.408750534057617188e+01 6.491118576377630234e-03 7.287857122719287872e-03 4.133692476898431778e-03 -4.812396597117185593e-03
1.246000000000000000e+03 3.842128038406372070e+00 3.611903762817382812e+01 -7.821511477231979370e-03 3.566097468137741089e-03 -1.276624156162142754e-03 -6.494895089417695999e-03
1.247000000000000000e+03 3.326316595077514648e+00 3.374420547485351562e+01 -7.147238589823246002e-03 5.685870535671710968e-03 -4.384103522170335054e-04 -5.234268959611654282e-03
1.248000000000000000e+03 4.641705513000488281e+00 3.172826385498046875e+01 -3.082772484049201012e-03 -1.069397432729601860e-03 -1.245650928467512131e-03 -2.743512392044067383e-03
1.249000000000000000e+03 3.330235242843627930e+00 3.233228302001953125e+01 8.409709669649600983e-03 3.177728503942489624e-03 3.476231358945369720e-03 -5.340960808098316193e-03
1.250000000000000000e+03 4.075344085693359375e+00 -3.530997467041015625e+01 3.240139922127127647e-03 -6.219135597348213196e-03 -8.936987142078578472e-04 -2.712784148752689362e-02
1.251000000000000000e+03 3.862536668777465820e+00 -3.683538436889648438e+01 -3.348826663568615913e-03 -1.408544275909662247e-02 -5.230280570685863495e-03 -2.296026051044464111e-02
1.252000000000000000e+03 3.909829616546630859e+00 -3.380828475952148438e+01 -2.304092980921268463e-02 -8.744777878746390343e-04 -7.174622267484664917e-03 -1.773540116846561432e-02
1.253000000000000000e+03 3.416875600814819336e+00 -2.971812820434570312e+01 8.209719322621822357e-03 -6.071885218261741102e-05 2.444700105115771294e-03 -8.780987118370831013e-04
1.254000000000000000e+03 1.983382463455200195e+00 -2.867718124389648438e+01 9.660566225647926331e-03 5.262015038169920444e-04 3.056030254811048508e-03 5.102987051941454411e-04
1.255000000000000000e+03 1.763373970985412598e+00 2.159078216552734375e+01 -4.438578151166439056e-03 -2.375196345383301377e-04 -1.402829308062791824e-03 7.187370792962610722e-04
1.256000000000000000e+03 3.179322004318237305e+00 -1.889312171936035156e+01 7.172433659434318542e-03 5.556233227252960205e-04 2.318417187780141830e-03 1.896919449791312218e-03
1.257000000000000000e+03 3.049947738647460938e+00 -1.189186573028564453e+01 -4.063018597662448883e-03 -5.839618970640003681e-04 -1.394094200804829597e-03 -5.847607390023767948e-04
1.258000000000000000e+03 1.703124880790710449e+00 -9.195418357849121094e+00 3.423609072342514992e-03 1.726935151964426041e-04 1.078890752978622913e-03 9.010019857669249177e-05
1.259000000000000000e+03 3.232190847396850586e+00 1.730519294738769531e+01 -3.378218971192836761e-03 -5.897048395127058029e-04 -1.190377166494727135e-03 4.924943277728743851e-05
1.260000000000000000e+03 2.903833389282226562e+00 1.145465087890625000e+01 -2.646917710080742836e-03 -1.882836659206077456e-04 -8.505604346282780170e-04 8.965173037722706795e-04
1.261000000000000000e+03 1.877335190773010254e+00 -1.480255699157714844e+01 4.978665150701999664e-03 3.688952128868550062e-04 1.604268094524741173e-03 9.067829232662916183e-04
1.262000000000000000e+03 3.097479104995727539e+00 -1.330846309661865234e+01 4.633780103176832199e-03 5.949826445430517197e-04 1.568628824315965176e-03 9.674628963693976402e-04
1.263000000000000000e+03 3.799049377441406250e+00 5.265671253204345703e+00 -1.714039681246504188e-04 1.687273179413750768e-04 -8.029959985833556857e-07 -3.419444255996495485e-04
1.264000000000000000e+03 2.791761398315429688e+00 8.770705223083496094e+00 -2.429386135190725327e-03 -2.892720804084092379e-04 -8.155974792316555977e-04 7.305010803975164890e-04
1.265000000000000000e+03 1.922796964645385742e+00 1.451380634307861328e+01 3.080814145505428314e-03 5.363308446248993278e-05 9.403342264704406261e-04 -2.307752874912694097e-04
1.266000000000000000e+03 3.356993436813354492e+00 1.574952125549316406e+01 3.410718636587262154e-03 3.732065088115632534e-04 1.135177561081945896e-03 1.228631444973871112e-04
1.267000000000000000e+03 2.814195394515991211e+00 1.012627792358398438e+01 2.526333555579185486e-03 1.804624189389869571e-04 8.120387792587280273e-04 -7.049784762784838676e-04
1.268000000000000000e+03 5.789833545684814453e+00 -4.152537345886230469e+00 2.213231055065989494e-03 2.808794088196009398e-04 7.482331711798906326e-04 7.514902245020493865e-05
1.269000000000000000e+03 2.498691082000732422e+00 -5.143828868865966797e+00 2.635288750752806664e-03 3.614580782596021891e-04 8.990240166895091534e-04 -3.358905669301748276e-04
1.270000000000000000e+03 1.542491197586059570e+00 -6.443850994110107422e+00 3.099176101386547089e-03 -3.519815209074295126e-06 9.286968852393329144e-04 7.710635145485866815e-06
1.271000000000000000e+03 3.280177116394042969e+00 -2.836426544189453125e+01 -1.311395224183797836e-02 -8.489621104672551155e-04 -4.188874270766973495e-03 -3.251323010772466660e-03
1.272000000000000000e+03 3.154501914978027344e+00 -2.161505889892578125e+01 8.825128898024559021e-03 8.734617586014792323e-05 2.673742594197392464e-03 1.978640677407383919e-03
1.273000000000000000e+03 2.396802663803100586e+00 -3.558623123168945312e+01 -1.050666347146034241e-02 -2.176698856055736542e-02 -9.682095609605312347e-03 -1.800441369414329529e-02
1.274000000000000000e+03 3.130267858505249023e+00 -2.296629333496093750e+01 -8.961150422692298889e-03 1.231998467119410634e-04 -2.651385031640529633e-03 -6.715764757245779037e-04
1.275000000000000000e+03 3.140594720840454102e+00 -1.611440849304199219e+01 5.948184058070182800e-03 4.713713715318590403e-04 1.925866701640188694e-03 1.419667503796517849e-03
1.276000000000000000e+03 2.905086040496826172e+00 2.139772987365722656e+01 4.960838239639997482e-03 -1.203200517920777202e-04 1.452155527658760548e-03 -9.180891793221235275e-04
1.277000000000000000e+03 2.968299150466918945e+00 -1.048184776306152344e+01 3.790890565142035484e-03 5.454947822727262974e-04 1.300915610045194626e-03 3.953159030061215162e-04
1.278000000000000000e+03 2.846261024475097656e+00 -9.099023818969726562e+00 -3.565734252333641052e-03 -3.614206216298043728e-04 -1.178146456368267536e-03 -1.818063901737332344e-04
1.279000000000000000e+03 3.777473688125610352e+00 -3.240738677978515625e+01 5.448182579129934311e-03 -1.636972650885581970e-03 1.143362955190241337e-03 -7.269241381436586380e-03
1.280000000000000000e+03 1.894508957862854004e+00 -2.451667594909667969e+01 -9.532268159091472626e-03 8.967999601736664772e-04 -2.590640448033809662e-03 -8.104926091618835926e-04
1.281000000000000000e+03 4.356394290924072266e+00 -2.411671257019042969e+01 -9.079280309379100800e-03 -1.221101265400648117e-03 -3.090114565566182137e-03 -4.764709156006574631e-04
1.282000000000000000e+03 3.151817798614501953e+00 -2.565942764282226562e+01 -1.059135794639587402e-02 -9.987676457967609167e-05 -3.207370406016707420e-03 -1.100338646210730076e-03
1.283000000000000000e+03 3.123015403747558594e+00 -1.471689510345458984e+01 -5.141130182892084122e-03 -4.332482058089226484e-04 -1.672313548624515533e-03 -1.011911779642105103e-03
1.284000000000000000e+03 3.023141145706176758e+00 1.278578567504882812e+01 3.114762483164668083e-03 -1.562126853968948126e-04 8.875649655237793922e-04 -1.032397383823990822e-03
1.285000000000000000e+03 3.250747680664062500e+00 1.419659042358398438e+01 -3.616444533690810204e-03 3.690717567224055529e-04 -9.742117836140096188e-04 6.031351513229310513e-04
1.286000000000000000e+03 2.989800930023193359e+00 2.011065483093261719e+01 -3.900050185620784760e-03 -2.885138092096894979e-04 -1.256569172255694866e-03 8.369605639018118382e-04
1.287000000000000000e+03 2.930841684341430664e+00 2.265168571472167969e+01 -4.911483731120824814e-03 -6.497622962342575192e-05 -1.492937910370528698e-03 1.723473396850749850e-04
1.288000000000000000e+03 3.108579635620117188e+00 1.875056266784667969e+01 3.410926088690757751e-03 6.701686652377247810e-04 1.224328414537012577e-03 -3.641422663349658251e-04
1.289000000000000000e+03 2.345345878601074219e+01 2.939304828643798828e+00 8.586814999580383301e-02 6.766854286193847656e+00 2.055816650390625000e+00 2.579948306083679199e-01
1.290000000000000000e+03 2.305731773376464844e+01 -9.794968605041503906e+00 3.443571925163269043e-02 6.661502838134765625e+00 2.008781433105468750e+00 2.695375680923461914e-01
1.291000000000000000e+03 9.874412536621093750e+00 3.264421463012695312e+01 1.966684125363826752e-03 -8.636943064630031586e-03 -2.001077868044376373e-03 -7.225708570331335068e-03
1.292000000000000000e+03 1.199575996398925781e+01 2.283551025390625000e+01 -5.147448275238275528e-03 -7.470530108548700809e-04 -1.768350368365645409e-03 -4.415097646415233612e-04
1.293000000000000000e+03 1.609439277648925781e+01 3.676159667968750000e+01 1.020157895982265472e-02 4.550001758616417646e-04 3.196973819285631180e-03 7.392263505607843399e-04
1.294000000000000000e+03 1.375609302520751953e+01 3.557028961181640625e+01 -5.047837272286415100e-03 -1.967034116387367249e-02 -7.415453437715768814e-03 1.228177268058061600e-02
1.295000000000000000e+03 2.299589347839355469e+01 -1.561809349060058594e+01 4.358997195959091187e-02 6.520488262176513672e+00 1.969223380088806152e+00 1.887526810169219971e-01
1.296000000000000000e+03 2.305895805358886719e+01 -1.268824768066406250e+01 1.118741407990455627e-01 6.598670959472656250e+00 2.013163566589355469e+00 2.295030206441879272e-01
1.297000000000000000e+03 1.485555553436279297e+01 3.661246490478515625e+01 -1.112693082541227341e-02 -4.623150452971458435e-03 -4.725024104118347168e-03 -7.509301067329943180e-04
1.298000000000000000e+03 1.160643768310546875e+01 -3.515858840942382812e+01 -4.429393634200096130e-02 3.579256683588027954e-02 -2.550411270931363106e-03 5.994095653295516968e-02
1.299000000000000000e+03 9.539194107055664062e+00 -3.765045928955078125e+01 -1.372864656150341034e-02 8.125828951597213745e-02 2.025889419019222260e-02 -1.259151697158813477e-01
1.300000000000000000e+03 2.350609588623046875e+01 5.781003952026367188e+00 1.286057531833648682e-01 6.732759475708007812e+00 2.058409690856933594e+00 3.378080427646636963e-01
1.301000000000000000e+03 2.327729034423828125e+01 -2.743864297866821289e+00 -3.236463665962219238e-02 6.648819446563720703e+00 1.984936356544494629e+00 2.905252873897552490e-01
1.302000000000000000e+03 2.277874183654785156e+01 -1.991461372375488281e+01 -9.626659005880355835e-02 6.398115158081054688e+00 1.890554547309875488e+00 2.154472917318344116e-01
1.303000000000000000e+03 1.218825435638427734e+01 2.697358322143554688e+01 1.065048761665821075e-02 7.106704870238900185e-04 3.408347489312291145e-03 5.055736750364303589e-03
1.304000000000000000e+03 2.121079635620117188e+01 -2.115473747253417969e+01 -2.567102946341037750e-02 6.180441379547119141e+00 1.846431136131286621e+00 2.447734475135803223e-01
1.305000000000000000e+03 2.297052764892578125e+01 -2.833825111389160156e+01 1.691378466784954071e-02 6.444386005401611328e+00 1.938389897346496582e+00 1.925347149372100830e-01
1.306000000000000000e+03 2.426386451721191406e+01 -2.675560188293457031e+01 -1.975497417151927948e-02 6.471889019012451172e+00 1.935640215873718262e+00 1.879450529813766479e-01
1.307000000000000000e+03 2.115053749084472656e+01 -2.533768081665039062e+01 -3.704821318387985229e-02 6.289506912231445312e+00 1.875737667083740234e+00 1.701549738645553589e-01
1.308000000000000000e+03 2.146125030517578125e+01 -2.980405807495117188e+01 3.384115174412727356e-02 6.486715316772460938e+00 1.956166863441467285e+00 1.846872270107269287e-01
1.309000000000000000e+03 1.498330879211425781e+01 -4.040401077270507812e+01 4.402194917201995850e-01 4.936561286449432373e-01 2.801626920700073242e-01 -2.516247630119323730e-01
1.310000000000000000e+03 5.098337650299072266e+00 -4.050960159301757812e+01 2.092793583869934082e-02 -5.881728138774633408e-03 4.513862077146768570e-03 -2.892327494919300079e-02
1.311000000000000000e+03 8.037137031555175781e+00 -4.142494964599609375e+01 7.021631300449371338e-02 -2.248892001807689667e-02 1.431821752339601517e-02 -3.523837542161345482e-03
1.312000000000000000e+03 2.683178520202636719e+01 3.415006637573242188e+01 2.869495153427124023e+00 4.323410034179687500e+00 2.157871484756469727e+00 3.858990192413330078e+00
1.313000000000000000e+03 2.733826637268066406e+01 3.831005096435546875e+01 1.035054847598075867e-01 6.476417541503906250e+00 1.973976969718933105e+00 -2.991219758987426758e+00
1.314000000000000000e+03 2.771592140197753906e+01 3.326186370849609375e+01 1.234815597534179688e+00 8.703771591186523438e+00 2.981575965881347656e+00 3.902295589447021484e+00
1.315000000000000000e+03 2.439899635314941406e+01 3.298341369628906250e+01 1.250780940055847168e+00 1.579583048820495605e+00 8.491092324256896973e-01 1.200675845146179199e+00
1.316000000000000000e+03 2.590397071838378906e+01 3.827792358398437500e+01 3.132506608963012695e-01 1.676052331924438477e+00 5.967909097671508789e-01 -1.389893770217895508e+00
1.317000000000000000e+03 2.771576690673828125e+01 3.854950332641601562e+01 -1.408127695322036743e-01 7.723421096801757812e+00 2.274782419204711914e+00 -3.166177272796630859e+00
1.318000000000000000e+03 2.514216041564941406e+01 3.289229965209960938e+01 1.543340086936950684e+00 2.397095918655395508e+00 1.182130813598632812e+00 1.901085734367370605e+00
1.319000000000000000e+03 8.469752311706542969e+00 3.868253231048583984e+00 -1.029200386255979538e-03 -2.385077823419123888e-04 -3.803124709520488977e-04 -2.286011731484904885e-04
1.320000000000000000e+03 7.811178684234619141e+00 3.811353206634521484e+00 1.203451538458466530e-03 2.211946266470476985e-04 4.273938538972288370e-04 2.290078555233776569e-04
1.321000000000000000e+03 7.549103260040283203e+00 5.006287574768066406e+00 1.809407374821603298e-03 1.132872275775298476e-04 5.768084083683788776e-04 6.257678614929318428e-04
1.322000000000000000e+03 4.520066261291503906e+00 6.234714984893798828e+00 1.440835883840918541e-03 -1.546838757349178195e-04 3.858456038869917393e-04 7.194166537374258041e-04
1.323000000000000000e+03 2.393825292587280273e+00 4.564511299133300781e+00 1.467684749513864517e-03 2.412141184322535992e-04 5.126696778461337090e-04 -7.929479470476508141e-04
1.324000000000000000e+03 5.264325141906738281e+00 4.805533885955810547e+00 -1.863727578893303871e-03 -4.277802654542028904e-04 -6.874523824080824852e-04 6.570058176293969154e-04
1.325000000000000000e+03 3.137485980987548828e+00 3.518155813217163086e+00 1.365932257613167167e-04 1.095792627893388271e-03 3.697157662827521563e-04 -1.101973699405789375e-03
1.326000000000000000e+03 2.377794075012207031e+01 3.145167922973632812e+01 6.705330014228820801e-01 2.018749952316284180e+00 8.067848682403564453e-01 1.266108989715576172e+00
1.327000000000000000e+03 1.419821739196777344e+00 4.727033138275146484e+00 -1.183161279186606407e-03 -2.635756391100585461e-04 -4.340210871305316687e-04 5.634948611259460449e-04
1.328000000000000000e+03 1.079732227325439453e+01 3.560116529464721680e+00 -5.288539105094969273e-04 -5.416036001406610012e-04 -3.211372531950473785e-04 -4.675241943914443254e-04
1.329000000000000000e+03 1.018043422698974609e+01 5.146922111511230469e+00 -9.646169201005250216e-05 -3.901716554537415504e-04 -1.459900086047127843e-04 -9.706559358164668083e-04
1.330000000000000000e+03 1.001991558074951172e+01 -5.067102909088134766e+00 -1.064953627064824104e-03 -5.469738971441984177e-04 -4.835782456211745739e-04 6.561442278325557709e-04
1.331000000000000000e+03 1.018671226501464844e+01 -4.265217304229736328e+00 7.888243999332189560e-04 1.182390144094824791e-03 5.913643399253487587e-04 -7.234569638967514038e-04
1.332000000000000000e+03 1.176705265045166016e+01 -4.400840759277343750e+00 2.608240116387605667e-03 6.087445653975009918e-04 9.650954161770641804e-04 -1.267115236259996891e-03
1.333000000000000000e+03 7.267614841461181641e+00 -3.389766454696655273e+00 -1.483461586758494377e-03 -6.665321416221559048e-04 -6.449981010518968105e-04 -2.026159345405176282e-04
1.334000000000000000e+03 1.248413372039794922e+01 3.870156049728393555e+00 -1.089087687432765961e-03 -4.508933634497225285e-04 -4.619943210855126381e-04 -7.547815330326557159e-04
1.335000000000000000e+03 8.925070762634277344e+00 4.584462165832519531e+00 -1.056951470673084259e-03 2.187684731325134635e-05 -3.105223877355456352e-04 -3.578932664822787046e-04
1.336000000000000000e+03 4.500054359436035156e+00 -3.412031650543212891e+00 -6.273904000408947468e-04 -9.542846819385886192e-04 -4.745025071315467358e-04 -7.673956570215523243e-04
1.337000000000000000e+03 6.417439460754394531e+00 -5.030130863189697266e+00 1.631645485758781433e-03 1.113560982048511505e-03 8.235619170591235161e-04 8.250733953900635242e-04
1.338000000000000000e+03 4.050292491912841797e+00 -4.314216613769531250e+00 -1.366415526717901230e-03 -7.289825007319450378e-04 -6.286193965934216976e-04 -2.149356761947274208e-03
1.339000000000000000e+03 8.006109237670898438e+00 -3.393233537673950195e+00 1.333948224782943726e-03 7.797688012942671776e-04 6.341151311062276363e-04 7.719607674516737461e-05
1.340000000000000000e+03 3.779385089874267578e+00 -7.626340389251708984e+00 -3.390578785911202431e-03 -2.054310753010213375e-04 -1.078802975825965405e-03 -4.912761505693197250e-04
1.341000000000000000e+03 3.400352239608764648e+00 -4.411506652832031250e+00 3.213745541870594025e-03 -1.905971294036135077e-04 9.069445077329874039e-04 1.766956876963376999e-03
1.342000000000000000e+03 3.573951482772827148e+00 -6.387103080749511719e+00 2.902423497289419174e-03 2.660709142219275236e-04 9.505482739768922329e-04 5.977831315249204636e-04
1.343000000000000000e+03 2.556210279464721680e+00 -6.439269065856933594e+00 -3.194195218384265900e-03 -8.712826820556074381e-05 -9.843970183283090591e-04 6.022521847626194358e-05
1.344000000000000000e+03 1.267329120635986328e+01 -4.257696151733398438e+00 -3.001098288223147392e-03 -4.346166388131678104e-04 -1.030714483931660652e-03 3.303437551949173212e-04
1.345000000000000000e+03 1.176902294158935547e+01 -3.472884416580200195e+00 -2.886476460844278336e-03 -3.368420584592968225e-04 -9.669956052675843239e-04 1.362442853860557079e-03
1.346000000000000000e+03 2.401952934265136719e+01 3.986065292358398438e+01 9.924464821815490723e-01 1.699195802211761475e-01 3.487098217010498047e-01 6.448758840560913086e-01
1.347000000000000000e+03 2.463407135009765625e+01 4.134257888793945312e+01 1.048780441284179688e+00 1.612542629241943359e+00 7.983968853950500488e-01 5.710835456848144531e-01
1.348000000000000000e+03 1.252431583404541016e+01 -3.350288629531860352e+00 3.865400794893503189e-03 -2.044513094006106257e-04 1.098284847103059292e-03 7.752256351523101330e-05
1.349000000000000000e+03 2.830159568786621094e+01 3.296421432495117188e+01 5.267583131790161133e-01 1.037695217132568359e+01 3.271113157272338867e+00 3.166738748550415039e+00
1.350000000000000000e+03 2.696621131896972656e+01 4.052634429931640625e+01 7.010295242071151733e-02 6.040016651153564453e+00 1.833035945892333984e+00 -1.886967539787292480e+00
1.351000000000000000e+03 2.533139038085937500e+01 3.957168197631835938e+01 5.035226345062255859e-01 2.495666265487670898e+00 8.997566699981689453e-01 -6.657729148864746094e-01
1.352000000000000000e+03 1.215879058837890625e+01 -1.309706878662109375e+01 5.236852448433637619e-03 8.385517285205423832e-04 1.822621328756213188e-03 -1.039801049046218395e-03
1.353000000000000000e+03 1.202164077758789062e+01 -1.439887142181396484e+01 -5.253167357295751572e-03 -1.162252505309879780e-03 -1.924625947140157223e-03 1.044487697072327137e-03
1.354000000000000000e+03 2.898337745666503906e+01 3.272732162475585938e+01 2.481551319360733032e-01 1.117430591583251953e+01 3.426738500595092773e+00 2.155134916305541992e+00
1.355000000000000000e+03 1.260838127136230469e+01 -6.671478271484375000e+00 -3.409189870581030846e-03 -5.879303207620978355e-04 -1.199136022478342056e-03 6.410810747183859348e-04
1.356000000000000000e+03 1.256277275085449219e+01 -7.938478469848632812e+00 3.854153910651803017e-03 5.416272906586527824e-04 1.318734372034668922e-03 -7.816508878022432327e-04
1.357000000000000000e+03 2.627209472656250000e+01 3.294699859619140625e+01 1.705781340599060059e+00 4.364068031311035156e+00 1.820954799652099609e+00 3.065613985061645508e+00
1.358000000000000000e+03 1.225996971130371094e+01 7.879265785217285156e+00 2.618181519210338593e-03 1.397373271174728870e-04 8.273756247945129871e-04 3.538133169058710337e-04
1.359000000000000000e+03 2.945582771301269531e+01 3.830023193359375000e+01 -3.949421346187591553e-01 1.346067428588867188e+01 3.919719457626342773e+00 5.615782737731933594e-01
1.360000000000000000e+03 2.484235191345214844e+01 1.366726905107498169e-01 -1.033240091055631638e-02 6.776714324951171875e+00 2.029914617538452148e+00 2.686542868614196777e-01
1.361000000000000000e+03 2.469079208374023438e+01 -2.787252902984619141e+00 -4.138443991541862488e-02 6.731280803680419922e+00 2.006968975067138672e+00 2.634687721729278564e-01
1.362000000000000000e+03 2.439951896667480469e+01 -1.864063072204589844e+01 -7.999610155820846558e-02 6.540407180786132812e+00 1.938123226165771484e+00 1.569706499576568604e-01
1.363000000000000000e+03 2.433447837829589844e+01 -2.006887626647949219e+01 -8.898678421974182129e-02 6.530612945556640625e+00 1.932487845420837402e+00 1.797914952039718628e-01
1.364000000000000000e+03 2.473933601379394531e+01 3.017127752304077148e+00 7.707218080759048462e-02 6.764827728271484375e+00 2.052570104598999023e+00 2.901974618434906006e-01
1.365000000000000000e+03 2.445968818664550781e+01 -1.719104385375976562e+01 -3.441676869988441467e-02 6.567523002624511719e+00 1.959931850433349609e+00 1.652104556560516357e-01
1.366000000000000000e+03 2.305146980285644531e+01 -8.372076034545898438e+00 -7.122027687728404999e-03 6.613238334655761719e+00 1.981835007667541504e+00 2.841528654098510742e-01
1.367000000000000000e+03 2.445796394348144531e+01 -5.629731178283691406e+00 -5.574867874383926392e-02 6.706070423126220703e+00 1.995096445083618164e+00 2.713051140308380127e-01
1.368000000000000000e+03 1.334486293792724609e+01 -1.330446338653564453e+01 -5.903106182813644409e-03 -5.713163409382104874e-04 -1.942326780408620834e-03 1.054338761605322361e-03
1.369000000000000000e+03 2.450977325439453125e+01 -1.274431800842285156e+01 6.036346405744552612e-02 6.626918792724609375e+00 2.006184816360473633e+00 2.236520349979400635e-01
1.370000000000000000e+03 1.077424240112304688e+01 2.556978988647460938e+01 7.737962529063224792e-03 1.313328975811600685e-03 2.715387381613254547e-03 3.445780137553811073e-03
1.371000000000000000e+03 5.157339096069335938e+00 1.076525878906250000e+01 -1.367511227726936340e-03 8.173095557140186429e-05 -3.857340780086815357e-04 8.730979170650243759e-04
1.372000000000000000e+03 1.221396350860595703e+01 9.083932876586914062e+00 -2.790538826957345009e-03 -1.786799548426643014e-04 -8.907656301744282246e-04 -6.940729799680411816e-04
1.373000000000000000e+03 9.511728286743164062e+00 1.993869972229003906e+01 -3.459961153566837311e-03 -5.904760910198092461e-04 -1.215131254866719246e-03 2.068998292088508606e-04
1.374000000000000000e+03 7.542243194580078125e+01 1.401956367492675781e+01 -8.877377025783061981e-03 7.550940990447998047e+00 2.262619018554687500e+00 -1.691236793994903564e-01
1.375000000000000000e+03 7.543901062011718750e+01 1.400914192199707031e-01 -1.215630397200584412e-02 7.902753353118896484e+00 2.367179155349731445e+00 -1.098768785595893860e-01
1.376000000000000000e+03 7.408914184570312500e+01 -5.489118099212646484e+00 -1.370716746896505356e-02 7.975698471069335938e+00 2.388597488403320312e+00 -1.064241379499435425e-01
1.377000000000000000e+03 7.544798278808593750e+01 -6.864016532897949219e+00 -7.583152037113904953e-03 8.024916648864746094e+00 2.405200242996215820e+00 -8.102818578481674194e-02
1.378000000000000000e+03 7.544935607910156250e+01 -2.668129682540893555e+00 -1.163039728999137878e-02 7.956179141998291016e+00 2.383364677429199219e+00 -9.774318337440490723e-02
1.379000000000000000e+03 7.409993743896484375e+01 -4.086238861083984375e+00 -1.718799583613872528e-02 7.955125331878662109e+00 2.381381273269653320e+00 -1.134704500436782837e-01
1.380000000000000000e+03 7.407728576660156250e+01 -8.261711120605468750e+00 -1.235790736973285675e-02 8.012467384338378906e+00 2.400032758712768555e+00 -9.419992566108703613e-02
1.381000000000000000e+03 7.538419342041015625e+01 -1.524881172180175781e+01 -5.759057588875293732e-03 8.127593040466308594e+00 2.436550140380859375e+00 -5.489835143089294434e-02
1.382000000000000000e+03 7.676446533203125000e+01 1.515906453132629395e+00 -7.237583398818969727e-03 7.891827583312988281e+00 2.365376949310302734e+00 -8.681266009807586670e-02
1.383000000000000000e+03 7.543883514404296875e+01 1.533968806266784668e+00 -9.705382399260997772e-03 7.874441623687744141e+00 2.359421014785766602e+00 -1.157961413264274597e-01
1.384000000000000000e+03 7.550807952880859375e+01 7.114006519317626953e+00 -9.515297599136829376e-03 7.744204998016357422e+00 2.320406913757324219e+00 -1.400177031755447388e-01
1.385000000000000000e+03 7.542803955078125000e+01 -1.104784297943115234e+01 -9.383621625602245331e-03 8.081423759460449219e+00 2.421612024307250977e+00 -6.747023761272430420e-02
1.386000000000000000e+03 7.675201416015625000e+01 -1.245411014556884766e+01 -5.330840125679969788e-03 8.136857986450195312e+00 2.439458131790161133e+00 -4.693949595093727112e-02
1.387000000000000000e+03 7.541233062744140625e+01 -1.245129013061523438e+01 -6.717055570334196091e-03 8.097761154174804688e+00 2.427313327789306641e+00 -6.277838349342346191e-02
1.388000000000000000e+03 7.212978363037109375e+01 3.427027893066406250e+01 7.516340911388397217e-02 7.161870479583740234e+00 2.171110153198242188e+00 -1.526583582162857056e-01
1.389000000000000000e+03 7.556355285644531250e+01 3.566592407226562500e+01 4.178012907505035400e-02 6.956535816192626953e+00 2.099494695663452148e+00 -8.542459458112716675e-02
1.390000000000000000e+03 7.681771087646484375e+01 3.063525009155273438e+01 1.095909345895051956e-02 6.970849037170410156e+00 2.094542503356933594e+00 -9.875453263521194458e-02
1.391000000000000000e+03 7.667619323730468750e+01 3.206845474243164062e+01 1.086474675685167313e-02 6.951622486114501953e+00 2.088746070861816406e+00 -9.458831697702407837e-02
1.392000000000000000e+03 7.536579895019531250e+01 -1.808172416687011719e+01 -4.506321158260107040e-03 8.153271675109863281e+00 2.444629430770874023e+00 -4.816830903291702271e-02
1.393000000000000000e+03 7.546934509277343750e+01 4.329298973083496094e+00 -9.982408024370670319e-03 7.812714576721191406e+00 2.340819597244262695e+00 -1.279510110616683960e-01
1.394000000000000000e+03 7.549325561523437500e+01 5.724537372589111328e+00 -1.273730769753456116e-02 7.779329776763916016e+00 2.329977750778198242e+00 -1.342482268810272217e-01
1.395000000000000000e+03 7.409413909912109375e+01 2.952048778533935547e+00 -1.681258901953697205e-02 7.832621574401855469e+00 2.344742774963378906e+00 -1.502759456634521484e-01
1.396000000000000000e+03 7.679492187500000000e+01 8.496143341064453125e+00 -4.164824262261390686e-03 7.707450866699218750e+00 2.310985803604125977e+00 -1.100253164768218994e-01
1.397000000000000000e+03 7.550363922119140625e+01 9.878349304199218750e+00 -8.518994785845279694e-03 7.670179367065429688e+00 2.298498153686523438e+00 -1.521346718072891235e-01
1.398000000000000000e+03 7.537219238281250000e+01 -1.665769386291503906e+01 -7.082631345838308334e-03 8.140944480895996094e+00 2.440158605575561523e+00 -5.179614201188087463e-02
1.399000000000000000e+03 7.537315368652343750e+01 -1.951736640930175781e+01 -6.155831273645162582e-03 8.165617942810058594e+00 2.447838544845581055e+00 -4.554438963532447815e-02
1.400000000000000000e+03 7.671573638916015625e+01 -1.804882621765136719e+01 -4.070489667356014252e-03 8.197159767150878906e+00 2.457926750183105469e+00 -3.634637594223022461e-02
1.401000000000000000e+03 7.548327636718750000e+01 1.125340747833251953e+01 -1.089323125779628754e-02 7.631712913513183594e+00 2.286245822906494141e+00 -1.578877717256546021e-01
1.402000000000000000e+03 7.420811462402343750e+01 9.836521148681640625e+00 -1.734078489243984222e-02 7.678332328796386719e+00 2.298297405242919922e+00 -1.856719404458999634e-01
1.403000000000000000e+03 7.512979125976562500e+01 -2.953579330444335938e+01 -5.520029459148645401e-03 8.220308303833007812e+00 2.464436531066894531e+00 -2.556104026734828949e-02
1.404000000000000000e+03 7.454124450683593750e+01 -2.371914672851562500e+01 -7.402901072055101395e-03 8.167971611022949219e+00 2.448170661926269531e+00 -4.346808791160583496e-02
1.405000000000000000e+03 7.670765686035156250e+01 1.683242034912109375e+01 -1.038099755533039570e-03 7.436771869659423828e+00 2.230720281600952148e+00 -1.340236663818359375e-01
1.406000000000000000e+03 7.526934051513671875e+01 1.820359039306640625e+01 -1.636689179576933384e-03 7.425234794616699219e+00 2.227079391479492188e+00 -1.828553378582000732e-01
1.407000000000000000e+03 7.510517883300781250e+01 2.113793182373046875e+01 4.774023778736591339e-03 7.339596748352050781e+00 2.203311204910278320e+00 -1.909208446741104126e-01
1.408000000000000000e+03 7.519236755371093750e+01 1.964708518981933594e+01 -1.986692193895578384e-03 7.383281230926513672e+00 2.214388370513916016e+00 -1.861277967691421509e-01
1.409000000000000000e+03 7.391152191162109375e+01 1.669067955017089844e+01 -6.732831243425607681e-03 7.501689910888671875e+00 2.248487234115600586e+00 -2.202831208705902100e-01
1.410000000000000000e+03 7.554804229736328125e+01 -2.491761016845703125e+01 -6.260436493903398514e-03 8.209014892578125000e+00 2.460826396942138672e+00 -3.483299538493156433e-02
1.411000000000000000e+03 7.662561035156250000e+01 -2.641715049743652344e+01 -4.993965849280357361e-03 8.257961273193359375e+00 2.475890159606933594e+00 -2.596713230013847351e-02
1.412000000000000000e+03 7.405786895751953125e+01 -2.603296470642089844e+01 -9.707966819405555725e-03 8.164910316467285156e+00 2.446560621261596680e+00 -3.959592431783676147e-02
1.413000000000000000e+03 7.304846191406250000e+01 2.802997589111328125e+01 3.318201005458831787e-02 7.233043670654296875e+00 2.179867744445800781e+00 -2.168850153684616089e-01
1.414000000000000000e+03 7.320513153076171875e+01 2.461994552612304688e+01 1.680392771959304810e-02 7.313485622406005859e+00 2.199086904525756836e+00 -2.343649417161941528e-01
1.415000000000000000e+03 7.670255279541015625e+01 2.648136520385742188e+01 5.660162772983312607e-03 7.106620788574218750e+00 2.133684396743774414e+00 -1.250529289245605469e-01
1.416000000000000000e+03 7.511074066162109375e+01 2.772871589660644531e+01 1.431949343532323837e-02 7.145810127258300781e+00 2.148038864135742188e+00 -1.605577468872070312e-01
1.417000000000000000e+03 7.668323516845703125e+01 2.937730598449707031e+01 1.211327221244573593e-02 7.022891521453857422e+00 2.110501527786254883e+00 -1.148202940821647644e-01
1.418000000000000000e+03 7.278411102294921875e+01 -2.916306495666503906e+01 -1.480695791542530060e-02 8.130760192871093750e+00 2.434786081314086914e+00 -3.779298812150955200e-02
1.419000000000000000e+03 7.416702270507812500e+01 -3.507331466674804688e+01 -1.115604396909475327e-02 8.198273658752441406e+00 2.456135272979736328e+00 -1.788222603499889374e-02
1.420000000000000000e+03 7.618322753906250000e+01 -3.641301345825195312e+01 -1.061321701854467392e-02 8.298669815063476562e+00 2.486416816711425781e+00 -3.973731771111488342e-03
1.421000000000000000e+03 7.454692077636718750e+01 3.349360275268554688e+01 3.849236667156219482e-02 7.055626869201660156e+00 2.128235816955566406e+00 -1.252236962318420410e-01
1.422000000000000000e+03 7.563565826416015625e+01 3.015238952636718750e+01 1.845232397317886353e-02 7.058334350585937500e+00 2.123035907745361328e+00 -1.328449249267578125e-01
1.423000000000000000e+03 7.682617950439453125e+01 -3.200294876098632812e+01 -5.155200604349374771e-03 8.293055534362792969e+00 2.486370086669921875e+00 -1.335068140178918839e-02
1.424000000000000000e+03 7.554129791259765625e+01 -3.086096763610839844e+01 -8.046321570873260498e-03 8.239420890808105469e+00 2.469412326812744141e+00 -2.254623360931873322e-02
1.425000000000000000e+03 7.403318786621093750e+01 -3.312598419189453125e+01 -9.538819082081317902e-03 8.196173667907714844e+00 2.455990314483642578e+00 -2.121705748140811920e-02
1.426000000000000000e+03 7.563382720947265625e+01 -3.487076950073242188e+01 -1.146903913468122482e-02 8.267251968383789062e+00 2.476734876632690430e+00 -1.711281761527061462e-02
1.427000000000000000e+03 2.485721397399902344e+01 1.143011188507080078e+01 -5.305342748761177063e-02 6.457898139953613281e+00 1.921453356742858887e+00 4.755779802799224854e-01
1.428000000000000000e+03 1.267829895019531250e+01 -2.239919281005859375e+01 -1.017384510487318039e-02 -1.220576930791139603e-03 -3.418326377868652344e-03 -5.761529784649610519e-03
1.429000000000000000e+03 1.252033233642578125e+01 -2.009425354003906250e+01 5.871880333870649338e-03 8.016932406462728977e-04 2.002072054892778397e-03 -4.234618972986936569e-03
1.430000000000000000e+03 2.304189872741699219e+01 -1.415669536590576172e+01 7.142069190740585327e-02 6.598763465881347656e+00 2.001055240631103516e+00 2.144943922758102417e-01
1.431000000000000000e+03 2.452517509460449219e+01 -1.423576068878173828e+01 6.155761331319808960e-02 6.588471889495849609e+00 1.995008826255798340e+00 1.789357662200927734e-01
1.432000000000000000e+03 2.606576728820800781e+01 8.649601936340332031e+00 -1.366373058408498764e-02 6.678842067718505859e+00 1.999553442001342773e+00 4.710452258586883545e-01
1.433000000000000000e+03 2.484833526611328125e+01 1.284371280670166016e+01 -8.484901487827301025e-02 6.353590488433837891e+00 1.880622506141662598e+00 5.171023607254028320e-01
1.434000000000000000e+03 5.623166084289550781e+00 -2.516303062438964844e+01 -9.592950344085693359e-03 -1.802595099434256554e-03 -3.418663749471306801e-03 -2.580397296696901321e-03
1.435000000000000000e+03 1.200185871124267578e+01 -2.881673049926757812e+01 -1.683172956109046936e-02 -7.938218303024768829e-03 -7.430984638631343842e-03 7.652963045984506607e-03
1.436000000000000000e+03 2.665309333801269531e+01 3.164221000671386719e+01 7.429264187812805176e-01 5.990056991577148438e+00 2.019895076751708984e+00 2.927236557006835938e+00
1.437000000000000000e+03 2.548079299926757812e+01 2.259021949768066406e+01 -3.652074933052062988e-01 5.647017002105712891e+00 1.584542870521545410e+00 1.245731472969055176e+00
1.438000000000000000e+03 2.450041961669921875e+01 2.123966217041015625e+01 -2.363996654748916626e-01 5.374427795410156250e+00 1.541408419609069824e+00 9.975067973136901855e-01
1.439000000000000000e+03 2.482051849365234375e+01 1.425279998779296875e+01 -1.061220541596412659e-01 6.232017517089843750e+00 1.837768673896789551e+00 5.672820806503295898e-01
1.440000000000000000e+03 2.347717666625976562e+01 1.844692039489746094e+01 -1.044588834047317505e-01 5.479848861694335938e+00 1.612617015838623047e+00 6.263539195060729980e-01
1.441000000000000000e+03 2.459750938415527344e+01 1.986874961853027344e+01 -2.101274579763412476e-01 5.588304042816162109e+00 1.613452911376953125e+00 8.885031938552856445e-01
1.442000000000000000e+03 2.473258209228515625e+01 1.705990409851074219e+01 -1.565077602863311768e-01 5.949494361877441406e+00 1.737896084785461426e+00 7.052051424980163574e-01
1.443000000000000000e+03 9.181673049926757812e+00 -1.631041145324707031e+01 -3.962074872106313705e-03 -2.261354820802807808e-03 -1.867029001004993916e-03 -1.387310294376220554e-05
1.444000000000000000e+03 1.021763134002685547e+01 -1.782838249206542969e+01 -4.257437307387590408e-03 -1.810648362152278423e-03 -1.820425735786557198e-03 8.484476711601018906e-04
1.445000000000000000e+03 2.356879806518554688e+01 8.599459648132324219e+00 1.602497138082981110e-02 6.612123012542724609e+00 1.988444328308105469e+00 3.506297171115875244e-01
1.446000000000000000e+03 2.476279449462890625e+01 7.229070663452148438e+00 5.770705640316009521e-02 6.680218219757080078e+00 2.021377563476562500e+00 3.975391685962677002e-01
1.447000000000000000e+03 8.708372116088867188e+00 -7.527328968048095703e+00 -1.570960972458124161e-03 -6.951002433197572827e-05 -4.921412910334765911e-04 -7.957881898619234562e-04
1.448000000000000000e+03 2.322231101989746094e+01 2.537125396728515625e+01 -1.479956060647964478e-01 3.887668609619140625e+00 1.121901869773864746e+00 1.133468031883239746e+00
1.449000000000000000e+03 2.435053825378417969e+01 2.669284248352050781e+01 -2.087189108133316040e-01 4.347132682800292969e+00 1.241524219512939453e+00 1.528921723365783691e+00
1.450000000000000000e+03 2.433135414123535156e+01 2.393972015380859375e+01 -2.668371200561523438e-01 4.874658584594726562e+00 1.382346510887145996e+00 1.237927317619323730e+00
1.451000000000000000e+03 2.472665214538574219e+01 5.832440853118896484e+00 1.040404960513114929e-01 6.709785461425781250e+00 2.044147729873657227e+00 3.683148026466369629e-01
1.452000000000000000e+03 1.057656574249267578e+01 -2.058586883544921875e+01 9.640795178711414337e-04 -2.114178612828254700e-03 -3.450297517701983452e-04 -4.906167741864919662e-03
1.453000000000000000e+03 3.160742521286010742e+00 -1.750628852844238281e+01 -6.213759537786245346e-03 -3.877914568874984980e-04 -1.980465371161699295e-03 -1.083553885109722614e-03
1.454000000000000000e+03 4.359173297882080078e+00 -1.464288997650146484e+01 5.548887420445680618e-03 6.841574213467538357e-04 1.869913423433899879e-03 1.502225408330559731e-03
1.455000000000000000e+03 4.066224098205566406e+00 2.235070800781250000e+01 5.955519154667854309e-03 -4.652703064493834972e-04 1.647074590437114239e-03 -1.297832932323217392e-03
1.456000000000000000e+03 4.269800186157226562e+00 2.356399917602539062e+01 -3.870047396048903465e-03 -9.655177127569913864e-04 -1.450669486075639725e-03 -4.236073582433164120e-04
1.457000000000000000e+03 4.396231174468994141e+00 -1.741776466369628906e+01 7.163863163441419601e-03 3.160728956572711468e-04 2.243980765342712402e-03 1.834815600886940956e-03
1.458000000000000000e+03 4.369846343994140625e+00 -1.603528785705566406e+01 -6.095020100474357605e-03 -5.727760726585984230e-04 -2.000338863581418991e-03 -1.465135486796498299e-03
1.459000000000000000e+03 5.564698696136474609e+00 2.753980827331542969e+01 -1.484342967160046101e-03 -3.576187416911125183e-03 -1.518159173429012299e-03 4.773988330271095037e-04
1.460000000000000000e+03 6.702502250671386719e+00 2.719775390625000000e+01 5.253161769360303879e-03 1.940153655596077442e-03 2.157994545996189117e-03 -2.582123968750238419e-03
1.461000000000000000e+03 3.098500490188598633e+00 2.670751190185546875e+01 5.484828259795904160e-03 1.712716417387127876e-03 2.159263473004102707e-03 -2.433538436889648438e-03
1.462000000000000000e+03 4.220043182373046875e+00 3.047379875183105469e+01 8.462283760309219360e-03 9.540492901578545570e-04 2.824899740517139435e-03 -5.754322279244661331e-03
1.463000000000000000e+03 4.538178920745849609e+00 -2.799981498718261719e+01 8.408794179558753967e-03 5.405645933933556080e-04 2.684807637706398964e-03 1.424678019247949123e-03
1.464000000000000000e+03 3.130542755126953125e+00 -2.431706428527832031e+01 9.615335613489151001e-03 3.398570406716316938e-04 2.986557781696319580e-03 2.019389299675822258e-03
1.465000000000000000e+03 4.329789638519287109e+00 -2.282318496704101562e+01 9.536184370517730713e-03 -6.287560681812465191e-04 2.672228496521711349e-03 1.110498327761888504e-03
1.466000000000000000e+03 4.350224494934082031e+00 1.877886962890625000e+01 -2.712320769205689430e-03 -1.179164508357644081e-03 -1.167445559985935688e-03 -2.594069519545882940e-04
1.467000000000000000e+03 4.171395301818847656e+00 2.011938476562500000e+01 3.151997458189725876e-03 9.905952028930187225e-04 1.242777798324823380e-03 -4.275456885807216167e-04
1.468000000000000000e+03 4.504839897155761719e+00 1.734257888793945312e+01 2.729809377342462540e-03 1.365505624562501907e-03 1.228594454005360603e-03 9.297873475588858128e-04
1.469000000000000000e+03 4.452751159667968750e+00 -2.019685745239257812e+01 8.306115865707397461e-03 -1.751860254444181919e-04 2.439278876408934593e-03 2.157870214432477951e-03
1.470000000000000000e+03 4.445201873779296875e+00 -1.880771827697753906e+01 -6.979731377214193344e-03 -7.149460725486278534e-04 -2.308403141796588898e-03 -1.177086145617067814e-03
1.471000000000000000e+03 4.306649684906005859e+00 2.641086959838867188e+01 -3.704721806570887566e-03 -1.379789318889379501e-03 -1.525353407487273216e-03 -1.952098245965316892e-04
1.472000000000000000e+03 4.289718151092529297e+00 2.499619483947753906e+01 5.206915549933910370e-03 1.585334655828773975e-03 2.037675119936466217e-03 -1.346416887827217579e-03
1.473000000000000000e+03 9.814149856567382812e+00 -2.371102523803710938e+01 -2.624462358653545380e-03 -4.986793268471956253e-03 -2.283376641571521759e-03 3.476736601442098618e-03
1.474000000000000000e+03 4.384858131408691406e+00 -2.540911483764648438e+01 9.052022360265254974e-03 -4.573123442241922021e-05 2.701887162402272224e-03 2.371451584622263908e-03
1.475000000000000000e+03 4.452957630157470703e+00 1.360440158843994141e+01 1.920172944664955139e-03 -7.675334345549345016e-04 3.457918355707079172e-04 -1.456888159736990929e-03
1.476000000000000000e+03 5.269344329833984375e+00 1.440325736999511719e+01 6.594289443455636501e-04 1.279714168049395084e-03 5.817429046146571636e-04 2.478835405781865120e-03
1.477000000000000000e+03 4.191710948944091797e+00 -1.033961296081542969e+01 -3.689360572025179863e-03 -8.759826887398958206e-04 -1.369602978229522705e-03 -5.095047526992857456e-04
1.478000000000000000e+03 4.010527610778808594e+00 -8.946554183959960938e+00 3.684557508677244186e-03 5.253598792478442192e-04 1.262975158169865608e-03 3.573384601622819901e-04
1.479000000000000000e+03 4.342553615570068359e+00 -1.322474575042724609e+01 -4.669305402785539627e-03 -8.301943889819085598e-04 -1.649849931709468365e-03 -1.053616637364029884e-03
1.480000000000000000e+03 4.212856292724609375e+00 2.926493644714355469e+01 -5.300545133650302887e-03 1.270806766115128994e-03 -1.208921428769826889e-03 -1.294408924877643585e-03
1.481000000000000000e+03 5.087606906890869141e+00 3.529726028442382812e+01 5.052233580499887466e-03 4.121850710362195969e-03 2.752225147560238838e-03 -7.195930927991867065e-03
1.482000000000000000e+03 3.400082111358642578e+00 3.495098876953125000e+01 8.194814436137676239e-03 5.105406977236270905e-03 3.990066237747669220e-03 -5.889109801501035690e-03
1.483000000000000000e+03 3.597058534622192383e+00 -3.106235122680664062e+01 -1.807087287306785583e-02 -2.367350738495588303e-03 -6.131466943770647049e-03 -8.937601000070571899e-03
1.484000000000000000e+03 4.749846458435058594e+00 -2.928140258789062500e+01 -1.686398684978485107e-02 -2.502483315765857697e-03 -5.809940863400697708e-03 -6.031096912920475006e-03
1.485000000000000000e+03 4.292815685272216797e+00 -1.178275871276855469e+01 4.160347860306501389e-03 9.060879237949848175e-04 1.519930665381252766e-03 8.912559133023023605e-04
1.486000000000000000e+03 5.560569286346435547e+00 -6.015016078948974609e+00 2.563297050073742867e-03 5.545237800106406212e-04 9.353462955914437771e-04 1.505644642747938633e-03
1.487000000000000000e+03 4.094520568847656250e+00 1.119538688659667969e+01 2.526441821828484535e-03 1.592024054843932390e-04 8.056932711042463779e-04 -6.467677303589880466e-04
1.488000000000000000e+03 5.750058174133300781e+00 3.079665565490722656e+01 5.758488085120916367e-03 6.744500715285539627e-04 1.929881516844034195e-03 -5.585110280662775040e-03
1.489000000000000000e+03 5.405199050903320312e+00 -3.191279983520507812e+01 -2.691705152392387390e-02 6.195958121679723263e-04 -7.889237254858016968e-03 -1.436377968639135361e-02
1.490000000000000000e+03 2.831546068191528320e+00 7.329602241516113281e+00 1.988894538953900337e-03 5.072364583611488342e-04 7.488392875529825687e-04 -6.460723234340548515e-04
1.491000000000000000e+03 3.893020868301391602e+00 8.703887939453125000e+00 2.175045432522892952e-03 6.419176352210342884e-04 8.450889145024120808e-04 -3.522445040289312601e-04
1.492000000000000000e+03 3.436425685882568359e+00 -5.282605171203613281e+00 -2.590705407783389091e-03 -3.089169622398912907e-04 -8.698867168277502060e-04 -9.412903455086052418e-04
1.493000000000000000e+03 2.682558298110961914e+00 5.884784698486328125e+00 -1.634184038266539574e-03 -1.495570904808118939e-04 -5.351223517209291458e-04 7.307772175408899784e-04
1.494000000000000000e+03 6.482031345367431641e+00 4.389298915863037109e+00 -1.671644742600619793e-03 -4.316785634728148580e-05 -5.144437891431152821e-04 -6.512491963803768158e-04
1.495000000000000000e+03 6.619180679321289062e+00 -3.591685104370117188e+01 -4.919767379760742188e-03 1.699103415012359619e-02 3.621379844844341278e-03 -2.242378517985343933e-02
1.496000000000000000e+03 2.263746070861816406e+01 -2.266535568237304688e+01 -7.550729811191558838e-02 6.372666835784912109e+00 1.889147877693176270e+00 2.033725082874298096e-01
1.497000000000000000e+03 2.112981414794921875e+01 -2.393107604980468750e+01 -8.027030527591705322e-02 6.317019462585449219e+00 1.871024727821350098e+00 1.492372900247573853e-01
1.498000000000000000e+03 1.076773738861083984e+01 3.693846130371093750e+01 3.827266860753297806e-03 -2.720230817794799805e-02 -7.012512069195508957e-03 -1.723609864711761475e-02
1.499000000000000000e+03 2.450810432434082031e+01 -1.572163963317871094e+01 -6.140402518212795258e-03 6.596422195434570312e+00 1.977084636688232422e+00 1.537068039178848267e-01
1.500000000000000000e+03 2.347512817382812500e+01 4.360764980316162109e+00 1.513147652149200439e-01 6.751092433929443359e+00 2.070722103118896484e+00 3.042701780796051025e-01
1.501000000000000000e+03 2.478864860534667969e+01 1.584796667098999023e+00 2.572030387818813324e-02 6.766279220581054688e+00 2.037599802017211914e+00 2.672484815120697021e-01
1.502000000000000000e+03 1.164703464508056641e+01 3.553545379638671875e+01 -5.282428581267595291e-03 -9.763997048139572144e-03 -4.513927735388278961e-03 4.506850615143775940e-03
1.503000000000000000e+03 6.665063858032226562e+00 2.987358665466308594e+01 1.608973951078951359e-03 -4.741441458463668823e-03 -9.397402172908186913e-04 -1.557400100864470005e-03
1.504000000000000000e+03 2.448357772827148438e+01 -1.127051544189453125e+01 6.286939233541488647e-02 6.644179344177246094e+00 2.012114524841308594e+00 2.384044677019119263e-01
1.505000000000000000e+03 3.253238677978515625e+01 3.440575027465820312e+01 2.751099824905395508e+00 1.045161437988281250e+01 3.960814237594604492e+00 -2.890033721923828125e-01
1.506000000000000000e+03 2.322486877441406250e+01 -2.994791221618652344e+01 1.043220907449722290e-01 6.441817760467529297e+00 1.963841915130615234e+00 2.249490022659301758e-01
1.507000000000000000e+03 2.455043983459472656e+01 -4.227211952209472656e+00 -6.956088542938232422e-02 6.718042850494384766e+00 1.994544625282287598e+00 2.624917030334472656e-01
1.508000000000000000e+03 3.256556320190429688e+01 3.696490097045898438e+01 2.595331668853759766e+00 1.083177471160888672e+01 4.028131961822509766e+00 1.313023805618286133e+00
1.509000000000000000e+03 1.078651714324951172e+01 1.262469863891601562e+01 -6.981022888794541359e-04 2.515579981263726950e-04 -1.339632872259244323e-04 2.139404183253645897e-03
1.510000000000000000e+03 3.169975280761718750e+01 3.620004272460937500e+01 3.877286195755004883e+00 1.105451583862304688e+01 4.479540824890136719e+00 1.188183784484863281e+00
1.511000000000000000e+03 1.087273502349853516e+01 2.693029403686523438e+01 -3.939502406865358353e-03 -2.563647693023085594e-03 -1.950945006683468819e-03 -2.111285924911499023e-03
1.512000000000000000e+03 7.515805053710937500e+01 4.021442031860351562e+01 2.180664241313934326e-02 6.908201217651367188e+00 2.079002380371093750e+00 -4.999483004212379456e-02
1.513000000000000000e+03 1.202033138275146484e+01 2.013537216186523438e+01 -5.089183803647756577e-03 -2.660120371729135513e-04 -1.606558798812329769e-03 3.715082857524976134e-05
1.514000000000000000e+03 2.215121650695800781e+01 4.075652694702148438e+01 7.335063219070434570e-01 1.341567188501358032e-01 2.602989077568054199e-01 2.076098322868347168e-01
1.515000000000000000e+03 6.688612461090087891e+00 1.052127552032470703e+01 4.982159007340669632e-04 1.210118643939495087e-03 5.125003517605364323e-04 9.468065109103918076e-04
1.516000000000000000e+03 2.409887504577636719e+01 -3.825495529174804688e+01 -1.757100522518157959e-01 6.084772586822509766e+00 1.772718787193298340e+00 -1.419436484575271606e-01
1.517000000000000000e+03 2.270778083801269531e+01 -2.130208587646484375e+01 -7.786386460065841675e-02 6.394497871398925781e+00 1.894990205764770508e+00 1.994019001722335815e-01
1.518000000000000000e+03 1.677552795410156250e+01 4.160318756103515625e+01 1.645564138889312744e-01 -2.783084809780120850e-01 -3.412562236189842224e-02 5.475568771362304688e-02
1.519000000000000000e+03 1.911707878112792969e+01 4.087678146362304688e+01 3.712855577468872070e-01 -4.372685551643371582e-01 -1.979489251971244812e-02 2.279467582702636719e-01
1.520000000000000000e+03 1.021239757537841797e+01 -3.425378036499023438e+01 -7.730668038129806519e-02 -1.573188346810638905e-03 -2.366396225988864899e-02 -3.074382664635777473e-03
1.521000000000000000e+03 1.231737041473388672e+01 -3.389292144775390625e+01 -4.393670335412025452e-02 -1.531232893466949463e-02 -1.777470856904983521e-02 1.780171692371368408e-02
1.522000000000000000e+03 2.407683181762695312e+01 -2.540767288208007812e+01 -2.233574166893959045e-02 6.451048374176025391e+00 1.928613901138305664e+00 1.952692270278930664e-01
1.523000000000000000e+03 2.275449562072753906e+01 -2.682596015930175781e+01 -3.892198437824845314e-03 6.416791915893554688e+00 1.923869967460632324e+00 1.975081712007522583e-01
1.524000000000000000e+03 2.585704231262207031e+01 3.381016540527343750e+01 2.153568983078002930e+00 2.313040494918823242e+00 1.339982867240905762e+00 2.282605409622192383e+00
1.525000000000000000e+03 2.680867767333984375e+01 3.371490859985351562e+01 2.398249626159667969e+00 4.875467300415039062e+00 2.182115077972412109e+00 3.838490009307861328e+00
1.526000000000000000e+03 2.839481735229492188e+01 3.926562881469726562e+01 -5.570583343505859375e-01 9.371790885925292969e+00 2.644419908523559570e+00 -2.065320014953613281e+00
1.527000000000000000e+03 2.574390220642089844e+01 3.334780502319335938e+01 2.013249874114990234e+00 2.764749765396118164e+00 1.433399915695190430e+00 2.397317886352539062e+00
1.528000000000000000e+03 3.299770593643188477e+00 4.292294025421142578e+00 6.487115169875323772e-04 -5.014501512050628662e-04 4.417841046233661473e-05 6.854213424958288670e-04
1.529000000000000000e+03 5.240795135498046875e+00 4.100349426269531250e+00 1.493126037530601025e-03 -2.038612583419308066e-04 3.867794584948569536e-04 -1.986329152714461088e-04
1.530000000000000000e+03 5.945559501647949219e+00 4.553730964660644531e+00 5.389482830651104450e-04 4.787628131452947855e-04 3.053133259527385235e-04 -1.546564744785428047e-04
1.531000000000000000e+03 6.507332801818847656e+00 3.818982362747192383e+00 1.080887857824563980e-03 4.666787572205066681e-04 4.642700077965855598e-04 2.734879381023347378e-04
1.532000000000000000e+03 1.133830356597900391e+01 4.602735519409179688e+00 -7.996057975105941296e-04 -2.132013905793428421e-04 -3.038421564269810915e-04 -4.709753266070038080e-04
1.533000000000000000e+03 9.579644203186035156e+00 5.783625125885009766e+00 -1.959128538146615028e-03 6.503497133962810040e-04 -3.926336357835680246e-04 8.009930024854838848e-04
1.534000000000000000e+03 2.404700851440429688e+01 3.020396041870117188e+01 3.558347523212432861e-01 3.013974905014038086e+00 1.010942935943603516e+00 1.602891683578491211e+00
1.535000000000000000e+03 7.158853530883789062e+00 3.791010141372680664e+00 -1.289205509237945080e-03 -2.676032017916440964e-04 -4.670426133088767529e-04 -3.256641502957791090e-04
1.536000000000000000e+03 8.302558898925781250e+00 4.478675365447998047e+00 1.430895645171403885e-03 -4.418634489411488175e-05 4.160128009971231222e-04 3.256851341575384140e-04
1.537000000000000000e+03 8.684573173522949219e+00 -4.170055389404296875e+00 1.360521884635090828e-03 9.029701468534767628e-04 6.790476036258041859e-04 -3.026799640792887658e-05
1.538000000000000000e+03 4.624524593353271484e+00 4.491014480590820312e+00 -1.903882548504043370e-05 3.734361380338668823e-04 1.063191884895786643e-04 1.841290359152480960e-04
1.539000000000000000e+03 7.950264930725097656e+00 -4.179452419281005859e+00 -1.580682932399213314e-03 -8.721071644686162472e-04 -7.358370348811149597e-04 -1.574917987454682589e-04
1.540000000000000000e+03 1.143190860748291016e+01 -9.171463012695312500e+00 4.046548623591661453e-03 6.104242638684809208e-04 1.397091895341873169e-03 -7.489832350984215736e-04
1.541000000000000000e+03 2.580933570861816406e+01 3.232508087158203125e+01 1.312982559204101562e+00 4.090156555175781250e+00 1.620941638946533203e+00 2.666125774383544922e+00
1.542000000000000000e+03 2.733080291748046875e+01 3.404401397705078125e+01 2.539160490036010742e+00 6.747653007507324219e+00 2.786044120788574219e+00 4.701229572296142578e+00
1.543000000000000000e+03 1.106437873840332031e+01 7.056315422058105469e+00 2.578952349722385406e-03 1.007774117169901729e-04 8.039189269766211510e-04 6.791846244595944881e-04
1.544000000000000000e+03 1.226062583923339844e+01 4.932840347290039062e+00 6.773646455258131027e-04 5.093560321256518364e-04 3.560162149369716644e-04 7.046411046758294106e-04
1.545000000000000000e+03 7.172943115234375000e+00 -5.018048286437988281e+00 -1.886854646727442741e-03 -9.876317344605922699e-04 -8.623459143564105034e-04 -9.997683810070157051e-05
1.546000000000000000e+03 5.173333168029785156e+00 -4.066480636596679688e+00 -1.319605158641934395e-03 -7.859422476030886173e-04 -6.316642393358051777e-04 3.095543070230633020e-04
1.547000000000000000e+03 7.220643520355224609e+00 -4.190325260162353516e+00 1.664062961935997009e-03 7.932846201583743095e-04 7.372042746283113956e-04 3.239683865103870630e-04
1.548000000000000000e+03 8.872855186462402344e+00 -6.183249473571777344e+00 -1.274693990126252174e-03 1.634707674384117126e-03 1.080041038221679628e-04 -1.789180445484817028e-03
1.549000000000000000e+03 1.214393043518066406e+01 6.707098007202148438e+00 -2.296106424182653427e-03 -2.524938900023698807e-04 -7.645800942555069923e-04 -1.478752528782933950e-04
1.550000000000000000e+03 6.489761829376220703e+00 -4.188464164733886719e+00 -1.911120372824370861e-03 -5.198376020416617393e-04 -7.292873924598097801e-04 -4.721146833617240191e-04
1.551000000000000000e+03 7.134107589721679688e+00 -5.890101909637451172e+00 1.583105418831110001e-03 1.488192589022219181e-03 9.213893790729343891e-04 -5.659480812028050423e-04
1.552000000000000000e+03 5.614568710327148438e+00 -5.017281055450439453e+00 -3.112906590104103088e-03 1.301154770771972835e-05 -9.299684897996485233e-04 -8.545343298465013504e-04
1.553000000000000000e+03 1.265610885620117188e+01 -5.439061641693115234e+00 3.130438039079308510e-03 4.672647337429225445e-04 1.079310895875096321e-03 -4.305463517084717751e-04
1.554000000000000000e+03 2.977379417419433594e+01 3.250496673583984375e+01 2.000855654478073120e-01 1.136904621124267578e+01 3.470739364624023438e+00 1.098828673362731934e+00
1.555000000000000000e+03 2.955675506591796875e+01 3.166247749328613281e+01 -1.726544499397277832e-01 1.052754688262939453e+01 3.106467723846435547e+00 1.429469704627990723e+00
1.556000000000000000e+03 3.071727561950683594e+01 3.232121658325195312e+01 4.391398131847381592e-01 1.122188472747802734e+01 3.498307466506958008e+00 2.567598819732666016e-01
1.557000000000000000e+03 2.871178627014160156e+01 4.005524444580078125e+01 -4.239994883537292480e-01 9.066570281982421875e+00 2.592771291732788086e+00 -9.136884212493896484e-01
1.558000000000000000e+03 2.879365730285644531e+01 3.198485946655273438e+01 -3.059685975313186646e-02 1.005497264862060547e+01 3.007312536239624023e+00 2.256013393402099609e+00
1.559000000000000000e+03 9.543131828308105469e+00 4.797539710998535156e+00 3.455703554209321737e-04 1.370870886603370309e-04 1.447972317691892385e-04 4.488920676521956921e-04
1.560000000000000000e+03 2.481678771972656250e+01 -1.322498083114624023e+00 -3.605616465210914612e-02 6.745769500732421875e+00 2.012913942337036133e+00 2.735748291015625000e-01
1.561000000000000000e+03 2.641784477233886719e+01 2.433412373065948486e-01 -1.656041294336318970e-02 6.805570602416992188e+00 2.036703109741210938e+00 2.648900449275970459e-01
1.562000000000000000e+03 2.601064109802246094e+01 -1.877515792846679688e+01 -6.259170174598693848e-02 6.616503715515136719e+00 1.966173648834228516e+00 1.501370072364807129e-01
1.563000000000000000e+03 2.605708885192871094e+01 -1.730838584899902344e+01 -4.982291534543037415e-02 6.627855300903320312e+00 1.973409652709960938e+00 1.356315463781356812e-01
1.564000000000000000e+03 3.165934753417968750e+01 3.252606582641601562e+01 8.975266218185424805e-01 1.083160495758056641e+01 3.518739461898803711e+00 -1.878407597541809082e-01
1.565000000000000000e+03 3.139574432373046875e+01 3.346738052368164062e+01 1.729616522789001465e+00 1.133354282379150391e+01 3.918947696685791016e+00 -3.183942437171936035e-01
1.566000000000000000e+03 2.593033409118652344e+01 -4.337080478668212891e+00 -5.425269529223442078e-02 6.771977424621582031e+00 2.015317440032958984e+00 2.554815411567687988e-01
1.567000000000000000e+03 2.442984008789062500e+01 -8.410609245300292969e+00 -1.585244573652744293e-02 6.695052146911621094e+00 2.003759860992431641e+00 2.810910046100616455e-01
1.568000000000000000e+03 2.582931137084960938e+01 -5.716368675231933594e+00 -6.230815872550010681e-02 6.754665851593017578e+00 2.007707357406616211e+00 2.573649883270263672e-01
1.569000000000000000e+03 1.061187076568603516e+01 -1.538032913208007812e+01 -4.367237444967031479e-03 -1.852159504778683186e-03 -1.865819096565246582e-03 5.949077312834560871e-04
1.570000000000000000e+03 1.093665981292724609e+01 1.008396339416503906e+01 -1.889238832518458366e-03 -5.856052157469093800e-04 -7.424532086588442326e-04 -7.677150424569845200e-04
1.571000000000000000e+03 1.087555408477783203e+01 1.765675354003906250e+01 4.651178140193223953e-03 9.320601384388282895e-05 1.423315261490643024e-03 1.116174607886932790e-04
1.572000000000000000e+03 1.019418239593505859e+01 1.427017116546630859e+01 -2.398921642452478409e-03 -4.493639571592211723e-04 -8.544856682419776917e-04 9.802473941817879677e-04
1.573000000000000000e+03 1.115881156921386719e+01 -1.161702251434326172e+01 4.424692597240209579e-03 6.921257008798420429e-04 1.535045565105974674e-03 -9.043089812621474266e-04
1.574000000000000000e+03 1.098124504089355469e+01 -1.286799621582031250e+01 -4.588107578456401825e-03 -8.157590054906904697e-04 -1.621159957721829414e-03 7.289187633432447910e-04
1.575000000000000000e+03 6.955806255340576172e+00 -3.109754180908203125e+01 -7.342834491282701492e-03 1.624985411763191223e-02 2.672105561941862106e-03 4.982511978596448898e-03
1.576000000000000000e+03 7.510421752929687500e+01 3.172587776184082031e+01 2.197415567934513092e-02 7.044682979583740234e+00 2.119997262954711914e+00 -1.290125846862792969e-01
1.577000000000000000e+03 2.594328498840332031e+01 -1.129417037963867188e+01 2.677610144019126892e-02 6.678903102874755859e+00 2.011703729629516602e+00 2.300081700086593628e-01
1.578000000000000000e+03 2.445545959472656250e+01 -9.826998710632324219e+00 2.677328325808048248e-02 6.653817653656005859e+00 2.004177331924438477e+00 2.770847976207733154e-01
1.579000000000000000e+03 7.504104614257812500e+01 -2.791310691833496094e+01 -7.729469332844018936e-03 8.206761360168457031e+00 2.459709644317626953e+00 -3.197995945811271667e-02
1.580000000000000000e+03 2.580579566955566406e+01 -7.072624206542968750e+00 -3.923029080033302307e-02 6.747361660003662109e+00 2.012439489364624023e+00 2.639600336551666260e-01
1.581000000000000000e+03 7.335559082031250000e+01 2.283042716979980469e+01 1.032160781323909760e-02 7.349721431732177734e+00 2.208012819290161133e+00 -2.361610382795333862e-01
1.582000000000000000e+03 7.538787078857421875e+01 2.398528289794921875e+01 8.927201852202415466e-03 7.241455078125000000e+00 2.175114631652832031e+00 -1.767272651195526123e-01
1.583000000000000000e+03 7.540950775146484375e+01 -2.094328308105468750e+01 -2.714676782488822937e-03 8.178647994995117188e+00 2.452779769897460938e+00 -4.178721085190773010e-02
1.584000000000000000e+03 7.421781158447265625e+01 -2.256468772888183594e+01 -6.160635035485029221e-03 8.147401809692382812e+00 2.442372322082519531e+00 -4.584329575300216675e-02
1.585000000000000000e+03 7.545431518554687500e+01 1.263375091552734375e+01 -7.253448944538831711e-03 7.591787815093994141e+00 2.275360345840454102e+00 -1.640960574150085449e-01
1.586000000000000000e+03 7.399179840087890625e+01 1.530459022521972656e+01 -1.135622896254062653e-02 7.537897586822509766e+00 2.257962465286254883e+00 -2.137981951236724854e-01
1.587000000000000000e+03 7.533135223388671875e+01 1.679330825805664062e+01 -5.760324187576770782e-03 7.467652797698974609e+00 2.238567590713500977e+00 -1.786884069442749023e-01
1.588000000000000000e+03 7.422698974609375000e+01 8.478507041931152344e+00 -1.516135782003402710e-02 7.710985660552978516e+00 2.308747291564941406e+00 -1.782930344343185425e-01
1.589000000000000000e+03 7.438845825195312500e+01 2.601980972290039062e+01 1.869069971144199371e-02 7.226671695709228516e+00 2.173608779907226562e+00 -1.939954012632369995e-01
1.590000000000000000e+03 7.547200012207031250e+01 2.632438087463378906e+01 1.162072457373142242e-02 7.166478157043457031e+00 2.153429746627807617e+00 -1.589947044849395752e-01
1.591000000000000000e+03 7.398787689208984375e+01 2.704205131530761719e+01 2.586210146546363831e-02 7.210853576660156250e+00 2.171014785766601562e+00 -1.994941085577011108e-01
1.592000000000000000e+03 7.414474487304687500e+01 4.351238727569580078e+00 -1.962197199463844299e-02 7.804281711578369141e+00 2.335397958755493164e+00 -1.576958000659942627e-01
1.593000000000000000e+03 7.539601135253906250e+01 -1.385148143768310547e+01 -8.370275609195232391e-03 8.113265991210937500e+00 2.431468725204467773e+00 -5.918027460575103760e-02
1.594000000000000000e+03 7.399930572509765625e+01 -1.527836418151855469e+01 -1.172600593417882919e-02 8.086790084838867188e+00 2.422519207000732422e+00 -6.898188591003417969e-02
1.595000000000000000e+03 7.405874633789062500e+01 1.475678682327270508e-01 -1.625213585793972015e-02 7.884586334228515625e+00 2.360500335693359375e+00 -1.357577741146087646e-01
1.596000000000000000e+03 7.406083679199218750e+01 1.548055291175842285e+00 -1.914310641586780548e-02 7.859051704406738281e+00 2.351972579956054688e+00 -1.433557122945785522e-01
1.597000000000000000e+03 7.544765472412109375e+01 2.930080890655517578e+00 -1.262263115495443344e-02 7.844258308410644531e+00 2.349490642547607422e+00 -1.222823709249496460e-01
1.598000000000000000e+03 7.407667541503906250e+01 -9.651000976562500000e+00 -1.459855027496814728e-02 8.029170989990234375e+00 2.404371738433837891e+00 -8.908122032880783081e-02
1.599000000000000000e+03 7.416925811767578125e+01 1.118851661682128906e+01 -1.350609306246042252e-02 7.644142150878906250e+00 2.289190769195556641e+00 -1.932923495769500732e-01
1.600000000000000000e+03 7.544789886474609375e+01 -5.475283622741699219e+00 -1.063923630863428116e-02 8.003390312194824219e+00 2.397825479507446289e+00 -8.658404648303985596e-02
1.601000000000000000e+03 7.408037567138671875e+01 -6.878623485565185547e+00 -1.580355130136013031e-02 7.994486808776855469e+00 2.393604993820190430e+00 -1.006243303418159485e-01
1.602000000000000000e+03 7.545119476318359375e+01 -4.074641704559326172e+00 -8.534359745681285858e-03 7.980616092681884766e+00 2.391624689102172852e+00 -9.163605421781539917e-02
1.603000000000000000e+03 7.409255981445312500e+01 -2.678050518035888672e+00 -1.527976524084806442e-02 7.932842254638671875e+00 2.375268697738647461e+00 -1.203095987439155579e-01
1.604000000000000000e+03 7.407356262207031250e+01 -1.104567813873291016e+01 -1.186207309365272522e-02 8.045297622680664062e+00 2.410030603408813477e+00 -8.315096795558929443e-02
1.605000000000000000e+03 7.405188751220703125e+01 -1.244950675964355469e+01 -1.382271014153957367e-02 8.060464859008789062e+00 2.413992643356323242e+00 -7.836781442165374756e-02
1.606000000000000000e+03 7.400983428955078125e+01 -1.815081214904785156e+01 -9.782771579921245575e-03 8.111987113952636719e+00 2.430661439895629883e+00 -5.939433723688125610e-02
1.607000000000000000e+03 7.403504180908203125e+01 -1.961337471008300781e+01 -6.963915191590785980e-03 8.123146057128906250e+00 2.434854745864868164e+00 -5.504109337925910950e-02
1.608000000000000000e+03 7.381403350830078125e+01 1.810000801086425781e+01 -5.322543438524007797e-03 7.464696407318115234e+00 2.237812042236328125e+00 -2.248491048812866211e-01
1.609000000000000000e+03 7.449257659912109375e+01 -2.478103637695312500e+01 -5.017395131289958954e-03 8.170933723449707031e+00 2.449774980545043945e+00 -3.979479894042015076e-02
1.610000000000000000e+03 7.352488708496093750e+01 -2.758263206481933594e+01 -7.845859974622726440e-03 8.151052474975585938e+00 2.442962169647216797e+00 -3.745101392269134521e-02
1.611000000000000000e+03 7.531014251708984375e+01 -2.632933044433593750e+01 -4.214515443891286850e-03 8.207530975341796875e+00 2.460994958877563477e+00 -3.198957443237304688e-02
1.612000000000000000e+03 7.424622344970703125e+01 2.922075462341308594e+01 2.492984198033809662e-02 7.147829055786132812e+00 2.151827573776245117e+00 -1.761024445295333862e-01
1.613000000000000000e+03 7.562020111083984375e+01 2.508938789367675781e+01 6.781058385968208313e-03 7.190236568450927734e+00 2.159105300903320312e+00 -1.600892692804336548e-01
1.614000000000000000e+03 7.402022552490234375e+01 -1.386056423187255859e+01 -1.063115708529949188e-02 8.073726654052734375e+00 2.418928623199462891e+00 -7.271353900432586670e-02
1.615000000000000000e+03 7.422305297851562500e+01 7.109451770782470703e+00 -1.865296624600887299e-02 7.743521213531494141e+00 2.317460536956787109e+00 -1.714115589857101440e-01
1.616000000000000000e+03 7.015682220458984375e+01 3.513218688964843750e+01 1.249350234866142273e-01 7.243389129638671875e+00 2.210497140884399414e+00 -1.594842076301574707e-01
1.617000000000000000e+03 7.403818511962890625e+01 -2.113552474975585938e+01 -8.274341002106666565e-03 8.134243011474609375e+00 2.437790632247924805e+00 -5.123994126915931702e-02
1.618000000000000000e+03 7.375771331787109375e+01 -3.032282447814941406e+01 -9.296672418713569641e-03 8.171938896179199219e+00 2.448792695999145508e+00 -2.948736771941184998e-02
1.619000000000000000e+03 7.405736541748046875e+01 1.392661952972412109e+01 -1.116308383643627167e-02 7.574195384979248047e+00 2.268909692764282227e+00 -2.079733759164810181e-01
1.620000000000000000e+03 7.354991912841796875e+01 2.110124015808105469e+01 2.045372035354375839e-03 7.393279075622558594e+00 2.218597173690795898e+00 -2.326128184795379639e-01
1.621000000000000000e+03 7.549685668945312500e+01 -3.333267974853515625e+01 -5.109708756208419800e-03 8.249342918395996094e+00 2.473269939422607422e+00 -1.758933812379837036e-02
1.622000000000000000e+03 7.341686248779296875e+01 3.091439628601074219e+01 4.451522603631019592e-02 7.157806396484375000e+00 2.160696506500244141e+00 -1.774600446224212646e-01
1.623000000000000000e+03 2.439559173583984375e+01 2.814897727966308594e+01 -5.488756299018859863e-02 4.022598266601562500e+00 1.190313220024108887e+00 1.675154089927673340e+00
1.624000000000000000e+03 6.750667572021484375e+00 -1.598096275329589844e+01 -5.655155517160892487e-03 -1.544394996017217636e-03 -2.159865107387304306e-03 -1.612142194062471390e-03
1.625000000000000000e+03 2.430641937255859375e+01 2.529149246215820312e+01 -2.494967132806777954e-01 4.616561889648437500e+00 1.310119509696960449e+00 1.379201412200927734e+00
1.626000000000000000e+03 2.545871734619140625e+01 2.640690040588378906e+01 -3.273890018463134766e-01 5.240732669830322266e+00 1.474003076553344727e+00 1.697070956230163574e+00
1.627000000000000000e+03 6.003027439117431641e+00 -2.873861122131347656e+01 5.013320595026016235e-03 5.015762988477945328e-03 3.008725121617317200e-03 2.127032261341810226e-03
1.628000000000000000e+03 1.175328063964843750e+01 -2.133737564086914062e+01 2.750557381659746170e-03 5.522066494449973106e-04 9.908291976898908615e-04 6.524342112243175507e-03
1.629000000000000000e+03 2.612505149841308594e+01 1.145641422271728516e+01 -9.464363753795623779e-02 6.573603630065917969e+00 1.943688035011291504e+00 5.513303279876708984e-01
1.630000000000000000e+03 2.480662536621093750e+01 8.620776176452636719e+00 1.991230808198451996e-02 6.622678279876708984e+00 1.992777228355407715e+00 4.254251718521118164e-01
1.631000000000000000e+03 1.050670146942138672e+01 3.111524200439453125e+01 1.271004509180784225e-02 -5.243396386504173279e-03 2.239994704723358154e-03 5.230109207332134247e-03
1.632000000000000000e+03 5.610756874084472656e+00 -2.640894508361816406e+01 9.480942972004413605e-03 -1.137571292929351330e-03 2.503011608496308327e-03 2.808378310874104500e-03
1.633000000000000000e+03 2.577465820312500000e+01 1.990785217285156250e+01 -3.161516785621643066e-01 5.964657783508300781e+00 1.694551706314086914e+00 1.012856006622314453e+00
1.634000000000000000e+03 2.563317108154296875e+01 2.126939964294433594e+01 -3.373701572418212891e-01 5.816744327545166016e+00 1.643812179565429688e+00 1.119500756263732910e+00
1.635000000000000000e+03 4.344805240631103516e+00 2.787178230285644531e+01 6.707354914397001266e-03 1.434691599570214748e-03 2.442613942548632622e-03 -3.542614402249455452e-03
1.636000000000000000e+03 5.087541580200195312e+00 2.970696449279785156e+01 1.661512418650090694e-03 -2.691625617444515228e-03 -3.090339305344969034e-04 -2.405865117907524109e-03
1.637000000000000000e+03 2.595965385437011719e+01 4.548021316528320312e+00 6.998797506093978882e-02 6.757909774780273438e+00 2.048369169235229492e+00 3.487679064273834229e-01
1.638000000000000000e+03 2.484286880493164062e+01 1.002152252197265625e+01 -2.779363654553890228e-02 6.555098533630371094e+00 1.958191394805908203e+00 4.465527832508087158e-01
1.639000000000000000e+03 1.448708248138427734e+01 -2.898754310607910156e+01 -2.149683795869350433e-02 4.885162692517042160e-03 -4.983502905815839767e-03 2.252148697152733803e-03
1.640000000000000000e+03 2.477998161315917969e+01 1.565430927276611328e+01 -1.357501894235610962e-01 6.099302291870117188e+00 1.789065718650817871e+00 6.298841834068298340e-01
1.641000000000000000e+03 5.499692916870117188e+00 2.475638771057128906e+01 -2.203194657340645790e-03 -2.806661650538444519e-03 -1.502956962212920189e-03 -1.083466922864317894e-03
1.642000000000000000e+03 1.065030860900878906e+01 2.279766845703125000e+01 5.167352035641670227e-03 1.493176794610917568e-03 1.998158637434244156e-03 1.165782567113637924e-03
1.643000000000000000e+03 6.765632629394531250e+00 -1.013154697418212891e+01 -3.558618482202291489e-03 -1.331331324763596058e-03 -1.466984977014362812e-03 -2.824689145199954510e-04
1.644000000000000000e+03 5.474572181701660156e+00 -1.015207767486572266e+01 4.016570281237363815e-03 1.028156140819191933e-03 1.513417926616966724e-03 7.520353537984192371e-04
1.645000000000000000e+03 2.452512550354003906e+01 3.159597396850585938e+01 8.863393068313598633e-01 2.757195949554443359e+00 1.093060493469238281e+00 1.702248334884643555e+00
1.646000000000000000e+03 2.599527168273925781e+01 7.278451442718505859e+00 3.448579460382461548e-02 6.708516597747802734e+00 2.022900819778442383e+00 4.350961446762084961e-01
1.647000000000000000e+03 2.593549156188964844e+01 1.708691024780273438e+01 -2.390147596597671509e-01 6.216132640838623047e+00 1.793135404586791992e+00 8.084453344345092773e-01
1.648000000000000000e+03 2.606069755554199219e+01 1.428638267517089844e+01 -1.668979078531265259e-01 6.414271831512451172e+00 1.874212265014648438e+00 6.598532199859619141e-01
1.649000000000000000e+03 2.577263450622558594e+01 2.733612632751464844e+01 -3.107990622520446777e-01 5.392141342163085938e+00 1.524402737617492676e+00 1.853331923484802246e+00
1.650000000000000000e+03 5.479380607604980469e+00 -2.268799018859863281e+01 -7.438232190907001495e-03 -1.997041050344705582e-03 -2.830581972375512123e-03 2.334307646378874779e-03
1.651000000000000000e+03 9.569420814514160156e+00 2.698824691772460938e+01 8.725176565349102020e-03 1.107338350266218185e-03 2.949754474684596062e-03 4.158155061304569244e-03
1.652000000000000000e+03 5.510327339172363281e+00 2.614453887939453125e+01 5.011644680052995682e-03 2.397048985585570335e-03 2.222608076408505440e-03 -2.406841609627008438e-03
1.653000000000000000e+03 5.586650371551513672e+00 -1.732759094238281250e+01 -7.163744419813156128e-03 -8.861859096214175224e-04 -2.414979040622711182e-03 -2.333756303414702415e-03
1.654000000000000000e+03 5.569485664367675781e+00 -1.598107433319091797e+01 6.656568963080644608e-03 7.099196081981062889e-04 2.209946513175964355e-03 2.101589925587177277e-03
1.655000000000000000e+03 5.588626384735107422e+00 -1.460227108001708984e+01 -5.386210512369871140e-03 -9.890975197777152061e-04 -1.912592444568872452e-03 -1.487307948991656303e-03
1.656000000000000000e+03 4.374880790710449219e+00 -2.153125190734863281e+01 -9.367496706545352936e-03 7.818436133675277233e-04 -2.575695980340242386e-03 -6.450433284044265747e-04
1.657000000000000000e+03 1.052632904052734375e+01 1.536442852020263672e+01 2.675469033420085907e-03 1.035065623000264168e-03 1.113160396926105022e-03 -3.603467484936118126e-04
1.658000000000000000e+03 7.092318534851074219e+00 1.615739631652832031e+01 -3.193634562194347382e-03 -1.179159851744771004e-03 -1.311838277615606785e-03 -5.995770334266126156e-04
1.659000000000000000e+03 3.974001407623291016e+00 2.131057929992675781e+01 -3.881923388689756393e-03 2.623207983560860157e-04 -1.085880794562399387e-03 9.839064441621303558e-04
1.660000000000000000e+03 6.807649612426757812e+00 -1.844133186340332031e+01 -4.590612836182117462e-03 -4.434390924870967865e-03 -2.707501174882054329e-03 -4.315652418881654739e-03
1.661000000000000000e+03 4.703789234161376953e+00 1.581651878356933594e+01 -2.342445543035864830e-03 -1.348473597317934036e-03 -1.107275718823075294e-03 -1.550743239931762218e-03
1.662000000000000000e+03 4.205543518066406250e+00 1.244921588897705078e+01 -2.512503182515501976e-03 -3.276691713836044073e-04 -8.520516566932201385e-04 1.044494099915027618e-03
1.663000000000000000e+03 4.426857471466064453e+00 -2.670460700988769531e+01 -1.228630077093839645e-02 -1.014211098663508892e-03 -3.990153316408395767e-03 -2.285767346620559692e-03
1.664000000000000000e+03 6.781196594238281250e+00 -2.715707015991210938e+01 9.681459516286849976e-03 6.600670167244970798e-04 3.102457849308848381e-03 1.870581996627151966e-03
1.665000000000000000e+03 8.016095161437988281e+00 -1.140212249755859375e+01 -1.713002799078822136e-03 -2.864334266632795334e-03 -1.373201142996549606e-03 -1.064096111804246902e-03
1.666000000000000000e+03 5.904907226562500000e+00 2.214367103576660156e+01 -8.426806307397782803e-04 -3.831218346022069454e-04 -3.677407512441277504e-04 -2.590734511613845825e-03
1.667000000000000000e+03 5.622354030609130859e+00 1.892919731140136719e+01 2.188064390793442726e-03 1.936665037646889687e-03 1.237418851815164089e-03 6.301898974925279617e-04
1.668000000000000000e+03 4.904337882995605469e+00 2.160172653198242188e+01 1.221859245561063290e-03 7.292666705325245857e-04 5.853377515450119972e-04 8.365261601284146309e-04
1.669000000000000000e+03 5.571934700012207031e+00 -2.156658554077148438e+01 1.029880810528993607e-02 -4.460833501070737839e-03 1.751392264850437641e-03 -2.292471937835216522e-03
1.670000000000000000e+03 5.707094669342041016e+00 -1.871321487426757812e+01 8.685884065926074982e-03 3.059104783460497856e-04 2.697538351640105247e-03 2.778445370495319366e-03
1.671000000000000000e+03 6.217587471008300781e+00 3.421195220947265625e+01 -4.232580307871103287e-03 -4.320307169109582901e-03 -2.565866103395819664e-03 -7.634503301233053207e-03
1.672000000000000000e+03 5.781022548675537109e+00 1.747637557983398438e+01 -2.005059504881501198e-03 -1.889001810923218727e-03 -1.168218324892222881e-03 -1.144876936450600624e-03
1.673000000000000000e+03 6.241446971893310547e+00 1.485156059265136719e+01 -1.113945036195218563e-03 -1.541597186587750912e-03 -7.966626435518264771e-04 -1.489401562139391899e-03
1.674000000000000000e+03 5.502573490142822266e+00 -3.336553192138671875e+01 5.970604252070188522e-04 -1.991056837141513824e-03 -4.181989643257111311e-04 -1.133863069117069244e-02
1.675000000000000000e+03 9.089779853820800781e+00 -3.320815658569335938e+01 -2.671819925308227539e-02 4.226622357964515686e-02 4.664407111704349518e-03 1.315787807106971741e-02
1.676000000000000000e+03 1.000120639801025391e+01 9.869733810424804688e+00 1.368120661936700344e-03 9.899049764499068260e-04 7.074077147990465164e-04 6.603821384487673640e-05
1.677000000000000000e+03 3.904957532882690430e+00 9.950358390808105469e+00 -2.475209068506956100e-03 -2.486832963768392801e-04 -8.171676890924572945e-04 7.958888891153037548e-04
1.678000000000000000e+03 5.962051391601562500e+00 1.154306793212890625e+01 -2.876991638913750648e-04 -5.372360465116798878e-04 -2.474805514793843031e-04 -1.511106500402092934e-03
1.679000000000000000e+03 5.558635711669921875e+00 -1.168310356140136719e+01 -4.258218687027692795e-03 -1.107206335291266441e-03 -1.609627506695687771e-03 -7.595443166792392731e-04
1.680000000000000000e+03 2.539431381225585938e+01 2.388825798034667969e+01 -3.744914531707763672e-01 5.467102050781250000e+00 1.527783155441284180e+00 1.382718443870544434e+00
1.681000000000000000e+03 4.839322566986083984e+00 -7.410157680511474609e+00 3.165183588862419128e-03 3.307054284960031509e-04 1.048766658641397953e-03 1.422474975697696209e-03
1.682000000000000000e+03 5.031438350677490234e+00 8.738779067993164062e+00 -1.449032220989465714e-03 -1.139155356213450432e-03 -7.764562615193426609e-04 2.177004207624122500e-04
1.683000000000000000e+03 6.932590484619140625e+00 -2.357997894287109375e+01 -6.953078787773847580e-03 -5.018895957618951797e-03 -3.591592423617839813e-03 -1.427347888238728046e-03
1.684000000000000000e+03 1.077252864837646484e+01 -2.521345710754394531e+01 -4.978200886398553848e-03 -8.485429920256137848e-03 -4.039089195430278778e-03 8.947879541665315628e-04
1.685000000000000000e+03 9.652941703796386719e+00 1.332779884338378906e+01 2.157749142497777939e-03 -8.149752975441515446e-04 4.028321709483861923e-04 -2.457039896398782730e-03
1.686000000000000000e+03 3.003159141540527344e+01 4.094151306152343750e+01 -8.213705420494079590e-01 1.086022090911865234e+01 3.011655092239379883e+00 3.814261853694915771e-01
1.687000000000000000e+03 4.585320472717285156e+00 -6.202905178070068359e+00 -2.444923156872391701e-03 -5.719232140108942986e-04 -9.050539229065179825e-04 -1.588348648510873318e-03
1.688000000000000000e+03 2.600973510742187500e+01 -1.278225517272949219e+01 4.313099756836891174e-02 6.656431198120117188e+00 2.009868621826171875e+00 1.901479065418243408e-01
1.689000000000000000e+03 1.063177680969238281e+01 -2.991364860534667969e+01 -1.933304592967033386e-02 -1.096731424331665039e-02 -9.090107865631580353e-03 1.282326038926839828e-02
1.690000000000000000e+03 2.471604156494140625e+01 4.428020477294921875e+00 1.013212725520133972e-01 6.735851764678955078e+00 2.051151990890502930e+00 3.151389360427856445e-01
1.691000000000000000e+03 2.582997322082519531e+01 -8.443778991699218750e+00 -1.909151673316955566e-02 6.716964244842529297e+00 2.009361743927001953e+00 2.607754766941070557e-01
1.692000000000000000e+03 1.199290561676025391e+01 2.147482299804687500e+01 5.441630259156227112e-03 7.518022321164608002e-04 1.858029747381806374e-03 3.973278799094259739e-04
1.693000000000000000e+03 1.077176856994628906e+01 2.009060668945312500e+01 4.749549552798271179e-03 5.737880128435790539e-04 1.597001333720982075e-03 -7.053634908515959978e-05
1.694000000000000000e+03 1.051748561859130859e+01 1.105058383941650391e+01 2.014596713706851006e-03 -2.246020158054307103e-04 5.369983846321702003e-04 7.583394763059914112e-04
1.695000000000000000e+03 9.744730949401855469e+00 2.935484504699707031e+01 9.504494257271289825e-03 -2.537904307246208191e-03 2.089977031573653221e-03 3.811319358646869659e-03
1.696000000000000000e+03 1.087607669830322266e+01 1.884016990661621094e+01 -4.845117218792438507e-03 1.328951912000775337e-04 -1.413666526786983013e-03 4.367279325379058719e-05
1.697000000000000000e+03 1.184212875366210938e+01 -3.005491447448730469e+01 1.354468055069446564e-02 1.004671095870435238e-03 4.364805296063423157e-03 -3.579874755814671516e-03
1.698000000000000000e+03 2.613801765441894531e+01 -2.895948171615600586e+00 -5.951119959354400635e-02 6.788473606109619141e+00 2.018688678741455078e+00 2.554564476013183594e-01
1.699000000000000000e+03 2.594659805297851562e+01 5.913969039916992188e+00 5.614618584513664246e-02 6.734298229217529297e+00 2.037133216857910156e+00 3.845258951187133789e-01
1.700000000000000000e+03 2.617579841613769531e+01 1.755409240722656250e+00 2.215525694191455841e-02 6.801019191741943359e+00 2.046952247619628906e+00 2.838310003280639648e-01
1.701000000000000000e+03 3.310691452026367188e+01 4.144539260864257812e+01 -2.223070114850997925e-01 1.156325626373291016e+01 3.402284860610961914e+00 4.409617185592651367e-01
1.702000000000000000e+03 3.755704498291015625e+01 3.894636535644531250e+01 1.256317377090454102e+00 9.710755348205566406e+00 3.290121793746948242e+00 2.911538779735565186e-01
1.703000000000000000e+03 2.607913589477539062e+01 -1.581267452239990234e+01 -1.839405624195933342e-03 6.632643222808837891e+00 1.989241123199462891e+00 1.502156108617782593e-01
1.704000000000000000e+03 2.510143470764160156e+01 -2.992718696594238281e+01 8.628439903259277344e-02 6.435789585113525391e+00 1.956622242927551270e+00 1.777035892009735107e-01
1.705000000000000000e+03 3.395039367675781250e+01 3.388013458251953125e+01 1.981280684471130371e+00 9.864219665527343750e+00 3.553650140762329102e+00 -3.307481706142425537e-01
1.706000000000000000e+03 3.278070449829101562e+01 3.565922927856445312e+01 3.197945833206176758e+00 1.030220222473144531e+01 4.050044059753417969e+00 3.305290341377258301e-01
1.707000000000000000e+03 1.094585037231445312e+01 2.827240943908691406e+01 1.208113599568605423e-02 -2.704805810935795307e-04 3.543196711689233780e-03 7.396726403385400772e-03
1.708000000000000000e+03 8.120676994323730469e+00 2.577549552917480469e+01 5.800824146717786789e-03 2.356089651584625244e-03 2.447074046358466148e-03 1.315454719588160515e-03
1.709000000000000000e+03 6.515151500701904297e+00 3.194450759887695312e+01 -2.929650363512337208e-04 -4.641774110496044159e-03 -1.480421749874949455e-03 -2.312742872163653374e-03
1.710000000000000000e+03 7.186560821533203125e+01 4.099154663085937500e+01 8.134561032056808472e-02 7.116255760192871094e+00 2.159280300140380859e+00 -2.810870297253131866e-02
1.711000000000000000e+03 2.545870208740234375e+01 3.259095001220703125e+01 1.359372138977050781e+00 3.103938102722167969e+00 1.338993072509765625e+00 2.178164720535278320e+00
1.712000000000000000e+03 9.172794342041015625e+00 5.331651687622070312e+00 4.801382310688495636e-04 -1.728506322251632810e-05 1.388559467159211636e-04 -7.857048767618834972e-04
1.713000000000000000e+03 6.870696067810058594e+00 5.590491294860839844e+00 1.693239551968872547e-03 5.720907356590032578e-04 6.795990630052983761e-04 3.282167017459869385e-05
1.714000000000000000e+03 5.380237579345703125e+00 5.592333316802978516e+00 5.584629252552986145e-04 4.615136713255196810e-04 3.059929877053946257e-04 -1.040941569954156876e-03
1.715000000000000000e+03 7.062466144561767578e+00 4.395251750946044922e+00 1.724413945339620113e-03 3.417199695832096040e-05 5.275757866911590099e-04 3.734968777280300856e-04
1.716000000000000000e+03 6.944377899169921875e+00 4.982784271240234375e+00 -2.030070871114730835e-03 -1.745265908539295197e-04 -6.613792502321302891e-04 -2.799989306367933750e-04
1.717000000000000000e+03 9.312457084655761719e+00 -4.935692310333251953e+00 1.387991243973374367e-03 8.569252677261829376e-04 6.734749185852706432e-04 -6.588249816559255123e-04
1.718000000000000000e+03 8.612873077392578125e+00 -4.925977230072021484e+00 -1.419289154000580311e-03 -1.179824350401759148e-03 -7.797340513207018375e-04 1.138719926530029625e-05
1.719000000000000000e+03 7.678135395050048828e+00 4.420680999755859375e+00 -1.571334782056510448e-03 -3.062998439418151975e-05 -4.805894277524203062e-04 -3.807529283221811056e-04
1.720000000000000000e+03 1.014020729064941406e+01 8.143885612487792969e+00 2.324939705431461334e-03 2.611057134345173836e-04 7.758136489428579807e-04 3.580069169402122498e-04
1.721000000000000000e+03 9.884105682373046875e+00 6.470322132110595703e+00 2.505683805793523788e-03 -2.032080228673294187e-04 6.907427450641989708e-04 1.221367856487631798e-04
1.722000000000000000e+03 3.171421432495117188e+01 3.061013031005859375e+01 -8.697333931922912598e-02 1.015777683258056641e+01 3.021240949630737305e+00 2.660519182682037354e-01
1.723000000000000000e+03 9.156449317932128906e+00 8.328859329223632812e+00 -2.229105681180953979e-03 8.831175364321097732e-05 -6.422381848096847534e-04 3.647628473117947578e-04
1.724000000000000000e+03 7.266946792602539062e+00 -7.352982997894287109e+00 -2.063178457319736481e-03 3.443495952524244785e-04 -5.156486295163631439e-04 -9.229452116414904594e-04
1.725000000000000000e+03 9.169287681579589844e+00 -5.598807811737060547e+00 -8.954252116382122040e-04 -1.584314857609570026e-03 -7.439220207743346691e-04 2.133326372131705284e-03
1.726000000000000000e+03 2.471679878234863281e+01 3.238581848144531250e+01 1.130431771278381348e+00 2.359431266784667969e+00 1.046958923339843750e+00 1.615238070487976074e+00
1.727000000000000000e+03 2.806297874450683594e+01 3.225765228271484375e+01 3.450777530670166016e-01 9.105935096740722656e+00 2.835303783416748047e+00 2.965447187423706055e+00
1.728000000000000000e+03 2.745323753356933594e+01 3.266224288940429688e+01 9.548547863960266113e-01 7.589672565460205078e+00 2.563358306884765625e+00 3.502467870712280273e+00
1.729000000000000000e+03 2.584332084655761719e+01 3.280062484741210938e+01 1.539193868637084961e+00 3.629207611083984375e+00 1.550520420074462891e+00 2.570931434631347656e+00
1.730000000000000000e+03 2.509792137145996094e+01 3.165402984619140625e+01 1.017113208770751953e+00 3.464499950408935547e+00 1.344483971595764160e+00 2.146226406097412109e+00
1.731000000000000000e+03 2.476366233825683594e+01 3.071725845336914062e+01 5.379334092140197754e-01 3.527160167694091797e+00 1.219528079032897949e+00 1.939201354980468750e+00
1.732000000000000000e+03 2.533492660522460938e+01 2.805152893066406250e+01 -1.510512232780456543e-01 4.963256359100341797e+00 1.443661570549011230e+00 1.854007601737976074e+00
1.733000000000000000e+03 2.469706344604492188e+01 2.932846260070800781e+01 1.120369881391525269e-01 3.928831577301025391e+00 1.212260603904724121e+00 1.818696379661560059e+00
1.734000000000000000e+03 7.911273002624511719e+00 1.311208438873291016e+01 1.014813198707997799e-03 -6.020731525495648384e-04 1.238219992956146598e-04 -2.121527213603258133e-03
1.735000000000000000e+03 1.164934062957763672e+01 -5.508941650390625000e+00 -2.764040138572454453e-03 -5.404993426054716110e-04 -9.913617977872490883e-04 9.753635386005043983e-04
1.736000000000000000e+03 1.069191551208496094e+01 2.419138908386230469e+01 -4.036686848849058151e-03 -1.656317152082920074e-03 -1.707901246845722198e-03 -9.677020716480910778e-04
1.737000000000000000e+03 3.247433471679687500e+01 3.162907409667968750e+01 5.132917761802673340e-01 1.034488105773925781e+01 3.257452011108398438e+00 -1.844060420989990234e-01
1.738000000000000000e+03 4.001411914825439453e+00 7.396274566650390625e+00 -1.939929090440273285e-03 -8.063609711825847626e-04 -8.238870068453252316e-04 -1.676796528045088053e-04
1.739000000000000000e+03 2.769556617736816406e+01 -1.892010879516601562e+01 -6.878547370433807373e-02 6.673913002014160156e+00 1.981538176536560059e+00 1.275136917829513550e-01
1.740000000000000000e+03 4.946578025817871094e+00 -4.726605415344238281e+00 1.709251082502305508e-03 -7.027049432508647442e-04 3.019638243131339550e-04 -9.540347382426261902e-04
1.741000000000000000e+03 7.291525840759277344e+00 7.283529758453369141e+00 -4.212650819681584835e-04 1.019164919853210449e-03 1.793699484551325440e-04 3.287931613158434629e-04
1.742000000000000000e+03 2.754771804809570312e+01 2.110050678253173828e+00 1.418498461134731770e-03 6.827275276184082031e+00 2.048608064651489258e+00 2.967775166034698486e-01
1.743000000000000000e+03 1.130618858337402344e+01 -1.038039493560791016e+01 -4.167629405856132507e-03 -6.712386966682970524e-04 -1.451660413295030594e-03 8.435961790382862091e-04
1.744000000000000000e+03 9.215316772460937500e+00 -9.040731430053710938e+00 3.323359647765755653e-03 7.794724078848958015e-04 1.230849651619791985e-03 2.100398414768278599e-04
1.745000000000000000e+03 9.791167259216308594e+00 1.783275222778320312e+01 -4.653914365917444229e-03 5.569144850596785545e-04 -1.229099929332733154e-03 -5.892185145057737827e-04
1.746000000000000000e+03 8.210156440734863281e+00 1.604006767272949219e+01 3.137638326734304428e-03 1.336126122623682022e-03 1.342129311524331570e-03 1.619818067410960793e-04
1.747000000000000000e+03 7.867491722106933594e+00 2.277390861511230469e+01 4.751381464302539825e-03 1.803581370040774345e-03 1.966488780453801155e-03 7.461361237801611423e-04
1.748000000000000000e+03 9.271293640136718750e+00 2.276704597473144531e+01 -2.976272488012909889e-03 -1.964141149073839188e-03 -1.482124091126024723e-03 -8.197856368497014046e-04
1.749000000000000000e+03 6.129658222198486328e+00 1.326842117309570312e+01 2.348803100176155567e-04 -1.356332562863826752e-03 -3.364356816746294498e-04 -2.747738268226385117e-03
1.750000000000000000e+03 9.903674125671386719e+00 1.189055728912353516e+01 -8.564605959691107273e-04 3.215218603145331144e-04 -1.604816206963732839e-04 -1.087811775505542755e-03
1.751000000000000000e+03 2.719852828979492188e+01 -7.128682613372802734e+00 -4.484505578875541687e-02 6.781520366668701172e+00 2.021002531051635742e+00 2.443744987249374390e-01
1.752000000000000000e+03 2.730183601379394531e+01 -4.506519317626953125e+00 -6.384404003620147705e-02 6.816071510314941406e+00 2.025668144226074219e+00 2.458692640066146851e-01
1.753000000000000000e+03 1.079083919525146484e+01 -1.412048816680908203e+01 4.758700728416442871e-03 1.320150331594049931e-03 1.823655213229358196e-03 -7.934854947961866856e-04
1.754000000000000000e+03 7.079447174072265625e+01 -2.580403137207031250e+01 -1.612017489969730377e-02 8.051068305969238281e+00 2.410484552383422852e+00 -5.411273613572120667e-02
1.755000000000000000e+03 7.017123413085937500e+01 -3.263814926147460938e+01 -2.148112282156944275e-02 8.050871849060058594e+00 2.408817291259765625e+00 -3.255296871066093445e-02
1.756000000000000000e+03 2.730963134765625000e+01 4.178786849975585938e+01 -5.935909226536750793e-02 6.725521087646484375e+00 1.999848604202270508e+00 -7.686249613761901855e-01
1.757000000000000000e+03 7.227578735351562500e+01 -3.290506362915039062e+01 -1.747035607695579529e-02 8.123859405517578125e+00 2.431916475296020508e+00 -2.870374917984008789e-02
1.758000000000000000e+03 9.778616905212402344e+00 2.823408126831054688e+01 -3.206301480531692505e-03 -4.327717702835798264e-03 -2.260205801576375961e-03 -3.997611347585916519e-03
1.759000000000000000e+03 2.525680541992187500e+01 3.008185768127441406e+01 3.219950199127197266e-01 4.276228904724121094e+00 1.379467248916625977e+00 2.073772668838500977e+00
1.760000000000000000e+03 7.300234222412109375e+01 -2.331369781494140625e+01 -9.779002517461776733e-03 8.114162445068359375e+00 2.431315183639526367e+00 -5.351269617676734924e-02
1.761000000000000000e+03 7.147651672363281250e+01 2.529251670837402344e+01 3.227840736508369446e-02 7.367792606353759766e+00 2.220021247863769531e+00 -2.699631154537200928e-01
1.762000000000000000e+03 7.072954559326171875e+01 1.769067001342773438e+01 -1.294370833784341812e-02 7.553223609924316406e+00 2.262084007263183594e+00 -2.995238006114959717e-01
1.763000000000000000e+03 7.255242156982421875e+01 1.513844013214111328e+01 -1.472472678869962692e-02 7.569962024688720703e+00 2.266571283340454102e+00 -2.507368624210357666e-01
1.764000000000000000e+03 2.664906311035156250e+01 2.702165603637695312e+01 -4.838944673538208008e-01 6.206553936004638672e+00 1.716797828674316406e+00 1.820030093193054199e+00
1.765000000000000000e+03 2.537824821472167969e+01 2.515753555297851562e+01 -3.765398859977722168e-01 5.311869621276855469e+00 1.480598926544189453e+00 1.525526642799377441e+00
1.766000000000000000e+03 7.156099700927734375e+01 9.634296417236328125e+00 -3.234717249870300293e-02 7.701637268066406250e+00 2.300786972045898438e+00 -2.414701730012893677e-01
1.767000000000000000e+03 7.260550689697265625e+01 -1.679727363586425781e+01 -1.541663147509098053e-02 8.058685302734375000e+00 2.412980556488037109e+00 -7.558811455965042114e-02
1.768000000000000000e+03 7.264948272705078125e+01 -1.826507186889648438e+01 -1.264766044914722443e-02 8.072437286376953125e+00 2.417936801910400391e+00 -6.959377229213714600e-02
1.769000000000000000e+03 7.265734863281250000e+01 -6.904026985168457031e+00 -1.953055895864963531e-02 7.965472698211669922e+00 2.383782625198364258e+00 -1.176389530301094055e-01
1.770000000000000000e+03 7.268363189697265625e+01 -9.656964302062988281e+00 -1.783207803964614868e-02 7.996239662170410156e+00 2.393522262573242188e+00 -1.038969233632087708e-01
1.771000000000000000e+03 7.141038513183593750e+01 4.547617435455322266e+00 -3.658921644091606140e-02 7.791085243225097656e+00 2.326348781585693359e+00 -2.084797769784927368e-01
1.772000000000000000e+03 7.270233154296875000e+01 -1.103890514373779297e+01 -2.007685229182243347e-02 8.010567665100097656e+00 2.397147417068481445e+00 -9.824492037296295166e-02
1.773000000000000000e+03 7.269859313964843750e+01 -2.709507703781127930e+00 -2.545215561985969543e-02 7.911931514739990234e+00 2.365943908691406250e+00 -1.415558755397796631e-01
1.774000000000000000e+03 7.270467376708984375e+01 -4.112958908081054688e+00 -2.195710502564907074e-02 7.931521892547607422e+00 2.372869491577148438e+00 -1.328068077564239502e-01
1.775000000000000000e+03 7.407519531250000000e+01 -1.262780427932739258e+00 -1.850482448935508728e-02 7.909224987030029297e+00 2.367216110229492188e+00 -1.282842010259628296e-01
1.776000000000000000e+03 7.266070556640625000e+01 -1.285087466239929199e+00 -2.407000958919525146e-02 7.890192985534667969e+00 2.359836816787719727e+00 -1.503165662288665771e-01
1.777000000000000000e+03 7.419445037841796875e+01 5.735284805297851562e+00 -1.644466258585453033e-02 7.774504661560058594e+00 2.327417850494384766e+00 -1.642509698867797852e-01
1.778000000000000000e+03 9.407238960266113281e+00 3.422844314575195312e+01 1.772345416247844696e-02 -1.207874529063701630e-02 1.693412545137107372e-03 -2.580699743703007698e-03
1.779000000000000000e+03 7.427710533142089844e+00 3.312427520751953125e+01 1.187260821461677551e-02 -5.844639148563146591e-03 1.808390603400766850e-03 -8.204615674912929535e-03
1.780000000000000000e+03 7.411736297607421875e+01 1.255232334136962891e+01 -1.523135788738727570e-02 7.609914779663085938e+00 2.278404951095581055e+00 -2.002175897359848022e-01
1.781000000000000000e+03 7.289643859863281250e+01 9.755971908569335938e+00 -2.120803110301494598e-02 7.687857151031494141e+00 2.299994707107543945e+00 -2.156240195035934448e-01
1.782000000000000000e+03 7.217630004882812500e+01 2.678783798217773438e+01 3.837919980287551880e-02 7.307583332061767578e+00 2.203788757324218750e+00 -2.444070577621459961e-01
1.783000000000000000e+03 7.158685302734375000e+01 2.831077766418457031e+01 4.258858412504196167e-02 7.296571731567382812e+00 2.201748132705688477e+00 -2.380576580762863159e-01
1.784000000000000000e+03 7.211233520507812500e+01 -2.681228065490722656e+01 -1.581881381571292877e-02 8.095650672912597656e+00 2.423949480056762695e+00 -4.511775076389312744e-02
1.785000000000000000e+03 7.369041442871093750e+01 1.955634880065917969e+01 -5.291650304570794106e-04 7.427783489227294922e+00 2.228176355361938477e+00 -2.294535636901855469e-01
1.786000000000000000e+03 1.114310073852539062e+01 9.041697502136230469e+00 2.128496998921036720e-03 5.444819689728319645e-04 8.018937078304588795e-04 6.044305046088993549e-04
1.787000000000000000e+03 2.702759361267089844e+01 1.853343963623046875e+01 -3.642307817935943604e-01 6.419752120971679688e+00 1.816656351089477539e+00 9.612906575202941895e-01
1.788000000000000000e+03 8.787800788879394531e+00 -1.857447433471679688e+01 -5.011714994907379150e-03 -4.043673834530636668e-05 -1.515645417384803295e-03 1.320778857916593552e-03
1.789000000000000000e+03 1.043250179290771484e+01 -1.662771034240722656e+01 4.555532708764076233e-03 2.092659473419189453e-03 1.994457794353365898e-03 -1.136461971327662468e-03
1.790000000000000000e+03 9.500589370727539062e+00 -2.000570487976074219e+01 -3.049366641789674759e-03 1.807871158234775066e-03 -3.724486741703003645e-04 2.712906803935766220e-03
1.791000000000000000e+03 2.886310768127441406e+01 1.020054626464843750e+01 -1.476106345653533936e-01 6.869499683380126953e+00 2.016566753387451172e+00 5.735423564910888672e-01
1.792000000000000000e+03 3.026606941223144531e+01 1.873858833312988281e+01 -5.773449540138244629e-01 7.256716728210449219e+00 2.003811597824096680e+00 9.246774315834045410e-01
1.793000000000000000e+03 2.743275642395019531e+01 1.152465724945068359e+01 -1.373706459999084473e-01 6.703784465789794922e+00 1.969924211502075195e+00 6.019962430000305176e-01
1.794000000000000000e+03 2.611281967163085938e+01 1.004293155670166016e+01 -4.824232682585716248e-02 6.629627227783203125e+00 1.974415540695190430e+00 5.110982656478881836e-01
1.795000000000000000e+03 2.610601043701171875e+01 1.287632369995117188e+01 -1.270369589328765869e-01 6.498424530029296875e+00 1.911416292190551758e+00 6.007302999496459961e-01
1.796000000000000000e+03 3.024483871459960938e+01 1.195934295654296875e+01 -2.638407349586486816e-01 7.024963378906250000e+00 2.028336763381958008e+00 6.349939107894897461e-01
1.797000000000000000e+03 1.067617607116699219e+01 2.141671943664550781e+01 -4.029647912830114365e-03 -1.010372187010943890e-03 -1.512006041593849659e-03 -1.071942970156669617e-04
1.798000000000000000e+03 6.316223144531250000e+00 -8.130532264709472656e+00 1.539507880806922913e-03 5.039724055677652359e-04 6.130440742708742619e-04 1.050002756528556347e-03
1.799000000000000000e+03 5.215228080749511719e+00 -8.698403358459472656e+00 -3.723801113665103912e-03 -5.072432104498147964e-04 -1.269313273951411247e-03 -9.599712793715298176e-04
1.800000000000000000e+03 2.600115585327148438e+01 1.568535232543945312e+01 -1.968843042850494385e-01 6.317780971527099609e+00 1.836268901824951172e+00 7.275252938270568848e-01
1.801000000000000000e+03 2.730909156799316406e+01 1.435976314544677734e+01 -2.242557853460311890e-01 6.604763507843017578e+00 1.914152264595031738e+00 7.193456888198852539e-01
1.802000000000000000e+03 6.784141063690185547e+00 2.594535636901855469e+01 -5.100033013150095940e-04 -4.457707516849040985e-03 -1.490313210524618626e-03 -1.002122764475643635e-03
1.803000000000000000e+03 6.720605850219726562e+00 -1.724325370788574219e+01 6.667183246463537216e-03 1.564702950417995453e-03 2.469565952196717262e-03 2.970630768686532974e-03
1.804000000000000000e+03 5.608603000640869141e+00 -2.388563919067382812e+01 6.456688512116670609e-03 1.784173189662396908e-03 2.472258638590574265e-03 2.003390574827790260e-03
1.805000000000000000e+03 7.760973930358886719e+00 -1.832060241699218750e+01 4.999713040888309479e-03 1.140927895903587341e-03 1.842192257754504681e-03 -9.932996472343802452e-04
1.806000000000000000e+03 8.928450584411621094e+00 2.877124977111816406e+01 7.366498932242393494e-03 -3.865919075906276703e-03 1.050174003466963768e-03 5.486650625243782997e-04
1.807000000000000000e+03 5.954242706298828125e+00 2.879954338073730469e+01 5.253370385617017746e-03 1.207659137435257435e-03 1.938308821991086006e-03 -4.542673472315073013e-03
1.808000000000000000e+03 1.061993980407714844e+01 -2.242181205749511719e+01 -3.612754866480827332e-03 5.781942163594067097e-04 -9.103682241402566433e-04 -6.530838552862405777e-03
1.809000000000000000e+03 1.153614521026611328e+01 -2.312945365905761719e+01 6.123645696789026260e-03 5.367056000977754593e-04 1.998105552047491074e-03 3.928688820451498032e-03
1.810000000000000000e+03 6.574379444122314453e+00 2.077405357360839844e+01 2.568047493696212769e-03 1.705711358226835728e-03 1.282127690501511097e-03 1.241401187144219875e-03
1.811000000000000000e+03 5.349929809570312500e+00 2.033681106567382812e+01 -2.014859346672892570e-03 -1.338990638032555580e-03 -1.006154925562441349e-03 -5.229407106526196003e-04
1.812000000000000000e+03 5.935132503509521484e+00 1.607806205749511719e+01 1.821448211558163166e-03 1.918200170621275902e-03 1.121894572861492634e-03 1.257640542462468147e-03
1.813000000000000000e+03 6.954005718231201172e+00 1.915124702453613281e+01 -2.430910011753439903e-03 -1.678416621871292591e-03 -1.232797978445887566e-03 -1.056058099493384361e-03
1.814000000000000000e+03 5.784787654876708984e+00 -2.021710205078125000e+01 -8.826936595141887665e-03 5.446924478746950626e-04 -2.484673168510198593e-03 -1.134720398113131523e-03
1.815000000000000000e+03 8.442276000976562500e+00 -1.957352447509765625e+01 6.514298729598522186e-03 -3.268246538937091827e-03 9.738156804814934731e-04 -2.553867176175117493e-03
1.816000000000000000e+03 2.767361259460449219e+01 -1.431685924530029297e+01 2.828737720847129822e-03 6.701338291168212891e+00 2.011250019073486328e+00 1.522103548049926758e-01
1.817000000000000000e+03 2.744163894653320312e+01 -1.128314399719238281e+01 1.043339166790246964e-02 6.729835510253906250e+00 2.022080659866333008e+00 1.997343748807907104e-01
1.818000000000000000e+03 1.093049716949462891e+01 -2.403989601135253906e+01 2.806542906910181046e-03 3.961581736803054810e-03 2.030437346547842026e-03 -2.099763602018356323e-03
1.819000000000000000e+03 7.196379661560058594e+00 1.491620635986328125e+01 3.021936630830168724e-03 7.920282077975571156e-04 1.144189503975212574e-03 -2.342173247598111629e-04
1.820000000000000000e+03 6.817999362945556641e+00 -1.462948799133300781e+01 5.676711443811655045e-03 9.617268806323409081e-04 1.991531578823924065e-03 1.131634693592786789e-03
1.821000000000000000e+03 9.840875625610351562e+00 -2.878330802917480469e+01 -1.592740602791309357e-02 -1.609111763536930084e-02 -9.605556726455688477e-03 1.222424395382404327e-02
1.822000000000000000e+03 1.078157424926757812e+01 -2.643960380554199219e+01 7.673910353332757950e-03 6.754485890269279480e-03 4.328519105911254883e-03 -4.268242977559566498e-03
1.823000000000000000e+03 4.913871765136718750e+00 9.816396713256835938e+00 1.698940759524703026e-03 8.223641198128461838e-04 7.563914987258613110e-04 -7.250563940033316612e-04
1.824000000000000000e+03 5.342694759368896484e+00 6.823078632354736328e+00 -2.294199075549840927e-03 8.611500961706042290e-04 -4.299146821722388268e-04 -3.842978621833026409e-04
1.825000000000000000e+03 6.671538829803466797e+00 8.052206039428710938e+00 -5.473229684866964817e-04 -6.626620306633412838e-04 -3.629954881034791470e-04 -2.217355649918317795e-04
1.826000000000000000e+03 2.674420166015625000e+01 2.136869621276855469e+01 -4.540552496910095215e-01 6.261940002441406250e+00 1.742365479469299316e+00 1.187125086784362793e+00
1.827000000000000000e+03 5.603888988494873047e+00 -1.316695308685302734e+01 4.833024926483631134e-03 1.085316878743469715e-03 1.775502576492726803e-03 1.217804034240543842e-03
1.828000000000000000e+03 6.909865856170654297e+00 -1.316049861907958984e+01 -4.796772263944149017e-03 -1.170568168163299561e-03 -1.790202222764492035e-03 -9.937566937878727913e-04
1.829000000000000000e+03 2.644466781616210938e+01 2.500492286682128906e+01 -5.064988136291503906e-01 6.023180007934570312e+00 1.655004382133483887e+00 1.582699298858642578e+00
1.830000000000000000e+03 8.478714942932128906e+00 8.886829376220703125e+00 -9.289239533245563507e-04 -6.269112927839159966e-04 -4.667505563702434301e-04 -3.288650768809020519e-04
1.831000000000000000e+03 5.832394123077392578e+00 -7.072354316711425781e+00 -2.171593252569437027e-03 -5.282513448037207127e-04 -8.099533151835203171e-04 -1.690897974185645580e-03
1.832000000000000000e+03 2.648719024658203125e+01 2.263085365295410156e+01 -4.696730077266693115e-01 6.105547904968261719e+00 1.690762400627136230e+00 1.317977070808410645e+00
1.833000000000000000e+03 2.642331504821777344e+01 2.383964729309082031e+01 -4.883329272270202637e-01 6.032779216766357422e+00 1.663333892822265625e+00 1.443932056427001953e+00
1.834000000000000000e+03 2.948845863342285156e+01 -1.914482688903808594e+01 -5.606738850474357605e-02 6.732322692871093750e+00 2.002876520156860352e+00 1.217648610472679138e-01
1.835000000000000000e+03 2.726312255859375000e+01 7.340524196624755859e+00 -1.518341153860092163e-02 6.771015644073486328e+00 2.026749610900878906e+00 4.555750489234924316e-01
1.836000000000000000e+03 2.588309097290039062e+01 -9.849195480346679688e+00 1.253913622349500656e-02 6.706664085388183594e+00 2.015760898590087891e+00 2.442469745874404907e-01
1.837000000000000000e+03 2.795991897583007812e+01 7.378361821174621582e-01 -2.341849170625209808e-02 6.861908435821533203e+00 2.051547050476074219e+00 2.749021053314208984e-01
1.838000000000000000e+03 2.721142196655273438e+01 4.737379550933837891e+00 2.418554946780204773e-02 6.795643806457519531e+00 2.045948982238769531e+00 3.604022860527038574e-01
1.839000000000000000e+03 9.552835464477539062e+00 1.683995246887207031e+01 2.997468924149870872e-03 1.049779355525970459e-03 1.214174553751945496e-03 6.053319084458053112e-04
1.840000000000000000e+03 1.026831245422363281e+01 -3.117357635498046875e+01 -1.286297570914030075e-03 4.926912486553192139e-03 1.092184567824006081e-03 1.297474931925535202e-02
1.841000000000000000e+03 1.105894279479980469e+01 -3.328395462036132812e+01 -2.599322423338890076e-02 2.015524357557296753e-02 -1.751394243910908699e-03 3.272527083754539490e-02
1.842000000000000000e+03 1.085716438293457031e+01 2.965495681762695312e+01 1.780166530807036906e-05 -5.812102928757667542e-03 -1.738290418870747089e-03 -3.359029768034815788e-03
1.843000000000000000e+03 2.414232254028320312e+01 -2.280264091491699219e+01 -6.648613512516021729e-02 6.471682071685791016e+00 1.921558737754821777e+00 1.817637383937835693e-01
1.844000000000000000e+03 2.584654998779296875e+01 -2.166325569152832031e+01 -7.331471145153045654e-02 6.574949264526367188e+00 1.950490355491638184e+00 1.635816991329193115e-01
1.845000000000000000e+03 2.404470252990722656e+01 -2.410473251342773438e+01 -7.159044593572616577e-02 6.472416400909423828e+00 1.920247673988342285e+00 1.876770257949829102e-01
1.846000000000000000e+03 3.439595413208007812e+01 3.538294982910156250e+01 2.387945890426635742e+00 9.736454963684082031e+00 3.637320280075073242e+00 1.370760500431060791e-01
1.847000000000000000e+03 2.734326362609863281e+01 3.438556432723999023e+00 2.252105437219142914e-02 6.816480636596679688e+00 2.051700592041015625e+00 3.308535218238830566e-01
1.848000000000000000e+03 6.725926971435546875e+01 3.010016441345214844e+01 1.117182224988937378e-01 7.440863609313964844e+00 2.265774488449096680e+00 -2.888497114181518555e-01
1.849000000000000000e+03 2.333144950866699219e+01 -3.161408615112304688e+01 1.883872002363204956e-01 6.409427165985107422e+00 1.979344367980957031e+00 2.628037929534912109e-01
1.850000000000000000e+03 2.457197761535644531e+01 -2.823254013061523438e+01 3.828282281756401062e-02 6.467038631439208984e+00 1.951596379280090332e+00 2.093632370233535767e-01
1.851000000000000000e+03 2.605972671508789062e+01 -2.789318275451660156e+01 2.698920480906963348e-02 6.489388465881347656e+00 1.954913258552551270e+00 1.791668832302093506e-01
1.852000000000000000e+03 1.219102478027343750e+01 2.990564918518066406e+01 1.658570766448974609e-02 -1.706977374851703644e-03 4.463619086891412735e-03 9.217423386871814728e-03
1.853000000000000000e+03 1.058693981170654297e+01 3.466490554809570312e+01 1.450321264564990997e-02 -2.167668566107749939e-02 -2.152041764929890633e-03 -6.714602466672658920e-03
1.854000000000000000e+03 1.155431556701660156e+01 -6.728312015533447266e+00 3.476456971839070320e-03 6.408389890566468239e-04 1.235188799910247326e-03 -9.138567838817834854e-04
1.855000000000000000e+03 7.258983612060546875e+01 -1.532462978363037109e+01 -1.512226834893226624e-02 8.047202110290527344e+00 2.409623861312866211e+00 -8.003228902816772461e-02
1.856000000000000000e+03 2.641959953308105469e+01 -1.349071741104125977e+00 -3.474868834018707275e-02 6.811471939086914062e+00 2.033016920089721680e+00 2.567230761051177979e-01
1.857000000000000000e+03 9.144874572753906250e+00 -3.545043945312500000e+01 -4.021545872092247009e-02 5.833646282553672791e-02 5.436300765722990036e-03 -1.144246105104684830e-02
1.858000000000000000e+03 7.294004058837890625e+01 7.101500988006591797e+00 -2.335047535598278046e-02 7.744668483734130859e+00 2.316395282745361328e+00 -1.988014280796051025e-01
1.859000000000000000e+03 7.265825653076171875e+01 1.377203559875488281e+01 -1.974448561668395996e-02 7.600282669067382812e+00 2.274161577224731445e+00 -2.415266782045364380e-01
1.860000000000000000e+03 1.291843891143798828e+01 3.972521972656250000e+01 2.186285128118470311e-04 -5.548395588994026184e-02 -1.657959818840026855e-02 -7.793996483087539673e-04
1.861000000000000000e+03 9.736059188842773438e+00 3.892953491210937500e+01 -1.464009750634431839e-02 -1.086232904344797134e-02 -7.650727871805429459e-03 -1.987766008824110031e-03
1.862000000000000000e+03 1.005164146423339844e+01 -1.143673419952392578e+01 -3.762633306905627251e-03 -7.312329253181815147e-04 -1.348159858025610447e-03 1.113378209993243217e-03
1.863000000000000000e+03 9.548172950744628906e+00 -1.380941486358642578e+01 -4.150319378823041916e-03 -1.226357067935168743e-03 -1.613002852536737919e-03 6.520261376863345504e-05
1.864000000000000000e+03 3.450095748901367188e+01 3.172902870178222656e+01 8.901692032814025879e-01 9.759774208068847656e+00 3.194983243942260742e+00 -4.511098563671112061e-01
1.865000000000000000e+03 2.708995628356933594e+01 3.212535476684570312e+01 8.386843800544738770e-01 6.792431831359863281e+00 2.289334774017333984e+00 3.192410707473754883e+00
1.866000000000000000e+03 7.955815792083740234e+00 6.263853549957275391e+00 -2.960058394819498062e-03 1.440307387383654714e-04 -8.448082953691482544e-04 -9.981279727071523666e-04
1.867000000000000000e+03 5.968889713287353516e+00 7.410737991333007812e+00 2.347834670217707753e-04 -3.731881151907145977e-04 -4.152139445068314672e-05 8.642761531518772244e-05
1.868000000000000000e+03 2.830424118041992188e+01 3.023856735229492188e+01 -3.577535748481750488e-01 8.318034172058105469e+00 2.388084173202514648e+00 2.166510820388793945e+00
1.869000000000000000e+03 2.697684097290039062e+01 3.299774551391601562e+01 1.526961207389831543e+00 6.238658905029296875e+00 2.329685926437377930e+00 3.643374919891357422e+00
1.870000000000000000e+03 2.721779441833496094e+01 3.353498458862304688e+01 1.994712352752685547e+00 6.750230789184570312e+00 2.623482942581176758e+00 4.209330558776855469e+00
1.871000000000000000e+03 8.667797088623046875e+00 5.604109764099121094e+00 -2.624662825837731361e-03 7.720218272879719734e-04 -5.557922995649278164e-04 5.862479156348854303e-05
1.872000000000000000e+03 7.445688724517822266e+00 5.568327903747558594e+00 -1.742872409522533417e-03 -4.107931454200297594e-04 -6.460996810346841812e-04 -1.632783794775605202e-03
1.873000000000000000e+03 2.605725288391113281e+01 2.801142311096191406e+01 -2.204499244689941406e-01 5.669883251190185547e+00 1.634829878807067871e+00 2.010524272918701172e+00
1.874000000000000000e+03 2.573675155639648438e+01 3.065440940856933594e+01 4.362069964408874512e-01 4.741344928741455078e+00 1.553265571594238281e+00 2.298452615737915039e+00
1.875000000000000000e+03 1.084333801269531250e+01 6.212961196899414062e+00 -3.026236081495881081e-03 4.134146438445895910e-04 -7.838464807718992233e-04 -7.990682497620582581e-04
1.876000000000000000e+03 1.003501129150390625e+01 7.300558090209960938e+00 -2.517830813303589821e-03 -8.119030098896473646e-05 -7.797063444741070271e-04 -4.368465451989322901e-04
1.877000000000000000e+03 8.191643714904785156e+00 -6.724906444549560547e+00 2.798079978674650192e-03 -6.042228196747601032e-04 6.581571069546043873e-04 1.139126135967671871e-03
1.878000000000000000e+03 6.408340930938720703e+00 -5.872095108032226562e+00 -9.182229405269026756e-04 -1.560356700792908669e-03 -7.435738807544112206e-04 -1.205971697345376015e-03
1.879000000000000000e+03 8.602909088134765625e+00 -5.634811401367187500e+00 1.210777088999748230e-03 1.681481138803064823e-03 8.676774450577795506e-04 1.586685539223253727e-04
1.880000000000000000e+03 8.091263771057128906e+00 -9.057868003845214844e+00 -3.334371838718652725e-03 -1.017994130961596966e-03 -1.305709825828671455e-03 -1.741158310323953629e-03
1.881000000000000000e+03 1.170853137969970703e+01 5.818812370300292969e+00 1.212416100315749645e-03 -2.052272320725023746e-04 3.021566371899098158e-04 -6.943637272343039513e-04
1.882000000000000000e+03 1.117709445953369141e+01 8.012809753417968750e+00 -2.303252927958965302e-03 -3.620708303060382605e-04 -7.995971245691180229e-04 -5.021986435167491436e-04
1.883000000000000000e+03 1.048476505279541016e+01 -8.007573127746582031e+00 3.862609155476093292e-03 2.547530748415738344e-04 1.235208706930279732e-03 -2.614246623124927282e-04
1.884000000000000000e+03 2.763039016723632812e+01 3.164590454101562500e+01 2.835816740989685059e-01 7.902403354644775391e+00 2.455795526504516602e+00 2.839243888854980469e+00
1.885000000000000000e+03 8.939055442810058594e+00 1.144576072692871094e+01 3.010006388649344444e-03 -4.394189454615116119e-04 7.711762445978820324e-04 4.116562195122241974e-04
1.886000000000000000e+03 6.914734840393066406e+00 1.395792770385742188e+01 -1.631357939913868904e-03 1.279036980122327805e-03 -1.056963083101436496e-04 2.569026779383420944e-03
1.887000000000000000e+03 9.131196975708007812e+00 1.474050235748291016e+01 1.758622820489108562e-03 1.156377489678561687e-03 8.745001396164298058e-04 -6.432299851439893246e-04
1.888000000000000000e+03 8.357661247253417969e+00 1.730968666076660156e+01 -2.657288685441017151e-03 -1.406115712597966194e-03 -1.219021389260888100e-03 -1.841221383074298501e-04
1.889000000000000000e+03 8.069446563720703125e+00 -1.478758525848388672e+01 -4.210563842207193375e-03 -1.606695237569510937e-03 -1.745177665725350380e-03 -2.253797865705564618e-04
1.890000000000000000e+03 9.009872436523437500e+00 -1.126958751678466797e+01 2.243160037323832512e-03 1.837207004427909851e-03 1.224110019393265247e-03 -1.144309178926050663e-03
1.891000000000000000e+03 1.013665866851806641e+01 9.014263153076171875e+00 -1.908162259496748447e-03 -5.859721568413078785e-04 -7.482403307221829891e-04 3.151478813379071653e-05
1.892000000000000000e+03 3.054178428649902344e+01 3.120345687866210938e+01 -1.687448322772979736e-01 1.044089317321777344e+01 3.081644535064697266e+00 7.461994290351867676e-01
1.893000000000000000e+03 2.892321586608886719e+01 3.120890235900878906e+01 -2.375368326902389526e-01 9.537234306335449219e+00 2.789909124374389648e+00 1.982984185218811035e+00
1.894000000000000000e+03 2.800709724426269531e+01 -1.697893381118774414e+00 -5.163620412349700928e-02 6.856810092926025391e+00 2.041552066802978516e+00 2.504410445690155029e-01
1.895000000000000000e+03 3.077930259704589844e+01 5.258830547332763672e+00 -9.943404048681259155e-02 7.006982803344726562e+00 2.072264671325683594e+00 3.928764462471008301e-01
1.896000000000000000e+03 5.089687824249267578e+00 7.663758754730224609e+00 1.591207692399621010e-03 9.648447739891707897e-04 7.668157340958714485e-04 5.142830923432484269e-05
1.897000000000000000e+03 5.790382862091064453e+00 1.000358104705810547e+01 -1.706305192783474922e-04 -1.484743319451808929e-03 -4.966121632605791092e-04 -3.535372961778193712e-04
1.898000000000000000e+03 7.289015197753906250e+01 5.761863708496093750e+00 -2.671686001121997833e-02 7.771668434143066406e+00 2.323485374450683594e+00 -1.915301680564880371e-01
1.899000000000000000e+03 1.152301406860351562e+01 -7.960726261138916016e+00 -3.861201461404561996e-03 -4.857573949266225100e-04 -1.304087694734334946e-03 7.675642264075577259e-04
1.900000000000000000e+03 1.020854187011718750e+01 -1.026674747467041016e+01 3.351485589519143105e-03 1.145623740740120411e-03 1.349132857285439968e-03 -7.752758683636784554e-04
1.901000000000000000e+03 7.092306613922119141e+00 1.756949806213378906e+01 3.118073800578713417e-03 1.901763840578496456e-03 1.505951280705630779e-03 1.129481010138988495e-03
1.902000000000000000e+03 9.777977943420410156e+00 1.878685569763183594e+01 4.819408059120178223e-03 -4.127901338506489992e-04 1.321985386312007904e-03 1.930211001308634877e-04
1.903000000000000000e+03 7.265838623046875000e+01 -8.280239105224609375e+00 -2.176094241440296173e-02 7.980929851531982422e+00 2.387750625610351562e+00 -1.114173680543899536e-01
1.904000000000000000e+03 7.641364097595214844e+00 8.497359275817871094e+00 1.112305559217929840e-03 6.756205111742019653e-04 5.363778327591717243e-04 4.987045540474355221e-04
1.905000000000000000e+03 7.268545532226562500e+01 3.009032011032104492e+00 -2.826193533837795258e-02 7.822180271148681641e+00 2.338175535202026367e+00 -1.771547198295593262e-01
1.906000000000000000e+03 7.099052429199218750e+01 1.644215822219848633e+00 -3.905554115772247314e-02 7.832882404327392578e+00 2.338148117065429688e+00 -1.938425749540328979e-01
1.907000000000000000e+03 7.129413604736328125e+01 -2.761366128921508789e+00 -3.107919357717037201e-02 7.893355369567871094e+00 2.358682870864868164e+00 -1.587407886981964111e-01
1.908000000000000000e+03 7.276640319824218750e+01 -2.115102767944335938e+01 -9.592279791831970215e-03 8.096148490905761719e+00 2.425966739654541016e+00 -6.046704947948455811e-02
1.909000000000000000e+03 9.454485893249511719e+00 -7.991097927093505859e+00 -3.561156569048762321e-03 3.230594738852232695e-04 -9.714291081763803959e-04 6.839726702310144901e-04
1.910000000000000000e+03 8.337653160095214844e+00 2.706924819946289062e+01 -7.669904152862727642e-05 -6.196476519107818604e-03 -1.881952746771275997e-03 -3.634954337030649185e-03
1.911000000000000000e+03 9.448001861572265625e+00 2.562415695190429688e+01 -2.707751700654625893e-03 -3.332095453515648842e-03 -1.811954192817211151e-03 -1.742506050504744053e-03
1.912000000000000000e+03 7.122365570068359375e+01 -5.534458637237548828e+00 -2.969795092940330505e-02 7.923460006713867188e+00 2.368128538131713867e+00 -1.416561007499694824e-01
1.913000000000000000e+03 9.344709396362304688e+00 1.575554847717285156e+01 -2.353575313463807106e-03 -1.271472312510013580e-03 -1.087514217942953110e-03 -1.122210233006626368e-04
1.914000000000000000e+03 3.354916000366210938e+01 -1.720928955078125000e+01 -6.439096480607986450e-02 6.890616416931152344e+00 2.047867536544799805e+00 7.840307801961898804e-02
1.915000000000000000e+03 2.775705718994140625e+01 -1.742085647583007812e+01 -4.073557630181312561e-02 6.686439514160156250e+00 1.993711113929748535e+00 1.340849548578262329e-01
1.916000000000000000e+03 6.857918262481689453e+00 -1.162592697143554688e+01 4.357272759079933167e-03 1.310843043029308319e-03 1.700434717349708080e-03 6.654722965322434902e-04
1.917000000000000000e+03 7.456969451904296875e+01 2.480376434326171875e+01 1.105684600770473480e-02 7.250731468200683594e+00 2.178536415100097656e+00 -1.951927393674850464e-01
1.918000000000000000e+03 7.105889129638671875e+01 -2.328734397888183594e+01 -1.488892175257205963e-02 8.053636550903320312e+00 2.411624193191528320e+00 -6.115511804819107056e-02
1.919000000000000000e+03 7.291759490966796875e+01 -2.540888595581054688e+01 -9.168884716928005219e-03 8.119720458984375000e+00 2.433165311813354492e+00 -4.737593978643417358e-02
1.920000000000000000e+03 9.919542312622070312e+00 -1.895524215698242188e+01 5.042899399995803833e-03 -5.821458762511610985e-04 1.338226138614118099e-03 -1.789456233382225037e-03
1.921000000000000000e+03 8.602727890014648438e+00 -2.203612518310546875e+01 -8.424946106970310211e-03 -1.478086807765066624e-03 -2.970909932628273964e-03 5.461213178932666779e-03
1.922000000000000000e+03 2.744332504272460938e+01 1.009073734283447266e+01 -9.631368517875671387e-02 6.737846851348876953e+00 1.992460012435913086e+00 5.487736463546752930e-01
1.923000000000000000e+03 2.721684074401855469e+01 1.574568939208984375e+01 -2.716899514198303223e-01 6.546239376068115234e+00 1.882364869117736816e+00 7.897410392761230469e-01
1.924000000000000000e+03 7.122143554687500000e+01 -1.693116569519042969e+01 -1.972738467156887054e-02 8.022120475769042969e+00 2.400717735290527344e+00 -8.414701372385025024e-02
1.925000000000000000e+03 7.275395965576171875e+01 1.241345405578613281e+01 -1.913504675030708313e-02 7.630239486694335938e+00 2.283331155776977539e+00 -2.334176152944564819e-01
1.926000000000000000e+03 7.146669006347656250e+01 1.090645503997802734e+01 -2.867357805371284485e-02 7.677222728729248047e+00 2.294564723968505859e+00 -2.519207894802093506e-01
1.927000000000000000e+03 7.132161712646484375e+01 -1.103759193420410156e+01 -2.338689751923084259e-02 7.977617740631103516e+00 2.386269330978393555e+00 -1.093699038028717041e-01
1.928000000000000000e+03 7.052470397949218750e+01 1.916191101074218750e+01 -3.649472724646329880e-03 7.526357650756835938e+00 2.256812334060668945e+00 -3.070895075798034668e-01
1.929000000000000000e+03 3.010002136230468750e+01 1.340859508514404297e+01 -3.198995590209960938e-01 7.026250839233398438e+00 2.011905431747436523e+00 6.944047212600708008e-01
1.930000000000000000e+03 2.917597770690917969e+01 1.976381874084472656e+01 -5.661262273788452148e-01 7.033315658569335938e+00 1.940156817436218262e+00 1.035441040992736816e+00
1.931000000000000000e+03 6.735592842102050781e+00 2.453197479248046875e+01 4.309298470616340637e-03 2.516704844310879707e-03 2.047800924628973007e-03 -9.953076869351207279e-07
1.932000000000000000e+03 2.827939796447753906e+01 1.720805931091308594e+01 -3.899542093276977539e-01 6.740548610687255859e+00 1.905178308486938477e+00 8.944384455680847168e-01
1.933000000000000000e+03 7.262388610839843750e+01 -1.386357116699218750e+01 -1.810078695416450500e-02 8.035947799682617188e+00 2.405354022979736328e+00 -8.689663559198379517e-02
1.934000000000000000e+03 6.876315593719482422e+00 -2.499696922302246094e+01 6.768983788788318634e-03 -6.055483245290815830e-04 1.849030726589262486e-03 2.916211262345314026e-03
1.935000000000000000e+03 8.626434326171875000e+00 -2.831072235107421875e+01 -1.186940167099237442e-02 -1.494465861469507217e-02 -8.044217713177204132e-03 2.032373100519180298e-03
1.936000000000000000e+03 7.137420654296875000e+01 1.221373939514160156e+01 -2.941456250846385956e-02 7.653614044189453125e+00 2.287259817123413086e+00 -2.611555457115173340e-01
1.937000000000000000e+03 8.257578849792480469e+00 1.954674911499023438e+01 2.317486796528100967e-03 1.685423194430768490e-03 1.200873055495321751e-03 9.004584862850606441e-04
1.938000000000000000e+03 7.033162593841552734e+00 -2.028055191040039062e+01 8.876963518559932709e-03 -6.874953978694975376e-04 2.456840360537171364e-03 2.750389510765671730e-03
1.939000000000000000e+03 2.696059989929199219e+01 1.998066329956054688e+01 -4.153498411178588867e-01 6.361207008361816406e+00 1.783757209777832031e+00 1.076517701148986816e+00
1.940000000000000000e+03 7.950493335723876953e+00 -1.608425712585449219e+01 5.063240882009267807e-03 1.592488260939717293e-03 1.996718812733888626e-03 6.939813029021024704e-04
1.941000000000000000e+03 2.720467185974121094e+01 -5.824036598205566406e+00 -5.067725479602813721e-02 6.805392742156982422e+00 2.026414632797241211e+00 2.462301701307296753e-01
1.942000000000000000e+03 3.053448104858398438e+01 -2.912449598312377930e+00 -7.356061786413192749e-02 6.941704273223876953e+00 2.060442924499511719e+00 2.280185669660568237e-01
1.943000000000000000e+03 9.751122474670410156e+00 -2.163170242309570312e+01 5.370481871068477631e-03 2.196927787736058235e-03 2.270222874358296394e-03 3.815958742052316666e-03
1.944000000000000000e+03 2.741257095336914062e+01 2.376136207580566406e+01 -5.897089242935180664e-01 6.562672138214111328e+00 1.791888952255249023e+00 1.414306759834289551e+00
1.945000000000000000e+03 9.464062690734863281e+00 -2.523066520690917969e+01 5.442715715616941452e-03 3.958184737712144852e-03 2.820270135998725891e-03 -2.658692188560962677e-03
1.946000000000000000e+03 2.858269882202148438e+01 1.451389980316162109e+01 -2.973625361919403076e-01 6.807613849639892578e+00 1.953075408935546875e+00 7.518235445022583008e-01
1.947000000000000000e+03 9.013899803161621094e+00 -1.748614883422851562e+01 4.778755828738212585e-03 1.598138012923300266e-03 1.913068117573857307e-03 -5.762117798440158367e-04
1.948000000000000000e+03 9.739335060119628906e+00 -5.755619525909423828e+00 2.000212669372558594e-03 -4.460916388779878616e-04 4.662362916860729456e-04 -2.161004114896059036e-03
1.949000000000000000e+03 9.543794631958007812e+00 -7.118110656738281250e+00 4.114840179681777954e-03 1.346733915852382779e-05 1.238492317497730255e-03 -1.856057904660701752e-03
1.950000000000000000e+03 6.148101329803466797e+00 9.013507843017578125e+00 6.700653466396033764e-04 1.471963478252291679e-03 6.426086183637380600e-04 1.381005276925861835e-04
1.951000000000000000e+03 8.019889831542968750e+00 7.632138252258300781e+00 -2.063815481960773468e-03 -4.484263190533965826e-04 -7.536725024692714214e-04 -6.665327819064259529e-04
1.952000000000000000e+03 7.080454349517822266e+00 -8.905212402343750000e+00 1.904411590658128262e-03 3.950764366891235113e-04 6.898464052937924862e-04 -8.794355671852827072e-04
1.953000000000000000e+03 2.870950317382812500e+01 1.311651611328125000e+01 -2.446514666080474854e-01 6.833965301513671875e+00 1.976794242858886719e+00 6.882804632186889648e-01
1.954000000000000000e+03 7.199946594238281250e+01 2.092171859741210938e+01 4.259614273905754089e-03 7.439266681671142578e+00 2.233057975769042969e+00 -2.724656462669372559e-01
1.955000000000000000e+03 2.812163925170898438e+01 1.991504096984863281e+01 -5.033481121063232422e-01 6.712610244750976562e+00 1.862778544425964355e+00 1.078651666641235352e+00
1.956000000000000000e+03 5.723286151885986328e+00 -2.759474754333496094e+01 -1.512752473354339600e-02 -2.617418067529797554e-03 -5.323483143001794815e-03 -2.915769815444946289e-03
1.957000000000000000e+03 2.717226028442382812e+01 6.034249782562255859e+00 1.914886757731437683e-02 6.786119937896728516e+00 2.041580677032470703e+00 4.123921096324920654e-01
1.958000000000000000e+03 7.493092536926269531e+00 3.088336944580078125e+01 6.392631679773330688e-03 -2.352464944124221802e-03 1.212050090543925762e-03 -5.077062174677848816e-03
1.959000000000000000e+03 8.277708053588867188e+00 2.981435585021972656e+01 3.517471021041274071e-03 -4.556513391435146332e-03 -3.117126761935651302e-04 -1.512131420895457268e-03
1.960000000000000000e+03 3.011797714233398438e+01 -8.348262786865234375e+00 -4.470640048384666443e-02 6.872180461883544922e+00 2.048242330551147461e+00 1.980584114789962769e-01
1.961000000000000000e+03 2.880496215820312500e+01 -9.784824371337890625e+00 -2.026749402284622192e-02 6.802617073059082031e+00 2.034704923629760742e+00 2.008765786886215210e-01
1.962000000000000000e+03 2.836358451843261719e+01 6.179054260253906250e+00 -2.387669123709201813e-02 6.837093830108642578e+00 2.043965101242065430e+00 4.156986773014068604e-01
1.963000000000000000e+03 2.749453544616699219e+01 2.595856285095214844e+01 -6.126574873924255371e-01 6.742469787597656250e+00 1.838943600654602051e+00 1.631767868995666504e+00
1.964000000000000000e+03 7.779362678527832031e+00 1.105819129943847656e+01 -1.971340272575616837e-03 -3.023474127985537052e-04 -6.821062997914850712e-04 -1.184660126455128193e-03
1.965000000000000000e+03 7.022891044616699219e+00 1.222208499908447266e+01 5.220036837272346020e-04 5.228380905464291573e-04 3.134525322820991278e-04 2.264804206788539886e-03
1.966000000000000000e+03 7.176910400390625000e+01 2.253017616271972656e+01 1.373445335775613785e-02 7.413952350616455078e+00 2.228306055068969727e+00 -2.773552238941192627e-01
1.967000000000000000e+03 7.128705596923828125e+01 -2.847020721435546875e+01 -1.247250381857156754e-02 8.078582763671875000e+00 2.419833183288574219e+00 -4.334712028503417969e-02
1.968000000000000000e+03 2.938490867614746094e+01 -2.318749189376831055e+00 -6.036267057061195374e-02 6.907568931579589844e+00 2.054161787033081055e+00 2.414096742868423462e-01
1.969000000000000000e+03 2.763764762878417969e+01 2.177274894714355469e+01 -5.395693778991699219e-01 6.582480907440185547e+00 1.812873482704162598e+00 1.228891849517822266e+00
1.970000000000000000e+03 8.181728363037109375e+00 2.812138175964355469e+01 2.921893727034330368e-03 -1.323128351941704750e-03 4.796296125277876854e-04 -4.440077191247837618e-06
1.971000000000000000e+03 2.606420326232910156e+01 -1.429634284973144531e+01 1.066292356699705124e-02 6.652931690216064453e+00 1.999078392982482910e+00 1.666702330112457275e-01
1.972000000000000000e+03 7.259403228759765625e+01 1.475378721952438354e-01 -2.733475156128406525e-02 7.867741107940673828e+00 2.352122068405151367e+00 -1.602762192487716675e-01
1.973000000000000000e+03 7.122709655761718750e+01 3.155667781829833984e+00 -3.568941727280616760e-02 7.811761379241943359e+00 2.332821607589721680e+00 -2.020871639251708984e-01
1.974000000000000000e+03 9.010004997253417969e+00 -2.918679428100585938e+01 -5.459691863507032394e-03 1.706533879041671753e-02 3.481694264337420464e-03 -3.764103530556894839e-05
1.975000000000000000e+03 7.115295410156250000e+01 -8.315782546997070312e+00 -2.547316811978816986e-02 7.949717044830322266e+00 2.377273082733154297e+00 -1.258808970451354980e-01
1.976000000000000000e+03 7.166960906982421875e+01 7.099555015563964844e+00 -3.420459851622581482e-02 7.747260093688964844e+00 2.313916683197021484e+00 -2.242925912141799927e-01
1.977000000000000000e+03 7.164390563964843750e+01 8.371614456176757812e+00 -2.980389259755611420e-02 7.722924709320068359e+00 2.307936191558837891e+00 -2.319940477609634399e-01
1.978000000000000000e+03 2.920567893981933594e+01 1.512389183044433594e+00 -3.843516856431961060e-02 6.904274463653564453e+00 2.059751749038696289e+00 2.889658510684967041e-01
1.979000000000000000e+03 2.993701553344726562e+01 4.344428539276123047e+00 -5.692648515105247498e-02 6.943274497985839844e+00 2.065904378890991211e+00 3.603065907955169678e-01
1.980000000000000000e+03 3.330414962768554688e+01 3.264505767822265625e+01 1.370346069335937500e+00 1.018304824829101562e+01 3.466018438339233398e+00 -4.884196221828460693e-01
1.981000000000000000e+03 2.593987274169921875e+01 -2.023018074035644531e+01 -8.305890113115310669e-02 6.589643478393554688e+00 1.951975345611572266e+00 1.530290246009826660e-01
1.982000000000000000e+03 2.756966400146484375e+01 -2.040415000915527344e+01 -6.446322053670883179e-02 6.659512996673583984e+00 1.978514909744262695e+00 1.382932215929031372e-01
1.983000000000000000e+03 1.142569637298583984e+01 3.323224258422851562e+01 1.145070977509021759e-02 -9.710293263196945190e-03 5.221250467002391815e-04 7.870721630752086639e-03
1.984000000000000000e+03 3.021979331970214844e+01 -1.210664033889770508e+00 -6.823944300413131714e-02 6.942167758941650391e+00 2.062178373336791992e+00 2.468735575675964355e-01
1.985000000000000000e+03 2.892937660217285156e+01 -3.926846683025360107e-01 -4.539476707577705383e-02 6.892151832580566406e+00 2.054027080535888672e+00 2.582669258117675781e-01
1.986000000000000000e+03 2.869535446166992188e+01 3.791594266891479492e+00 -2.016462199389934540e-02 6.872614860534667969e+00 2.055735111236572266e+00 3.453352749347686768e-01
1.987000000000000000e+03 7.019566059112548828e+00 3.539169311523437500e+01 4.532602615654468536e-03 -2.348262816667556763e-03 6.553019629791378975e-04 -4.152163397520780563e-03
1.988000000000000000e+03 8.528748512268066406e+00 3.189379119873046875e+01 4.212008323520421982e-03 -6.700350437313318253e-03 -7.465025992132723331e-04 -3.593210130929946899e-04
1.989000000000000000e+03 7.115573120117187500e+01 -1.538796234130859375e+01 -2.229934744536876678e-02 8.007085800170898438e+00 2.395436048507690430e+00 -9.313784539699554443e-02
1.990000000000000000e+03 7.124417114257812500e+01 1.355364990234375000e+01 -2.475751191377639771e-02 7.627792358398437500e+00 2.280910491943359375e+00 -2.722124159336090088e-01
1.991000000000000000e+03 2.755929374694824219e+01 -2.779677200317382812e+01 2.165501005947589874e-02 6.548061847686767578e+00 1.970915079116821289e+00 1.350128352642059326e-01
1.992000000000000000e+03 2.568695640563964844e+01 -2.302164649963378906e+01 -7.891705632209777832e-02 6.547522068023681641e+00 1.940581560134887695e+00 1.787622720003128052e-01
1.993000000000000000e+03 6.986430358886718750e+01 -1.865801429748535156e+01 -2.328466437757015228e-02 7.993442058563232422e+00 2.391047239303588867e+00 -8.473639935255050659e-02
1.994000000000000000e+03 7.221576690673828125e+01 -2.233225440979003906e+01 -1.269521191716194153e-02 8.083963394165039062e+00 2.421380519866943359e+00 -5.687683075666427612e-02
1.995000000000000000e+03 2.668542480468750000e+01 -2.924761199951171875e+01 5.828403681516647339e-02 6.480089187622070312e+00 1.961511969566345215e+00 1.542579978704452515e-01
1.996000000000000000e+03 7.061755371093750000e+01 -3.041235542297363281e+01 -2.114482223987579346e-02 8.059122085571289062e+00 2.411393165588378906e+00 -3.967574238777160645e-02
1.997000000000000000e+03 8.642321586608886719e+00 1.396154308319091797e+01 3.188015252817422152e-04 1.033458611345849931e-04 1.266442122869193554e-04 2.779522910714149475e-03
1.998000000000000000e+03 7.480792045593261719e+00 2.901180648803710938e+01 6.166316103190183640e-03 -2.028858521953225136e-03 1.241237274371087551e-03 -2.590292133390903473e-03
1.999000000000000000e+03 9.815924644470214844e+00 -1.260973167419433594e+01 4.594929516315460205e-03 3.723078989423811436e-04 1.490171183831989765e-03 -7.858594181016087532e-04
2.000000000000000000e+03 9.343362808227539062e+00 -1.506424713134765625e+01 4.211685154587030411e-03 1.720819622278213501e-03 1.779751386493444443e-03 -2.272552519571036100e-04
2.001000000000000000e+03 7.152820587158203125e+01 3.039423561096191406e+01 6.285598874092102051e-02 7.258076667785644531e+00 2.196279764175415039e+00 -2.243219465017318726e-01
2.002000000000000000e+03 7.919431686401367188e+00 2.113967323303222656e+01 -2.982496749609708786e-03 -1.510558300651609898e-03 -1.347916433587670326e-03 -7.523344247601926327e-04
2.003000000000000000e+03 6.858789443969726562e+00 2.817834663391113281e+01 -1.371834368910640478e-04 -3.303185105323791504e-03 -1.032110652886331081e-03 -1.271048444323241711e-03
2.004000000000000000e+03 7.505712985992431641e+00 2.750021743774414062e+01 3.623064607381820679e-03 -2.364636602578684688e-04 1.015980262309312820e-03 1.845299266278743744e-03
2.005000000000000000e+03 8.170150756835937500e+00 3.609087753295898438e+01 6.171776447445154190e-03 -6.289332639425992966e-03 -3.526688306010328233e-05 -2.245581941679120064e-03
2.006000000000000000e+03 1.085381698608398438e+01 -2.761873245239257812e+01 -1.304145622998476028e-02 -1.078813429921865463e-02 -7.148877251893281937e-03 7.651272695511579514e-03
2.007000000000000000e+03 2.220702934265136719e+01 -3.377943801879882812e+01 3.518965840339660645e-01 6.286939144134521484e+00 1.991650700569152832e+00 2.591197192668914795e-01
2.008000000000000000e+03 2.543096923828125000e+01 -2.421764564514160156e+01 -4.565277695655822754e-02 6.523918628692626953e+00 1.943479776382446289e+00 1.779150515794754028e-01
2.009000000000000000e+03 1.128729152679443359e+01 -3.764714813232421875e+01 -1.565687954425811768e-01 7.993585616350173950e-02 -2.298988029360771179e-02 -9.502002596855163574e-02
2.010000000000000000e+03 6.403759002685546875e+00 -2.989085197448730469e+01 -1.790260151028633118e-02 -6.198218557983636856e-03 -7.230245973914861679e-03 -8.466462604701519012e-03
2.011000000000000000e+03 7.939053058624267578e+00 -3.217127227783203125e+01 -2.897153422236442566e-02 -5.249321460723876953e-03 -1.026625651866197586e-02 -1.176479086279869080e-02
2.012000000000000000e+03 1.274441719055175781e+01 -3.270757675170898438e+01 -2.318918332457542419e-02 -4.946961998939514160e-02 -2.179764211177825928e-02 3.277392685413360596e-02
2.013000000000000000e+03 9.569147109985351562e+00 3.577690887451171875e+01 -1.628194563090801239e-02 -1.115691661834716797e-02 -8.231658488512039185e-03 -1.011477690190076828e-02
2.014000000000000000e+03 6.958866882324218750e+01 3.259394836425781250e+01 1.101805791258811951e-01 7.316251277923583984e+00 2.227929592132568359e+00 -2.239720672369003296e-01
2.015000000000000000e+03 2.119420433044433594e+01 -3.814471817016601562e+01 -1.646630167961120605e-01 5.709953784942626953e+00 1.663587331771850586e+00 -8.202951401472091675e-02
2.016000000000000000e+03 2.444294166564941406e+01 -3.553610229492187500e+01 1.247065514326095581e-01 6.184507846832275391e+00 1.892764210700988770e+00 -4.819064587354660034e-02
2.017000000000000000e+03 2.662020874023437500e+01 3.252590942382812500e+01 1.277585744857788086e+00 5.507710933685302734e+00 2.035588979721069336e+00 3.220519304275512695e+00
2.018000000000000000e+03 2.534005928039550781e+01 3.111963844299316406e+01 7.476823925971984863e-01 4.016539096832275391e+00 1.429266333580017090e+00 2.221124410629272461e+00
2.019000000000000000e+03 2.582241821289062500e+01 3.154662322998046875e+01 9.045616984367370605e-01 4.576859474182128906e+00 1.644426345825195312e+00 2.541504144668579102e+00
2.020000000000000000e+03 2.624278450012207031e+01 3.396774291992187500e+01 2.431334733963012695e+00 2.757515430450439453e+00 1.556655049324035645e+00 2.737916469573974609e+00
2.021000000000000000e+03 2.753546714782714844e+01 2.488866233825683594e+01 -6.298130154609680176e-01 6.700093746185302734e+00 1.821084260940551758e+00 1.520450830459594727e+00
2.022000000000000000e+03 7.862246990203857422e+00 -8.154722213745117188e+00 2.566790208220481873e-03 -4.518935165833681822e-04 6.344690336845815182e-04 1.883261371403932571e-03
2.023000000000000000e+03 8.926376342773437500e+00 6.774775981903076172e+00 -2.841067034751176834e-03 4.251843492966145277e-04 -7.247648318298161030e-04 -3.963948402088135481e-04
2.024000000000000000e+03 2.589805221557617188e+01 2.967930221557617188e+01 4.376227408647537231e-02 5.220057010650634766e+00 1.579145669937133789e+00 2.182765007019042969e+00
2.025000000000000000e+03 2.808604049682617188e+01 3.099203872680664062e+01 -1.039585247635841370e-01 8.351424217224121094e+00 2.474239826202392578e+00 2.447911262512207031e+00
2.026000000000000000e+03 2.618457984924316406e+01 2.870999336242675781e+01 -1.946242600679397583e-01 5.676979541778564453e+00 1.644706487655639648e+00 2.101091861724853516e+00
2.027000000000000000e+03 2.619104576110839844e+01 3.116074371337890625e+01 6.264815330505371094e-01 5.263047218322753906e+00 1.766858577728271484e+00 2.583245754241943359e+00
2.028000000000000000e+03 2.683224296569824219e+01 2.865023231506347656e+01 -2.940084338188171387e-01 6.449432373046875000e+00 1.846627235412597656e+00 2.154383897781372070e+00
2.029000000000000000e+03 7.123128509521484375e+01 -1.355580925941467285e+00 -3.573569655418395996e-02 7.875527381896972656e+00 2.351937532424926758e+00 -1.695884317159652710e-01
2.030000000000000000e+03 6.991706848144531250e+01 -2.799182891845703125e+00 -4.301762580871582031e-02 7.874889850616455078e+00 2.349561691284179688e+00 -1.732937097549438477e-01
2.031000000000000000e+03 9.513028144836425781e+00 -6.385880470275878906e+00 -3.785946406424045563e-03 -4.678089462686330080e-04 -1.276126597076654434e-03 2.657904988154768944e-03
2.032000000000000000e+03 2.550319290161132812e+01 3.190606689453125000e+01 1.141111135482788086e+00 3.895724058151245117e+00 1.511050581932067871e+00 2.419075965881347656e+00
2.033000000000000000e+03 1.076235103607177734e+01 -5.342106819152832031e+00 4.194927169010043144e-04 1.059941365383565426e-03 4.438302421476691961e-04 -1.205758657306432724e-03
2.034000000000000000e+03 3.356351470947265625e+01 3.072755432128906250e+01 3.290072679519653320e-01 9.867404937744140625e+00 3.058923721313476562e+00 -2.403591871261596680e-01
2.035000000000000000e+03 2.915923500061035156e+01 3.033757591247558594e+01 -4.689278602600097656e-01 9.185521125793457031e+00 2.614978075027465820e+00 1.707334995269775391e+00
2.036000000000000000e+03 8.170430183410644531e+00 9.877970695495605469e+00 1.904529519379138947e-03 9.643450612202286720e-04 8.606623741798102856e-04 5.674452986568212509e-04
2.037000000000000000e+03 9.130075454711914062e+00 9.908597946166992188e+00 -1.627426710911095142e-03 -1.279503456316888332e-03 -8.720790501683950424e-04 1.133110607042908669e-03
2.038000000000000000e+03 6.948842620849609375e+01 -8.409803390502929688e+00 -3.809883818030357361e-02 7.918197631835937500e+00 2.364029645919799805e+00 -1.389911025762557983e-01
2.039000000000000000e+03 7.157819366455078125e+01 5.837048053741455078e+00 -3.353033214807510376e-02 7.771391868591308594e+00 2.321358442306518555e+00 -2.154998779296875000e-01
2.040000000000000000e+03 6.995318603515625000e+01 4.843636512756347656e+00 -4.643995687365531921e-02 7.786020278930664062e+00 2.321874141693115234e+00 -2.344668954610824585e-01
2.041000000000000000e+03 1.051607990264892578e+01 -6.919676780700683594e+00 -3.685862757265567780e-03 -4.655250522773712873e-04 -1.245416351594030857e-03 4.931173170916736126e-04
2.042000000000000000e+03 1.035076236724853516e+01 -9.125796318054199219e+00 -3.455146215856075287e-03 -8.380757644772529602e-04 -1.287966617383062840e-03 2.219604066340252757e-04
2.043000000000000000e+03 8.996996879577636719e+00 7.559820175170898438e+00 2.305129775777459145e-03 2.305302914464846253e-04 7.606979925185441971e-04 8.861305832397192717e-05
2.044000000000000000e+03 2.815386009216308594e+01 1.855070686340332031e+01 -4.367703199386596680e-01 6.704580783843994141e+00 1.880343079566955566e+00 9.800011515617370605e-01
2.045000000000000000e+03 6.649370193481445312e+00 6.706997871398925781e+00 -4.249049816280603409e-04 -4.891247372142970562e-04 -2.742089272942394018e-04 -7.477542967535555363e-04
2.046000000000000000e+03 6.976697540283203125e+01 -2.429111671447753906e+01 -2.107340842485427856e-02 8.013586997985839844e+00 2.397754192352294922e+00 -6.103459745645523071e-02
2.047000000000000000e+03 6.878091430664062500e+01 -2.963246154785156250e+01 -2.209832519292831421e-02 7.995589733123779297e+00 2.392047405242919922e+00 -4.578462988138198853e-02
2.048000000000000000e+03 6.975530242919921875e+01 -9.809010505676269531e+00 -3.357487916946411133e-02 7.930583477020263672e+00 2.369102716445922852e+00 -1.294023096561431885e-01
2.049000000000000000e+03 6.992784118652343750e+01 -1.108169746398925781e+01 -3.381514176726341248e-02 7.947803497314453125e+00 2.374196529388427734e+00 -1.216320991516113281e-01
2.050000000000000000e+03 6.985469055175781250e+01 -1.709398078918457031e+01 -2.523747831583023071e-02 7.983967781066894531e+00 2.387619018554687500e+00 -9.204702079296112061e-02
2.051000000000000000e+03 7.000327301025390625e+01 1.198235893249511719e+01 -3.629625216126441956e-02 7.676498889923095703e+00 2.292060852050781250e+00 -2.858241498470306396e-01
2.052000000000000000e+03 6.877210998535156250e+01 1.886702156066894531e+01 -1.274479087442159653e-02 7.584041118621826172e+00 2.271389007568359375e+00 -3.382245004177093506e-01
2.053000000000000000e+03 7.092028808593750000e+01 1.628825569152832031e+01 -1.704628579318523407e-02 7.578972816467285156e+00 2.268578052520751953e+00 -2.913011312484741211e-01
2.054000000000000000e+03 7.045831298828125000e+01 7.109628677368164062e+00 -3.880665078759193420e-02 7.749761104583740234e+00 2.313286304473876953e+00 -2.426859140396118164e-01
2.055000000000000000e+03 7.120870208740234375e+01 -1.384212779998779297e+01 -2.243824303150177002e-02 7.996581554412841797e+00 2.392242908477783203e+00 -9.736367315053939819e-02
2.056000000000000000e+03 7.132234954833984375e+01 -1.239726924896240234e+01 -2.532861381769180298e-02 7.988793373107910156e+00 2.389039516448974609e+00 -1.048452481627464294e-01
2.057000000000000000e+03 2.880276298522949219e+01 1.167821216583251953e+01 -2.007991224527359009e-01 6.854102611541748047e+00 1.995991110801696777e+00 6.289463043212890625e-01
2.058000000000000000e+03 2.843419837951660156e+01 1.587068176269531250e+01 -3.379361331462860107e-01 6.773646354675292969e+00 1.930713057518005371e+00 8.199508190155029297e-01
2.059000000000000000e+03 3.160926246643066406e+01 1.819707870483398438e+01 -5.995413661003112793e-01 7.502666473388671875e+00 2.070937633514404297e+00 8.100053071975708008e-01
2.060000000000000000e+03 2.724851417541503906e+01 -8.460062980651855469e+00 -2.224453166127204895e-02 6.772058963775634766e+00 2.024944305419921875e+00 2.367802858352661133e-01
2.061000000000000000e+03 2.862071037292480469e+01 -4.717537879943847656e+00 -5.847785994410514832e-02 6.863433361053466797e+00 2.041486501693725586e+00 2.336644679307937622e-01
2.062000000000000000e+03 3.136597442626953125e+01 -2.014159440994262695e+00 -7.924167811870574951e-02 6.981037139892578125e+00 2.070538520812988281e+00 2.305682301521301270e-01
2.063000000000000000e+03 2.887850189208984375e+01 8.683961868286132812e+00 -1.047684550285339355e-01 6.872640609741210938e+00 2.030361652374267578e+00 5.142285227775573730e-01
2.064000000000000000e+03 3.173728179931640625e+01 1.236664676666259766e+01 -3.373660445213317871e-01 7.207100391387939453e+00 2.060920238494873047e+00 6.125271320343017578e-01
2.065000000000000000e+03 8.968745231628417969e+00 -2.098402595520019531e+01 3.254076000303030014e-03 -2.881734399124979973e-03 1.117024949053302407e-04 -7.131426595151424408e-03
2.066000000000000000e+03 9.097043037414550781e+00 -1.018345451354980469e+01 -2.650974551215767860e-03 -1.679040491580963135e-03 -1.299004536122083664e-03 -2.255389699712395668e-04
2.067000000000000000e+03 7.965798854827880859e+00 -1.018612861633300781e+01 2.688012784346938133e-03 2.035066718235611916e-03 1.416923827491700649e-03 1.421639113686978817e-03
2.068000000000000000e+03 8.862703323364257812e+00 1.835681533813476562e+01 8.745660306885838509e-04 -2.678779710549861193e-04 1.820064208004623652e-04 -9.954285342246294022e-04
2.069000000000000000e+03 6.986906433105468750e+01 1.327517890930175781e+01 -3.524606302380561829e-02 7.655522823333740234e+00 2.286082983016967773e+00 -2.962761521339416504e-01
2.070000000000000000e+03 8.405323028564453125e+00 -2.346106338500976562e+01 6.607115268707275391e-03 1.287240535020828247e-03 2.368306741118431091e-03 -2.864560810849070549e-03
2.071000000000000000e+03 2.967141914367675781e+01 1.610983467102050781e+01 -4.178050160408020020e-01 7.012351036071777344e+00 1.978363752365112305e+00 8.209673762321472168e-01
2.072000000000000000e+03 2.859086227416992188e+01 7.321534156799316406e+00 -5.610797926783561707e-02 6.861202716827392578e+00 2.041528463363647461e+00 4.670996665954589844e-01
2.073000000000000000e+03 3.037410926818847656e+01 1.046286964416503906e+01 -2.157506942749023438e-01 7.015494823455810547e+00 2.039923191070556641e+00 5.743420720100402832e-01
2.074000000000000000e+03 7.408733367919921875e+00 -1.920739746093750000e+01 -5.321934819221496582e-03 3.463301807641983032e-03 -5.575899267569184303e-04 4.637445323169231415e-03
2.075000000000000000e+03 8.042091369628906250e+00 -2.054394149780273438e+01 -2.064728178083896637e-04 -2.686918945983052254e-03 -8.680175524204969406e-04 2.417358336970210075e-03
2.076000000000000000e+03 9.265794754028320312e+00 3.054566764831542969e+01 5.219680257141590118e-03 -6.774297915399074554e-03 -4.663853615056723356e-04 -3.912486135959625244e-03
2.077000000000000000e+03 8.249756813049316406e+00 -1.340826129913330078e+01 3.937907051295042038e-03 1.020629424601793289e-03 1.487560919485986233e-03 -1.305116456933319569e-04
2.078000000000000000e+03 2.859422683715820312e+01 -7.162232398986816406e+00 -4.412807896733283997e-02 6.835378170013427734e+00 2.037374973297119141e+00 2.252544462680816650e-01
2.079000000000000000e+03 3.005149459838867188e+01 2.260375213623046875e+01 -7.417396306991577148e-01 7.534538745880126953e+00 2.037839651107788086e+00 1.113416194915771484e+00
2.080000000000000000e+03 2.834834861755371094e+01 2.352752685546875000e+01 -6.738485097885131836e-01 6.979701519012451172e+00 1.891755938529968262e+00 1.339711904525756836e+00
2.081000000000000000e+03 7.639196395874023438e+00 -2.640702819824218750e+01 -4.829548764973878860e-03 -3.704362781718373299e-03 -2.560173394158482552e-03 -1.422626199200749397e-03
2.082000000000000000e+03 6.541168212890625000e+00 -2.223114776611328125e+01 5.888760555535554886e-03 2.071436261758208275e-03 2.388058928772807121e-03 2.639922080561518669e-03
2.083000000000000000e+03 8.146984100341796875e+00 -2.509494018554687500e+01 -4.517494235187768936e-03 -4.912192933261394501e-03 -2.828906057402491570e-03 1.917050103656947613e-03
2.084000000000000000e+03 7.165953636169433594e+00 9.484978675842285156e+00 -7.717983098700642586e-04 -1.452744938433170319e-03 -6.673629977740347385e-04 -5.807413836009800434e-04
2.085000000000000000e+03 2.917751502990722656e+01 -2.060403251647949219e+01 -7.224971055984497070e-02 6.714876651763916016e+00 1.992788076400756836e+00 1.211846098303794861e-01
2.086000000000000000e+03 3.060157394409179688e+01 -2.708720397949218750e+01 -1.657133363187313080e-02 6.654491424560546875e+00 1.991376042366027832e+00 8.936059474945068359e-02
2.087000000000000000e+03 2.914912796020507812e+01 -2.365476417541503906e+01 -5.911184847354888916e-02 6.668642520904541016e+00 1.982859134674072266e+00 1.275840699672698975e-01
2.088000000000000000e+03 1.029117679595947266e+01 -3.240364456176757812e+01 -4.611106216907501221e-02 -2.237566187977790833e-02 -2.054601721465587616e-02 1.288690255023539066e-03
2.089000000000000000e+03 7.101234436035156250e+01 1.101882457733154297e-01 -3.616522997617721558e-02 7.852611541748046875e+00 2.344933986663818359e+00 -1.831736266613006592e-01
2.090000000000000000e+03 8.671247482299804688e+00 -1.224651718139648438e+01 -2.898179925978183746e-03 3.352672210894525051e-04 -7.688737823627889156e-04 1.762542407959699631e-03
2.091000000000000000e+03 6.908154296875000000e+01 -2.246473121643066406e+01 -2.505018934607505798e-02 7.985022544860839844e+00 2.387991666793823242e+00 -7.283974438905715942e-02
2.092000000000000000e+03 7.139879608154296875e+01 -1.992413902282714844e+01 -1.606504805386066437e-02 8.044665336608886719e+00 2.408580064773559570e+00 -7.243671268224716187e-02
2.093000000000000000e+03 2.825792121887207031e+01 2.635020446777343750e+01 -6.913170814514160156e-01 7.276161193847656250e+00 1.975453257560729980e+00 1.579028010368347168e+00
2.094000000000000000e+03 8.177373886108398438e+00 1.487782382965087891e+01 -3.308447543531656265e-03 -7.618875242769718170e-04 -1.221100566908717155e-03 -9.426939068362116814e-04
2.095000000000000000e+03 2.916792297363281250e+01 -1.269748020172119141e+01 -1.199876517057418823e-02 6.774717807769775391e+00 2.028815746307373047e+00 1.598581075668334961e-01
2.096000000000000000e+03 3.094020843505859375e+01 7.429214000701904297e+00 -1.396650820970535278e-01 7.023847579956054688e+00 2.065254688262939453e+00 4.552797675132751465e-01
2.097000000000000000e+03 3.053036689758300781e+01 8.919954299926757812e+00 -1.648021787405014038e-01 7.012204647064208984e+00 2.054220676422119141e+00 5.170232653617858887e-01
2.098000000000000000e+03 6.954920196533203125e+01 1.461832141876220703e+01 -2.955586463212966919e-02 7.635393619537353516e+00 2.281751394271850586e+00 -3.090109825134277344e-01
2.099000000000000000e+03 9.340528488159179688e+00 2.422416305541992188e+01 5.680663976818323135e-03 1.654763240367174149e-03 2.200628165155649185e-03 1.780112506821751595e-03
2.100000000000000000e+03 8.015525817871093750e+00 2.432907295227050781e+01 -2.498385030776262283e-03 -2.785202348604798317e-03 -1.585076213814318180e-03 -7.980925729498267174e-04
2.101000000000000000e+03 2.990629196166992188e+01 1.479646205902099609e+01 -3.655999600887298584e-01 7.021038532257080078e+00 1.996631622314453125e+00 7.557703852653503418e-01
2.102000000000000000e+03 7.039347839355468750e+01 2.075767517089843750e+01 4.084744956344366074e-03 7.500746250152587891e+00 2.251449346542358398e+00 -3.098202049732208252e-01
2.103000000000000000e+03 6.872189331054687500e+01 2.070631027221679688e+01 7.998143322765827179e-03 7.554887771606445312e+00 2.268865823745727539e+00 -3.423095345497131348e-01
2.104000000000000000e+03 2.885680198669433594e+01 2.554702520370483398e+00 -2.563527598977088928e-02 6.892399787902832031e+00 2.060029268264770508e+00 3.157241344451904297e-01
2.105000000000000000e+03 3.166078186035156250e+01 6.235223770141601562e+00 -1.394390612840652466e-01 7.066032409667968750e+00 2.077978134155273438e+00 4.115438163280487061e-01
2.106000000000000000e+03 7.041260528564453125e+01 -2.184797477722167969e+01 -1.983886957168579102e-02 8.024199485778808594e+00 2.401308059692382812e+00 -7.009770721197128296e-02
2.107000000000000000e+03 6.972438812255859375e+01 2.597036743164062500e+01 5.017590895295143127e-02 7.409866333007812500e+00 2.238012552261352539e+00 -2.951786220073699951e-01
2.108000000000000000e+03 6.919589996337890625e+01 2.436107444763183594e+01 3.900255635380744934e-02 7.470757961273193359e+00 2.252928256988525391e+00 -3.256782889366149902e-01
2.109000000000000000e+03 8.999583244323730469e+00 1.244528961181640625e+01 -3.292099805548787117e-03 1.239769859239459038e-03 -6.156989256851375103e-04 1.600696239620447159e-03
2.110000000000000000e+03 7.580560207366943359e+00 -2.907819175720214844e+01 -3.328379010781645775e-03 1.328837126493453979e-02 2.987997606396675110e-03 3.597987582907080650e-03
2.111000000000000000e+03 6.838880538940429688e+00 -3.357403182983398438e+01 -1.867433451116085052e-02 2.542647905647754669e-02 2.025643596425652504e-03 -8.048006333410739899e-03
2.112000000000000000e+03 9.021242141723632812e+00 -3.084076118469238281e+01 -1.926913671195507050e-02 1.401671767234802246e-02 -1.575725967995822430e-03 5.372074432671070099e-03
2.113000000000000000e+03 2.935437965393066406e+01 -1.426030063629150391e+01 -2.995167486369609833e-02 6.769721508026123047e+00 2.021930932998657227e+00 1.387978196144104004e-01
2.114000000000000000e+03 3.206713104248046875e+01 -1.066169643402099609e+01 -5.552009493112564087e-02 6.904536247253417969e+00 2.054704904556274414e+00 1.496792882680892944e-01
2.115000000000000000e+03 6.848169708251953125e+01 -1.713754272460937500e+01 -3.237575665116310120e-02 7.945824146270751953e+00 2.374034404754638672e+00 -9.963241219520568848e-02
2.116000000000000000e+03 6.783368682861328125e+01 -3.189493560791015625e+01 -3.103686310350894928e-02 7.970250129699707031e+00 2.381763935089111328e+00 -4.072626307606697083e-02
2.117000000000000000e+03 6.997959899902343750e+01 -1.234275436401367188e+01 -2.853651903569698334e-02 7.956664085388183594e+00 2.378438234329223633e+00 -1.137291714549064636e-01
2.118000000000000000e+03 9.474922180175781250e+00 -2.664711570739746094e+01 -1.133379153907299042e-02 -1.075042877346277237e-02 -6.625265814363956451e-03 4.361645784229040146e-03
2.119000000000000000e+03 9.698271751403808594e+00 -2.781466293334960938e+01 7.820038124918937683e-03 8.089912123978137970e-03 4.772985354065895081e-03 -3.177443752065300941e-03
2.120000000000000000e+03 6.972746276855468750e+01 -2.754606056213378906e+01 -2.195213362574577332e-02 8.022315025329589844e+00 2.400108814239501953e+00 -5.134972557425498962e-02
2.121000000000000000e+03 8.145728111267089844e+00 -3.004915809631347656e+01 -1.384401787072420120e-02 -1.519857626408338547e-02 -8.712777867913246155e-03 -2.061144681647419930e-03
2.122000000000000000e+03 2.962630462646484375e+01 2.176311111450195312e+01 -6.854217648506164551e-01 7.290230751037597656e+00 1.981442689895629883e+00 1.119522929191589355e+00
2.123000000000000000e+03 2.839844322204589844e+01 2.113797187805175781e+01 -5.729730725288391113e-01 6.825061321258544922e+00 1.875626444816589355e+00 1.158923029899597168e+00
2.124000000000000000e+03 3.011368942260742188e+01 6.795321702957153320e-01 -5.675141513347625732e-02 6.944571495056152344e+00 2.066345930099487305e+00 2.773632705211639404e-01
2.125000000000000000e+03 3.071879768371582031e+01 3.507433414459228516e+00 -7.177146524190902710e-02 6.978717327117919922e+00 2.072083711624145508e+00 3.384629189968109131e-01
2.126000000000000000e+03 2.524155998229980469e+01 -3.196225166320800781e+01 1.792452037334442139e-01 6.335185050964355469e+00 1.954329013824462891e+00 1.206445693969726562e-01
2.127000000000000000e+03 3.569772720336914062e+01 3.045589256286621094e+01 4.682643711566925049e-01 9.456596374511718750e+00 2.977458238601684570e+00 -4.062663316726684570e-01
2.128000000000000000e+03 7.001292419433593750e+01 -3.514945983886718750e+01 -2.212355844676494598e-02 8.051615715026855469e+00 2.408847570419311523e+00 -2.517303824424743652e-02
2.129000000000000000e+03 3.696219253540039062e+01 3.174416351318359375e+01 9.035727381706237793e-01 9.284564971923828125e+00 3.056441307067871094e+00 -4.528019428253173828e-01
2.130000000000000000e+03 3.829806900024414062e+01 3.337613296508789062e+01 1.218772172927856445e+00 9.090113639831542969e+00 3.092665672302246094e+00 -3.592867553234100342e-01
2.131000000000000000e+03 7.082167053222656250e+01 2.371455574035644531e+01 2.434934303164482117e-02 7.425145626068115234e+00 2.234848499298095703e+00 -2.914759218692779541e-01
2.132000000000000000e+03 2.665422248840332031e+01 -2.474846267700195312e+01 -4.545404762029647827e-02 6.573342323303222656e+00 1.958366394042968750e+00 1.728406995534896851e-01
2.133000000000000000e+03 2.748002052307128906e+01 -2.189889335632324219e+01 -7.479351758956909180e-02 6.634934425354003906e+00 1.968042373657226562e+00 1.461267918348312378e-01
2.134000000000000000e+03 7.972733020782470703e+00 -3.689140319824218750e+01 -3.300221636891365051e-02 1.042961422353982925e-02 -6.771781016141176224e-03 -5.772586166858673096e-02
2.135000000000000000e+03 6.741191387176513672e+00 -3.860808944702148438e+01 2.062126621603965759e-02 4.335349891334772110e-03 7.486985065042972565e-03 -3.225411102175712585e-02
2.136000000000000000e+03 9.317736625671386719e+00 2.130951309204101562e+01 3.731440752744674683e-03 1.712492434307932854e-03 1.633179956115782261e-03 3.681970410980284214e-04
2.137000000000000000e+03 7.153065204620361328e+00 -2.807046127319335938e+01 -1.381247583776712418e-02 -8.477530442178249359e-03 -6.687001790851354599e-03 -8.386536501348018646e-04
2.138000000000000000e+03 7.115897369384765625e+01 -6.933118820190429688e+00 -3.104001283645629883e-02 7.936885833740234375e+00 2.371753692626953125e+00 -1.336662620306015015e-01
2.139000000000000000e+03 2.622792243957519531e+01 3.204227066040039062e+01 1.105260848999023438e+00 4.986239910125732422e+00 1.827450275421142578e+00 2.853839635848999023e+00
2.140000000000000000e+03 2.706572723388671875e+01 3.119165992736816406e+01 3.385661244392395020e-01 6.667711257934570312e+00 2.101883172988891602e+00 2.702103137969970703e+00
2.141000000000000000e+03 2.656033706665039062e+01 3.078777694702148438e+01 3.344058692455291748e-01 5.903796672821044922e+00 1.871460795402526855e+00 2.588871479034423828e+00
2.142000000000000000e+03 2.761241912841796875e+01 3.008267211914062500e+01 -1.723132878541946411e-01 7.474680900573730469e+00 2.190710306167602539e+00 2.362766265869140625e+00
2.143000000000000000e+03 2.679860687255859375e+01 2.785180854797363281e+01 -4.092219173908233643e-01 6.327020168304443359e+00 1.775339484214782715e+00 1.979198098182678223e+00
2.144000000000000000e+03 2.861641502380371094e+01 2.458512687683105469e+01 -7.101168036460876465e-01 7.217558383941650391e+00 1.952232480049133301e+00 1.400009870529174805e+00
2.145000000000000000e+03 2.751605033874511719e+01 2.685585212707519531e+01 -5.970164537429809570e-01 6.865561962127685547e+00 1.880563735961914062e+00 1.766143560409545898e+00
2.146000000000000000e+03 3.368946075439453125e+01 2.898655891418457031e+01 -2.078422009944915771e-01 9.549559593200683594e+00 2.802515029907226562e+00 1.665094122290611267e-02
2.147000000000000000e+03 6.712007999420166016e+00 -6.605620861053466797e+00 8.224447374232113361e-04 2.614271070342510939e-04 3.251615562476217747e-04 1.500832033343613148e-03
2.148000000000000000e+03 3.277670288085937500e+01 2.979244232177734375e+01 -1.607297062873840332e-01 9.798727035522460938e+00 2.891399145126342773e+00 9.442659467458724976e-02
2.149000000000000000e+03 2.739348983764648438e+01 3.065525817871093750e+01 -8.819616399705410004e-03 7.226067066192626953e+00 2.165174245834350586e+00 2.544459104537963867e+00
2.150000000000000000e+03 8.011542320251464844e+00 6.916129112243652344e+00 3.184630768373608589e-03 -7.902771467342972755e-04 7.183060515671968460e-04 6.699509685859084129e-04
2.151000000000000000e+03 6.867992401123046875e+01 -1.061253452301025391e+01 -3.800741210579872131e-02 7.915078639984130859e+00 2.363121271133422852e+00 -1.334635913372039795e-01
2.152000000000000000e+03 2.964245986938476562e+01 2.649510192871093750e+01 -7.795072793960571289e-01 8.014027595520019531e+00 2.170356273651123047e+00 1.334678053855895996e+00
2.153000000000000000e+03 6.861761474609375000e+01 1.291351222991943359e+01 -3.947793319821357727e-02 7.675532817840576172e+00 2.290816545486450195e+00 -3.162494897842407227e-01
2.154000000000000000e+03 6.873166656494140625e+01 9.137667655944824219e+00 -5.518643185496330261e-02 7.735291481018066406e+00 2.304031372070312500e+00 -2.869377732276916504e-01
2.155000000000000000e+03 2.923946571350097656e+01 1.859073638916015625e+01 -5.139722824096679688e-01 6.989735126495361328e+00 1.942728877067565918e+00 9.674322009086608887e-01
2.156000000000000000e+03 3.139995956420898438e+01 -3.529226779937744141e+00 -7.885860651731491089e-02 6.967455863952636719e+00 2.066579103469848633e+00 2.185304760932922363e-01
2.157000000000000000e+03 5.916402816772460938e+00 6.200959205627441406e+00 1.888924860395491123e-03 -6.908274954184889793e-04 3.594291920308023691e-04 1.079994603060185909e-03
2.158000000000000000e+03 2.942785072326660156e+01 1.736418342590332031e+01 -4.572462737560272217e-01 6.992377281188964844e+00 1.960539221763610840e+00 8.931518197059631348e-01
2.159000000000000000e+03 3.055816268920898438e+01 1.766220474243164062e+01 -5.281142592430114746e-01 7.250398159027099609e+00 2.016685247421264648e+00 8.555096983909606934e-01
2.160000000000000000e+03 3.191675376892089844e+01 1.088181400299072266e+01 -2.824591398239135742e-01 7.187043190002441406e+00 2.071375131607055664e+00 5.583720207214355469e-01
2.161000000000000000e+03 7.448582649230957031e+00 -2.144126319885253906e+01 -5.154996644705533981e-03 -1.030957791954278946e-03 -1.855786424130201340e-03 -4.158104769885540009e-03
2.162000000000000000e+03 6.835671997070312500e+01 -2.491690635681152344e+01 -2.660314552485942841e-02 7.978179454803466797e+00 2.385472774505615234e+00 -6.709668785333633423e-02
2.163000000000000000e+03 6.767734527587890625e+01 -2.305965805053710938e+01 -2.786302752792835236e-02 7.949140071868896484e+00 2.376383066177368164e+00 -7.474296540021896362e-02
2.164000000000000000e+03 1.164070606231689453e+01 -3.125873184204101562e+01 -2.174677513539791107e-02 -2.655538357794284821e-02 -1.449064724147319794e-02 1.440398115664720535e-02
2.165000000000000000e+03 7.850739479064941406e+00 -1.727387428283691406e+01 -4.462710116058588028e-03 -2.495058346539735794e-03 -2.087330445647239685e-03 -1.007237005978822708e-03
2.166000000000000000e+03 6.710956573486328125e+01 2.068809509277343750e+01 2.471799263730645180e-03 7.596264362335205078e+00 2.279620885848999023e+00 -3.643960058689117432e-01
2.167000000000000000e+03 5.467111110687255859e+00 2.338540267944335938e+01 3.970051184296607971e-03 2.229666570201516151e-03 1.859915326349437237e-03 1.537522301077842712e-03
2.168000000000000000e+03 6.593013286590576172e+00 2.310194015502929688e+01 -1.332900370471179485e-03 -2.739459974691271782e-03 -1.221708138473331928e-03 -2.013978228205814958e-04
2.169000000000000000e+03 6.729814910888671875e+01 1.484488487243652344e+01 -4.264079034328460693e-02 7.678397655487060547e+00 2.290727138519287109e+00 -3.455170989036560059e-01
2.170000000000000000e+03 6.912050628662109375e+01 1.734207344055175781e+01 -1.679720543324947357e-02 7.598912239074707031e+00 2.274634361267089844e+00 -3.293357789516448975e-01
2.171000000000000000e+03 2.922560501098632812e+01 2.311326408386230469e+01 -7.129004001617431641e-01 7.312156677246093750e+00 1.979776859283447266e+00 1.240211367607116699e+00
2.172000000000000000e+03 2.906981277465820312e+01 2.558873367309570312e+01 -7.607863545417785645e-01 7.570606231689453125e+00 2.042946100234985352e+00 1.404196262359619141e+00
2.173000000000000000e+03 2.984829902648925781e+01 -5.995142459869384766e+00 -5.766258761286735535e-02 6.892580986022949219e+00 2.050475597381591797e+00 2.148485630750656128e-01
2.174000000000000000e+03 2.952340698242187500e+01 6.649627685546875000e+00 -7.899478077888488770e-02 6.921846389770507812e+00 2.052855491638183594e+00 4.478753507137298584e-01
2.175000000000000000e+03 3.216781234741210938e+01 9.429848670959472656e+00 -2.439748495817184448e-01 7.173727989196777344e+00 2.078925848007202148e+00 4.982536137104034424e-01
2.176000000000000000e+03 3.154594230651855469e+01 1.383778953552246094e+01 -3.909984529018402100e-01 7.237502098083496094e+00 2.053951025009155273e+00 6.709187030792236328e-01
2.177000000000000000e+03 3.134108924865722656e+01 -1.577762222290039062e+01 -5.305261909961700439e-02 6.831735610961914062e+00 2.033604860305786133e+00 1.097792610526084900e-01
2.178000000000000000e+03 2.959468650817871094e+01 -1.754053306579589844e+01 -5.427399650216102600e-02 6.746285915374755859e+00 2.007603645324707031e+00 1.144791394472122192e-01
2.179000000000000000e+03 3.093460083007812500e+01 1.651941680908203125e+01 -4.877587258815765381e-01 7.249413013458251953e+00 2.028496265411376953e+00 7.962365150451660156e-01
2.180000000000000000e+03 3.003680992126464844e+01 -3.870474338531494141e+00 -6.813651323318481445e-02 6.919699192047119141e+00 2.055468797683715820e+00 2.281025052070617676e-01
2.181000000000000000e+03 6.820085144042968750e+01 -2.669148635864257812e+01 -2.416465058922767639e-02 7.975880622863769531e+00 2.385514736175537109e+00 -5.564854294061660767e-02
2.182000000000000000e+03 2.998162078857421875e+01 2.433430910110473633e+00 -5.232118442654609680e-02 6.937610626220703125e+00 2.065586805343627930e+00 3.129298388957977295e-01
2.183000000000000000e+03 3.168637657165527344e+01 4.481662273406982422e+00 -1.165231838822364807e-01 7.059499263763427734e+00 2.082892894744873047e+00 3.580243587493896484e-01
2.184000000000000000e+03 6.973752593994140625e+01 -5.508468151092529297e+00 -4.255401343107223511e-02 7.897717475891113281e+00 2.356549024581909180e+00 -1.567998379468917847e-01
2.185000000000000000e+03 3.080331230163574219e+01 2.198775672912597656e+01 -7.405775189399719238e-01 7.665771961212158203e+00 2.077558279037475586e+00 9.935559034347534180e-01
2.186000000000000000e+03 2.930264854431152344e+01 2.082616615295410156e+01 -6.245828866958618164e-01 7.110638618469238281e+00 1.945816636085510254e+00 1.088441967964172363e+00
2.187000000000000000e+03 6.870532989501953125e+01 2.266364860534667969e+01 2.030217088758945465e-02 7.515703678131103516e+00 2.260801792144775391e+00 -3.354060351848602295e-01
2.188000000000000000e+03 2.919108009338378906e+01 -2.201804161071777344e+01 -5.633310973644256592e-02 6.694175720214843750e+00 1.991352796554565430e+00 1.263079941272735596e-01
2.189000000000000000e+03 3.105124282836914062e+01 1.757983803749084473e+00 -7.522892206907272339e-02 6.990561485290527344e+00 2.074599742889404297e+00 3.005340993404388428e-01
2.190000000000000000e+03 3.135671043395996094e+01 2.267146873474121094e+01 -7.754719257354736328e-01 7.913353919982910156e+00 2.141364574432373047e+00 9.326128363609313965e-01
2.191000000000000000e+03 6.978433990478515625e+01 3.447868108749389648e+00 -5.021358653903007507e-02 7.806033611297607422e+00 2.326745986938476562e+00 -2.228877544403076172e-01
2.192000000000000000e+03 6.991763305664062500e+01 -1.514998674392700195e+00 -4.099675640463829041e-02 7.863969326019287109e+00 2.346891880035400391e+00 -1.812157183885574341e-01
2.193000000000000000e+03 4.145276641845703125e+01 3.781290817260742188e+01 1.224272966384887695e+00 8.883762359619140625e+00 3.032410383224487305e+00 -1.450493484735488892e-01
2.194000000000000000e+03 3.708279418945312500e+01 3.666656494140625000e+01 1.611651539802551270e+00 9.423380851745605469e+00 3.310509681701660156e+00 1.871514022350311279e-01
2.195000000000000000e+03 3.452435302734375000e+01 2.966597175598144531e+01 1.172929033637046814e-01 9.543496131896972656e+00 2.898236751556396484e+00 -2.217798829078674316e-01
2.196000000000000000e+03 6.803220367431640625e+01 2.563627624511718750e+01 6.193572655320167542e-02 7.484141349792480469e+00 2.263823032379150391e+00 -3.346488773822784424e-01
2.197000000000000000e+03 6.749008941650390625e+01 2.775948333740234375e+01 8.797502517700195312e-02 7.471273899078369141e+00 2.267774581909179688e+00 -3.154400587081909180e-01
2.198000000000000000e+03 6.964595794677734375e+01 2.802056121826171875e+01 6.336662173271179199e-02 7.380795478820800781e+00 2.233248472213745117e+00 -2.812382578849792480e-01
2.199000000000000000e+03 9.640222549438476562e+00 -2.970469474792480469e+01 -4.910325631499290466e-03 2.493856882210820913e-04 -1.398281892761588097e-03 1.775400363840162754e-03
2.200000000000000000e+03 7.002983093261718750e+01 -2.026873970031738281e+01 -2.206575125455856323e-02 8.003697395324707031e+00 2.394489526748657227e+00 -7.724110037088394165e-02
2.201000000000000000e+03 6.859352874755859375e+01 -2.065560722351074219e+01 -2.720599807798862457e-02 7.966103553771972656e+00 2.381669282913208008e+00 -8.199530094861984253e-02
2.202000000000000000e+03 3.130091667175292969e+01 -1.284979730844497681e-01 -7.818526029586791992e-02 6.993725776672363281e+00 2.074661970138549805e+00 2.544921636581420898e-01
2.203000000000000000e+03 3.242145156860351562e+01 1.103448510169982910e+00 -1.067652776837348938e-01 7.061863422393798828e+00 2.086529493331909180e+00 2.719746828079223633e-01
2.204000000000000000e+03 6.859709167480468750e+01 -2.725445032119750977e+00 -5.185496062040328979e-02 7.858959674835205078e+00 2.342131376266479492e+00 -1.868469268083572388e-01
2.205000000000000000e+03 2.678703498840332031e+01 3.031705474853515625e+01 6.794019788503646851e-02 6.249854564666748047e+00 1.895338416099548340e+00 2.399430751800537109e+00
2.206000000000000000e+03 2.653548049926757812e+01 2.927363204956054688e+01 -1.444582194089889526e-01 6.084770202636718750e+00 1.782093644142150879e+00 2.211169481277465820e+00
2.207000000000000000e+03 2.762945747375488281e+01 2.775136566162109375e+01 -5.710861682891845703e-01 7.030834674835205078e+00 1.937924623489379883e+00 1.851049661636352539e+00
2.208000000000000000e+03 2.705122184753417969e+01 2.975214958190917969e+01 -1.450269520282745361e-01 6.613121986389160156e+00 1.940428495407104492e+00 2.356882095336914062e+00
2.209000000000000000e+03 3.116923522949218750e+01 2.953009414672851562e+01 -5.340044498443603516e-01 9.702698707580566406e+00 2.750608205795288086e+00 7.240839004516601562e-01
2.210000000000000000e+03 9.233855247497558594e+00 9.057128906250000000e+00 1.855075592175126076e-03 5.113392253406345844e-04 7.099244394339621067e-04 -8.793346933089196682e-04
2.211000000000000000e+03 3.099546051025390625e+01 2.424119377136230469e+01 -8.137147426605224609e-01 8.065153121948242188e+00 2.175431489944458008e+00 1.018730878829956055e+00
2.212000000000000000e+03 2.884147453308105469e+01 2.708342170715332031e+01 -7.309372425079345703e-01 7.749985218048095703e+00 2.105714321136474609e+00 1.543139934539794922e+00
2.213000000000000000e+03 3.015209579467773438e+01 3.012061309814453125e+01 -4.927420616149902344e-01 9.639647483825683594e+00 2.744071722030639648e+00 1.147787451744079590e+00
2.214000000000000000e+03 2.762577438354492188e+01 2.946292114257812500e+01 -3.562762439250946045e-01 7.291053771972656250e+00 2.080433368682861328e+00 2.193150997161865234e+00
2.215000000000000000e+03 3.182646560668945312e+01 2.025686645507812500e+01 -6.921397447586059570e-01 7.719936847686767578e+00 2.108339071273803711e+00 8.309483528137207031e-01
2.216000000000000000e+03 3.342280578613281250e+01 1.134606456756591797e+01 -3.483009338378906250e-01 7.350286006927490234e+00 2.100595474243164062e+00 5.162370800971984863e-01
2.217000000000000000e+03 6.847121429443359375e+01 3.805068969726562500e+00 -5.817719921469688416e-02 7.799498081207275391e+00 2.322396278381347656e+00 -2.411478012800216675e-01
2.218000000000000000e+03 6.861994934082031250e+01 7.592243552207946777e-01 -5.468105524778366089e-02 7.829364776611328125e+00 2.332405090332031250e+00 -2.122503668069839478e-01
2.219000000000000000e+03 3.219321060180664062e+01 1.718776321411132812e+01 -5.659919977188110352e-01 7.520910739898681641e+00 2.086475610733032227e+00 7.350083589553833008e-01
2.220000000000000000e+03 6.957502746582031250e+01 -6.925910949707031250e+00 -3.848258778452873230e-02 7.907917022705078125e+00 2.360830307006835938e+00 -1.479683071374893188e-01
2.221000000000000000e+03 6.985842132568359375e+01 -4.130604267120361328e+00 -3.953684866428375244e-02 7.886886596679687500e+00 2.354204893112182617e+00 -1.648148298263549805e-01
2.222000000000000000e+03 6.473480224609375000e+01 1.744073295593261719e+01 -3.104431368410587311e-02 7.701437950134277344e+00 2.301118135452270508e+00 -3.931754529476165771e-01
2.223000000000000000e+03 6.939380645751953125e+01 1.601656150817871094e+01 -2.759961970150470734e-02 7.617979526519775391e+00 2.277113914489746094e+00 -3.168999552726745605e-01
2.224000000000000000e+03 7.024871826171875000e+01 6.051462173461914062e+00 -4.504312202334403992e-02 7.767744064331054688e+00 2.316810369491577148e+00 -2.392086237668991089e-01
2.225000000000000000e+03 6.662469482421875000e+01 3.348899126052856445e+00 -7.580570131540298462e-02 7.799051761627197266e+00 2.316973924636840820e+00 -2.554384171962738037e-01
2.226000000000000000e+03 3.367960357666015625e+01 9.926671981811523438e+00 -3.019163310527801514e-01 7.323050498962402344e+00 2.106340408325195312e+00 4.745761454105377197e-01
2.227000000000000000e+03 7.018141937255859375e+01 9.455397605895996094e+00 -3.962945193052291870e-02 7.714723587036132812e+00 2.302528142929077148e+00 -2.653442025184631348e-01
2.228000000000000000e+03 6.908763122558593750e+01 8.023982048034667969e+00 -5.128809064626693726e-02 7.748867034912109375e+00 2.309273719787597656e+00 -2.676377892494201660e-01
2.229000000000000000e+03 3.127927970886230469e+01 1.523764419555664062e+01 -4.469600021839141846e-01 7.254106521606445312e+00 2.042144060134887695e+00 7.333848476409912109e-01
2.230000000000000000e+03 2.897313880920410156e+01 -1.120522689819335938e+01 -2.110117115080356598e-02 6.787403583526611328e+00 2.029890775680541992e+00 1.831703633069992065e-01
2.231000000000000000e+03 2.982437133789062500e+01 -4.914142608642578125e+00 -6.833834201097488403e-02 6.899069309234619141e+00 2.049219131469726562e+00 2.216162830591201782e-01
2.232000000000000000e+03 6.617533111572265625e+01 -2.382516479492187500e+01 -3.427338600158691406e-02 7.908856868743896484e+00 2.362375020980834961e+00 -7.662855833768844604e-02
2.233000000000000000e+03 3.254651641845703125e+01 8.043601036071777344e+00 -2.135446220636367798e-01 7.178041458129882812e+00 2.089349031448364258e+00 4.525891244411468506e-01
2.234000000000000000e+03 3.406073379516601562e+01 8.536988258361816406e+00 -2.692402005195617676e-01 7.299209117889404297e+00 2.108990669250488281e+00 4.227737486362457275e-01
2.235000000000000000e+03 3.140775489807128906e+01 2.120990943908691406e+01 -7.265114188194274902e-01 7.726958751678466797e+00 2.100134134292602539e+00 9.029797315597534180e-01
2.236000000000000000e+03 3.031316757202148438e+01 2.136261177062988281e+01 -7.041994333267211914e-01 7.464303493499755859e+00 2.028031110763549805e+00 1.032767891883850098e+00
2.237000000000000000e+03 3.084305381774902344e+01 -5.018712043762207031e+00 -7.236362993717193604e-02 6.937562465667724609e+00 2.059559583663940430e+00 2.165428698062896729e-01
2.238000000000000000e+03 3.227474975585937500e+01 -2.959303617477416992e+00 -8.787696063518524170e-02 7.009081363677978516e+00 2.076361417770385742e+00 2.128910422325134277e-01
2.239000000000000000e+03 3.250636672973632812e+01 -1.070208191871643066e+00 -9.520921111106872559e-02 7.037722587585449219e+00 2.082754135131835938e+00 2.331657558679580688e-01
2.240000000000000000e+03 3.302960205078125000e+01 1.436939716339111328e+01 -4.615022838115692139e-01 7.446246623992919922e+00 2.095423221588134766e+00 6.183301210403442383e-01
2.241000000000000000e+03 6.820076751708984375e+01 1.403273582458496094e+01 -3.854340687394142151e-02 7.666356086730957031e+00 2.288343906402587891e+00 -3.272990882396697998e-01
2.242000000000000000e+03 6.839867401123046875e+01 -1.884047698974609375e+01 -3.072232194244861603e-02 7.951536655426025391e+00 2.376244306564331055e+00 -9.100608527660369873e-02
2.243000000000000000e+03 6.829276275634765625e+01 -5.357900142669677734e+00 -4.857677221298217773e-02 7.873756885528564453e+00 2.347554206848144531e+00 -1.692682355642318726e-01
2.244000000000000000e+03 7.034883117675781250e+01 2.234887313842773438e+01 1.606408506631851196e-02 7.473461151123046875e+00 2.246857643127441406e+00 -3.075878024101257324e-01
2.245000000000000000e+03 6.649551391601562500e+01 1.698147964477539062e+01 -3.152329847216606140e-02 7.666153430938720703e+00 2.290389060974121094e+00 -3.662097752094268799e-01
2.246000000000000000e+03 3.172553443908691406e+01 2.829751968383789062e+00 -9.476471692323684692e-02 7.028613567352294922e+00 2.080154657363891602e+00 3.102767467498779297e-01
2.247000000000000000e+03 3.523305892944335938e+01 5.511724948883056641e+00 -2.161910533905029297e-01 7.281071186065673828e+00 2.119463920593261719e+00 3.167207241058349609e-01
2.248000000000000000e+03 6.526725769042968750e+01 1.914314460754394531e+01 -1.350328046828508377e-02 7.668808937072753906e+00 2.296591758728027344e+00 -3.903329074382781982e-01
2.249000000000000000e+03 3.081177711486816406e+01 -1.249646091461181641e+01 -3.949601948261260986e-02 6.839825153350830078e+00 2.040098667144775391e+00 1.437529325485229492e-01
2.250000000000000000e+03 3.243955230712890625e+01 2.436227416992187500e+01 -7.925685048103332520e-01 8.415406227111816406e+00 2.286851406097412109e+00 7.428355216979980469e-01
2.251000000000000000e+03 3.256812286376953125e+01 2.705918693542480469e+01 -6.677801609039306641e-01 9.082281112670898438e+00 2.524350404739379883e+00 5.303391814231872559e-01
2.252000000000000000e+03 3.162162590026855469e+01 -1.764655494689941406e+01 -5.226441472768783569e-02 6.826847553253173828e+00 2.032374858856201172e+00 9.849246591329574585e-02
2.253000000000000000e+03 3.467330551147460938e+01 2.847596359252929688e+01 -1.706971824169158936e-01 9.375018119812011719e+00 2.761296272277832031e+00 -9.702052175998687744e-02
2.254000000000000000e+03 6.511261749267578125e+01 2.721134948730468750e+01 1.145313680171966553e-01 7.560975074768066406e+00 2.302651882171630859e+00 -3.611793220043182373e-01
2.255000000000000000e+03 6.622862243652343750e+01 2.485221481323242188e+01 5.756324157118797302e-02 7.563307285308837891e+00 2.286261081695556641e+00 -3.673008978366851807e-01
2.256000000000000000e+03 7.297909545898437500e+01 3.273264312744140625e+01 5.270830914378166199e-02 7.131453037261962891e+00 2.155248403549194336e+00 -1.603942215442657471e-01
2.257000000000000000e+03 2.775680351257324219e+01 -3.526026153564453125e+01 7.651849649846553802e-03 6.370939254760742188e+00 1.913577318191528320e+00 -6.262505799531936646e-02
2.258000000000000000e+03 3.134129333496093750e+01 -3.475152969360351562e+01 -9.857114404439926147e-02 6.624783992767333984e+00 1.957863926887512207e+00 -6.830407679080963135e-02
2.259000000000000000e+03 3.835670471191406250e+01 3.013957977294921875e+01 5.026263594627380371e-01 9.082246780395507812e+00 2.875462055206298828e+00 -4.756361544132232666e-01
2.260000000000000000e+03 6.693113708496093750e+01 -1.323064422607421875e+01 -4.239500313997268677e-02 7.890880107879638672e+00 2.354545593261718750e+00 -1.270511597394943237e-01
2.261000000000000000e+03 6.702880859375000000e+01 -2.106767654418945312e+01 -3.559668362140655518e-02 7.920648574829101562e+00 2.365515708923339844e+00 -8.708012104034423828e-02
2.262000000000000000e+03 6.444400024414062500e+01 -2.478290176391601562e+01 -4.697985202074050903e-02 7.847401618957519531e+00 2.340126514434814453e+00 -7.623216509819030762e-02
2.263000000000000000e+03 6.707666778564453125e+01 -3.455111694335937500e+01 -3.170782700181007385e-02 7.953794002532958984e+00 2.376626014709472656e+00 -3.094362653791904449e-02
2.264000000000000000e+03 6.984262084960937500e+01 -1.563894081115722656e+01 -2.858959138393402100e-02 7.976792335510253906e+00 2.384460687637329102e+00 -9.856772422790527344e-02
2.265000000000000000e+03 3.026751708984375000e+01 -9.646192550659179688e+00 -4.399040341377258301e-02 6.857154846191406250e+00 2.043949365615844727e+00 1.824611425399780273e-01
2.266000000000000000e+03 6.678562927246093750e+01 -3.759918212890625000e+01 -3.005176223814487457e-02 7.949144840240478516e+00 2.375727891921997070e+00 -2.180908620357513428e-02
2.267000000000000000e+03 2.751569747924804688e+01 -2.609276580810546875e+01 -2.512443996965885162e-02 6.580938339233398438e+00 1.966744184494018555e+00 1.473208218812942505e-01
2.268000000000000000e+03 6.941547393798828125e+01 2.025571107864379883e+00 -4.890636727213859558e-02 7.822322368621826172e+00 2.332024812698364258e+00 -2.152400016784667969e-01
2.269000000000000000e+03 1.387503337860107422e+01 3.795868301391601562e+01 -2.790358848869800568e-02 -2.394225262105464935e-02 -1.555375196039676666e-02 2.903202734887599945e-02
2.270000000000000000e+03 8.276440620422363281e+00 4.130472183227539062e+01 -7.307634223252534866e-03 -8.289758116006851196e-03 -4.679217934608459473e-03 -4.635111894458532333e-03
2.271000000000000000e+03 3.004860496520996094e+01 2.493721580505371094e+01 -7.892409563064575195e-01 7.869958400726318359e+00 2.124215126037597656e+00 1.190036654472351074e+00
2.272000000000000000e+03 2.837925720214843750e+01 2.867834854125976562e+01 -5.931438207626342773e-01 7.814866542816162109e+00 2.166516780853271484e+00 1.824338912963867188e+00
2.273000000000000000e+03 2.909362602233886719e+01 2.949495124816894531e+01 -5.732489228248596191e-01 8.713018417358398438e+00 2.441930770874023438e+00 1.660669207572937012e+00
2.274000000000000000e+03 3.149559020996093750e+01 2.513812637329101562e+01 -8.068692088127136230e-01 8.389916419982910156e+00 2.274914026260375977e+00 9.032576084136962891e-01
2.275000000000000000e+03 2.757766342163085938e+01 2.868247032165527344e+01 -4.371321797370910645e-01 7.142656803131103516e+00 2.011657476425170898e+00 2.035988569259643555e+00
2.276000000000000000e+03 2.999740028381347656e+01 -7.128280639648437500e+00 -5.678086355328559875e-02 6.875061511993408203e+00 2.045484304428100586e+00 2.083390951156616211e-01
2.277000000000000000e+03 3.051981544494628906e+01 -1.102081584930419922e+01 -3.289792314171791077e-02 6.847538948059082031e+00 2.044392347335815430e+00 1.631287187337875366e-01
2.278000000000000000e+03 3.191633033752441406e+01 2.345261573791503906e+01 -7.987900376319885254e-01 8.173851966857910156e+00 2.212518692016601562e+00 8.459394574165344238e-01
2.279000000000000000e+03 3.408370590209960938e+01 1.656060791015625000e+01 -5.667953491210937500e-01 7.727691173553466797e+00 2.148268699645996094e+00 5.754083991050720215e-01
2.280000000000000000e+03 3.341801071166992188e+01 1.794109535217285156e+01 -6.282514333724975586e-01 7.767526626586914062e+00 2.141782522201538086e+00 6.579578518867492676e-01
2.281000000000000000e+03 3.386962127685546875e+01 9.110655635595321655e-02 -1.232939809560775757e-01 7.116784095764160156e+00 2.098047018051147461e+00 2.368524968624114990e-01
2.282000000000000000e+03 3.012882423400878906e+01 2.747614288330078125e+01 -7.671552300453186035e-01 8.507735252380371094e+00 2.322174072265625000e+00 1.247467875480651855e+00
2.283000000000000000e+03 3.324415206909179688e+01 1.283586597442626953e+01 -4.003798067569732666e-01 7.402210235595703125e+00 2.100548982620239258e+00 5.680686235427856445e-01
2.284000000000000000e+03 3.267276382446289062e+01 1.583186626434326172e+01 -5.104474425315856934e-01 7.491955757141113281e+00 2.094452381134033203e+00 6.698037981986999512e-01
2.285000000000000000e+03 3.268921661376953125e+01 2.069211769104003906e+01 -7.218329906463623047e-01 7.921960353851318359e+00 2.160038232803344727e+00 7.522003054618835449e-01
2.286000000000000000e+03 3.098853683471679688e+01 1.995214843750000000e+01 -6.578423976898193359e-01 7.497087955474853516e+00 2.051773548126220703e+00 9.185802340507507324e-01
2.287000000000000000e+03 3.097377014160156250e+01 -4.195157051086425781e+00 -7.355976849794387817e-02 6.940237045288085938e+00 2.060003280639648438e+00 2.141893357038497925e-01
2.288000000000000000e+03 6.790496063232421875e+01 -6.739904403686523438e+00 -5.355431884527206421e-02 7.877310276031494141e+00 2.347126722335815430e+00 -1.610166728496551514e-01
2.289000000000000000e+03 6.764972686767578125e+01 -8.293056488037109375e+00 -4.740468785166740417e-02 7.883358955383300781e+00 2.350786447525024414e+00 -1.528358608484268188e-01
2.290000000000000000e+03 6.778096771240234375e+01 8.076514244079589844e+00 -6.215199455618858337e-02 7.752107620239257812e+00 2.306986570358276367e+00 -2.885296642780303955e-01
2.291000000000000000e+03 6.951531982421875000e+01 -3.230507373809814453e-01 -4.796853661537170410e-02 7.845623016357421875e+00 2.339296340942382812e+00 -1.980906873941421509e-01
2.292000000000000000e+03 7.107444000244140625e+01 1.490911674499511719e+01 -2.402473054826259613e-02 7.602623939514160156e+00 2.273579835891723633e+00 -2.812163531780242920e-01
2.293000000000000000e+03 6.753643798828125000e+01 1.221442985534667969e+01 -5.322207510471343994e-02 7.708119869232177734e+00 2.296469449996948242e+00 -3.287825584411621094e-01
2.294000000000000000e+03 6.847941589355468750e+01 1.045239734649658203e+01 -5.080088227987289429e-02 7.717980384826660156e+00 2.300153732299804688e+00 -2.986026704311370850e-01
2.295000000000000000e+03 6.751489257812500000e+01 -1.530763912200927734e+01 -3.529630228877067566e-02 7.913079738616943359e+00 2.363334894180297852e+00 -1.122944876551628113e-01
2.296000000000000000e+03 6.732188415527343750e+01 3.259110260009765625e+01 1.405918151140213013e-01 7.411020755767822266e+00 2.265483856201171875e+00 -2.501748800277709961e-01
2.297000000000000000e+03 3.085125160217285156e+01 -2.419533920288085938e+01 -4.357520490884780884e-02 6.721379280090332031e+00 2.003341197967529297e+00 9.711045771837234497e-02
2.298000000000000000e+03 3.317234802246093750e+01 -1.549488639831542969e+01 -5.621169134974479675e-02 6.898017883300781250e+00 2.052541732788085938e+00 9.837145358324050903e-02
2.299000000000000000e+03 6.740058898925781250e+01 -9.851167678833007812e+00 -4.969658330082893372e-02 7.886800289154052734e+00 2.351131200790405273e+00 -1.431382447481155396e-01
2.300000000000000000e+03 6.797979736328125000e+01 2.652029752731323242e+00 -6.488119810819625854e-02 7.808040618896484375e+00 2.322947740554809570e+00 -2.361801117658615112e-01
2.301000000000000000e+03 3.293862533569335938e+01 -1.376206779479980469e+01 -5.918004736304283142e-02 6.907203197479248047e+00 2.054406881332397461e+00 1.082362607121467590e-01
2.302000000000000000e+03 3.110135650634765625e+01 -1.408139324188232422e+01 -3.715112805366516113e-02 6.833034992218017578e+00 2.038765192031860352e+00 1.279266029596328735e-01
2.303000000000000000e+03 3.466458892822265625e+01 2.539535331726074219e+01 -5.962373018264770508e-01 8.880450248718261719e+00 2.485264062881469727e+00 2.506420314311981201e-01
2.304000000000000000e+03 3.683906555175781250e+01 2.472292137145996094e+01 -4.650841355323791504e-01 8.820859909057617188e+00 2.506732702255249023e+00 3.255902323871850967e-03
2.305000000000000000e+03 6.868166351318359375e+01 1.182379150390625000e+01 -4.825074225664138794e-02 7.698101997375488281e+00 2.294955253601074219e+00 -3.067708909511566162e-01
2.306000000000000000e+03 6.695648956298828125e+01 2.269000244140625000e+01 2.991539984941482544e-02 7.566629886627197266e+00 2.278963565826416016e+00 -3.658208549022674561e-01
2.307000000000000000e+03 3.246465682983398438e+01 -1.212625885009765625e+01 -5.140345171093940735e-02 6.908898353576660156e+00 2.057248592376708984e+00 1.328473091125488281e-01
2.308000000000000000e+03 3.440810394287109375e+01 2.346009063720703125e+01 -7.131612896919250488e-01 8.535363197326660156e+00 2.346660614013671875e+00 4.400446116924285889e-01
2.309000000000000000e+03 3.547878646850585938e+01 9.092715263366699219e+00 -3.130109608173370361e-01 7.424658298492431641e+00 2.133494138717651367e+00 3.856708705425262451e-01
2.310000000000000000e+03 3.452339935302734375e+01 7.052317142486572266e+00 -2.351165711879730225e-01 7.284231662750244141e+00 2.114734411239624023e+00 3.763572573661804199e-01
2.311000000000000000e+03 3.266762542724609375e+01 5.471758842468261719e+00 -1.549660414457321167e-01 7.133888244628906250e+00 2.093676567077636719e+00 3.684773147106170654e-01
2.312000000000000000e+03 3.065678787231445312e+01 -3.210078430175781250e+01 -5.763913970440626144e-03 6.577187061309814453e+00 1.971426844596862793e+00 -1.556973205879330635e-03
2.313000000000000000e+03 3.199770545959472656e+01 -2.884556007385253906e+01 -2.116519957780838013e-02 6.682347774505615234e+00 1.998354792594909668e+00 4.953276365995407104e-02
2.314000000000000000e+03 2.907732009887695312e+01 -2.849942016601562500e+01 3.222951665520668030e-03 6.585268497467041016e+00 1.976547479629516602e+00 1.205865293741226196e-01
2.315000000000000000e+03 6.173364257812500000e+01 -2.853799057006835938e+01 -5.486449226737022400e-02 7.777551651000976562e+00 2.316806077957153320e+00 -6.164259836077690125e-02
2.316000000000000000e+03 6.389159011840820312e+01 -2.834670448303222656e+01 -4.668778926134109497e-02 7.844932079315185547e+00 2.339473247528076172e+00 -6.148742884397506714e-02
2.317000000000000000e+03 6.990362548828125000e+01 -1.357665252685546875e+01 -3.154257684946060181e-02 7.964712619781494141e+00 2.379951000213623047e+00 -1.088031530380249023e-01
2.318000000000000000e+03 6.737599182128906250e+01 3.521286773681640625e+01 1.859085410833358765e-01 7.373597621917724609e+00 2.267851829528808594e+00 -1.977916359901428223e-01
2.319000000000000000e+03 6.496122741699218750e+01 3.245648574829101562e+01 1.864755004644393921e-01 7.498581409454345703e+00 2.305516958236694336e+00 -2.793512046337127686e-01
2.320000000000000000e+03 6.735308837890625000e+01 4.100121688842773438e+01 1.911985278129577637e-01 7.336991786956787109e+00 2.258457183837890625e+00 -3.595701977610588074e-02
2.321000000000000000e+03 2.924320030212402344e+01 2.785825920104980469e+01 -7.148201465606689453e-01 8.248503684997558594e+00 2.260105133056640625e+00 1.485757946968078613e+00
2.322000000000000000e+03 3.159718322753906250e+01 2.780682373046875000e+01 -6.910695433616638184e-01 9.114795684814453125e+00 2.527117729187011719e+00 7.487020492553710938e-01
2.323000000000000000e+03 3.063165855407714844e+01 2.850899505615234375e+01 -6.813669204711914062e-01 9.093717575073242188e+00 2.523705244064331055e+00 1.054214358329772949e+00
2.324000000000000000e+03 2.980690765380859375e+01 2.916289710998535156e+01 -6.624177098274230957e-01 8.939038276672363281e+00 2.482985973358154297e+00 1.344845890998840332e+00
2.325000000000000000e+03 3.215737915039062500e+01 2.880046463012695312e+01 -4.885313212871551514e-01 9.538795471191406250e+00 2.715079069137573242e+00 4.345587491989135742e-01
2.326000000000000000e+03 6.873842620849609375e+01 -1.395221710205078125e+00 -5.404409393668174744e-02 7.846423149108886719e+00 2.337713718414306641e+00 -1.967198699712753296e-01
2.327000000000000000e+03 6.729522705078125000e+01 -2.606789112091064453e+00 -6.569738686084747314e-02 7.844542503356933594e+00 2.333653450012207031e+00 -1.969507485628128052e-01
2.328000000000000000e+03 6.728314971923828125e+01 2.381699234247207642e-01 -6.573536992073059082e-02 7.826764106750488281e+00 2.328308582305908203e+00 -2.193070650100708008e-01
2.329000000000000000e+03 3.476131439208984375e+01 1.328169918060302734e+01 -4.478177130222320557e-01 7.568478107452392578e+00 2.136198282241821289e+00 4.904732406139373779e-01
2.330000000000000000e+03 3.449205780029296875e+01 1.862386894226074219e+01 -6.438612937927246094e-01 7.945144176483154297e+00 2.190384864807128906e+00 5.555180907249450684e-01
2.331000000000000000e+03 3.412090682983398438e+01 1.993825721740722656e+01 -6.826380491256713867e-01 8.054306983947753906e+00 2.211500644683837891e+00 5.728486180305480957e-01
2.332000000000000000e+03 6.812926483154296875e+01 -1.396208000183105469e+01 -3.992988914251327515e-02 7.919718742370605469e+00 2.363936662673950195e+00 -1.167834550142288208e-01
2.333000000000000000e+03 3.202130889892578125e+01 2.609333992004394531e+01 -7.732619047164916992e-01 8.726963043212890625e+00 2.386110544204711914e+00 7.447952032089233398e-01
2.334000000000000000e+03 6.934713745117187500e+01 6.822162628173828125e+00 -4.940165206789970398e-02 7.759032726287841797e+00 2.312889337539672852e+00 -2.567203342914581299e-01
2.335000000000000000e+03 6.798140716552734375e+01 6.423528671264648438e+00 -6.148845702409744263e-02 7.770491123199462891e+00 2.312700748443603516e+00 -2.727395296096801758e-01
2.336000000000000000e+03 3.054616355895996094e+01 2.585359001159667969e+01 -8.183680772781372070e-01 8.238366127014160156e+00 2.225999355316162109e+00 1.129122614860534668e+00
2.337000000000000000e+03 3.636903762817382812e+01 1.075249004364013672e+01 -3.813849091529846191e-01 7.567112445831298828e+00 2.155718326568603516e+00 3.766788542270660400e-01
2.338000000000000000e+03 6.853352355957031250e+01 4.990064620971679688e+00 -5.998224392533302307e-02 7.785669326782226562e+00 2.317706108093261719e+00 -2.514238357543945312e-01
2.339000000000000000e+03 3.276645660400390625e+01 -4.097765445709228516e+00 -8.894331008195877075e-02 7.007895946502685547e+00 2.075685739517211914e+00 1.993192583322525024e-01
2.340000000000000000e+03 3.412957382202148438e+01 2.731512069702148438e+01 -4.692289531230926514e-01 9.184912681579589844e+00 2.614705085754394531e+00 1.657640188932418823e-01
2.341000000000000000e+03 6.889699554443359375e+01 -1.284345626831054688e+01 -3.347865492105484009e-02 7.931082248687744141e+00 2.369281053543090820e+00 -1.183711290359497070e-01
2.342000000000000000e+03 6.869466400146484375e+01 -1.569945049285888672e+01 -3.478054329752922058e-02 7.941892147064208984e+00 2.372133493423461914e+00 -1.062280982732772827e-01
2.343000000000000000e+03 3.481705474853515625e+01 -1.588981246948242188e+01 -7.057218998670578003e-02 6.953637123107910156e+00 2.064919471740722656e+00 7.399007678031921387e-02
2.344000000000000000e+03 3.413458251953125000e+01 -3.896720886230468750e+00 -1.046154275536537170e-01 7.077368736267089844e+00 2.091825962066650391e+00 1.831177771091461182e-01
2.345000000000000000e+03 3.352626419067382812e+01 -2.311567068099975586e+00 -1.047706454992294312e-01 7.065651893615722656e+00 2.088264226913452148e+00 2.074192166328430176e-01
2.346000000000000000e+03 6.586312866210937500e+01 -8.265089988708496094e+00 -6.434894353151321411e-02 7.847941875457763672e+00 2.335077762603759766e+00 -1.622369140386581421e-01
2.347000000000000000e+03 6.696421051025390625e+01 1.340703868865966797e+01 -5.173956230282783508e-02 7.706619262695312500e+00 2.296463966369628906e+00 -3.413557708263397217e-01
2.348000000000000000e+03 6.582224273681640625e+01 1.523410511016845703e+01 -4.598955065011978149e-02 7.701836585998535156e+00 2.296754121780395508e+00 -3.681201338768005371e-01
2.349000000000000000e+03 3.312299346923828125e+01 2.803565025329589844e+01 -4.730661213397979736e-01 9.367209434509277344e+00 2.668242931365966797e+00 2.730927467346191406e-01
2.350000000000000000e+03 6.650470733642578125e+01 5.670361518859863281e+00 -7.775433361530303955e-02 7.784687042236328125e+00 2.312079906463623047e+00 -2.787551283836364746e-01
2.351000000000000000e+03 3.059236717224121094e+01 -2.126868247985839844e+01 -5.788757652044296265e-02 6.748437881469726562e+00 2.007164955139160156e+00 1.038600802421569824e-01
2.352000000000000000e+03 3.297502136230468750e+01 6.684755325317382812e+00 -1.908360570669174194e-01 7.167256355285644531e+00 2.092926025390625000e+00 4.006221592426300049e-01
2.353000000000000000e+03 3.607894134521484375e+01 7.787983894348144531e+00 -2.884208559989929199e-01 7.411172389984130859e+00 2.136825323104858398e+00 3.309762179851531982e-01
2.354000000000000000e+03 3.212150573730468750e+01 -2.247918891906738281e+01 -6.129458174109458923e-02 6.784277915954589844e+00 2.016895055770874023e+00 8.746626973152160645e-02
2.355000000000000000e+03 3.294895553588867188e+01 2.488493204116821289e+00 -1.199474930763244629e-01 7.101141929626464844e+00 2.094358205795288086e+00 2.935663461685180664e-01
2.356000000000000000e+03 6.300815582275390625e+01 2.242023277282714844e+01 3.810061514377593994e-02 7.698433876037597656e+00 2.320960283279418945e+00 -4.242831468582153320e-01
2.357000000000000000e+03 6.737807464599609375e+01 -1.179842591285705566e+00 -6.416623294353485107e-02 7.836608409881591797e+00 2.331732511520385742e+00 -2.093972861766815186e-01
2.358000000000000000e+03 4.252322387695312500e+01 2.771257400512695312e+01 1.942790299654006958e-01 8.658579826354980469e+00 2.655857563018798828e+00 -4.903778433799743652e-01
2.359000000000000000e+03 6.924867248535156250e+01 -1.462745666503906250e+01 -2.728255838155746460e-02 7.954291820526123047e+00 2.378102779388427734e+00 -1.066380441188812256e-01
2.360000000000000000e+03 3.164951896667480469e+01 -9.404193878173828125e+00 -5.054055526852607727e-02 6.908914566040039062e+00 2.057512283325195312e+00 1.635104566812515259e-01
2.361000000000000000e+03 3.149906349182128906e+01 -6.959098339080810547e+00 -6.616545468568801880e-02 6.941947460174560547e+00 2.062734603881835938e+00 1.892884671688079834e-01
2.362000000000000000e+03 1.825249671936035156e+01 -3.942169952392578125e+01 6.618981063365936279e-02 2.789354324340820312e+00 8.566632270812988281e-01 1.181992173194885254e+00
2.363000000000000000e+03 2.019805335998535156e+01 -4.036380386352539062e+01 -5.513835549354553223e-01 4.908858299255371094e+00 1.307242393493652344e+00 -8.243418484926223755e-02
2.364000000000000000e+03 2.918530845642089844e+01 2.871809196472167969e+01 -6.642711758613586426e-01 8.436051368713378906e+00 2.331533908843994141e+00 1.530118107795715332e+00
2.365000000000000000e+03 2.844523429870605469e+01 2.781564331054687500e+01 -6.507052183151245117e-01 7.627371788024902344e+00 2.092999935150146484e+00 1.704707860946655273e+00
2.366000000000000000e+03 3.106251525878906250e+01 2.681980705261230469e+01 -7.848428487777709961e-01 8.698041915893554688e+00 2.373959779739379883e+00 9.686580300331115723e-01
2.367000000000000000e+03 3.672154235839843750e+01 9.708861351013183594e+00 -3.500882685184478760e-01 7.531043052673339844e+00 2.154286384582519531e+00 3.340623676776885986e-01
2.368000000000000000e+03 3.784135818481445312e+01 1.206248950958251953e+01 -4.304625391960144043e-01 7.729633331298828125e+00 2.189751148223876953e+00 3.039558529853820801e-01
2.369000000000000000e+03 3.634762573242187500e+01 1.724188041687011719e+01 -5.828400254249572754e-01 7.986148357391357422e+00 2.220992326736450195e+00 3.971103131771087646e-01
2.370000000000000000e+03 6.744347381591796875e+01 4.462775707244873047e+00 -6.795908510684967041e-02 7.790060520172119141e+00 2.316630363464355469e+00 -2.589511871337890625e-01
2.371000000000000000e+03 3.500309371948242188e+01 -9.000144004821777344e+00 -8.562289178371429443e-02 7.040106296539306641e+00 2.086344957351684570e+00 1.251835972070693970e-01
2.372000000000000000e+03 3.276008987426757812e+01 -8.747534751892089844e+00 -6.897156685590744019e-02 6.963497161865234375e+00 2.068357706069946289e+00 1.581341475248336792e-01
2.373000000000000000e+03 3.361542510986328125e+01 -1.005265140533447266e+01 -6.949930638074874878e-02 6.977458477020263672e+00 2.072387695312500000e+00 1.327998638153076172e-01
2.374000000000000000e+03 3.793756484985351562e+01 2.714728927612304688e+01 -1.094174385070800781e-01 8.962378501892089844e+00 2.655888319015502930e+00 -2.841108441352844238e-01
2.375000000000000000e+03 3.578945159912109375e+01 2.782480239868164062e+01 -1.619198620319366455e-01 9.214805603027343750e+00 2.715865612030029297e+00 -1.652824133634567261e-01
2.376000000000000000e+03 6.283650207519531250e+01 4.139407157897949219e+00 -1.163441836833953857e-01 7.800176620483398438e+00 2.305149793624877930e+00 -2.752934098243713379e-01
2.377000000000000000e+03 3.388299179077148438e+01 2.453748893737792969e+01 -7.096239924430847168e-01 8.675778388977050781e+00 2.389846324920654297e+00 4.524392187595367432e-01
2.378000000000000000e+03 6.428259277343750000e+01 -8.560654640197753906e+00 -7.067018747329711914e-02 7.823248863220214844e+00 2.325773477554321289e+00 -1.620111018419265747e-01
2.379000000000000000e+03 3.157272911071777344e+01 -8.230185508728027344e+00 -6.400330364704132080e-02 6.925226688385009766e+00 2.058367013931274414e+00 1.761963516473770142e-01
2.380000000000000000e+03 6.540915679931640625e+01 1.338187980651855469e+01 -6.444904208183288574e-02 7.730990886688232422e+00 2.299962520599365234e+00 -3.561498820781707764e-01
2.381000000000000000e+03 6.309186553955078125e+01 1.192114543914794922e+01 -9.557990729808807373e-02 7.781420707702636719e+00 2.305752277374267578e+00 -3.604905009269714355e-01
2.382000000000000000e+03 3.628161621093750000e+01 1.358892345428466797e+01 -4.700172543525695801e-01 7.711301326751708984e+00 2.172385215759277344e+00 4.075707793235778809e-01
2.383000000000000000e+03 3.395071792602539062e+01 -5.469915866851806641e+00 -9.760516136884689331e-02 7.051998138427734375e+00 2.086318016052246094e+00 1.662209630012512207e-01
2.384000000000000000e+03 3.357467269897460938e+01 2.627579116821289062e+01 -6.485725045204162598e-01 8.995962142944335938e+00 2.504216909408569336e+00 3.645428419113159180e-01
2.385000000000000000e+03 3.620231246948242188e+01 1.536547279357910156e+01 -5.362206101417541504e-01 7.831342697143554688e+00 2.188536643981933594e+00 4.151404201984405518e-01
2.386000000000000000e+03 3.515650558471679688e+01 1.762274742126464844e+01 -6.120917201042175293e-01 7.922943592071533203e+00 2.193255424499511719e+00 4.919316470623016357e-01
2.387000000000000000e+03 3.546986770629882812e+01 1.355471968650817871e+00 -1.580997407436370850e-01 7.207734584808349609e+00 2.114890336990356445e+00 2.344807833433151245e-01
2.388000000000000000e+03 3.773579406738281250e+01 5.072239875793457031e+00 -2.542446851730346680e-01 7.415360927581787109e+00 2.148334980010986328e+00 2.375309765338897705e-01
2.389000000000000000e+03 3.779658508300781250e+01 1.373176097869873047e+01 -4.881553947925567627e-01 7.829853057861328125e+00 2.202509164810180664e+00 3.076058030128479004e-01
2.390000000000000000e+03 6.718885803222656250e+01 -3.871268033981323242e+00 -6.047803163528442383e-02 7.852520942687988281e+00 2.337612867355346680e+00 -1.868543475866317749e-01
2.391000000000000000e+03 6.651366424560546875e+01 -6.072622776031494141e+00 -6.183250248432159424e-02 7.852652072906494141e+00 2.337245941162109375e+00 -1.742033660411834717e-01
2.392000000000000000e+03 6.267161560058593750e+01 -1.984466361999511719e+01 -5.790038406848907471e-02 7.798812866210937500e+00 2.322273731231689453e+00 -1.001254171133041382e-01
2.393000000000000000e+03 6.341844558715820312e+01 -1.781337356567382812e+01 -5.412831529974937439e-02 7.814168930053710938e+00 2.328012228012084961e+00 -1.085758060216903687e-01
2.394000000000000000e+03 3.145424270629882812e+01 -1.957843971252441406e+01 -6.657438725233078003e-02 6.800281047821044922e+00 2.020112037658691406e+00 9.285002946853637695e-02
2.395000000000000000e+03 3.491247940063476562e+01 -1.877932739257812500e+01 -7.083860784769058228e-02 6.924663066864013672e+00 2.056147336959838867e+00 6.509411334991455078e-02
2.396000000000000000e+03 6.234125518798828125e+01 1.621959686279296875e+01 -6.264766305685043335e-02 7.775207996368408203e+00 2.313768148422241211e+00 -4.057283997535705566e-01
2.397000000000000000e+03 3.747267913818359375e+01 8.658086776733398438e+00 -3.330299258232116699e-01 7.530052661895751953e+00 2.159106969833374023e+00 2.992527186870574951e-01
2.398000000000000000e+03 3.390788269042968750e+01 -2.390708923339843750e+01 -5.386165902018547058e-02 6.832357883453369141e+00 2.033548831939697266e+00 5.535514280200004578e-02
2.399000000000000000e+03 3.570001602172851562e+01 -2.554298400878906250e+01 -6.924103945493698120e-02 6.886098861694335938e+00 2.045057296752929688e+00 2.786401845514774323e-02
2.400000000000000000e+03 3.757709503173828125e+01 1.063335609436035156e+01 -3.953929841518402100e-01 7.642068386077880859e+00 2.174002647399902344e+00 3.052294552326202393e-01
2.401000000000000000e+03 6.678806304931640625e+01 1.073194694519042969e+01 -6.430305540561676025e-02 7.734617233276367188e+00 2.301094293594360352e+00 -3.218631744384765625e-01
2.402000000000000000e+03 6.436110687255859375e+01 -2.054865074157714844e+01 -4.449522122740745544e-02 7.842585086822509766e+00 2.339426994323730469e+00 -9.560528397560119629e-02
2.403000000000000000e+03 6.385611724853515625e+01 -2.255691146850585938e+01 -4.918389394879341125e-02 7.826713562011718750e+00 2.333258867263793945e+00 -8.772586286067962646e-02
2.404000000000000000e+03 3.958320236206054688e+01 2.826327133178710938e+01 1.617381572723388672e-01 8.909716606140136719e+00 2.721436500549316406e+00 -4.249117076396942139e-01
2.405000000000000000e+03 6.360330581665039062e+01 1.380535793304443359e+01 -7.595397531986236572e-02 7.763118743896484375e+00 2.306149482727050781e+00 -3.762663900852203369e-01
2.406000000000000000e+03 6.849185943603515625e+01 -4.031960010528564453e+00 -5.192882195115089417e-02 7.867640018463134766e+00 2.344713211059570312e+00 -1.761741191148757935e-01
2.407000000000000000e+03 6.534735870361328125e+01 -6.769763469696044922e+00 -6.606512516736984253e-02 7.838611602783203125e+00 2.331763982772827148e+00 -1.705453395843505859e-01
2.408000000000000000e+03 6.318331909179687500e+01 -9.366863250732421875e+00 -7.601678371429443359e-02 7.804558277130126953e+00 2.318562507629394531e+00 -1.586731821298599243e-01
2.409000000000000000e+03 6.584881591796875000e+01 -1.273953437805175781e+00 -7.934220135211944580e-02 7.824563980102539062e+00 2.323566675186157227e+00 -2.145643532276153564e-01
2.410000000000000000e+03 6.442127227783203125e+01 -1.623543739318847656e+00 -8.782006055116653442e-02 7.813587188720703125e+00 2.317730188369750977e+00 -2.164233624935150146e-01
2.411000000000000000e+03 6.564377593994140625e+01 3.143203556537628174e-01 -8.061343431472778320e-02 7.815358161926269531e+00 2.320423364639282227e+00 -2.322816103696823120e-01
2.412000000000000000e+03 6.587949371337890625e+01 1.942059755325317383e+00 -8.293168991804122925e-02 7.807779788970947266e+00 2.317454576492309570e+00 -2.453096807003021240e-01
2.413000000000000000e+03 3.364746093750000000e+01 2.135589027404785156e+01 -7.314801216125488281e-01 8.164063453674316406e+00 2.229774951934814453e+00 6.204051971435546875e-01
2.414000000000000000e+03 3.552034378051757812e+01 2.410282707214355469e+01 -6.080000400543212891e-01 8.724582672119140625e+00 2.434974670410156250e+00 2.148094028234481812e-01
2.415000000000000000e+03 3.514180755615234375e+01 -1.492998719215393066e+00 -1.308682262897491455e-01 7.155249595642089844e+00 2.107314348220825195e+00 1.944779455661773682e-01
2.416000000000000000e+03 3.451712417602539062e+01 2.977988243103027344e+00 -1.615489125251770020e-01 7.189163684844970703e+00 2.108284473419189453e+00 2.779234945774078369e-01
2.417000000000000000e+03 3.339022445678710938e+01 2.358695411682128906e+01 -7.557305693626403809e-01 8.449155807495117188e+00 2.308027744293212891e+00 5.847323536872863770e-01
2.418000000000000000e+03 6.521360778808593750e+01 6.904587745666503906e+00 -8.779987692832946777e-02 7.782036781311035156e+00 2.308270931243896484e+00 -2.969786226749420166e-01
2.419000000000000000e+03 6.431247711181640625e+01 2.851397514343261719e+00 -9.851095825433731079e-02 7.802575588226318359e+00 2.311219453811645508e+00 -2.603418529033660889e-01
2.420000000000000000e+03 3.544981384277343750e+01 1.897939109802246094e+01 -6.335258483886718750e-01 8.098324775695800781e+00 2.239439487457275391e+00 4.308053553104400635e-01
2.421000000000000000e+03 6.326780700683593750e+01 -1.329201793670654297e+01 -6.723362207412719727e-02 7.808968544006347656e+00 2.322520494461059570e+00 -1.329666972160339355e-01
2.422000000000000000e+03 3.647191619873046875e+01 2.647683143615722656e+01 -3.272472918033599854e-01 9.024930953979492188e+00 2.609305143356323242e+00 -9.657546877861022949e-02
2.423000000000000000e+03 3.928732299804687500e+01 1.743134498596191406e+01 -5.255407094955444336e-01 8.163737297058105469e+00 2.291459083557128906e+00 1.482525467872619629e-01
2.424000000000000000e+03 3.779531860351562500e+01 1.730034637451171875e+01 -5.641456842422485352e-01 8.082746505737304688e+00 2.255580186843872070e+00 2.660867571830749512e-01
2.425000000000000000e+03 6.602714538574218750e+01 -2.598429679870605469e+00 -7.103888690471649170e-02 7.830907344818115234e+00 2.327960491180419922e+00 -2.044377774000167847e-01
2.426000000000000000e+03 3.386562347412109375e+01 -7.681773662567138672e+00 -8.229211717844009399e-02 7.009943485260009766e+00 2.078295469284057617e+00 1.516881585121154785e-01
2.427000000000000000e+03 6.582704162597656250e+01 -4.911722660064697266e+00 -6.999880075454711914e-02 7.836000442504882812e+00 2.329800605773925781e+00 -1.859008818864822388e-01
2.428000000000000000e+03 3.171866416931152344e+01 -5.225806713104248047e+00 -7.796017825603485107e-02 6.963909626007080078e+00 2.065784931182861328e+00 1.978870332241058350e-01
2.429000000000000000e+03 3.588441085815429688e+01 -3.469074964523315430e+00 -1.265408396720886230e-01 7.150780200958251953e+00 2.107271909713745117e+00 1.606146246194839478e-01
2.430000000000000000e+03 3.294858169555664062e+01 -6.497725963592529297e+00 -8.001539111137390137e-02 6.995732784271240234e+00 2.074715137481689453e+00 1.735171824693679810e-01
2.431000000000000000e+03 3.957333755493164062e+01 -3.859701395034790039e+00 -1.587957441806793213e-01 7.293318748474121094e+00 2.140357017517089844e+00 9.860209375619888306e-02
2.432000000000000000e+03 4.192098999023437500e+01 3.343334960937500000e+01 9.481590986251831055e-01 8.758003234863281250e+00 2.911848783493041992e+00 -4.158997833728790283e-01
2.433000000000000000e+03 3.714884948730468750e+01 2.553280591964721680e+00 -2.017047107219696045e-01 7.319128036499023438e+00 2.135226964950561523e+00 2.143453210592269897e-01
2.434000000000000000e+03 3.684094619750976562e+01 6.442281723022460938e+00 -2.689661383628845215e-01 7.412778854370117188e+00 2.143143892288208008e+00 2.895937263965606689e-01
2.435000000000000000e+03 4.346683502197265625e+01 2.571634864807128906e+01 -2.104942919686436653e-03 8.538119316101074219e+00 2.560804128646850586e+00 -4.454643130302429199e-01
2.436000000000000000e+03 6.563124084472656250e+01 -1.653565216064453125e+01 -4.386861249804496765e-02 7.870637893676757812e+00 2.348030805587768555e+00 -1.118792593479156494e-01
2.437000000000000000e+03 6.621002197265625000e+01 -1.475926113128662109e+01 -4.901716858148574829e-02 7.878435134887695312e+00 2.348825454711914062e+00 -1.198364272713661194e-01
2.438000000000000000e+03 6.401148223876953125e+01 1.798650622367858887e-02 -9.814149886369705200e-02 7.807035923004150391e+00 2.312668323516845703e+00 -2.341908365488052368e-01
2.439000000000000000e+03 3.735634231567382812e+01 -8.781311988830566406e+00 -1.048269495368003845e-01 7.132091522216796875e+00 2.108179330825805664e+00 9.540936350822448730e-02
2.440000000000000000e+03 6.389088439941406250e+01 -7.232627391815185547e+00 -7.915531843900680542e-02 7.815197944641113281e+00 2.320812702178955078e+00 -1.721909791231155396e-01
2.441000000000000000e+03 6.407197570800781250e+01 5.408082485198974609e+00 -1.021929457783699036e-01 7.796727657318115234e+00 2.308360338211059570e+00 -2.879759371280670166e-01
2.442000000000000000e+03 6.434461212158203125e+01 2.127388191223144531e+01 1.577980257570743561e-02 7.669606685638427734e+00 2.305615901947021484e+00 -4.041583240032196045e-01
2.443000000000000000e+03 6.296898269653320312e+01 1.803644371032714844e+01 -3.508128225803375244e-02 7.745640754699707031e+00 2.313167810440063477e+00 -4.129804968833923340e-01
2.444000000000000000e+03 6.084564971923828125e+01 -2.465927886962890625e+01 -6.306896358728408813e-02 7.753255844116210938e+00 2.307055950164794922e+00 -8.005361258983612061e-02
2.445000000000000000e+03 3.210935592651367188e+01 2.178520011901855469e+01 -7.530550956726074219e-01 7.952033042907714844e+00 2.159693479537963867e+00 8.153694272041320801e-01
2.446000000000000000e+03 6.193766403198242188e+01 -2.216554832458496094e+01 -5.270780622959136963e-02 7.781801700592041016e+00 2.318728208541870117e+00 -8.834653347730636597e-02
2.447000000000000000e+03 6.511990356445312500e+01 -1.858260726928710938e+01 -4.896463453769683838e-02 7.859788417816162109e+00 2.343247175216674805e+00 -1.036046892404556274e-01
2.448000000000000000e+03 3.777037429809570312e+01 1.547455215454101562e+01 -5.233005285263061523e-01 7.951955318450927734e+00 2.228596448898315430e+00 2.981426715850830078e-01
2.449000000000000000e+03 6.313633728027343750e+01 1.605930447578430176e+00 -1.061039045453071594e-01 7.800760746002197266e+00 2.308397054672241211e+00 -2.497625201940536499e-01
2.450000000000000000e+03 3.234175109863281250e+01 -2.562700080871582031e+01 -4.630966112017631531e-02 6.751752853393554688e+00 2.011632919311523438e+00 7.580010592937469482e-02
2.451000000000000000e+03 6.254919815063476562e+01 1.010324192047119141e+01 -1.088528037071228027e-01 7.794777870178222656e+00 2.305777549743652344e+00 -3.426390290260314941e-01
2.452000000000000000e+03 3.633572387695312500e+01 -5.322305679321289062e+00 -1.171241179108619690e-01 7.143731117248535156e+00 2.107982158660888672e+00 1.356194615364074707e-01
2.453000000000000000e+03 6.589624786376953125e+01 -3.723039150238037109e+00 -7.626002281904220581e-02 7.834210872650146484e+00 2.327385187149047852e+00 -1.944845914840698242e-01
2.454000000000000000e+03 6.186462402343750000e+01 -8.415823936462402344e+00 -9.022168815135955811e-02 7.780554771423339844e+00 2.307100057601928711e+00 -1.636436134576797485e-01
2.455000000000000000e+03 3.286236953735351562e+01 2.255633163452148438e+01 -7.681035995483398438e-01 8.207631111145019531e+00 2.231858253479003906e+00 7.041954398155212402e-01
2.456000000000000000e+03 3.969720840454101562e+01 8.487192153930664062e+00 -3.497372269630432129e-01 7.647223472595214844e+00 2.189245939254760742e+00 1.996243149042129517e-01
2.457000000000000000e+03 3.930678176879882812e+01 1.381687641143798828e+01 -4.705986976623535156e-01 7.907882213592529297e+00 2.231184959411621094e+00 2.137837707996368408e-01
2.458000000000000000e+03 3.652402114868164062e+01 1.903248977661132812e+01 -6.255117654800415039e-01 8.178539276123046875e+00 2.265908479690551758e+00 3.396593928337097168e-01
2.459000000000000000e+03 6.366262054443359375e+01 7.809132575988769531e+00 -1.030983701348304749e-01 7.789247989654541016e+00 2.305844783782958984e+00 -3.148280978202819824e-01
2.460000000000000000e+03 6.436011505126953125e+01 9.493974685668945312e+00 -9.321008622646331787e-02 7.775543689727783203e+00 2.304700136184692383e+00 -3.291805982589721680e-01
2.461000000000000000e+03 3.523553848266601562e+01 2.658297348022460938e+01 -4.523401558399200439e-01 9.049258232116699219e+00 2.579075574874877930e+00 6.113982200622558594e-02
2.462000000000000000e+03 3.615398025512695312e+01 4.013719081878662109e+00 -2.058297097682952881e-01 7.301560878753662109e+00 2.128719329833984375e+00 2.627170085906982422e-01
2.463000000000000000e+03 3.725551986694335938e+01 2.285467910766601562e+01 -5.476441979408264160e-01 8.601067543029785156e+00 2.416026830673217773e+00 9.671816229820251465e-02
2.464000000000000000e+03 3.521622467041015625e+01 2.042048072814941406e+01 -6.764566302299499512e-01 8.217475891113281250e+00 2.262305736541748047e+00 4.374575912952423096e-01
2.465000000000000000e+03 6.203949737548828125e+01 8.422578811645507812e+00 -1.221835315227508545e-01 7.801954269409179688e+00 2.303931236267089844e+00 -3.242868781089782715e-01
2.466000000000000000e+03 3.507714843750000000e+01 -6.401347637176513672e+00 -1.005318835377693176e-01 7.083321571350097656e+00 2.094836950302124023e+00 1.469441354274749756e-01
2.467000000000000000e+03 4.009025955200195312e+01 -2.400717258453369141e+00 -1.727008223533630371e-01 7.340755462646484375e+00 2.150416374206542969e+00 9.520257264375686646e-02
2.468000000000000000e+03 3.726396179199218750e+01 -6.521718978881835938e+00 -1.171753033995628357e-01 7.160446643829345703e+00 2.112981319427490234e+00 1.103080883622169495e-01
2.469000000000000000e+03 3.832844543457031250e+01 7.434834480285644531e+00 -3.138732612133026123e-01 7.531378746032714844e+00 2.165251731872558594e+00 2.464233636856079102e-01
2.470000000000000000e+03 3.832208251953125000e+01 1.168573021888732910e+00 -1.979681998491287231e-01 7.343296527862548828e+00 2.143598556518554688e+00 1.710901111364364624e-01
2.471000000000000000e+03 3.477963638305664062e+01 2.197597885131835938e+01 -6.972616314888000488e-01 8.384579658508300781e+00 2.306195497512817383e+00 4.437866806983947754e-01
2.472000000000000000e+03 6.246779632568359375e+01 -1.081959724426269531e+01 -7.977283746004104614e-02 7.788839817047119141e+00 2.312720060348510742e+00 -1.487164348363876343e-01
2.473000000000000000e+03 6.449208068847656250e+01 -9.958212852478027344e+00 -6.775683164596557617e-02 7.830584526062011719e+00 2.328848361968994141e+00 -1.528959721326828003e-01
2.474000000000000000e+03 3.702961730957031250e+01 -1.270408630371093750e+01 -8.915459364652633667e-02 7.072895050048828125e+00 2.095122098922729492e+00 7.194289565086364746e-02
2.475000000000000000e+03 4.526235961914062500e+01 2.642612838745117188e+01 1.200464367866516113e-01 8.447071075439453125e+00 2.570135116577148438e+00 -4.872114360332489014e-01
2.476000000000000000e+03 4.083050155639648438e+01 2.649171066284179688e+01 -2.425491437315940857e-02 8.740511894226074219e+00 2.614877223968505859e+00 -3.877975046634674072e-01
2.477000000000000000e+03 6.176039886474609375e+01 1.433381366729736328e+01 -9.019990265369415283e-02 7.797205448150634766e+00 2.312101840972900391e+00 -3.899115920066833496e-01
2.478000000000000000e+03 3.554476928710937500e+01 -1.174306678771972656e+01 -8.048031479120254517e-02 7.032594203948974609e+00 2.085634231567382812e+00 9.498122334480285645e-02
2.479000000000000000e+03 3.635235595703125000e+01 -1.019554042816162109e+01 -9.222844988107681274e-02 7.074066638946533203e+00 2.094551324844360352e+00 9.479592740535736084e-02
2.480000000000000000e+03 6.198938369750976562e+01 2.065035247802734375e+01 4.656983539462089539e-03 7.754736423492431641e+00 2.327818155288696289e+00 -4.329183101654052734e-01
2.481000000000000000e+03 6.478733062744140625e+01 -1.406826305389404297e+01 -5.415297672152519226e-02 7.844381332397460938e+00 2.337068557739257812e+00 -1.274885982275009155e-01
2.482000000000000000e+03 3.999028015136718750e+01 3.166750717163085938e+01 7.844518423080444336e-01 8.911104202270507812e+00 2.908666849136352539e+00 -4.540579915046691895e-01
2.483000000000000000e+03 6.272030639648437500e+01 -2.621196174621582031e+01 -4.933525621891021729e-02 7.801887989044189453e+00 2.325765848159790039e+00 -7.195498794317245483e-02
2.484000000000000000e+03 3.680480575561523438e+01 -2.019987297058105469e+01 -7.248961925506591797e-02 6.982367992401123047e+00 2.072963476181030273e+00 3.633530810475349426e-02
2.485000000000000000e+03 6.455514526367187500e+01 -5.295363426208496094e+00 -8.015028387308120728e-02 7.820687770843505859e+00 2.322161197662353516e+00 -1.872943639755249023e-01
2.486000000000000000e+03 3.842353439331054688e+01 -1.549950361251831055e+00 -1.680641174316406250e-01 7.285274028778076172e+00 2.135163068771362305e+00 1.389492154121398926e-01
2.487000000000000000e+03 3.872638320922851562e+01 3.721061706542968750e+00 -2.410733103752136230e-01 7.427187442779541016e+00 2.155834197998046875e+00 1.913154274225234985e-01
2.488000000000000000e+03 3.616364669799804688e+01 -7.684304237365722656e+00 -1.032950729131698608e-01 7.105241775512695312e+00 2.100584030151367188e+00 1.143029853701591492e-01
2.489000000000000000e+03 3.780746841430664062e+01 -3.366170167922973633e+00 -1.442944556474685669e-01 7.236060142517089844e+00 2.127529859542846680e+00 1.305156797170639038e-01
2.490000000000000000e+03 3.964994049072265625e+01 -5.793917551636695862e-02 -1.968426555395126343e-01 7.369781494140625000e+00 2.151881694793701172e+00 1.276596188545227051e-01
2.491000000000000000e+03 3.779348754882812500e+01 -5.178418159484863281e+00 -1.319290995597839355e-01 7.195033073425292969e+00 2.118931293487548828e+00 1.177567988634109497e-01
2.492000000000000000e+03 3.940512084960937500e+01 -5.479858875274658203e+00 -1.412811726331710815e-01 7.258459568023681641e+00 2.135153532028198242e+00 8.887727558612823486e-02
2.493000000000000000e+03 3.979368591308593750e+01 2.499596595764160156e+01 -2.293612062931060791e-01 8.735819816589355469e+00 2.551937580108642578e+00 -2.596019506454467773e-01
2.494000000000000000e+03 3.601145172119140625e+01 2.243931770324707031e+01 -6.314481496810913086e-01 8.531437873840332031e+00 2.369996786117553711e+00 2.541894614696502686e-01
2.495000000000000000e+03 4.102072906494140625e+01 9.561814308166503906e+00 -3.755386471748352051e-01 7.747235298156738281e+00 2.211508989334106445e+00 1.381654143333435059e-01
2.496000000000000000e+03 4.390085220336914062e+01 1.184406185150146484e+01 -3.801906406879425049e-01 7.926938533782958984e+00 2.264024257659912109e+00 -1.403079088777303696e-02
2.497000000000000000e+03 3.889924621582031250e+01 2.127070236206054688e+01 -5.102200508117675781e-01 8.458868980407714844e+00 2.384594678878784180e+00 3.783574700355529785e-02
2.498000000000000000e+03 3.918471527099609375e+01 1.935705947875976562e+01 -5.401066541671752930e-01 8.310185432434082031e+00 2.331023693084716797e+00 9.228852391242980957e-02
2.499000000000000000e+03 6.185958862304687500e+01 7.097491621971130371e-01 -1.217066049575805664e-01 7.798703193664550781e+00 2.303098917007446289e+00 -2.404421716928482056e-01
2.500000000000000000e+03 6.365193557739257812e+01 -3.785706520080566406e+00 -8.995353430509567261e-02 7.807517528533935547e+00 2.315269231796264648e+00 -1.976914554834365845e-01
2.501000000000000000e+03 3.853320312500000000e+01 2.315795516967773438e+01 -4.721318185329437256e-01 8.624160766601562500e+00 2.445608854293823242e+00 -4.353366419672966003e-02
2.502000000000000000e+03 6.410041046142578125e+01 -1.588007831573486328e+01 -5.745634809136390686e-02 7.830435276031494141e+00 2.331893682479858398e+00 -1.187332943081855774e-01
2.503000000000000000e+03 3.925241088867187500e+01 6.135282993316650391e+00 -2.941667139530181885e-01 7.531541824340820312e+00 2.171212434768676758e+00 2.004942744970321655e-01
2.504000000000000000e+03 3.829426574707031250e+01 -7.538794994354248047e+00 -1.188052818179130554e-01 7.181258201599121094e+00 2.118735790252685547e+00 8.967979997396469116e-02
2.505000000000000000e+03 6.289652252197265625e+01 6.399299144744873047e+00 -1.129703521728515625e-01 7.797029018402099609e+00 2.305217504501342773e+00 -2.998571693897247314e-01
2.506000000000000000e+03 6.298117065429687500e+01 -2.197856664657592773e+00 -1.029991731047630310e-01 7.800055027008056641e+00 2.309116840362548828e+00 -2.133107781410217285e-01
2.507000000000000000e+03 6.127239227294921875e+01 -6.085010528564453125e+00 -1.017569527029991150e-01 7.773394584655761719e+00 2.301491260528564453e+00 -1.788157224655151367e-01
2.508000000000000000e+03 6.402808380126953125e+01 -1.156770515441894531e+01 -6.245302781462669373e-02 7.824721336364746094e+00 2.328680515289306641e+00 -1.429735422134399414e-01
2.509000000000000000e+03 4.024166488647460938e+01 4.837982177734375000e+00 -2.776487469673156738e-01 7.528902530670166016e+00 2.175376176834106445e+00 1.538950353860855103e-01
2.510000000000000000e+03 3.792915725708007812e+01 -1.114636898040771484e+01 -9.672667086124420166e-02 7.125418186187744141e+00 2.108607292175292969e+00 6.941269338130950928e-02
2.511000000000000000e+03 6.090247344970703125e+01 -1.894860076904296875e+01 -6.250184774398803711e-02 7.753284931182861328e+00 2.307235002517700195e+00 -1.053230687975883484e-01
2.512000000000000000e+03 5.942918014526367188e+01 1.957887458801269531e+01 -2.903695404529571533e-02 7.840618610382080078e+00 2.343474388122558594e+00 -4.442241191864013672e-01
2.513000000000000000e+03 6.541746520996093750e+01 2.223659324645996094e+01 2.678170800209045410e-02 7.624202251434326172e+00 2.295295238494873047e+00 -3.890723586082458496e-01
2.514000000000000000e+03 4.419575881958007812e+01 1.745660400390625000e+01 -3.805431425571441650e-01 8.197621345520019531e+00 2.345123529434204102e+00 -1.602442413568496704e-01
2.515000000000000000e+03 4.410630416870117188e+01 2.367728042602539062e+01 -1.266311705112457275e-01 8.444268226623535156e+00 2.495291233062744141e+00 -3.726927042007446289e-01
2.516000000000000000e+03 4.240296173095703125e+01 2.307245969772338867e+00 -2.473510950803756714e-01 7.532535076141357422e+00 2.185555219650268555e+00 7.335515320301055908e-02
2.517000000000000000e+03 3.639316558837890625e+01 -1.709112358093261719e+01 -7.443120330572128296e-02 7.004623413085937500e+00 2.079057693481445312e+00 5.463450402021408081e-02
2.518000000000000000e+03 3.867315292358398438e+01 -1.367691993713378906e+01 -9.224905818700790405e-02 7.120880603790283203e+00 2.108589649200439453e+00 4.584109410643577576e-02
2.519000000000000000e+03 4.199462127685546875e+01 8.206174850463867188e+00 -3.430134356021881104e-01 7.723065376281738281e+00 2.214015483856201172e+00 9.767846763134002686e-02
2.520000000000000000e+03 4.449766159057617188e+01 2.875728607177734375e+01 3.316597044467926025e-01 8.501723289489746094e+00 2.650015115737915039e+00 -5.239804983139038086e-01
2.521000000000000000e+03 4.436592864990234375e+01 3.544458007812500000e+01 9.973666667938232422e-01 8.524585723876953125e+00 2.856585741043090820e+00 -3.245006799697875977e-01
2.522000000000000000e+03 5.165275192260742188e+01 -2.350131225585937500e+01 -8.917547017335891724e-02 7.465076923370361328e+00 2.212770462036132812e+00 -6.806517392396926880e-02
2.523000000000000000e+03 6.256792831420898438e+01 -6.314578652381896973e-01 -1.098441183567047119e-01 7.797317504882812500e+00 2.306241989135742188e+00 -2.281113713979721069e-01
2.524000000000000000e+03 6.152294921875000000e+01 -2.378607034683227539e+00 -1.115006729960441589e-01 7.787571907043457031e+00 2.302821397781372070e+00 -2.103700786828994751e-01
2.525000000000000000e+03 3.636490249633789062e+01 2.074170494079589844e+01 -6.399767398834228516e-01 8.347564697265625000e+00 2.312276363372802734e+00 2.976235151290893555e-01
2.526000000000000000e+03 4.375340652465820312e+01 1.030640792846679688e+01 -3.758952915668487549e-01 7.863525390625000000e+00 2.246289014816284180e+00 1.595298014581203461e-02
2.527000000000000000e+03 4.144477462768554688e+01 -3.162743806838989258e+00 -1.778182834386825562e-01 7.375103473663330078e+00 2.159185409545898438e+00 6.797629594802856445e-02
2.528000000000000000e+03 3.981881713867187500e+01 2.423279762268066406e+00 -2.326143980026245117e-01 7.438771247863769531e+00 2.161847114562988281e+00 1.460644006729125977e-01
2.529000000000000000e+03 4.273033523559570312e+01 4.658337593078613281e+00 -2.848146557807922363e-01 7.613540649414062500e+00 2.198617935180664062e+00 7.102793455123901367e-02
2.530000000000000000e+03 6.063645172119140625e+01 -5.473639816045761108e-03 -1.290457844734191895e-01 7.786415100097656250e+00 2.297210693359375000e+00 -2.286525070667266846e-01
2.531000000000000000e+03 4.237955856323242188e+01 1.031324100494384766e+01 -3.827174603939056396e-01 7.827309131622314453e+00 2.233377456665039062e+00 8.134643733501434326e-02
2.532000000000000000e+03 5.996842193603515625e+01 -2.105338287353515625e+01 -6.886494904756546021e-02 7.723852157592773438e+00 2.296496152877807617e+00 -9.534311294555664062e-02
2.533000000000000000e+03 6.130968475341796875e+01 -1.124312400817871094e+00 -1.216939762234687805e-01 7.790807723999023438e+00 2.300734281539916992e+00 -2.216397821903228760e-01
2.534000000000000000e+03 3.950604629516601562e+01 -7.019709110260009766e+00 -1.346207261085510254e-01 7.231463909149169922e+00 2.129052877426147461e+00 8.023755997419357300e-02
2.535000000000000000e+03 6.100022506713867188e+01 -9.909048080444335938e+00 -8.871363103389739990e-02 7.763518333435058594e+00 2.302441358566284180e+00 -1.537072062492370605e-01
2.536000000000000000e+03 6.254966735839843750e+01 -7.024749755859375000e+00 -8.702024817466735840e-02 7.795025348663330078e+00 2.312401533126831055e+00 -1.749721914529800415e-01
2.537000000000000000e+03 6.040542602539062500e+01 -7.454293251037597656e+00 -1.019059568643569946e-01 7.758389472961425781e+00 2.296945095062255859e+00 -1.685677468776702881e-01
2.538000000000000000e+03 6.165784835815429688e+01 6.908940792083740234e+00 -1.281351596117019653e-01 7.804395198822021484e+00 2.302877902984619141e+00 -3.067422807216644287e-01
2.539000000000000000e+03 6.136613082885742188e+01 2.376963806152343750e+01 7.261692732572555542e-02 7.746939659118652344e+00 2.345866918563842773e+00 -4.392521679401397705e-01
2.540000000000000000e+03 6.172187805175781250e+01 2.922178030014038086e+00 -1.253108680248260498e-01 7.800307750701904297e+00 2.302499055862426758e+00 -2.632579505443572998e-01
2.541000000000000000e+03 4.307515335083007812e+01 6.994281291961669922e+00 -3.210514187812805176e-01 7.701365947723388672e+00 2.214094400405883789e+00 5.876558646559715271e-02
2.542000000000000000e+03 4.250241470336914062e+01 1.969628715515136719e+01 -3.930268287658691406e-01 8.333484649658203125e+00 2.382137298583984375e+00 -1.541664600372314453e-01
2.543000000000000000e+03 6.180392456054687500e+01 5.487364768981933594e+00 -1.287904977798461914e-01 7.803089618682861328e+00 2.302289724349975586e+00 -2.887965440750122070e-01
2.544000000000000000e+03 6.002674484252929688e+01 -1.597932243347167969e+01 -7.478769123554229736e-02 7.732205390930175781e+00 2.297225236892700195e+00 -1.186799928545951843e-01
2.545000000000000000e+03 6.173199081420898438e+01 -1.696648788452148438e+01 -6.857655942440032959e-02 7.773414134979248047e+00 2.311451196670532227e+00 -1.131579652428627014e-01
2.546000000000000000e+03 6.441778564453125000e+01 2.388743972778320312e+01 5.585108324885368347e-02 7.629060745239257812e+00 2.305473566055297852e+00 -3.950265347957611084e-01
2.547000000000000000e+03 3.817041397094726562e+01 -1.832177734375000000e+01 -8.577684313058853149e-02 7.051118373870849609e+00 2.089602470397949219e+00 3.134650737047195435e-02
2.548000000000000000e+03 5.875268173217773438e+01 1.754478263854980469e+01 -7.707539945840835571e-02 7.865154266357421875e+00 2.336423635482788086e+00 -4.292346835136413574e-01
2.549000000000000000e+03 4.101972198486328125e+01 -1.132338047027587891e+00 -1.951825469732284546e-01 7.395984172821044922e+00 2.160240411758422852e+00 9.077312797307968140e-02
2.550000000000000000e+03 4.151100158691406250e+01 2.244757652282714844e+01 -3.267065882682800293e-01 8.511850357055664062e+00 2.455543279647827148e+00 -2.252297103404998779e-01
2.551000000000000000e+03 4.729364776611328125e+01 2.697109222412109375e+01 1.756621152162551880e-01 8.322616577148437500e+00 2.549483537673950195e+00 -5.080861449241638184e-01
2.552000000000000000e+03 6.035123062133789062e+01 -1.782692432403564453e+00 -1.261059194803237915e-01 7.775176048278808594e+00 2.294721126556396484e+00 -2.105260342359542847e-01
2.553000000000000000e+03 5.951157379150390625e+01 -2.810092449188232422e+00 -1.302381902933120728e-01 7.764048576354980469e+00 2.290143251419067383e+00 -1.997973173856735229e-01
2.554000000000000000e+03 3.930730819702148438e+01 1.557098293304443359e+01 -5.077334642410278320e-01 8.022763252258300781e+00 2.254508972167968750e+00 1.830750554800033569e-01
2.555000000000000000e+03 4.085696029663085938e+01 1.561698532104492188e+01 -4.722698628902435303e-01 8.076018333435058594e+00 2.281124591827392578e+00 8.263771981000900269e-02
2.556000000000000000e+03 4.107184982299804688e+01 -4.272173404693603516e+00 -1.605437248945236206e-01 7.339169025421142578e+00 2.153587579727172852e+00 6.417502462863922119e-02
2.557000000000000000e+03 4.220046234130859375e+01 -1.057261228561401367e-02 -2.158165574073791504e-01 7.465017318725585938e+00 2.174760341644287109e+00 6.830898672342300415e-02
2.558000000000000000e+03 4.270979690551757812e+01 2.161969184875488281e+01 -3.162394762039184570e-01 8.432506561279296875e+00 2.434880256652832031e+00 -2.409977763891220093e-01
2.559000000000000000e+03 4.084764480590820312e+01 1.755118370056152344e+01 -4.855037927627563477e-01 8.198099136352539062e+00 2.313778638839721680e+00 2.848338522017002106e-02
2.560000000000000000e+03 4.381611251831054688e+01 3.361065387725830078e+00 -2.658731937408447266e-01 7.608641624450683594e+00 2.202830553054809570e+00 4.007831588387489319e-02
2.561000000000000000e+03 4.413681030273437500e+01 5.747548580169677734e+00 -3.013822734355926514e-01 7.691641330718994141e+00 2.217077732086181641e+00 3.068065829575061798e-02
2.562000000000000000e+03 5.413760757446289062e+01 1.484545040130615234e+01 -1.845227479934692383e-01 7.951879978179931641e+00 2.330207109451293945e+00 -3.607579171657562256e-01
2.563000000000000000e+03 5.814608764648437500e+01 1.553518867492675781e+01 -1.169358640909194946e-01 7.876711845397949219e+00 2.327932834625244141e+00 -4.033313691616058350e-01
2.564000000000000000e+03 4.314686584472656250e+01 9.157206535339355469e+00 -3.588173985481262207e-01 7.791244029998779297e+00 2.229727983474731445e+00 5.116475373506546021e-02
2.565000000000000000e+03 4.108521652221679688e+01 -5.676414012908935547e+00 -1.541789919137954712e-01 7.313601970672607422e+00 2.147826910018920898e+00 6.109748780727386475e-02
2.566000000000000000e+03 4.168870544433593750e+01 5.915999412536621094e+00 -3.033856749534606934e-01 7.623479843139648438e+00 2.196028232574462891e+00 1.107139140367507935e-01
2.567000000000000000e+03 4.129375457763671875e+01 3.568417787551879883e+00 -2.608356773853302002e-01 7.530429840087890625e+00 2.180878162384033203e+00 1.146032065153121948e-01
2.568000000000000000e+03 6.229597854614257812e+01 -4.787831306457519531e+00 -9.798293560743331909e-02 7.793209552764892578e+00 2.308568000793457031e+00 -1.928078830242156982e-01
2.569000000000000000e+03 5.766456222534179688e+01 -1.202452945709228516e+01 -1.020754054188728333e-01 7.685983657836914062e+00 2.275172472000122070e+00 -1.301668584346771240e-01
2.570000000000000000e+03 6.251004028320312500e+01 -1.508484840393066406e+01 -6.382733583450317383e-02 7.791688919067382812e+00 2.318358421325683594e+00 -1.240315809845924377e-01
2.571000000000000000e+03 6.121110916137695312e+01 1.244875335693359375e+01 -1.114016920328140259e-01 7.812073707580566406e+00 2.310201644897460938e+00 -3.712933659553527832e-01
2.572000000000000000e+03 5.831851577758789062e+01 -1.486066913604736328e+01 -8.916359394788742065e-02 7.690754890441894531e+00 2.280477285385131836e+00 -1.189096197485923767e-01
2.573000000000000000e+03 4.081941986083984375e+01 1.381264400482177734e+01 -4.560428559780120850e-01 7.960758209228515625e+00 2.251414537429809570e+00 1.135578677058219910e-01
2.574000000000000000e+03 4.253741836547851562e+01 -9.283003807067871094e+00 -1.311185508966445923e-01 7.310761928558349609e+00 2.153892993927001953e+00 1.964868418872356415e-02
2.575000000000000000e+03 4.106803131103515625e+01 -7.226489543914794922e+00 -1.396674513816833496e-01 7.292670726776123047e+00 2.145900964736938477e+00 5.220740288496017456e-02
2.576000000000000000e+03 5.937001419067382812e+01 2.501649856567382812e+01 1.064588725566864014e-01 7.804041862487792969e+00 2.373150348663330078e+00 -4.543041288852691650e-01
2.577000000000000000e+03 5.854978561401367188e+01 -3.988644361495971680e+00 -1.299450993537902832e-01 7.744505405426025391e+00 2.284368038177490234e+00 -1.840556710958480835e-01
2.578000000000000000e+03 3.758598327636718750e+01 2.100748825073242188e+01 -5.869436264038085938e-01 8.416910171508789062e+00 2.348989963531494141e+00 1.601189821958541870e-01
2.579000000000000000e+03 5.760663986206054688e+01 2.034548187255859375e+01 -2.651795558631420135e-02 7.895684242248535156e+00 2.360749959945678711e+00 -4.566509127616882324e-01
2.580000000000000000e+03 4.264096450805664062e+01 2.324327087402343750e+01 -2.086495310068130493e-01 8.502891540527343750e+00 2.488272666931152344e+00 -3.267540931701660156e-01
2.581000000000000000e+03 6.027861404418945312e+01 8.796358108520507812e+00 -1.390477865934371948e-01 7.818712234497070312e+00 2.303899288177490234e+00 -3.266414701938629150e-01
2.582000000000000000e+03 3.939759445190429688e+01 -1.645595169067382812e+01 -8.754106611013412476e-02 7.117164611816406250e+00 2.108886957168579102e+00 2.533580549061298370e-02
2.583000000000000000e+03 3.537759017944335938e+01 -2.206365013122558594e+01 -7.200140506029129028e-02 6.911437034606933594e+00 2.051830530166625977e+00 4.745427891612052917e-02
2.584000000000000000e+03 4.676482009887695312e+01 2.959331130981445312e+01 4.219902753829956055e-01 8.347660064697265625e+00 2.630895137786865234e+00 -5.075275301933288574e-01
2.585000000000000000e+03 4.629129028320312500e+01 2.180889129638671875e+01 -1.663696467876434326e-01 8.289793968200683594e+00 2.437027215957641602e+00 -3.684262335300445557e-01
2.586000000000000000e+03 4.248854064941406250e+01 1.756890296936035156e+01 -4.294264912605285645e-01 8.213076591491699219e+00 2.335095167160034180e+00 -6.904121488332748413e-02
2.587000000000000000e+03 3.937431716918945312e+01 -8.351656913757324219e+00 -1.187099516391754150e-01 7.211868762969970703e+00 2.127947568893432617e+00 6.755668669939041138e-02
2.588000000000000000e+03 3.872919845581054688e+01 -9.682157516479492188e+00 -1.124769672751426697e-01 7.169746398925781250e+00 2.117180824279785156e+00 6.860162317752838135e-02
2.589000000000000000e+03 4.071906280517578125e+01 1.211369895935058594e+01 -4.241358935832977295e-01 7.867877006530761719e+00 2.233122348785400391e+00 1.391065120697021484e-01
2.590000000000000000e+03 4.407266235351562500e+01 1.545503711700439453e+01 -3.953709006309509277e-01 8.098919868469238281e+00 2.311064720153808594e+00 -9.014987945556640625e-02
2.591000000000000000e+03 5.757433700561523438e+01 -5.273298263549804688e+00 -1.297390460968017578e-01 7.723597526550292969e+00 2.278157472610473633e+00 -1.698537319898605347e-01
2.592000000000000000e+03 6.093112182617187500e+01 -3.744410991668701172e+00 -1.128551214933395386e-01 7.776680469512939453e+00 2.299147605895996094e+00 -1.962672024965286255e-01
2.593000000000000000e+03 4.441976547241210938e+01 8.187285423278808594e+00 -3.365368545055389404e-01 7.787389278411865234e+00 2.235255718231201172e+00 7.734203245490789413e-03
2.594000000000000000e+03 4.237051773071289062e+01 1.371923160552978516e+01 -4.263370633125305176e-01 7.996512413024902344e+00 2.271052598953247070e+00 3.423939272761344910e-02
2.595000000000000000e+03 4.436299896240234375e+01 1.956427192687988281e+01 -3.155792355537414551e-01 8.289566040039062500e+00 2.392195940017700195e+00 -2.392976582050323486e-01
2.596000000000000000e+03 6.170505142211914062e+01 -1.244730758666992188e+01 -7.438423484563827515e-02 7.774223327636718750e+00 2.309951782226562500e+00 -1.390073001384735107e-01
2.597000000000000000e+03 6.089077377319335938e+01 -1.417440128326416016e+01 -7.861118763685226440e-02 7.754195213317871094e+00 2.302675247192382812e+00 -1.271202266216278076e-01
2.598000000000000000e+03 4.279341888427734375e+01 -5.743369579315185547e+00 -1.589573621749877930e-01 7.377187252044677734e+00 2.165468931198120117e+00 2.917646057903766632e-02
2.599000000000000000e+03 4.338349533081054688e+01 -3.406085729598999023e+00 -1.816771179437637329e-01 7.429815769195556641e+00 2.174441576004028320e+00 2.690594829618930817e-02
2.600000000000000000e+03 5.446260833740234375e+01 5.951038360595703125e+00 -2.136384844779968262e-01 7.818941116333007812e+00 2.281590700149536133e+00 -2.364410161972045898e-01
2.601000000000000000e+03 5.881097412109375000e+01 1.104334449768066406e+01 -1.504264771938323975e-01 7.846232414245605469e+00 2.308741807937622070e+00 -3.489135801792144775e-01
2.602000000000000000e+03 4.244075775146484375e+01 1.557961177825927734e+01 -4.410170316696166992e-01 8.095393180847167969e+00 2.296313047409057617e+00 -1.247203256934881210e-02
2.603000000000000000e+03 5.521010971069335938e+01 1.227365493774414062e+01 -1.918447762727737427e-01 7.903114795684814453e+00 2.313380956649780273e+00 -3.346031308174133301e-01
2.604000000000000000e+03 6.068964767456054688e+01 1.059319686889648438e+01 -1.306301057338714600e-01 7.818142414093017578e+00 2.306253671646118164e+00 -3.482213020324707031e-01
2.605000000000000000e+03 6.090273284912109375e+01 1.790380477905273438e+00 -1.293120682239532471e-01 7.793625831604003906e+00 2.299294233322143555e+00 -2.484583705663681030e-01
2.606000000000000000e+03 5.829843902587890625e+01 -1.641002058982849121e+00 -1.441973298788070679e-01 7.756911277770996094e+00 2.283814191818237305e+00 -2.005163729190826416e-01
2.607000000000000000e+03 6.053700256347656250e+01 1.686497497558593750e+01 -7.039587944746017456e-02 7.818479061126708984e+00 2.324424982070922852e+00 -4.185100793838500977e-01
2.608000000000000000e+03 4.010879135131835938e+01 -1.953905487060546875e+01 -8.539637178182601929e-02 7.112078666687011719e+00 2.108004570007324219e+00 6.786312907934188843e-03
2.609000000000000000e+03 4.277930831909179688e+01 -7.505762100219726562e+00 -1.488832086324691772e-01 7.343354225158691406e+00 2.158341407775878906e+00 2.319293096661567688e-02
2.610000000000000000e+03 4.439871215820312500e+01 2.163929176330566406e+01 -2.544940114021301270e-01 8.360871315002441406e+00 2.431913137435913086e+00 -3.134955763816833496e-01
2.611000000000000000e+03 4.950495529174804688e+01 2.060088729858398438e+01 -1.338374614715576172e-01 8.159094810485839844e+00 2.407577276229858398e+00 -4.034291505813598633e-01
2.612000000000000000e+03 4.759585571289062500e+01 2.459572982788085938e+01 2.507561258971691132e-02 8.302547454833984375e+00 2.498286962509155273e+00 -4.697341918945312500e-01
2.613000000000000000e+03 5.836346054077148438e+01 2.260181999206542969e+01 4.165695980191230774e-02 7.859112739562988281e+00 2.370230913162231445e+00 -4.630244374275207520e-01
2.614000000000000000e+03 5.523559188842773438e+01 1.882502174377441406e+01 -9.154472500085830688e-02 7.966888427734375000e+00 2.362602949142456055e+00 -4.385610520839691162e-01
2.615000000000000000e+03 6.025278472900390625e+01 2.165650177001953125e+01 2.021034806966781616e-02 7.802435398101806641e+00 2.346793651580810547e+00 -4.496268928050994873e-01
2.616000000000000000e+03 4.046242141723632812e+01 -1.462165164947509766e+01 -1.015746444463729858e-01 7.171842098236083984e+00 2.121080398559570312e+00 2.284510247409343719e-02
2.617000000000000000e+03 4.463316345214843750e+01 -5.809930324554443359e+00 -1.676436662673950195e-01 7.430337429046630859e+00 2.178808212280273438e+00 -2.112560905516147614e-03
2.618000000000000000e+03 4.432900238037109375e+01 -2.595937967300415039e+00 -1.960899680852890015e-01 7.481833934783935547e+00 2.185723304748535156e+00 1.054114103317260742e-02
2.619000000000000000e+03 4.353034210205078125e+01 1.002801656723022461e+00 -2.323554158210754395e-01 7.532262325286865234e+00 2.189972162246704102e+00 4.291328042745590210e-02
2.620000000000000000e+03 4.587366867065429688e+01 1.723863792419433594e+01 -3.220997154712677002e-01 8.160382270812988281e+00 2.351484537124633789e+00 -2.231078892946243286e-01
2.621000000000000000e+03 4.225003814697265625e+01 1.191984462738037109e+01 -4.125469923019409180e-01 7.896072387695312500e+00 2.245057582855224609e+00 6.890828907489776611e-02
2.622000000000000000e+03 4.556476593017578125e+01 1.157648086547851562e+01 -3.605297803878784180e-01 7.942248344421386719e+00 2.274515628814697266e+00 -8.056896924972534180e-02
2.623000000000000000e+03 4.527976989746093750e+01 9.748508453369140625e+00 -3.448727726936340332e-01 7.862669467926025391e+00 2.255339145660400391e+00 -4.335560277104377747e-02
2.624000000000000000e+03 5.900008010864257812e+01 -6.410866260528564453e+00 -1.166251227259635925e-01 7.738201618194580078e+00 2.286473035812377930e+00 -1.689777821302413940e-01
2.625000000000000000e+03 5.609897994995117188e+01 -1.081263446807861328e+01 -1.122176796197891235e-01 7.658745765686035156e+00 2.263958454132080078e+00 -1.286679059267044067e-01
2.626000000000000000e+03 5.721588134765625000e+01 -2.259059250354766846e-01 -1.595156788825988770e-01 7.758820056915283203e+00 2.279791355133056641e+00 -2.062221616506576538e-01
2.627000000000000000e+03 5.610791015625000000e+01 -4.011245250701904297e+00 -1.474903225898742676e-01 7.709682464599609375e+00 2.268657684326171875e+00 -1.661172360181808472e-01
2.628000000000000000e+03 5.698674774169921875e+01 1.821497154235839844e+01 -8.303787559270858765e-02 7.913335323333740234e+00 2.349089384078979492e+00 -4.327901899814605713e-01
2.629000000000000000e+03 5.963562011718750000e+01 2.285076856613159180e+00 -1.425037980079650879e-01 7.793142318725585938e+00 2.295191526412963867e+00 -2.504512667655944824e-01
2.630000000000000000e+03 5.834570312500000000e+01 7.177447795867919922e+00 -1.662347912788391113e-01 7.825552463531494141e+00 2.297795295715332031e+00 -2.960438132286071777e-01
2.631000000000000000e+03 4.335428237915039062e+01 -1.270304441452026367e+00 -2.036971896886825562e-01 7.474475383758544922e+00 2.181233406066894531e+00 3.631209582090377808e-02
2.632000000000000000e+03 5.859630966186523438e+01 5.710723996162414551e-01 -1.492385268211364746e-01 7.774604320526123047e+00 2.287609815597534180e+00 -2.218459099531173706e-01
2.633000000000000000e+03 6.015157699584960938e+01 -1.149401092529296875e+01 -9.108673781156539917e-02 7.741695880889892578e+00 2.295182704925537109e+00 -1.415782421827316284e-01
2.634000000000000000e+03 5.582658004760742188e+01 1.418299961090087891e+01 -1.671569049358367920e-01 7.915168285369873047e+00 2.324403524398803711e+00 -3.686959743499755859e-01
2.635000000000000000e+03 5.705064392089843750e+01 2.599353790283203125e+01 1.494107097387313843e-01 7.882272243499755859e+00 2.409504890441894531e+00 -4.684435129165649414e-01
2.636000000000000000e+03 5.926636123657226562e+01 -1.314957046508789062e+01 -8.655217289924621582e-02 7.719399929046630859e+00 2.289854288101196289e+00 -1.312910169363021851e-01
2.637000000000000000e+03 6.466507720947265625e+01 2.988274383544921875e+01 1.512715369462966919e-01 7.542809486389160156e+00 2.308224201202392578e+00 -3.295595645904541016e-01
2.638000000000000000e+03 6.186093902587890625e+01 3.042097282409667969e+01 2.199044674634933472e-01 7.637362480163574219e+00 2.357180118560791016e+00 -3.598899841308593750e-01
2.639000000000000000e+03 4.327200698852539062e+01 -1.361464309692382812e+01 -1.149964779615402222e-01 7.279160499572753906e+00 2.149249076843261719e+00 -3.791035385802388191e-03
2.640000000000000000e+03 4.399440383911132812e+01 1.359081077575683594e+01 -4.005035459995269775e-01 8.007636070251464844e+00 2.282139539718627930e+00 -4.610489681363105774e-02
2.641000000000000000e+03 4.517927932739257812e+01 4.417613983154296875e+00 -2.811403274536132812e-01 7.678078174591064453e+00 2.219081401824951172e+00 -5.120908841490745544e-03
2.642000000000000000e+03 4.571973037719726562e+01 1.526961994171142578e+01 -3.627619147300720215e-01 8.085485458374023438e+00 2.316817283630371094e+00 -1.580363959074020386e-01
2.643000000000000000e+03 4.628162384033203125e+01 1.945383453369140625e+01 -2.703447937965393066e-01 8.233439445495605469e+00 2.388928413391113281e+00 -3.034103512763977051e-01
2.644000000000000000e+03 4.568506622314453125e+01 1.340945720672607422e+01 -3.616428673267364502e-01 8.015139579772949219e+00 2.296048879623413086e+00 -1.165037378668785095e-01
2.645000000000000000e+03 4.558413314819335938e+01 6.877247333526611328e+00 -3.135137856006622314e-01 7.766525745391845703e+00 2.235903501510620117e+00 -2.897791378200054169e-02
2.646000000000000000e+03 4.709846115112304688e+01 9.382887840270996094e+00 -3.258628547191619873e-01 7.869716167449951172e+00 2.263155937194824219e+00 -9.932910650968551636e-02
2.647000000000000000e+03 5.995335388183593750e+01 3.695761680603027344e+00 -1.445950865745544434e-01 7.797856807708740234e+00 2.295978546142578125e+00 -2.641576528549194336e-01
2.648000000000000000e+03 5.587769317626953125e+01 -1.309544324874877930e+00 -1.657985001802444458e-01 7.734892368316650391e+00 2.270728111267089844e+00 -1.829590946435928345e-01
2.649000000000000000e+03 4.467064285278320312e+01 -4.046640872955322266e+00 -1.788845956325531006e-01 7.461338520050048828e+00 2.184736251831054688e+00 3.227287670597434044e-03
2.650000000000000000e+03 5.610319519042968750e+01 4.748336315155029297e+00 -1.908455491065979004e-01 7.804721355438232422e+00 2.284162759780883789e+00 -2.449248433113098145e-01
2.651000000000000000e+03 5.662373733520507812e+01 -6.656394481658935547e+00 -1.306044757366180420e-01 7.696973800659179688e+00 2.269910812377929688e+00 -1.536920517683029175e-01
2.652000000000000000e+03 4.460147857666015625e+01 -4.206691086292266846e-01 -2.219502329826354980e-01 7.535666465759277344e+00 2.194114923477172852e+00 1.210545096546411514e-02
2.653000000000000000e+03 5.837852096557617188e+01 5.610624313354492188e+00 -1.672185212373733521e-01 7.810056209564208984e+00 2.292851448059082031e+00 -2.746587097644805908e-01
2.654000000000000000e+03 5.544227981567382812e+01 7.629749298095703125e+00 -2.031430900096893311e-01 7.839165687561035156e+00 2.290806770324707031e+00 -2.711067497730255127e-01
2.655000000000000000e+03 5.502359008789062500e+01 -1.230790901184082031e+01 -1.125687882304191589e-01 7.622798442840576172e+00 2.253068923950195312e+00 -1.142194643616676331e-01
2.656000000000000000e+03 5.453901290893554688e+01 -2.605238914489746094e+00 -1.678714305162429810e-01 7.700634002685546875e+00 2.259828805923461914e+00 -1.587962657213211060e-01
2.657000000000000000e+03 3.933293533325195312e+01 -2.516368484497070312e+01 -8.690409362316131592e-02 7.033592700958251953e+00 2.084006547927856445e+00 -5.769631825387477875e-03
2.658000000000000000e+03 4.030583572387695312e+01 -1.040697193145751953e+01 -1.128216609358787537e-01 7.218044281005859375e+00 2.131566762924194336e+00 4.301174357533454895e-02
2.659000000000000000e+03 5.697428512573242188e+01 1.158695793151855469e+01 -1.719325035810470581e-01 7.873237609863281250e+00 2.310391664505004883e+00 -3.430378437042236328e-01
2.660000000000000000e+03 5.450684356689453125e+01 1.043447494506835938e+01 -2.127980440855026245e-01 7.886226177215576172e+00 2.302028417587280273e+00 -2.973303496837615967e-01
2.661000000000000000e+03 5.756416702270507812e+01 1.355925178527832031e+01 -1.478813439607620239e-01 7.879662513732910156e+00 2.319534301757812500e+00 -3.755530118942260742e-01
2.662000000000000000e+03 5.633890151977539062e+01 9.551128387451171875e+00 -1.888778805732727051e-01 7.860078811645507812e+00 2.301360368728637695e+00 -3.086221218109130859e-01
2.663000000000000000e+03 5.910478591918945312e+01 -1.784731483459472656e+01 -7.804027199745178223e-02 7.704200267791748047e+00 2.287847995758056641e+00 -1.076012253761291504e-01
2.664000000000000000e+03 3.957542037963867188e+01 -1.201259040832519531e+01 -1.063218116760253906e-01 7.170804023742675781e+00 2.119344711303710938e+00 4.462381824851036072e-02
2.665000000000000000e+03 4.337332534790039062e+01 -1.861499595642089844e+01 -9.545261412858963013e-02 7.235770225524902344e+00 2.142095327377319336e+00 -1.883677765727043152e-02
2.666000000000000000e+03 4.440581130981445312e+01 -1.649915313720703125e+01 -1.088704243302345276e-01 7.284888267517089844e+00 2.152805328369140625e+00 -2.182468771934509277e-02
2.667000000000000000e+03 4.629641342163085938e+01 -3.892786026000976562e+00 -1.873465776443481445e-01 7.510345935821533203e+00 2.196899890899658203e+00 -2.937899343669414520e-02
2.668000000000000000e+03 4.563783645629882812e+01 -2.030096054077148438e+00 -2.017373591661453247e-01 7.528635501861572266e+00 2.198069572448730469e+00 -1.135191600769758224e-02
2.669000000000000000e+03 3.730738449096679688e+01 -2.358535957336425781e+01 -7.038483023643493652e-02 6.967028141021728516e+00 2.068992853164672852e+00 1.857844367623329163e-02
2.670000000000000000e+03 5.402679061889648438e+01 2.392567443847656250e+01 6.336294114589691162e-02 8.009239196777343750e+00 2.421780824661254883e+00 -4.802472293376922607e-01
2.671000000000000000e+03 5.371237564086914062e+01 2.144405174255371094e+01 -2.769425138831138611e-02 8.023904800415039062e+00 2.398863077163696289e+00 -4.686432778835296631e-01
2.672000000000000000e+03 4.736929321289062500e+01 1.514756107330322266e+01 -3.132137656211853027e-01 8.070013046264648438e+00 2.327039718627929688e+00 -2.200106233358383179e-01
2.673000000000000000e+03 5.622034072875976562e+01 1.493078708648681641e+00 -1.763110905885696411e-01 7.768996238708496094e+00 2.277805566787719727e+00 -2.122844457626342773e-01
2.674000000000000000e+03 5.468790817260742188e+01 3.238125443458557129e-01 -1.859587877988815308e-01 7.740781784057617188e+00 2.266446828842163086e+00 -1.825270056724548340e-01
2.675000000000000000e+03 4.595271682739257812e+01 3.956794142723083496e-01 -2.263167947530746460e-01 7.585750579833984375e+00 2.207830190658569336e+00 -1.751154847443103790e-02
2.676000000000000000e+03 4.497075653076171875e+01 1.971249938011169434e+00 -2.486827671527862549e-01 7.603786945343017578e+00 2.206531286239624023e+00 2.186467638239264488e-03
2.677000000000000000e+03 4.083179855346679688e+01 -8.817399024963378906e+00 -1.299415677785873413e-01 7.253005981445312500e+00 2.136919498443603516e+00 4.755028709769248962e-02
2.678000000000000000e+03 5.514946365356445312e+01 -5.427820682525634766e+00 -1.448371708393096924e-01 7.684764862060546875e+00 2.261978387832641602e+00 -1.495333611965179443e-01
2.679000000000000000e+03 5.807475662231445312e+01 -7.824255943298339844e+00 -1.154878959059715271e-01 7.717087268829345703e+00 2.280479907989501953e+00 -1.567254215478897095e-01
2.680000000000000000e+03 5.342558670043945312e+01 -1.090100574493408203e+01 -1.212967410683631897e-01 7.594426631927490234e+00 2.241939067840576172e+00 -1.093468666076660156e-01
2.681000000000000000e+03 5.730804824829101562e+01 -1.660683441162109375e+01 -8.524776995182037354e-02 7.659960746765136719e+00 2.272413969039916992e+00 -1.093361526727676392e-01
2.682000000000000000e+03 4.729946899414062500e+01 1.130375671386718750e+01 -3.263683617115020752e-01 7.939094543457031250e+00 2.283817768096923828e+00 -1.384959220886230469e-01
2.683000000000000000e+03 4.749596023559570312e+01 1.327168560028076172e+01 -3.303808569908142090e-01 8.009775161743164062e+00 2.303818225860595703e+00 -1.820074915885925293e-01
2.684000000000000000e+03 5.862144470214843750e+01 -1.043958091735839844e+01 -1.009565889835357666e-01 7.715106010437011719e+00 2.284244775772094727e+00 -1.436151713132858276e-01
2.685000000000000000e+03 4.464091110229492188e+01 -7.779967308044433594e+00 -1.470783650875091553e-01 7.399906158447265625e+00 2.175848245620727539e+00 -6.927473004907369614e-03
2.686000000000000000e+03 5.553944396972656250e+01 -1.525612831115722656e+01 -9.925073385238647461e-02 7.618952751159667969e+00 2.255910634994506836e+00 -1.060751155018806458e-01
2.687000000000000000e+03 5.696936416625976562e+01 6.424955368041992188e+00 -1.832449138164520264e-01 7.824854373931884766e+00 2.292482852935791016e+00 -2.764338850975036621e-01
2.688000000000000000e+03 5.354739379882812500e+01 2.008741855621337891e+00 -2.042615115642547607e-01 7.748886585235595703e+00 2.263387441635131836e+00 -1.770727038383483887e-01
2.689000000000000000e+03 5.073352813720703125e+01 9.129172325134277344e+00 -2.741211056709289551e-01 7.881599426269531250e+00 2.282243490219116211e+00 -2.034056186676025391e-01
2.690000000000000000e+03 3.345770645141601562e+01 -2.059264945983886719e+01 -6.075626984238624573e-02 6.857923030853271484e+00 2.039149999618530273e+00 7.122258841991424561e-02
2.691000000000000000e+03 4.399158859252929688e+01 -1.168677711486816406e+01 -1.207264959812164307e-01 7.326272010803222656e+00 2.161663770675659180e+00 -8.192766457796096802e-03
2.692000000000000000e+03 4.528447341918945312e+01 -1.442688751220703125e+01 -1.096557006239891052e-01 7.337477684020996094e+00 2.168346643447875977e+00 -3.039950877428054810e-02
2.693000000000000000e+03 5.563813400268554688e+01 -8.100944519042968750e+00 -1.287436932325363159e-01 7.669497966766357422e+00 2.262226343154907227e+00 -1.387764513492584229e-01
2.694000000000000000e+03 5.499245452880859375e+01 3.180881023406982422e+00 -1.984977275133132935e-01 7.783773899078369141e+00 2.275582790374755859e+00 -2.154079228639602661e-01
2.695000000000000000e+03 5.350682067871093750e+01 1.304174041748046875e+01 -2.139549404382705688e-01 7.935154914855957031e+00 2.316359996795654297e+00 -3.211119174957275391e-01
2.696000000000000000e+03 5.357250213623046875e+01 8.676815986633300781e+00 -2.298239916563034058e-01 7.866637706756591797e+00 2.291043996810913086e+00 -2.577623128890991211e-01
2.697000000000000000e+03 4.445243835449218750e+01 -9.747080802917480469e+00 -1.395064145326614380e-01 7.362815380096435547e+00 2.166992664337158203e+00 -8.070923388004302979e-03
2.698000000000000000e+03 4.650807952880859375e+01 -5.919611930847167969e+00 -1.635199338197708130e-01 7.484400272369384766e+00 2.196264028549194336e+00 -3.303280845284461975e-02
2.699000000000000000e+03 5.293196105957031250e+01 -5.848728656768798828e+00 -1.539278179407119751e-01 7.635268688201904297e+00 2.244402408599853516e+00 -1.220965534448623657e-01
2.700000000000000000e+03 4.632331085205078125e+01 3.079466104507446289e+00 -2.581602334976196289e-01 7.664502143859863281e+00 2.221902608871459961e+00 -3.181632608175277710e-02
2.701000000000000000e+03 5.104545211791992188e+01 2.819671630859375000e+00 -2.304288446903228760e-01 7.738850116729736328e+00 2.252526283264160156e+00 -1.399634778499603271e-01
2.702000000000000000e+03 4.978882217407226562e+01 4.198264598846435547e+00 -2.510376572608947754e-01 7.752342700958251953e+00 2.250391483306884766e+00 -1.271914839744567871e-01
2.703000000000000000e+03 5.118574142456054688e+01 1.218735980987548828e+01 -2.602138519287109375e-01 7.948068141937255859e+00 2.306356191635131836e+00 -2.648749947547912598e-01
2.704000000000000000e+03 5.423011779785156250e+01 -6.894417762756347656e+00 -1.430664062500000000e-01 7.650008201599121094e+00 2.252082586288452148e+00 -1.305570006370544434e-01
2.705000000000000000e+03 5.317522430419921875e+01 -8.540452122688293457e-01 -1.869432479143142700e-01 7.702034950256347656e+00 2.254527568817138672e+00 -1.515516787767410278e-01
2.706000000000000000e+03 5.086222457885742188e+01 7.453806877136230469e+00 -2.614054679870605469e-01 7.844454765319824219e+00 2.274914741516113281e+00 -1.885116100311279297e-01
2.707000000000000000e+03 4.648177719116210938e+01 5.413049221038818359e+00 -2.848189473152160645e-01 7.735959529876708984e+00 2.235342025756835938e+00 -4.805082827806472778e-02
2.708000000000000000e+03 5.794202041625976562e+01 3.986519813537597656e+00 -1.667939126491546631e-01 7.799632072448730469e+00 2.289851427078247070e+00 -2.556546032428741455e-01
2.709000000000000000e+03 4.740373611450195312e+01 1.685425186157226562e+01 -3.026415705680847168e-01 8.134127616882324219e+00 2.349445819854736328e+00 -2.586638927459716797e-01
2.710000000000000000e+03 5.664387512207031250e+01 -1.363319587707519531e+01 -9.764828532934188843e-02 7.655699253082275391e+00 2.267415285110473633e+00 -1.190740764141082764e-01
2.711000000000000000e+03 5.387429428100585938e+01 -1.377854633331298828e+01 -1.073094606399536133e-01 7.585433006286621094e+00 2.243437051773071289e+00 -1.032693311572074890e-01
2.712000000000000000e+03 5.211547851562500000e+01 1.053980588912963867e+00 -2.100358605384826660e-01 7.717106819152832031e+00 2.252121448516845703e+00 -1.486824303865432739e-01
2.713000000000000000e+03 4.808982467651367188e+01 -2.043510913848876953e+00 -2.054914981126785278e-01 7.585557460784912109e+00 2.214019775390625000e+00 -5.803256109356880188e-02
2.714000000000000000e+03 4.727510070800781250e+01 -1.529831790924072266e+01 -1.166278496384620667e-01 7.388814449310302734e+00 2.181655883789062500e+00 -4.374139755964279175e-02
2.715000000000000000e+03 4.612569427490234375e+01 -1.235327720642089844e+01 -1.284770369529724121e-01 7.388370990753173828e+00 2.177968263626098633e+00 -3.309690952301025391e-02
2.716000000000000000e+03 4.554977416992187500e+01 -1.969578742980957031e+01 -1.035049855709075928e-01 7.299099445343017578e+00 2.158678293228149414e+00 -3.613323718309402466e-02
2.717000000000000000e+03 5.272744750976562500e+01 6.932556629180908203e+00 -2.412838339805603027e-01 7.835094451904296875e+00 2.278143167495727539e+00 -2.164921611547470093e-01
2.718000000000000000e+03 4.082780075073242188e+01 -2.294122695922851562e+01 -8.472533524036407471e-02 7.110241889953613281e+00 2.107654809951782227e+00 -9.615901857614517212e-03
2.719000000000000000e+03 4.662070465087890625e+01 -7.998336315155029297e+00 -1.548357605934143066e-01 7.453993320465087891e+00 2.189747333526611328e+00 -3.545009717345237732e-02
2.720000000000000000e+03 5.181097030639648438e+01 1.385115337371826172e+01 -2.335770726203918457e-01 7.972257614135742188e+00 2.321604013442993164e+00 -3.073691725730895996e-01
2.721000000000000000e+03 4.807823181152343750e+01 -3.793819189071655273e+00 -1.827676147222518921e-01 7.556594371795654297e+00 2.212147951126098633e+00 -5.638246983289718628e-02
2.722000000000000000e+03 4.947291946411132812e+01 -1.201388072967529297e+01 -1.278446167707443237e-01 7.480091571807861328e+00 2.205674171447753906e+00 -6.323042511940002441e-02
2.723000000000000000e+03 5.069429779052734375e+01 2.734892666339874268e-01 -2.101703435182571411e-01 7.686176300048828125e+00 2.242801666259765625e+00 -1.189550682902336121e-01
2.724000000000000000e+03 5.069940185546875000e+01 1.063488483428955078e+01 -2.733872532844543457e-01 7.923913002014160156e+00 2.295157670974731445e+00 -2.296624481678009033e-01
2.725000000000000000e+03 4.896855545043945312e+01 9.261907577514648438e+00 -2.911357283592224121e-01 7.876575469970703125e+00 2.275631904602050781e+00 -1.608326584100723267e-01
2.726000000000000000e+03 4.903727340698242188e+01 6.200963497161865234e+00 -2.767804265022277832e-01 7.798345565795898438e+00 2.256469488143920898e+00 -1.232115998864173889e-01
2.727000000000000000e+03 4.681521224975585938e+01 -1.231143712997436523e+00 -2.086675167083740234e-01 7.570308208465576172e+00 2.208492040634155273e+00 -3.775556385517120361e-02
2.728000000000000000e+03 4.735493850708007812e+01 7.964012026786804199e-01 -2.338458597660064697e-01 7.632794857025146484e+00 2.219684839248657227e+00 -5.094657838344573975e-02
2.729000000000000000e+03 4.852552413940429688e+01 5.109170913696289062e+00 -2.705013751983642578e-01 7.759589195251464844e+00 2.246726274490356445e+00 -9.789945930242538452e-02
2.730000000000000000e+03 5.360919952392578125e+01 4.510396957397460938e+00 -2.186285704374313354e-01 7.795598030090332031e+00 2.273090839385986328e+00 -2.077451646327972412e-01
2.731000000000000000e+03 5.148018264770507812e+01 -1.634281635284423828e+00 -1.939503252506256104e-01 7.664331436157226562e+00 2.241114377975463867e+00 -1.230693235993385315e-01
2.732000000000000000e+03 4.972106170654296875e+01 -1.951893806457519531e+00 -1.958864033222198486e-01 7.622595310211181641e+00 2.228012800216674805e+00 -8.820645511150360107e-02
2.733000000000000000e+03 5.257867813110351562e+01 -1.521609973907470703e+01 -1.082145944237709045e-01 7.539877891540527344e+00 2.229498863220214844e+00 -8.901740610599517822e-02
2.734000000000000000e+03 5.250223541259765625e+01 1.554988098144531250e+01 -2.037879526615142822e-01 7.992376327514648438e+00 2.336576461791992188e+00 -3.469372093677520752e-01
2.735000000000000000e+03 4.660016632080078125e+01 -1.018089294433593750e+01 -1.336627751588821411e-01 7.425520420074462891e+00 2.187557220458984375e+00 -3.594453260302543640e-02
2.736000000000000000e+03 5.205173873901367188e+01 9.806871414184570312e+00 -2.504989206790924072e-01 7.890901088714599609e+00 2.292120695114135742e+00 -2.453590035438537598e-01
2.737000000000000000e+03 4.758814239501953125e+01 2.091187715530395508e+00 -2.415795326232910156e-01 7.662986278533935547e+00 2.226422071456909180e+00 -6.365616619586944580e-02
2.738000000000000000e+03 4.976039886474609375e+01 1.878653883934020996e+00 -2.324813306331634521e-01 7.698328495025634766e+00 2.239754199981689453e+00 -1.081432998180389404e-01
2.739000000000000000e+03 5.244198989868164062e+01 3.609038829803466797e+00 -2.278152853250503540e-01 7.769270420074462891e+00 2.262436389923095703e+00 -1.742808520793914795e-01
2.740000000000000000e+03 5.058467483520507812e+01 -7.639669895172119141e+00 -1.499494761228561401e-01 7.557263374328613281e+00 2.222194194793701172e+00 -8.950993418693542480e-02
2.741000000000000000e+03 5.179215621948242188e+01 -9.405150413513183594e+00 -1.358491033315658569e-01 7.567161083221435547e+00 2.229393720626831055e+00 -9.577821195125579834e-02
2.742000000000000000e+03 5.313928604125976562e+01 -8.218635559082031250e+00 -1.393776386976242065e-01 7.613291263580322266e+00 2.242174148559570312e+00 -1.145886629819869995e-01
2.743000000000000000e+03 4.990370559692382812e+01 -3.765004396438598633e+00 -1.834968179464340210e-01 7.598676681518554688e+00 2.224553823471069336e+00 -8.881924301385879517e-02
2.744000000000000000e+03 5.007322692871093750e+01 1.472941684722900391e+01 -2.613468766212463379e-01 8.022973060607910156e+00 2.328487873077392578e+00 -2.868802547454833984e-01
2.745000000000000000e+03 4.986547088623046875e+01 -1.464627361297607422e+01 -1.148271113634109497e-01 7.473399162292480469e+00 2.207571506500244141e+00 -6.826297193765640259e-02
2.746000000000000000e+03 4.655130767822265625e+01 -1.743340682983398438e+01 -1.020178496837615967e-01 7.350949764251708984e+00 2.174679517745971680e+00 -4.380654916167259216e-02
2.747000000000000000e+03 5.227709960937500000e+01 -1.224645328521728516e+01 -1.222845092415809631e-01 7.553976058959960938e+00 2.229507446289062500e+00 -9.429762512445449829e-02
2.748000000000000000e+03 5.322240066528320312e+01 -1.875048446655273438e+01 -9.699244052171707153e-02 7.536641597747802734e+00 2.231894731521606445e+00 -8.702463656663894653e-02
2.749000000000000000e+03 4.865699005126953125e+01 3.125513315200805664e+00 -2.490896284580230713e-01 7.709032535552978516e+00 2.237982988357543945e+00 -8.768578618764877319e-02
2.750000000000000000e+03 5.056914520263671875e+01 1.887032318115234375e+01 -1.744858175516128540e-01 8.085602760314941406e+00 2.373335123062133789e+00 -3.818906843662261963e-01
2.751000000000000000e+03 5.430163955688476562e+01 -1.691642951965332031e+01 -9.368935227394104004e-02 7.575531959533691406e+00 2.244552850723266602e+00 -9.493386000394821167e-02
2.752000000000000000e+03 5.507110977172851562e+01 -2.018232917785644531e+01 -8.398409932851791382e-02 7.589505672454833984e+00 2.251656532287597656e+00 -8.831506222486495972e-02
2.753000000000000000e+03 4.817598342895507812e+01 -1.338600540161132812e+01 -1.172435358166694641e-01 7.435220241546630859e+00 2.195393085479736328e+00 -5.781187862157821655e-02
2.754000000000000000e+03 4.938356399536132812e+01 1.289736270904541016e+01 -2.906054854393005371e-01 7.990599155426025391e+00 2.309998035430908203e+00 -2.351296842098236084e-01
2.755000000000000000e+03 5.202893829345703125e+01 -6.912679672241210938e+00 -1.495289951562881470e-01 7.603245258331298828e+00 2.236114978790283203e+00 -1.079040318727493286e-01
2.756000000000000000e+03 5.054864120483398438e+01 5.672387123107910156e+00 -2.595936655998229980e-01 7.797764778137207031e+00 2.261451244354248047e+00 -1.559468507766723633e-01
2.757000000000000000e+03 5.284454345703125000e+01 1.135076332092285156e+01 -2.325824350118637085e-01 7.914653301239013672e+00 2.304621219635009766e+00 -2.852876484394073486e-01
2.758000000000000000e+03 5.312122726440429688e+01 1.733348846435546875e+01 -1.619919687509536743e-01 8.005622863769531250e+00 2.353089332580566406e+00 -3.891416490077972412e-01
2.759000000000000000e+03 5.095487976074218750e+01 1.638116455078125000e+01 -2.141813188791275024e-01 8.038044929504394531e+00 2.347159147262573242e+00 -3.435692489147186279e-01
2.760000000000000000e+03 4.833944702148437500e+01 -5.871056079864501953e+00 -1.690273731946945190e-01 7.529640674591064453e+00 2.208184003829956055e+00 -6.081816554069519043e-02
2.761000000000000000e+03 4.878607940673828125e+01 -1.021743488311767578e+01 -1.390736401081085205e-01 7.484403133392333984e+00 2.203598737716674805e+00 -6.550464779138565063e-02
2.762000000000000000e+03 5.168240737915039062e+01 1.788034057617187500e+01 -1.753875762224197388e-01 8.044384002685546875e+00 2.360698938369750977e+00 -3.752371072769165039e-01
2.763000000000000000e+03 5.106803512573242188e+01 -1.350733947753906250e+01 -1.164253130555152893e-01 7.506618022918701172e+00 2.217057704925537109e+00 -8.031879365444183350e-02
2.764000000000000000e+03 4.895423126220703125e+01 -1.984426689147949219e+01 -9.738012403249740601e-02 7.405570983886718750e+00 2.192457199096679688e+00 -5.256354436278343201e-02
2.765000000000000000e+03 5.472799682617187500e+01 1.677709770202636719e+01 -1.476353257894515991e-01 7.964965820312500000e+00 2.345199108123779297e+00 -3.972331881523132324e-01
2.766000000000000000e+03 4.865734100341796875e+01 1.590199947357177734e+01 -2.804626524448394775e-01 8.081078529357910156e+00 2.340184688568115234e+00 -2.779648602008819580e-01
2.767000000000000000e+03 5.189454269409179688e+01 1.944699859619140625e+01 -1.338953971862792969e-01 8.066993713378906250e+00 2.379929542541503906e+00 -4.135317504405975342e-01
2.768000000000000000e+03 5.065489959716796875e+01 -1.076973247528076172e+01 -1.300900131464004517e-01 7.530205249786376953e+00 2.220034599304199219e+00 -8.223563432693481445e-02
2.769000000000000000e+03 5.641221618652343750e+01 1.616598892211914062e+01 -1.307943016290664673e-01 7.920333385467529297e+00 2.336861848831176758e+00 -4.054666459560394287e-01
2.770000000000000000e+03 5.350933074951171875e+01 1.927318000793457031e+01 -1.113274469971656799e-01 8.024266242980957031e+00 2.373881578445434570e+00 -4.289796948432922363e-01
2.771000000000000000e+03 5.160968399047851562e+01 -5.464938640594482422e+00 -1.624778211116790771e-01 7.608852386474609375e+00 2.233912229537963867e+00 -1.100975051522254944e-01
2.772000000000000000e+03 5.570901107788085938e+01 2.100934028625488281e+01 -2.306942082941532135e-02 7.953851222991943359e+00 2.379234552383422852e+00 -4.600287973880767822e-01
2.773000000000000000e+03 5.162216567993164062e+01 2.413811111450195312e+01 5.548110231757164001e-02 8.109932899475097656e+00 2.449624061584472656e+00 -4.886855185031890869e-01
2.774000000000000000e+03 4.829668045043945312e+01 2.255386161804199219e+01 -9.447545558214187622e-02 8.233955383300781250e+00 2.441843986511230469e+00 -4.352089464664459229e-01
2.775000000000000000e+03 4.651309204101562500e+01 -2.311512184143066406e+01 -1.008205264806747437e-01 7.304937839508056641e+00 2.161235094070434570e+00 -4.120989888906478882e-02
2.776000000000000000e+03 4.216317367553710938e+01 -2.076397323608398438e+01 -9.576522558927536011e-02 7.173796653747558594e+00 2.123409271240234375e+00 -1.213452313095331192e-02
2.777000000000000000e+03 4.347513675689697266e+00 3.413424301147460938e+01 -3.027408616617321968e-03 1.293602399528026581e-03 -5.201419116929173470e-04 -5.006555467844009399e-03
2.778000000000000000e+03 6.281716537475585938e+01 3.311850357055664062e+01 2.409617751836776733e-01 7.568072319030761719e+00 2.342710256576538086e+00 -2.838330268859863281e-01
2.779000000000000000e+03 5.453453826904296875e+01 2.668201065063476562e+01 1.850079596042633057e-01 7.982348918914794922e+00 2.450206995010375977e+00 -4.867783486843109131e-01
2.780000000000000000e+03 7.204145908355712891e+00 3.801231002807617188e+01 -5.801171064376831055e-04 -5.572356283664703369e-03 -1.845742110162973404e-03 -1.110987365245819092e-02
2.781000000000000000e+03 5.222754001617431641e+00 4.025983428955078125e+01 -1.000734046101570129e-02 1.897791749797761440e-03 -2.432864625006914139e-03 -2.842163434252142906e-03
2.782000000000000000e+03 4.935092163085937500e+01 3.008861160278320312e+01 4.101166427135467529e-01 8.194625854492187500e+00 2.581422805786132812e+00 -4.872117340564727783e-01
2.783000000000000000e+03 4.944151687622070312e+01 2.449873161315917969e+01 4.136545956134796143e-02 8.194032669067382812e+00 2.470619201660156250e+00 -4.775345623493194580e-01
2.784000000000000000e+03 4.586704254150390625e+01 3.240939331054687500e+01 6.630660891532897949e-01 8.387084007263183594e+00 2.715044975280761719e+00 -4.659120440483093262e-01
2.785000000000000000e+03 5.097539901733398438e+01 -2.145487594604492188e+01 -9.554699063301086426e-02 7.451542854309082031e+00 2.206798791885375977e+00 -6.115829199552536011e-02
2.786000000000000000e+03 5.320045089721679688e+01 -2.570544815063476562e+01 -8.861117064952850342e-02 7.507377147674560547e+00 2.225629806518554688e+00 -6.445798277854919434e-02
2.787000000000000000e+03 5.935880661010742188e+01 1.298543357849121094e+01 -1.304456144571304321e-01 7.844376087188720703e+00 2.314179182052612305e+00 -3.750059604644775391e-01
2.788000000000000000e+03 8.096066474914550781e+00 3.447865295410156250e+01 -9.609502740204334259e-03 -7.858518511056900024e-03 -5.240406375378370285e-03 -9.561813436448574066e-03
2.789000000000000000e+03 3.559552383422851562e+01 -2.934295654296875000e+01 -7.372498512268066406e-02 6.848505496978759766e+00 2.032434225082397461e+00 3.152555087581276894e-03
2.790000000000000000e+03 3.760613250732421875e+01 -2.735242652893066406e+01 -7.371021807193756104e-02 6.943864822387695312e+00 2.061046361923217773e+00 -2.972101094201207161e-03
2.791000000000000000e+03 5.876472473144531250e+01 -2.324373817443847656e+01 -6.552276015281677246e-02 7.688729763031005859e+00 2.286962032318115234e+00 -8.640800416469573975e-02
2.792000000000000000e+03 5.685167312622070312e+01 -2.172480583190917969e+01 -7.946655154228210449e-02 7.633707046508789062e+00 2.266272068023681641e+00 -8.888061344623565674e-02
2.793000000000000000e+03 2.768254661560058594e+01 -4.109038925170898438e+01 -3.594247996807098389e-01 6.489721775054931641e+00 1.839089035987854004e+00 -4.400264844298362732e-02
2.794000000000000000e+03 5.232018661499023438e+01 -2.047561645507812500e+01 -9.243844449520111084e-02 7.499561786651611328e+00 2.222136974334716797e+00 -7.798409461975097656e-02
2.795000000000000000e+03 5.942269897460937500e+01 -2.711634635925292969e+01 -6.183799728751182556e-02 7.707325458526611328e+00 2.293646097183227539e+00 -7.235551625490188599e-02
2.796000000000000000e+03 3.751863861083984375e+01 -3.168074989318847656e+01 -9.420517832040786743e-02 6.915247440338134766e+00 2.046312808990478516e+00 -2.714675478637218475e-02
2.797000000000000000e+03 5.197882461547851562e+01 2.706673812866210938e+01 2.119138836860656738e-01 8.087295532226562500e+00 2.489763021469116211e+00 -4.941010773181915283e-01
2.798000000000000000e+03 5.900151062011718750e+01 3.176621437072753906e+01 3.295527994632720947e-01 7.750056743621826172e+00 2.423882961273193359e+00 -3.656341135501861572e-01
2.799000000000000000e+03 5.899020385742187500e+01 -3.456900405883789062e+01 -6.581856310367584229e-02 7.693343162536621094e+00 2.288257360458374023e+00 -3.830342367291450500e-02
2.800000000000000000e+03 5.598135757446289062e+01 -3.674637222290039062e+01 -7.727066427469253540e-02 7.603220939636230469e+00 2.257785081863403320e+00 -2.720456570386886597e-02
2.801000000000000000e+03 4.345900344848632812e+01 -3.637431716918945312e+01 -1.222525238990783691e-01 7.156862258911132812e+00 2.110383033752441406e+00 -2.380893938243389130e-02
2.802000000000000000e+03 3.990941238403320312e+01 -3.434643554687500000e+01 -1.318374127149581909e-01 7.024452209472656250e+00 2.067784547805786133e+00 -3.183966875076293945e-02
2.803000000000000000e+03 3.639929962158203125e+01 -3.668062591552734375e+01 -1.452947109937667847e-01 6.885767459869384766e+00 2.022141933441162109e+00 -4.030392318964004517e-02
2.804000000000000000e+03 5.686827850341796875e+01 3.651379776000976562e+01 5.037781596183776855e-01 7.772132396697998047e+00 2.482773065567016602e+00 -2.326845973730087280e-01
2.805000000000000000e+03 6.045354461669921875e+01 3.498839950561523438e+01 3.493292927742004395e-01 7.650150775909423828e+00 2.399844169616699219e+00 -2.558371424674987793e-01
2.806000000000000000e+03 6.336964035034179688e+01 3.727376174926757812e+01 3.064500391483306885e-01 7.526286125183105469e+00 2.349820852279663086e+00 -1.675290316343307495e-01
2.807000000000000000e+03 7.164752197265625000e+01 -4.091957092285156250e+01 -9.695326909422874451e-03 8.125753402709960938e+00 2.434817552566528320e+00 -5.688487086445093155e-03
2.808000000000000000e+03 5.797650146484375000e+01 2.878115463256835938e+01 2.434204220771789551e-01 7.818992614746093750e+00 2.418723821640014648e+00 -4.342157840728759766e-01
2.809000000000000000e+03 6.389630126953125000e+01 -3.320782470703125000e+01 -4.412081465125083923e-02 7.846363544464111328e+00 2.340672731399536133e+00 -4.012444242835044861e-02
2.810000000000000000e+03 4.154498672485351562e+01 -2.676345634460449219e+01 -8.873435854911804199e-02 7.115163326263427734e+00 2.107928752899169922e+00 -2.511387690901756287e-02
2.811000000000000000e+03 4.904784011840820312e+01 -2.391618728637695312e+01 -8.966067433357238770e-02 7.392459869384765625e+00 2.190839767456054688e+00 -5.364752188324928284e-02
2.812000000000000000e+03 5.220265579223632812e+01 3.011552238464355469e+01 3.854911029338836670e-01 8.054327964782714844e+00 2.531945705413818359e+00 -4.736179411411285400e-01
2.813000000000000000e+03 5.796476745605468750e+01 -2.961317253112792969e+01 -7.376803457736968994e-02 7.653155803680419922e+00 2.273816347122192383e+00 -6.257630884647369385e-02
2.814000000000000000e+03 5.235014343261718750e+01 3.342374420166015625e+01 5.547758340835571289e-01 8.020077705383300781e+00 2.572456121444702148e+00 -3.858736753463745117e-01
2.815000000000000000e+03 5.082149124145507812e+01 -1.981631088256835938e+01 -1.017393469810485840e-01 7.462238788604736328e+00 2.208149909973144531e+00 -6.796146929264068604e-02
2.816000000000000000e+03 3.974007797241210938e+01 -2.928717613220214844e+01 -9.791917353868484497e-02 7.025889396667480469e+00 2.078391075134277344e+00 -2.459616959095001221e-02
2.817000000000000000e+03 4.545586395263671875e+01 -2.560188293457031250e+01 -9.099087864160537720e-02 7.260447025299072266e+00 2.150836706161499023e+00 -3.942132741212844849e-02
2.818000000000000000e+03 4.827580642700195312e+01 -2.669536399841308594e+01 -1.014736965298652649e-01 7.356445789337158203e+00 2.176491498947143555e+00 -4.961918666958808899e-02
2.819000000000000000e+03 5.513301467895507812e+01 2.965704727172851562e+01 3.241198956966400146e-01 7.929666996002197266e+00 2.476135969161987305e+00 -4.473538994789123535e-01
2.820000000000000000e+03 5.552165603637695312e+01 -2.766370201110839844e+01 -7.614170759916305542e-02 7.575621604919433594e+00 2.249843835830688477e+00 -6.436514109373092651e-02
2.821000000000000000e+03 4.516017150878906250e+01 -3.281843948364257812e+01 -1.149450019001960754e-01 7.225872039794921875e+00 2.133278131484985352e+00 -3.512194380164146423e-02
2.822000000000000000e+03 4.887747192382812500e+01 3.326097488403320312e+01 6.572858691215515137e-01 8.202447891235351562e+00 2.657920122146606445e+00 -4.186681210994720459e-01
2.823000000000000000e+03 5.627799224853515625e+01 -3.196796035766601562e+01 -7.692136615514755249e-02 7.597674846649169922e+00 2.256226062774658203e+00 -4.940148070454597473e-02
2.824000000000000000e+03 4.676052856445312500e+01 -2.964491271972656250e+01 -9.180258959531784058e-02 7.292791843414306641e+00 2.160296678543090820e+00 -4.261409118771553040e-02
2.825000000000000000e+03 5.424065780639648438e+01 -3.383816528320312500e+01 -8.922660350799560547e-02 7.544301509857177734e+00 2.236522436141967773e+00 -4.015301913022994995e-02
2.826000000000000000e+03 5.224839782714843750e+01 -3.207605743408203125e+01 -9.264869987964630127e-02 7.470389366149902344e+00 2.213322162628173828e+00 -4.524127021431922913e-02
2.827000000000000000e+03 5.161230087280273438e+01 -3.447805023193359375e+01 -9.641665220260620117e-02 7.452754974365234375e+00 2.206901550292968750e+00 -3.885709494352340698e-02
2.828000000000000000e+03 2.111165618896484375e+01 3.341936492919921875e+01 4.207322373986244202e-02 -5.467862486839294434e-01 -1.514139175415039062e-01 -1.027916595339775085e-01
2.829000000000000000e+03 2.626736831665039062e+01 3.881389236450195312e+01 4.934867322444915771e-01 2.925449848175048828e+00 1.025681018829345703e+00 -1.928377866744995117e+00
2.830000000000000000e+03 2.612503433227539062e+01 3.799528121948242188e+01 1.993846446275711060e-01 1.479694604873657227e+00 5.037237405776977539e-01 -1.435778260231018066e+00
2.831000000000000000e+03 2.707615852355957031e+01 3.781377410888671875e+01 7.075337767601013184e-01 3.838425397872924805e+00 1.363787770271301270e+00 -2.894284486770629883e+00
2.832000000000000000e+03 2.766960525512695312e+01 3.773778533935546875e+01 2.638452649116516113e-01 8.290281295776367188e+00 2.566237926483154297e+00 -3.662167072296142578e+00
2.833000000000000000e+03 2.782556533813476562e+01 3.768322372436523438e+01 2.814534865319728851e-02 9.075571060180664062e+00 2.731115102767944336e+00 -4.254565238952636719e+00
2.834000000000000000e+03 2.706348991394042969e+01 3.424647903442382812e+01 3.019889831542968750e+00 5.106455802917480469e+00 2.437903642654418945e+00 4.318977355957031250e+00
2.835000000000000000e+03 2.655684852600097656e+01 3.420182800292968750e+01 2.828785419464111328e+00 3.213444709777832031e+00 1.812669038772583008e+00 3.231179237365722656e+00
2.836000000000000000e+03 2.611526489257812500e+01 3.432118225097656250e+01 2.549741744995117188e+00 1.934182643890380859e+00 1.345177292823791504e+00 2.302291870117187500e+00
2.837000000000000000e+03 2.568612289428710938e+01 3.414378738403320312e+01 2.142321586608886719e+00 1.658481001853942871e+00 1.140240788459777832e+00 1.817091107368469238e+00
2.838000000000000000e+03 2.060343551635742188e+01 3.401183700561523438e+01 2.318885922431945801e-02 -7.281849384307861328e-01 -2.114988267421722412e-01 -1.541495695710182190e-02
2.839000000000000000e+03 2.088411331176757812e+01 -3.516112136840820312e+01 5.769919753074645996e-01 6.371673107147216797e+00 2.084599494934082031e+00 4.918000102043151855e-01
2.840000000000000000e+03 1.577098178863525391e+01 3.999908065795898438e+01 -1.263076439499855042e-02 -1.161643937230110168e-01 -3.863854706287384033e-02 1.690378636121749878e-01
2.841000000000000000e+03 1.584436225891113281e+01 3.864756011962890625e+01 -1.044560968875885010e-01 3.506827051751315594e-04 -3.123162500560283661e-02 1.794766448438167572e-02
2.842000000000000000e+03 1.373365974426269531e+01 -3.872707748413085938e+01 -2.628171443939208984e-01 5.555729940533638000e-02 -6.217795610427856445e-02 -2.438927888870239258e-01
2.843000000000000000e+03 1.050239086151123047e+01 -3.637075424194335938e+01 -1.857641786336898804e-01 6.269525736570358276e-02 -3.692067787051200867e-02 1.924952957779169083e-03
2.844000000000000000e+03 2.257251358032226562e+01 3.943605041503906250e+01 2.357274740934371948e-01 8.350502699613571167e-02 9.576974809169769287e-02 5.390962362289428711e-01
2.845000000000000000e+03 2.336933898925781250e+01 4.039104080200195312e+01 9.690980911254882812e-01 -1.749747246503829956e-01 2.382369935512542725e-01 5.292750522494316101e-02
2.846000000000000000e+03 2.246726417541503906e+01 4.188210296630859375e+01 1.029716730117797852e+00 5.699595808982849121e-02 3.260138034820556641e-01 9.527406841516494751e-02
2.847000000000000000e+03 2.956729316711425781e+01 3.918383407592773438e+01 -5.630619525909423828e-01 1.211523246765136719e+01 3.465651273727416992e+00 8.024743795394897461e-01
2.848000000000000000e+03 3.140783882141113281e+01 3.783278274536132812e+01 1.907106399536132812e+00 1.196447467803955078e+01 4.161474227905273438e+00 1.960298895835876465e+00
2.849000000000000000e+03 7.237431335449218750e+01 -3.522546768188476562e+01 -1.257384382188320160e-02 8.139681816101074219e+00 2.438132286071777344e+00 -2.064283378422260284e-02
2.850000000000000000e+03 2.619659805297851562e+01 3.834571838378906250e+01 4.751105010509490967e-01 1.946247935295104980e+00 7.264075279235839844e-01 -1.608174920082092285e+00
2.851000000000000000e+03 2.573133468627929688e+01 3.860436630249023438e+01 2.726452350616455078e-01 2.133235931396484375e+00 7.217643260955810547e-01 -1.034836053848266602e+00
2.852000000000000000e+03 2.520381355285644531e+01 4.041635131835937500e+01 5.927413105964660645e-01 3.199781179428100586e+00 1.137756705284118652e+00 2.608682261779904366e-03
2.853000000000000000e+03 2.603537368774414062e+01 3.408003234863281250e+01 2.439079523086547852e+00 2.146989107131958008e+00 1.375820636749267578e+00 2.347457885742187500e+00
2.854000000000000000e+03 2.393918228149414062e+01 -3.332596969604492188e+01 2.534037828445434570e-01 6.285778045654296875e+00 1.961754560470581055e+00 1.659398823976516724e-01
2.855000000000000000e+03 1.084281063079833984e+01 -2.876350784301757812e+01 1.065181568264961243e-02 4.678609780967235565e-03 4.599127452820539474e-03 -6.314083002507686615e-03
2.856000000000000000e+03 3.226833724975585938e+01 3.328445434570312500e+01 1.681553721427917480e+00 1.060918045043945312e+01 3.687220335006713867e+00 -4.695093333721160889e-01
2.857000000000000000e+03 3.977496719360351562e+01 3.537882232666015625e+01 1.261034488677978516e+00 8.992257118225097656e+00 3.075987577438354492e+00 -1.852987855672836304e-01
2.858000000000000000e+03 7.589361572265625000e+01 3.430425262451171875e+01 3.432334214448928833e-02 6.950543403625488281e+00 2.095460176467895508e+00 -9.440625458955764771e-02
2.859000000000000000e+03 7.751670074462890625e+01 3.477668380737304688e+01 2.410862594842910767e-02 6.807472705841064453e+00 2.049474477767944336e+00 -4.805178567767143250e-02
2.860000000000000000e+03 5.378382110595703125e+01 -2.988761329650878906e+01 -9.053516387939453125e-02 7.521751403808593750e+00 2.229364871978759766e+00 -5.634174495935440063e-02
2.861000000000000000e+03 2.437653923034667969e+01 3.933940124511718750e+01 4.647157490253448486e-01 1.123770952224731445e+00 4.765459895133972168e-01 5.222345590591430664e-01
2.862000000000000000e+03 2.611834144592285156e+01 3.368237304687500000e+01 2.237704992294311523e+00 3.018539190292358398e+00 1.576873302459716797e+00 2.745025873184204102e+00
2.863000000000000000e+03 2.634577560424804688e+01 3.353618240356445312e+01 2.237804651260375977e+00 3.750501871109008789e+00 1.796491980552673340e+00 3.116246461868286133e+00
2.864000000000000000e+03 2.649425697326660156e+01 3.385015487670898438e+01 2.452423095703125000e+00 3.697092056274414062e+00 1.844854474067687988e+00 3.255557775497436523e+00
2.865000000000000000e+03 3.249652385711669922e+00 -3.729856967926025391e+00 -1.873955829069018364e-03 6.279258523136377335e-04 -3.738089872058480978e-04 -1.645899028517305851e-03
2.866000000000000000e+03 5.155652046203613281e+00 -3.351550340652465820e+00 9.985843207687139511e-04 8.429266163147985935e-04 5.524532753042876720e-04 1.472106960136443377e-04
2.867000000000000000e+03 5.046587944030761719e+00 -3.056393241882324219e+01 4.449553322046995163e-03 3.396044718101620674e-03 2.353679388761520386e-03 -3.137659514322876930e-04
2.868000000000000000e+03 1.095316219329833984e+01 -4.368303775787353516e+00 -1.291121705435216427e-03 -1.183824264444410801e-03 -7.424837676808238029e-04 1.455919235013425350e-03
2.869000000000000000e+03 2.494161415100097656e+01 3.331595611572265625e+01 1.592310547828674316e+00 1.752841711044311523e+00 1.003545641899108887e+00 1.508546113967895508e+00
2.870000000000000000e+03 2.817736434936523438e+01 -3.016015434265136719e+01 6.677512824535369873e-02 6.495354652404785156e+00 1.968638896942138672e+00 1.005769073963165283e-01
2.871000000000000000e+03 2.546114921569824219e+01 -2.530819320678710938e+01 -4.073477163910865784e-02 6.521937370300292969e+00 1.944360733032226562e+00 1.745859086513519287e-01
2.872000000000000000e+03 2.609909248352050781e+01 3.335794448852539062e+01 2.131577730178833008e+00 3.455855846405029297e+00 1.676230072975158691e+00 2.844389677047729492e+00
2.873000000000000000e+03 2.660841560363769531e+01 3.328853607177734375e+01 2.042486906051635742e+00 4.924664020538330078e+00 2.090145111083984375e+00 3.530740022659301758e+00
2.874000000000000000e+03 9.828662872314453125e+00 4.136094093322753906e+00 -4.316248814575374126e-04 -4.521399387158453465e-04 -2.651294344104826450e-04 -3.975813451688736677e-04
2.875000000000000000e+03 2.516460609436035156e+01 3.215532302856445312e+01 1.172067523002624512e+00 3.176861286163330078e+00 1.304678678512573242e+00 2.098907470703125000e+00
2.876000000000000000e+03 1.074326896667480469e+01 1.650840377807617188e+01 -3.739316714927554131e-03 -5.266623920761048794e-04 -1.279793796129524708e-03 -1.433478901162743568e-04
2.877000000000000000e+03 2.835198783874511719e+01 2.948006057739257812e+01 -4.782478213310241699e-01 8.123044013977050781e+00 2.293438911437988281e+00 1.941743493080139160e+00
2.878000000000000000e+03 2.580045890808105469e+01 -2.652228164672851562e+01 -8.076402591541409492e-04 6.501464366912841797e+00 1.950196981430053711e+00 1.888564378023147583e-01
2.879000000000000000e+03 5.366161346435546875e+01 -2.196507263183593750e+01 -8.975270390510559082e-02 7.540035724639892578e+00 2.235084772109985352e+00 -7.757386565208435059e-02
2.880000000000000000e+03 8.256057739257812500e+00 -2.724713706970214844e+01 4.087592009454965591e-03 7.777256425470113754e-03 3.559454344213008881e-03 1.736566773615777493e-04
2.881000000000000000e+03 6.703870296478271484e+00 -2.620318984985351562e+01 -1.277798414230346680e-02 6.531667895615100861e-04 -3.637445159256458282e-03 -2.423146273940801620e-03
2.882000000000000000e+03 6.548137664794921875e+01 -2.186978912353515625e+01 -4.131650179624557495e-02 7.880794048309326172e+00 2.351843357086181641e+00 -8.927306532859802246e-02
2.883000000000000000e+03 2.550085639953613281e+01 2.895300292968750000e+01 -7.754720747470855713e-02 4.950427532196044922e+00 1.461864113807678223e+00 1.971263527870178223e+00
2.884000000000000000e+03 8.790981292724609375e+00 6.131947517395019531e+00 2.981383353471755981e-03 -6.315560895018279552e-04 7.049482082948088646e-04 3.607910184655338526e-04
2.885000000000000000e+03 8.150401115417480469e+00 5.058348655700683594e+00 -1.929780701175332069e-03 2.614846453070640564e-04 -5.004887934774160385e-04 -6.666667759418487549e-04
2.886000000000000000e+03 6.323570728302001953e+00 4.920680999755859375e+00 1.950979698449373245e-03 1.761401654221117496e-04 6.381359999068081379e-04 5.623053875751793385e-04
2.887000000000000000e+03 6.189238548278808594e+00 5.553381919860839844e+00 -1.823254395276308060e-03 -6.524449563585221767e-04 -7.427097880281507969e-04 -6.521183531731367111e-04
2.888000000000000000e+03 8.715751647949218750e+00 5.119787693023681641e+00 1.612958265468478203e-03 -4.591259057633578777e-04 3.461496962700039148e-04 4.941762308590114117e-04
2.889000000000000000e+03 8.046771049499511719e+00 5.640877246856689453e+00 2.661244943737983704e-03 -6.947476067580282688e-04 5.899491370655596256e-04 9.710500016808509827e-04
2.890000000000000000e+03 4.193960571289062500e+01 2.488065338134765625e+01 -1.273757666349411011e-01 8.588849067687988281e+00 2.538442134857177734e+00 -3.516010642051696777e-01
2.891000000000000000e+03 9.553139686584472656e+00 1.059386444091796875e+01 -1.430886099115014076e-03 5.771726719103753567e-04 -2.561140281613916159e-04 -1.467504422180354595e-03
2.892000000000000000e+03 1.026312255859375000e+01 -6.113926887512207031e+00 2.985126338899135590e-03 -2.308915427420288324e-04 8.262704359367489815e-04 7.666059536859393120e-04
2.893000000000000000e+03 2.622821235656738281e+01 3.029975318908691406e+01 2.426622062921524048e-01 5.459904670715332031e+00 1.710770010948181152e+00 2.377280473709106445e+00
2.894000000000000000e+03 2.868124961853027344e+01 -8.437394142150878906e+00 -3.777810186147689819e-02 6.813374042510986328e+00 2.032678842544555664e+00 2.169356793165206909e-01
2.895000000000000000e+03 4.077946472167968750e+01 2.393693542480468750e+01 -2.529419064521789551e-01 8.628052711486816406e+00 2.512533187866210938e+00 -2.644956111907958984e-01
2.896000000000000000e+03 7.192400932312011719e+00 6.098360538482666016e+00 7.308918866328895092e-04 9.797910461202263832e-04 5.132048972882330418e-04 1.884667668491601944e-03
2.897000000000000000e+03 3.973834228515625000e+01 2.336172866821289062e+01 -3.812838792800903320e-01 8.648101806640625000e+00 2.480045557022094727e+00 -1.534632444381713867e-01
2.898000000000000000e+03 5.245428085327148438e+00 1.261147403717041016e+01 8.589689969085156918e-05 1.421933993697166443e-03 4.523492534644901752e-04 1.488476642407476902e-03
2.899000000000000000e+03 2.937508201599121094e+01 -2.542351341247558594e+01 -2.754946798086166382e-02 6.642535686492919922e+00 1.984495878219604492e+00 1.300485283136367798e-01
2.900000000000000000e+03 5.456468582153320312e+01 -9.531862258911132812e+00 -1.274213492870330811e-01 7.631227016448974609e+00 2.251141548156738281e+00 -1.208164095878601074e-01
2.901000000000000000e+03 6.563845062255859375e+01 2.073103141784667969e+01 5.475661251693964005e-03 7.635183334350585938e+00 2.292197704315185547e+00 -3.874145448207855225e-01
2.902000000000000000e+03 7.895907402038574219e+00 -5.868253707885742188e+00 -2.334202872589230537e-03 -9.020690340548753738e-04 -9.708816069178283215e-04 -5.110200727358460426e-04
2.903000000000000000e+03 5.096622085571289062e+01 -1.613827133178710938e+01 -1.073579341173171997e-01 7.488492488861083984e+00 2.214340448379516602e+00 -7.808132469654083252e-02
2.904000000000000000e+03 4.914942169189453125e+01 -1.605580902099609375e+01 -1.073047146201133728e-01 7.435809612274169922e+00 2.198551416397094727e+00 -6.082962825894355774e-02
2.905000000000000000e+03 7.162644958496093750e+01 -2.129148864746093750e+01 -1.598587073385715485e-02 8.057533264160156250e+00 2.412464141845703125e+00 -6.508872658014297485e-02
2.906000000000000000e+03 2.847428131103515625e+01 5.024816989898681641e+00 -1.357834972441196442e-02 6.854031562805175781e+00 2.052135944366455078e+00 3.921023309230804443e-01
2.907000000000000000e+03 7.229686737060546875e+01 1.792761421203613281e+01 -6.565660703927278519e-03 7.507406234741210938e+00 2.250252246856689453e+00 -2.647920548915863037e-01
2.908000000000000000e+03 2.855378341674804688e+01 -5.934776782989501953e+00 -5.847974121570587158e-02 6.842117786407470703e+00 2.035091400146484375e+00 2.313738316297531128e-01
2.909000000000000000e+03 2.960696983337402344e+01 2.403528976440429688e+01 -7.721508145332336426e-01 7.588403224945068359e+00 2.044875621795654297e+00 1.232307791709899902e+00
2.910000000000000000e+03 3.777935028076171875e+01 1.915789413452148438e+01 -5.838156938552856445e-01 8.247780799865722656e+00 2.299189567565917969e+00 2.251307815313339233e-01
2.911000000000000000e+03 3.051292228698730469e+01 2.340854644775390625e+01 -7.747238278388977051e-01 7.784115791320800781e+00 2.102817535400390625e+00 1.070595383644104004e+00
2.912000000000000000e+03 2.810740280151367188e+01 2.256104660034179688e+01 -6.165293455123901367e-01 6.845667839050292969e+00 1.868741631507873535e+00 1.274923086166381836e+00
2.913000000000000000e+03 6.800224304199218750e+01 1.632482337951660156e+01 -2.820165641605854034e-02 7.641069412231445312e+00 2.283860445022583008e+00 -3.442226052284240723e-01
2.914000000000000000e+03 7.004931640625000000e+01 1.069564247131347656e+01 -4.058844223618507385e-02 7.697237491607666016e+00 2.296994686126708984e+00 -2.750833630561828613e-01
2.915000000000000000e+03 7.034496307373046875e+01 8.257568359375000000e+00 -4.203801974654197693e-02 7.735445022583007812e+00 2.308022022247314453e+00 -2.529733479022979736e-01
2.916000000000000000e+03 2.972327995300292969e+01 5.429147720336914062e+00 -6.758861988782882690e-02 6.933039188385009766e+00 2.059635162353515625e+00 4.007283151149749756e-01
2.917000000000000000e+03 2.885260009765625000e+01 2.215869140625000000e+01 -6.563428044319152832e-01 7.066382884979248047e+00 1.923012018203735352e+00 1.220212578773498535e+00
2.918000000000000000e+03 3.007874679565429688e+01 2.065706634521484375e+01 -6.516590118408203125e-01 7.321465969085693359e+00 2.000941991806030273e+00 1.029214382171630859e+00
2.919000000000000000e+03 3.075238037109375000e+01 2.078376197814941406e+01 -6.873056292533874512e-01 7.523492336273193359e+00 2.050855875015258789e+00 9.605538845062255859e-01
2.920000000000000000e+03 3.204840087890625000e+01 1.913908004760742188e+01 -6.511951684951782227e-01 7.652664184570312500e+00 2.100440740585327148e+00 7.908833026885986328e-01
2.921000000000000000e+03 3.104927635192871094e+01 -5.868264675140380859e+00 -6.996226310729980469e-02 6.936349391937255859e+00 2.059916257858276367e+00 2.034571468830108643e-01
2.922000000000000000e+03 3.274156951904296875e+01 -5.321488857269287109e+00 -8.478426188230514526e-02 7.004979133605957031e+00 2.076058387756347656e+00 1.940183937549591064e-01
2.923000000000000000e+03 3.178371429443359375e+01 -4.283141613006591797e+00 -8.265727013349533081e-02 6.984344482421875000e+00 2.070506095886230469e+00 2.090067565441131592e-01
2.924000000000000000e+03 6.741197967529296875e+01 1.476125001907348633e+00 -6.516045331954956055e-02 7.814944744110107422e+00 2.324935436248779297e+00 -2.306274175643920898e-01
2.925000000000000000e+03 3.011422348022460938e+01 1.976727294921875000e+01 -6.198008656501770020e-01 7.265634059906005859e+00 1.993749976158142090e+00 9.886209368705749512e-01
2.926000000000000000e+03 3.118735122680664062e+01 1.901797866821289062e+01 -6.295193433761596680e-01 7.458099365234375000e+00 2.048573970794677734e+00 8.812660574913024902e-01
2.927000000000000000e+03 6.784567260742187500e+01 -1.192330074310302734e+01 -4.570976272225379944e-02 7.903804302215576172e+00 2.357428312301635742e+00 -1.279192864894866943e-01
2.928000000000000000e+03 4.905985641479492188e+01 1.101530933380126953e+01 -3.028453588485717773e-01 7.930313587188720703e+00 2.288240432739257812e+00 -1.870882809162139893e-01
2.929000000000000000e+03 5.354532241821289062e+01 -4.221928119659423828e+00 -1.637651324272155762e-01 7.665338039398193359e+00 2.250471830368041992e+00 -1.380494683980941772e-01
2.930000000000000000e+03 6.657588195800781250e+01 -1.105174160003662109e+01 -5.021734163165092468e-02 7.873199462890625000e+00 2.346894741058349609e+00 -1.409614235162734985e-01
2.931000000000000000e+03 3.931856536865234375e+01 1.216469860076904297e+01 -4.400725960731506348e-01 7.805278301239013672e+00 2.209561824798583984e+00 2.229018658399581909e-01
2.932000000000000000e+03 4.791875076293945312e+01 -6.331437230110168457e-01 -2.132096439599990845e-01 7.612153053283691406e+00 2.219682931900024414e+00 -5.725038796663284302e-02
2.933000000000000000e+03 4.859818649291992188e+01 1.128733277320861816e+00 -2.266991883516311646e-01 7.667163848876953125e+00 2.232139348983764648e+00 -8.295600116252899170e-02
2.934000000000000000e+03 3.633495330810546875e+01 1.204391002655029297e+01 -4.242109954357147217e-01 7.619524955749511719e+00 2.158594131469726562e+00 3.899064362049102783e-01
2.935000000000000000e+03 6.334057235717773438e+01 -5.983244419097900391e+00 -8.450844883918762207e-02 7.805754184722900391e+00 2.316373825073242188e+00 -1.809840202331542969e-01
2.936000000000000000e+03 6.492101287841796875e+01 -3.022206306457519531e+00 -8.175986260175704956e-02 7.820838451385498047e+00 2.321723699569702148e+00 -2.044201195240020752e-01
2.937000000000000000e+03 4.926850509643554688e+01 -2.931053638458251953e-01 -2.162909656763076782e-01 7.648494720458984375e+00 2.229661226272583008e+00 -8.832105994224548340e-02
2.938000000000000000e+03 5.217416763305664062e+01 5.212791919708251953e+00 -2.366451174020767212e-01 7.796374797821044922e+00 2.267918825149536133e+00 -1.846182942390441895e-01
2.939000000000000000e+03 5.943762207031250000e+01 -7.285482883453369141e-01 -1.392135471105575562e-01 7.774909496307373047e+00 2.290708780288696289e+00 -2.166677415370941162e-01
2.940000000000000000e+03 5.991491699218750000e+01 1.099470019340515137e+00 -1.428521871566772461e-01 7.790415763854980469e+00 2.294269084930419922e+00 -2.368963956832885742e-01
2.941000000000000000e+03 6.014847946166992188e+01 5.335699081420898438e+00 -1.452353000640869141e-01 7.807096004486083984e+00 2.298558235168457031e+00 -2.820590436458587646e-01
2.942000000000000000e+03 1.427604866027832031e+01 1.918314248323440552e-01 1.877373433671891689e-04 -3.926238059648312628e-05 4.454248846741393209e-05 -7.221015403047204018e-05
2.943000000000000000e+03 1.480745506286621094e+01 4.566579461097717285e-01 -7.045324309729039669e-05 -4.781732422998175025e-05 -3.548116728779859841e-05 -2.101568497892003506e-05
2.944000000000000000e+03 1.334921646118164062e+01 1.154413938522338867e+00 -6.981379119679331779e-04 1.048616977641358972e-04 -1.779828598955646157e-04 -4.135556810069829226e-05
2.945000000000000000e+03 1.329909420013427734e+01 2.687930464744567871e-01 2.438282681396231055e-04 -4.893140867352485657e-04 -7.364575139945372939e-05 -1.454648154322057962e-04
2.946000000000000000e+03 1.449918746948242188e+01 1.067231655120849609e+00 -9.191465796902775764e-04 -1.747516071191057563e-04 -3.281694662291556597e-04 2.085269661620259285e-04
2.947000000000000000e+03 1.358560276031494141e+01 7.570860385894775391e-01 -5.166431074030697346e-04 5.323815639712847769e-05 -1.390214747516438365e-04 3.372757928445935249e-04
2.948000000000000000e+03 1.381844425201416016e+01 1.610024422407150269e-01 -1.170407704194076359e-04 2.909667964559048414e-04 5.217781290411949158e-05 2.405335690127685666e-04
2.949000000000000000e+03 1.395267581939697266e+01 1.181210637092590332e+00 6.778830429539084435e-04 2.064328873530030251e-04 2.652947732713073492e-04 -2.335495810257270932e-04
2.950000000000000000e+03 1.404123497009277344e+01 5.511854887008666992e-01 4.017681058030575514e-04 2.158587303711101413e-04 1.852880523074418306e-04 -5.267127417027950287e-04
2.951000000000000000e+03 1.112969017028808594e+01 3.708996772766113281e-01 -1.017458416754379869e-04 -1.884711673483252525e-04 -8.706510561751201749e-05 -1.826644438551738858e-04
2.952000000000000000e+03 1.113907623291015625e+01 1.110847473144531250e+00 2.889145980589091778e-04 3.425920731388032436e-04 1.894519955385476351e-04 4.634441575035452843e-04
2.953000000000000000e+03 1.263169097900390625e+01 3.451149165630340576e-01 -1.820072066038846970e-04 3.997272578999400139e-04 6.531601684400811791e-05 -9.374819637741893530e-05
2.954000000000000000e+03 1.037880802154541016e+01 3.837110698223114014e-01 1.020769559545442462e-04 5.003997939638793468e-04 1.807430235203355551e-04 1.600864488864317536e-04
2.955000000000000000e+03 1.188065242767333984e+01 3.580341637134552002e-01 1.378088927594944835e-04 -1.449571718694642186e-04 -2.144482550647808239e-06 1.758679572958499193e-04
2.956000000000000000e+03 1.264514160156250000e+01 1.084993243217468262e+00 6.192970904521644115e-04 -7.642713899258524179e-05 1.628609752515330911e-04 3.293291956651955843e-04
2.957000000000000000e+03 1.038616180419921875e+01 1.123693704605102539e+00 -2.624626504257321358e-04 -4.911329597234725952e-04 -2.260786859551444650e-04 -3.839428536593914032e-04
2.958000000000000000e+03 1.189207077026367188e+01 1.097947120666503906e+00 -4.064043750986456871e-04 -1.469790004193782806e-04 -1.660150155657902360e-04 -4.774517437908798456e-04
2.959000000000000000e+03 9.625078201293945312e+00 3.871397972106933594e-01 -9.912480891216546297e-05 -7.533745374530553818e-04 -2.557497937232255936e-04 -1.416979794157668948e-04
2.960000000000000000e+03 8.868724822998046875e+00 3.828192353248596191e-01 1.125955241150222719e-04 9.250024450011551380e-04 3.112794074695557356e-04 1.284116879105567932e-04
2.961000000000000000e+03 9.644926071166992188e+00 1.127139806747436523e+00 2.550337812863290310e-04 6.110966205596923828e-04 2.598391147330403328e-04 2.983064623549580574e-04
2.962000000000000000e+03 8.112174034118652344e+00 3.804100155830383301e-01 -1.277480769203975797e-04 -1.013734727166593075e-03 -3.424448368605226278e-04 -1.343265903415158391e-04
2.963000000000000000e+03 7.356014251708984375e+00 3.793691694736480713e-01 1.258030679309740663e-04 1.042484887875616550e-03 3.504863707348704338e-04 1.423567446181550622e-04
2.964000000000000000e+03 5.843623161315917969e+00 3.767499327659606934e-01 1.230532507179304957e-04 9.356348309665918350e-04 3.176064055878669024e-04 1.395844155922532082e-04
2.965000000000000000e+03 5.088051319122314453e+00 3.757717311382293701e-01 -1.389613025821745396e-04 -8.113129297271370888e-04 -2.850822638720273972e-04 -1.214151052408851683e-04
2.966000000000000000e+03 3.576755046844482422e+00 3.680583238601684570e-01 -1.805969222914427519e-04 -5.520294071175158024e-04 -2.197879075538367033e-04 -1.255168317584320903e-04
2.967000000000000000e+03 2.822042465209960938e+00 3.613462746143341064e-01 1.592137268744409084e-04 4.661621351260691881e-04 1.876127644209191203e-04 1.257163821719586849e-04
2.968000000000000000e+03 2.068703651428222656e+00 3.577998280525207520e-01 1.637583955016452819e-05 -2.997681731358170509e-04 -8.501770207658410072e-05 2.254102219012565911e-05
2.969000000000000000e+03 2.358754634857177734e+00 1.097799897193908691e+00 5.065526784164831042e-05 3.971811383962631226e-04 1.343509211437776685e-04 -5.065328514319844544e-05
2.970000000000000000e+03 1.327708005905151367e+00 3.658417165279388428e-01 -6.700633821310475469e-05 -2.099168887070845813e-05 -2.639940794324502349e-05 -2.390941081102937460e-04
2.971000000000000000e+03 1.644779324531555176e+00 1.105841755867004395e+00 8.399903890676796436e-05 -4.260162240825593472e-04 -1.026051540975458920e-04 3.152361896354705095e-04
2.972000000000000000e+03 6.509408354759216309e-01 3.937322795391082764e-01 1.101149711757898331e-03 7.272655493579804897e-04 5.485245492309331894e-04 9.662710363045334816e-04
2.973000000000000000e+03 3.482567369937896729e-01 9.569563269615173340e-01 -1.194661250337958336e-03 -7.462272187694907188e-04 -5.822665407322347164e-04 -4.419217293616384268e-04
2.974000000000000000e+03 3.085073232650756836e+00 1.101346254348754883e+00 -3.093206323683261871e-04 -3.663552051875740290e-04 -2.027027512667700648e-04 9.873668204818386585e-06
2.975000000000000000e+03 3.812765598297119141e+00 1.108058333396911621e+00 3.548691456671804190e-04 4.678851400967687368e-04 2.468262973707169294e-04 -1.316189172939630225e-05
2.976000000000000000e+03 4.332499980926513672e+00 3.732680678367614746e-01 1.438731269445270300e-04 6.680311053059995174e-04 2.435712813166901469e-04 1.143991030403412879e-04
2.977000000000000000e+03 5.998572826385498047e+00 1.116749882698059082e+00 -2.873395569622516632e-04 -6.918341387063264847e-04 -2.937520912382751703e-04 -3.009502324857749045e-05
2.978000000000000000e+03 6.600036144256591797e+00 3.784387111663818359e-01 -1.390821271343156695e-04 -1.013760222122073174e-03 -3.458526916801929474e-04 -1.486726832808926702e-04
2.979000000000000000e+03 8.186062812805175781e+00 1.120409965515136719e+00 3.055702545680105686e-04 7.139930967241525650e-04 3.058690053876489401e-04 1.543538965051993728e-04
2.980000000000000000e+03 8.915593147277832031e+00 1.122819185256958008e+00 -2.922562707681208849e-04 -6.752409390173852444e-04 -2.902491542045027018e-04 -2.175817353418096900e-04
2.981000000000000000e+03 7.456923484802246094e+00 1.119369149208068848e+00 -3.153778670821338892e-04 -7.286792970262467861e-04 -3.132171405013650656e-04 -1.147792063420638442e-04
2.982000000000000000e+03 6.727965354919433594e+00 1.118438720703125000e+00 2.919745165854692459e-04 7.197159575298428535e-04 3.035071422345936298e-04 6.916556594660505652e-05
2.983000000000000000e+03 5.270021438598632812e+00 1.115771770477294922e+00 2.686667721718549728e-04 6.521941395476460457e-04 2.762582735158503056e-04 -1.070129565050592646e-05
2.984000000000000000e+03 4.541490077972412109e+00 1.113268017768859863e+00 -3.231705341022461653e-04 -5.750476848334074020e-04 -2.694654685910791159e-04 3.088244557147845626e-05
2.985000000000000000e+03 9.950323700904846191e-01 1.133732318878173828e+00 -6.234535248950123787e-04 8.095693192444741726e-04 5.583474921877495944e-05 -4.631498013623058796e-04
2.986000000000000000e+03 7.951600551605224609e+00 -3.791473805904388428e-01 2.275797160109505057e-04 1.236610580235719681e-03 4.392570990603417158e-04 -1.778236764948815107e-04
2.987000000000000000e+03 8.812386512756347656e+00 -1.121279358863830566e+00 5.658371956087648869e-04 8.173803216777741909e-04 4.149652668274939060e-04 -2.961252466775476933e-04
2.988000000000000000e+03 9.587816238403320312e+00 -3.863115906715393066e-01 2.122281002812087536e-04 8.510599145665764809e-04 3.189863928128033876e-04 -1.745006447890773416e-04
2.989000000000000000e+03 7.132064342498779297e+00 -3.779651820659637451e-01 -2.608299837447702885e-04 -1.297072274610400200e-03 -4.673707007896155119e-04 1.944875402841717005e-04
2.990000000000000000e+03 6.306247234344482422e+00 -3.772793114185333252e-01 1.926254626596346498e-04 1.268688007257878780e-03 4.383940540719777346e-04 -1.661608403082937002e-04
2.991000000000000000e+03 5.442752361297607422e+00 -3.835102021694183350e-01 -9.048156789503991604e-05 -1.087923883460462093e-03 -3.535216383170336485e-04 -5.445913757284870371e-06
2.992000000000000000e+03 4.552286148071289062e+00 -3.399353623390197754e-01 1.953425817191600800e-04 1.000011339783668518e-03 3.586061648093163967e-04 1.333502877969294786e-04
2.993000000000000000e+03 4.371328830718994141e+00 -8.708365559577941895e-01 -9.991745464503765106e-04 -3.741530235856771469e-04 -4.119982768315821886e-04 -3.794000367633998394e-04
2.994000000000000000e+03 2.785328388214111328e+00 -7.796061038970947266e-01 -7.642241544090211391e-04 3.486929927021265030e-04 -1.246593456016853452e-04 -1.121422159485518932e-03
2.995000000000000000e+03 1.180722951889038086e+00 -3.608860373497009277e-01 1.062227063812315464e-03 -2.761374053079634905e-04 2.358269121032208204e-04 1.546455459902063012e-04
2.996000000000000000e+03 4.099212884902954102e-01 -5.526853203773498535e-01 1.205121770908590406e-05 2.818195498548448086e-04 8.816123590804636478e-05 1.572439941810443997e-04
2.997000000000000000e+03 7.477942705154418945e-01 -1.100885987281799316e+00 -2.844203496351838112e-03 -2.119642740581184626e-04 -9.168503456749022007e-04 -3.450283547863364220e-04
2.998000000000000000e+03 9.597747802734375000e+00 -1.126311540603637695e+00 -5.785559187643229961e-04 -7.209716131910681725e-04 -3.898582654073834419e-04 4.140947421547025442e-04
2.999000000000000000e+03 8.026608467102050781e+00 -1.119147419929504395e+00 -6.028046482242643833e-04 -8.511210326105356216e-04 -4.361777100712060928e-04 2.094051014864817262e-04
3.000000000000000000e+03 7.239610195159912109e+00 -1.117965221405029297e+00 5.991076468490064144e-04 8.280242909677326679e-04 4.281395813450217247e-04 -1.282415323657914996e-04
3.001000000000000000e+03 6.446331024169921875e+00 -1.117279291152954102e+00 -5.256405565887689590e-04 -7.552894530817866325e-04 -3.842790320049971342e-04 6.889276119181886315e-05
3.002000000000000000e+03 5.615375041961669922e+00 -1.123510241508483887e+00 3.059021546505391598e-04 6.232864689081907272e-04 2.787566045299172401e-04 -2.643113111844286323e-05
3.003000000000000000e+03 4.879715442657470703e+00 -1.221276640892028809e+00 3.210243448847904801e-05 -3.132773563265800476e-04 -8.435247582383453846e-05 2.880130195990204811e-04
3.004000000000000000e+03 4.223337173461914062e+00 -1.290901184082031250e+00 8.614964317530393600e-04 8.818077503747190349e-07 2.587134658824652433e-04 9.834179218159988523e-05
3.005000000000000000e+03 3.489140987396240234e+00 -1.263193726539611816e+00 -9.435928659513592720e-04 -1.059096684912219644e-04 -3.148507385049015284e-04 -8.492329507134854794e-04
3.006000000000000000e+03 2.723763942718505859e+00 -1.258556365966796875e+00 6.384723819792270660e-04 5.073033389635384083e-04 3.437327104620635509e-04 1.424661721102893353e-03
3.007000000000000000e+03 1.357383847236633301e+00 -1.202877521514892578e+00 3.348391270264983177e-03 6.334469071589410305e-04 1.194551470689475536e-03 1.804503699531778693e-04
3.008000000000000000e+03 8.769917488098144531e+00 -3.812793791294097900e-01 -2.248837699880823493e-04 -1.090346369892358780e-03 -3.945690114051103592e-04 1.759262522682547569e-04
3.009000000000000000e+03 3.581377506256103516e+00 -7.854385375976562500e-01 8.789084968157112598e-04 2.113320952048525214e-04 3.270721645094454288e-04 6.613509613089263439e-04
3.010000000000000000e+03 3.695749998092651367e+00 -2.822447717189788818e-01 -2.913535572588443756e-04 -9.906595805659890175e-04 -3.846039180643856525e-04 -3.217570483684539795e-04
3.011000000000000000e+03 2.864297151565551758e+00 -2.810497581958770752e-01 4.662483406718820333e-04 7.969551952555775642e-04 3.789610636886209249e-04 3.815891977865248919e-04
3.012000000000000000e+03 1.994235515594482422e+00 -3.319245874881744385e-01 -1.393555430695414543e-04 -3.333639178890734911e-04 -1.418158353772014380e-04 -5.905503639951348305e-04
3.013000000000000000e+03 1.981270551681518555e+00 -1.274680376052856445e+00 -1.140759093686938286e-03 -9.964506607502698898e-04 -6.411629146896302700e-04 -1.341202878393232822e-03
3.014000000000000000e+03 1.973554253578186035e+00 -8.466050028800964355e-01 -9.406883036717772484e-04 -4.698077682405710220e-04 -4.231488273944705725e-04 1.594210625626146793e-03
3.015000000000000000e+03 1.332448291778564453e+01 -3.621845245361328125e-01 -4.454537411220371723e-04 6.237841444090008736e-04 5.349912680685520172e-05 -6.001456131343729794e-05
3.016000000000000000e+03 1.426397991180419922e+01 -1.317608714103698730e+00 1.309625920839607716e-03 6.365788867697119713e-04 5.838614306412637234e-04 7.077156333252787590e-04
3.017000000000000000e+03 1.327361392974853516e+01 -1.248556852340698242e+00 4.700126883108168840e-04 8.937458915170282125e-05 1.678161788731813431e-04 -8.355970494449138641e-04
3.018000000000000000e+03 1.480296707153320312e+01 -1.047354817390441895e+00 -1.043955911882221699e-03 -6.772361812181770802e-04 -5.163575988262891769e-04 -4.946492263115942478e-04
3.019000000000000000e+03 1.356446647644042969e+01 -7.579438090324401855e-01 7.562302635051310062e-04 2.330417046323418617e-04 2.967815962620079517e-04 9.111276594921946526e-04
3.020000000000000000e+03 1.393659019470214844e+01 -3.302382230758666992e-01 -1.359019370283931494e-04 -5.882895784452557564e-04 -2.172574604628607631e-04 -2.989531494677066803e-04
3.021000000000000000e+03 1.449034786224365234e+01 -4.399540424346923828e-01 9.628197876736521721e-04 8.451030007563531399e-04 5.423768307082355022e-04 9.778753155842423439e-04
3.022000000000000000e+03 1.380024147033691406e+01 -1.352263331413269043e+00 -1.699188956990838051e-03 1.996915671043097973e-04 -4.498492053244262934e-04 2.061037957901135087e-04
3.023000000000000000e+03 1.402595424652099609e+01 -9.610455632209777832e-01 -1.701370929367840290e-03 -3.223090607207268476e-04 -6.071039824746549129e-04 -1.213635783642530441e-03
3.024000000000000000e+03 1.185737037658691406e+01 -1.162281751632690430e+00 6.142905913293361664e-04 1.251151988981291652e-04 2.218217414338141680e-04 -3.807637258432805538e-04
3.025000000000000000e+03 1.112013435363769531e+01 -4.102526009082794189e-01 2.235240390291437507e-04 2.719937474466860294e-04 1.486553373979404569e-04 -1.557831710670143366e-04
3.026000000000000000e+03 1.261753940582275391e+01 -4.348734915256500244e-01 2.152072411263361573e-04 -4.421558987814933062e-04 -6.808459875173866749e-05 -2.305264351889491081e-04
3.027000000000000000e+03 1.037124824523925781e+01 -3.971002995967864990e-01 -2.236922300653532147e-04 -5.994113744236528873e-04 -2.469310711603611708e-04 1.782719482434913516e-04
3.028000000000000000e+03 1.036389350891113281e+01 -1.137082934379577637e+00 6.546863587573170662e-04 5.512568750418722630e-04 3.617829643189907074e-04 -5.016407812945544720e-04
3.029000000000000000e+03 1.260408973693847656e+01 -1.174751639366149902e+00 -5.335086607374250889e-04 -9.907919593388214707e-05 -1.897763722809031606e-04 4.662427818402647972e-04
3.030000000000000000e+03 1.111074829101562500e+01 -1.150200366973876953e+00 -7.119748042896389961e-04 -2.763225056696683168e-04 -2.964891900774091482e-04 4.630156618077307940e-04
3.031000000000000000e+03 1.186878871917724609e+01 -4.223687946796417236e-01 -1.780840830178931355e-04 5.401553062256425619e-05 -3.722056499100290239e-05 1.851374836405739188e-04
3.032000000000000000e+03 2.819347190856933594e+01 3.602328872680664062e+01 2.657627868652343750e+01 2.456958770751953125e+00 8.709971427917480469e+00 5.770987987518310547e+00
3.033000000000000000e+03 2.819482040405273438e+01 3.600386810302734375e+01 2.695481300354003906e+01 9.012136459350585938e+00 1.079008483886718750e+01 1.529162883758544922e+01
3.034000000000000000e+03 2.819992446899414062e+01 3.598508071899414062e+01 2.611759567260742188e+01 1.680230140686035156e+01 1.287596893310546875e+01 1.950737571716308594e+01
3.035000000000000000e+03 2.820858955383300781e+01 3.596764373779296875e+01 2.350829887390136719e+01 2.544761466979980469e+01 1.468677425384521484e+01 2.202278327941894531e+01
3.036000000000000000e+03 2.822048187255859375e+01 3.595223236083984375e+01 2.074043083190917969e+01 3.367883300781250000e+01 1.632577896118164062e+01 2.218219184875488281e+01
3.037000000000000000e+03 2.823514747619628906e+01 3.593942642211914062e+01 1.754184341430664062e+01 4.166591644287109375e+01 1.776232719421386719e+01 2.031362724304199219e+01
3.038000000000000000e+03 2.825202560424804688e+01 3.592972183227539062e+01 1.494350528717041016e+01 4.751180267333984375e+01 1.873659324645996094e+01 1.698020935058593750e+01
3.039000000000000000e+03 2.827046966552734375e+01 3.592349243164062500e+01 1.367370414733886719e+01 5.180107879638671875e+01 1.964243507385253906e+01 1.219520854949951172e+01
3.040000000000000000e+03 2.828977394104003906e+01 3.592097091674804688e+01 1.370839691162109375e+01 5.364282226562500000e+01 2.020536613464355469e+01 7.087707519531250000e+00
3.041000000000000000e+03 2.830920028686523438e+01 3.592225265502929688e+01 1.481973457336425781e+01 5.313240814208984375e+01 2.038564300537109375e+01 2.227899074554443359e+00
3.042000000000000000e+03 2.832800483703613281e+01 3.592729568481445312e+01 1.760017013549804688e+01 5.116441726684570312e+01 2.062937545776367188e+01 -1.503951907157897949e+00
3.043000000000000000e+03 2.834546852111816406e+01 3.593590164184570312e+01 2.109949493408203125e+01 4.779339218139648438e+01 2.066786575317382812e+01 -4.090286731719970703e+00
3.044000000000000000e+03 2.836091995239257812e+01 3.594774627685546875e+01 2.435395812988281250e+01 4.383444976806640625e+01 2.045652198791503906e+01 -5.199700832366943359e+00
3.045000000000000000e+03 2.837377357482910156e+01 3.596236801147460938e+01 2.769540977478027344e+01 4.041417312622070312e+01 2.043287467956542969e+01 -4.774188518524169922e+00
3.046000000000000000e+03 2.838353157043457031e+01 3.597921371459960938e+01 3.055688858032226562e+01 3.752573776245117188e+01 2.042478752136230469e+01 -3.129414081573486328e+00
3.047000000000000000e+03 2.838982582092285156e+01 3.599763870239257812e+01 3.222578811645507812e+01 3.512687683105468750e+01 2.020579910278320312e+01 -7.348758578300476074e-01
3.048000000000000000e+03 2.839241027832031250e+01 3.601693344116210938e+01 3.316571044921875000e+01 3.470142364501953125e+01 2.036013984680175781e+01 2.166424274444580078e+00
3.049000000000000000e+03 2.839118957519531250e+01 3.603636169433593750e+01 3.272918701171875000e+01 3.506174468994140625e+01 2.033728027343750000e+01 5.422564029693603516e+00
3.050000000000000000e+03 2.838620948791503906e+01 3.605518341064453125e+01 3.116815185546875000e+01 3.684205627441406250e+01 2.040306282043457031e+01 8.264353752136230469e+00
3.051000000000000000e+03 2.837766075134277344e+01 3.607267379760742188e+01 2.840316772460937500e+01 3.990210342407226562e+01 2.049158096313476562e+01 1.045611572265625000e+01
3.052000000000000000e+03 2.836587142944335938e+01 3.608816909790039062e+01 2.453966140747070312e+01 4.376053237915039062e+01 2.049005699157714844e+01 1.152811050415039062e+01
3.053000000000000000e+03 2.835128974914550781e+01 3.610106658935546875e+01 2.005812263488769531e+01 4.776832199096679688e+01 2.034793472290039062e+01 1.111399555206298828e+01
3.054000000000000000e+03 2.833447647094726562e+01 3.611088180541992188e+01 1.551531982421875000e+01 5.157759094238281250e+01 2.012787437438964844e+01 8.952475547790527344e+00
3.055000000000000000e+03 2.831607437133789062e+01 3.611723709106445312e+01 1.144515037536621094e+01 5.412217330932617188e+01 1.967019653320312500e+01 5.294544219970703125e+00
3.056000000000000000e+03 2.829678535461425781e+01 3.611988830566406250e+01 8.174557685852050781e+00 5.479702377319335938e+01 1.889147567749023438e+01 4.065323770046234131e-01
3.057000000000000000e+03 2.827735137939453125e+01 3.611872863769531250e+01 6.638894081115722656e+00 5.336495590209960938e+01 1.800115394592285156e+01 -4.864156246185302734e+00
3.058000000000000000e+03 2.825851440429687500e+01 3.611381149291992188e+01 6.165995121002197266e+00 4.934186553955078125e+01 1.665235900878906250e+01 -1.009240722656250000e+01
3.059000000000000000e+03 2.824099540710449219e+01 3.610531997680664062e+01 7.299363613128662109e+00 4.346404266357421875e+01 1.522902107238769531e+01 -1.422930240631103516e+01
3.060000000000000000e+03 2.822546386718750000e+01 3.609358215332031250e+01 8.768128395080566406e+00 3.557359695434570312e+01 1.330251789093017578e+01 -1.704114532470703125e+01
3.061000000000000000e+03 2.821251678466796875e+01 3.607904434204101562e+01 1.148424625396728516e+01 2.706269073486328125e+01 1.156408119201660156e+01 -1.772470664978027344e+01
3.062000000000000000e+03 2.820264625549316406e+01 3.606226348876953125e+01 1.330621433258056641e+01 1.734090042114257812e+01 9.194134712219238281e+00 -1.653548622131347656e+01
3.063000000000000000e+03 2.819623184204101562e+01 3.604388046264648438e+01 1.737267494201660156e+01 7.412796974182128906e+00 7.435641765594482422e+00 -1.013871765136718750e+01
