# el_label, x, y, sXX, sYY, sZZ, sXY
1.000000000000000000e+00 2.203319168090820312e+01 3.631774902343750000e+01 -2.166174352169036865e-01 -1.459608197212219238e+00 -5.028676986694335938e-01 -7.999680042266845703e-01
2.000000000000000000e+00 2.184226989746093750e+01 3.626147842407226562e+01 3.352649509906768799e-01 6.584814190864562988e-01 2.981239259243011475e-01 4.592159092426300049e-01
3.000000000000000000e+00 2.165134620666503906e+01 3.620520401000976562e+01 -3.875004351139068604e-01 -1.677303761243820190e-01 -1.665692329406738281e-01 2.172118425369262695e-02
4.000000000000000000e+00 2.146042442321777344e+01 3.614892959594726562e+01 -5.989953279495239258e-01 1.395445168018341064e-01 -1.378352493047714233e-01 -4.079135507345199585e-02
5.000000000000000000e+00 2.205507659912109375e+01 3.626366424560546875e+01 5.201057434082031250e+00 -3.497885167598724365e-01 1.455380558967590332e+00 2.502426862716674805e+00
6.000000000000000000e+00 2.187874221801757812e+01 3.617133712768554688e+01 1.727079391479492188e+00 7.313821911811828613e-01 7.375384569168090820e-01 1.172384858131408691e+00
7.000000000000000000e+00 2.170240974426269531e+01 3.607901000976562500e+01 1.393219828605651855e+00 8.785535097122192383e-01 6.815320253372192383e-01 1.284102797508239746e+00
8.000000000000000000e+00 2.152607536315917969e+01 3.598667907714843750e+01 9.265003800392150879e-01 4.654406309127807617e-01 4.175823032855987549e-01 7.881135344505310059e-01
9.000000000000000000e+00 2.208706092834472656e+01 3.621487045288085938e+01 5.953091621398925781e+00 3.234714031219482422e+00 2.756341695785522461e+00 5.501080989837646484e+00
1.000000000000000000e+01 2.193204879760742188e+01 3.609001159667968750e+01 3.470130205154418945e+00 2.000252008438110352e+00 1.641114711761474609e+00 3.160024881362915039e+00
1.100000000000000000e+01 2.177703857421875000e+01 3.596515274047851562e+01 2.177248716354370117e+00 1.967455625534057617e+00 1.243411302566528320e+00 2.254898548126220703e+00
1.200000000000000000e+01 2.162202644348144531e+01 3.584029388427734375e+01 1.764237761497497559e+00 1.736195683479309082e+00 1.050130009651184082e+00 1.965620756149291992e+00
1.300000000000000000e+01 2.212792205810546875e+01 3.617322921752929688e+01 5.529435157775878906e+00 7.152950763702392578e+00 3.804715871810913086e+00 7.276322364807128906e+00
1.400000000000000000e+01 2.200015449523925781e+01 3.602060699462890625e+01 3.420471429824829102e+00 4.708130359649658203e+00 2.438580513000488281e+00 4.638633728027343750e+00
1.500000000000000000e+01 2.187238502502441406e+01 3.586798858642578125e+01 2.564924716949462891e+00 3.772348165512084961e+00 1.901181936264038086e+00 3.548528194427490234e+00
1.600000000000000000e+01 2.174461555480957031e+01 3.571536636352539062e+01 1.879909753799438477e+00 3.342783689498901367e+00 1.566807985305786133e+00 2.820302963256835938e+00
1.700000000000000000e+01 2.217610359191894531e+01 3.614032745361328125e+01 4.131775856018066406e+00 1.145294666290283203e+01 4.675416469573974609e+00 7.649326324462890625e+00
1.800000000000000000e+01 2.208045578002929688e+01 3.596577072143554688e+01 2.842184543609619141e+00 7.685752391815185547e+00 3.158380985260009766e+00 5.451016902923583984e+00
1.900000000000000000e+01 2.198480796813964844e+01 3.579121780395507812e+01 2.069756269454956055e+00 6.298776149749755859e+00 2.510559797286987305e+00 4.160573005676269531e+00
2.000000000000000000e+01 2.188915824890136719e+01 3.561666107177734375e+01 1.590381145477294922e+00 5.395458698272705078e+00 2.095752000808715820e+00 3.527232885360717773e+00
2.100000000000000000e+01 2.222976493835449219e+01 3.611742401123046875e+01 2.771380662918090820e+00 1.517987346649169922e+01 5.385376453399658203e+00 6.918743133544921875e+00
2.200000000000000000e+01 2.216988945007324219e+01 3.592759704589843750e+01 1.924628496170043945e+00 1.075372600555419922e+01 3.803506135940551758e+00 5.203666210174560547e+00
2.300000000000000000e+01 2.211001396179199219e+01 3.573777389526367188e+01 1.340195417404174805e+00 8.859103202819824219e+00 3.059789657592773438e+00 4.304981708526611328e+00
2.400000000000000000e+01 2.205013847351074219e+01 3.554795074462890625e+01 9.870435595512390137e-01 7.813878536224365234e+00 2.640276670455932617e+00 3.515717983245849609e+00
2.500000000000000000e+01 2.228685379028320312e+01 3.610539245605468750e+01 1.856270432472229004e+00 1.809676933288574219e+01 5.985912322998046875e+00 5.171693801879882812e+00
2.600000000000000000e+01 2.226503753662109375e+01 3.590755081176757812e+01 1.185449838638305664e+00 1.337137699127197266e+01 4.367047786712646484e+00 4.315498352050781250e+00
2.700000000000000000e+01 2.224322319030761719e+01 3.570970535278320312e+01 6.900486946105957031e-01 1.114764976501464844e+01 3.551309347152709961e+00 3.610462665557861328e+00
2.800000000000000000e+01 2.222140693664550781e+01 3.551185989379882812e+01 3.977417349815368652e-01 9.981457710266113281e+00 3.113759994506835938e+00 3.200699567794799805e+00
2.900000000000000000e+01 2.234519195556640625e+01 3.610469818115234375e+01 1.795927762985229492e+00 1.994206237792968750e+01 6.521397113800048828e+00 2.990534305572509766e+00
3.000000000000000000e+01 2.236227035522460938e+01 3.590638732910156250e+01 8.376168608665466309e-01 1.521722126007080078e+01 4.816451549530029297e+00 2.846992969512939453e+00
3.100000000000000000e+01 2.237934684753417969e+01 3.570808029174804688e+01 4.061875343322753906e-01 1.300648021697998047e+01 4.023800373077392578e+00 2.514854431152343750e+00
3.200000000000000000e+01 2.239642524719238281e+01 3.550976943969726562e+01 1.082761734724044800e-01 1.145785522460937500e+01 3.469839572906494141e+00 2.213449001312255859e+00
3.300000000000000000e+01 2.240255355834960938e+01 3.611535644531250000e+01 2.416464567184448242e+00 2.058341026306152344e+01 6.899962425231933594e+00 7.821144461631774902e-01
3.400000000000000000e+01 2.245787048339843750e+01 3.592415618896484375e+01 1.218333959579467773e+00 1.633407020568847656e+01 5.265721321105957031e+00 1.211371898651123047e+00
3.500000000000000000e+01 2.251318931579589844e+01 3.573295593261718750e+01 5.017470717430114746e-01 1.400798702239990234e+01 4.352920055389404297e+00 1.150322794914245605e+00
3.600000000000000000e+01 2.256850624084472656e+01 3.554175186157226562e+01 2.252527177333831787e-01 1.269302463531494141e+01 3.875483036041259766e+00 9.957572817802429199e-01
3.700000000000000000e+01 2.245674514770507812e+01 3.613697052001953125e+01 3.942448139190673828e+00 2.038509559631347656e+01 7.298262596130371094e+00 -1.031890511512756348e+00
3.800000000000000000e+01 2.254819107055664062e+01 3.596017837524414062e+01 1.991226911544799805e+00 1.650257301330566406e+01 5.548139572143554688e+00 -3.021289408206939697e-01
3.900000000000000000e+01 2.263963699340820312e+01 3.578338623046875000e+01 1.247050166130065918e+00 1.448304939270019531e+01 4.719029903411865234e+00 -1.532988697290420532e-01
4.000000000000000000e+01 2.273108291625976562e+01 3.560659027099609375e+01 6.476834416389465332e-01 1.310966110229492188e+01 4.127203464508056641e+00 -1.136596500873565674e-01
4.100000000000000000e+01 2.250569915771484375e+01 3.616870880126953125e+01 5.516841888427734375e+00 1.945184516906738281e+01 7.490606307983398438e+00 -2.209766864776611328e+00
4.200000000000000000e+01 2.262978172302246094e+01 3.601307678222656250e+01 3.509980201721191406e+00 1.614616394042968750e+01 5.896842956542968750e+00 -1.454744100570678711e+00
4.300000000000000000e+01 2.275386428833007812e+01 3.585744476318359375e+01 2.190605878829956055e+00 1.418457889556884766e+01 4.912555217742919922e+00 -1.092602133750915527e+00
4.400000000000000000e+01 2.287794685363769531e+01 3.570180892944335938e+01 1.595093965530395508e+00 1.307649707794189453e+01 4.401477336883544922e+00 -9.766067266464233398e-01
4.500000000000000000e+01 2.254754638671875000e+01 3.620936584472656250e+01 7.615743160247802734e+00 1.837594795227050781e+01 7.797506809234619141e+00 -2.580019950866699219e+00
4.600000000000000000e+01 2.269952774047851562e+01 3.608083343505859375e+01 4.768137454986572266e+00 1.526538848876953125e+01 6.010057926177978516e+00 -2.118491888046264648e+00
4.700000000000000000e+01 2.285150718688964844e+01 3.595230102539062500e+01 3.835763216018676758e+00 1.355878257751464844e+01 5.218363761901855469e+00 -1.610038280487060547e+00
4.800000000000000000e+01 2.300348854064941406e+01 3.582377243041992188e+01 2.553877592086791992e+00 1.245617961883544922e+01 4.503016948699951172e+00 -1.298490762710571289e+00
4.900000000000000000e+01 2.258068847656250000e+01 3.625738143920898438e+01 9.027967453002929688e+00 1.712330627441406250e+01 7.845381736755371094e+00 -2.465124845504760742e+00
5.000000000000000000e+01 2.275476455688476562e+01 3.616086196899414062e+01 6.433561801910400391e+00 1.442372512817382812e+01 6.257185935974121094e+00 -1.993983149528503418e+00
5.100000000000000000e+01 2.292883872985839844e+01 3.606433868408203125e+01 4.860453128814697266e+00 1.267344188690185547e+01 5.260168552398681641e+00 -1.806578159332275391e+00
5.200000000000000000e+01 2.310291290283203125e+01 3.596781921386718750e+01 4.374283313751220703e+00 1.174666118621826172e+01 4.836283206939697266e+00 -1.309782624244689941e+00
5.300000000000000000e+01 2.260386085510253906e+01 3.631092453002929688e+01 1.029615402221679688e+01 1.631755828857421875e+01 7.984114170074462891e+00 -1.687602043151855469e+00
5.400000000000000000e+01 2.279338264465332031e+01 3.625010299682617188e+01 7.473452568054199219e+00 1.354846382141113281e+01 6.306574821472167969e+00 -1.540635943412780762e+00
5.500000000000000000e+01 2.298290443420410156e+01 3.618927764892578125e+01 5.973897933959960938e+00 1.203822517395019531e+01 5.403636932373046875e+00 -1.290300488471984863e+00
5.600000000000000000e+01 2.317242622375488281e+01 3.612845230102539062e+01 5.024287700653076172e+00 1.109140777587890625e+01 4.834708690643310547e+00 -1.241198658943176270e+00
5.700000000000000000e+01 2.261617469787597656e+01 3.636795425415039062e+01 1.083303260803222656e+01 1.586333465576171875e+01 8.008910179138183594e+00 -7.472571730613708496e-01
5.800000000000000000e+01 2.281390762329101562e+01 3.634514617919921875e+01 8.177644729614257812e+00 1.300869083404541016e+01 6.355900764465332031e+00 -5.900653004646301270e-01
5.900000000000000000e+01 2.301164054870605469e+01 3.632234191894531250e+01 6.504011154174804688e+00 1.172870731353759766e+01 5.469815731048583984e+00 -6.068397164344787598e-01
6.000000000000000000e+01 2.320937347412109375e+01 3.629954147338867188e+01 5.294838428497314453e+00 1.050089073181152344e+01 4.738718509674072266e+00 -3.753294646739959717e-01
6.100000000000000000e+01 2.261716461181640625e+01 3.642628860473632812e+01 1.085420417785644531e+01 1.587738609313964844e+01 8.019476890563964844e+00 4.747668206691741943e-01
6.200000000000000000e+01 2.281555557250976562e+01 3.644237136840820312e+01 8.154292106628417969e+00 1.293591117858886719e+01 6.327060699462890625e+00 2.874439060688018799e-01
6.300000000000000000e+01 2.301394844055175781e+01 3.645845794677734375e+01 6.509382247924804688e+00 1.165882873535156250e+01 5.450463294982910156e+00 4.484390616416931152e-01
6.400000000000000000e+01 2.321234130859375000e+01 3.647454452514648438e+01 5.689304828643798828e+00 1.053369522094726562e+01 4.866899967193603516e+00 1.805147230625152588e-01
6.500000000000000000e+01 2.260679054260253906e+01 3.648369979858398438e+01 1.018879890441894531e+01 1.601301956176757812e+01 7.860545635223388672e+00 1.405220150947570801e+00
6.600000000000000000e+01 2.279826545715332031e+01 3.653806304931640625e+01 7.526781082153320312e+00 1.363005924224853516e+01 6.347052097320556641e+00 1.237878084182739258e+00
6.700000000000000000e+01 2.298974227905273438e+01 3.659242630004882812e+01 6.104471683502197266e+00 1.161688327789306641e+01 5.316406250000000000e+00 1.118150949478149414e+00
6.800000000000000000e+01 2.318121719360351562e+01 3.664678573608398438e+01 5.063765048980712891e+00 1.136539459228515625e+01 4.928748130798339844e+00 8.476539850234985352e-01
6.900000000000000000e+01 2.258544921875000000e+01 3.653800201416015625e+01 9.119325637817382812e+00 1.716088294982910156e+01 7.884062767028808594e+00 2.031153440475463867e+00
7.000000000000000000e+01 2.276269721984863281e+01 3.662856292724609375e+01 6.364904403686523438e+00 1.398029708862304688e+01 6.103560447692871094e+00 1.890518784523010254e+00
7.100000000000000000e+01 2.293994331359863281e+01 3.671912384033203125e+01 5.120381832122802734e+00 1.270111083984375000e+01 5.346447944641113281e+00 1.357029914855957031e+00
7.200000000000000000e+01 2.311719131469726562e+01 3.680968475341796875e+01 3.967817068099975586e+00 1.132181262969970703e+01 4.586888790130615234e+00 1.503903269767761230e+00
7.300000000000000000e+01 2.255395507812500000e+01 3.658711242675781250e+01 7.313061714172363281e+00 1.798764610290527344e+01 7.590212345123291016e+00 2.360131740570068359e+00
7.400000000000000000e+01 2.271020698547363281e+01 3.671041488647460938e+01 5.107280254364013672e+00 1.505999088287353516e+01 6.050181388854980469e+00 1.747873663902282715e+00
7.500000000000000000e+01 2.286645698547363281e+01 3.683371734619140625e+01 3.644234180450439453e+00 1.326719284057617188e+01 5.073428153991699219e+00 1.567540645599365234e+00
7.600000000000000000e+01 2.302270889282226562e+01 3.695702362060546875e+01 3.067855596542358398e+00 1.209251689910888672e+01 4.548111915588378906e+00 1.258653998374938965e+00
7.700000000000000000e+01 2.251350975036621094e+01 3.662916183471679688e+01 5.637132167816162109e+00 1.911790657043457031e+01 7.426511764526367188e+00 1.902123451232910156e+00
7.800000000000000000e+01 2.264279937744140625e+01 3.678049850463867188e+01 3.439680337905883789e+00 1.580547332763671875e+01 5.773546218872070312e+00 1.201124668121337891e+00
7.900000000000000000e+01 2.277208709716796875e+01 3.693183517456054688e+01 2.533067703247070312e+00 1.381407833099365234e+01 4.904143810272216797e+00 1.044421434402465820e+00
8.000000000000000000e+01 2.290137672424316406e+01 3.708317184448242188e+01 1.797460317611694336e+00 1.272854328155517578e+01 4.357800960540771484e+00 8.600255846977233887e-01
8.100000000000000000e+01 2.246566009521484375e+01 3.666254425048828125e+01 3.799594163894653320e+00 1.990043830871582031e+01 7.110010147094726562e+00 7.791724205017089844e-01
8.200000000000000000e+01 2.256304931640625000e+01 3.683613586425781250e+01 2.161254405975341797e+00 1.626948928833007812e+01 5.529222965240478516e+00 1.345348358154296875e-01
8.300000000000000000e+01 2.266043663024902344e+01 3.700972366333007812e+01 1.467189192771911621e+00 1.401562309265136719e+01 4.644843578338623047e+00 -2.737132646143436432e-02
8.400000000000000000e+01 2.275782775878906250e+01 3.718331527709960938e+01 8.355592489242553711e-01 1.268852519989013672e+01 4.057225227355957031e+00 1.203539893031120300e-01
8.500000000000000000e+01 2.241223144531250000e+01 3.668598175048828125e+01 2.420392274856567383e+00 2.020488166809082031e+01 6.787582397460937500e+00 -9.902865290641784668e-01
8.600000000000000000e+01 2.247400093078613281e+01 3.687519836425781250e+01 1.256101727485656738e+00 1.598221302032470703e+01 5.171494483947753906e+00 -1.310809135437011719e+00
8.700000000000000000e+01 2.253577232360839844e+01 3.706441497802734375e+01 7.296318411827087402e-01 1.388965129852294922e+01 4.385785102844238281e+00 -1.337858200073242188e+00
8.800000000000000000e+01 2.259754180908203125e+01 3.725363159179687500e+01 3.748320937156677246e-01 1.215501976013183594e+01 3.758955717086791992e+00 -1.122035741806030273e+00
8.900000000000000000e+01 2.235526657104492188e+01 3.669858169555664062e+01 1.585897803306579590e+00 1.951672172546386719e+01 6.330785751342773438e+00 -3.065548419952392578e+00
9.000000000000000000e+01 2.237905693054199219e+01 3.689619827270507812e+01 9.988073110580444336e-01 1.509392452239990234e+01 4.827819824218750000e+00 -2.965602636337280273e+00
9.100000000000000000e+01 2.240285110473632812e+01 3.709381484985351562e+01 4.104230105876922607e-01 1.288163089752197266e+01 3.987616062164306641e+00 -2.580498456954956055e+00
9.200000000000000000e+01 2.242664337158203125e+01 3.729143142700195312e+01 3.311279416084289551e-01 1.167216205596923828e+01 3.600987195968627930e+00 -2.411283731460571289e+00
9.300000000000000000e+01 2.229693603515625000e+01 3.669986343383789062e+01 1.641141057014465332e+00 1.782857704162597656e+01 5.840915679931640625e+00 -5.219679355621337891e+00
9.400000000000000000e+01 2.228184318542480469e+01 3.689833450317382812e+01 1.216732740402221680e+00 1.339307975769042969e+01 4.382943630218505859e+00 -4.338296413421630859e+00
9.500000000000000000e+01 2.226674842834472656e+01 3.709680557250976562e+01 6.776542067527770996e-01 1.136365604400634766e+01 3.612392902374267578e+00 -3.744800329208374023e+00
9.600000000000000000e+01 2.225165557861328125e+01 3.729527282714843750e+01 5.320914387702941895e-01 1.009671592712402344e+01 3.188642263412475586e+00 -3.248120546340942383e+00
9.700000000000000000e+01 2.223947143554687500e+01 3.668977737426757812e+01 2.593096494674682617e+00 1.520663070678710938e+01 5.339918136596679688e+00 -6.870368957519531250e+00
9.800000000000000000e+01 2.218606758117675781e+01 3.688152313232421875e+01 1.742229461669921875e+00 1.099966144561767578e+01 3.822567224502563477e+00 -5.352357387542724609e+00
9.900000000000000000e+01 2.213266563415527344e+01 3.707326889038085938e+01 1.435326337814331055e+00 9.290918350219726562e+00 3.217873334884643555e+00 -4.320215225219726562e+00
1.000000000000000000e+02 2.207926177978515625e+01 3.726501464843750000e+01 8.059325814247131348e-01 8.153557777404785156e+00 2.687847137451171875e+00 -3.950534582138061523e+00
1.010000000000000000e+02 2.218506622314453125e+01 3.666870880126953125e+01 3.583400726318359375e+00 1.160114288330078125e+01 4.555363178253173828e+00 -7.824662208557128906e+00
1.020000000000000000e+02 2.209539222717285156e+01 3.684640502929687500e+01 2.870465755462646484e+00 8.423185348510742188e+00 3.388095378875732422e+00 -5.505376815795898438e+00
1.030000000000000000e+02 2.200571823120117188e+01 3.702410507202148438e+01 1.915475130081176758e+00 6.733231067657470703e+00 2.594611883163452148e+00 -4.601141452789306641e+00
1.040000000000000000e+02 2.191604423522949219e+01 3.720180130004882812e+01 1.580948233604431152e+00 6.221223354339599609e+00 2.340651512145996094e+00 -3.671006679534912109e+00
1.050000000000000000e+02 2.213579750061035156e+01 3.663745880126953125e+01 5.176861763000488281e+00 8.183455467224121094e+00 4.008095264434814453e+00 -7.455307006835937500e+00
1.060000000000000000e+02 2.201327705383300781e+01 3.679432678222656250e+01 3.302574634552001953e+00 5.311004638671875000e+00 2.584073781967163086e+00 -5.233784198760986328e+00
1.070000000000000000e+02 2.189075660705566406e+01 3.695119094848632812e+01 2.702711820602416992e+00 4.676237106323242188e+00 2.213684558868408203e+00 -3.870023488998413086e+00
1.080000000000000000e+02 2.176823616027832031e+01 3.710805892944335938e+01 1.878245830535888672e+00 3.773964405059814453e+00 1.695663094520568848e+00 -3.336284399032592773e+00
1.090000000000000000e+02 2.209354400634765625e+01 3.659722518920898438e+01 5.596508502960205078e+00 4.271695613861083984e+00 2.960461139678955078e+00 -6.344971656799316406e+00
1.100000000000000000e+02 2.194285774230957031e+01 3.672726821899414062e+01 3.763825416564941406e+00 3.179131507873535156e+00 2.082887172698974609e+00 -3.952011108398437500e+00
1.110000000000000000e+02 2.179216957092285156e+01 3.685731124877929688e+01 2.587386131286621094e+00 2.237227678298950195e+00 1.447384119033813477e+00 -2.997156381607055664e+00
1.120000000000000000e+02 2.164148139953613281e+01 3.698735809326171875e+01 2.077129125595092773e+00 2.508347272872924805e+00 1.375643014907836914e+00 -2.244346857070922852e+00
1.130000000000000000e+02 2.205992507934570312e+01 3.654954147338867188e+01 5.487391948699951172e+00 1.906813263893127441e+00 2.218261480331420898e+00 -4.172574043273925781e+00
1.140000000000000000e+02 2.188682365417480469e+01 3.664779663085937500e+01 2.873229742050170898e+00 7.848566770553588867e-01 1.097425937652587891e+00 -2.509690523147583008e+00
1.150000000000000000e+02 2.171372222900390625e+01 3.674605560302734375e+01 2.142982482910156250e+00 1.289067149162292480e+00 1.029614806175231934e+00 -1.624171733856201172e+00
1.160000000000000000e+02 2.154062080383300781e+01 3.684431076049804688e+01 1.444723725318908691e+00 8.857998251914978027e-01 6.991570591926574707e-01 -1.247714996337890625e+00
1.170000000000000000e+02 2.203622055053710938e+01 3.649623107910156250e+01 3.311664342880249023e+00 -4.391755163669586182e-01 8.617466092109680176e-01 -1.885755062103271484e+00
1.180000000000000000e+02 2.184731483459472656e+01 3.655894851684570312e+01 1.369338750839233398e+00 1.581118702888488770e-01 4.582352042198181152e-01 -8.680908083915710449e-01
1.190000000000000000e+02 2.165841102600097656e+01 3.662166213989257812e+01 4.945587813854217529e-01 1.650827676057815552e-01 1.978924721479415894e-01 -5.526037812232971191e-01
1.200000000000000000e+02 2.146950531005859375e+01 3.668437957763671875e+01 4.917967617511749268e-01 7.758979797363281250e-01 3.803084194660186768e-01 -4.299449920654296875e-01
1.210000000000000000e+02 2.202333450317382812e+01 3.643933105468750000e+01 -2.387078106403350830e-01 -9.016577601432800293e-01 -3.421096801757812500e-01 3.699865937232971191e-01
1.220000000000000000e+02 2.182583999633789062e+01 3.646411132812500000e+01 -1.942758321762084961e+00 -2.557025849819183350e-01 -6.595382690429687500e-01 1.872325316071510315e-02
1.230000000000000000e+02 2.162834548950195312e+01 3.648889160156250000e+01 -1.015105366706848145e+00 4.065352082252502441e-01 -1.825710386037826538e-01 -3.351963162422180176e-01
1.240000000000000000e+02 2.143085098266601562e+01 3.651367187500000000e+01 -1.063714742660522461e+00 -6.341244280338287354e-02 -3.381381630897521973e-01 1.897542625665664673e-01
1.250000000000000000e+02 2.202176094055175781e+01 3.638100814819335938e+01 -7.811649799346923828e+00 -9.571105837821960449e-01 -2.630628108978271484e+00 5.204851627349853516e-01
1.260000000000000000e+02 2.182321929931640625e+01 3.636690902709960938e+01 -3.642454862594604492e+00 4.500084817409515381e-01 -9.577338695526123047e-01 -7.475966215133666992e-01
1.270000000000000000e+02 2.162467575073242188e+01 3.635280609130859375e+01 -3.343478679656982422e+00 -3.101331889629364014e-01 -1.096083641052246094e+00 -2.022237181663513184e-01
1.280000000000000000e+02 2.142613410949707031e+01 3.633870697021484375e+01 -2.662930488586425781e+00 2.212978005409240723e-01 -7.324898242950439453e-01 -2.542219161987304688e-01
1.290000000000000000e+02 2.058279609680175781e+01 3.550613021850585938e+01 9.554067254066467285e-02 -3.129271268844604492e-01 -6.521593779325485229e-02 1.485031377524137497e-02
1.300000000000000000e+02 2.049837875366210938e+01 3.594373703002929688e+01 -3.280108422040939331e-02 -7.612792402505874634e-02 -3.267870098352432251e-02 -4.961262643337249756e-02
1.310000000000000000e+02 2.239289665222167969e+01 3.530685043334960938e+01 -1.042357906699180603e-01 1.058176136016845703e+01 3.143257617950439453e+00 2.111278295516967773e+00
1.320000000000000000e+02 2.312263298034667969e+01 3.570149612426757812e+01 2.081836938858032227e+00 1.153058719635009766e+01 4.083727359771728516e+00 -1.046698093414306641e+00
1.330000000000000000e+02 2.334056091308593750e+01 3.584866714477539062e+01 3.001836538314819336e+00 1.073380565643310547e+01 4.120692729949951172e+00 -1.308027505874633789e+00
1.340000000000000000e+02 2.349158096313476562e+01 3.650739288330078125e+01 4.198295116424560547e+00 9.887789726257324219e+00 4.225825309753417969e+00 2.476190477609634399e-01
1.350000000000000000e+02 2.329562950134277344e+01 3.691361999511718750e+01 3.614050865173339844e+00 1.088563156127929688e+01 4.349904537200927734e+00 1.482904314994812012e+00
1.360000000000000000e+02 2.325886917114257812e+01 3.724081039428710938e+01 1.794186115264892578e+00 1.032816410064697266e+01 3.636705160140991211e+00 6.206870079040527344e-01
1.370000000000000000e+02 2.252034950256347656e+01 3.755057525634765625e+01 -4.589207470417022705e-02 1.027918529510498047e+01 3.069987773895263672e+00 -1.732848882675170898e+00
1.380000000000000000e+02 2.189397621154785156e+01 3.753254699707031250e+01 8.553045988082885742e-01 6.272118568420410156e+00 2.138226985931396484e+00 -2.986108064651489258e+00
1.390000000000000000e+02 2.006314849853515625e+01 3.698123168945312500e+01 -1.194451689720153809e+00 -1.430391669273376465e+00 -7.874529957771301270e-01 1.287628054618835449e+00
1.400000000000000000e+02 2.223369598388671875e+01 3.750437545776367188e+01 2.217649109661579132e-02 9.117014884948730469e+00 2.741757392883300781e+00 -3.316279649734497070e+00
1.410000000000000000e+02 2.134257888793945312e+01 3.589712905883789062e+01 6.888778209686279297e-01 5.497797131538391113e-01 3.715972602367401123e-01 5.586520433425903320e-01
1.420000000000000000e+02 2.124741363525390625e+01 3.559172439575195312e+01 8.757954239845275879e-01 1.200402736663818359e+00 6.228594183921813965e-01 9.047196507453918457e-01
1.430000000000000000e+02 2.159469795227050781e+01 3.556942367553710938e+01 1.418295621871948242e+00 2.907263755798339844e+00 1.297667860984802246e+00 2.341927766799926758e+00
1.440000000000000000e+02 2.228786277770996094e+01 3.495663070678710938e+01 -2.482335120439529419e-01 8.757044792175292969e+00 2.552643537521362305e+00 2.140565633773803711e+00
1.450000000000000000e+02 2.156302452087402344e+01 3.753991699218750000e+01 8.721777200698852539e-01 4.013952255249023438e+00 1.465839028358459473e+00 -2.562015771865844727e+00
1.460000000000000000e+02 2.057239341735839844e+01 3.749910354614257812e+01 -4.491866827011108398e-01 3.005270659923553467e-01 -4.459789395332336426e-02 -1.870729178190231323e-01
1.470000000000000000e+02 2.052951812744140625e+01 3.728482055664062500e+01 -5.407798290252685547e-01 6.487942337989807129e-01 3.240430727601051331e-02 -6.114976131357252598e-04
1.480000000000000000e+02 2.037793922424316406e+01 3.748887634277343750e+01 -6.896303296089172363e-01 7.410683631896972656e-01 1.543140504509210587e-02 -2.718046009540557861e-01
1.490000000000000000e+02 1.961645317077636719e+01 3.737110900878906250e+01 -2.657345294952392578e+00 -1.104885578155517578e+00 -1.128669261932373047e+00 1.492870569229125977e+00
1.500000000000000000e+02 1.976545143127441406e+01 3.725744628906250000e+01 -1.897152900695800781e+00 -1.292420029640197754e+00 -9.568718671798706055e-01 1.573039650917053223e+00
1.510000000000000000e+02 2.040982627868652344e+01 3.642250442504882812e+01 -4.034249186515808105e-01 -3.616559803485870361e-01 -2.295242697000503540e-01 4.079425334930419922e-01
1.520000000000000000e+02 2.045660209655761719e+01 3.619944763183593750e+01 -1.463967561721801758e-01 -8.147077262401580811e-02 -6.836025416851043701e-02 1.105366349220275879e-01
1.530000000000000000e+02 2.104416465759277344e+01 3.653950881958007812e+01 -9.187362194061279297e-01 1.541040092706680298e-01 -2.293896675109863281e-01 5.529649257659912109e-01
1.540000000000000000e+02 2.104240417480468750e+01 3.630178070068359375e+01 -1.565737128257751465e+00 9.748381376266479492e-02 -4.404759705066680908e-01 5.198580026626586914e-02
1.550000000000000000e+02 2.123259735107421875e+01 3.632230377197265625e+01 -2.140336036682128906e+00 -2.535406872630119324e-02 -6.497070193290710449e-01 3.466960508376359940e-03
1.560000000000000000e+02 2.316778182983398438e+01 3.707655334472656250e+01 2.948197126388549805e+00 1.087746238708496094e+01 4.147697925567626953e+00 1.122162818908691406e+00
1.570000000000000000e+02 2.127059936523437500e+01 3.609462738037109375e+01 -6.420583128929138184e-01 -3.410702943801879883e-02 -2.028495967388153076e-01 -1.341720372438430786e-01
1.580000000000000000e+02 2.088587379455566406e+01 3.601218032836914062e+01 -3.799251019954681396e-01 -3.933882340788841248e-02 -1.257791668176651001e-01 -2.111917138099670410e-01
1.590000000000000000e+02 2.147944259643554688e+01 3.512903594970703125e+01 6.750635504722595215e-01 3.600200891494750977e+00 1.282579302787780762e+00 2.089613676071166992e+00
1.600000000000000000e+02 2.278209877014160156e+01 3.534142684936523438e+01 2.528944611549377441e-01 1.220915412902832031e+01 3.738614559173583984e+00 4.438754171133041382e-02
1.610000000000000000e+02 2.342378044128417969e+01 3.628435134887695312e+01 5.317113876342773438e+00 9.897917747497558594e+00 4.564509868621826172e+00 -4.531501829624176025e-01
1.620000000000000000e+02 2.058333587646484375e+01 3.463781738281250000e+01 -6.074100732803344727e-01 1.014980196952819824e+00 1.222710311412811279e-01 -2.696268856525421143e-01
1.630000000000000000e+02 2.073644638061523438e+01 3.577268218994140625e+01 4.973221570253372192e-02 -2.134239375591278076e-01 -4.910751804709434509e-02 -2.319902032613754272e-01
1.640000000000000000e+02 2.084992599487304688e+01 3.627650070190429688e+01 -1.037724971771240234e+00 1.261290013790130615e-01 -2.734787762165069580e-01 1.948048621416091919e-01
1.650000000000000000e+02 2.136166191101074219e+01 3.695178604125976562e+01 1.113462209701538086e+00 1.458844542503356934e+00 7.716920375823974609e-01 -9.240862131118774414e-01
1.660000000000000000e+02 2.092376136779785156e+01 3.578497314453125000e+01 2.496897876262664795e-01 2.247922867536544800e-01 1.423446238040924072e-01 -9.070633351802825928e-02
1.670000000000000000e+02 2.350777626037597656e+01 3.699615859985351562e+01 3.143547296524047852e+00 9.736203193664550781e+00 3.863924980163574219e+00 1.304561734199523926e+00
1.680000000000000000e+02 2.112569999694824219e+01 3.507312393188476562e+01 4.695456922054290771e-01 2.261168479919433594e+00 8.192142844200134277e-01 1.228021860122680664e+00
1.690000000000000000e+02 2.158500862121582031e+01 3.529409790039062500e+01 9.304364919662475586e-01 3.939699888229370117e+00 1.461040854454040527e+00 2.325126171112060547e+00
1.700000000000000000e+02 2.365139770507812500e+01 3.628127670288085938e+01 4.184910297393798828e+00 9.712136268615722656e+00 4.169114112854003906e+00 -1.465300321578979492e-01
1.710000000000000000e+02 2.127870368957519531e+01 3.674259567260742188e+01 1.670185774564743042e-01 3.016892075538635254e-01 1.406123340129852295e-01 -1.374869793653488159e-02
1.720000000000000000e+02 2.289699363708496094e+01 3.549260330200195312e+01 7.890684008598327637e-01 1.248690605163574219e+01 3.982792377471923828e+00 -2.555975019931793213e-01
1.730000000000000000e+02 2.304542732238769531e+01 3.720441436767578125e+01 1.104213833808898926e+00 1.202931880950927734e+01 3.940059900283813477e+00 4.013964831829071045e-01
1.740000000000000000e+02 2.221399688720703125e+01 3.532540130615234375e+01 9.228213876485824585e-02 8.895265579223632812e+00 2.696264266967773438e+00 2.941924095153808594e+00
1.750000000000000000e+02 2.257977104187011719e+01 3.533758544921875000e+01 3.191439434885978699e-02 1.135044002532958984e+01 3.414706230163574219e+00 1.205868840217590332e+00
1.760000000000000000e+02 2.098239517211914062e+01 3.754682540893554688e+01 3.142182528972625732e-01 1.919551253318786621e+00 6.701308488845825195e-01 -1.195021629333496094e+00
1.770000000000000000e+02 2.185355758666992188e+01 3.736240386962890625e+01 1.198474526405334473e+00 5.320024013519287109e+00 1.955549597740173340e+00 -3.506889820098876953e+00
1.780000000000000000e+02 2.274182319641113281e+01 3.750150299072265625e+01 2.971763014793395996e-01 1.113461208343505859e+01 3.429536581039428711e+00 -7.326797246932983398e-01
1.790000000000000000e+02 2.233151435852050781e+01 3.773014831542968750e+01 -2.047160416841506958e-01 9.247159004211425781e+00 2.712733030319213867e+00 -2.321966171264648438e+00
1.800000000000000000e+02 2.083644104003906250e+01 3.559066772460937500e+01 2.748020887374877930e-01 1.599316000938415527e-01 1.304201036691665649e-01 1.401171670295298100e-03
1.810000000000000000e+02 2.344917869567871094e+01 3.606419754028320312e+01 3.817643880844116211e+00 1.027980804443359375e+01 4.229235649108886719e+00 -6.093425750732421875e-01
1.820000000000000000e+02 2.156069946289062500e+01 3.770461273193359375e+01 6.875810027122497559e-01 4.290930747985839844e+00 1.493553519248962402e+00 -2.716411590576171875e+00
1.830000000000000000e+02 2.167802619934082031e+01 3.726606369018554688e+01 1.545831441879272461e+00 4.335740089416503906e+00 1.764471411705017090e+00 -2.919242620468139648e+00
1.840000000000000000e+02 2.298908996582031250e+01 3.559897232055664062e+01 1.342986464500427246e+00 1.269525623321533203e+01 4.211472511291503906e+00 -9.852122068405151367e-01
1.850000000000000000e+02 2.309148597717285156e+01 3.555524826049804688e+01 1.580186963081359863e+00 1.169588565826416016e+01 3.982821702957153320e+00 -8.392211794853210449e-01
1.860000000000000000e+02 2.056304550170898438e+01 3.503649902343750000e+01 -1.446417272090911865e-01 -9.202603995800018311e-02 -7.100033015012741089e-02 1.209857091307640076e-01
1.870000000000000000e+02 2.210944175720214844e+01 3.494723129272460938e+01 -1.564091742038726807e-01 7.946648120880126953e+00 2.337071657180786133e+00 2.321004867553710938e+00
1.880000000000000000e+02 2.147907066345214844e+01 3.488039398193359375e+01 3.331777453422546387e-01 4.097999095916748047e+00 1.329353094100952148e+00 2.047473907470703125e+00
1.890000000000000000e+02 2.191876602172851562e+01 3.494854354858398438e+01 9.495601803064346313e-02 6.512741088867187500e+00 1.982309222221374512e+00 2.708235025405883789e+00
1.900000000000000000e+02 2.137108802795410156e+01 3.766437149047851562e+01 6.338016986846923828e-01 3.609283208847045898e+00 1.272925496101379395e+00 -2.199714660644531250e+00
1.910000000000000000e+02 2.029505538940429688e+01 3.720079803466796875e+01 -8.455594182014465332e-01 -9.797403216361999512e-02 -2.830600440502166748e-01 3.096084892749786377e-01
1.920000000000000000e+02 2.017800521850585938e+01 3.745874786376953125e+01 -1.012886285781860352e+00 -3.690874278545379639e-01 -4.145920872688293457e-01 3.994913995265960693e-01
1.930000000000000000e+02 2.070638084411621094e+01 3.465911483764648438e+01 -1.735252439975738525e-01 1.776368975639343262e+00 4.808531105518341064e-01 7.850769162178039551e-01
1.940000000000000000e+02 1.990480804443359375e+01 3.733231353759765625e+01 -1.791201710700988770e+00 -9.150959253311157227e-01 -8.118892908096313477e-01 9.917845726013183594e-01
1.950000000000000000e+02 2.021699714660644531e+01 3.682887268066406250e+01 -8.953065872192382812e-01 -1.145322203636169434e+00 -6.121886372566223145e-01 1.004707813262939453e+00
1.960000000000000000e+02 1.991684341430664062e+01 3.712729263305664062e+01 -1.717266917228698730e+00 -1.476843476295471191e+00 -9.582331180572509766e-01 1.449580192565917969e+00
1.970000000000000000e+02 2.004823684692382812e+01 3.722204589843750000e+01 -1.318300843238830566e+00 -7.875902056694030762e-01 -6.317672729492187500e-01 8.823212981224060059e-01
1.980000000000000000e+02 2.060416030883789062e+01 3.526524353027343750e+01 6.930235028266906738e-02 -2.451345473527908325e-01 -5.274966359138488770e-02 1.137772276997566223e-01
1.990000000000000000e+02 2.051327323913574219e+01 3.483879852294921875e+01 1.930678337812423706e-01 1.382939666509628296e-01 9.940853714942932129e-02 6.660859286785125732e-02
2.000000000000000000e+02 2.093991851806640625e+01 3.499077224731445312e+01 1.044115275144577026e-01 1.585140466690063477e+00 5.068656206130981445e-01 9.188907146453857422e-01
2.010000000000000000e+02 2.087373924255371094e+01 3.471636581420898438e+01 -1.220056135207414627e-02 1.923048257827758789e+00 5.732542872428894043e-01 9.549516439437866211e-01
2.020000000000000000e+02 2.048812103271484375e+01 3.464415359497070312e+01 -4.920994341373443604e-01 -3.827891051769256592e-01 -2.624665498733520508e-01 -3.814069330692291260e-01
2.030000000000000000e+02 2.107916259765625000e+01 3.604675292968750000e+01 -5.577572584152221680e-01 1.252678502351045609e-02 -1.635691374540328979e-01 -1.825488805770874023e-01
2.040000000000000000e+02 2.065477943420410156e+01 3.624321746826171875e+01 -5.217713117599487305e-01 -2.077791094779968262e-02 -1.627647578716278076e-01 2.292339056730270386e-01
2.050000000000000000e+02 2.062923049926757812e+01 3.649496078491210938e+01 -7.475880980491638184e-01 -1.360411103814840317e-02 -2.283576577901840210e-01 5.996697545051574707e-01
2.060000000000000000e+02 1.979284286499023438e+01 3.741788864135742188e+01 -2.317218542098999023e+00 -8.825458288192749023e-01 -9.599292874336242676e-01 1.134113788604736328e+00
2.070000000000000000e+02 2.118034553527832031e+01 3.761729812622070312e+01 6.155948638916015625e-01 2.790066957473754883e+00 1.021698594093322754e+00 -1.842142224311828613e+00
2.080000000000000000e+02 2.106037902832031250e+01 3.477209854125976562e+01 9.364619851112365723e-02 2.566593647003173828e+00 7.980719804763793945e-01 1.153004169464111328e+00
2.090000000000000000e+02 2.126129722595214844e+01 3.483605194091796875e+01 1.900264322757720947e-01 3.307382583618164062e+00 1.049222707748413086e+00 1.700428724288940430e+00
2.100000000000000000e+02 2.113451957702636719e+01 3.581035995483398438e+01 4.833422899246215820e-01 3.251653015613555908e-01 2.425522804260253906e-01 1.929797828197479248e-01
2.110000000000000000e+02 2.142072677612304688e+01 3.729860687255859375e+01 1.209698438644409180e+00 2.692506074905395508e+00 1.170661330223083496e+00 -1.953804969787597656e+00
2.120000000000000000e+02 2.034004020690917969e+01 3.664306640625000000e+01 -6.378465890884399414e-01 -7.743508815765380859e-01 -4.236592352390289307e-01 7.660717368125915527e-01
2.130000000000000000e+02 2.059466171264648438e+01 3.676546096801757812e+01 -6.430049538612365723e-01 1.789807528257369995e-01 -1.392072588205337524e-01 5.616776943206787109e-01
2.140000000000000000e+02 2.115285491943359375e+01 3.703657531738281250e+01 6.034045219421386719e-01 9.463906288146972656e-01 4.649385511875152588e-01 -6.154136061668395996e-01
2.150000000000000000e+02 2.106041908264160156e+01 3.734023284912109375e+01 3.750033080577850342e-01 1.539527177810668945e+00 5.743591189384460449e-01 -1.018619656562805176e+00
2.160000000000000000e+02 2.126804351806640625e+01 3.524099349975585938e+01 6.592211127281188965e-01 2.463731765747070312e+00 9.368858337402343750e-01 1.496769547462463379e+00
2.170000000000000000e+02 2.103798103332519531e+01 3.541966629028320312e+01 5.516622662544250488e-01 9.881688356399536133e-01 4.619493186473846436e-01 5.357607603073120117e-01
2.180000000000000000e+02 2.090436935424804688e+01 3.520661163330078125e+01 1.787979453802108765e-01 1.082860231399536133e+00 3.784974515438079834e-01 5.725412368774414062e-01
2.190000000000000000e+02 2.053648757934570312e+01 3.699299621582031250e+01 -6.738840937614440918e-01 8.200152218341827393e-02 -1.775647699832916260e-01 4.836095869541168213e-01
2.200000000000000000e+02 2.306911468505859375e+01 3.750098037719726562e+01 6.409776806831359863e-01 1.107619190216064453e+01 3.515150785446166992e+00 2.437780052423477173e-01
2.210000000000000000e+02 1.997689819335937500e+01 3.743985366821289062e+01 -1.238156795501708984e+00 -2.900352776050567627e-01 -4.584576189517974854e-01 1.602571010589599609e-01
2.220000000000000000e+02 2.020218658447265625e+01 3.730929183959960938e+01 -1.016799807548522949e+00 -2.559427022933959961e-01 -3.818227350711822510e-01 2.333143949508666992e-01
2.230000000000000000e+02 2.018356132507324219e+01 3.708968734741210938e+01 -1.108979463577270508e+00 -8.669635057449340820e-01 -5.927829146385192871e-01 7.038362622261047363e-01
2.240000000000000000e+02 2.076131057739257812e+01 3.490477752685546875e+01 5.002766102552413940e-02 1.149526953697204590e+00 3.598663806915283203e-01 5.585294961929321289e-01
2.250000000000000000e+02 2.170791435241699219e+01 3.492011642456054688e+01 2.790907621383666992e-01 5.224421024322509766e+00 1.651053547859191895e+00 2.406561136245727539e+00
2.260000000000000000e+02 2.245205116271972656e+01 3.500755691528320312e+01 -3.822125792503356934e-01 9.525870323181152344e+00 2.743097305297851562e+00 1.870973467826843262e+00
2.270000000000000000e+02 2.233273887634277344e+01 3.512181472778320312e+01 -2.542704343795776367e-01 9.336021423339843750e+00 2.724525451660156250e+00 2.196923732757568359e+00
2.280000000000000000e+02 2.291570854187011719e+01 3.519934844970703125e+01 -1.362562645226716995e-02 1.137439632415771484e+01 3.408231019973754883e+00 3.095885217189788818e-01
2.290000000000000000e+02 2.036371994018554688e+01 3.732802581787109375e+01 -9.400761723518371582e-01 3.809186071157455444e-02 -2.705952823162078857e-01 2.345716506242752075e-01
2.300000000000000000e+02 2.071287918090820312e+01 3.720749282836914062e+01 -3.227160274982452393e-01 4.773713052272796631e-01 4.639658331871032715e-02 -1.153180003166198730e-01
2.310000000000000000e+02 2.077528572082519531e+01 3.750144577026367188e+01 -7.406245172023773193e-02 1.629414081573486328e+00 4.666054844856262207e-01 -7.380179166793823242e-01
2.320000000000000000e+02 2.092265319824218750e+01 3.711112976074218750e+01 8.118952065706253052e-02 1.182690143585205078e+00 3.791638910770416260e-01 -1.933277845382690430e-01
2.330000000000000000e+02 2.121781730651855469e+01 3.743654632568359375e+01 6.802255511283874512e-01 2.613021850585937500e+00 9.879742264747619629e-01 -1.783558130264282227e+00
2.340000000000000000e+02 2.139113044738769531e+01 3.748489761352539062e+01 7.719189524650573730e-01 3.211647987365722656e+00 1.195070028305053711e+00 -2.193700790405273438e+00
2.350000000000000000e+02 2.202378082275390625e+01 3.744739532470703125e+01 5.213362574577331543e-01 8.074159622192382812e+00 2.578648805618286133e+00 -3.144325494766235352e+00
2.360000000000000000e+02 2.175058937072753906e+01 3.773274993896484375e+01 4.067346751689910889e-01 5.544534683227539062e+00 1.785380840301513672e+00 -2.918914318084716797e+00
2.370000000000000000e+02 2.195324707031250000e+01 3.774570465087890625e+01 3.352299928665161133e-01 6.214006423950195312e+00 1.964770913124084473e+00 -2.979190349578857422e+00
2.380000000000000000e+02 2.171927070617675781e+01 3.754914093017578125e+01 9.066492319107055664e-01 5.021735668182373047e+00 1.778515577316284180e+00 -3.206358671188354492e+00
2.390000000000000000e+02 2.084220504760742188e+01 3.653176879882812500e+01 -8.220556974411010742e-01 3.184517920017242432e-01 -1.510811746120452881e-01 5.543251633644104004e-01
2.400000000000000000e+02 2.123783874511718750e+01 3.653236770629882812e+01 -9.229331612586975098e-01 4.709554910659790039e-01 -1.355933099985122681e-01 2.086342722177505493e-01
2.410000000000000000e+02 2.107530593872070312e+01 3.678598403930664062e+01 -1.071574464440345764e-01 8.264884352684020996e-01 2.157993018627166748e-01 1.433388441801071167e-01
2.420000000000000000e+02 2.069355010986328125e+01 3.598006057739257812e+01 -1.581062972545623779e-01 -8.456579595804214478e-02 -7.280162721872329712e-02 -1.547553241252899170e-01
2.430000000000000000e+02 2.053337860107421875e+01 3.572809982299804688e+01 9.304521605372428894e-03 -2.423915714025497437e-01 -6.992611289024353027e-02 -8.031572401523590088e-02
2.440000000000000000e+02 2.145142173767089844e+01 3.571925735473632812e+01 1.340957403182983398e+00 1.407644033432006836e+00 8.245804309844970703e-01 1.394655585289001465e+00
2.450000000000000000e+02 2.142074775695800781e+01 3.542162704467773438e+01 1.089327692985534668e+00 2.517592430114746094e+00 1.082076072692871094e+00 1.770424485206604004e+00
2.460000000000000000e+02 2.175339126586914062e+01 3.544491195678710938e+01 1.118501424789428711e+00 4.640672683715820312e+00 1.727752208709716797e+00 2.948313236236572266e+00
2.470000000000000000e+02 2.190638923645019531e+01 3.533087921142578125e+01 6.655035018920898438e-01 6.366304397583007812e+00 2.109542369842529297e+00 3.139539718627929688e+00
2.480000000000000000e+02 2.150174713134765625e+01 3.712738037109375000e+01 1.412159442901611328e+00 2.082029819488525391e+00 1.048256874084472656e+00 -1.957199692726135254e+00
2.490000000000000000e+02 2.160727310180664062e+01 3.740279769897460938e+01 1.191935658454895020e+00 3.860865354537963867e+00 1.515840291976928711e+00 -2.784513711929321289e+00
2.500000000000000000e+02 2.289957809448242188e+01 3.733977127075195312e+01 7.945408821105957031e-01 1.237176418304443359e+01 3.949891567230224609e+00 4.220144748687744141e-01
2.510000000000000000e+02 2.344980239868164062e+01 3.671732330322265625e+01 3.694792985916137695e+00 9.848636627197265625e+00 4.063028812408447266e+00 9.478970766067504883e-01
2.520000000000000000e+02 2.332736206054687500e+01 3.555634307861328125e+01 2.066823720932006836e+00 1.071725177764892578e+01 3.835222721099853516e+00 -1.192652225494384766e+00
2.530000000000000000e+02 2.261561965942382812e+01 3.514640808105468750e+01 -2.573671340942382812e-01 1.037152767181396484e+01 3.034248113632202148e+00 1.147862553596496582e+00
2.540000000000000000e+02 2.203579330444335938e+01 3.521599960327148438e+01 3.389937877655029297e-01 7.582896232604980469e+00 2.376566886901855469e+00 2.790515661239624023e+00
2.550000000000000000e+02 2.084981727600097656e+01 3.681064224243164062e+01 -4.742918610572814941e-01 2.397619187831878662e-01 -7.035898417234420776e-02 4.917671084403991699e-01
2.560000000000000000e+02 2.168790626525878906e+01 3.515768051147460938e+01 6.797203421592712402e-01 5.007034778594970703e+00 1.706026554107666016e+00 2.526423692703247070e+00
2.570000000000000000e+02 2.033982276916503906e+01 3.697751617431640625e+01 -6.768631935119628906e-01 -1.855417937040328979e-01 -2.587215006351470947e-01 5.657976269721984863e-01
2.580000000000000000e+02 2.042857360839843750e+01 3.711952972412109375e+01 -8.690202236175537109e-01 3.567141667008399963e-02 -2.500046491622924805e-01 4.835159778594970703e-01
2.590000000000000000e+02 2.064245605468750000e+01 3.477457427978515625e+01 -2.799482345581054688e-01 5.716825127601623535e-01 8.752027899026870728e-02 7.479692250490188599e-02
2.600000000000000000e+02 2.217105484008789062e+01 3.514758682250976562e+01 5.465962365269660950e-02 8.434265136718750000e+00 2.546677350997924805e+00 2.516614198684692383e+00
2.610000000000000000e+02 2.122416687011718750e+01 3.725939178466796875e+01 8.010784983634948730e-01 1.961200594902038574e+00 8.286837339401245117e-01 -1.257254481315612793e+00
2.620000000000000000e+02 2.068776321411132812e+01 3.418286514282226562e+01 2.512151002883911133e-01 2.477413892745971680e+00 8.185886740684509277e-01 8.183960914611816406e-01
2.630000000000000000e+02 2.185444259643554688e+01 3.394074630737304688e+01 -4.076381623744964600e-01 6.335649490356445312e+00 1.778403401374816895e+00 1.448456287384033203e+00
2.640000000000000000e+02 2.210701179504394531e+01 3.471550369262695312e+01 -5.092528462409973145e-01 7.483015060424804688e+00 2.092128753662109375e+00 2.308533191680908203e+00
2.650000000000000000e+02 2.311230278015136719e+01 3.471527862548828125e+01 -3.359992802143096924e-01 1.013460731506347656e+01 2.939582347869873047e+00 2.189357429742813110e-01
2.660000000000000000e+02 2.403288459777832031e+01 3.547433471679687500e+01 1.777497053146362305e+00 9.589201927185058594e+00 3.410009622573852539e+00 -8.238701820373535156e-01
2.670000000000000000e+02 2.393564987182617188e+01 3.476571655273437500e+01 4.375109076499938965e-01 9.836565971374511719e+00 3.082223176956176758e+00 -6.377736330032348633e-01
2.680000000000000000e+02 2.106405639648437500e+01 2.533235359191894531e+01 -9.763150475919246674e-03 7.511029720306396484e+00 2.250380039215087891e+00 5.633708089590072632e-02
2.690000000000000000e+02 2.629743003845214844e+01 1.821767807006835938e+01 -2.401353046298027039e-02 7.927996635437011719e+00 2.371195077896118164e+00 1.364811360836029053e-01
2.700000000000000000e+02 3.381158065795898438e+01 1.163895702362060547e+01 5.044155940413475037e-02 7.876428604125976562e+00 2.378061056137084961e+00 9.594993293285369873e-02
2.710000000000000000e+02 4.211067962646484375e+01 5.068677425384521484e+00 4.199684411287307739e-02 7.775053977966308594e+00 2.345115184783935547e+00 -1.475449558347463608e-02
2.720000000000000000e+02 4.862641525268554688e+01 -3.373003721237182617e+00 1.375989709049463272e-02 7.726227760314941406e+00 2.321996212005615234e+00 -6.746703386306762695e-02
2.730000000000000000e+02 5.847345733642578125e+01 -7.569936275482177734e+00 -6.731511093676090240e-04 7.740688800811767578e+00 2.322004795074462891e+00 -9.089889377355575562e-02
2.740000000000000000e+02 6.561553192138671875e+01 -1.952995872497558594e+01 -1.509253587573766708e-02 7.793246269226074219e+00 2.333446025848388672e+00 -7.185970246791839600e-02
2.750000000000000000e+02 7.792626190185546875e+01 -3.040238189697265625e+01 -1.733241486363112926e-03 7.958246231079101562e+00 2.386953830718994141e+00 -1.060660369694232941e-02
2.760000000000000000e+02 7.932105255126953125e+01 -2.635833740234375000e+01 -3.638296038843691349e-04 7.956991195678710938e+00 2.386988162994384766e+00 -4.981630016118288040e-03
2.770000000000000000e+02 7.804956054687500000e+01 -2.328476715087890625e+01 3.419594140723347664e-04 7.920823097229003906e+00 2.376349449157714844e+00 -1.401952840387821198e-02
2.780000000000000000e+02 7.935778808593750000e+01 -2.216671752929687500e+01 7.327378843910992146e-04 7.928723812103271484e+00 2.378836870193481445e+00 -5.560092162340879440e-03
2.790000000000000000e+02 7.306616973876953125e+01 -1.195610332489013672e+01 -1.511512207798659801e-03 7.810870170593261719e+00 2.342807531356811523e+00 -5.045855417847633362e-02
2.800000000000000000e+02 6.663483428955078125e+01 -4.894094944000244141e+00 1.343289972282946110e-03 7.758042335510253906e+00 2.327815771102905273e+00 -7.945271581411361694e-02
2.810000000000000000e+02 5.948285675048828125e+01 4.608458518981933594e+00 1.323483511805534363e-02 7.743377685546875000e+00 2.326983690261840820e+00 -8.284159749746322632e-02
2.820000000000000000e+02 4.829559326171875000e+01 7.513125419616699219e+00 2.796292304992675781e-02 7.777399539947509766e+00 2.341608762741088867e+00 -4.698059335350990295e-02
2.830000000000000000e+02 4.092867660522460938e+01 1.520240497589111328e+01 1.358207501471042633e-02 7.876473426818847656e+00 2.367016553878784180e+00 1.148131489753723145e-02
2.840000000000000000e+02 3.458523559570312500e+01 2.496854209899902344e+01 -5.803593993186950684e-02 8.049792289733886719e+00 2.397526979446411133e+00 1.465190853923559189e-02
2.850000000000000000e+02 2.936991500854492188e+01 3.045970726013183594e+01 -7.080835849046707153e-02 8.243279457092285156e+00 2.451741456985473633e+00 -4.866300150752067566e-02
2.860000000000000000e+02 2.614488410949707031e+01 2.515728950500488281e+01 -1.471573859453201294e-01 7.920763015747070312e+00 2.332081794738769531e+00 2.272120565176010132e-01
2.870000000000000000e+02 2.250355911254882812e+01 -3.746761703491210938e+01 3.470340743660926819e-02 6.695762634277343750e+00 2.019139766693115234e+00 -1.513680517673492432e-01
2.880000000000000000e+02 1.643741607666015625e+01 -3.862594604492187500e+01 -6.772611141204833984e-01 7.367181032896041870e-02 -1.810767948627471924e-01 6.134169101715087891e-01
2.890000000000000000e+02 1.916086196899414062e+01 -3.793362426757812500e+01 4.517179429531097412e-01 5.724133968353271484e+00 1.852755665779113770e+00 1.060055375099182129e+00
2.900000000000000000e+02 1.489602375030517578e+01 -4.031051254272460938e+01 4.836845397949218750e-01 5.195887684822082520e-01 3.009819984436035156e-01 -3.120449781417846680e-01
2.910000000000000000e+02 1.453594112396240234e+01 -3.634835433959960938e+01 7.568585127592086792e-02 -4.537244141101837158e-02 9.094023145735263824e-03 2.250955402851104736e-01
2.920000000000000000e+02 1.528288364410400391e+01 -3.752063369750976562e+01 -8.895615935325622559e-01 -2.061163634061813354e-01 -3.287033736705780029e-01 4.108393937349319458e-02
2.930000000000000000e+02 1.258806991577148438e+01 -3.257909011840820312e+01 -4.357719793915748596e-02 -3.313198685646057129e-02 -2.301275543868541718e-02 2.972190640866756439e-02
2.940000000000000000e+02 6.678614616394042969e-01 -2.482037544250488281e+01 5.332467146217823029e-03 3.012088360264897346e-03 2.503366675227880478e-03 5.438931984826922417e-04
2.950000000000000000e+02 6.562269330024719238e-01 -3.045148468017578125e+01 1.201655250042676926e-02 -1.112049678340554237e-03 3.271350869908928871e-03 -5.827178829349577427e-04
2.960000000000000000e+02 6.517793536186218262e-01 -3.185151481628417969e+01 -1.405925024300813675e-02 -5.722999572753906250e-03 -5.934675224125385284e-03 -3.702087327837944031e-03
2.970000000000000000e+02 7.282354235649108887e-01 -3.739294052124023438e+01 -1.795569993555545807e-02 -4.609679058194160461e-02 -1.921574585139751434e-02 -1.023085415363311768e-02
2.980000000000000000e+02 8.511112213134765625e+00 -3.868929672241210938e+01 4.166653379797935486e-02 -1.900956034660339355e-02 6.797092501074075699e-03 -8.829205483198165894e-02
2.990000000000000000e+02 1.198121356964111328e+01 -4.126795196533203125e+01 2.859080433845520020e-01 -4.854726046323776245e-02 7.120823860168457031e-02 -9.419429302215576172e-02
3.000000000000000000e+02 2.116621589660644531e+01 -3.491788482666015625e+01 5.898126959800720215e-01 7.195043087005615234e+00 2.335456848144531250e+00 5.199790596961975098e-01
3.010000000000000000e+02 1.968034934997558594e+01 -2.795621681213378906e+01 -7.969028316438198090e-03 7.272687435150146484e+00 2.179415464401245117e+00 6.201950460672378540e-02
3.020000000000000000e+02 2.152898979187011719e+01 -3.096355247497558594e+01 1.161257624626159668e-01 7.413741111755371094e+00 2.258960008621215820e+00 2.696355879306793213e-01
3.030000000000000000e+02 1.962619590759277344e+01 -3.501261520385742188e+01 3.544960319995880127e-01 8.413549423217773438e+00 2.630413532257080078e+00 7.565081715583801270e-01
3.040000000000000000e+02 1.957795715332031250e+01 -3.647784423828125000e+01 4.276780188083648682e-01 7.436211585998535156e+00 2.359166860580444336e+00 1.084924936294555664e+00
3.050000000000000000e+02 1.965481567382812500e+01 -2.373089408874511719e+01 -5.756593868136405945e-02 6.870224952697753906e+00 2.043797731399536133e+00 1.657043248414993286e-01
3.060000000000000000e+02 1.973667144775390625e+01 -2.094257926940917969e+01 3.864180669188499451e-02 7.064083099365234375e+00 2.130817413330078125e+00 1.913433223962783813e-01
3.070000000000000000e+02 2.114272689819335938e+01 -2.367171859741210938e+01 -8.240003138780593872e-02 7.181495666503906250e+00 2.129728794097900391e+00 1.691758483648300171e-01
3.080000000000000000e+02 2.062338066101074219e+01 -1.397832751274108887e+00 7.028945535421371460e-02 7.838778972625732422e+00 2.372720479965209961e+00 3.272854983806610107e-01
3.090000000000000000e+02 2.033848190307617188e+01 -7.012848377227783203e+00 -2.888653427362442017e-02 7.330457210540771484e+00 2.190471172332763672e+00 1.501108705997467041e-01
3.100000000000000000e+02 2.146810150146484375e+01 -1.139196109771728516e+01 3.541851788759231567e-02 7.737514019012451172e+00 2.331879854202270508e+00 2.415045350790023804e-01
3.110000000000000000e+02 2.568326568603515625e+01 -2.531697654724121094e+01 -3.892402723431587219e-02 7.309591293334960938e+00 2.181200265884399414e+00 1.977814435958862305e-01
3.120000000000000000e+02 3.928967666625976562e+01 -2.893940353393554688e+01 -6.740091741085052490e-02 7.498020648956298828e+00 2.229185819625854492e+00 -3.411198407411575317e-02
3.130000000000000000e+02 4.531356048583984375e+01 -3.812467956542968750e+01 -1.343708634376525879e-01 7.597885131835937500e+00 2.239054203033447266e+00 -2.212736196815967560e-02
3.140000000000000000e+02 5.280264282226562500e+01 -4.102723312377929688e+01 -9.260772913694381714e-02 7.693378925323486328e+00 2.280231237411499023e+00 -6.386522203683853149e-03
3.150000000000000000e+02 4.853084564208984375e+01 -4.058789825439453125e+01 -1.183866411447525024e-01 7.641159534454345703e+00 2.256831884384155273e+00 -8.866914547979831696e-03
3.160000000000000000e+02 6.210234069824218750e+01 -4.062586975097656250e+01 -4.727952927350997925e-02 7.790420532226562500e+00 2.322942256927490234e+00 -9.937528520822525024e-03
3.170000000000000000e+02 5.736738204956054688e+01 -4.098201751708984375e+01 -7.178634405136108398e-02 7.740209102630615234e+00 2.300526857376098633e+00 -5.460283719003200531e-03
3.180000000000000000e+02 5.720145034790039062e+01 -3.078195190429687500e+01 -5.818535014986991882e-02 7.734619140625000000e+00 2.302930116653442383e+00 -5.146469175815582275e-02
3.190000000000000000e+02 5.626022338867187500e+01 -2.802616882324218750e+01 -5.193890258669853210e-02 7.726235389709472656e+00 2.302289009094238281e+00 -6.336981803178787231e-02
3.200000000000000000e+02 5.666558074951171875e+01 -1.349856281280517578e+01 -1.300767157226800919e-02 7.731248855590820312e+00 2.315472364425659180e+00 -8.879783004522323608e-02
3.210000000000000000e+02 5.989611053466796875e+01 -1.108608913421630859e+01 -9.392562322318553925e-03 7.745768070220947266e+00 2.320912599563598633e+00 -8.973737806081771851e-02
3.220000000000000000e+02 5.240757751464843750e+01 -7.115882396697998047e+00 -1.665853633312508464e-04 7.721403598785400391e+00 2.316371202468872070e+00 -8.310703933238983154e-02
3.230000000000000000e+02 4.619894027709960938e+01 -5.927011013031005859e+00 9.155469946563243866e-03 7.709461212158203125e+00 2.315584897994995117e+00 -5.924472957849502563e-02
3.240000000000000000e+02 4.128873443603515625e+01 -2.854285001754760742e+00 2.590912394225597382e-02 7.721151828765869141e+00 2.324118375778198242e+00 -2.506539598107337952e-02
3.250000000000000000e+02 3.695769500732421875e+01 -2.936053276062011719e+00 2.852096036076545715e-02 7.721253871917724609e+00 2.324932336807250977e+00 9.167161770164966583e-03
3.260000000000000000e+02 2.688927841186523438e+01 -1.779847025871276855e+00 -5.565844010561704636e-03 7.791706562042236328e+00 2.335842132568359375e+00 1.339367032051086426e-01
3.270000000000000000e+02 2.055325889587402344e+01 -2.804511785507202148e+00 9.507510811090469360e-02 7.829291343688964844e+00 2.377310037612915039e+00 4.604232013225555420e-01
3.280000000000000000e+02 2.028802680969238281e+01 -9.820521354675292969e+00 8.445884287357330322e-02 7.865355968475341797e+00 2.384944438934326172e+00 2.138422578573226929e-01
3.290000000000000000e+02 1.989254379272460938e+01 -1.679014587402343750e+01 -1.380787417292594910e-02 7.034011840820312500e+00 2.106061220169067383e+00 5.569848418235778809e-01
3.300000000000000000e+02 2.122424697875976562e+01 -1.685659790039062500e+01 -6.839213520288467407e-02 7.332905769348144531e+00 2.179353952407836914e+00 2.910400032997131348e-01
3.310000000000000000e+02 3.220262908935546875e+01 -3.048687744140625000e+01 -1.264311280101537704e-02 7.321294307708740234e+00 2.192595481872558594e+00 2.143989503383636475e-02
3.320000000000000000e+02 3.710972213745117188e+01 -4.049523544311523438e+01 -1.962400823831558228e-01 7.464465618133544922e+00 2.180467605590820312e+00 -1.361304428428411484e-02
3.330000000000000000e+02 4.160615539550781250e+01 -4.010346221923828125e+01 -1.556756198406219482e-01 7.550043582916259766e+00 2.218310356140136719e+00 -1.956478320062160492e-02
3.340000000000000000e+02 1.342439556121826172e+01 -3.554835510253906250e+01 -1.336126923561096191e-01 -6.765913218259811401e-02 -6.038154661655426025e-02 -3.987249732017517090e-02
3.350000000000000000e+02 1.393179988861083984e+01 -3.434415817260742188e+01 -7.556881755590438843e-02 -5.491530895233154297e-02 -3.914523869752883911e-02 5.620937421917915344e-02
3.360000000000000000e+02 1.414995670318603516e+01 -3.301113510131835938e+01 3.970438614487648010e-02 6.872034631669521332e-03 1.397292595356702805e-02 -9.024441242218017578e-03
3.370000000000000000e+02 1.347691440582275391e+01 -2.732325935363769531e+01 -2.113500423729419708e-02 2.506389049813151360e-03 -5.588584579527378082e-03 5.764239933341741562e-03
3.380000000000000000e+02 1.913783907890319824e+00 -1.776857757568359375e+01 5.097666289657354355e-03 4.140236414968967438e-04 1.653507002629339695e-03 -2.912648596975486726e-05
3.390000000000000000e+02 6.632330417633056641e-01 -2.340539932250976562e+01 -4.707740154117345810e-03 2.203883137553930283e-03 -7.511571166105568409e-04 2.166015910916030407e-04
3.400000000000000000e+02 1.440062999725341797e+01 -3.027649688720703125e+01 3.236202895641326904e-02 1.024683844298124313e-02 1.278266031295061111e-02 -8.052483201026916504e-03
3.410000000000000000e+02 1.300792217254638672e+01 -2.993554496765136719e+01 -2.402091398835182190e-02 -9.474719874560832977e-03 -1.004869025200605392e-02 1.013622153550386429e-02
3.420000000000000000e+02 1.424062061309814453e+01 -2.205595588684082031e+01 1.293806731700897217e-02 1.307046622969210148e-03 4.273534286767244339e-03 -2.740008349064737558e-04
3.430000000000000000e+02 1.452376079559326172e+01 -1.348611927032470703e+01 7.701033726334571838e-03 2.006565191550180316e-04 2.370506990700960159e-03 -8.937639649957418442e-04
3.440000000000000000e+02 1.459916687011718750e+01 -6.548714160919189453e+00 -4.715670365840196609e-03 -1.281767763430252671e-04 -1.453154138289391994e-03 9.436536493012681603e-05
3.450000000000000000e+02 1.460039520263671875e+01 -3.859713077545166016e+00 -3.161040134727954865e-03 -4.334449768066406250e-04 -1.078345463611185551e-03 -5.107304314151406288e-04
3.460000000000000000e+02 1.442755222320556641e+01 -2.835243940353393555e+00 2.874683588743209839e-03 2.483375428710132837e-04 9.369063773192465305e-04 1.391950994729995728e-03
3.470000000000000000e+02 1.037267971038818359e+01 -2.583675861358642578e+00 1.029953127726912498e-03 8.641216554678976536e-04 5.682224291376769543e-04 -8.098220569081604481e-04
3.480000000000000000e+02 1.349765586853027344e+01 -1.062040615081787109e+01 -5.910612177103757858e-03 -2.973700175061821938e-04 -1.862394739873707294e-03 8.981965947896242142e-04
3.490000000000000000e+02 1.283969116210937500e+01 -1.880732727050781250e+01 -8.447340689599514008e-03 -2.250168909085914493e-04 -2.601707121357321739e-03 2.558135427534580231e-03
3.500000000000000000e+02 1.340821838378906250e+01 -2.506162452697753906e+01 -1.610802672803401947e-02 -1.599486102350056171e-03 -5.312254186719655991e-03 1.839443575590848923e-03
3.510000000000000000e+02 1.460176563262939453e+01 -2.621053314208984375e+01 -3.144940361380577087e-02 4.415646661072969437e-03 -8.110126480460166931e-03 2.674888120964169502e-03
3.520000000000000000e+02 1.110237598419189453e+01 -1.874930858612060547e+00 1.073621679097414017e-03 5.076082888990640640e-04 4.743689787574112415e-04 -7.948541897349059582e-04
3.530000000000000000e+02 4.232549190521240234e+00 -1.944831848144531250e+00 -6.598439649678766727e-04 -3.710279124788939953e-04 -3.092615806963294744e-04 -1.852684217737987638e-04
3.540000000000000000e+02 1.947290301322937012e+00 -1.060599803924560547e+01 -3.331426065415143967e-03 -2.519052941352128983e-04 -1.074999454431235790e-03 1.214146614074707031e-04
3.550000000000000000e+02 6.410788297653198242e-01 -1.775961875915527344e+01 -3.991887904703617096e-03 4.404627252370119095e-04 -1.065427670255303383e-03 2.211586106568574905e-04
3.560000000000000000e+02 2.411443710327148438e+00 -3.809945297241210938e+01 -9.315733797848224640e-03 -4.619442299008369446e-02 -1.665304787456989288e-02 -2.585743367671966553e-02
3.570000000000000000e+02 2.144552040100097656e+01 -3.619026565551757812e+01 4.865042865276336670e-01 6.799963474273681641e+00 2.185940504074096680e+00 2.062828838825225830e-01
3.580000000000000000e+02 2.636669349670410156e+01 -3.812060546875000000e+01 -2.372615337371826172e-01 7.030157089233398438e+00 2.037868738174438477e+00 -2.012686580419540405e-01
3.590000000000000000e+02 3.228137588500976562e+01 -3.682884216308593750e+01 -1.535506397485733032e-01 7.313704013824462891e+00 2.148046016693115234e+00 -6.738694012165069580e-02
3.600000000000000000e+02 2.963564682006835938e+01 -3.304632186889648438e+01 2.260284312069416046e-02 7.207663059234619141e+00 2.169079780578613281e+00 -1.302140485495328903e-02
3.610000000000000000e+02 1.975642967224121094e+01 -3.083121299743652344e+01 3.148304240312427282e-04 7.564614772796630859e+00 2.269478797912597656e+00 1.112705767154693604e-01
3.620000000000000000e+02 6.061894607543945312e+01 -3.698015975952148438e+01 -5.524374544620513916e-02 7.775312900543212891e+00 2.316020727157592773e+00 -2.361765690147876740e-02
3.630000000000000000e+02 6.633992004394531250e+01 -3.043968772888183594e+01 -2.362662553787231445e-02 7.824622154235839844e+00 2.340298652648925781e+00 -4.429583251476287842e-02
3.640000000000000000e+02 6.589854431152343750e+01 -2.398037910461425781e+01 -1.858087629079818726e-02 7.805891036987304688e+00 2.336193084716796875e+00 -6.251257658004760742e-02
3.650000000000000000e+02 6.705622863769531250e+01 -1.861094284057617188e+01 -1.085037924349308014e-02 7.801159381866455078e+00 2.337092638015747070e+00 -6.899754703044891357e-02
3.660000000000000000e+02 6.699510192871093750e+01 -4.057735061645507812e+01 -2.903366647660732269e-02 7.839255809783935547e+00 2.343066692352294922e+00 -6.353036500513553619e-03
3.670000000000000000e+02 7.065237426757812500e+01 -3.745458221435546875e+01 -1.593871414661407471e-02 7.882395744323730469e+00 2.359937191009521484e+00 -1.485513802617788315e-02
3.680000000000000000e+02 7.132881164550781250e+01 -3.148294639587402344e+01 -1.372196152806282043e-02 7.872796535491943359e+00 2.357722520828247070e+00 -3.269483521580696106e-02
3.690000000000000000e+02 7.251937103271484375e+01 -2.412051582336425781e+01 -5.066270008683204651e-03 7.865578174591064453e+00 2.358153581619262695e+00 -4.211971908807754517e-02
3.700000000000000000e+02 7.793688964843750000e+01 -4.160987472534179688e+01 4.530959762632846832e-03 7.988100528717041016e+00 2.397789478302001953e+00 1.304600737057626247e-03
3.710000000000000000e+02 7.794702148437500000e+01 -3.680941390991210938e+01 -5.069514736533164978e-04 7.980339527130126953e+00 2.393949747085571289e+00 -2.084531122818589211e-03
3.720000000000000000e+02 7.934268188476562500e+01 -3.336410140991210938e+01 8.207958308048546314e-04 7.992529392242431641e+00 2.398005008697509766e+00 -2.976183081045746803e-03
3.730000000000000000e+02 7.811222839355468750e+01 -1.641394805908203125e+01 -8.680638275109231472e-04 7.873106956481933594e+00 2.361671686172485352e+00 -1.597790233790874481e-02
3.740000000000000000e+02 7.936210632324218750e+01 -1.245810127258300781e+01 -4.493029846344143152e-04 7.850155353546142578e+00 2.354911804199218750e+00 -6.417769473046064377e-03
3.750000000000000000e+02 7.286508178710937500e+01 -5.312902450561523438e+00 3.543507773429155350e-05 7.772668361663818359e+00 2.331811189651489258e+00 -5.339336395263671875e-02
3.760000000000000000e+02 6.418886566162109375e+01 1.127768397331237793e+00 6.523184478282928467e-03 7.741752624511718750e+00 2.324482679367065430e+00 -8.259833604097366333e-02
3.770000000000000000e+02 5.911605453491210938e+01 8.648174285888671875e+00 1.628559455275535583e-02 7.747216224670410156e+00 2.329050540924072266e+00 -7.849631458520889282e-02
3.780000000000000000e+02 5.005185317993164062e+01 1.565388298034667969e+01 1.898182742297649384e-02 7.812781810760498047e+00 2.349529027938842773e+00 -5.138362571597099304e-02
3.790000000000000000e+02 4.737757110595703125e+01 2.316326713562011719e+01 2.242472395300865173e-02 7.865027904510498047e+00 2.366235733032226562e+00 -4.811635240912437439e-02
3.800000000000000000e+02 3.466134262084960938e+01 2.968278312683105469e+01 3.024619072675704956e-02 8.082019805908203125e+00 2.433679580688476562e+00 -5.779427289962768555e-02
3.810000000000000000e+02 2.794886016845703125e+01 3.638971328735351562e+01 7.156939506530761719e-01 8.183123588562011719e+00 2.669645309448242188e+00 1.602842211723327637e-01
3.820000000000000000e+02 2.409458923339843750e+01 3.714493179321289062e+01 2.221504688262939453e+00 9.286912918090820312e+00 3.452525377273559570e+00 1.114624142646789551e+00
3.830000000000000000e+02 2.427615547180175781e+01 3.624583053588867188e+01 2.860248565673828125e+00 8.807457923889160156e+00 3.500312089920043945e+00 -1.334934830665588379e-01
3.840000000000000000e+02 7.806208038330078125e+01 -9.544528961181640625e+00 1.010175546980462968e-04 7.818818092346191406e+00 2.345675706863403320e+00 -1.757149584591388702e-02
3.850000000000000000e+02 7.935289764404296875e+01 -5.505696296691894531e+00 1.611009429325349629e-05 7.788934707641601562e+00 2.336685180664062500e+00 -6.787263322621583939e-03
3.860000000000000000e+02 7.287165069580078125e+01 1.573529362678527832e+00 1.119583728723227978e-03 7.734735488891601562e+00 2.320756435394287109e+00 -5.167300254106521606e-02
3.870000000000000000e+02 6.667849731445312500e+01 8.521460533142089844e+00 7.457086350768804550e-03 7.721275329589843750e+00 2.318619728088378906e+00 -7.121021300554275513e-02
3.880000000000000000e+02 5.783611297607421875e+01 1.621065139770507812e+01 2.177337743341922760e-02 7.757627487182617188e+00 2.333820104598999023e+00 -7.049166411161422729e-02
3.890000000000000000e+02 4.191215515136718750e+01 3.128855514526367188e+01 9.147013723850250244e-02 7.944045543670654297e+00 2.410654544830322266e+00 -5.264041572809219360e-02
3.900000000000000000e+02 3.740296173095703125e+01 3.809352111816406250e+01 1.727235615253448486e-01 8.039439201354980469e+00 2.463648796081542969e+00 -3.139235824346542358e-02
3.910000000000000000e+02 3.334635162353515625e+01 3.828719329833984375e+01 1.562893837690353394e-01 8.173477172851562500e+00 2.498929977416992188e+00 6.405547261238098145e-02
3.920000000000000000e+02 7.805542755126953125e+01 -2.603324413299560547e+00 1.504609535913914442e-04 7.762168884277343750e+00 2.328695774078369141e+00 -1.781829632818698883e-02
3.930000000000000000e+02 7.934633636474609375e+01 2.855228662490844727e+00 -2.754979650489985943e-04 7.715485095977783203e+00 2.314562797546386719e+00 -6.582802161574363708e-03
3.940000000000000000e+02 7.268819427490234375e+01 7.142837524414062500e+00 1.405933988280594349e-03 7.705990314483642578e+00 2.312218904495239258e+00 -5.005120858550071716e-02
3.950000000000000000e+02 6.421984863281250000e+01 1.805370521545410156e+01 1.611761562526226044e-02 7.717282295227050781e+00 2.320019960403442383e+00 -6.607118248939514160e-02
3.960000000000000000e+02 5.199707031250000000e+01 3.166341018676757812e+01 5.941336974501609802e-02 7.814280033111572266e+00 2.362107992172241211e+00 -4.871144518256187439e-02
3.970000000000000000e+02 4.234489822387695312e+01 4.070666503906250000e+01 1.460928469896316528e-01 7.939006328582763672e+00 2.425529718399047852e+00 -2.057930827140808105e-02
3.980000000000000000e+02 3.752677917480468750e+01 4.103142929077148438e+01 1.683576703071594238e-01 8.040152549743652344e+00 2.462553024291992188e+00 7.643274497240781784e-03
3.990000000000000000e+02 7.803813171386718750e+01 4.370186805725097656e+00 -1.902777148643508554e-04 7.706456184387207031e+00 2.311879634857177734e+00 -1.706413365900516510e-02
4.000000000000000000e+02 7.935072326660156250e+01 8.434984207153320312e+00 -4.209777980577200651e-04 7.668770790100097656e+00 2.300504922866821289e+00 -6.155474111437797546e-03
4.010000000000000000e+02 7.311271667480468750e+01 1.779595947265625000e+01 3.019660478457808495e-03 7.652351379394531250e+00 2.296611309051513672e+00 -4.098527505993843079e-02
4.020000000000000000e+02 6.511418151855468750e+01 2.400492095947265625e+01 1.731489226222038269e-02 7.701185226440429688e+00 2.315550088882446289e+00 -5.616352334618568420e-02
4.030000000000000000e+02 5.798708343505859375e+01 2.950955581665039062e+01 4.277396202087402344e-02 7.757366657257080078e+00 2.340042114257812500e+00 -5.196446552872657776e-02
4.040000000000000000e+02 5.252355194091796875e+01 4.026861572265625000e+01 9.184022992849349976e-02 7.809133052825927734e+00 2.370291948318481445e+00 -1.683818362653255463e-02
4.050000000000000000e+02 7.803453826904296875e+01 1.136471271514892578e+01 8.871260797604918480e-04 7.653907299041748047e+00 2.296438217163085938e+00 -1.580030843615531921e-02
4.060000000000000000e+02 7.935191345214843750e+01 1.679466056823730469e+01 -7.357505965046584606e-04 7.605144500732421875e+00 2.281322479248046875e+00 -5.251464433968067169e-03
4.070000000000000000e+02 7.241340637207031250e+01 2.473439407348632812e+01 5.344134289771318436e-03 7.631047248840332031e+00 2.290917396545410156e+00 -3.470605611801147461e-02
4.080000000000000000e+02 6.496423339843750000e+01 3.129585456848144531e+01 2.777763642370700836e-02 7.689047336578369141e+00 2.315047502517700195e+00 -3.763449937105178833e-02
4.090000000000000000e+02 5.808287048339843750e+01 3.307090377807617188e+01 4.932410269975662231e-02 7.756914615631103516e+00 2.341871738433837891e+00 -3.876269981265068054e-02
4.100000000000000000e+02 4.735068130493164062e+01 4.025532531738281250e+01 1.150775402784347534e-01 7.864951133728027344e+00 2.394008636474609375e+00 -5.892963148653507233e-03
4.110000000000000000e+02 7.802552795410156250e+01 1.971029853820800781e+01 1.055539003573358059e-03 7.598721504211425781e+00 2.279932975769042969e+00 -1.350289024412631989e-02
4.120000000000000000e+02 7.933488464355468750e+01 2.374719047546386719e+01 9.908474748954176903e-04 7.559818744659423828e+00 2.268242835998535156e+00 -4.854214377701282501e-03
4.130000000000000000e+02 7.328518676757812500e+01 3.068422889709472656e+01 6.868408061563968658e-03 7.606581687927246094e+00 2.284034967422485352e+00 -2.340222336351871490e-02
4.140000000000000000e+02 6.244347000122070312e+01 4.066707992553710938e+01 4.161034151911735535e-02 7.706798076629638672e+00 2.324522495269775391e+00 -8.377536199986934662e-03
4.150000000000000000e+02 5.757366943359375000e+01 4.058760452270507812e+01 6.185216829180717468e-02 7.753817558288574219e+00 2.344700813293457031e+00 -6.579493172466754913e-03
4.160000000000000000e+02 7.506892395019531250e+01 2.407567977905273438e+01 1.186574925668537617e-03 7.608634471893310547e+00 2.282946348190307617e+00 -2.578346617519855499e-02
4.170000000000000000e+02 7.931989288330078125e+01 2.929559898376464844e+01 1.031369552947580814e-03 7.529260158538818359e+00 2.259087324142456055e+00 -3.748239018023014069e-03
4.180000000000000000e+02 7.089971923828125000e+01 3.749289321899414062e+01 1.178509648889303207e-02 7.615654945373535156e+00 2.288232088088989258e+00 -1.259857788681983948e-02
4.190000000000000000e+02 7.933314514160156250e+01 3.207024002075195312e+01 8.713052957318723202e-04 7.518712043762207031e+00 2.255874872207641602e+00 -2.523065079003572464e-03
4.200000000000000000e+02 7.918250274658203125e+01 3.745531082153320312e+01 1.670734258368611336e-03 7.507166862487792969e+00 2.252651214599609375e+00 -8.492758497595787048e-04
4.210000000000000000e+02 7.396733093261718750e+01 3.696135330200195312e+01 6.085608620196580887e-03 7.581758499145507812e+00 2.276353120803833008e+00 -1.104861963540315628e-02
4.220000000000000000e+02 7.723197937011718750e+01 3.836013793945312500e+01 6.941681727766990662e-03 7.534528255462646484e+00 2.262440919876098633e+00 -2.551863901317119598e-03
4.230000000000000000e+02 2.141543006896972656e+01 3.819486618041992188e+01 1.526834070682525635e-01 4.668141841888427734e+00 1.446247458457946777e+00 -2.149942874908447266e+00
4.240000000000000000e+02 2.296266555786132812e+01 3.863943481445312500e+01 -6.194710731506347656e-01 8.551073074340820312e+00 2.379480600357055664e+00 -8.267427682876586914e-01
4.250000000000000000e+02 2.003456830978393555e+00 2.591228675842285156e+01 -4.010347649455070496e-03 1.828425884013995528e-04 -1.148251583799719810e-03 -6.735305651091039181e-04
4.260000000000000000e+02 1.921373367309570312e+00 3.012771224975585938e+01 5.252015311270952225e-03 1.136639621108770370e-03 1.916596433147788048e-03 -1.318622962571680546e-03
4.270000000000000000e+02 4.607221603393554688e+00 3.729776763916015625e+01 2.566007198765873909e-03 -7.653647568076848984e-03 -1.526292064227163792e-03 4.569679498672485352e-03
4.280000000000000000e+02 2.033333778381347656e+00 4.160922241210937500e+01 -7.830036920495331287e-04 -1.274933200329542160e-02 -4.059700760990381241e-03 -3.752085031010210514e-04
4.290000000000000000e+02 1.435288238525390625e+01 3.790914154052734375e+01 -1.711993068456649780e-01 4.638658463954925537e-02 -3.744381666183471680e-02 1.193171590566635132e-01
4.300000000000000000e+02 1.191226673126220703e+01 3.858869552612304688e+01 -3.037107549607753754e-02 -1.059653982520103455e-02 -1.229028496891260147e-02 1.043103337287902832e-01
4.310000000000000000e+02 1.372124767303466797e+01 3.467434692382812500e+01 -5.094847083091735840e-02 -1.222844980657100677e-02 -1.895307749509811401e-02 -4.119965434074401855e-02
4.320000000000000000e+02 1.460972976684570312e+01 2.295248031616210938e+01 -1.860833913087844849e-02 1.335255568847060204e-03 -5.181925371289253235e-03 -3.316508373245596886e-04
4.330000000000000000e+02 1.442951202392578125e+01 1.743262672424316406e+01 -8.993914350867271423e-03 4.164801794104278088e-04 -2.573230070993304253e-03 5.000976962037384510e-04
4.340000000000000000e+02 1.446995067596435547e+01 1.044938087463378906e+01 5.137166939675807953e-03 -1.363958726869896054e-04 1.500231213867664337e-03 8.936617086874321103e-05
4.350000000000000000e+02 1.369168376922607422e+01 1.825773000717163086e+00 7.862604106776416302e-04 1.263313170056790113e-04 2.737775212153792381e-04 6.152340793050825596e-04
4.360000000000000000e+02 1.317500114440917969e+01 1.785006284713745117e+00 -3.962923365179449320e-04 -6.543932249769568443e-04 -3.152056597173213959e-04 -6.184977246448397636e-04
4.370000000000000000e+02 7.034361362457275391e-01 3.453965377807617188e+01 6.217828486114740372e-03 7.151628960855305195e-04 2.079897560179233551e-03 -1.227907254360616207e-03
4.380000000000000000e+02 6.575368046760559082e-01 2.753868675231933594e+01 -3.119130618870258331e-03 2.234183251857757568e-03 -2.654842392075806856e-04 5.926403100602328777e-04
4.390000000000000000e+02 6.307958960533142090e-01 2.043498802185058594e+01 4.275491461157798767e-03 5.476042279042303562e-04 1.446928712539374828e-03 -4.848360840696841478e-04
4.400000000000000000e+02 1.762713193893432617e+00 1.597260284423828125e+01 6.116794422268867493e-03 -1.185806177090853453e-04 1.799464109353721142e-03 -6.086546345613896847e-04
4.410000000000000000e+02 1.189606857299804688e+01 1.186830615997314453e+01 -5.384209565818309784e-03 -2.500147093087434769e-04 -1.690267352387309074e-03 -1.097581465728580952e-03
4.420000000000000000e+02 1.292227745056152344e+01 1.617643356323242188e+01 -8.238620124757289886e-03 5.982341826893389225e-04 -2.292115939781069756e-03 1.582718141435179859e-05
4.430000000000000000e+02 1.184776306152343750e+01 1.911320304870605469e+01 1.039352919906377792e-02 8.029933815123513341e-05 3.142148721963167191e-03 2.400611760094761848e-03
4.440000000000000000e+02 1.350096607208251953e+01 2.439908599853515625e+01 -1.981103979051113129e-02 1.294729881919920444e-03 -5.554893054068088531e-03 -2.326539950445294380e-03
4.450000000000000000e+02 1.364755439758300781e+01 2.570978355407714844e+01 2.320232428610324860e-02 2.071985276415944099e-03 7.582292892038822174e-03 5.134772043675184250e-03
4.460000000000000000e+02 1.228610992431640625e+01 2.944802093505859375e+01 8.895711973309516907e-03 9.663839824497699738e-03 5.567865446209907532e-03 1.177020370960235596e-02
4.470000000000000000e+02 5.804899930953979492e-01 1.481116485595703125e+01 5.618738476186990738e-03 2.448808518238365650e-04 1.759085804224014282e-03 -1.062706112861633301e-03
4.480000000000000000e+02 1.709798455238342285e+00 9.034172058105468750e+00 -3.985227551311254501e-03 -4.842056368943303823e-04 -1.340830000117421150e-03 2.686085645109415054e-04
4.490000000000000000e+02 8.870465278625488281e+00 2.563447713851928711e+00 9.591323323547840118e-04 1.085721771232783794e-03 6.134562427178025246e-04 6.302867550402879715e-04
4.500000000000000000e+02 9.634707450866699219e+00 1.858913660049438477e+00 9.374821092933416367e-04 7.748435018584132195e-04 5.136976833455264568e-04 4.907583352178335190e-04
4.510000000000000000e+02 1.097457051277160645e+00 3.768836498260498047e+00 1.932714367285370827e-03 -1.316045178100466728e-03 1.850007538450881839e-04 2.452331129461526871e-03
4.520000000000000000e+02 5.055030584335327148e-01 6.379909515380859375e+00 3.973179496824741364e-03 3.541517362464219332e-04 1.298199291341006756e-03 -1.348495279671624303e-04
4.530000000000000000e+02 3.709937095642089844e+00 3.730702400207519531e+00 2.003048779442906380e-03 9.364145225845277309e-04 8.818389615043997765e-04 -7.132235332392156124e-04
4.540000000000000000e+02 1.319208908081054688e+01 1.050411701202392578e+01 -5.372415762394666672e-03 2.984475868288427591e-04 -1.522190519608557224e-03 -3.723489644471555948e-04
4.550000000000000000e+02 1.446464538574218750e+01 2.020777702331542969e+01 -1.210343558341264725e-02 2.921070554293692112e-04 -3.543398575857281685e-03 5.439533269964158535e-04
4.560000000000000000e+02 1.530970668792724609e+01 3.128392982482910156e+01 -5.377747863531112671e-02 7.922571152448654175e-03 -1.375647261738777161e-02 1.055186730809509754e-03
4.570000000000000000e+02 1.518846988677978516e+01 2.982617950439453125e+01 4.297849535942077637e-02 5.637607537209987640e-03 1.458483003079891205e-02 4.075071774423122406e-03
4.580000000000000000e+02 1.795659637451171875e+01 3.785234451293945312e+01 -1.617257118225097656e+00 -9.369998425245285034e-02 -5.132871270179748535e-01 -7.410443574190139771e-02
4.590000000000000000e+02 1.802744102478027344e+01 3.874755477905273438e+01 -4.485824406147003174e-01 -8.846646174788475037e-03 -1.372287273406982422e-01 2.017559409141540527e-01
4.600000000000000000e+02 1.887213325500488281e+01 3.912894821166992188e+01 2.072701901197433472e-01 5.720359459519386292e-02 7.934213429689407349e-02 -3.457714021205902100e-01
4.610000000000000000e+02 1.229947280883789062e+01 4.116377639770507812e+01 1.409820169210433960e-01 -7.933633774518966675e-02 1.849370077252388000e-02 5.612487718462944031e-02
4.620000000000000000e+02 1.971713829040527344e+01 3.776263046264648438e+01 -1.320031762123107910e+00 -3.157221972942352295e-01 -4.907262027263641357e-01 2.021860182285308838e-01
4.630000000000000000e+02 2.259820175170898438e+01 3.464938354492187500e+01 -6.678553819656372070e-01 9.253486633300781250e+00 2.575689315795898438e+00 1.386029362678527832e+00
4.640000000000000000e+02 4.090418624877929688e+01 2.233774757385253906e+01 5.930691026151180267e-03 7.934482097625732422e+00 2.382123947143554688e+00 -1.306858938187360764e-02
4.650000000000000000e+02 5.122163391113281250e+01 2.318204879760742188e+01 3.334080800414085388e-02 7.822922706604003906e+00 2.356878995895385742e+00 -6.123256310820579529e-02
4.660000000000000000e+02 5.784125137329101562e+01 2.346726036071777344e+01 3.257022053003311157e-02 7.761072635650634766e+00 2.338092803955078125e+00 -6.288045644760131836e-02
4.670000000000000000e+02 6.724258422851562500e+01 2.922438621520996094e+01 1.638430356979370117e-02 7.668552875518798828e+00 2.305481195449829102e+00 -3.994322568178176880e-02
4.680000000000000000e+02 7.106465911865234375e+01 2.602259635925292969e+01 6.979286670684814453e-03 7.640590190887451172e+00 2.294270992279052734e+00 -3.757091984152793884e-02
4.690000000000000000e+02 6.683885192871093750e+01 3.706119155883789062e+01 2.533022873103618622e-02 7.664920330047607422e+00 2.307075023651123047e+00 -1.948843523859977722e-02
4.700000000000000000e+02 5.785564804077148438e+01 3.679352569580078125e+01 6.215737387537956238e-02 7.755028247833251953e+00 2.345155715942382812e+00 -2.837265096604824066e-02
4.710000000000000000e+02 5.338114929199218750e+01 3.619561004638671875e+01 7.186500728130340576e-02 7.803445339202880859e+00 2.362593173980712891e+00 -2.916798181831836700e-02
4.720000000000000000e+02 3.624036407470703125e+01 3.045040512084960938e+01 6.685738265514373779e-02 8.042348861694335938e+00 2.432761669158935547e+00 -6.770241260528564453e-02
4.730000000000000000e+02 2.891237640380859375e+01 3.435869979858398438e+01 4.582393467426300049e-01 8.168124198913574219e+00 2.587909221649169922e+00 -1.481835842132568359e-01
4.740000000000000000e+02 3.441926574707031250e+01 1.420480537414550781e+01 2.135583572089672089e-02 7.903618812561035156e+00 2.377492427825927734e+00 9.365706890821456909e-02
4.750000000000000000e+02 3.251393127441406250e+01 1.702700424194335938e+01 -1.688445731997489929e-02 7.946965217590332031e+00 2.379024267196655273e+00 1.116603687405586243e-01
4.760000000000000000e+02 4.640075683593750000e+01 1.873545837402343750e+01 2.020167000591754913e-02 7.854658603668212891e+00 2.362457990646362305e+00 -3.227865323424339294e-02
4.770000000000000000e+02 7.245584106445312500e+01 1.911099433898925781e+01 5.287842359393835068e-03 7.651478767395019531e+00 2.297029972076416016e+00 -4.200137779116630554e-02
4.780000000000000000e+02 2.753823471069335938e+01 1.687932395935058594e+01 -1.240690890699625015e-02 7.943858623504638672e+00 2.379435539245605469e+00 1.392927318811416626e-01
4.790000000000000000e+02 2.773623466491699219e+01 9.672941207885742188e+00 8.702085167169570923e-02 7.941084384918212891e+00 2.408431529998779297e+00 1.533263772726058960e-01
4.800000000000000000e+02 2.609147071838378906e+01 3.755565881729125977e+00 1.370455473661422729e-01 7.913178920745849609e+00 2.415067434310913086e+00 1.340930908918380737e-01
4.810000000000000000e+02 3.463378906250000000e+01 4.316847801208496094e+00 7.445485144853591919e-02 7.791288852691650391e+00 2.359723091125488281e+00 4.619806259870529175e-02
4.820000000000000000e+02 3.308978652954101562e+01 4.476012229919433594e+00 8.431275933980941772e-02 7.804996967315673828e+00 2.366792917251586914e+00 6.321554630994796753e-02
4.830000000000000000e+02 3.338752365112304688e+01 9.372258186340332031e+00 7.039054483175277710e-02 7.852625370025634766e+00 2.376904726028442383e+00 9.028191864490509033e-02
4.840000000000000000e+02 2.633571243286132812e+01 1.263212203979492188e+01 3.520276397466659546e-02 7.975672245025634766e+00 2.403262376785278320e+00 1.403856873512268066e-01
4.850000000000000000e+02 4.279115676879882812e+01 7.486847877502441406e+00 3.796997293829917908e-02 7.792663097381591797e+00 2.349189758300781250e+00 -1.294846273958683014e-02
4.860000000000000000e+02 4.074374389648437500e+01 8.453993797302246094e+00 4.264743998646736145e-02 7.808303356170654297e+00 2.355285167694091797e+00 7.425194606184959412e-03
4.870000000000000000e+02 4.963034439086914062e+01 9.225006103515625000e+00 2.510045655071735382e-02 7.780298233032226562e+00 2.341619491577148438e+00 -5.302361026406288147e-02
4.880000000000000000e+02 5.638711547851562500e+01 7.704649448394775391e+00 1.836166344583034515e-02 7.754605770111083984e+00 2.331890106201171875e+00 -7.538407295942306519e-02
4.890000000000000000e+02 6.428302764892578125e+01 8.269796371459960938e+00 9.275051765143871307e-03 7.730294704437255859e+00 2.321871042251586914e+00 -7.631080597639083862e-02
4.900000000000000000e+02 7.219104766845703125e+01 1.144974136352539062e+01 3.916346002370119095e-03 7.687360763549804688e+00 2.307383060455322266e+00 -4.999879747629165649e-02
4.910000000000000000e+02 2.107988929748535156e+01 1.831129646301269531e+01 -6.178733310662209988e-04 7.882094383239746094e+00 2.364442825317382812e+00 2.050162293016910553e-02
4.920000000000000000e+02 2.108009719848632812e+01 1.690371131896972656e+01 -3.903522738255560398e-04 7.927147388458251953e+00 2.378026962280273438e+00 1.957976818084716797e-02
4.930000000000000000e+02 2.107475090026855469e+01 9.863492012023925781e+00 3.181760432198643684e-03 8.181851387023925781e+00 2.455509901046752930e+00 3.326173871755599976e-02
4.940000000000000000e+02 2.100590705871582031e+01 4.217017173767089844e+00 1.480240821838378906e-01 8.792535781860351562e+00 2.682168006896972656e+00 3.985581696033477783e-01
4.950000000000000000e+02 2.104954338073730469e+01 5.630441188812255859e+00 8.364195376634597778e-02 8.691470146179199219e+00 2.632533550262451172e+00 1.607675403356552124e-01
4.960000000000000000e+02 4.626451492309570312e+01 -7.927289009094238281e-01 2.395158074796199799e-02 7.736203193664550781e+00 2.328046321868896484e+00 -5.192889273166656494e-02
4.970000000000000000e+02 4.735657501220703125e+01 3.013830661773681641e+00 2.730279974639415741e-02 7.754003524780273438e+00 2.334391832351684570e+00 -5.214465409517288208e-02
4.980000000000000000e+02 5.760137176513671875e+01 6.775268554687500000e+00 1.543315406888723373e-02 7.749060630798339844e+00 2.329348087310791016e+00 -7.990756630897521973e-02
4.990000000000000000e+02 6.435681152343750000e+01 5.871779441833496094e+00 8.898821659386157990e-03 7.734215736389160156e+00 2.322934389114379883e+00 -7.912105321884155273e-02
5.000000000000000000e+02 7.282827758789062500e+01 4.341900348663330078e+00 1.305228564888238907e-03 7.719858646392822266e+00 2.316349267959594727e+00 -5.080337077379226685e-02
5.010000000000000000e+02 2.107807922363281250e+01 1.267996311187744141e+01 9.937395807355642319e-04 8.061210632324218750e+00 2.418661355972290039e+00 2.211602777242660522e-02
5.020000000000000000e+02 4.050954437255859375e+01 2.583406448364257812e+00 4.440424963831901550e-02 7.760248184204101562e+00 2.341395616531372070e+00 -8.673747070133686066e-03
5.030000000000000000e+02 5.867941665649414062e+01 -1.014278697967529297e+01 -5.274911876767873764e-03 7.741427898406982422e+00 2.320845842361450195e+00 -9.095097333192825317e-02
5.040000000000000000e+02 5.593141937255859375e+01 -5.073257923126220703e+00 4.253103397786617279e-03 7.735527515411376953e+00 2.321934223175048828e+00 -8.843106031417846680e-02
5.050000000000000000e+02 6.430941009521484375e+01 -2.724745035171508789e+00 2.114126691594719887e-03 7.748566627502441406e+00 2.325204133987426758e+00 -8.484651893377304077e-02
5.060000000000000000e+02 7.020943450927734375e+01 -5.484124660491943359e+00 5.122755101183429360e-05 7.767311096191406250e+00 2.330208778381347656e+00 -6.706508994102478027e-02
5.070000000000000000e+02 2.815584564208984375e+01 -2.875428438186645508e+00 -6.225566379725933075e-03 7.763958930969238281e+00 2.327320098876953125e+00 1.213737055659294128e-01
5.080000000000000000e+02 2.726261138916015625e+01 -8.452117919921875000e+00 1.966179348528385162e-03 7.637678146362304688e+00 2.291893243789672852e+00 1.840987652540206909e-01
5.090000000000000000e+02 4.447116088867187500e+01 -2.065103340148925781e+01 -4.775723069906234741e-02 7.620084762573242188e+00 2.271698236465454102e+00 -5.199901759624481201e-02
5.100000000000000000e+02 5.269292449951171875e+01 -3.574163818359375000e+01 -8.181847631931304932e-02 7.689618587493896484e+00 2.282340049743652344e+00 -3.851735964417457581e-02
5.110000000000000000e+02 5.867972183227539062e+01 -3.370226669311523438e+01 -5.719796568155288696e-02 7.751564025878906250e+00 2.308309793472290039e+00 -4.296847060322761536e-02
5.120000000000000000e+02 3.554099273681640625e+01 2.973307669162750244e-01 4.897103831171989441e-02 7.756143569946289062e+00 2.341534376144409180e+00 2.594765648245811462e-02
5.130000000000000000e+02 4.159761428833007812e+01 -1.609547042846679688e+01 -2.980018220841884613e-02 7.623790740966796875e+00 2.278197050094604492e+00 -3.310554847121238708e-02
5.140000000000000000e+02 5.210354232788085938e+01 -2.218147277832031250e+01 -4.472983628511428833e-02 7.691852569580078125e+00 2.294136762619018555e+00 -7.275895029306411743e-02
5.150000000000000000e+02 5.840043258666992188e+01 -2.488808441162109375e+01 -4.106687381863594055e-02 7.742133617401123047e+00 2.310320138931274414e+00 -7.041101902723312378e-02
5.160000000000000000e+02 4.005041885375976562e+01 -1.639191389083862305e+00 3.120640851557254791e-02 7.728154659271240234e+00 2.327808380126953125e+00 -1.719004660844802856e-02
5.170000000000000000e+02 4.490451812744140625e+01 -7.233167648315429688e+00 4.367827437818050385e-03 7.697949409484863281e+00 2.310695171356201172e+00 -5.390231683850288391e-02
5.180000000000000000e+02 5.159123229980468750e+01 -1.438953399658203125e+01 -1.857326738536357880e-02 7.701405525207519531e+00 2.304849624633789062e+00 -8.179323375225067139e-02
5.190000000000000000e+02 5.699215698242187500e+01 -1.634201049804687500e+01 -1.930766180157661438e-02 7.731249809265136719e+00 2.313582658767700195e+00 -8.592727035284042358e-02
5.200000000000000000e+02 6.212420272827148438e+01 -1.282169628143310547e+01 -1.070656161755323410e-02 7.757747173309326172e+00 2.324112176895141602e+00 -8.701602369546890259e-02
5.210000000000000000e+02 6.219519042968750000e+01 -8.002191543579101562e+00 -3.624750301241874695e-03 7.752088069915771484e+00 2.324538946151733398e+00 -8.829651772975921631e-02
5.220000000000000000e+02 7.178684234619140625e+01 -9.406884193420410156e+00 -1.760125509463250637e-03 7.791016101837158203e+00 2.336776733398437500e+00 -5.903680995106697083e-02
5.230000000000000000e+02 2.681017684936523438e+01 -1.190173816680908203e+01 3.870280459523200989e-02 7.541623592376708984e+00 2.274097919464111328e+00 1.695064902305603027e-01
5.240000000000000000e+02 2.671291351318359375e+01 -1.534871292114257812e+01 6.456571165472269058e-03 7.480911731719970703e+00 2.246210336685180664e+00 1.306011378765106201e-01
5.250000000000000000e+02 3.710499954223632812e+01 -2.064780044555664062e+01 -3.831285983324050903e-02 7.540185928344726562e+00 2.250561952590942383e+00 3.189350478351116180e-03
5.260000000000000000e+02 4.167348861694335938e+01 -3.076875305175781250e+01 -1.008134484291076660e-01 7.545003890991210938e+00 2.233257055282592773e+00 -4.558264091610908508e-02
5.270000000000000000e+02 5.433088684082031250e+01 -3.181252861022949219e+01 -6.950151175260543823e-02 7.707775592803955078e+00 2.291482210159301758e+00 -5.262122675776481628e-02
5.280000000000000000e+02 3.483330917358398438e+01 -1.252315044403076172e+01 -1.092625316232442856e-02 7.607875347137451172e+00 2.279084682464599609e+00 3.067413717508316040e-02
5.290000000000000000e+02 4.190112304687500000e+01 -1.292920207977294922e+01 -1.649464108049869537e-02 7.648213386535644531e+00 2.289515733718872070e+00 -3.586239367723464966e-02
5.300000000000000000e+02 5.260894393920898438e+01 -9.923257827758789062e+00 -7.869941182434558868e-03 7.715624332427978516e+00 2.312326192855834961e+00 -8.422958850860595703e-02
5.310000000000000000e+02 7.308889007568359375e+01 -1.947222328186035156e+01 -2.188062528148293495e-03 7.850139617919921875e+00 2.354385614395141602e+00 -4.471804946660995483e-02
5.320000000000000000e+02 7.321710968017578125e+01 -1.844876861572265625e+01 -4.244279116392135620e-03 7.846263408660888672e+00 2.352605819702148438e+00 -4.494350031018257141e-02
5.330000000000000000e+02 2.001328277587890625e+01 -1.540369319915771484e+01 8.629054576158523560e-02 7.580011367797851562e+00 2.299890518188476562e+00 6.150689125061035156e-01
5.340000000000000000e+02 2.880246353149414062e+01 -1.570484066009521484e+01 -1.317203044891357422e-02 7.504244804382324219e+00 2.247321844100952148e+00 1.007304564118385315e-01
5.350000000000000000e+02 3.474336624145507812e+01 -1.565344619750976562e+01 -1.823812350630760193e-02 7.568477153778076172e+00 2.265071868896484375e+00 2.591011300683021545e-02
5.360000000000000000e+02 3.994374465942382812e+01 -1.717678833007812500e+01 -3.148164972662925720e-02 7.601181983947753906e+00 2.270910024642944336e+00 -2.423682436347007751e-02
5.370000000000000000e+02 5.026752853393554688e+01 -1.595657348632812500e+01 -2.817300707101821899e-02 7.687729835510253906e+00 2.297867059707641602e+00 -7.766252756118774414e-02
5.380000000000000000e+02 2.818229866027832031e+01 -2.810364341735839844e+01 7.557959295809268951e-03 7.283602237701416016e+00 2.187347888946533203e+00 1.289531737565994263e-01
5.390000000000000000e+02 3.469590377807617188e+01 -2.645499801635742188e+01 -3.683189302682876587e-02 7.427597999572753906e+00 2.217229843139648438e+00 1.753562502562999725e-02
5.400000000000000000e+02 4.791638183593750000e+01 -2.670450973510742188e+01 -7.100655883550643921e-02 7.643276214599609375e+00 2.271680831909179688e+00 -5.963490158319473267e-02
5.410000000000000000e+02 5.047723388671875000e+01 -2.439604759216308594e+01 -5.445702001452445984e-02 7.673824310302734375e+00 2.285810232162475586e+00 -6.876400858163833618e-02
5.420000000000000000e+02 6.427013397216796875e+01 -2.538520622253417969e+01 -2.592476829886436462e-02 7.794080257415771484e+00 2.330446720123291016e+00 -6.223284825682640076e-02
5.430000000000000000e+02 3.637639236450195312e+01 -3.656956863403320312e+01 -1.652607321739196777e-01 7.433366775512695312e+00 2.180431842803955078e+00 -5.802039057016372681e-02
5.440000000000000000e+02 4.331296539306640625e+01 -3.420016860961914062e+01 -1.172127947211265564e-01 7.567839622497558594e+00 2.235188007354736328e+00 -4.251557588577270508e-02
5.450000000000000000e+02 6.504129028320312500e+01 -3.259013748168945312e+01 -3.151541203260421753e-02 7.815443515777587891e+00 2.335178375244140625e+00 -3.816884756088256836e-02
5.460000000000000000e+02 7.378418731689453125e+01 -3.229061889648437500e+01 -5.965211428701877594e-03 7.911313056945800781e+00 2.371604204177856445e+00 -2.143608406186103821e-02
5.470000000000000000e+02 1.145381259918212891e+01 -3.090187644958496094e+01 -1.996840909123420715e-02 -2.344026416540145874e-02 -1.302260160446166992e-02 2.294889651238918304e-02
5.480000000000000000e+02 1.439962959289550781e+01 -1.767367744445800781e+01 -9.473473764955997467e-03 -2.338473859708756208e-05 -2.849057549610733986e-03 1.518951961770653725e-03
5.490000000000000000e+02 1.162372303009033203e+01 -1.714726257324218750e+01 -7.014209404587745667e-03 -1.066611381247639656e-03 -2.424246165901422501e-03 1.975236460566520691e-03
5.500000000000000000e+02 1.457177543640136719e+01 -1.070481395721435547e+01 6.806312594562768936e-03 1.270215143449604511e-04 2.080000238493084908e-03 -6.287340074777603149e-04
5.510000000000000000e+02 1.242877101898193359e+01 -1.051366806030273438e+01 5.314244423061609268e-03 3.799015830736607313e-04 1.708243740722537041e-03 -9.272683528251945972e-04
5.520000000000000000e+02 6.449019312858581543e-01 -1.066099643707275391e+01 2.790717873722314835e-03 3.527629087329842150e-05 8.477982482872903347e-04 7.068648301356006414e-06
5.530000000000000000e+02 1.314679145812988281e+01 9.110380172729492188e+00 4.812791943550109863e-03 -1.464473025407642126e-04 1.399903325363993645e-03 6.047453498467803001e-04
5.540000000000000000e+02 2.051960945129394531e+01 3.400483703613281250e+01 1.080285906791687012e-01 2.459405422210693359e+00 7.702302336692810059e-01 2.332744598388671875e-01
5.550000000000000000e+02 2.102434158325195312e+01 2.952377319335937500e+01 -2.191680297255516052e-02 6.812165260314941406e+00 2.037074565887451172e+00 1.623095870018005371e-01
5.560000000000000000e+02 2.104059791564941406e+01 2.812971878051757812e+01 -2.259340137243270874e-02 7.142243862152099609e+00 2.135895252227783203e+00 1.101750582456588745e-01
5.570000000000000000e+02 2.234902000427246094e+01 2.382914161682128906e+01 -2.394419722259044647e-02 7.673640727996826172e+00 2.294909000396728516e+00 1.192236095666885376e-01
5.580000000000000000e+02 2.107102966308593750e+01 2.393004226684570312e+01 -2.674533752724528313e-03 7.622293472290039062e+00 2.285885572433471680e+00 4.161594435572624207e-02
5.590000000000000000e+02 2.107777976989746094e+01 2.112177085876464844e+01 -1.302942750044167042e-03 7.775902271270751953e+00 2.332379817962646484e+00 2.693055942654609680e-02
5.600000000000000000e+02 2.237267875671386719e+01 1.541148185729980469e+01 1.071459613740444183e-03 7.969426155090332031e+00 2.391149282455444336e+00 5.725044757127761841e-02
5.610000000000000000e+02 2.107989692687988281e+01 1.549636650085449219e+01 1.968303513422142714e-05 7.970236301422119141e+00 2.391076803207397461e+00 1.894631795585155487e-02
5.620000000000000000e+02 2.107911491394042969e+01 1.408912944793701172e+01 9.735290659591555595e-04 8.014075279235839844e+00 2.404514789581298828e+00 2.015119232237339020e-02
5.630000000000000000e+02 2.236585998535156250e+01 1.117484760284423828e+01 1.016066968441009521e-02 8.099153518676757812e+00 2.432794332504272461e+00 7.583881169557571411e-02
5.640000000000000000e+02 2.107021141052246094e+01 8.453654289245605469e+00 1.083176583051681519e-02 8.270992279052734375e+00 2.484547138214111328e+00 4.819216951727867126e-02
5.650000000000000000e+02 2.106176185607910156e+01 7.042634010314941406e+00 5.840064957737922668e-03 8.394132614135742188e+00 2.519991874694824219e+00 6.712754070758819580e-02
5.660000000000000000e+02 2.223414802551269531e+01 4.066981315612792969e+00 2.354763597249984741e-01 8.202969551086425781e+00 2.531533718109130859e+00 2.638197541236877441e-01
5.670000000000000000e+02 2.090676116943359375e+01 2.803770303726196289e+00 1.020981296896934509e-01 8.347076416015625000e+00 2.534752607345581055e+00 5.980002284049987793e-01
5.680000000000000000e+02 2.077715492248535156e+01 1.397144794464111328e+00 -1.648308150470256805e-02 7.698782920837402344e+00 2.304689884185791016e+00 5.702260136604309082e-01
5.690000000000000000e+02 2.067554664611816406e+01 1.659692497923970222e-04 -8.394973725080490112e-02 7.464624404907226562e+00 2.214202404022216797e+00 3.856434822082519531e-01
5.700000000000000000e+02 2.044907569885253906e+01 -4.213254451751708984e+00 -3.934285417199134827e-02 7.310752868652343750e+00 2.181422948837280273e+00 4.510643184185028076e-01
5.710000000000000000e+02 2.182658386230468750e+01 -2.974125862121582031e+00 6.440027058124542236e-02 7.572797775268554688e+00 2.291159391403198242e+00 2.542514801025390625e-01
5.720000000000000000e+02 2.031912612915039062e+01 -8.414142608642578125e+00 9.387142024934291840e-03 7.629840850830078125e+00 2.291768312454223633e+00 1.240308433771133423e-01
5.730000000000000000e+02 2.017479896545410156e+01 -1.261527919769287109e+01 2.896174974739551544e-02 7.801126003265380859e+00 2.349026441574096680e+00 2.574227154254913330e-01
5.740000000000000000e+02 2.022552871704101562e+01 -1.122224235534667969e+01 -2.303888835012912750e-02 7.681303024291992188e+00 2.297479152679443359e+00 2.757526636123657227e-01
5.750000000000000000e+02 2.140598297119140625e+01 -1.275998210906982422e+01 1.048013791441917419e-01 7.710196018218994141e+00 2.344499111175537109e+00 3.901351094245910645e-01
5.760000000000000000e+02 1.974910545349121094e+01 -1.955550956726074219e+01 -8.551123738288879395e-02 6.756963253021240234e+00 2.001435518264770508e+00 2.434365600347518921e-01
5.770000000000000000e+02 2.120478439331054688e+01 -1.820397758483886719e+01 -1.571990549564361572e-01 7.203835964202880859e+00 2.113991022109985352e+00 2.939856052398681641e-01
5.780000000000000000e+02 1.970299720764160156e+01 -2.233519172668457031e+01 1.296469289809465408e-02 7.050911426544189453e+00 2.119162797927856445e+00 2.284196466207504272e-01
5.790000000000000000e+02 1.965266799926757812e+01 -2.653678703308105469e+01 4.208055324852466583e-03 7.149449348449707031e+00 2.146097183227539062e+00 6.542194634675979614e-02
5.800000000000000000e+02 1.964280319213867188e+01 -2.512959480285644531e+01 -2.537716180086135864e-02 7.011036396026611328e+00 2.095697879791259766e+00 8.510018885135650635e-02
5.810000000000000000e+02 1.972513008117675781e+01 -2.939396476745605469e+01 3.130013868212699890e-02 7.403376102447509766e+00 2.230402946472167969e+00 8.283134549856185913e-02
5.820000000000000000e+02 1.971223449707031250e+01 -3.222842788696289062e+01 3.191193565726280212e-02 7.767229557037353516e+00 2.339742422103881836e+00 1.354646682739257812e-01
5.830000000000000000e+02 2.136727905273437500e+01 -3.239583969116210938e+01 1.814488470554351807e-01 7.520559310913085938e+00 2.310602426528930664e+00 3.912233710289001465e-01
5.840000000000000000e+02 1.431767368316650391e+01 -3.165422058105468750e+01 -3.764808923006057739e-02 2.882634056732058525e-03 -1.042963657528162003e-02 1.138014998286962509e-02
5.850000000000000000e+02 1.456657695770263672e+01 -2.754823493957519531e+01 3.413404151797294617e-02 6.621188949793577194e-03 1.222656853497028351e-02 -4.020584281533956528e-03
5.860000000000000000e+02 1.311267662048339844e+01 -2.381526374816894531e+01 1.493277773261070251e-02 3.329432569444179535e-03 5.478662904351949692e-03 -1.090464298613369465e-03
5.870000000000000000e+02 1.442823314666748047e+01 -2.349204826354980469e+01 -1.790568605065345764e-02 2.098257187753915787e-03 -4.742228891700506210e-03 -6.010978831909596920e-04
5.880000000000000000e+02 1.420540142059326172e+01 -2.055292701721191406e+01 -1.071691513061523438e-02 1.396197825670242310e-03 -2.796215238049626350e-03 3.827656037174165249e-04
5.890000000000000000e+02 1.299674701690673828e+01 -1.743388175964355469e+01 8.091460913419723511e-03 1.220541307702660561e-03 2.793600782752037048e-03 -2.571441931650042534e-03
5.900000000000000000e+02 1.444179344177246094e+01 -1.627563285827636719e+01 8.712310343980789185e-03 5.203333566896617413e-04 2.769793150946497917e-03 -1.375237479805946350e-03
5.910000000000000000e+02 1.458240604400634766e+01 -9.315846443176269531e+00 -6.152065470814704895e-03 -1.209840920637361705e-04 -1.881914911791682243e-03 4.550032026600092649e-04
5.920000000000000000e+02 1.254980945587158203e+01 -1.909694552421569824e+00 7.350421510636806488e-04 4.305721377022564411e-04 3.496842691674828529e-04 -4.901638603769242764e-04
5.930000000000000000e+02 1.301687049865722656e+01 -2.788400888442993164e+00 -5.843540930072776973e-05 1.106130774132907391e-03 3.143086214549839497e-04 -9.232499287463724613e-04
5.940000000000000000e+02 1.428624343872070312e+01 -2.019293069839477539e+00 -1.330608269199728966e-03 -1.369191304547712207e-04 -4.402582126203924417e-04 -1.010082312859594822e-03
5.950000000000000000e+02 1.373836421966552734e+01 -2.024804353713989258e+00 2.137630246579647064e-03 -1.086500196834094822e-04 6.086940993554890156e-04 -5.386327975429594517e-04
5.960000000000000000e+02 1.318039608001708984e+01 -1.968286395072937012e+00 -6.779400864616036415e-04 -7.790541858412325382e-04 -4.370982642285525799e-04 1.044339500367641449e-03
5.970000000000000000e+02 1.183277034759521484e+01 -1.886164188385009766e+00 -1.162284286692738533e-03 -2.849216107279062271e-04 -4.341617459431290627e-04 6.096850847825407982e-04
5.980000000000000000e+02 9.610895156860351562e+00 -1.862789154052734375e+00 8.942931890487670898e-04 7.482872460968792439e-04 4.927741247229278088e-04 -3.971561673097312450e-04
5.990000000000000000e+02 1.036266040802001953e+01 -1.865380048751831055e+00 -9.039539145305752754e-04 -7.248079054988920689e-04 -4.886285751126706600e-04 6.510681705549359322e-04
6.000000000000000000e+02 8.849933624267578125e+00 -1.870526313781738281e+00 -9.757680818438529968e-04 -7.247309549711644650e-04 -5.101497517898678780e-04 2.576585393399000168e-04
6.010000000000000000e+02 7.319578647613525391e+00 -1.895288348197937012e+00 -9.397804969921708107e-04 -6.746239960193634033e-04 -4.843213537242263556e-04 1.084508257918059826e-04
6.020000000000000000e+02 5.775734901428222656e+00 -1.919915080070495605e+00 -5.704813520424067974e-04 -7.877435418777167797e-04 -4.074674798175692558e-04 -1.422135246684774756e-04
6.030000000000000000e+02 3.468269348144531250e+00 -1.957048177719116211e+00 9.269692818634212017e-04 1.031782085192389786e-04 3.090442623943090439e-04 1.129680385929532349e-04
6.040000000000000000e+02 5.002625465393066406e+00 -1.931889295578002930e+00 4.043385561089962721e-04 7.509415736421942711e-04 3.465840418357402086e-04 1.762598840286955237e-04
6.050000000000000000e+02 4.250486373901367188e+00 -2.846369743347167969e+00 8.768106927163898945e-04 6.873430102132260799e-04 4.692460934165865183e-04 4.413808928802609444e-04
6.060000000000000000e+02 2.706739902496337891e+00 -1.979855537414550781e+00 -6.373351207002997398e-04 -3.937127185054123402e-04 -3.093143750447779894e-04 1.467145921196788549e-04
6.070000000000000000e+02 1.946955204010009766e+00 -2.047832727432250977e+00 5.146180628798902035e-04 6.526906508952379227e-04 3.501926257740706205e-04 -5.001769750379025936e-06
6.080000000000000000e+02 1.179583072662353516e+00 -2.134640932083129883e+00 -1.465226756408810616e-03 -4.506521217990666628e-04 -5.747636896558105946e-04 -2.734696900006383657e-04
6.090000000000000000e+02 2.007932186126708984e+00 -4.163354492187500000e+01 1.766041666269302368e-02 -7.161863148212432861e-02 -1.618746481835842133e-02 -5.228191614151000977e-03
6.100000000000000000e+02 3.320397138595581055e+00 -3.909577560424804688e+01 1.238838210701942444e-02 -4.403558745980262756e-02 -9.494162164628505707e-03 -2.036390081048011780e-02
6.110000000000000000e+02 8.996122479438781738e-01 -3.872704696655273438e+01 1.932343840599060059e-02 -5.418385565280914307e-02 -1.045812480151653290e-02 -6.327570299617946148e-04
6.120000000000000000e+02 6.724551320075988770e-01 -3.464247894287109375e+01 -1.366655342280864716e-02 -2.437794767320156097e-02 -1.141335070133209229e-02 -6.467871833592653275e-03
6.130000000000000000e+02 6.594635248184204102e-01 -3.324959564208984375e+01 1.283246371895074844e-02 -1.378202438354492188e-02 -2.848681469913572073e-04 -3.509757574647665024e-03
6.140000000000000000e+02 6.652863025665283203e-01 -2.904861831665039062e+01 -1.095116138458251953e-02 1.807002583518624306e-03 -2.743247663602232933e-03 -2.042114268988370895e-03
6.150000000000000000e+02 6.704050302505493164e-01 -2.764263725280761719e+01 8.246992714703083038e-03 3.111243713647127151e-03 3.407470881938934326e-03 7.568520959466695786e-04
6.160000000000000000e+02 6.710653305053710938e-01 -2.623300552368164062e+01 -6.714425981044769287e-03 2.987595042213797569e-03 -1.118049258366227150e-03 -5.877247313037514687e-04
6.170000000000000000e+02 6.584851145744323730e-01 -2.199100112915039062e+01 4.429666325449943542e-03 1.759825041517615318e-03 1.856847316958010197e-03 2.180489973397925496e-04
6.180000000000000000e+02 6.526330709457397461e-01 -2.057963752746582031e+01 -4.242443945258855820e-03 1.139525673352181911e-03 -9.308755397796630859e-04 3.234121541026979685e-04
6.190000000000000000e+02 1.947524189949035645e+00 -2.057211494445800781e+01 5.731296259909868240e-03 7.462585926987230778e-04 1.943266484886407852e-03 1.805888750823214650e-04
6.200000000000000000e+02 6.365635991096496582e-01 -1.634874153137207031e+01 3.839950077235698700e-03 2.916882513090968132e-04 1.239491510204970837e-03 -2.589572068245615810e-05
6.210000000000000000e+02 6.343848109245300293e-01 -1.493482112884521484e+01 -3.556270385161042213e-03 1.407782838214188814e-04 -1.024647615849971771e-03 9.731591853778809309e-05
6.220000000000000000e+02 6.383609771728515625e-01 -1.351540279388427734e+01 3.259061835706233978e-03 6.043435496394522488e-05 9.958489099517464638e-04 3.926785575458779931e-05
6.230000000000000000e+02 1.902714490890502930e+00 -1.353067016601562500e+01 -4.110040608793497086e-03 9.912684618029743433e-05 -1.203274121508002281e-03 2.307946124346926808e-04
6.240000000000000000e+02 6.196331381797790527e-01 -9.235609054565429688e+00 -2.762716962024569511e-03 -2.448870509397238493e-05 -8.361617219634354115e-04 -9.370153748022858053e-06
6.250000000000000000e+02 5.744246244430541992e-01 -7.815259456634521484e+00 2.741775242611765862e-03 -4.196474037598818541e-05 8.099431288428604603e-04 7.961475057527422905e-05
6.260000000000000000e+02 5.301826596260070801e-01 -6.397799968719482422e+00 -2.644489752128720284e-03 -2.227685035904869437e-05 -8.000300149433314800e-04 -1.551124296383932233e-04
6.270000000000000000e+02 7.483003997802734375e+01 -4.009289932250976562e+01 -3.691633697599172592e-03 7.941197872161865234e+00 2.381251811981201172e+00 -7.963046431541442871e-03
6.280000000000000000e+02 5.323675537109375000e+01 -3.823469924926757812e+01 -9.578585624694824219e-02 7.698050022125244141e+00 2.280679225921630859e+00 -1.892894878983497620e-02
6.290000000000000000e+02 3.227153778076171875e+01 -4.059884643554687500e+01 -2.772759199142456055e-01 7.343810081481933594e+00 2.119960308074951172e+00 -5.126293376088142395e-02
6.300000000000000000e+02 1.127206039428710938e+01 -3.885085296630859375e+01 5.925425887107849121e-02 1.024041101336479187e-01 4.849750921130180359e-02 -1.887205392122268677e-01
6.310000000000000000e+02 7.910241699218750000e+01 4.011499023437500000e+01 1.274132810067385435e-04 7.512718200683593750e+00 2.253853797912597656e+00 2.602166961878538132e-03
6.320000000000000000e+02 7.912492370605468750e+01 3.879512786865234375e+01 1.533274888060986996e-03 7.508768558502197266e+00 2.253090620040893555e+00 1.785884378477931023e-03
6.330000000000000000e+02 7.938595581054687500e+01 3.479287338256835938e+01 1.131462282501161098e-03 7.511694431304931641e+00 2.253847837448120117e+00 -1.357672852464020252e-03
6.340000000000000000e+02 7.804496765136718750e+01 3.349203109741210938e+01 1.442205510102212429e-03 7.532395839691162109e+00 2.260151386260986328e+00 -5.137897096574306488e-03
6.350000000000000000e+02 7.936403656005859375e+01 3.344063568115234375e+01 -5.056282388977706432e-04 7.514721393585205078e+00 2.254264831542968750e+00 -1.951009617187082767e-03
6.360000000000000000e+02 7.931919860839843750e+01 3.068577194213867188e+01 -3.610175626818090677e-04 7.523428440093994141e+00 2.256920099258422852e+00 -2.852909965440630913e-03
6.370000000000000000e+02 7.660020446777343750e+01 2.800448989868164062e+01 1.121063716709613800e-03 7.573252677917480469e+00 2.272312164306640625e+00 -1.606559380888938904e-02
6.380000000000000000e+02 7.933424377441406250e+01 2.651586151123046875e+01 1.055606175214052200e-03 7.543471336364746094e+00 2.263358116149902344e+00 -4.393681418150663376e-03
6.390000000000000000e+02 7.654824066162109375e+01 2.534959411621093750e+01 3.192430885974317789e-04 7.584471225738525391e+00 2.275437116622924805e+00 -1.815008185803890228e-02
6.400000000000000000e+02 7.933599090576171875e+01 2.513261222839355469e+01 -8.136178948916494846e-04 7.551453113555908203e+00 2.265191793441772461e+00 -4.380790982395410538e-03
6.410000000000000000e+02 7.934169006347656250e+01 2.097170639038085938e+01 9.406289900653064251e-04 7.577176094055175781e+00 2.273435115814208984e+00 -5.065778736025094986e-03
6.420000000000000000e+02 7.934566497802734375e+01 1.958163070678710938e+01 -7.920178468339145184e-04 7.586158752441406250e+00 2.275609970092773438e+00 -4.902743734419345856e-03
6.430000000000000000e+02 7.934974670410156250e+01 1.818930816650390625e+01 9.242899250239133835e-04 7.595490455627441406e+00 2.278924465179443359e+00 -5.365682765841484070e-03
6.440000000000000000e+02 7.935225677490234375e+01 1.401102256774902344e+01 -7.101169903762638569e-04 7.625486850738525391e+00 2.287433147430419922e+00 -5.614698864519596100e-03
6.450000000000000000e+02 7.935079956054687500e+01 1.261746120452880859e+01 7.403143099509179592e-04 7.635972499847412109e+00 2.291013956069946289e+00 -5.933140404522418976e-03
6.460000000000000000e+02 7.935060882568359375e+01 1.122431468963623047e+01 -5.400010850280523300e-04 7.646660804748535156e+00 2.293836116790771484e+00 -5.884337238967418671e-03
6.470000000000000000e+02 7.935013580322265625e+01 7.039809226989746094e+00 4.900350468233227730e-04 7.680194854736328125e+00 2.304205417633056641e+00 -6.439773831516504288e-03
6.480000000000000000e+02 7.934822845458984375e+01 5.644363880157470703e+00 -3.326744481455534697e-04 7.691805839538574219e+00 2.307441949844360352e+00 -6.413110997527837753e-03
6.490000000000000000e+02 7.934678649902343750e+01 4.250438690185546875e+00 3.809838381130248308e-04 7.703585624694824219e+00 2.311190128326416016e+00 -6.643011700361967087e-03
6.500000000000000000e+02 7.934887695312500000e+01 7.180050015449523926e-02 -1.921449875226244330e-04 7.739633560180664062e+00 2.321832418441772461e+00 -6.694683805108070374e-03
6.510000000000000000e+02 7.934988403320312500e+01 -1.323048114776611328e+00 1.742732711136341095e-04 7.751852512359619141e+00 2.325608015060424805e+00 -6.813152227550745010e-03
6.520000000000000000e+02 7.805882263183593750e+01 -3.993457078933715820e+00 -1.023765798890963197e-05 7.773528575897216797e+00 2.332055568695068359e+00 -1.773022301495075226e-02
6.530000000000000000e+02 7.935292816162109375e+01 -4.111438751220703125e+00 4.688361877924762666e-05 7.776531696319580078e+00 2.332973480224609375e+00 -6.822091527283191681e-03
6.540000000000000000e+02 7.935287475585937500e+01 -8.287380218505859375e+00 1.352441468043252826e-04 7.813668251037597656e+00 2.344141006469726562e+00 -6.759698968380689621e-03
6.550000000000000000e+02 7.807110595703125000e+01 -1.092700767517089844e+01 -4.660169361159205437e-04 7.829955577850341797e+00 2.348846912384033203e+00 -1.733888313174247742e-02
6.560000000000000000e+02 7.935715484619140625e+01 -1.106858730316162109e+01 2.433700283290818334e-04 7.838141918182373047e+00 2.351515531539916992e+00 -6.630983669310808182e-03
6.570000000000000000e+02 7.936991119384765625e+01 -1.522941780090332031e+01 -6.166675593703985214e-04 7.873781204223632812e+00 2.361949205398559570e+00 -6.128800567239522934e-03
6.580000000000000000e+02 7.811104583740234375e+01 -1.778068733215332031e+01 3.295403439551591873e-04 7.883425712585449219e+00 2.365126609802246094e+00 -1.576534472405910492e-02
6.590000000000000000e+02 7.937083435058593750e+01 -1.800156211853027344e+01 -8.146385080181062222e-04 7.896656990051269531e+00 2.368752717971801758e+00 -5.803844425827264786e-03
6.600000000000000000e+02 7.934928131103515625e+01 -2.355799674987792969e+01 -8.147050975821912289e-04 7.938752174377441406e+00 2.381381273269653320e+00 -5.276403855532407761e-03
6.610000000000000000e+02 7.801128387451171875e+01 -2.468791007995605469e+01 -1.580139854922890663e-03 7.929638862609863281e+00 2.378417730331420898e+00 -1.383281778544187546e-02
6.620000000000000000e+02 7.933615875244140625e+01 -2.495574951171875000e+01 4.043997032567858696e-04 7.948047161102294922e+00 2.384535551071166992e+00 -4.960536491125822067e-03
6.630000000000000000e+02 7.930847930908203125e+01 -2.916398239135742188e+01 -2.231469989055767655e-04 7.973413467407226562e+00 2.391957044601440430e+00 -4.494589753448963165e-03
6.640000000000000000e+02 7.795178222656250000e+01 -3.183418083190917969e+01 -1.026988262310624123e-03 7.965657234191894531e+00 2.389389038085937500e+00 -9.411602281033992767e-03
6.650000000000000000e+02 7.932225036621093750e+01 -3.197230911254882812e+01 -9.546926594339311123e-04 7.987156867980957031e+00 2.395860671997070312e+00 -3.039960516616702080e-03
6.660000000000000000e+02 7.936809539794921875e+01 -3.607791900634765625e+01 2.124275546520948410e-03 7.997414588928222656e+00 2.399861574172973633e+00 -1.239557168446481228e-03
6.670000000000000000e+02 7.925642395019531250e+01 -3.738566970825195312e+01 -3.439020132645964622e-03 7.995755195617675781e+00 2.397694826126098633e+00 1.615382148884236813e-03
6.680000000000000000e+02 7.900259399414062500e+01 -3.866969299316406250e+01 2.156020607799291611e-03 7.993562221527099609e+00 2.398715496063232422e+00 8.552543004043400288e-04
6.690000000000000000e+02 7.861087036132812500e+01 -4.001602172851562500e+01 -3.519056830555200577e-03 7.989834308624267578e+00 2.395894527435302734e+00 3.542138263583183289e-03
6.700000000000000000e+02 4.999745845794677734e+00 4.023992919921875000e+01 1.280154287815093994e-02 -1.622927933931350708e-02 -1.028320984914898872e-03 4.123280290514230728e-03
6.710000000000000000e+02 2.511088180541992188e+01 3.738800811767578125e+01 1.519773602485656738e+00 8.582614898681640625e+00 3.030716657638549805e+00 7.651926279067993164e-01
6.720000000000000000e+02 6.722937774658203125e+01 4.075673294067382812e+01 2.490908466279506683e-02 7.658971309661865234e+00 2.305164098739624023e+00 -4.111538175493478775e-03
6.730000000000000000e+02 6.692352890968322754e-01 3.011584520339965820e+00 -2.294831676408648491e-03 6.515882560051977634e-04 -4.929730203002691269e-04 -2.756683854386210442e-03
6.740000000000000000e+02 3.108033657073974609e+00 2.739646434783935547e+00 1.814500661566853523e-03 1.245909021236002445e-03 9.181229397654533386e-04 -2.062868588836863637e-04
6.750000000000000000e+02 5.296129226684570312e+00 2.657018423080444336e+00 -8.284568903036415577e-04 -1.220115693286061287e-03 -6.145717343315482140e-04 5.694442661479115486e-04
6.760000000000000000e+02 1.544335484504699707e+00 6.204272270202636719e+00 -3.462863154709339142e-03 -4.758125578518956900e-04 -1.181602710857987404e-03 5.247183726169168949e-04
6.770000000000000000e+02 5.641260147094726562e-01 9.196311950683593750e+00 4.031848628073930740e-03 1.369564124615862966e-04 1.250641536898910999e-03 -5.268488894216716290e-04
6.780000000000000000e+02 5.763859748840332031e-01 1.200707340240478516e+01 4.837414249777793884e-03 2.987979969475418329e-04 1.540863770060241222e-03 -9.416757966391742229e-04
6.790000000000000000e+02 1.733430385589599609e+00 1.183596611022949219e+01 -4.723575897514820099e-03 -5.860566743649542332e-04 -1.592889777384698391e-03 9.812809294089674950e-04
6.800000000000000000e+02 5.921260714530944824e-01 1.621669769287109375e+01 -5.626684986054897308e-03 -9.062113531399518251e-05 -1.715191872790455818e-03 9.118877933360636234e-04
6.810000000000000000e+02 1.813727378845214844e+00 1.735326004028320312e+01 -6.186718121170997620e-03 2.881420077756047249e-04 -1.769572845660150051e-03 8.406920096604153514e-05
6.820000000000000000e+02 6.054871082305908203e-01 1.762221527099609375e+01 5.432301200926303864e-03 2.777125919237732887e-04 1.713004079647362232e-03 -8.143617887981235981e-04
6.830000000000000000e+02 6.439442038536071777e-01 2.185290145874023438e+01 -3.481362480670213699e-03 8.209347142837941647e-04 -7.981283706612884998e-04 7.017821985755290370e-07
6.840000000000000000e+02 6.567492485046386719e-01 2.327789115905761719e+01 2.880050335079431534e-03 1.266512554138898849e-03 1.243968843482434750e-03 -2.221719041699543595e-04
6.850000000000000000e+02 1.952229976654052734e+00 2.301800346374511719e+01 -4.862325266003608704e-03 6.866983021609485149e-04 -1.252688118256628513e-03 -1.311811618506908417e-03
6.860000000000000000e+02 6.656847596168518066e-01 2.470209693908691406e+01 -2.398650161921977997e-03 1.546530867926776409e-03 -2.556357940193265676e-04 -1.961237285286188126e-04
6.870000000000000000e+02 6.465156078338623047e-01 2.894716072082519531e+01 4.062987864017486572e-03 3.394230501726269722e-03 2.237165579572319984e-03 -1.222228747792541981e-03
6.880000000000000000e+02 6.396978497505187988e-01 3.035144424438476562e+01 -5.055008921772241592e-03 2.990253735333681107e-03 -6.194266607053577900e-04 1.073260442353785038e-03
6.890000000000000000e+02 1.923763871192932129e+00 3.147799491882324219e+01 -7.654949557036161423e-03 1.220848411321640015e-03 -1.930230297148227692e-03 1.631388906389474869e-03
6.900000000000000000e+02 6.446442008018493652e-01 3.174913024902343750e+01 5.021619610488414764e-03 2.820149762555956841e-03 2.352530835196375847e-03 -5.124797462485730648e-04
6.910000000000000000e+02 7.217927575111389160e-01 3.594158554077148438e+01 -8.522219024598598480e-03 -4.003829788416624069e-03 -3.757814876735210419e-03 4.452425055205821991e-03
6.920000000000000000e+02 2.153967142105102539e+00 3.689135742187500000e+01 -8.138254284858703613e-03 -7.551727816462516785e-03 -4.706994630396366119e-03 8.538275957107543945e-03
6.930000000000000000e+02 9.437265992164611816e-01 3.866628646850585938e+01 -1.162989158183336258e-02 -9.569601155817508698e-03 -6.359847728163003922e-03 5.238504614681005478e-03
6.940000000000000000e+02 1.324669003486633301e+00 4.002119445800781250e+01 8.426615968346595764e-03 -1.272039953619241714e-02 -1.288135070353746414e-03 1.411112025380134583e-03
6.950000000000000000e+02 1.036702346801757812e+01 1.854505181312561035e+00 -1.115314662456512451e-03 -5.054500652477145195e-04 -4.862294299528002739e-04 -4.075332835782319307e-04
6.960000000000000000e+02 8.918202400207519531e+00 1.854821324348449707e+00 -7.761804736219346523e-04 -9.695416083559393883e-04 -5.237166187725961208e-04 -4.272231599316000938e-04
6.970000000000000000e+02 8.203227043151855469e+00 1.850605249404907227e+00 6.370230112224817276e-04 1.122704474255442619e-03 5.279182805679738522e-04 2.493076026439666748e-04
6.980000000000000000e+02 8.159372329711914062e+00 2.546011686325073242e+00 -7.538396166637539864e-04 -1.237791031599044800e-03 -5.974892410449683666e-04 -4.021013737656176090e-04
6.990000000000000000e+02 7.488178253173828125e+00 1.850332498550415039e+00 -5.834167823195457458e-04 -1.220060745254158974e-03 -5.410432349890470505e-04 -8.246038305514957756e-06
7.000000000000000000e+02 5.335078716278076172e+00 1.882847070693969727e+00 6.633281591348350048e-04 1.229219604283571243e-03 5.677643348462879658e-04 -6.311038741841912270e-04
7.010000000000000000e+02 4.612245559692382812e+00 1.900194883346557617e+00 -8.500013500452041626e-04 -1.159195089712738991e-03 -6.027588970027863979e-04 6.725106504745781422e-04
7.020000000000000000e+02 3.895268201828002930e+00 1.908629536628723145e+00 1.162439817562699318e-03 1.101884990930557251e-03 6.792974309064447880e-04 -5.966312019154429436e-04
7.030000000000000000e+02 3.189386129379272461e+00 1.901172876358032227e+00 -1.478675287216901779e-03 -1.005539787001907825e-03 -7.452645222656428814e-04 2.603893517516553402e-04
7.040000000000000000e+02 2.493023157119750977e+00 1.885238647460937500e+00 1.260826829820871353e-03 1.055602449923753738e-03 6.949288072064518929e-04 1.741104933898895979e-04
7.050000000000000000e+02 1.803148508071899414e+00 1.879823565483093262e+00 -6.489058141596615314e-04 -1.223866827785968781e-03 -5.618318100459873676e-04 -2.973237424157559872e-04
7.060000000000000000e+02 1.185228633880615234e+01 1.804490804672241211e+00 -9.325304417870938778e-04 -3.653019375633448362e-04 -3.893497050739824772e-04 6.430446228478103876e-05
7.070000000000000000e+02 1.441835689544677734e+01 2.937938213348388672e+00 3.516867000143975019e-04 4.613010969478636980e-04 2.438963419990614057e-04 -1.058170222677290440e-03
7.080000000000000000e+02 1.464481449127197266e+01 3.743189811706542969e+00 -2.023579087108373642e-03 -4.166486032772809267e-04 -7.320683216676115990e-04 5.063076387159526348e-04
7.090000000000000000e+02 1.480152416229248047e+01 2.006606817245483398e+00 1.301496755331754684e-03 3.108226228505373001e-04 4.836958250962197781e-04 7.506817928515374660e-05
7.100000000000000000e+02 1.307191848754882812e+01 3.290055036544799805e+00 2.083373023197054863e-03 4.329344374127686024e-04 7.548921857960522175e-04 1.630543614737689495e-03
7.110000000000000000e+02 1.458407306671142578e+01 6.318060874938964844e+00 -3.289234125986695290e-03 -3.244542313041165471e-05 -9.965038625523447990e-04 1.897155743790790439e-04
7.120000000000000000e+02 1.451057529449462891e+01 7.686033248901367188e+00 3.727829316630959511e-03 1.100582012441009283e-04 1.151366275735199451e-03 -7.318508869502693415e-05
7.130000000000000000e+02 1.447094917297363281e+01 9.064741134643554688e+00 -4.373627249151468277e-03 -7.263958104886114597e-05 -1.333880005404353142e-03 -1.159609964815899730e-04
7.140000000000000000e+02 1.445954799652099609e+01 1.183986473083496094e+01 -5.791958421468734741e-03 1.181806219392456114e-04 -1.702133333310484886e-03 1.143979825428687036e-04
7.150000000000000000e+02 1.442667007446289062e+01 1.323414897918701172e+01 6.169944070279598236e-03 -1.134551785071380436e-04 1.816946663893759251e-03 -3.160208871122449636e-04
7.160000000000000000e+02 1.438845062255859375e+01 1.463572311401367188e+01 -6.588949821889400482e-03 -1.435726444469764829e-04 -2.019756706431508064e-03 2.762349904514849186e-04
7.170000000000000000e+02 1.439253711700439453e+01 1.603664016723632812e+01 7.674953434616327286e-03 5.442539986688643694e-06 2.304118825122714043e-03 -9.777206287253648043e-05
7.180000000000000000e+02 1.313027572631835938e+01 2.035571861267089844e+01 1.183472294360399246e-02 1.323858625255525112e-03 3.947574645280838013e-03 1.099042361602187157e-03
7.190000000000000000e+02 1.451485729217529297e+01 2.158210945129394531e+01 1.502173673361539841e-02 1.163203967735171318e-03 4.855482373386621475e-03 4.423870705068111420e-04
7.200000000000000000e+02 1.484571552276611328e+01 2.568370056152343750e+01 -2.675095945596694946e-02 2.828904427587985992e-03 -7.176616229116916656e-03 -7.748263888061046600e-04
7.210000000000000000e+02 1.332527828216552734e+01 2.307022094726562500e+01 1.705906353890895844e-02 7.780421292409300804e-04 5.351131316274404526e-03 3.585953498259186745e-03
7.220000000000000000e+02 1.494552612304687500e+01 2.705620574951171875e+01 3.099711239337921143e-02 4.362598527222871780e-03 1.060791313648223877e-02 2.934602787718176842e-03
7.230000000000000000e+02 1.506758594512939453e+01 2.843306350708007812e+01 -3.543259575963020325e-02 4.978785756975412369e-03 -9.136143140494823456e-03 -1.343423966318368912e-03
7.240000000000000000e+02 1.571819782257080078e+01 3.270610809326171875e+01 7.010866701602935791e-02 1.765073277056217194e-03 2.156212180852890015e-02 -1.179240737110376358e-02
7.250000000000000000e+02 1.630513572692871094e+01 3.402718734741210938e+01 -8.964915573596954346e-02 -1.824024831876158714e-03 -2.744195424020290375e-02 1.665101945400238037e-02
7.260000000000000000e+02 1.537508296966552734e+01 3.573700714111328125e+01 -1.581451892852783203e-01 -2.188702300190925598e-02 -5.400966480374336243e-02 -3.832020610570907593e-02
7.270000000000000000e+02 1.720217895507812500e+01 3.648505020141601562e+01 -3.052207231521606445e-01 -1.458519697189331055e-01 -1.353218108415603638e-01 -1.546429097652435303e-01
7.280000000000000000e+02 2.041451072692871094e+01 3.782247161865234375e+01 -2.216342985630035400e-01 7.058379054069519043e-01 1.452610790729522705e-01 -4.866972863674163818e-01
7.290000000000000000e+02 2.191799926757812500e+01 3.800750732421875000e+01 -1.219141706824302673e-01 6.466641426086425781e+00 1.903418183326721191e+00 -2.898008346557617188e+00
7.300000000000000000e+02 2.150214004516601562e+01 3.791632843017578125e+01 2.976472973823547363e-01 4.562555313110351562e+00 1.458060741424560547e+00 -2.562843084335327148e+00
7.310000000000000000e+02 2.172574615478515625e+01 3.795011520385742188e+01 1.494040489196777344e-01 5.426637649536132812e+00 1.672812581062316895e+00 -2.696306467056274414e+00
7.320000000000000000e+02 2.109237480163574219e+01 3.805747604370117188e+01 2.823823094367980957e-01 3.214953660964965820e+00 1.049200773239135742e+00 -1.796389460563659668e+00
7.330000000000000000e+02 2.131323814392089844e+01 3.783906173706054688e+01 3.235187232494354248e-01 3.642956972122192383e+00 1.189942717552185059e+00 -2.070153713226318359e+00
7.340000000000000000e+02 2.116481399536132812e+01 3.777644729614257812e+01 4.483177363872528076e-01 2.937226057052612305e+00 1.015663146972656250e+00 -1.938127636909484863e+00
7.350000000000000000e+02 2.065102767944335938e+01 3.785816955566406250e+01 -1.832050271332263947e-02 1.755876302719116211e+00 5.212667584419250488e-01 -8.577306866645812988e-01
7.360000000000000000e+02 2.085763549804687500e+01 3.780605316162109375e+01 1.869861334562301636e-01 2.043151617050170898e+00 6.690413355827331543e-01 -1.355245232582092285e+00
7.370000000000000000e+02 2.145124435424804688e+01 3.430453109741210938e+01 -1.000093296170234680e-01 4.715747356414794922e+00 1.384721398353576660e+00 1.750915050506591797e+00
7.380000000000000000e+02 2.175619125366210938e+01 3.464012527465820312e+01 -8.446244895458221436e-02 5.731060504913330078e+00 1.693979382514953613e+00 2.183134317398071289e+00
7.390000000000000000e+02 2.205435562133789062e+01 3.451507949829101562e+01 -5.113282203674316406e-01 7.285158634185791016e+00 2.032149076461791992e+00 2.062216043472290039e+00
7.400000000000000000e+02 2.065641021728515625e+01 3.446113204956054688e+01 1.220964342355728149e-01 2.176758766174316406e+00 6.896565556526184082e-01 6.504172682762145996e-01
7.410000000000000000e+02 2.080571937561035156e+01 3.424427795410156250e+01 3.815610408782958984e-01 2.502355813980102539e+00 8.651750683784484863e-01 1.104889512062072754e+00
7.420000000000000000e+02 2.229859161376953125e+01 3.813963699340820312e+01 -4.940558373928070068e-01 8.287603378295898438e+00 2.338064193725585938e+00 -2.087625265121459961e+00
7.430000000000000000e+02 2.134527778625488281e+01 3.855178833007812500e+01 -1.208530515432357788e-01 4.456153392791748047e+00 1.300590157508850098e+00 -2.119922637939453125e+00
7.440000000000000000e+02 2.101559448242187500e+01 3.777111053466796875e+01 4.039556384086608887e-01 2.648066759109497070e+00 9.156067371368408203e-01 -1.449162840843200684e+00
7.450000000000000000e+02 1.877390098571777344e+01 3.846212005615234375e+01 -7.723870277404785156e-01 -5.279790759086608887e-01 -3.901098370552062988e-01 -7.234999537467956543e-02
7.460000000000000000e+02 2.019511222839355469e+01 3.777029418945312500e+01 -6.422203779220581055e-01 3.365964889526367188e-01 -9.168718010187149048e-02 -3.743936121463775635e-01
7.470000000000000000e+02 2.215675544738769531e+01 3.195657348632812500e+01 -4.056611061096191406e-01 6.875129222869873047e+00 1.940840363502502441e+00 9.144494533538818359e-01
7.480000000000000000e+02 2.156695175170898438e+01 3.459395980834960938e+01 5.538478959351778030e-03 4.860873699188232422e+00 1.459923624992370605e+00 2.053760290145874023e+00
7.490000000000000000e+02 2.097675132751464844e+01 3.226791763305664062e+01 -1.065002903342247009e-01 5.240768909454345703e+00 1.540280580520629883e+00 4.941114783287048340e-01
7.500000000000000000e+02 2.232157325744628906e+01 3.468498611450195312e+01 -5.535411238670349121e-01 8.276562690734863281e+00 2.316906452178955078e+00 1.855141878128051758e+00
7.510000000000000000e+02 2.189186859130859375e+01 3.438650512695312500e+01 -4.505129158496856689e-01 6.416358947753906250e+00 1.789753794670104980e+00 1.853512406349182129e+00
7.520000000000000000e+02 2.076361083984375000e+01 3.450435256958007812e+01 1.605163514614105225e-01 1.829330444335937500e+00 5.969540476799011230e-01 8.355281949043273926e-01
7.530000000000000000e+02 1.943100547790527344e+01 3.774531936645507812e+01 -2.141760826110839844e+00 -8.391338586807250977e-01 -8.942683935165405273e-01 7.108747363090515137e-01
7.540000000000000000e+02 1.997226142883300781e+01 3.777848434448242188e+01 -9.541625380516052246e-01 -2.595721483230590820e-01 -3.641204237937927246e-01 3.511822596192359924e-02
7.550000000000000000e+02 1.422213268280029297e+01 1.881813168525695801e+00 -6.146191153675317764e-04 -1.941935770446434617e-04 -2.426438004476949573e-04 1.839728211052715778e-04
7.560000000000000000e+02 1.256732940673828125e+01 1.775514721870422363e+00 4.756425332743674517e-04 5.309565458446741104e-04 3.019797150045633316e-04 4.693154915003105998e-05
7.570000000000000000e+02 1.880731964111328125e+01 3.781402969360351562e+01 -2.400504827499389648e+00 -2.064912170171737671e-01 -7.820988297462463379e-01 2.170901149511337280e-01
7.580000000000000000e+02 6.055889129638671875e+00 1.866985201835632324e+00 -6.080971215851604939e-04 -1.274197478778660297e-03 -5.646883510053157806e-04 4.593270423356443644e-04
7.590000000000000000e+02 9.586208343505859375e+00 2.585584640502929688e+00 -1.219511264935135841e-03 -8.375803008675575256e-04 -6.171274580992758274e-04 -7.147926371544599533e-04
7.600000000000000000e+02 6.772922039031982422e+00 1.856119871139526367e+00 5.714923026971518993e-04 1.261040568351745605e-03 5.497598322108387947e-04 -2.497102250345051289e-04
7.610000000000000000e+02 7.449095249176025391e+00 2.545123577117919922e+00 6.510408711619675159e-04 1.310154213570058346e-03 5.883584963157773018e-04 8.992639050120487809e-05
7.620000000000000000e+02 8.111783981323242188e+00 3.226398706436157227e+00 8.044787682592868805e-04 1.385575276799499989e-03 6.570162368007004261e-04 5.486284499056637287e-04
7.630000000000000000e+02 6.096344470977783203e+00 4.089401245117187500e+00 1.362897921353578568e-03 7.096414919942617416e-04 6.217618356458842754e-04 -6.445709150284528732e-04
7.640000000000000000e+02 1.617382645606994629e+00 7.626919269561767578e+00 4.092697054147720337e-03 4.031585194752551615e-05 1.239903969690203667e-03 -1.841580233303830028e-04
7.650000000000000000e+02 3.752334713935852051e-01 3.767727136611938477e+00 4.951326176524162292e-03 8.262140909209847450e-04 1.733262091875076294e-03 1.004288438707590103e-03
7.660000000000000000e+02 2.376006364822387695e+00 4.413161277770996094e+00 9.215978207066655159e-04 -3.987762465840205550e-05 2.645160711836069822e-04 1.800444326363503933e-03
7.670000000000000000e+02 3.835105597972869873e-01 2.093101501464843750e+00 -1.490118331275880337e-03 -9.104806231334805489e-04 -7.201796979643404484e-04 5.300721968524158001e-04
7.680000000000000000e+02 1.113214254379272461e+00 1.930813550949096680e+00 -2.898286620620638132e-04 1.464988337829709053e-03 3.525479114614427090e-04 1.412598358001559973e-04
7.690000000000000000e+02 1.111337471008300781e+01 1.836035728454589844e+00 1.173798809759318829e-03 3.268849977757781744e-04 4.502051451709121466e-04 1.543191610835492611e-04
7.700000000000000000e+02 9.513603210449218750e+00 3.330867528915405273e+00 1.481413375586271286e-03 9.367911843582987785e-04 7.254613447003066540e-04 9.114559506997466087e-04
7.710000000000000000e+02 1.180437660217285156e+01 -2.611315727233886719e+00 2.050605835393071175e-03 7.360609743045642972e-05 6.372635834850370884e-04 -1.090682344511151314e-03
7.720000000000000000e+02 1.038735771179199219e+01 -3.292794942855834961e+00 -9.825808228924870491e-04 -1.164482790045440197e-03 -6.441190489567816257e-04 9.844005107879638672e-04
7.730000000000000000e+02 1.109924793243408203e+01 -2.597674608230590820e+00 -1.326987636275589466e-03 -6.692880997434258461e-04 -5.988827324472367764e-04 1.188653637655079365e-03
7.740000000000000000e+02 1.244326210021972656e+01 2.407819032669067383e+00 -7.058766786940395832e-04 -5.830870941281318665e-04 -3.866891493089497089e-04 3.290491877123713493e-04
7.750000000000000000e+02 1.031835556030273438e+01 2.596479415893554688e+00 1.425706199370324612e-03 5.474382196553051472e-04 5.919433315284550190e-04 6.505767814815044403e-04
7.760000000000000000e+02 1.294679069519042969e+01 2.430515527725219727e+00 -9.749483433552086353e-05 1.347460318356752396e-03 3.749896422959864140e-04 8.395802578888833523e-04
7.770000000000000000e+02 1.341627693176269531e+01 2.567892074584960938e+00 -1.490269671194255352e-03 -3.127240343019366264e-04 -5.408981232903897762e-04 -1.311691710725426674e-03
7.780000000000000000e+02 8.086646080017089844e+00 -1.882581233978271484e+00 1.001841505058109760e-03 6.780119729228317738e-04 5.039560492150485516e-04 -1.605483121238648891e-04
7.790000000000000000e+02 9.636667251586914062e+00 -2.588258028030395508e+00 -1.100202091038227081e-03 -8.271784754469990730e-04 -5.782141815871000290e-04 4.321658343542367220e-04
7.800000000000000000e+02 7.378704071044921875e+00 -2.695745706558227539e+00 1.255865907296538353e-03 5.998979322612285614e-04 5.567291518673300743e-04 -2.233045815955847502e-04
7.810000000000000000e+02 8.144845008850097656e+00 -2.659095287322998047e+00 -1.392411184497177601e-03 -5.634929402731359005e-04 -5.867712316103279591e-04 2.138012496288865805e-04
7.820000000000000000e+02 8.895939826965332031e+00 -2.619048357009887695e+00 1.288839615881443024e-03 6.720816600136458874e-04 5.882764235138893127e-04 -1.997425424633547664e-04
7.830000000000000000e+02 6.548930644989013672e+00 -1.908084511756896973e+00 7.453144644387066364e-04 7.336035487242043018e-04 4.436753806658089161e-04 1.132144006987800822e-05
7.840000000000000000e+02 6.601247310638427734e+00 -2.730215072631835938e+00 -1.015490270219743252e-03 -7.044652011245489120e-04 -5.159866414032876492e-04 1.649564801482483745e-04
7.850000000000000000e+02 5.029731273651123047e+00 -2.806234836578369141e+00 -7.153751212172210217e-04 -7.924005622044205666e-04 -4.523326933849602938e-04 -2.435858914395794272e-04
7.860000000000000000e+02 1.713346123695373535e+00 -7.695965766906738281e+00 -3.260024823248386383e-03 2.457759110257029533e-04 -9.042746969498693943e-04 -5.444536509457975626e-05
7.870000000000000000e+02 3.458872318267822266e+00 -3.812383651733398438e+00 1.926504424773156643e-03 6.628493429161608219e-04 7.768061477690935135e-04 7.431859849020838737e-04
7.880000000000000000e+02 4.393866658210754395e-01 -3.574094057083129883e+00 -2.468789229169487953e-03 2.675907489901874214e-05 -7.326090126298367977e-04 -1.398216409143060446e-04
7.890000000000000000e+02 3.953531682491302490e-01 -2.188598632812500000e+00 2.265152521431446075e-03 1.149832605733536184e-04 7.140407105907797813e-04 1.306352642131969333e-04
7.900000000000000000e+02 4.914596676826477051e-01 -4.980299949645996094e+00 2.530247671529650688e-03 9.274246258428320289e-05 7.868970278650522232e-04 1.306684280280023813e-04
7.910000000000000000e+02 2.331535911560058594e+01 3.386061477661132812e+01 -5.984767675399780273e-01 8.981175422668457031e+00 2.514809608459472656e+00 4.402378201484680176e-01
7.920000000000000000e+02 2.536727714538574219e+01 3.628963851928710938e+01 1.787219047546386719e+00 8.463949203491210938e+00 3.075350522994995117e+00 1.119607910513877869e-01
7.930000000000000000e+02 2.468528747558593750e+01 3.844969177246093750e+01 1.812404394149780273e-01 8.903656959533691406e+00 2.725469112396240234e+00 9.373739361763000488e-01
7.940000000000000000e+02 2.204116058349609375e+01 3.916010665893554688e+01 -5.858303904533386230e-01 6.117434501647949219e+00 1.659481287002563477e+00 -1.878921151161193848e+00
7.950000000000000000e+02 2.362900352478027344e+01 3.789941406250000000e+01 4.595847725868225098e-01 9.596533775329589844e+00 3.016835451126098633e+00 6.781027913093566895e-01
7.960000000000000000e+02 1.933055686950683594e+01 3.834566879272460938e+01 -8.001791834831237793e-01 -1.130747720599174500e-01 -2.739761769771575928e-01 -1.787796616554260254e-01
7.970000000000000000e+02 2.298678779602050781e+01 -4.127284622192382812e+01 -7.107140421867370605e-01 6.636322975158691406e+00 1.777682662010192871e+00 -9.657303988933563232e-02
7.980000000000000000e+02 1.310071563720703125e+01 -3.681715774536132812e+01 -2.430547773838043213e-01 4.931802302598953247e-02 -5.812102556228637695e-02 1.771200150251388550e-01
7.990000000000000000e+02 1.760253524780273438e+01 -4.142282485961914062e+01 3.341790288686752319e-02 2.294470310211181641e+00 6.983664631843566895e-01 5.636611580848693848e-01
8.000000000000000000e+02 1.248417854309082031e+01 2.577927589416503906e+01 -1.964184083044528961e-02 -1.348176738247275352e-04 -5.932997912168502808e-03 -3.464773064479231834e-03
8.010000000000000000e+02 1.294105434417724609e+01 3.270615768432617188e+01 -1.066657062619924545e-02 -4.630933981388807297e-03 -4.589251242578029633e-03 -3.489840403199195862e-02
8.020000000000000000e+02 1.350713253021240234e+01 3.119595527648925781e+01 2.181123010814189911e-02 1.083633629605174065e-03 6.868459284305572510e-03 1.808445528149604797e-02
8.030000000000000000e+02 1.373120594024658203e+01 2.703261566162109375e+01 -2.435663342475891113e-02 1.063917588908225298e-04 -7.275072392076253891e-03 -4.050784744322299957e-03
8.040000000000000000e+02 1.676527976989746094e+01 3.530422973632812500e+01 7.538332045078277588e-02 -6.325935013592243195e-03 2.071721665561199188e-02 -3.948631510138511658e-02
8.050000000000000000e+02 1.691561126708984375e+01 3.762193298339843750e+01 -7.363238930702209473e-01 -4.810426756739616394e-02 -2.353284507989883423e-01 5.123561620712280273e-02
8.060000000000000000e+02 1.498983478546142578e+01 3.449865722656250000e+01 1.981687918305397034e-02 5.587633349932730198e-04 6.112692411988973618e-03 -3.660590574145317078e-02
8.070000000000000000e+02 1.445289421081542969e+01 1.882448959350585938e+01 1.037716865539550781e-02 3.610618587117642164e-04 3.221468999981880188e-03 -5.851151072420179844e-04
8.080000000000000000e+02 1.313464355468750000e+01 1.897914505004882812e+01 -1.027657743543386459e-02 3.254810289945453405e-04 -2.985328901559114456e-03 2.081627026200294495e-04
8.090000000000000000e+02 1.473298835754394531e+01 2.431860542297363281e+01 2.314839325845241547e-02 2.064632484689354897e-03 7.563907653093338013e-03 1.537356176413595676e-03
8.100000000000000000e+02 1.374177646636962891e+01 2.836794853210449219e+01 2.732509188354015350e-02 5.161286331713199615e-03 9.745913557708263397e-03 1.016259286552667618e-02
8.110000000000000000e+02 1.191990184783935547e+01 3.071929168701171875e+01 -6.550434045493602753e-03 -1.077535934746265411e-02 -5.197738297283649445e-03 -1.633553765714168549e-02
8.120000000000000000e+02 1.308412933349609375e+01 1.759704589843750000e+01 9.373812004923820496e-03 -3.946772485505789518e-04 2.693740418180823326e-03 2.989702625200152397e-05
8.130000000000000000e+02 1.317053318023681641e+01 1.187400436401367188e+01 5.929310806095600128e-03 -1.816100411815568805e-04 1.724310219287872314e-03 4.783343174494802952e-04
8.140000000000000000e+02 1.291013431549072266e+01 1.470158576965332031e+01 7.449139840900897980e-03 2.621609310153871775e-04 2.313390141353011131e-03 5.484362482093274593e-04
8.150000000000000000e+02 1.463735866546630859e+01 4.986107349395751953e+00 2.777158748358488083e-03 1.602863048901781440e-04 8.812334854155778885e-04 -2.916899393312633038e-04
8.160000000000000000e+02 1.179713535308837891e+01 2.512568712234497070e+00 1.549907843582332134e-03 4.779595838044770062e-05 4.793111293110996485e-04 -1.029816121445037425e-04
8.170000000000000000e+02 1.015689182281494141e+01 4.188206195831298828e+00 1.849628053605556488e-03 7.420072797685861588e-04 7.774906116537749767e-04 6.439500721171498299e-04
8.180000000000000000e+02 1.327147579193115234e+01 7.702968597412109375e+00 -3.898085094988346100e-03 -2.066757879219949245e-04 -1.231428235769271851e-03 -8.316927123814821243e-04
8.190000000000000000e+02 1.307768440246582031e+01 1.325647926330566406e+01 -6.744939833879470825e-03 2.773582527879625559e-04 -1.940274494700133801e-03 -5.765551468357443810e-04
8.200000000000000000e+02 7.931113433837890625e+01 -2.776075935363769531e+01 4.200108742224983871e-05 7.965401649475097656e+00 2.389633178710937500e+00 -4.602354485541582108e-03
8.210000000000000000e+02 7.728830718994140625e+01 -3.773337173461914062e+01 -3.662209492176771164e-03 7.972844600677490234e+00 2.390754699707031250e+00 -8.026644354686141014e-04
8.220000000000000000e+02 7.936783599853515625e+01 -3.473372268676757812e+01 -2.479328308254480362e-03 7.995716094970703125e+00 2.397970914840698242e+00 -8.742771460674703121e-04
8.230000000000000000e+02 7.794874572753906250e+01 3.214460372924804688e+01 9.777208324521780014e-04 7.537304401397705078e+00 2.261484622955322266e+00 -6.545258685946464539e-03
8.240000000000000000e+02 7.931685638427734375e+01 3.612959289550781250e+01 -1.263977028429508209e-03 7.508930683135986328e+00 2.252300024032592773e+00 -1.599870156496763229e-03
8.250000000000000000e+02 7.936360931396484375e+01 -2.077797508239746094e+01 -8.886072319000959396e-04 7.918364524841308594e+00 2.375242710113525391e+00 -5.528206471353769302e-03
8.260000000000000000e+02 7.792345428466796875e+01 -2.753446197509765625e+01 -1.291482592932879925e-03 7.944528102874755859e+00 2.382971048355102539e+00 -1.270834542810916901e-02
8.270000000000000000e+02 7.796102905273437500e+01 -2.611017036437988281e+01 2.914409269578754902e-04 7.937235355377197266e+00 2.381258010864257812e+00 -1.278593298047780991e-02
8.280000000000000000e+02 7.931129455566406250e+01 -3.056929779052734375e+01 -8.400892693316563964e-05 7.980953693389892578e+00 2.394260883331298828e+00 -4.086316563189029694e-03
8.290000000000000000e+02 7.800110626220703125e+01 -3.323606109619140625e+01 -2.526986412703990936e-03 7.971179485321044922e+00 2.390595674514770508e+00 -6.104909814894199371e-03
8.300000000000000000e+02 7.497470092773437500e+01 -3.712567138671875000e+01 -6.626134272664785385e-03 7.942946910858154297e+00 2.380896329879760742e+00 -1.460280269384384155e-02
8.310000000000000000e+02 7.633556365966796875e+01 -3.880505371093750000e+01 -2.364451531320810318e-03 7.969686031341552734e+00 2.390196561813354492e+00 -5.256994161754846573e-03
8.320000000000000000e+02 7.804261779785156250e+01 1.415197372436523438e+01 1.005213474854826927e-03 7.634407043457031250e+00 2.290623664855957031e+00 -1.516822911798954010e-02
8.330000000000000000e+02 7.935267639160156250e+01 1.540202903747558594e+01 8.950997726060450077e-04 7.615161418914794922e+00 2.284816980361938477e+00 -5.724634509533643723e-03
8.340000000000000000e+02 7.800248718261718750e+01 2.109669303894042969e+01 -6.334104109555482864e-04 7.590592384338378906e+00 2.276987552642822266e+00 -1.294456981122493744e-02
8.350000000000000000e+02 7.933728790283203125e+01 2.235951042175292969e+01 -8.701523183844983578e-04 7.568377971649169922e+00 2.270252466201782227e+00 -4.675947595387697220e-03
8.360000000000000000e+02 7.791912841796875000e+01 3.075444412231445312e+01 1.862763427197933197e-03 7.543377399444580078e+00 2.263571977615356445e+00 -8.924277499318122864e-03
8.370000000000000000e+02 7.797056579589843750e+01 2.796466445922851562e+01 1.618350506760179996e-03 7.554745674133300781e+00 2.266909360885620117e+00 -1.089621707797050476e-02
8.380000000000000000e+02 7.932753753662109375e+01 2.790365409851074219e+01 -7.351338863372802734e-04 7.536039829254150391e+00 2.260591268539428711e+00 -3.821914782747626305e-03
8.390000000000000000e+02 7.797814941406250000e+01 2.523414039611816406e+01 1.356459106318652630e-03 7.568047523498535156e+00 2.270821094512939453e+00 -1.226540468633174896e-02
8.400000000000000000e+02 7.797553253173828125e+01 2.386181449890136719e+01 -5.445266142487525940e-04 7.575242996215820312e+00 2.272409439086914062e+00 -1.218240521848201752e-02
8.410000000000000000e+02 7.804557800292968750e+01 1.832009887695312500e+01 -3.355935332365334034e-04 7.607000827789306641e+00 2.281999588012695312e+00 -1.338718738406896591e-02
8.420000000000000000e+02 7.804949951171875000e+01 1.553609085083007812e+01 -4.382537736091762781e-04 7.625177860260009766e+00 2.287421941757202148e+00 -1.445011608302593231e-02
8.430000000000000000e+02 7.805313873291015625e+01 1.692561721801757812e+01 1.248267246410250664e-03 7.615907192230224609e+00 2.285146713256835938e+00 -1.443670410662889481e-02
8.440000000000000000e+02 7.803428649902343750e+01 1.275907421112060547e+01 -4.212595813442021608e-04 7.644156455993652344e+00 2.293120622634887695e+00 -1.527762785553932190e-02
8.450000000000000000e+02 7.666869354248046875e+01 1.147602176666259766e+01 1.450936833862215281e-04 7.661465167999267578e+00 2.298483133316040039e+00 -2.485098317265510559e-02
8.460000000000000000e+02 7.804271697998046875e+01 8.567009925842285156e+00 7.823574123904109001e-04 7.674324989318847656e+00 2.302532196044921875e+00 -1.650551706552505493e-02
8.470000000000000000e+02 7.935057067871093750e+01 9.829882621765136719e+00 5.978094995953142643e-04 7.657607555389404297e+00 2.297461748123168945e+00 -6.191496737301349640e-03
8.480000000000000000e+02 7.936804962158203125e+01 -1.938933944702148438e+01 7.376209250651299953e-04 7.907689094543457031e+00 2.372528076171875000e+00 -5.891953129321336746e-03
8.490000000000000000e+02 7.936671447753906250e+01 -1.384465217590332031e+01 4.207172023598104715e-04 7.862085342407226562e+00 2.358751773834228516e+00 -6.397924385964870453e-03
8.500000000000000000e+02 7.935280609130859375e+01 -6.897611618041992188e+00 -9.347836021333932877e-05 7.801303386688232422e+00 2.340363025665283203e+00 -6.788279861211776733e-03
8.510000000000000000e+02 7.804590606689453125e+01 1.930102854967117310e-01 3.137509338557720184e-04 7.739514350891113281e+00 2.321948289871215820e+00 -1.771233789622783661e-02
8.520000000000000000e+02 7.934754180908203125e+01 1.462620258331298828e+00 2.849031588993966579e-04 7.727491378784179688e+00 2.318332910537719727e+00 -6.748458836227655411e-03
8.530000000000000000e+02 7.672274017333984375e+01 7.247917175292968750e+00 1.012979890219867229e-03 7.689855098724365234e+00 2.307260513305664062e+00 -2.637015841901302338e-02
8.540000000000000000e+02 7.793878936767578125e+01 2.935655212402343750e+01 2.985414466820657253e-04 7.549087524414062500e+00 2.264815807342529297e+00 -9.224367327988147736e-03
8.550000000000000000e+02 7.904750823974609375e+01 4.132034683227539062e+01 -6.458603311330080032e-03 7.508707523345947266e+00 2.250674724578857422e+00 -4.565503913909196854e-03
8.560000000000000000e+02 7.584208679199218750e+01 3.587058258056640625e+01 3.161728847771883011e-03 7.556313991546630859e+00 2.267842769622802734e+00 -8.537499234080314636e-03
8.570000000000000000e+02 7.738787078857421875e+01 3.699824905395507812e+01 4.202541604172438383e-04 7.536138057708740234e+00 2.260967493057250977e+00 -3.849552944302558899e-03
8.580000000000000000e+02 7.706842041015625000e+01 3.502196121215820312e+01 1.142179709859192371e-03 7.542958736419677734e+00 2.263230323791503906e+00 -6.169142667204141617e-03
8.590000000000000000e+02 7.803970336914062500e+01 9.967449188232421875e+00 -2.497266395948827267e-04 7.663977622985839844e+00 2.299118280410766602e+00 -1.591051369905471802e-02
8.600000000000000000e+02 7.674526977539062500e+01 2.636553943157196045e-01 4.730720320367254317e-05 7.739911556243896484e+00 2.321987628936767578e+00 -2.749431133270263672e-02
8.610000000000000000e+02 7.803836059570312500e+01 2.971667051315307617e+00 4.514979664236307144e-04 7.717410087585449219e+00 2.315358400344848633e+00 -1.748566329479217529e-02
8.620000000000000000e+02 7.805017089843750000e+01 -1.203897953033447266e+00 -7.072814332786947489e-05 7.750839710235595703e+00 2.325230598449707031e+00 -1.764781586825847626e-02
8.630000000000000000e+02 7.935166931152343750e+01 -2.718313217163085938e+00 -9.839045378612354398e-05 7.764165401458740234e+00 2.329220056533813477e+00 -6.765970028936862946e-03
8.640000000000000000e+02 7.805845642089843750e+01 -8.159101486206054688e+00 -2.239629538962617517e-04 7.807511329650878906e+00 2.342186212539672852e+00 -1.775448583066463470e-02
8.650000000000000000e+02 7.805910491943359375e+01 -5.387094974517822266e+00 -2.386494816164486110e-05 7.784895420074462891e+00 2.335461616516113281e+00 -1.784973219037055969e-02
8.660000000000000000e+02 7.935396575927734375e+01 -9.678626060485839844e+00 -2.537058317102491856e-04 7.825935840606689453e+00 2.347704648971557617e+00 -6.683660205453634262e-03
8.670000000000000000e+02 7.809723663330078125e+01 -1.368083763122558594e+01 -6.640504579991102219e-04 7.851984977722167969e+00 2.355396270751953125e+00 -1.662047952413558960e-02
8.680000000000000000e+02 7.808458709716796875e+01 -1.230783176422119141e+01 1.513921160949394107e-04 7.841145515441894531e+00 2.352389097213745117e+00 -1.703871786594390869e-02
8.690000000000000000e+02 7.937163543701171875e+01 -1.661537933349609375e+01 5.920532857999205589e-04 7.885395050048828125e+00 2.365796089172363281e+00 -6.188665516674518585e-03
8.700000000000000000e+02 7.810349273681640625e+01 -1.915368843078613281e+01 -1.125840470194816589e-03 7.893402576446533203e+00 2.367682933807373047e+00 -1.521434821188449860e-02
8.710000000000000000e+02 2.205455207824707031e+01 1.216633439064025879e+00 -9.250215440988540649e-02 7.994293212890625000e+00 2.370537281036376953e+00 2.795230150222778320e-01
8.720000000000000000e+02 2.341542434692382812e+01 2.509166002273559570e+00 8.282616734504699707e-02 8.011976242065429688e+00 2.428440809249877930e+00 1.671466529369354248e-01
8.730000000000000000e+02 2.012266731262207031e+01 -1.400898170471191406e+01 1.622069031000137329e-01 8.082293510437011719e+00 2.473350048065185547e+00 4.383158087730407715e-01
8.740000000000000000e+02 1.360288906097412109e+01 -3.843483734130859375e+01 -3.997461497783660889e-01 7.921914011240005493e-02 -9.615810215473175049e-02 -2.218257784843444824e-01
8.750000000000000000e+02 1.980078125000000000e+01 -1.817153167724609375e+01 -4.450879618525505066e-02 6.763976573944091797e+00 2.015840291976928711e+00 4.066825807094573975e-01
8.760000000000000000e+02 1.114487648010253906e+01 -3.220797729492187500e+01 -5.165156908333301544e-03 -1.130948308855295181e-03 -1.888831495307385921e-03 5.872958805412054062e-03
8.770000000000000000e+02 2.037192153930664062e+01 -5.615359783172607422e+00 -7.814124971628189087e-02 7.129030227661132812e+00 2.115266799926757812e+00 2.804463207721710205e-01
8.780000000000000000e+02 2.196656227111816406e+01 -1.777690798044204712e-01 -8.228915184736251831e-02 7.910199165344238281e+00 2.348372936248779297e+00 4.180601537227630615e-01
8.790000000000000000e+02 2.161967658996582031e+01 -8.595219612121582031e+00 5.561018362641334534e-02 7.592001438140869141e+00 2.294283390045166016e+00 2.974962890148162842e-01
8.800000000000000000e+02 2.120150375366210938e+01 -1.955467033386230469e+01 -1.081671118736267090e-01 7.169780731201171875e+00 2.118484020233154297e+00 3.283164203166961670e-01
8.810000000000000000e+02 2.170513916015625000e+01 -5.798202037811279297e+00 -1.357708275318145752e-01 7.570164203643798828e+00 2.230318069458007812e+00 2.980414330959320068e-01
8.820000000000000000e+02 1.966240501403808594e+01 -3.360893249511718750e+01 1.785481572151184082e-01 8.254377365112304688e+00 2.529877901077270508e+00 3.330955505371093750e-01
8.830000000000000000e+02 2.126912689208984375e+01 -1.549602794647216797e+01 7.722324132919311523e-02 7.473998546600341797e+00 2.265366554260253906e+00 2.477945238351821899e-01
8.840000000000000000e+02 2.133831596374511719e+01 -1.412242603302001953e+01 2.064431607723236084e-01 7.493465900421142578e+00 2.309972763061523438e+00 3.283978402614593506e-01
8.850000000000000000e+02 2.175770950317382812e+01 -4.393289089202880859e+00 -1.008553355932235718e-01 7.620965003967285156e+00 2.256032943725585938e+00 2.285642921924591064e-01
8.860000000000000000e+02 2.232372093200683594e+01 6.917959213256835938e+00 7.732351869344711304e-02 8.319027900695800781e+00 2.518905401229858398e+00 1.987108886241912842e-01
8.870000000000000000e+02 2.453950881958007812e+01 -2.216345787048339844e+01 -8.006679266691207886e-02 7.316602706909179688e+00 2.170960664749145508e+00 1.881343573331832886e-01
8.880000000000000000e+02 1.183719253540039062e+01 -2.826164817810058594e+01 -1.703936420381069183e-02 -1.320888567715883255e-02 -9.074475616216659546e-03 4.096458142157644033e-04
8.890000000000000000e+02 2.215141487121582031e+01 2.635541439056396484e+00 1.069548800587654114e-01 8.091947555541992188e+00 2.459670782089233398e+00 2.339873611927032471e-01
8.900000000000000000e+02 1.454208374023437500e+01 -2.486027336120605469e+01 2.479497343301773071e-02 4.885805770754814148e-03 8.904233574867248535e-03 -2.043971791863441467e-03
8.910000000000000000e+02 1.129030990600585938e+01 -2.596799087524414062e+01 -1.395335607230663300e-02 -1.523278537206351757e-03 -4.642990417778491974e-03 -5.361939314752817154e-03
8.920000000000000000e+02 2.111455535888671875e+01 -2.645891380310058594e+01 -2.358515001833438873e-02 7.200646877288818359e+00 2.153118610382080078e+00 1.610504090785980225e-01
8.930000000000000000e+02 2.105332756042480469e+01 2.673344802856445312e+01 -6.678126286715269089e-03 7.360084533691406250e+00 2.206021785736083984e+00 7.440330088138580322e-02
8.940000000000000000e+02 2.107703018188476562e+01 1.127165603637695312e+01 3.067727433517575264e-03 8.115396499633789062e+00 2.435539245605468750e+00 2.657909877598285675e-02
8.950000000000000000e+02 2.100244712829589844e+01 3.090991401672363281e+01 -6.169606000185012817e-02 6.265188694000244141e+00 1.861047744750976562e+00 2.707452774047851562e-01
8.960000000000000000e+02 2.349879837036132812e+01 2.921146011352539062e+01 -2.506860196590423584e-01 7.601299762725830078e+00 2.205183982849121094e+00 4.551178812980651855e-01
8.970000000000000000e+02 1.483031463623046875e+01 -2.150038719177246094e+00 1.139900879934430122e-03 4.524151445366442204e-04 4.776948189828544855e-04 -3.066901990678161383e-05
8.980000000000000000e+02 2.154550933837890625e+01 -9.998824119567871094e+00 7.307548820972442627e-02 7.578408241271972656e+00 2.295445203781127930e+00 2.284853905439376831e-01
8.990000000000000000e+02 2.166780853271484375e+01 -7.193716526031494141e+00 -7.421749085187911987e-02 7.543513774871826172e+00 2.240788936614990234e+00 3.031805455684661865e-01
9.000000000000000000e+02 2.235921478271484375e+01 9.759547233581542969e+00 2.284126169979572296e-02 8.155967712402343750e+00 2.453642606735229492e+00 9.765432775020599365e-02
9.010000000000000000e+02 2.346963310241699219e+01 3.050256729125976562e+01 -4.055814743041992188e-01 7.705304622650146484e+00 2.189916849136352539e+00 5.819306373596191406e-01
9.020000000000000000e+02 2.237409591674804688e+01 1.822785949707031250e+01 -4.181781318038702011e-03 7.889463424682617188e+00 2.365584611892700195e+00 6.159061193466186523e-02
9.030000000000000000e+02 2.107506942749023438e+01 2.252758026123046875e+01 -4.624077118933200836e-03 7.707645893096923828e+00 2.310906648635864258e+00 3.391695022583007812e-02
9.040000000000000000e+02 2.356890869140625000e+01 2.653186416625976562e+01 -1.065926998853683472e-01 7.652923583984375000e+00 2.263899326324462891e+00 2.672498822212219238e-01
9.050000000000000000e+02 2.107921791076660156e+01 1.971627998352050781e+01 -1.952716498635709286e-03 7.832726478576660156e+00 2.349232196807861328e+00 2.361678518354892731e-02
9.060000000000000000e+02 2.237207794189453125e+01 1.962985610961914062e+01 -6.474026013165712357e-03 7.845982551574707031e+00 2.351852655410766602e+00 6.701932847499847412e-02
9.070000000000000000e+02 2.236774063110351562e+01 2.103361701965332031e+01 -1.109796203672885895e-02 7.797263145446777344e+00 2.335849523544311523e+00 7.963512837886810303e-02
9.080000000000000000e+02 2.227056121826171875e+01 2.798782157897949219e+01 -7.620651274919509888e-02 7.352125644683837891e+00 2.182775735855102539e+00 2.761655747890472412e-01
9.090000000000000000e+02 2.360432052612304688e+01 2.516186904907226562e+01 -7.557705044746398926e-02 7.700207233428955078e+00 2.287389039993286133e+00 2.139388620853424072e-01
9.100000000000000000e+02 2.236928749084472656e+01 1.258999729156494141e+01 7.668916601687669754e-03 8.052183151245117188e+00 2.417955636978149414e+00 6.606666743755340576e-02
9.110000000000000000e+02 2.237067222595214844e+01 1.400119495391845703e+01 2.871338278055191040e-03 8.009198188781738281e+00 2.403620719909667969e+00 5.863106250762939453e-02
9.120000000000000000e+02 1.321996212005615234e+01 -1.468637752532958984e+01 7.069130893796682358e-03 6.834971136413514614e-04 2.325788373127579689e-03 -1.402533729560673237e-03
9.130000000000000000e+02 1.353502941131591797e+01 -7.925237655639648438e+00 -4.902037326246500015e-03 -2.207632060162723064e-04 -1.536840223707258701e-03 8.563542505726218224e-04
9.140000000000000000e+02 1.459078311920166016e+01 -7.928379058837890625e+00 5.450197961181402206e-03 8.666824578540399671e-05 1.661059795878827572e-03 -2.838412474375218153e-04
9.150000000000000000e+02 1.109794902801513672e+01 -3.335257768630981445e+00 1.374439569190144539e-03 9.977106237784028053e-04 7.116450578905642033e-04 -1.559750176966190338e-03
9.160000000000000000e+02 1.344840431213378906e+01 -1.196592426300048828e+01 6.334695499390363693e-03 4.177398805040866137e-04 2.025730675086379051e-03 -1.102541922591626644e-03
9.170000000000000000e+02 1.455463600158691406e+01 -1.209366989135742188e+01 -7.328394800424575806e-03 -1.184148350148461759e-04 -2.234042854979634285e-03 7.575133349746465683e-04
9.180000000000000000e+02 1.358700180053710938e+01 -5.297766208648681641e+00 -3.810775233432650566e-03 -2.552025252953171730e-04 -1.219793339259922504e-03 6.355104269459843636e-04
9.190000000000000000e+02 1.460766410827636719e+01 -5.184456825256347656e+00 3.929902799427509308e-03 1.739569561323150992e-04 1.231157919391989708e-03 1.449983392376452684e-04
9.200000000000000000e+02 1.448201179504394531e+01 -1.488133430480957031e+01 -8.106442168354988098e-03 -1.548312138766050339e-04 -2.478382084518671036e-03 1.023022574372589588e-03
9.210000000000000000e+02 1.433241653442382812e+01 -1.908495140075683594e+01 1.040686387568712234e-02 5.308069521561264992e-04 3.281301353126764297e-03 -1.647712313570082188e-03
9.220000000000000000e+02 1.361745643615722656e+01 -2.623766517639160156e+01 1.877184025943279266e-02 5.729604512453079224e-03 7.350433617830276489e-03 -7.625651080161333084e-03
9.230000000000000000e+02 2.223415374755859375e+01 2.935379791259765625e+01 -1.314650177955627441e-01 7.180039882659912109e+00 2.114572525024414062e+00 4.031953215599060059e-01
9.240000000000000000e+02 1.275450229644775391e+00 -4.007475280761718750e+01 -1.992591656744480133e-02 -6.502655893564224243e-02 -2.548574283719062805e-02 -1.132654771208763123e-02
9.250000000000000000e+02 7.667013406753540039e-01 3.732640075683593750e+01 1.045105606317520142e-02 -4.566029179841279984e-03 1.765508088283240795e-03 -2.057956997305154800e-03
9.260000000000000000e+02 6.718270778656005859e-01 3.314395141601562500e+01 -5.502683576196432114e-03 5.947380559518933296e-04 -1.472383737564086914e-03 1.948128687217831612e-03
9.270000000000000000e+02 2.516048192977905273e+00 3.792823791503906250e+01 8.474660106003284454e-03 -6.524265278130769730e-03 5.851183668710291386e-04 7.665695738978683949e-04
9.280000000000000000e+02 6.660314202308654785e-01 2.612476158142089844e+01 2.420397475361824036e-03 2.599107101559638977e-03 1.505851396359503269e-03 -5.819175275973975658e-04
9.290000000000000000e+02 1.949211001396179199e+00 2.874481773376464844e+01 -4.424631595611572266e-03 5.608143401332199574e-04 -1.159145263954997063e-03 1.116288709454238415e-03
9.300000000000000000e+02 6.854472756385803223e-01 -3.602542877197265625e+01 1.502397283911705017e-02 -3.262947872281074524e-02 -5.281651392579078674e-03 -1.762003172188997269e-03
9.310000000000000000e+02 1.974631905555725098e+00 -3.313719940185546875e+01 -1.577155105769634247e-02 -1.061178930103778839e-02 -7.915002293884754181e-03 -1.073888968676328659e-02
9.320000000000000000e+02 3.264686346054077148e+00 2.863721466064453125e+01 3.626303747296333313e-03 2.113344380632042885e-03 1.721894484944641590e-03 -4.690474888775497675e-04
9.330000000000000000e+02 3.354546070098876953e+00 2.574180221557617188e+01 5.040441639721393585e-03 2.164443256333470345e-03 2.161465352401137352e-03 3.053456021007150412e-04
9.340000000000000000e+02 2.020848751068115234e+00 3.281127929687500000e+01 5.826063454151153564e-03 1.371661899611353874e-03 2.159317722544074059e-03 1.410401426255702972e-03
9.350000000000000000e+02 3.446174383163452148e+00 3.892021179199218750e+01 -6.729590706527233124e-03 -9.102031588554382324e-03 -4.749486688524484634e-03 1.033234596252441406e-02
9.360000000000000000e+02 1.969776391983032227e+00 -3.041847801208496094e+01 -1.461565867066383362e-02 -9.374627843499183655e-04 -4.665936343371868134e-03 -6.062906235456466675e-03
9.370000000000000000e+02 2.022639274597167969e+00 -2.764161872863769531e+01 -9.626608341932296753e-03 1.770156377460807562e-04 -2.834877930581569672e-03 -2.968101063743233681e-03
9.380000000000000000e+02 2.061441659927368164e+00 -3.706658554077148438e+01 1.212950423359870911e-02 -3.322898223996162415e-02 -6.329843308776617050e-03 -9.880126453936100006e-03
9.390000000000000000e+02 1.965781092643737793e+00 -2.198126029968261719e+01 -5.754111800342798233e-03 6.987062515690922737e-04 -1.516621676273643970e-03 9.673060267232358456e-04
9.400000000000000000e+02 6.182762384414672852e-01 1.902670860290527344e+01 -4.908480681478977203e-03 2.033642958849668503e-04 -1.411534845829010010e-03 5.090851336717605591e-04
9.410000000000000000e+02 5.751590728759765625e-01 1.340866851806640625e+01 -5.312233231961727142e-03 -2.692785637918859720e-04 -1.674453495070338249e-03 1.054282067343592644e-03
9.420000000000000000e+02 5.382838845252990723e-01 7.786595821380615234e+00 -3.846015548333525658e-03 -1.568392035551369190e-04 -1.200856408104300499e-03 4.316353297326713800e-04
9.430000000000000000e+02 3.399408578872680664e+00 -3.436557769775390625e+01 -1.538818422704935074e-02 -1.202256884425878525e-02 -8.223226293921470642e-03 -1.858426630496978760e-02
9.440000000000000000e+02 2.026759624481201172e+00 -3.449026870727539062e+01 1.029777247458696365e-02 -1.711991056799888611e-02 -2.046641660854220390e-03 -1.482285559177398682e-02
9.450000000000000000e+02 1.947675943374633789e+00 -3.177960395812988281e+01 1.019171997904777527e-02 -7.154195103794336319e-03 9.112572879530489445e-04 -7.714734412729740143e-03
9.460000000000000000e+02 3.400278806686401367e+00 -2.769722938537597656e+01 5.741056520491838455e-03 1.107254764065146446e-03 2.054493408650159836e-03 8.540877024643123150e-04
9.470000000000000000e+02 1.983869075775146484e+00 -2.339705085754394531e+01 6.108561065047979355e-03 1.584321609698235989e-03 2.307864837348461151e-03 6.788532482460141182e-04
9.480000000000000000e+02 2.020236968994140625e+00 -2.623246192932128906e+01 6.791041232645511627e-03 1.927204197272658348e-03 2.615473465994000435e-03 1.296622678637504578e-03
9.490000000000000000e+02 3.219017505645751953e+00 -2.057318687438964844e+01 -6.851584650576114655e-03 1.725327019812539220e-04 -2.003715606406331062e-03 1.114128506742417812e-03
9.500000000000000000e+02 6.462262868881225586e-01 -1.916976928710937500e+01 4.184784833341836929e-03 7.903233636170625687e-04 1.492532435804605484e-03 4.239490590407513082e-05
9.510000000000000000e+02 1.929921030998229980e+00 -1.916940307617187500e+01 -5.208482034504413605e-03 4.152696346864104271e-04 -1.437963685020804405e-03 7.261938881129026413e-04
9.520000000000000000e+02 1.897248625755310059e+00 -1.636694145202636719e+01 -4.643069114536046982e-03 1.344640913885086775e-04 -1.352581428363919258e-03 4.877093597315251827e-04
9.530000000000000000e+02 6.458595395088195801e-01 -1.208988666534423828e+01 -2.944492734968662262e-03 -3.845678656944073737e-05 -8.948848699219524860e-04 -1.352515664621023461e-05
9.540000000000000000e+02 1.932258963584899902e+00 -1.208050537109375000e+01 3.744981484487652779e-03 9.608636173652485013e-05 1.152320415712893009e-03 1.246848842129111290e-05
9.550000000000000000e+02 5.077105045318603516e+00 -3.695440769195556641e+00 7.759548607282340527e-04 1.031061518006026745e-03 5.421049427241086960e-04 2.300207561347633600e-04
9.560000000000000000e+02 3.487350463867187500e+00 -2.877599477767944336e+00 -1.544111291877925396e-03 -2.571345539763569832e-04 -5.403737886808812618e-04 -3.497996949590742588e-04
9.570000000000000000e+02 2.637449264526367188e+00 -3.731908321380615234e+00 -3.083637449890375137e-03 -3.671620797831565142e-04 -1.035239896737039089e-03 1.729119685478508472e-04
9.580000000000000000e+02 1.326107859611511230e+00 -3.438056468963623047e+00 1.862699049524962902e-03 4.905853711534291506e-05 5.735273007303476334e-04 3.949550446122884750e-04
9.590000000000000000e+02 4.473166763782501221e-01 5.012068271636962891e+00 -4.633994307368993759e-03 -3.502391045913100243e-04 -1.495270058512687683e-03 -3.631018043961375952e-04
9.600000000000000000e+02 2.261483430862426758e+00 3.523627042770385742e+00 1.773568219505250454e-03 1.417072373442351818e-03 9.571921546012163162e-04 -1.899699680507183075e-03
9.610000000000000000e+02 1.741077423095703125e+00 1.044370937347412109e+01 4.158325958997011185e-03 6.802862626500427723e-04 1.451583695597946644e-03 -6.851012585684657097e-04
9.620000000000000000e+02 5.756842494010925293e-01 1.060344696044921875e+01 -4.348009359091520309e-03 -3.094812564086169004e-04 -1.397247193381190300e-03 7.039835909381508827e-04
9.630000000000000000e+02 1.721184611320495605e+00 1.321069717407226562e+01 5.288482643663883209e-03 3.563315258361399174e-04 1.693444210104644299e-03 -1.109019387513399124e-03
9.640000000000000000e+02 1.879254817962646484e+00 2.014282417297363281e+01 -5.820692516863346100e-03 6.592450663447380066e-04 -1.548434258438646793e-03 -5.816971533931791782e-04
9.650000000000000000e+02 1.853060603141784668e+00 1.873889541625976562e+01 6.116459146142005920e-03 7.112652383511886001e-05 1.856275717727839947e-03 -1.509013818576931953e-04
9.660000000000000000e+02 1.991164803504943848e+00 2.446610069274902344e+01 4.479876719415187836e-03 1.463194843381643295e-03 1.782921492122113705e-03 -6.568975550180766732e-06
9.670000000000000000e+02 2.121267509460449219e+01 3.449856185913085938e+01 1.823099404573440552e-01 3.603693962097167969e+00 1.135801196098327637e+00 1.606139183044433594e+00
9.680000000000000000e+02 2.109869384765625000e+01 3.438377761840820312e+01 2.031403034925460815e-01 3.256484508514404297e+00 1.037887454032897949e+00 1.220799684524536133e+00
9.690000000000000000e+02 2.091025352478027344e+01 3.828950500488281250e+01 -8.979670703411102295e-02 3.002909183502197266e+00 8.739337325096130371e-01 -1.715492486953735352e+00
9.700000000000000000e+02 2.061481857299804688e+01 3.862514877319335938e+01 -1.509701013565063477e-01 2.613723993301391602e+00 7.388261556625366211e-01 -1.024201750755310059e+00
9.710000000000000000e+02 1.245595741271972656e+01 -2.616657972335815430e+00 -1.835057279095053673e-03 7.153734622988849878e-05 -5.290560075081884861e-04 1.566043647471815348e-04
9.720000000000000000e+02 2.114653778076171875e+01 3.907970428466796875e+01 -2.608811855316162109e-01 4.542741775512695312e+00 1.284558176994323730e+00 -1.883530259132385254e+00
9.730000000000000000e+02 2.219260025024414062e+01 3.069257164001464844e+01 -2.334134727716445923e-01 6.963907241821289062e+00 2.019148111343383789e+00 6.113312840461730957e-01
9.740000000000000000e+02 1.393762111663818359e+01 2.673146963119506836e+00 2.164891920983791351e-03 -8.087125024758279324e-04 4.068537964485585690e-04 1.238084078067913651e-04
9.750000000000000000e+02 3.813094615936279297e+00 2.765574693679809570e+00 -1.608994905836880207e-03 -9.746009018272161484e-04 -7.750787772238254547e-04 5.446312134154140949e-04
9.760000000000000000e+02 6.024373054504394531e+00 2.602242469787597656e+00 7.850177935324609280e-04 1.243512961082160473e-03 6.085592322051525116e-04 -4.300922446418553591e-04
9.770000000000000000e+02 6.032562732696533203e+00 3.341150999069213867e+00 -9.846307802945375443e-04 -1.128050731495022774e-03 -6.338044186122715473e-04 4.782249452546238899e-04
9.780000000000000000e+02 6.730741500854492188e+00 3.266511917114257812e+00 7.643759017810225487e-04 1.304896431975066662e-03 6.207816768437623978e-04 -2.425282582407817245e-04
9.790000000000000000e+02 8.806718826293945312e+00 3.270724058151245117e+00 -1.116447499953210354e-03 -1.223635859787464142e-03 -7.020249613560736179e-04 -8.609901415184140205e-04
9.800000000000000000e+02 6.739248752593994141e+00 2.565161943435668945e+00 -6.735136266797780991e-04 -1.313822576776146889e-03 -5.962008144706487656e-04 2.175573608838021755e-04
9.810000000000000000e+02 7.420293331146240234e+00 3.223771333694458008e+00 -6.860119756311178207e-04 -1.395590952597558498e-03 -6.244808319024741650e-04 -1.260767894564196467e-04
9.820000000000000000e+02 4.540411949157714844e+00 3.582193136215209961e+00 -1.055845059454441071e-03 -1.097482745535671711e-03 -6.459983414970338345e-04 5.316120223142206669e-04
9.830000000000000000e+02 4.552433967590332031e+00 2.722521066665649414e+00 1.067941309884190559e-03 1.098263775929808617e-03 6.498615257441997528e-04 -7.288506603799760342e-04
9.840000000000000000e+02 1.823061823844909668e+00 2.608547210693359375e+00 1.437174621969461441e-03 1.016767113469541073e-03 7.361824973486363888e-04 5.160270957276225090e-04
9.850000000000000000e+02 1.106605434417724609e+01 2.577643632888793945e+00 -1.679868437349796295e-03 -1.849247200880199671e-04 -5.594379617832601070e-04 -4.440568445716053247e-04
9.860000000000000000e+02 1.104584217071533203e+01 3.368648767471313477e+00 1.892836298793554306e-03 4.416968440636992455e-04 7.003599312156438828e-04 7.607321022078394890e-04
9.870000000000000000e+02 1.967422866821289062e+01 3.832442855834960938e+01 -5.809503197669982910e-01 -2.810237742960453033e-02 -1.827158033847808838e-01 -4.408631622791290283e-01
9.880000000000000000e+02 1.256456565856933594e+01 2.974027395248413086e+00 1.162844011560082436e-03 -6.813397631049156189e-04 1.444512599846348166e-04 -6.769162137061357498e-04
9.890000000000000000e+02 9.688995361328125000e+00 -3.305821657180786133e+00 1.230292953550815582e-03 9.264135733246803284e-04 6.470119697041809559e-04 -2.804874966386705637e-04
9.900000000000000000e+02 1.361021137237548828e+01 -4.050932407379150391e+00 3.390750614926218987e-03 2.773008018266409636e-04 1.100415480323135853e-03 -8.287596283480525017e-04
9.910000000000000000e+02 9.795636177062988281e+00 -3.992987871170043945e+00 -1.246676314622163773e-03 -8.907063747756183147e-04 -6.412147777155041695e-04 -7.913615263532847166e-05
9.920000000000000000e+02 1.373548698425292969e+01 4.092540264129638672e+00 2.881866414099931717e-03 2.580254513304680586e-04 9.419675334356725216e-04 6.742905825376510620e-04
9.930000000000000000e+02 6.681449413299560547e+00 -3.563525438308715820e+00 1.258242875337600708e-03 7.338043651543557644e-04 5.976141546852886677e-04 -4.200906550977379084e-04
9.940000000000000000e+02 2.818972826004028320e+00 -7.510351181030273438e+00 3.269188804551959038e-03 -2.558564010541886091e-04 9.039996657520532608e-04 6.067536887712776661e-04
9.950000000000000000e+02 7.689423084259033203e+00 -5.291471958160400391e+00 -2.558555454015731812e-03 -4.152678593527525663e-04 -8.921470143832266331e-04 1.128434203565120697e-03
9.960000000000000000e+02 5.881479263305664062e+00 -3.619462490081787109e+00 -8.830251754261553288e-04 -9.131376864388585091e-04 -5.388488643802702427e-04 1.530505542177706957e-04
9.970000000000000000e+02 5.815854549407958984e+00 -2.766920089721679688e+00 7.453949656337499619e-04 8.234683773480355740e-04 4.706589970737695694e-04 2.360651342314668000e-05
9.980000000000000000e+02 2.098845720291137695e+00 -3.120933532714843750e+00 -2.522925205994397402e-04 3.980509791290387511e-05 -6.374622898874804378e-05 2.037132435361854732e-05
9.990000000000000000e+02 4.327857494354248047e+00 -4.738954544067382812e+00 1.194398500956594944e-03 9.167501120828092098e-04 6.333445780910551548e-04 5.635104607790708542e-04
1.000000000000000000e+03 1.480522394180297852e+00 -4.842150211334228516e+00 -2.331518800929188728e-03 -2.275697479490190744e-04 -7.677265675738453865e-04 -3.683506511151790619e-04
1.001000000000000000e+03 8.986310958862304688e+00 -3.383924245834350586e+00 -1.684874761849641800e-03 -5.618188879452645779e-04 -6.740081007592380047e-04 4.786580029758624732e-05
1.002000000000000000e+03 2.424204063415527344e+01 3.385705947875976562e+01 -2.515307366847991943e-01 9.161030769348144531e+00 2.672850131988525391e+00 -1.364774703979492188e-01
1.003000000000000000e+03 2.474705314636230469e+01 3.494093322753906250e+01 1.085705518722534180e+00 8.900534629821777344e+00 2.995872020721435547e+00 -6.231542229652404785e-01
1.004000000000000000e+03 2.379176139831542969e+01 3.952892303466796875e+01 -6.936786174774169922e-01 8.109781265258789062e+00 2.224830865859985352e+00 2.345938682556152344e-01
1.005000000000000000e+03 2.770373916625976562e+01 3.513219070434570312e+01 6.591687798500061035e-01 8.218208312988281250e+00 2.663213014602661133e+00 -1.062708422541618347e-01
1.006000000000000000e+03 1.154961204528808594e+01 1.657412528991699219e+01 5.752964876592159271e-03 -1.957479689735919237e-04 1.667165081016719341e-03 -7.498040795326232910e-04
1.007000000000000000e+03 1.191785526275634766e+01 1.059956264495849609e+01 4.801106173545122147e-03 1.798606899683363736e-05 1.445727772079408169e-03 3.747366135939955711e-04
1.008000000000000000e+03 2.101967620849609375e+01 3.424285888671875000e+01 2.414133846759796143e-01 2.803765296936035156e+00 9.135536551475524902e-01 1.193655490875244141e+00
1.009000000000000000e+03 1.255134582519531250e+01 2.698250198364257812e+01 1.930535584688186646e-02 3.619521157816052437e-03 6.877462845295667648e-03 6.393394898623228073e-03
1.010000000000000000e+03 2.270670700073242188e+01 -1.153217124938964844e+01 9.739317744970321655e-02 7.581305980682373047e+00 2.303609609603881836e+00 2.982194125652313232e-01
1.011000000000000000e+03 2.332716751098632812e+01 1.088040590286254883e+00 -2.135094255208969116e-03 7.976944923400878906e+00 2.392442941665649414e+00 2.331146001815795898e-01
1.012000000000000000e+03 2.432839775085449219e+01 -5.940036296844482422e+00 -5.473947525024414062e-02 7.682384967803955078e+00 2.288293600082397461e+00 2.482527792453765869e-01
1.013000000000000000e+03 2.300390052795410156e+01 -7.332257747650146484e+00 -4.307653382420539856e-02 7.631394863128662109e+00 2.276495456695556641e+00 3.057216703891754150e-01
1.014000000000000000e+03 2.267330741882324219e+01 -1.813717079162597656e+01 -1.040590703487396240e-01 7.361668586730957031e+00 2.177282810211181641e+00 2.305787652730941772e-01
1.015000000000000000e+03 2.189525794982910156e+01 -1.565678000450134277e+00 6.212825328111648560e-02 7.664336204528808594e+00 2.317939281463623047e+00 4.236077070236206055e-01
1.016000000000000000e+03 2.316783142089843750e+01 -1.687269210815429688e+00 -8.496738038957118988e-03 7.764905452728271484e+00 2.326922655105590820e+00 2.663012444972991943e-01
1.017000000000000000e+03 1.128428554534912109e+01 3.208620452880859375e+01 -1.933459192514419556e-02 -2.727913670241832733e-03 -6.618751678615808487e-03 8.720648474991321564e-03
1.018000000000000000e+03 1.431771564483642578e+01 3.343850708007812500e+01 -5.540815740823745728e-02 -7.384813390672206879e-03 -1.883789151906967163e-02 1.903441920876502991e-02
1.019000000000000000e+03 1.317969131469726562e+01 2.171921157836914062e+01 -1.367277372628450394e-02 -2.307211107108741999e-04 -4.171048291027545929e-03 -1.578177791088819504e-03
1.020000000000000000e+03 1.179853534698486328e+01 1.783010482788085938e+01 -8.111500181257724762e-03 -3.203308442607522011e-04 -2.529549179598689079e-03 -5.394330946728587151e-04
1.021000000000000000e+03 2.253881454467773438e+01 -1.550835227966308594e+01 6.632530689239501953e-02 7.409656524658203125e+00 2.242794513702392578e+00 2.126316577196121216e-01
1.022000000000000000e+03 1.147587013244628906e+01 1.446598434448242188e+01 -5.011493340134620667e-03 -1.501064980402588844e-03 -1.953767379745841026e-03 -2.503784140571951866e-03
1.023000000000000000e+03 1.353411865234375000e+01 6.365049839019775391e+00 3.311681328341364861e-03 1.239246485056355596e-04 1.030681771226227283e-03 8.685422944836318493e-04
1.024000000000000000e+03 9.996501922607421875e+00 5.054723262786865234e+00 -1.999137457460165024e-03 -7.380538154393434525e-04 -8.211574167944490910e-04 -1.009904881357215345e-04
1.025000000000000000e+03 1.176163578033447266e+01 1.315198421478271484e+01 5.759633611887693405e-03 5.977607797831296921e-04 1.907218364067375660e-03 2.017455874010920525e-03
1.026000000000000000e+03 1.368164062500000000e+01 5.146162986755371094e+00 -2.794462023302912712e-03 -2.286823873873800039e-04 -9.069433435797691345e-04 -7.497292826883494854e-04
1.027000000000000000e+03 8.703155517578125000e+00 3.976433753967285156e+00 1.246730680577456951e-03 1.340169575996696949e-03 7.760701118968427181e-04 1.061910530552268028e-03
1.028000000000000000e+03 7.382625102996826172e+00 -3.229094696044921875e+01 -3.237004205584526062e-02 3.132648393511772156e-02 -3.130681870970875025e-04 -9.380646049976348877e-03
1.029000000000000000e+03 1.282219505310058594e+01 -3.127551460266113281e+01 2.453913353383541107e-02 -1.121203415095806122e-03 7.025379221886396408e-03 -9.623094461858272552e-03
1.030000000000000000e+03 1.170430564880371094e+01 2.048234176635742188e+01 -1.071634981781244278e-02 -1.435655285604298115e-03 -3.645601449534296989e-03 -1.686740899458527565e-03
1.031000000000000000e+03 7.526174163818359375e+01 -3.479724502563476562e+01 -7.950327359139919281e-03 7.935472965240478516e+00 2.378256797790527344e+00 -1.539022661745548248e-02
1.032000000000000000e+03 7.713616180419921875e+01 -3.588070297241210938e+01 -4.472887143492698669e-03 7.965343475341796875e+00 2.388261079788208008e+00 -5.834083072841167450e-03
1.033000000000000000e+03 7.547303771972656250e+01 -2.137472915649414062e+01 -2.773453481495380402e-03 7.882435798645019531e+00 2.363898754119873047e+00 -3.052061796188354492e-02
1.034000000000000000e+03 7.791664886474609375e+01 -2.896474075317382812e+01 -4.739427822642028332e-06 7.951709270477294922e+00 2.385511398315429688e+00 -1.168831810355186462e-02
1.035000000000000000e+03 7.339084625244140625e+01 -3.750496292114257812e+01 -1.055195741355419159e-02 7.911042213439941406e+00 2.370147228240966797e+00 -1.310695428401231766e-02
1.036000000000000000e+03 7.523882293701171875e+01 1.439588451385498047e+01 2.037814352661371231e-03 7.652989864349365234e+00 2.296508312225341797e+00 -3.231819346547126770e-02
1.037000000000000000e+03 7.671747589111328125e+01 1.564712524414062500e+01 1.624675816856324673e-03 7.634997367858886719e+00 2.290986537933349609e+00 -2.331515960395336151e-02
1.038000000000000000e+03 7.818414306640625000e+01 3.472426223754882812e+01 -4.630185139831155539e-04 7.527635574340820312e+00 2.258151769638061523e+00 -4.594882950186729431e-03
1.039000000000000000e+03 7.645773315429687500e+01 3.228622055053710938e+01 3.840380115434527397e-03 7.558001995086669922e+00 2.268552780151367188e+00 -1.252673193812370300e-02
1.040000000000000000e+03 7.807305908203125000e+01 -2.190451812744140625e+01 -1.270952634513378143e-03 7.912284374237060547e+00 2.373303890228271484e+00 -1.461223047226667404e-02
1.041000000000000000e+03 7.675621032714843750e+01 -2.299103736877441406e+01 -2.286699600517749786e-03 7.904565334320068359e+00 2.370683431625366211e+00 -2.243571728467941284e-02
1.042000000000000000e+03 7.652196502685546875e+01 -3.024882888793945312e+01 -1.162585918791592121e-03 7.937756061553955078e+00 2.380978107452392578e+00 -1.636284030973911285e-02
1.043000000000000000e+03 7.650302124023437500e+01 -2.876727867126464844e+01 -3.230170346796512604e-03 7.931049346923828125e+00 2.378345727920532227e+00 -1.846751570701599121e-02
1.044000000000000000e+03 7.808557891845703125e+01 -3.457600402832031250e+01 -7.225315202958881855e-04 7.977009773254394531e+00 2.392886161804199219e+00 -5.593060515820980072e-03
1.045000000000000000e+03 7.521213531494140625e+01 -2.547622871398925781e+01 -1.948831952176988125e-03 7.900232791900634766e+00 2.369485139846801758e+00 -2.813253737986087799e-02
1.046000000000000000e+03 7.650029754638671875e+01 -2.728632736206054688e+01 -1.803877676138654351e-04 7.924988269805908203e+00 2.377442359924316406e+00 -1.957804709672927856e-02
1.047000000000000000e+03 7.669488525390625000e+01 -2.438643836975097656e+01 -4.755083064083009958e-04 7.911440849304199219e+00 2.373289585113525391e+00 -2.140142954885959625e-02
1.048000000000000000e+03 7.674655914306640625e+01 -3.459688949584960938e+01 -4.374634940177202225e-03 7.958367824554443359e+00 2.386198043823242188e+00 -8.317756466567516327e-03
1.049000000000000000e+03 7.274063110351562500e+01 -3.052591323852539062e+01 -1.045312266796827316e-02 7.889399051666259766e+00 2.363683700561523438e+00 -3.076752461493015289e-02
1.050000000000000000e+03 7.654399871826171875e+01 -3.172585296630859375e+01 -3.694326849654316902e-03 7.942994594573974609e+00 2.381790161132812500e+00 -1.526402123272418976e-02
1.051000000000000000e+03 7.798444366455078125e+01 2.247861289978027344e+01 1.241140067577362061e-03 7.582746028900146484e+00 2.275196075439453125e+00 -1.310688629746437073e-02
1.052000000000000000e+03 7.667740631103515625e+01 1.978990173339843750e+01 5.441559187602251768e-05 7.610935688018798828e+00 2.283297061920166016e+00 -2.058932185173034668e-02
1.053000000000000000e+03 7.506618499755859375e+01 2.264675712585449219e+01 2.379364101216197014e-03 7.612795829772949219e+00 2.284552574157714844e+00 -2.700513601303100586e-02
1.054000000000000000e+03 7.660894775390625000e+01 2.118187522888183594e+01 1.240721554495394230e-03 7.604531764984130859e+00 2.281731843948364258e+00 -2.083636261522769928e-02
1.055000000000000000e+03 7.666702270507812500e+01 1.288235092163085938e+01 1.324811833910644054e-03 7.652392864227294922e+00 2.296115159988403320e+00 -2.454069256782531738e-02
1.056000000000000000e+03 7.535427093505859375e+01 8.686464309692382812e+00 1.688306569121778011e-03 7.686345100402832031e+00 2.306410074234008789e+00 -3.483815491199493408e-02
1.057000000000000000e+03 7.668591308593750000e+01 1.427407455444335938e+01 -4.411575719132088125e-05 7.643778324127197266e+00 2.293120384216308594e+00 -2.356407232582569122e-02
1.058000000000000000e+03 7.798352050781250000e+01 2.659277725219726562e+01 -1.762894535204395652e-04 7.561194896697998047e+00 2.268305540084838867e+00 -1.110149174928665161e-02
1.059000000000000000e+03 7.809030151367187500e+01 -2.053030586242675781e+01 4.990063607692718506e-04 7.902919769287109375e+00 2.371025562286376953e+00 -1.494922954589128494e-02
1.060000000000000000e+03 7.678570556640625000e+01 -2.163723373413085938e+01 6.560204201377928257e-05 7.896353244781494141e+00 2.368925571441650391e+00 -2.279607765376567841e-02
1.061000000000000000e+03 7.555634307861328125e+01 -1.478141975402832031e+01 -5.481427069753408432e-04 7.842701435089111328e+00 2.352646112442016602e+00 -3.429667651653289795e-02
1.062000000000000000e+03 7.549982452392578125e+01 -9.383876800537109375e+00 -2.855205675587058067e-04 7.806353092193603516e+00 2.341820240020751953e+00 -3.649041056632995605e-02
1.063000000000000000e+03 7.810643005371093750e+01 -1.504714775085449219e+01 3.402392903808504343e-04 7.862682342529296875e+00 2.358906745910644531e+00 -1.640499755740165710e-02
1.064000000000000000e+03 7.676654052734375000e+01 -3.920186281204223633e+00 1.129782394855283201e-04 7.770931720733642578e+00 2.331313371658325195e+00 -2.793018519878387451e-02
1.065000000000000000e+03 7.676543426513671875e+01 -6.692844390869140625e+00 -1.573859190102666616e-04 7.791676998138427734e+00 2.337455987930297852e+00 -2.794783748686313629e-02
1.066000000000000000e+03 7.803994750976562500e+01 5.765260696411132812e+00 5.883790436200797558e-04 7.695649147033691406e+00 2.308871269226074219e+00 -1.706370525062084198e-02
1.067000000000000000e+03 7.672994995117187500e+01 3.039455890655517578e+00 3.680619920487515628e-05 7.719697952270507812e+00 2.315920591354370117e+00 -2.706990391016006470e-02
1.068000000000000000e+03 7.663516235351562500e+01 3.372840118408203125e+01 2.557572210207581520e-03 7.549991607666015625e+00 2.265764713287353516e+00 -9.073477238416671753e-03
1.069000000000000000e+03 7.799824523925781250e+01 3.581894302368164062e+01 1.547540887258946896e-03 7.529784679412841797e+00 2.259399652481079102e+00 -3.826804691925644875e-03
1.070000000000000000e+03 7.804273223876953125e+01 7.165414810180664062e+00 -2.161114098271355033e-04 7.684935092926025391e+00 2.305415630340576172e+00 -1.657292619347572327e-02
1.071000000000000000e+03 7.672438812255859375e+01 5.842048168182373047e+00 3.830237255897372961e-05 7.699718952178955078e+00 2.309927225112915039e+00 -2.644415572285652161e-02
1.072000000000000000e+03 7.676245117187500000e+01 -2.534002065658569336e+00 4.437593815964646637e-05 7.760661602020263672e+00 2.328211784362792969e+00 -2.770309895277023315e-02
1.073000000000000000e+03 7.677476501464843750e+01 -9.446922302246093750e+00 -4.890539566986262798e-04 7.812242984771728516e+00 2.343526124954223633e+00 -2.762369066476821899e-02
1.074000000000000000e+03 7.684561920166015625e+01 -1.624007225036621094e+01 6.607024261029437184e-05 7.861665725708007812e+00 2.358519554138183594e+00 -2.523652836680412292e-02
1.075000000000000000e+03 7.506356048583984375e+01 3.415879821777343750e+01 5.096409469842910767e-03 7.572818756103515625e+00 2.273374557495117188e+00 -1.410094927996397018e-02
1.076000000000000000e+03 7.644350433349609375e+01 3.082124328613281250e+01 2.628446323797106743e-03 7.563030242919921875e+00 2.269697666168212891e+00 -1.354739442467689514e-02
1.077000000000000000e+03 7.673616027832031250e+01 1.840552711486816406e+01 1.966231968253850937e-03 7.618513107299804688e+00 2.286143779754638672e+00 -2.189603075385093689e-02
1.078000000000000000e+03 7.669042968750000000e+01 1.006594085693359375e+01 1.298550982028245926e-03 7.670661926269531250e+00 2.301588296890258789e+00 -2.559848688542842865e-02
1.079000000000000000e+03 7.683448791503906250e+01 -1.489632892608642578e+01 -1.023803954012691975e-03 7.852231502532958984e+00 2.355362415313720703e+00 -2.565895207226276398e-02
1.080000000000000000e+03 7.805844116210937500e+01 -6.776668071746826172e+00 5.405638876254670322e-05 7.796286582946777344e+00 2.338902235031127930e+00 -1.776116713881492615e-02
1.081000000000000000e+03 7.676616668701171875e+01 -8.068107604980468750e+00 -1.867825631052255630e-05 7.802006244659423828e+00 2.340596199035644531e+00 -2.773372456431388855e-02
1.082000000000000000e+03 7.804174041748046875e+01 1.578713297843933105e+00 -1.326860801782459021e-04 7.728486061096191406e+00 2.318506002426147461e+00 -1.742978394031524658e-02
1.083000000000000000e+03 7.675456237792968750e+01 -1.132063031196594238e+00 3.613603475969284773e-04 7.750143051147460938e+00 2.325151443481445312e+00 -2.782310917973518372e-02
1.084000000000000000e+03 7.672568511962890625e+01 4.440176010131835938e+00 7.941953372210264206e-04 7.709590435028076172e+00 2.313115358352661133e+00 -2.708635292947292328e-02
1.085000000000000000e+03 7.676716613769531250e+01 -5.308205604553222656e+00 4.415514194988645613e-05 7.781366825103759766e+00 2.334423303604125977e+00 -2.780064940452575684e-02
1.086000000000000000e+03 7.417853546142578125e+01 -5.273862361907958984e+00 6.547733210027217865e-05 7.775364398956298828e+00 2.332628965377807617e+00 -4.540321603417396545e-02
1.087000000000000000e+03 7.680747985839843750e+01 -1.219017028808593750e+01 -8.228276856243610382e-04 7.832653999328613281e+00 2.349549293518066406e+00 -2.673211880028247833e-02
1.088000000000000000e+03 7.682159423828125000e+01 -1.354742527008056641e+01 -9.257316560251638293e-05 7.842670440673828125e+00 2.352773427963256836e+00 -2.622656337916851044e-02
1.089000000000000000e+03 7.679036712646484375e+01 -1.082162857055664062e+01 -1.285724138142541051e-04 7.822595596313476562e+00 2.346740007400512695e+00 -2.716460078954696655e-02
1.090000000000000000e+03 7.681501007080078125e+01 -2.028727722167968750e+01 -1.772051560692489147e-03 7.888699531555175781e+00 2.366078376770019531e+00 -2.339960820972919464e-02
1.091000000000000000e+03 7.684873199462890625e+01 -1.757984733581542969e+01 -1.457137404941022396e-03 7.870858669281005859e+00 2.360820531845092773e+00 -2.474525757133960724e-02
1.092000000000000000e+03 7.558477783203125000e+01 -1.741181755065917969e+01 -4.376847355160862207e-04 7.859024047851562500e+00 2.357575893402099609e+00 -3.288944810628890991e-02
1.093000000000000000e+03 2.228898620605468750e+01 5.494131088256835938e+00 1.890475600957870483e-01 8.302580833435058594e+00 2.547488451004028320e+00 2.804434895515441895e-01
1.094000000000000000e+03 2.366870307922363281e+01 1.112617588043212891e+01 2.832160703837871552e-02 8.068024635314941406e+00 2.428903818130493164e+00 1.184555590152740479e-01
1.095000000000000000e+03 2.260663223266601562e+01 -2.500217056274414062e+01 -6.610669195652008057e-02 7.254919052124023438e+00 2.156643629074096680e+00 1.920175850391387939e-01
1.096000000000000000e+03 2.118365669250488281e+01 -2.228950881958007812e+01 -1.742272451519966125e-02 7.074638843536376953e+00 2.117164850234985352e+00 1.608789265155792236e-01
1.097000000000000000e+03 2.366048431396484375e+01 9.700191497802734375e+00 4.300184920430183411e-02 8.099482536315917969e+00 2.442745208740234375e+00 1.366375237703323364e-01
1.098000000000000000e+03 1.273149776458740234e+01 -2.658551979064941406e+01 -6.493748631328344345e-03 -7.637324742972850800e-03 -4.239322151988744736e-03 -2.733788453042507172e-03
1.099000000000000000e+03 2.480426216125488281e+01 3.161994934082031250e+01 -4.898627400398254395e-01 8.389263153076171875e+00 2.369820117950439453e+00 2.694678902626037598e-01
1.100000000000000000e+03 2.230139732360839844e+01 2.661402320861816406e+01 -5.227690190076828003e-02 7.484592914581298828e+00 2.229694843292236328e+00 2.035150676965713501e-01
1.101000000000000000e+03 2.353350830078125000e+01 2.787988471984863281e+01 -1.644651293754577637e-01 7.612252235412597656e+00 2.234336137771606445e+00 3.503160476684570312e-01
1.102000000000000000e+03 1.354695320129394531e+01 -6.594345092773437500e+00 4.312918521463871002e-03 3.069088852498680353e-04 1.385948155075311661e-03 -7.318353746086359024e-04
1.103000000000000000e+03 2.367680168151855469e+01 1.958958244323730469e+01 -1.660935766994953156e-02 7.866290569305419922e+00 2.354904413223266602e+00 1.061071380972862244e-01
1.104000000000000000e+03 2.232900428771972656e+01 2.522573280334472656e+01 -3.084953315556049347e-02 7.590681076049804688e+00 2.267949581146240234e+00 1.499283164739608765e-01
1.105000000000000000e+03 2.492378234863281250e+01 2.375503349304199219e+01 -8.262265473604202271e-02 7.828603744506835938e+00 2.323794364929199219e+00 1.988761276006698608e-01
1.106000000000000000e+03 2.117579269409179688e+01 -2.788501739501953125e+01 1.587353274226188660e-02 7.278690338134765625e+00 2.188369274139404297e+00 1.702536791563034058e-01
1.107000000000000000e+03 2.236034011840820312e+01 2.243408584594726562e+01 -1.416758075356483459e-02 7.740756511688232422e+00 2.317976713180541992e+00 9.338039159774780273e-02
1.108000000000000000e+03 2.363630104064941406e+01 2.376837730407714844e+01 -5.010176450014114380e-02 7.747417926788330078e+00 2.309194803237915039e+00 1.681362688541412354e-01
1.109000000000000000e+03 2.367668914794921875e+01 1.819324493408203125e+01 -9.732677601277828217e-03 7.900339126586914062e+00 2.367182016372680664e+00 9.429167956113815308e-02
1.110000000000000000e+03 2.367066192626953125e+01 2.098560142517089844e+01 -2.416181191802024841e-02 7.829796314239501953e+00 2.341690301895141602e+00 1.181588619947433472e-01
1.111000000000000000e+03 2.365753364562988281e+01 2.237596893310546875e+01 -3.621825575828552246e-02 7.790409564971923828e+00 2.326257467269897461e+00 1.423151344060897827e-01
1.112000000000000000e+03 2.237440109252929688e+01 1.682233238220214844e+01 -1.714443089440464973e-03 7.929845809936523438e+00 2.378439426422119141e+00 5.671402066946029663e-02
1.113000000000000000e+03 2.367324066162109375e+01 1.678968238830566406e+01 -3.670668695122003555e-03 7.933290958404541016e+00 2.378885984420776367e+00 9.130474179983139038e-02
1.114000000000000000e+03 1.309839725494384766e+01 -1.605755615234375000e+01 -7.388180121779441833e-03 -8.281064219772815704e-04 -2.464886056259274483e-03 1.641607261262834072e-03
1.115000000000000000e+03 1.144296169281005859e+01 -1.843455505371093750e+01 7.578988093882799149e-03 1.351618906483054161e-03 2.679182216525077820e-03 -3.055528504773974419e-03
1.116000000000000000e+03 1.172106266021728516e+01 -1.577604103088378906e+01 6.500692572444677353e-03 1.608172664418816566e-03 2.432659501209855080e-03 -2.202961826696991920e-03
1.117000000000000000e+03 1.245317268371582031e+01 -9.223155975341796875e+00 -5.066003650426864624e-03 -1.428005780326202512e-04 -1.562641235068440437e-03 8.616665145382285118e-04
1.118000000000000000e+03 1.352317810058593750e+01 -9.272273063659667969e+00 5.482314620167016983e-03 1.907725381897762418e-04 1.701926230452954769e-03 -8.760826895013451576e-04
1.119000000000000000e+03 1.235758781433105469e+01 -1.179492950439453125e+01 -5.402745679020881653e-03 -7.110801525413990021e-04 -1.834147726185619831e-03 1.021827920340001583e-03
1.120000000000000000e+03 2.366926956176757812e+01 1.537736797332763672e+01 1.507509849034249783e-03 7.965393066406250000e+00 2.390070199966430664e+00 8.843582123517990112e-02
1.121000000000000000e+03 2.367118263244628906e+01 1.255074977874755859e+01 1.514699961990118027e-02 8.031056404113769531e+00 2.413861036300659180e+00 1.004765778779983521e-01
1.122000000000000000e+03 1.113107013702392578e+01 -1.963575744628906250e+01 -7.066224236041307449e-03 -4.366722132544964552e-04 -2.250869059935212135e-03 1.801946666091680527e-03
1.123000000000000000e+03 1.187652778625488281e+01 -2.433140563964843750e+01 -1.273660268634557724e-02 -2.678942866623401642e-03 -4.624663852155208588e-03 -3.131994162686169147e-04
1.124000000000000000e+03 2.338412475585937500e+01 3.284088134765625000e+01 -7.139237523078918457e-01 8.367378234863281250e+00 2.296036481857299805e+00 6.607685089111328125e-01
1.125000000000000000e+03 2.234696388244628906e+01 8.341958045959472656e+00 2.970995754003524780e-02 8.217982292175292969e+00 2.474307775497436523e+00 1.227466985583305359e-01
1.126000000000000000e+03 2.363925170898437500e+01 8.264813423156738281e+00 7.403524965047836304e-02 8.141926765441894531e+00 2.464788436889648438e+00 1.799143850803375244e-01
1.127000000000000000e+03 2.302117156982421875e+01 -5.914377689361572266e+00 -1.037273257970809937e-01 7.656322479248046875e+00 2.265778541564941406e+00 2.547415494918823242e-01
1.128000000000000000e+03 2.360429000854492188e+01 6.822422027587890625e+00 1.442761123180389404e-01 8.126605987548828125e+00 2.481264591217041016e+00 2.188666164875030518e-01
1.129000000000000000e+03 2.305003738403320312e+01 -4.505612850189208984e+00 -5.931103229522705078e-02 7.654650211334228516e+00 2.278601646423339844e+00 2.369676828384399414e-01
1.130000000000000000e+03 2.310188674926757812e+01 -3.089720487594604492e+00 -3.524162247776985168e-02 7.694765090942382812e+00 2.297857046127319336e+00 2.566493153572082520e-01
1.131000000000000000e+03 3.134124279022216797e+00 3.128695678710937500e+01 6.304881069809198380e-03 -2.140055410563945770e-03 1.249447581358253956e-03 -8.672857074998319149e-04
1.132000000000000000e+03 1.982732892036437988e+00 2.733849143981933594e+01 3.688512602820992470e-03 2.574609359726309776e-03 1.878936542198061943e-03 -1.104133436456322670e-03
1.133000000000000000e+03 5.219976902008056641e+00 3.375003051757812500e+01 -8.040404878556728363e-03 -3.255051095038652420e-03 -3.388636978343129158e-03 2.784200012683868408e-03
1.134000000000000000e+03 3.328774690628051758e+00 3.684264755249023438e+01 -1.776425633579492569e-04 -6.762247998267412186e-03 -2.081967191770672798e-03 7.772606797516345978e-03
1.135000000000000000e+03 3.307921648025512695e+00 2.425076293945312500e+01 -6.156787276268005371e-03 -8.141234284266829491e-04 -2.091273199766874313e-03 -2.685250947251915932e-03
1.136000000000000000e+03 3.205702066421508789e+00 3.001141166687011719e+01 -5.559896584600210190e-03 -5.355460452847182751e-04 -1.828632666729390621e-03 2.339919563382863998e-03
1.137000000000000000e+03 2.152439594268798828e+00 3.558948516845703125e+01 5.077348556369543076e-03 -2.018058905377984047e-03 9.177868487313389778e-04 3.893427201546728611e-04
1.138000000000000000e+03 6.396189212799072266e+00 3.781377029418945312e+01 -2.101369434967637062e-03 -1.260966435074806213e-02 -4.413309972733259201e-03 1.877138018608093262e-02
1.139000000000000000e+03 2.133238077163696289e+00 3.417996978759765625e+01 -5.997177213430404663e-03 -4.231057595461606979e-03 -3.068470396101474762e-03 4.719671327620744705e-03
1.140000000000000000e+03 3.650673866271972656e+00 3.382749557495117188e+01 3.711062250658869743e-03 -1.037585025187581778e-04 1.082191127352416515e-03 3.610027721151709557e-03
1.141000000000000000e+03 5.542091369628906250e+00 3.192938804626464844e+01 -8.988941553980112076e-04 -1.041723880916833878e-03 -5.821853992529213428e-04 5.103525705635547638e-03
1.142000000000000000e+03 3.371667623519897461e+00 3.243894195556640625e+01 -1.212858594954013824e-02 -3.280974691733717918e-03 -4.622868262231349945e-03 2.977345138788223267e-03
1.143000000000000000e+03 3.432155847549438477e+00 -3.575054550170898438e+01 4.163333680480718613e-03 -1.327191572636365891e-02 -2.732574706897139549e-03 -2.917286194860935211e-02
1.144000000000000000e+03 3.211394548416137695e+00 -3.708267974853515625e+01 9.411985956830903888e-05 -3.330900147557258606e-02 -9.964464232325553894e-03 -2.547743357717990875e-02
1.145000000000000000e+03 3.281241893768310547e+00 -3.047490119934082031e+01 8.328610099852085114e-03 -5.635180044919252396e-03 8.080289699137210846e-04 -4.727780353277921677e-03
1.146000000000000000e+03 2.004716396331787109e+00 -2.903981208801269531e+01 8.904701098799705505e-03 -7.013854337856173515e-04 2.460994757711887360e-03 -9.211752330884337425e-05
1.147000000000000000e+03 1.910470724105834961e+00 2.157061386108398438e+01 5.561351776123046875e-03 1.594261266291141510e-04 1.716233324259519577e-03 2.582914603408426046e-04
1.148000000000000000e+03 3.193662405014038086e+00 -1.917912483215332031e+01 6.874795537441968918e-03 1.539371878607198596e-04 2.108619781211018562e-03 1.983865367947146297e-04
1.149000000000000000e+03 3.197787046432495117e+00 -1.213313865661621094e+01 -4.562203772366046906e-03 4.525723397819092497e-06 -1.367303426377475262e-03 5.654965061694383621e-04
1.150000000000000000e+03 1.869367003440856934e+00 -9.136340141296386719e+00 3.285278100520372391e-03 -3.168814509990625083e-05 9.760769899003207684e-04 -1.870817941380664706e-04
1.151000000000000000e+03 3.023131608963012695e+00 1.708673858642578125e+01 7.302903570234775543e-03 -5.748183466494083405e-04 2.018425613641738892e-03 -1.124658665503375232e-04
1.152000000000000000e+03 2.893082618713378906e+00 1.172898864746093750e+01 4.733346402645111084e-03 9.638899355195462704e-04 1.709170988760888577e-03 -9.186765528284013271e-04
1.153000000000000000e+03 1.890242695808410645e+00 -1.495600891113281250e+01 4.448596388101577759e-03 1.230377674801275134e-04 1.371490187011659145e-03 -1.330632512690499425e-04
1.154000000000000000e+03 3.134602546691894531e+00 -1.359280872344970703e+01 4.966995678842067719e-03 6.097725417930632830e-05 1.508391811512410641e-03 -4.745760525111109018e-04
1.155000000000000000e+03 4.056993007659912109e+00 5.567471027374267578e+00 -6.943147745914757252e-04 7.020298507995903492e-04 2.314523271707003005e-06 -1.117279753088951111e-03
1.156000000000000000e+03 2.699230432510375977e+00 7.432538032531738281e+00 -3.729532239958643913e-03 2.916159864980727434e-04 -1.031374908052384853e-03 3.440112050157040358e-04
1.157000000000000000e+03 1.727440476417541504e+00 1.458812046051025391e+01 -5.756728351116180420e-03 1.486585188104072586e-05 -1.722558750770986080e-03 8.854768821038305759e-04
1.158000000000000000e+03 2.904939651489257812e+00 1.574422740936279297e+01 -6.739872507750988007e-03 8.626246708445250988e-04 -1.763174310326576233e-03 6.292459438554942608e-04
1.159000000000000000e+03 2.934362649917602539e+00 1.032715702056884766e+01 -4.122239071875810623e-03 -1.113192411139607430e-03 -1.570629421621561050e-03 4.127865249756723642e-04
1.160000000000000000e+03 5.975219726562500000e+00 -4.457778453826904297e+00 8.180147851817309856e-04 1.191525254398584366e-03 6.028620409779250622e-04 -3.838840639218688011e-04
1.161000000000000000e+03 2.481719732284545898e+00 -4.812561511993408203e+00 2.535938052460551262e-03 3.998756874352693558e-04 8.807441336102783680e-04 8.390706352656707168e-05
1.162000000000000000e+03 1.573996543884277344e+00 -6.281191825866699219e+00 2.980205230414867401e-03 -7.024966180324554443e-05 8.729866240173578262e-04 2.849930024240165949e-04
1.163000000000000000e+03 3.370377540588378906e+00 -2.911425018310546875e+01 -1.402991265058517456e-02 -3.452231976552866399e-05 -4.219330381602048874e-03 -6.774117238819599152e-03
1.164000000000000000e+03 3.251371622085571289e+00 -2.198315620422363281e+01 7.487410213798284531e-03 4.449661064427345991e-04 2.379712881520390511e-03 2.071249473374336958e-04
1.165000000000000000e+03 2.052097797393798828e+00 -3.582177352905273438e+01 -1.028575096279382706e-02 -3.165752440690994263e-02 -1.258298289030790329e-02 -1.779725775122642517e-02
1.166000000000000000e+03 4.927226066589355469e+00 -3.579985046386718750e+01 -1.367567200213670731e-02 -3.348015015944838524e-03 -5.107106175273656845e-03 -2.731365524232387543e-02
1.167000000000000000e+03 3.295090198516845703e+00 -2.339949035644531250e+01 -7.500074338167905807e-03 -8.619080181233584881e-04 -2.508594654500484467e-03 1.144844805821776390e-03
1.168000000000000000e+03 3.133973360061645508e+00 -1.640287971496582031e+01 5.683338735252618790e-03 2.698768512345850468e-04 1.785964705049991608e-03 -1.932157611008733511e-04
1.169000000000000000e+03 3.123669385910034180e+00 2.131996154785156250e+01 -7.553135044872760773e-03 1.143197761848568916e-03 -1.922981115058064461e-03 -1.434378325939178467e-03
1.170000000000000000e+03 3.303112983703613281e+00 -1.056849670410156250e+01 4.208984319120645523e-03 2.570679062046110630e-04 1.339815789833664894e-03 -1.893336884677410126e-04
1.171000000000000000e+03 3.163398027420043945e+00 -8.978393554687500000e+00 -3.810286987572908401e-03 3.307428269181400537e-04 -1.043863245286047459e-03 -3.115848230663686991e-04
1.172000000000000000e+03 3.257742643356323242e+00 -3.303927230834960938e+01 6.094075739383697510e-03 -6.554740946739912033e-03 -1.381995680276304483e-04 -1.985181123018264771e-02
1.173000000000000000e+03 4.810719490051269531e+00 -3.418572235107421875e+01 -1.212645322084426880e-03 3.019052557647228241e-03 5.419221706688404083e-04 -3.125739842653274536e-02
1.174000000000000000e+03 2.004492521286010742e+00 -2.481512832641601562e+01 -6.827942095696926117e-03 6.526082288473844528e-04 -1.852600136771798134e-03 -2.930380651378072798e-05
1.175000000000000000e+03 4.600230693817138672e+00 -2.339269256591796875e+01 9.082843549549579620e-03 1.040728995576500893e-03 3.037071786820888519e-03 -3.716183709912002087e-04
1.176000000000000000e+03 3.382033348083496094e+00 -2.625955963134765625e+01 -8.828305639326572418e-03 -1.457546954043209553e-03 -3.085755975916981697e-03 -1.415318576619029045e-03
1.177000000000000000e+03 3.117111206054687500e+00 -1.500559806823730469e+01 -5.089801270514726639e-03 -3.370718332007527351e-05 -1.537052565254271030e-03 6.849796045571565628e-04
1.178000000000000000e+03 2.848102331161499023e+00 1.307094192504882812e+01 -5.506707355380058289e-03 -4.303688765503466129e-04 -1.781122875399887562e-03 1.183851272799074650e-03
1.179000000000000000e+03 2.839667558670043945e+00 1.440186500549316406e+01 6.211560685187578201e-03 -2.077076351270079613e-04 1.801155973225831985e-03 -1.206828979775309563e-03
1.180000000000000000e+03 3.095473527908325195e+00 1.988349723815917969e+01 7.461695931851863861e-03 -4.867698298767209053e-04 2.092477865517139435e-03 9.789164323592558503e-05
1.181000000000000000e+03 3.204393148422241211e+00 2.277707672119140625e+01 7.752051576972007751e-03 -2.568914787843823433e-04 2.248547971248626709e-03 1.159738283604383469e-03
1.182000000000000000e+03 3.089775323867797852e+00 1.846427345275878906e+01 -6.772277876734733582e-03 2.250799589091911912e-04 -1.964159542694687843e-03 -5.732257268391549587e-04
1.183000000000000000e+03 2.349672508239746094e+01 3.948257207870483398e+00 1.881934851408004761e-01 8.047206878662109375e+00 2.470620155334472656e+00 1.864055693149566650e-01
1.184000000000000000e+03 2.281354522705078125e+01 -1.016924858093261719e+01 4.985692352056503296e-02 7.626511573791503906e+00 2.302910566329956055e+00 2.747071087360382080e-01
1.185000000000000000e+03 1.052836894989013672e+01 3.375332260131835938e+01 -1.852837763726711273e-02 4.348955582827329636e-03 -4.253826569765806198e-03 -9.533985517919063568e-03
1.186000000000000000e+03 1.367615795135498047e+01 2.973849296569824219e+01 -2.749389782547950745e-02 -3.849752480164170265e-03 -9.403094649314880371e-03 -1.249045412987470627e-02
1.187000000000000000e+03 2.344048881530761719e+01 3.171705818176269531e+01 -5.641638040542602539e-01 7.952312946319580078e+00 2.216444730758666992e+00 6.572164893150329590e-01
1.188000000000000000e+03 1.199497795104980469e+01 2.328765678405761719e+01 -1.410956308245658875e-02 -2.357737394049763680e-04 -4.303601104766130447e-03 -1.975056482478976250e-03
1.189000000000000000e+03 1.592446231842041016e+01 3.689867019653320312e+01 -2.720790803432464600e-01 1.036537289619445801e-01 -5.052760615944862366e-02 -4.020186513662338257e-02
1.190000000000000000e+03 1.376868247985839844e+01 3.620322036743164062e+01 -8.731417357921600342e-02 3.228595852851867676e-02 -1.650846377015113831e-02 1.076615601778030396e-02
1.191000000000000000e+03 2.259160041809082031e+01 -1.418785381317138672e+01 1.022185012698173523e-01 7.515811920166015625e+00 2.285408973693847656e+00 2.458023428916931152e-01
1.192000000000000000e+03 2.267229080200195312e+01 -1.286857795715332031e+01 1.429125517606735229e-01 7.525409221649169922e+00 2.300496578216552734e+00 2.512156069278717041e-01
1.193000000000000000e+03 1.174723148345947266e+01 -3.492307281494140625e+01 -7.859551347792148590e-03 1.547903101891279221e-02 2.285843947902321815e-03 7.211864739656448364e-02
1.194000000000000000e+03 1.183105468750000000e+01 3.629650497436523438e+01 -6.242366880178451538e-02 2.137766778469085693e-02 -1.231379993259906769e-02 8.083471097052097321e-03
1.195000000000000000e+03 2.274786567687988281e+01 -1.947684860229492188e+01 -1.119389608502388000e-01 7.268201828002929688e+00 2.146878957748413086e+00 2.387654185295104980e-01
1.196000000000000000e+03 1.246662235260009766e+01 2.819960212707519531e+01 -1.497511379420757294e-02 -9.852170944213867188e-03 -7.448185235261917114e-03 -6.912497803568840027e-03
1.197000000000000000e+03 1.146217060089111328e+01 2.689854049682617188e+01 -1.460730377584695816e-02 -4.590274766087532043e-03 -5.759273655712604523e-03 -6.196078029461205006e-04
1.198000000000000000e+03 2.120484733581542969e+01 -2.091405487060546875e+01 -3.632396087050437927e-02 7.039785861968994141e+00 2.101038694381713867e+00 2.897720336914062500e-01
1.199000000000000000e+03 2.320505332946777344e+01 -3.075189781188964844e+01 1.576997935771942139e-01 7.264863491058349609e+00 2.226768970489501953e+00 2.804067730903625488e-01
1.200000000000000000e+03 2.258701705932617188e+01 -2.776758575439453125e+01 1.090605836361646652e-02 7.272664546966552734e+00 2.185071229934692383e+00 2.142669409513473511e-01
1.201000000000000000e+03 2.393770217895507812e+01 -2.769061851501464844e+01 2.538600750267505646e-02 7.264310359954833984e+00 2.186908960342407227e+00 2.361675649881362915e-01
1.202000000000000000e+03 2.111225509643554688e+01 -2.505803108215332031e+01 -5.937178432941436768e-02 7.142834663391113281e+00 2.125038862228393555e+00 1.939572691917419434e-01
1.203000000000000000e+03 2.131539916992187500e+01 -2.937135314941406250e+01 3.068665415048599243e-02 7.348571777343750000e+00 2.213777542114257812e+00 1.865258812904357910e-01
1.204000000000000000e+03 2.442402648925781250e+01 -3.605348587036132812e+01 1.356281638145446777e-01 6.928751468658447266e+00 2.119313955307006836e+00 -4.015684127807617188e-02
1.205000000000000000e+03 4.867386817932128906e+00 -4.039551925659179688e+01 1.285972725600004196e-02 -4.363726358860731125e-03 2.548800315707921982e-03 -3.847023472189903259e-02
1.206000000000000000e+03 7.896432399749755859e+00 -4.124768447875976562e+01 7.580194622278213501e-02 -2.311890572309494019e-02 1.580491103231906891e-02 -6.419460987672209740e-04
1.207000000000000000e+03 2.208745765686035156e+01 3.411466217041015625e+01 -6.012023091316223145e-01 7.435588836669921875e+00 2.050315856933593750e+00 1.790659666061401367e+00
1.208000000000000000e+03 2.050781631469726562e+01 3.982239151000976562e+01 1.521780621260404587e-02 3.069407463073730469e+00 9.253875613212585449e-01 -9.384404420852661133e-01
1.209000000000000000e+03 8.051837921142578125e+00 3.880984544754028320e+00 -8.615074912086129189e-04 -1.494833268225193024e-03 -7.069022394716739655e-04 -7.345295161940157413e-04
1.210000000000000000e+03 1.025678730010986328e+01 3.373738765716552734e+00 -1.662558992393314838e-03 -6.772931083105504513e-04 -7.019556360319256783e-04 -7.822018815204501152e-04
1.211000000000000000e+03 7.137641429901123047e+00 5.367542266845703125e+00 -2.082204882754012942e-04 -1.729748873913194984e-05 -6.765539001207798719e-05 9.445982868783175945e-04
1.212000000000000000e+03 5.391699790954589844e+00 4.237723350524902344e+00 -1.580840093083679676e-03 -4.655689117498695850e-04 -6.139227189123630524e-04 5.317148752510547638e-04
1.213000000000000000e+03 4.373608589172363281e+00 6.375980377197265625e+00 6.232142332009971142e-04 1.458599435864016414e-04 2.307222603121772408e-04 1.224386855028569698e-03
1.214000000000000000e+03 5.308465480804443359e+00 3.446985006332397461e+00 1.156221376731991768e-03 9.578917524777352810e-04 6.342339329421520233e-04 -4.708828928414732218e-04
1.215000000000000000e+03 2.906295061111450195e+00 5.189006805419921875e+00 -3.120661247521638870e-03 2.695310686249285936e-04 -8.553390507586300373e-04 -1.359721296466886997e-03
1.216000000000000000e+03 4.814913749694824219e+00 5.240933418273925781e+00 -1.331147155724465847e-03 1.669322082307189703e-04 -3.492644755169749260e-04 6.770681357011198997e-04
1.217000000000000000e+03 2.951844215393066406e+00 3.654245615005493164e+00 -1.698761247098445892e-03 -2.004747744649648666e-03 -1.111052697524428368e-03 -4.260142450220882893e-04
1.218000000000000000e+03 1.399334073066711426e+00 4.842216014862060547e+00 1.503152656368911266e-03 4.660583217628300190e-04 5.907632876187562943e-04 -1.139212283305823803e-03
1.219000000000000000e+03 1.636141180992126465e+00 3.290177822113037109e+00 -3.292398527264595032e-03 -2.164072066079825163e-04 -1.052641775459051132e-03 -4.070644208695739508e-04
1.220000000000000000e+03 9.390722274780273438e+00 4.102434635162353516e+00 -1.741999876685440540e-03 -9.761523688212037086e-04 -8.154456736519932747e-04 -1.031475607305765152e-03
1.221000000000000000e+03 1.014601516723632812e+01 -4.584788799285888672e+00 3.706601273734122515e-04 -6.304339040070772171e-04 -7.793213444529101253e-05 1.624694676138460636e-03
1.222000000000000000e+03 1.037666988372802734e+01 -3.971474647521972656e+00 7.293523522093892097e-04 1.245230669155716896e-03 5.923749413341283798e-04 -1.257823780179023743e-03
1.223000000000000000e+03 1.083596038818359375e+01 -4.876066207885742188e+00 2.603175817057490349e-03 -1.270610082428902388e-04 7.428344106301665306e-04 -8.119593258015811443e-04
1.224000000000000000e+03 7.472339153289794922e+00 -3.521555662155151367e+00 -1.667689299210906029e-03 -4.465080273803323507e-04 -6.342591950669884682e-04 4.575878556352108717e-04
1.225000000000000000e+03 1.160789108276367188e+01 -5.124765872955322266e+00 -3.639375499915331602e-04 -1.336635905317962170e-03 -5.101720453239977360e-04 1.293294248171150684e-03
1.226000000000000000e+03 1.187364578247070312e+01 3.282755851745605469e+00 -2.408602507784962654e-03 1.304393517784774303e-04 -6.834489176981151104e-04 -3.244956897106021643e-04
1.227000000000000000e+03 1.284237575531005859e+01 4.153496742248535156e+00 -2.518161665648221970e-03 -6.231135921552777290e-04 -9.423825540579855442e-04 -1.426632050424814224e-03
1.228000000000000000e+03 8.508234977722167969e+00 4.674122333526611328e+00 -1.542472164146602154e-03 -1.060085254721343517e-03 -7.807672373019158840e-04 -1.325315679423511028e-03
1.229000000000000000e+03 6.104547500610351562e+00 -5.242784023284912109e+00 -5.515998345799744129e-04 -1.221532700583338737e-03 -5.319397896528244019e-04 9.216015314450487494e-05
1.230000000000000000e+03 4.271404743194580078e+00 -3.771572828292846680e+00 -1.081202412024140358e-03 -9.208134724758565426e-04 -6.006047478877007961e-04 -5.405700067058205605e-04
1.231000000000000000e+03 8.248041152954101562e+00 -3.465418100357055664e+00 1.847253995947539806e-03 3.355341032147407532e-04 6.548364181071519852e-04 -2.224551571998745203e-04
1.232000000000000000e+03 4.360213279724121094e+00 -8.495156288146972656e+00 1.483911531977355480e-03 -1.707915071165189147e-04 3.939360030926764011e-04 1.068361685611307621e-03
1.233000000000000000e+03 3.862149000167846680e+00 -7.204452514648437500e+00 -1.856382703408598900e-03 -2.617810387164354324e-04 -6.354490760713815689e-04 -8.521557901985943317e-04
1.234000000000000000e+03 2.587772846221923828e+00 -6.149612426757812500e+00 -2.871911739930510521e-03 -4.263699156581424177e-05 -8.743646321818232536e-04 -4.063902888447046280e-04
1.235000000000000000e+03 1.266464996337890625e+01 -4.164148807525634766e+00 -3.232717281207442284e-03 -3.079416346736252308e-04 -1.062197727151215076e-03 1.086003147065639496e-03
1.236000000000000000e+03 1.181845951080322266e+01 -3.361915349960327148e+00 -2.695184433832764626e-03 -3.652121522463858128e-04 -9.181189816445112228e-04 1.888539874926209450e-03
1.237000000000000000e+03 1.191892337799072266e+01 4.161882400512695312e+00 2.153609180822968483e-03 6.254028994590044022e-04 8.337036124430596828e-04 8.278587483800947666e-04
1.238000000000000000e+03 1.375041866302490234e+01 3.311228036880493164e+00 -3.774080891162157059e-03 3.640052746050059795e-04 -1.023022690787911415e-03 -3.900309966411441565e-04
1.239000000000000000e+03 1.365359592437744141e+01 -2.961401939392089844e+00 -3.199543803930282593e-03 -2.088711335090920329e-04 -1.022524549625813961e-03 1.050888909958302975e-03
1.240000000000000000e+03 1.221888351440429688e+01 -1.308049106597900391e+01 5.365660879760980606e-03 1.011942746117711067e-03 1.913281041197478771e-03 -1.553559442982077599e-03
1.241000000000000000e+03 1.194179916381835938e+01 -1.439801597595214844e+01 -5.450966767966747284e-03 -9.075716952793300152e-04 -1.907561556436121464e-03 1.643986790440976620e-03
1.242000000000000000e+03 2.224030494689941406e+01 3.303501129150390625e+01 -5.917333960533142090e-01 7.095146656036376953e+00 1.951023936271667480e+00 1.219074606895446777e+00
1.243000000000000000e+03 1.954064559936523438e+01 3.885499954223632812e+01 1.273996829986572266e-01 2.078657448291778564e-01 1.005796268582344055e-01 -6.110802292823791504e-01
1.244000000000000000e+03 1.240722465515136719e+01 -6.616563320159912109e+00 -4.157986491918563843e-03 -2.499043184798210859e-04 -1.322367228567600250e-03 1.256597461178898811e-03
1.245000000000000000e+03 1.244014644622802734e+01 -7.926174640655517578e+00 4.799976479262113571e-03 4.359895683592185378e-06 1.441300846636295319e-03 -1.001089578494429588e-03
1.246000000000000000e+03 1.216209506988525391e+01 7.406691074371337891e+00 1.437156577594578266e-03 1.406648661941289902e-03 8.531415951438248158e-04 1.816208474338054657e-03
1.247000000000000000e+03 2.481003379821777344e+01 3.035486221313476562e+01 -4.090725779533386230e-01 8.112821578979492188e+00 2.311124563217163086e+00 3.533601760864257812e-01
1.248000000000000000e+03 1.180552387237548828e+01 -4.193784713745117188e+00 1.796466181986033916e-03 1.152361626736819744e-03 8.846483542583882809e-04 -1.797592849470674992e-03
1.249000000000000000e+03 2.221692085266113281e+01 4.167049026489257812e+01 -5.434923171997070312e-01 5.829336166381835938e+00 1.585753083229064941e+00 -5.048643350601196289e-01
1.250000000000000000e+03 2.201943969726562500e+01 4.020880508422851562e+01 -5.012142658233642578e-01 5.627570152282714844e+00 1.537906765937805176e+00 -1.366065025329589844e+00
1.251000000000000000e+03 2.460258674621582031e+01 9.970084428787231445e-01 3.780812397599220276e-02 7.898386478424072266e+00 2.380858421325683594e+00 1.650415211915969849e-01
1.252000000000000000e+03 2.324296379089355469e+01 -3.049995005130767822e-01 -1.600515656173229218e-02 7.843729019165039062e+00 2.348317146301269531e+00 2.784959673881530762e-01
1.253000000000000000e+03 2.442926597595214844e+01 -1.758111715316772461e+00 -2.499190904200077057e-02 7.786274433135986328e+00 2.328384637832641602e+00 2.125567942857742310e-01
1.254000000000000000e+03 2.398789787292480469e+01 -1.660810852050781250e+01 -1.403325982391834259e-02 7.423236370086669922e+00 2.222760915756225586e+00 1.721921414136886597e-01
1.255000000000000000e+03 2.443941688537597656e+01 -1.926576805114746094e+01 -9.489969909191131592e-02 7.388203144073486328e+00 2.187991142272949219e+00 1.755404770374298096e-01
1.256000000000000000e+03 2.478397560119628906e+01 3.850058555603027344e+00 1.504196673631668091e-01 7.966491222381591797e+00 2.435073137283325195e+00 1.457932442426681519e-01
1.257000000000000000e+03 1.180223464965820312e+01 9.339388847351074219e+00 -4.110998008400201797e-03 2.436060167383402586e-04 -1.160217681899666786e-03 1.873027795227244496e-04
1.258000000000000000e+03 2.259076118469238281e+01 -1.681897163391113281e+01 -5.050570890307426453e-02 7.394272327423095703e+00 2.203130006790161133e+00 1.756577938795089722e-01
1.259000000000000000e+03 2.294959259033203125e+01 -8.765775680541992188e+00 1.777363568544387817e-02 7.573795318603515625e+00 2.277470588684082031e+00 2.828035354614257812e-01
1.260000000000000000e+03 2.433147811889648438e+01 -4.541781425476074219e+00 -6.991235166788101196e-02 7.710432052612304688e+00 2.292155981063842773e+00 2.214697450399398804e-01
1.261000000000000000e+03 1.335536766052246094e+01 -1.332069873809814453e+01 -6.665055174380540848e-03 -2.892076154239475727e-04 -2.086278749629855156e-03 1.167249749414622784e-03
1.262000000000000000e+03 2.389810943603515625e+01 -1.159292030334472656e+01 9.787505120038986206e-02 7.540316581726074219e+00 2.291457414627075195e+00 2.406415492296218872e-01
1.263000000000000000e+03 1.141527938842773438e+01 2.594834899902343750e+01 1.930878497660160065e-02 -2.910346724092960358e-03 4.919531289488077164e-03 5.291925277560949326e-03
1.264000000000000000e+03 5.439548015594482422e+00 1.054583549499511719e+01 -2.824019175022840500e-03 -2.525277901440858841e-03 -1.604789169505238533e-03 -8.650276577100157738e-04
1.265000000000000000e+03 1.136107635498046875e+01 8.304683685302734375e+00 2.285663504153490067e-03 -1.264085178263485432e-03 3.064735210500657558e-04 -1.985585549846291542e-03
1.266000000000000000e+03 9.654987335205078125e+00 1.944496726989746094e+01 3.349362639710307121e-03 2.239014487713575363e-03 1.676513114944100380e-03 1.961998408660292625e-03
1.267000000000000000e+03 1.082684516906738281e+01 1.557424354553222656e+01 1.297423965297639370e-03 1.247335108928382397e-03 7.634276989847421646e-04 3.967886324971914291e-03
1.268000000000000000e+03 7.520622253417968750e+01 1.298786926269531250e+01 8.280844194814562798e-04 7.661160945892333984e+00 2.298596620559692383e+00 -3.292313590645790100e-02
1.269000000000000000e+03 7.546249389648437500e+01 -1.110275864601135254e+00 2.006753638852387667e-04 7.749949455261230469e+00 2.325045108795166016e+00 -3.670046105980873108e-02
1.270000000000000000e+03 7.548412322998046875e+01 -8.015565872192382812e+00 -4.485817044042050838e-04 7.796908855438232422e+00 2.338938236236572266e+00 -3.702867031097412109e-02
1.271000000000000000e+03 7.424241638183593750e+01 -9.351345062255859375e+00 -9.749482269398868084e-04 7.800779819488525391e+00 2.339941501617431641e+00 -4.493445158004760742e-02
1.272000000000000000e+03 7.557012939453125000e+01 -1.610391044616699219e+01 -1.638891408219933510e-03 7.851067543029785156e+00 2.354828596115112305e+00 -3.351043909788131714e-02
1.273000000000000000e+03 7.547042083740234375e+01 -2.507973432540893555e+00 3.779846010729670525e-04 7.759303092956542969e+00 2.327904224395751953e+00 -3.707206249237060547e-02
1.274000000000000000e+03 7.553761291503906250e+01 -1.209907054901123047e+01 -5.819204379804432392e-04 7.824968338012695312e+00 2.347316026687622070e+00 -3.558449074625968933e-02
1.275000000000000000e+03 7.554693603515625000e+01 -1.344331359863281250e+01 -1.384574105031788349e-03 7.833794116973876953e+00 2.349722862243652344e+00 -3.502789512276649475e-02
1.276000000000000000e+03 7.552149963378906250e+01 -1.074671745300292969e+01 -9.219854837283492088e-04 7.815579414367675781e+00 2.344397306442260742e+00 -3.623980283737182617e-02
1.277000000000000000e+03 7.673676300048828125e+01 1.646705508232116699e+00 5.957531975582242012e-04 7.729710102081298828e+00 2.319091796875000000e+00 -2.756221592426300049e-02
1.278000000000000000e+03 7.543820190429687500e+01 1.660571217536926270e+00 3.122458583675324917e-04 7.731368541717529297e+00 2.319504261016845703e+00 -3.630406409502029419e-02
1.279000000000000000e+03 7.540177154541015625e+01 5.862595558166503906e+00 1.327424193732440472e-03 7.703916072845458984e+00 2.311573028564453125e+00 -3.560416027903556824e-02
1.280000000000000000e+03 7.303080749511718750e+01 3.249128341674804688e+01 9.957194328308105469e-03 7.603497028350830078e+00 2.284036397933959961e+00 -2.227202616631984711e-02
1.281000000000000000e+03 7.489112091064453125e+01 3.082759666442871094e+01 6.317805964499711990e-03 7.583978652954101562e+00 2.277088880538940430e+00 -1.980777084827423096e-02
1.282000000000000000e+03 7.432397460937500000e+01 -1.729562187194824219e+01 -2.630953444167971611e-03 7.848707199096679688e+00 2.353822946548461914e+00 -4.011754319071769714e-02
1.283000000000000000e+03 7.546266174316406250e+01 -2.269104003906250000e+01 -9.060757583938539028e-04 7.888199806213378906e+00 2.366188049316406250e+00 -2.942816354334354401e-02
1.284000000000000000e+03 7.542575073242187500e+01 3.054017066955566406e+00 1.041769981384277344e-03 7.722051143646240234e+00 2.316927909851074219e+00 -3.632844239473342896e-02
1.285000000000000000e+03 7.545041656494140625e+01 2.795306444168090820e-01 7.368897204287350178e-04 7.740463733673095703e+00 2.322360277175903320e+00 -3.682950511574745178e-02
1.286000000000000000e+03 7.541326904296875000e+01 4.456409931182861328e+00 3.382847644388675690e-04 7.713068962097167969e+00 2.314022064208984375e+00 -3.563887625932693481e-02
1.287000000000000000e+03 7.413491058349609375e+01 3.020302057266235352e+00 7.373357075266540051e-04 7.724742889404296875e+00 2.317644119262695312e+00 -4.404492303729057312e-02
1.288000000000000000e+03 7.671237945556640625e+01 8.655893325805664062e+00 1.213553550769574940e-04 7.680227756500244141e+00 2.304104804992675781e+00 -2.568234130740165710e-02
1.289000000000000000e+03 7.538686370849609375e+01 7.273612022399902344e+00 4.644128785002976656e-04 7.695118427276611328e+00 2.308674812316894531e+00 -3.479879721999168396e-02
1.290000000000000000e+03 7.533541107177734375e+01 1.576414012908935547e+01 7.828075904399156570e-04 7.645425319671630859e+00 2.293862342834472656e+00 -3.064664825797080994e-02
1.291000000000000000e+03 7.558073425292968750e+01 -1.872620201110839844e+01 -2.513820538297295570e-03 7.867123603820800781e+00 2.359382867813110352e+00 -3.240178525447845459e-02
1.292000000000000000e+03 7.683939361572265625e+01 -1.892968750000000000e+01 -2.599297731649130583e-04 7.879920482635498047e+00 2.363898038864135742e+00 -2.414844743907451630e-02
1.293000000000000000e+03 7.553338623046875000e+01 -2.005513954162597656e+01 -1.188617316074669361e-03 7.874852657318115234e+00 2.362099170684814453e+00 -3.147970885038375854e-02
1.294000000000000000e+03 7.529549407958984375e+01 1.010988426208496094e+01 7.625016150996088982e-04 7.677921772003173828e+00 2.303605318069458008e+00 -3.420317918062210083e-02
1.295000000000000000e+03 7.397393798828125000e+01 8.647679328918457031e+00 1.128098811022937298e-03 7.692841053009033203e+00 2.308190822601318359e+00 -4.241691157221794128e-02
1.296000000000000000e+03 7.417635345458984375e+01 -2.367900848388671875e+01 -2.301970263943076134e-03 7.881573677062988281e+00 2.363781690597534180e+00 -3.479835763573646545e-02
1.297000000000000000e+03 7.508003234863281250e+01 -3.012345886230468750e+01 -5.480270832777023315e-03 7.918656826019287109e+00 2.373952865600585938e+00 -2.231235429644584656e-02
1.298000000000000000e+03 7.674808502197265625e+01 1.702405738830566406e+01 2.777344780042767525e-04 7.626769065856933594e+00 2.288114070892333984e+00 -2.190987206995487213e-02
1.299000000000000000e+03 7.545026397705078125e+01 1.710443496704101562e+01 2.865723567083477974e-03 7.636842250823974609e+00 2.291912317276000977e+00 -2.998266369104385376e-02
1.300000000000000000e+03 7.528965759277343750e+01 1.977994918823242188e+01 2.488775411620736122e-03 7.624116420745849609e+00 2.287981510162353516e+00 -2.879035100340843201e-02
1.301000000000000000e+03 7.420285034179687500e+01 1.723171043395996094e+01 2.544040093198418617e-03 7.646958351135253906e+00 2.294850826263427734e+00 -3.522926568984985352e-02
1.302000000000000000e+03 7.656501770019531250e+01 2.257326889038085938e+01 -1.233184157172217965e-04 7.598102569580078125e+00 2.279393672943115234e+00 -2.032147161662578583e-02
1.303000000000000000e+03 7.513031005859375000e+01 2.120772552490234375e+01 7.625491125509142876e-04 7.617879867553710938e+00 2.285592794418334961e+00 -2.760129049420356750e-02
1.304000000000000000e+03 7.337750244140625000e+01 -2.640946388244628906e+01 -4.904038738459348679e-03 7.885139942169189453e+00 2.364070653915405273e+00 -3.481325134634971619e-02
1.305000000000000000e+03 7.659035491943359375e+01 -2.582611083984375000e+01 -2.949165878817439079e-03 7.918579578399658203e+00 2.374689102172851562e+00 -2.100411430001258850e-02
1.306000000000000000e+03 7.540390777587890625e+01 -2.405099678039550781e+01 -3.812116105109453201e-03 7.895220279693603516e+00 2.367422580718994141e+00 -2.901486493647098541e-02
1.307000000000000000e+03 7.654846191406250000e+01 2.397191810607910156e+01 2.261413028463721275e-03 7.590908050537109375e+00 2.277950763702392578e+00 -2.021860703825950623e-02
1.308000000000000000e+03 7.366118621826171875e+01 2.417331314086914062e+01 4.255560692399740219e-03 7.619973182678222656e+00 2.287268638610839844e+00 -3.190294653177261353e-02
1.309000000000000000e+03 7.659111022949218750e+01 2.667370414733886719e+01 2.387325745075941086e-03 7.578722000122070312e+00 2.274332761764526367e+00 -1.808059774339199066e-02
1.310000000000000000e+03 7.514234924316406250e+01 2.683709144592285156e+01 2.763052005320787430e-03 7.595852851867675781e+00 2.279584646224975586e+00 -2.267724834382534027e-02
1.311000000000000000e+03 7.651975250244140625e+01 2.938862419128417969e+01 2.869243035092949867e-03 7.567750930786132812e+00 2.271186113357543945e+00 -1.631183736026287079e-02
1.312000000000000000e+03 7.506324768066406250e+01 2.933288955688476562e+01 3.406278323382139206e-03 7.586509704589843750e+00 2.276974916458129883e+00 -2.047812193632125854e-02
1.313000000000000000e+03 7.526860809326171875e+01 2.801220130920410156e+01 3.070258302614092827e-03 7.588435173034667969e+00 2.277451515197753906e+00 -2.259940281510353088e-02
1.314000000000000000e+03 7.507463836669921875e+01 -3.318717956542968750e+01 -7.555028423666954041e-03 7.926233768463134766e+00 2.375603675842285156e+00 -1.856559701263904572e-02
1.315000000000000000e+03 7.373062133789062500e+01 -3.558096694946289062e+01 -7.572961039841175079e-03 7.914715290069580078e+00 2.372142791748046875e+00 -1.647232100367546082e-02
1.316000000000000000e+03 7.504743194580078125e+01 -2.862973403930664062e+01 -2.541118301451206207e-03 7.911090373992919922e+00 2.372564792633056641e+00 -2.413745969533920288e-02
1.317000000000000000e+03 7.610606384277343750e+01 -3.639608001708984375e+01 -5.807503126561641693e-03 7.956033706665039062e+00 2.385067939758300781e+00 -8.003114722669124603e-03
1.318000000000000000e+03 7.659109497070312500e+01 -3.318553924560546875e+01 -4.385548643767833710e-03 7.951727867126464844e+00 2.384202718734741211e+00 -1.299160253256559372e-02
1.319000000000000000e+03 2.355934143066406250e+01 5.386468410491943359e+00 1.976044625043869019e-01 8.094962120056152344e+00 2.487770080566406250e+00 2.116106450557708740e-01
1.320000000000000000e+03 2.499063110351562500e+01 1.256488323211669922e+01 2.656438015401363373e-02 8.006250381469726562e+00 2.409844398498535156e+00 1.289321631193161011e-01
1.321000000000000000e+03 1.269506931304931641e+01 -2.251355934143066406e+01 -1.011390704661607742e-02 -7.311843219213187695e-04 -3.253527218475937843e-03 -3.037749091163277626e-03
1.322000000000000000e+03 1.255078697204589844e+01 -2.020074462890625000e+01 8.215658366680145264e-03 1.661608810536563396e-03 2.963179955258965492e-03 -4.320338368415832520e-03
1.323000000000000000e+03 2.403862953186035156e+01 -1.292660427093505859e+01 8.710972964763641357e-02 7.514094352722167969e+00 2.280361175537109375e+00 2.270923703908920288e-01
1.324000000000000000e+03 2.366948699951171875e+01 1.396710872650146484e+01 8.724767714738845825e-03 7.998614788055419922e+00 2.402201890945434570e+00 9.405013918876647949e-02
1.325000000000000000e+03 6.055270195007324219e+00 -2.479626846313476562e+01 9.715017862617969513e-03 1.306465594097971916e-03 3.306444967165589333e-03 -9.777467930689454079e-04
1.326000000000000000e+03 1.167448711395263672e+01 -2.959791755676269531e+01 1.106269843876361847e-02 7.746562361717224121e-03 5.642778240144252777e-03 -2.576486440375447273e-03
1.327000000000000000e+03 2.499917411804199219e+01 1.959049797058105469e+01 -2.808411419391632080e-02 7.890873908996582031e+00 2.358836889266967773e+00 1.305640041828155518e-01
1.328000000000000000e+03 2.488128471374511719e+01 2.514176940917968750e+01 -1.152635142207145691e-01 7.816771030426025391e+00 2.310452222824096680e+00 2.305330634117126465e-01
1.329000000000000000e+03 2.499599456787109375e+01 2.097686195373535156e+01 -4.204406961798667908e-02 7.868908405303955078e+00 2.348059177398681641e+00 1.492444872856140137e-01
1.330000000000000000e+03 2.496780204772949219e+01 2.236069679260253906e+01 -5.832960456609725952e-02 7.847938537597656250e+00 2.336882591247558594e+00 1.663783490657806396e-01
1.331000000000000000e+03 2.497134971618652344e+01 1.680142784118652344e+01 -6.955559365451335907e-03 7.936512470245361328e+00 2.378866910934448242e+00 1.145463660359382629e-01
1.332000000000000000e+03 2.626189422607421875e+01 1.684181213378906250e+01 -9.839952923357486725e-03 7.940631866455078125e+00 2.379237651824951172e+00 1.343716382980346680e-01
1.333000000000000000e+03 2.497481536865234375e+01 1.399050045013427734e+01 1.313170138746500015e-02 7.982046127319335938e+00 2.398553371429443359e+00 1.171901077032089233e-01
1.334000000000000000e+03 2.482513809204101562e+01 2.780390357971191406e+01 -2.245077490806579590e-01 7.853100299835205078e+00 2.288577795028686523e+00 3.263845145702362061e-01
1.335000000000000000e+03 2.496581649780273438e+01 1.539830207824707031e+01 3.147137816995382309e-03 7.960319995880126953e+00 2.389040231704711914e+00 1.160534024238586426e-01
1.336000000000000000e+03 1.012065219879150391e+01 -1.809027099609375000e+01 -6.698456592857837677e-03 -1.250830478966236115e-03 -2.384786028414964676e-03 1.504324143752455711e-03
1.337000000000000000e+03 2.484967994689941406e+01 2.648665809631347656e+01 -1.638202071189880371e-01 7.821049213409423828e+00 2.297168731689453125e+00 2.814393639564514160e-01
1.338000000000000000e+03 2.495413208007812500e+01 8.216558456420898438e+00 1.100532859563827515e-01 8.036251068115234375e+00 2.443891286849975586e+00 1.831116378307342529e-01
1.339000000000000000e+03 8.041312217712402344e+00 -7.750579357147216797e+00 2.453192835673689842e-03 3.424018213991075754e-04 8.386784465983510017e-04 -1.439240644685924053e-03
1.340000000000000000e+03 2.481349945068359375e+01 2.909565162658691406e+01 -3.235757350921630859e-01 7.946692466735839844e+00 2.286935091018676758e+00 3.723773956298828125e-01
1.341000000000000000e+03 2.490994262695312500e+01 6.752912044525146484e+00 1.498886048793792725e-01 8.023853302001953125e+00 2.452122688293457031e+00 1.869173943996429443e-01
1.342000000000000000e+03 2.664675903320312500e+01 3.247709655761718750e+01 -6.358199566602706909e-02 8.484017372131347656e+00 2.526130437850952148e+00 -1.694336533546447754e-01
1.343000000000000000e+03 3.165882825851440430e+00 -1.779214668273925781e+01 -5.848297849297523499e-03 -1.299882133025676012e-04 -1.793485833331942558e-03 6.767314043827354908e-04
1.344000000000000000e+03 4.313905239105224609e+00 -1.508365249633789062e+01 5.847134627401828766e-03 3.243708924856036901e-04 1.851451699621975422e-03 -4.243306466378271580e-04
1.345000000000000000e+03 5.318484783172607422e+00 2.092201042175292969e+01 -9.662923403084278107e-03 1.350739388726651669e-03 -2.493655309081077576e-03 -1.245230319909751415e-03
1.346000000000000000e+03 4.400421142578125000e+00 2.253152465820312500e+01 -1.017734967172145844e-02 1.355766900815069675e-03 -2.646474633365869522e-03 -2.139598364010453224e-03
1.347000000000000000e+03 4.409541606903076172e+00 -1.782373046875000000e+01 7.089516147971153259e-03 4.724115715362131596e-04 2.268578391522169113e-03 2.335093013243749738e-04
1.348000000000000000e+03 4.346526145935058594e+00 -1.644909858703613281e+01 -6.020672153681516647e-03 -4.620543622877448797e-04 -1.944818068295717239e-03 6.421367870643734932e-04
1.349000000000000000e+03 5.953405857086181641e+00 2.725726127624511719e+01 -6.082526408135890961e-03 -4.520940594375133514e-03 -3.181040054187178612e-03 -4.119502380490303040e-03
1.350000000000000000e+03 7.209769725799560547e+00 2.555838394165039062e+01 -4.842964466661214828e-03 -7.880318909883499146e-03 -3.816985059529542923e-03 -8.885472780093550682e-04
1.351000000000000000e+03 3.321629762649536133e+00 2.721220588684082031e+01 -5.208566784858703613e-03 -1.453745993785560131e-03 -1.998693915084004402e-03 -9.293953189626336098e-04
1.352000000000000000e+03 4.796584129333496094e+00 -2.781134605407714844e+01 -1.214251946657896042e-02 -2.719975309446454048e-03 -4.458748269826173782e-03 -3.722685622051358223e-03
1.353000000000000000e+03 3.343521118164062500e+00 -2.482137489318847656e+01 6.760181393474340439e-03 1.545781386084854603e-03 2.491788705810904503e-03 9.477348648943006992e-04
1.354000000000000000e+03 4.504118442535400391e+00 -2.198143577575683594e+01 -9.237161837518215179e-03 -2.967162290588021278e-04 -2.860163338482379913e-03 1.668488024733960629e-03
1.355000000000000000e+03 4.361884593963623047e+00 1.822458648681640625e+01 7.984178140759468079e-03 -4.773841283167712390e-05 2.380931982770562172e-03 1.541621313663199544e-04
1.356000000000000000e+03 4.273532390594482422e+00 1.679236793518066406e+01 -7.685316260904073715e-03 1.417840947397053242e-03 -1.880242489278316498e-03 5.485208239406347275e-04
1.357000000000000000e+03 4.460101127624511719e+00 -2.057915306091308594e+01 9.408955462276935577e-03 -1.014907378703355789e-03 2.518214518204331398e-03 5.682836053892970085e-04
1.358000000000000000e+03 4.448154449462890625e+00 -1.919856071472167969e+01 -7.427548058331012726e-03 -3.640729119069874287e-04 -2.337486250326037407e-03 1.789529196685180068e-04
1.359000000000000000e+03 4.738557338714599609e+00 2.561272430419921875e+01 -6.941045168787240982e-03 -3.142099827527999878e-03 -3.024943638592958450e-03 -3.934032283723354340e-03
1.360000000000000000e+03 4.640799999237060547e+00 2.402050590515136719e+01 1.018644217401742935e-02 -6.434784154407680035e-05 3.036628244444727898e-03 2.343544038012623787e-03
1.361000000000000000e+03 4.685081481933593750e+00 -2.482047653198242188e+01 -9.216810576617717743e-03 -3.167084418237209320e-03 -3.715168684720993042e-03 7.369382074102759361e-04
1.362000000000000000e+03 3.948694229125976562e+00 1.302447795867919922e+01 5.346956662833690643e-03 9.966893121600151062e-04 1.903093885630369186e-03 -1.041583251208066940e-03
1.363000000000000000e+03 3.898482561111450195e+00 1.426401042938232422e+01 -5.957873072475194931e-03 8.366727706743404269e-05 -1.762261730618774891e-03 1.544723636470735073e-03
1.364000000000000000e+03 4.658812999725341797e+00 -1.083390140533447266e+01 -3.234000410884618759e-03 -8.832095190882682800e-04 -1.235162955708801746e-03 1.459299004636704922e-03
1.365000000000000000e+03 5.244875431060791016e+00 -9.554127693176269531e+00 1.569630461744964123e-03 4.810302634723484516e-04 6.151982233859598637e-04 -2.202467294409871101e-03
1.366000000000000000e+03 4.336612224578857422e+00 -1.371685981750488281e+01 -4.903570748865604401e-03 -4.354084376245737076e-04 -1.601693802513182163e-03 1.000786898657679558e-03
1.367000000000000000e+03 5.050572872161865234e+00 3.555628967285156250e+01 -1.831578090786933899e-03 -3.396977204829454422e-03 -1.568566658534109592e-03 1.273262966424226761e-02
1.368000000000000000e+03 3.582421541213989258e+00 3.543273544311523438e+01 -6.197345908731222153e-03 -5.403490737080574036e-03 -3.480250947177410126e-03 6.046797148883342743e-03
1.369000000000000000e+03 3.203071117401123047e+00 -3.176343536376953125e+01 -2.209419198334217072e-02 2.131147542968392372e-03 -5.988913122564554214e-03 -8.669735863804817200e-03
1.370000000000000000e+03 4.776821613311767578e+00 -2.931458854675292969e+01 2.176904352381825447e-03 -2.092563081532716751e-04 5.902944249100983143e-04 -4.569123557303100824e-04
1.371000000000000000e+03 5.224158763885498047e+00 1.190532302856445312e+01 3.549891058355569839e-03 2.456404501572251320e-03 1.801888691261410713e-03 6.741206743754446507e-04
1.372000000000000000e+03 4.436270236968994141e+00 -1.231379032135009766e+01 4.373821429908275604e-03 4.947245470248162746e-04 1.460563857108354568e-03 -1.191820367239415646e-03
1.373000000000000000e+03 5.693550586700439453e+00 -6.353032112121582031e+00 -1.297464361414313316e-03 2.614612458273768425e-04 -3.108009113930165768e-04 -3.122911439277231693e-04
1.374000000000000000e+03 2.907373428344726562e+00 8.855202674865722656e+00 3.805261338129639626e-03 7.855423609726130962e-04 1.377241103909909725e-03 -7.826266664778813720e-05
1.375000000000000000e+03 4.050669670104980469e+00 1.173250293731689453e+01 -4.642052575945854187e-03 -1.437390572391450405e-03 -1.823832863010466099e-03 3.589434199966490269e-04
1.376000000000000000e+03 5.798993110656738281e+00 3.025881576538085938e+01 -6.972547154873609543e-03 -5.346968770027160645e-03 -3.695854684337973595e-03 -1.831523724831640720e-03
1.377000000000000000e+03 6.285954475402832031e+00 -3.369038772583007812e+01 -4.255158454179763794e-02 7.769829593598842621e-03 -1.043452601879835129e-02 -3.026352263987064362e-02
1.378000000000000000e+03 4.602423191070556641e+00 -3.070955085754394531e+01 -2.240733243525028229e-02 8.115132339298725128e-03 -4.287660121917724609e-03 -9.197222068905830383e-03
1.379000000000000000e+03 4.364515304565429688e+00 -3.186182022094726562e+01 5.673109088093042374e-03 -1.121610403060913086e-02 -1.662898575887084007e-03 -1.691341213881969452e-02
1.380000000000000000e+03 4.161058902740478516e+00 8.804442405700683594e+00 -4.064893815666437149e-03 -1.006950740702450275e-03 -1.521553378552198410e-03 -8.290860569104552269e-04
1.381000000000000000e+03 3.442073822021484375e+00 -4.835997581481933594e+00 -1.673295395448803902e-03 -7.559911464340984821e-04 -7.287859916687011719e-04 -5.964468582533299923e-04
1.382000000000000000e+03 3.297455787658691406e+00 5.980032920837402344e+00 1.450886717066168785e-03 -1.597614493221044540e-03 -4.401831756695173681e-05 3.187505644746124744e-04
1.383000000000000000e+03 6.229811191558837891e+00 4.868402004241943359e+00 -1.626520301215350628e-03 -1.945333497133105993e-04 -5.463160923682153225e-04 1.114476355724036694e-03
1.384000000000000000e+03 1.317193222045898438e+01 -2.854938125610351562e+01 1.970597915351390839e-02 8.070155978202819824e-03 8.332840166985988617e-03 -5.210845731198787689e-03
1.385000000000000000e+03 1.177856254577636719e+01 -2.699057197570800781e+01 1.436759158968925476e-02 7.343761622905731201e-03 6.513406056910753250e-03 2.255579223856329918e-03
1.386000000000000000e+03 2.277882957458496094e+01 -2.222469902038574219e+01 -8.489400148391723633e-02 7.225539684295654297e+00 2.142193794250488281e+00 2.337834239006042480e-01
1.387000000000000000e+03 1.563346290588378906e+01 4.065040969848632812e+01 3.313168883323669434e-01 -2.209525555372238159e-01 3.310929983854293823e-02 2.155280858278274536e-01
1.388000000000000000e+03 8.913486480712890625e+00 3.835291290283203125e+01 2.626837044954299927e-02 -1.676557958126068115e-02 2.850836841389536858e-03 3.174966201186180115e-02
1.389000000000000000e+03 2.375709915161132812e+01 -1.540834808349609375e+01 2.422456815838813782e-02 7.455540180206298828e+00 2.243929386138916016e+00 1.608541458845138550e-01
1.390000000000000000e+03 2.469696235656738281e+01 2.409339666366577148e+00 9.688242524862289429e-02 7.950008869171142578e+00 2.414067506790161133e+00 1.534226387739181519e-01
1.391000000000000000e+03 7.293775081634521484e+00 3.032284545898437500e+01 2.190288389101624489e-03 5.983034148812294006e-03 2.451996784657239914e-03 3.835624549537897110e-03
1.392000000000000000e+03 2.408366966247558594e+01 -1.037605285644531250e+01 5.958889797329902649e-02 7.562033653259277344e+00 2.286486864089965820e+00 2.643974423408508301e-01
1.393000000000000000e+03 2.276124572753906250e+01 -2.920005798339843750e+01 5.834164842963218689e-02 7.308815002441406250e+00 2.210146903991699219e+00 2.448983341455459595e-01
1.394000000000000000e+03 2.436763381958007812e+01 -3.147990226745605469e+00 -3.639805316925048828e-02 7.741746425628662109e+00 2.311604499816894531e+00 2.098342180252075195e-01
1.395000000000000000e+03 2.566611480712890625e+01 3.324168777465820312e+01 -7.245805114507675171e-02 8.710606575012207031e+00 2.591444730758666992e+00 -2.434107959270477295e-01
1.396000000000000000e+03 2.562838745117187500e+01 3.521674346923828125e+01 1.150089859962463379e+00 8.491231918334960938e+00 2.892396450042724609e+00 -3.493481874465942383e-01
1.397000000000000000e+03 2.629610252380371094e+01 3.756779861450195312e+01 9.754471182823181152e-01 8.406688690185546875e+00 2.814640760421752930e+00 6.443021297454833984e-01
1.398000000000000000e+03 2.612489700317382812e+01 3.876151657104492188e+01 2.606048583984375000e-01 8.692553520202636719e+00 2.685947656631469727e+00 6.520643830299377441e-01
1.399000000000000000e+03 1.123522090911865234e+01 2.796380805969238281e+01 5.676304455846548080e-03 9.352372027933597565e-03 4.508602898567914963e-03 7.553795876447111368e-05
1.400000000000000000e+03 2.520040893554687500e+01 4.048194885253906250e+01 -6.828081011772155762e-01 8.583239555358886719e+00 2.370129346847534180e+00 5.175873041152954102e-01
1.401000000000000000e+03 7.726699066162109375e+01 3.960657882690429688e+01 6.899465224705636501e-04 7.526321411132812500e+00 2.258103370666503906e+00 -1.887484540930017829e-04
1.402000000000000000e+03 7.548325347900390625e+01 3.881550979614257812e+01 7.195433601737022400e-03 7.560101985931396484e+00 2.270189285278320312e+00 -6.768922321498394012e-03
1.403000000000000000e+03 1.055127716064453125e+01 2.650084114074707031e+01 -3.242893144488334656e-03 1.234417431987822056e-03 -6.025427137501537800e-04 1.373276812955737114e-03
1.404000000000000000e+03 6.556963920593261719e+00 1.100765037536621094e+01 3.017521463334560394e-03 2.085992833599448204e-03 1.531054265797138214e-03 -9.330326429335400462e-05
1.405000000000000000e+03 7.174615383148193359e+00 1.776153182983398438e+01 -2.593199955299496651e-03 -1.614245004020631313e-03 -1.262233476154506207e-03 -2.875141799449920654e-04
1.406000000000000000e+03 2.114504432678222656e+01 -3.877491760253906250e+01 -3.984278738498687744e-01 6.383249759674072266e+00 1.795446634292602539e+00 -6.173440068960189819e-02
1.407000000000000000e+03 2.279417991638183594e+01 -2.083572578430175781e+01 -9.613278508186340332e-02 7.258309841156005859e+00 2.148653030395507812e+00 2.218791395425796509e-01
1.408000000000000000e+03 2.422988319396972656e+01 -1.790958213806152344e+01 -6.934206932783126831e-02 7.395271301269531250e+00 2.197778701782226562e+00 1.581244617700576782e-01
1.409000000000000000e+03 1.117006587982177734e+01 -3.654977416992187500e+01 -2.261209338903427124e-01 7.140144705772399902e-02 -4.641584679484367371e-02 -1.752127520740032196e-02
1.410000000000000000e+03 1.234756278991699219e+01 -3.381899261474609375e+01 -3.289132565259933472e-02 7.713114027865231037e-04 -9.636003524065017700e-03 3.458277508616447449e-02
1.411000000000000000e+03 2.397714042663574219e+01 -2.636803245544433594e+01 -2.161005139350891113e-02 7.277987957000732422e+00 2.176913499832153320e+00 2.112223654985427856e-01
1.412000000000000000e+03 2.255369377136230469e+01 -2.637980651855468750e+01 -2.518431097269058228e-02 7.248072147369384766e+00 2.166866302490234375e+00 2.196868211030960083e-01
1.413000000000000000e+03 1.226815223693847656e+01 2.456558990478515625e+01 1.826834306120872498e-02 -2.424801095912698656e-06 5.479775369167327881e-03 5.139513872563838959e-03
1.414000000000000000e+03 3.787604331970214844e+00 4.689806938171386719e+00 -8.279795874841511250e-04 -1.323695323662832379e-04 -2.881047548726201057e-04 1.448416151106357574e-03
1.415000000000000000e+03 4.629077911376953125e+00 4.431960582733154297e+00 1.412083976902067661e-03 3.167029644828289747e-04 5.186360795050859451e-04 -3.536569711286574602e-04
1.416000000000000000e+03 5.540891647338867188e+00 5.029089450836181641e+00 2.347948960959911346e-03 -2.567343472037464380e-04 6.273644394241273403e-04 -5.591615336015820503e-04
1.417000000000000000e+03 6.764336585998535156e+00 3.965658187866210938e+00 -7.380199385806918144e-04 -1.159432344138622284e-03 -5.692356498911976814e-04 4.921316867694258690e-04
1.418000000000000000e+03 5.041067123413085938e+00 5.968830108642578125e+00 -2.051023766398429871e-04 4.297971609048545361e-04 6.740843673469498754e-05 -1.169644412584602833e-03
1.419000000000000000e+03 1.100430297851562500e+01 4.205557346343994141e+00 -1.687073963694274426e-03 -8.483373676426708698e-04 -7.606233702972531319e-04 -6.733470363542437553e-04
1.420000000000000000e+03 9.127359390258789062e+00 6.206875801086425781e+00 -7.804753840900957584e-04 -9.527569054625928402e-04 -5.199696752242743969e-04 9.972210973501205444e-04
1.421000000000000000e+03 7.411043643951416016e+00 3.878221035003662109e+00 5.891210748814046383e-04 1.460335915908217430e-03 6.148371030576527119e-04 1.234014489455148578e-04
1.422000000000000000e+03 7.956837654113769531e+00 4.481289863586425781e+00 7.589783635921776295e-04 1.675103674642741680e-03 7.302245940081775188e-04 1.134167425334453583e-03
1.423000000000000000e+03 9.164546966552734375e+00 -4.174132347106933594e+00 2.169055631384253502e-03 1.967800781130790710e-04 7.097506895661354065e-04 2.915694203693419695e-04
1.424000000000000000e+03 8.409105300903320312e+00 -4.309911251068115234e+00 -2.435424132272601128e-03 2.340028913749847561e-05 -7.236071396619081497e-04 3.038565337192267179e-04
1.425000000000000000e+03 1.137107086181640625e+01 -9.195245742797851562e+00 4.980890545994043350e-03 -1.767675712471827865e-04 1.441236934624612331e-03 -7.647931342944502831e-04
1.426000000000000000e+03 1.090785694122314453e+01 5.070115089416503906e+00 1.540608005598187447e-03 1.155595644377171993e-03 8.088611066341400146e-04 5.051337066106498241e-04
1.427000000000000000e+03 6.832932472229003906e+00 -5.238197326660156250e+00 1.189171918667852879e-03 1.791598973795771599e-03 8.942312560975551605e-04 -1.623252755962312222e-03
1.428000000000000000e+03 5.164843082427978516e+00 -4.592717170715332031e+00 -7.080762879922986031e-04 -1.146809081546962261e-03 -5.564656457863748074e-04 -2.464397985022515059e-04
1.429000000000000000e+03 3.567193984985351562e+00 -5.984636306762695312e+00 1.869788626208901405e-03 4.754071705974638462e-04 7.035587332211434841e-04 5.667039658874273300e-04
1.430000000000000000e+03 7.591536998748779297e+00 -4.380722045898437500e+00 2.173031447455286980e-03 2.591873635537922382e-04 7.296656840480864048e-04 -7.556017371825873852e-04
1.431000000000000000e+03 1.254454803466796875e+01 6.255334377288818359e+00 -2.248049015179276466e-03 -1.072346931323409081e-03 -9.961187606677412987e-04 -1.783000188879668713e-03
1.432000000000000000e+03 6.777678489685058594e+00 -4.402344703674316406e+00 -1.544417114928364754e-03 -8.298702887259423733e-04 -7.122862152755260468e-04 9.603915968909859657e-04
1.433000000000000000e+03 6.471646785736083984e+00 -5.893373489379882812e+00 9.933866094797849655e-04 -9.499421576038002968e-04 1.303335739066824317e-05 8.660391322337090969e-04
1.434000000000000000e+03 1.251770401000976562e+01 -5.341279506683349609e+00 3.361070295795798302e-03 3.526927321217954159e-04 1.114128972403705120e-03 -1.290324609726667404e-03
1.435000000000000000e+03 1.075038337707519531e+01 7.594519138336181641e+00 -3.755381912924349308e-04 2.345683606108650565e-04 -4.229094702168367803e-05 2.010531490668654442e-03
1.436000000000000000e+03 2.008515167236328125e+01 3.896060943603515625e+01 3.287295252084732056e-02 9.007319211959838867e-01 2.800814509391784668e-01 -7.725588083267211914e-01
1.437000000000000000e+03 1.818699073791503906e+01 4.167408752441406250e+01 6.833067536354064941e-01 4.673557281494140625e-01 3.451987504959106445e-01 8.084768801927566528e-02
1.438000000000000000e+03 1.888533973693847656e+01 4.016748046875000000e+01 4.753036201000213623e-01 8.312956094741821289e-01 3.919797837734222412e-01 -1.488406211137771606e-01
1.439000000000000000e+03 9.174029350280761719e+00 4.920785903930664062e+00 2.037661150097846985e-03 7.206759764812886715e-04 8.275011787191033363e-04 9.538780432194471359e-04
1.440000000000000000e+03 1.181939125061035156e+01 5.115693092346191406e+00 -1.896258792839944363e-03 -1.052170759066939354e-03 -8.845288539305329323e-04 -1.150504453107714653e-03
1.441000000000000000e+03 2.450966644287109375e+01 -3.836248815059661865e-01 -1.214053831063210964e-03 7.861927032470703125e+00 2.358213901519775391e+00 1.928424835205078125e-01
1.442000000000000000e+03 2.588618087768554688e+01 9.137373566627502441e-01 5.200538411736488342e-02 7.875318050384521484e+00 2.378196954727172852e+00 1.340810805559158325e-01
1.443000000000000000e+03 2.499690532684326172e+00 6.151450157165527344e+00 3.814230207353830338e-03 9.137362940236926079e-04 1.418389962054789066e-03 9.727051656227558851e-05
1.444000000000000000e+03 2.583274459838867188e+01 -1.744185447692871094e+01 -4.114296287298202515e-02 7.446524143218994141e+00 2.221614360809326172e+00 1.362848579883575439e-01
1.445000000000000000e+03 2.536483955383300781e+01 -1.610719108581542969e+01 -6.437322590500116348e-03 7.454874992370605469e+00 2.234531402587890625e+00 1.321371197700500488e-01
1.446000000000000000e+03 2.562587165832519531e+01 -3.143938541412353516e+00 -4.012067988514900208e-02 7.760225772857666016e+00 2.316031455993652344e+00 1.803248077630996704e-01
1.447000000000000000e+03 2.434963798522949219e+01 -7.387869358062744141e+00 -3.774776682257652283e-02 7.638956069946289062e+00 2.280362606048583984e+00 2.526855766773223877e-01
1.448000000000000000e+03 2.561840248107910156e+01 -4.494273185729980469e+00 -4.146283492445945740e-02 7.731686115264892578e+00 2.307066917419433594e+00 1.964729875326156616e-01
1.449000000000000000e+03 1.033805847167968750e+01 -1.563076019287109375e+01 -6.061343476176261902e-03 -1.703633926808834076e-03 -2.329493174329400063e-03 4.097566707059741020e-04
1.450000000000000000e+03 1.066903591156005859e+01 1.071068000793457031e+01 -4.147995728999376297e-03 -5.261258920654654503e-04 -1.402236521244049072e-03 -7.922682561911642551e-04
1.451000000000000000e+03 9.941738128662109375e+00 5.889704704284667969e+00 2.076950855553150177e-03 7.243888685479760170e-04 8.404019172303378582e-04 -4.597565857693552971e-04
1.452000000000000000e+03 1.040209770202636719e+01 1.709675025939941406e+01 -6.396649871021509171e-03 4.357447614893317223e-04 -1.788271591067314148e-03 -4.044814850203692913e-04
1.453000000000000000e+03 1.048338317871093750e+01 1.295711135864257812e+01 -4.443245474249124527e-03 -1.341639319434762001e-03 -1.735465368255972862e-03 -2.024697372689843178e-03
1.454000000000000000e+03 1.105896377563476562e+01 2.490630531311035156e+01 -1.252400688827037811e-02 -1.848518732003867626e-03 -4.311757627874612808e-03 -2.979411743581295013e-03
1.455000000000000000e+03 2.459762001037597656e+01 3.280766677856445312e+01 -4.048857986927032471e-01 8.693181991577148438e+00 2.486489057540893555e+00 8.818693459033966064e-02
1.456000000000000000e+03 1.136817550659179688e+01 -1.039830398559570312e+01 -4.994251299649477005e-03 -1.222244027303531766e-04 -1.534942653961479664e-03 3.623494703788310289e-04
1.457000000000000000e+03 1.128530979156494141e+01 -1.159435749053955078e+01 4.659760277718305588e-03 9.187688119709491730e-04 1.673558726906776428e-03 -3.749800380319356918e-04
1.458000000000000000e+03 9.205003738403320312e+00 -3.338553619384765625e+01 -5.578337237238883972e-02 1.226660609245300293e-02 -1.305503025650978088e-02 1.017695199698209763e-02
1.459000000000000000e+03 7.753484725952148438e+00 -3.025120735168457031e+01 -1.723711378872394562e-02 6.805079989135265350e-03 -3.129610326141119003e-03 8.175379596650600433e-03
1.460000000000000000e+03 7.483515167236328125e+01 3.244968795776367188e+01 5.415488500148057938e-03 7.579761981964111328e+00 2.275553226470947266e+00 -1.588821411132812500e-02
1.461000000000000000e+03 2.498436737060546875e+01 -1.117146873474121094e+01 6.039553880691528320e-02 7.557127952575683594e+00 2.285257101058959961e+00 2.368842959403991699e-01
1.462000000000000000e+03 2.435586738586425781e+01 -8.950752258300781250e+00 1.143900305032730103e-02 7.621282100677490234e+00 2.289816379547119141e+00 2.677004337310791016e-01
1.463000000000000000e+03 7.508492279052734375e+01 -3.163529586791992188e+01 -3.469798946753144264e-03 7.923098087310791016e+00 2.375888586044311523e+00 -1.953449659049510956e-02
1.464000000000000000e+03 7.496512603759765625e+01 -2.703019523620605469e+01 -4.817057866603136063e-03 7.905004024505615234e+00 2.370056152343750000e+00 -2.698368765413761139e-02
1.465000000000000000e+03 7.385867309570312500e+01 -2.927251434326171875e+01 -4.763195291161537170e-03 7.902561664581298828e+00 2.369339704513549805e+00 -2.773330919444561005e-02
1.466000000000000000e+03 2.564312744140625000e+01 -5.863966464996337891e+00 -4.633792489767074585e-02 7.692648887634277344e+00 2.293893337249755859e+00 2.085445374250411987e-01
1.467000000000000000e+03 7.259568023681640625e+01 2.702180862426757812e+01 7.343465927988290787e-03 7.622190952301025391e+00 2.288860321044921875e+00 -3.133028745651245117e-02
1.468000000000000000e+03 7.352825164794921875e+01 2.115620994567871094e+01 3.803241066634654999e-03 7.634182453155517578e+00 2.291395664215087891e+00 -3.501575812697410583e-02
1.469000000000000000e+03 7.544006347656250000e+01 1.842507743835449219e+01 1.007337472401559353e-03 7.629926204681396484e+00 2.289279937744140625e+00 -2.799413166940212250e-02
1.470000000000000000e+03 7.413434600830078125e+01 -2.246812820434570312e+01 -4.359704907983541489e-03 7.874380588531494141e+00 2.361006259918212891e+00 -3.721433505415916443e-02
1.471000000000000000e+03 7.523230743408203125e+01 1.154897403717041016e+01 2.068844391033053398e-03 7.669404029846191406e+00 2.301441907882690430e+00 -3.412340581417083740e-02
1.472000000000000000e+03 7.365473937988281250e+01 1.455960750579833984e+01 2.179073402658104897e-03 7.662791728973388672e+00 2.299491167068481445e+00 -4.012788087129592896e-02
1.473000000000000000e+03 7.403702545166015625e+01 7.238759517669677734e+00 2.168710343539714813e-03 7.700313091278076172e+00 2.310744524002075195e+00 -4.327185824513435364e-02
1.474000000000000000e+03 7.407105255126953125e+01 2.764139938354492188e+01 2.078474266454577446e-03 7.604667663574218750e+00 2.282023906707763672e+00 -2.610672079026699066e-02
1.475000000000000000e+03 7.498790740966796875e+01 2.553468132019042969e+01 3.734653815627098083e-03 7.602312088012695312e+00 2.281814098358154297e+00 -2.606041170656681061e-02
1.476000000000000000e+03 7.410975646972656250e+01 4.422776699066162109e+00 1.682485686615109444e-03 7.716300487518310547e+00 2.315394878387451172e+00 -4.401372373104095459e-02
1.477000000000000000e+03 7.428272247314453125e+01 -1.601073074340820312e+01 -1.216954900883138180e-03 7.841285228729248047e+00 2.352020502090454102e+00 -4.125789552927017212e-02
1.478000000000000000e+03 7.416182708740234375e+01 -1.123226284980773926e+00 8.009606972336769104e-04 7.749621868133544922e+00 2.325126886367797852e+00 -4.535768181085586548e-02
1.479000000000000000e+03 7.414997863769531250e+01 1.628823041915893555e+00 1.272254856303334236e-03 7.732923984527587891e+00 2.320258855819702148e+00 -4.477798566222190857e-02
1.480000000000000000e+03 7.547817230224609375e+01 -6.649214267730712891e+00 -2.616873644001316279e-05 7.787629604339599609e+00 2.336281061172485352e+00 -3.695871308445930481e-02
1.481000000000000000e+03 7.421147918701171875e+01 -7.997943878173828125e+00 -3.056146088056266308e-04 7.792330265045166016e+00 2.337607383728027344e+00 -4.502443969249725342e-02
1.482000000000000000e+03 7.547626495361328125e+01 -5.271779537200927734e+00 -2.805716121656587347e-06 7.778165817260742188e+00 2.333448886871337891e+00 -3.720050677657127380e-02
1.483000000000000000e+03 7.386833953857421875e+01 1.008274745941162109e+01 2.632279414683580399e-03 7.685452461242675781e+00 2.306425571441650391e+00 -4.273633658885955811e-02
1.484000000000000000e+03 7.547412109375000000e+01 -3.890794277191162109e+00 1.076391781680285931e-04 7.768820762634277344e+00 2.330678462982177734e+00 -3.694091364741325378e-02
1.485000000000000000e+03 7.417156982421875000e+01 -3.895741462707519531e+00 3.048360813409090042e-04 7.766721725463867188e+00 2.330107927322387695e+00 -4.563073813915252686e-02
1.486000000000000000e+03 7.427119445800781250e+01 -1.069223499298095703e+01 -7.973482715897262096e-04 7.809363365173339844e+00 2.342569828033447266e+00 -4.400798678398132324e-02
1.487000000000000000e+03 7.428549957275390625e+01 -1.202339744567871094e+01 -1.548595377244055271e-03 7.817283630371093750e+00 2.344720602035522461e+00 -4.377190768718719482e-02
1.488000000000000000e+03 7.435398864746093750e+01 -1.855362319946289062e+01 -1.261098892427980900e-03 7.855111598968505859e+00 2.356155157089233398e+00 -3.920966759324073792e-02
1.489000000000000000e+03 7.426246643066406250e+01 -1.981874275207519531e+01 -4.129909910261631012e-03 7.861415863037109375e+00 2.357185840606689453e+00 -3.907621279358863831e-02
1.490000000000000000e+03 7.387844085693359375e+01 1.598489475250244141e+01 3.121997928246855736e-03 7.654347896575927734e+00 2.297240972518920898e+00 -3.845519945025444031e-02
1.491000000000000000e+03 7.383084869384765625e+01 -2.492896270751953125e+01 -5.743169691413640976e-03 7.883423805236816406e+00 2.363304138183593750e+00 -3.449030593037605286e-02
1.492000000000000000e+03 7.359982299804687500e+01 2.908246803283691406e+01 6.993533577769994736e-03 7.606083869934082031e+00 2.283923387527465820e+00 -2.585946395993232727e-02
1.493000000000000000e+03 7.416627502441406250e+01 -2.514817953109741211e+00 2.833145845215767622e-04 7.758336067199707031e+00 2.327585935592651367e+00 -4.524194449186325073e-02
1.494000000000000000e+03 7.427531433105468750e+01 -1.469238376617431641e+01 -2.243999391794204712e-03 7.833621978759765625e+00 2.349413394927978516e+00 -4.219871386885643005e-02
1.495000000000000000e+03 7.407794189453125000e+01 5.830605030059814453e+00 7.958623464219272137e-04 7.708446025848388672e+00 2.312772512435913086e+00 -4.323650524020195007e-02
1.496000000000000000e+03 7.312355804443359375e+01 3.456848144531250000e+01 8.752239868044853210e-03 7.596517562866210938e+00 2.281580924987792969e+00 -1.569039933383464813e-02
1.497000000000000000e+03 7.405598449707031250e+01 -2.113995933532714844e+01 -2.292419085279107094e-03 7.866966247558593750e+00 2.359402179718017578e+00 -3.842805698513984680e-02
1.498000000000000000e+03 7.361828613281250000e+01 1.306750297546386719e+01 3.208964597433805466e-03 7.670501232147216797e+00 2.302113056182861328e+00 -4.228184372186660767e-02
1.499000000000000000e+03 7.372597503662109375e+01 1.155917453765869141e+01 1.667757751420140266e-03 7.678297519683837891e+00 2.303989648818969727e+00 -4.229338094592094421e-02
1.500000000000000000e+03 7.387704467773437500e+01 1.959743690490722656e+01 1.883378019556403160e-03 7.636792182922363281e+00 2.291602611541748047e+00 -3.447958081960678101e-02
1.501000000000000000e+03 6.648239612579345703e+00 -1.529456138610839844e+01 5.516781471669673920e-03 1.509170397184789181e-03 2.107785549014806747e-03 1.382072223350405693e-04
1.502000000000000000e+03 2.771222305297851562e+01 1.276154232025146484e+01 3.881002590060234070e-02 7.953874111175537109e+00 2.397805213928222656e+00 1.472174972295761108e-01
1.503000000000000000e+03 2.498771858215332031e+01 9.681118011474609375e+00 6.654366105794906616e-02 8.043993949890136719e+00 2.433161258697509766e+00 1.631562858819961548e-01
1.504000000000000000e+03 6.229055881500244141e+00 -2.964763450622558594e+01 -2.018989808857440948e-02 3.727615345269441605e-03 -4.938684869557619095e-03 -7.884411141276359558e-03
1.505000000000000000e+03 1.184501647949218750e+01 -2.141964340209960938e+01 -3.647755365818738937e-04 6.539427558891475201e-04 8.675015851622447371e-05 5.279717966914176941e-03
1.506000000000000000e+03 4.234695911407470703e+00 3.151574325561523438e+01 -1.572269597090780735e-03 9.993733838200569153e-04 -1.718688872642815113e-04 2.608619164675474167e-03
1.507000000000000000e+03 9.770188331604003906e+00 3.120417213439941406e+01 1.809410605346783996e-04 3.808830631896853447e-03 1.196931465528905392e-03 -6.422634702175855637e-03
1.508000000000000000e+03 6.034677505493164062e+00 -2.632478141784667969e+01 -1.209544762969017029e-02 -5.921508651226758957e-03 -5.405087023973464966e-03 1.090219593606889248e-03
1.509000000000000000e+03 4.565101146697998047e+00 2.864935493469238281e+01 -5.692331120371818542e-03 -3.413615049794316292e-03 -2.731783781200647354e-03 -1.761217718012630939e-03
1.510000000000000000e+03 2.616993904113769531e+01 5.216490268707275391e+00 1.516969054937362671e-01 7.931054115295410156e+00 2.424825429916381836e+00 1.435662358999252319e-01
1.511000000000000000e+03 2.625499534606933594e+01 1.546417808532714844e+01 3.025285201147198677e-03 7.953091144561767578e+00 2.386834859848022461e+00 1.300745159387588501e-01
1.512000000000000000e+03 2.498592185974121094e+01 1.820012474060058594e+01 -1.670925132930278778e-02 7.913626670837402344e+00 2.369075298309326172e+00 1.231254041194915771e-01
1.513000000000000000e+03 1.447617530822753906e+01 -2.889775276184082031e+01 -3.231253102421760559e-02 4.134786780923604965e-03 -8.453323505818843842e-03 4.824348259717226028e-03
1.514000000000000000e+03 2.499925041198730469e+01 1.112896060943603516e+01 4.344919696450233459e-02 8.023144721984863281e+00 2.419978141784667969e+00 1.396788805723190308e-01
1.515000000000000000e+03 2.634626770019531250e+01 9.680577278137207031e+00 8.499387651681900024e-02 7.981001853942871094e+00 2.419798612594604492e+00 1.626193970441818237e-01
1.516000000000000000e+03 2.743227577209472656e+01 2.768442726135253906e+01 -2.367249429225921631e-01 8.110371589660644531e+00 2.362093925476074219e+00 1.733206361532211304e-01
1.517000000000000000e+03 2.613881492614746094e+01 2.646734809875488281e+01 -1.943203359842300415e-01 7.955084323883056641e+00 2.328229188919067383e+00 2.417968064546585083e-01
1.518000000000000000e+03 5.944334030151367188e+00 2.351052856445312500e+01 -9.335909970104694366e-03 -3.640109935076907277e-05 -2.811693353578448296e-03 -1.093046856112778187e-03
1.519000000000000000e+03 1.024542522430419922e+01 2.239279937744140625e+01 -8.489952422678470612e-03 -1.339774928055703640e-03 -2.948918379843235016e-03 1.591314066899940372e-04
1.520000000000000000e+03 7.396609783172607422e+00 -1.078770923614501953e+01 2.836760599166154861e-03 4.636171797756105661e-04 9.901133598759770393e-04 -1.549469307065010071e-03
1.521000000000000000e+03 6.362196922302246094e+00 -1.024536800384521484e+01 -2.746620215475559235e-03 -1.474573073210194707e-04 -8.682232582941651344e-04 1.669580698944628239e-03
1.522000000000000000e+03 2.628650283813476562e+01 2.239309120178222656e+01 -7.995304465293884277e-02 7.904202461242675781e+00 2.347274780273437500e+00 1.796561330556869507e-01
1.523000000000000000e+03 2.634531021118164062e+01 1.960343933105468750e+01 -3.994401916861534119e-02 7.917677402496337891e+00 2.363320112228393555e+00 1.497775614261627197e-01
1.524000000000000000e+03 2.629106903076171875e+01 8.179103851318359375e+00 1.146641150116920471e-01 7.974754333496093750e+00 2.426825523376464844e+00 1.679016649723052979e-01
1.525000000000000000e+03 2.618675994873046875e+01 2.378947830200195312e+01 -1.083680912852287292e-01 7.906577587127685547e+00 2.339462995529174805e+00 1.963491141796112061e-01
1.526000000000000000e+03 5.689681529998779297e+00 -2.194844055175781250e+01 1.225518155843019485e-02 -2.120343968272209167e-03 3.040451323613524437e-03 1.102734124287962914e-03
1.527000000000000000e+03 9.914828300476074219e+00 2.551797294616699219e+01 9.839637205004692078e-03 1.599071081727743149e-03 3.431612392887473106e-03 2.657343866303563118e-03
1.528000000000000000e+03 6.601677417755126953e+00 2.457221031188964844e+01 8.540521375834941864e-03 -3.645678982138633728e-03 1.468452741391956806e-03 -4.566133953630924225e-03
1.529000000000000000e+03 5.525002956390380859e+00 -1.648187828063964844e+01 7.014310453087091446e-03 6.802473217248916626e-04 2.308367285877466202e-03 6.332465563900768757e-04
1.530000000000000000e+03 5.486131191253662109e+00 -1.518174076080322266e+01 -5.488121416419744492e-03 -1.079534646123647690e-03 -1.970296725630760193e-03 3.399571578484028578e-04
1.531000000000000000e+03 7.208767890930175781e+00 1.613679695129394531e+01 3.338529262691736221e-03 -2.282828092575073242e-03 3.167103859595954418e-04 -1.334490138106048107e-03
1.532000000000000000e+03 5.548784255981445312e+00 2.219558334350585938e+01 1.046410948038101196e-02 -2.104988787323236465e-03 2.507736207917332649e-03 -2.228200319223105907e-04
1.533000000000000000e+03 4.255316257476806641e+00 1.970043373107910156e+01 -8.798737078905105591e-03 9.643066441640257835e-04 -2.350328955799341202e-03 -1.069905119948089123e-03
1.534000000000000000e+03 6.788172721862792969e+00 -1.765453720092773438e+01 5.179409869015216827e-03 3.542999504134058952e-03 2.616722835227847099e-03 2.697687130421400070e-03
1.535000000000000000e+03 4.738429069519042969e+00 -2.629747390747070312e+01 5.483386572450399399e-03 1.955978339537978172e-03 2.231809310615062714e-03 8.299304754473268986e-04
1.536000000000000000e+03 4.001361370086669922e+00 1.550504207611083984e+01 6.978093646466732025e-03 -1.435172511264681816e-03 1.662876340560615063e-03 -1.795506337657570839e-03
1.537000000000000000e+03 5.828356266021728516e+00 2.873681068420410156e+01 3.542388090863823891e-03 3.212566720321774483e-03 2.026486443355679512e-03 4.489866085350513458e-03
1.538000000000000000e+03 4.645681381225585938e+00 2.717877388000488281e+01 4.779070615768432617e-03 2.499262336641550064e-03 2.183499746024608612e-03 1.919059315696358681e-03
1.539000000000000000e+03 7.239367961883544922e+00 -2.636141586303710938e+01 2.664863131940364838e-03 8.569575846195220947e-03 3.370331600308418274e-03 1.020639610942453146e-04
1.540000000000000000e+03 8.315035820007324219e+00 -1.122294807434082031e+01 -2.276208484545350075e-03 -1.276841619983315468e-03 -1.065914984792470932e-03 6.662125233560800552e-04
1.541000000000000000e+03 5.321441650390625000e+00 1.965346336364746094e+01 9.173074737191200256e-03 -7.141450187191367149e-04 2.537678694352507591e-03 1.432441174983978271e-03
1.542000000000000000e+03 6.660672187805175781e+00 2.170764350891113281e+01 -7.517716381698846817e-03 7.478884654119610786e-04 -2.030948409810662270e-03 -5.865763523615896702e-04
1.543000000000000000e+03 6.274307727813720703e+00 1.975733184814453125e+01 -5.266313441097736359e-03 -7.668017642572522163e-04 -1.809934503398835659e-03 -1.307459431700408459e-03
1.544000000000000000e+03 6.275408267974853516e+00 2.070213127136230469e+01 8.758636191487312317e-03 -1.875887974165380001e-03 2.064824337139725685e-03 3.580514166969805956e-04
1.545000000000000000e+03 5.673846244812011719e+00 -1.784013748168945312e+01 -7.249101530760526657e-03 -1.398563152179121971e-03 -2.594299381598830223e-03 -5.256773438304662704e-04
1.546000000000000000e+03 6.228336334228515625e+00 1.708727645874023438e+01 1.224536797963082790e-03 1.836190815083682537e-03 9.182182839140295982e-04 2.425853163003921509e-03
1.547000000000000000e+03 5.740303039550781250e+00 1.448994350433349609e+01 -8.528229082003235817e-04 -2.007711911574006081e-03 -8.581604342907667160e-04 -1.094941631890833378e-03
1.548000000000000000e+03 5.002117633819580078e+00 1.516847229003906250e+01 -4.103105980902910233e-03 1.315151108428835869e-03 -8.363865199498832226e-04 2.485488075762987137e-03
1.549000000000000000e+03 6.178445339202880859e+00 -2.792461204528808594e+01 1.324598793871700764e-03 6.919426843523979187e-03 2.473207656294107437e-03 1.586015219800174236e-03
1.550000000000000000e+03 4.439456462860107422e+00 -3.291174697875976562e+01 -3.127910569310188293e-02 4.269774071872234344e-03 -8.102798834443092346e-03 -1.154182106256484985e-02
1.551000000000000000e+03 9.776710510253906250e+00 -3.168019294738769531e+01 -7.390139624476432800e-03 6.520631257444620132e-03 -2.608524519018828869e-04 1.779156550765037537e-02
1.552000000000000000e+03 9.511769294738769531e+00 1.074570274353027344e+01 4.146917723119258881e-03 9.630800341255962849e-04 1.532999216578900814e-03 1.151868491433560848e-03
1.553000000000000000e+03 4.179723262786865234e+00 1.029851722717285156e+01 3.956092521548271179e-03 1.674800179898738861e-03 1.689267810434103012e-03 1.094102190108969808e-04
1.554000000000000000e+03 5.521002769470214844e+00 -1.389600658416748047e+01 4.973458126187324524e-03 8.518256363458931446e-04 1.747585134580731392e-03 -6.379685364663600922e-04
1.555000000000000000e+03 5.904314994812011719e+00 -1.135199356079101562e+01 3.277803771197795868e-03 8.881208486855030060e-04 1.249777385964989662e-03 -1.016209251247346401e-03
1.556000000000000000e+03 5.340027809143066406e+00 -7.780632495880126953e+00 -1.245301915332674980e-03 6.066869245842099190e-04 -1.915845059556886554e-04 -7.348700310103595257e-04
1.557000000000000000e+03 5.870005130767822266e+00 9.378635406494140625e+00 2.107354579493403435e-03 2.342574764043092728e-03 1.334978733211755753e-03 1.161212916485965252e-03
1.558000000000000000e+03 8.011362075805664062e+00 -2.372282218933105469e+01 -2.431565197184681892e-03 9.599344921298325062e-04 -4.414892173372209072e-04 -8.867910131812095642e-03
1.559000000000000000e+03 1.231584453582763672e+01 -2.544954299926757812e+01 1.255207788199186325e-02 4.729159176349639893e-03 5.184371024370193481e-03 -8.491317566949874163e-05
1.560000000000000000e+03 1.069188690185546875e+01 -2.494241523742675781e+01 1.281735952943563461e-02 2.524285111576318741e-03 4.602493718266487122e-03 -7.852920098230242729e-04
1.561000000000000000e+03 9.572386741638183594e+00 -2.539107894897460938e+01 -1.132188457995653152e-02 -1.184705086052417755e-02 -6.950680632144212723e-03 2.478701062500476837e-03
1.562000000000000000e+03 1.018314075469970703e+01 1.403397846221923828e+01 4.984858911484479904e-03 6.264587282203137875e-04 1.683395355939865112e-03 1.538483309559524059e-03
1.563000000000000000e+03 4.823357582092285156e+00 -6.792747974395751953e+00 1.198351150378584862e-03 2.526804746594280005e-04 4.353094846010208130e-04 3.595637681428343058e-04
1.564000000000000000e+03 2.618383598327636719e+01 2.899027824401855469e+01 -2.983077168464660645e-01 8.145314216613769531e+00 2.354101896286010742e+00 2.194444239139556885e-01
1.565000000000000000e+03 4.494146347045898438e+00 -5.757623195648193359e+00 -1.156025100499391556e-03 -6.792084313929080963e-04 -5.505700828507542610e-04 -4.933012533001601696e-04
1.566000000000000000e+03 2.620881462097167969e+01 -1.045336723327636719e+01 3.883167728781700134e-02 7.572503566741943359e+00 2.283400535583496094e+00 2.041766941547393799e-01
1.567000000000000000e+03 8.064445495605468750e+00 -2.872551155090332031e+01 -5.671232007443904877e-03 2.425489074084907770e-04 -1.628604950383305550e-03 4.261672496795654297e-03
1.568000000000000000e+03 2.485549926757812500e+01 5.299993515014648438e+00 1.789686083793640137e-01 7.989823818206787109e+00 2.450637817382812500e+00 1.768081486225128174e-01
1.569000000000000000e+03 2.570359230041503906e+01 -7.298388004302978516e+00 -2.459580637514591217e-02 7.668822765350341797e+00 2.293268203735351562e+00 2.281830310821533203e-01
1.570000000000000000e+03 1.171453189849853516e+01 2.191024971008300781e+01 1.325874682515859604e-02 7.608949672430753708e-04 4.205892328172922134e-03 3.003762802109122276e-03
1.571000000000000000e+03 1.069287967681884766e+01 1.916792297363281250e+01 -7.106598000973463058e-03 -2.435159403830766678e-03 -2.862527268007397652e-03 -5.073852371424436569e-03
1.572000000000000000e+03 2.455859375000000000e+01 -2.068273544311523438e+01 -1.006691008806228638e-01 7.342463493347167969e+00 2.172538280487060547e+00 1.961301118135452271e-01
1.573000000000000000e+03 2.270116996765136719e+01 -2.362015151977539062e+01 -5.009840801358222961e-02 7.202154159545898438e+00 2.145616769790649414e+00 1.921134889125823975e-01
1.574000000000000000e+03 1.062705135345458984e+01 1.183065795898437500e+01 4.314570222049951553e-03 1.106544397771358490e-03 1.626334385946393013e-03 1.439677667804062366e-03
1.575000000000000000e+03 9.956453323364257812e+00 2.908775520324707031e+01 4.691985901445150375e-03 1.410243380814790726e-02 5.638326052576303482e-03 -1.457283622585237026e-03
1.576000000000000000e+03 1.059159088134765625e+01 1.810238838195800781e+01 6.432609166949987411e-03 2.227171091362833977e-03 2.597934100776910782e-03 2.515569329261779785e-03
1.577000000000000000e+03 9.103597640991210938e+00 -3.051399040222167969e+01 -2.926099486649036407e-02 -2.079589664936065674e-02 -1.501706801354885101e-02 -9.039459400810301304e-04
1.578000000000000000e+03 2.567334747314453125e+01 -1.785807609558105469e+00 -1.296248380094766617e-02 7.803691864013671875e+00 2.337218761444091797e+00 1.638161540031433105e-01
1.579000000000000000e+03 2.387642669677734375e+01 -1.424587917327880859e+01 8.948824554681777954e-02 7.461664676666259766e+00 2.265345811843872070e+00 1.829442977905273438e-01
1.580000000000000000e+03 2.617082786560058594e+01 3.144369125366210938e+01 -2.998148798942565918e-01 8.464220046997070312e+00 2.449321508407592773e+00 4.902432207018136978e-03
1.581000000000000000e+03 2.509333229064941406e+01 3.405974960327148438e+01 2.437996566295623779e-01 8.939688682556152344e+00 2.755046367645263672e+00 -4.529945552349090576e-01
1.582000000000000000e+03 2.623308372497558594e+01 6.689550399780273438e+00 1.476662456989288330e-01 7.950522422790527344e+00 2.429456472396850586e+00 1.649506986141204834e-01
1.583000000000000000e+03 2.599678611755371094e+01 2.314576864242553711e+00 9.523522108793258667e-02 7.889339923858642578e+00 2.395372629165649414e+00 1.205630600452423096e-01
1.584000000000000000e+03 2.544525718688964844e+01 -1.260524463653564453e+01 6.889626383781433105e-02 7.507453441619873047e+00 2.272904872894287109e+00 1.875099539756774902e-01
1.585000000000000000e+03 2.696464920043945312e+01 3.434212493896484375e+01 5.540815591812133789e-01 8.390583992004394531e+00 2.683399677276611328e+00 -3.340620398521423340e-01
1.586000000000000000e+03 2.446404075622558594e+01 -3.005105400085449219e+01 1.393776088953018188e-01 7.185956478118896484e+00 2.197600364685058594e+00 2.347715348005294800e-01
1.587000000000000000e+03 1.107549285888671875e+01 2.909848594665527344e+01 -4.527343262452632189e-04 -2.066445909440517426e-02 -6.335158366709947586e-03 -5.816636607050895691e-03
1.588000000000000000e+03 8.294221878051757812e+00 2.489076232910156250e+01 9.263673797249794006e-03 1.400916487909853458e-03 3.199377097189426422e-03 1.038627582602202892e-03
1.589000000000000000e+03 6.723596572875976562e+00 3.397518157958984375e+01 -4.732294008135795593e-03 -3.084344090893864632e-03 -2.344991546124219894e-03 1.425464916974306107e-02
1.590000000000000000e+03 7.191029357910156250e+01 4.080875778198242188e+01 9.936641901731491089e-03 7.603595256805419922e+00 2.284059524536132812e+00 -5.620293319225311279e-03
1.591000000000000000e+03 2.092141532897949219e+01 3.329618072509765625e+01 -1.485005468130111694e-01 4.202445507049560547e+00 1.216183543205261230e+00 8.000559806823730469e-01
1.592000000000000000e+03 5.897257328033447266e+00 7.125280857086181641e+00 7.808209920767694712e-05 -1.088254502974450588e-04 -9.223006600223015994e-06 -1.298568793572485447e-03
1.593000000000000000e+03 7.601963996887207031e+00 6.013110160827636719e+00 -6.782289710827171803e-04 -1.261136378161609173e-03 -5.818096105940639973e-04 -1.968897180631756783e-03
1.594000000000000000e+03 5.435772418975830078e+00 6.506252765655517578e+00 3.392813261598348618e-03 -7.429848774336278439e-04 7.949484861455857754e-04 2.366163302212953568e-03
1.595000000000000000e+03 6.876487255096435547e+00 4.671708583831787109e+00 5.734563455916941166e-04 7.864830549806356430e-04 4.079818027094006538e-04 -7.836964214220643044e-04
1.596000000000000000e+03 6.428869724273681641e+00 5.722711563110351562e+00 1.641466747969388962e-03 2.583164678071625531e-05 5.001895478926599026e-04 -1.489618560299277306e-03
1.597000000000000000e+03 8.622426986694335938e+00 -5.179225444793701172e+00 3.172785975039005280e-03 -2.635878918226808310e-04 8.727594395168125629e-04 -8.858616347424685955e-04
1.598000000000000000e+03 7.445900440216064453e+00 4.482121944427490234e+00 -3.073760017286986113e-04 -1.232780516147613525e-03 -4.620469699148088694e-04 1.245136663783341646e-04
1.599000000000000000e+03 8.317650794982910156e+00 6.396193504333496094e+00 4.059265367686748505e-03 3.308389568701386452e-05 1.227704808115959167e-03 1.167574897408485413e-03
1.600000000000000000e+03 5.347359180450439453e+00 -5.490427970886230469e+00 8.866427233442664146e-04 7.237012032419443130e-04 4.831031837966293097e-04 3.000735887326300144e-04
1.601000000000000000e+03 6.984102725982666016e+00 -6.567071437835693359e+00 -1.847248175181448460e-03 7.901081116870045662e-04 -3.171420248690992594e-04 1.462757354602217674e-04
1.602000000000000000e+03 9.971858024597167969e+00 7.994999408721923828e+00 3.090734593570232391e-03 -9.273426258005201817e-04 6.490175728686153889e-04 -1.295970636419951916e-03
1.603000000000000000e+03 6.794142723083496094e+00 -7.883140087127685547e+00 -9.490498632658272982e-05 6.144815124571323395e-04 1.558729563839733601e-04 -1.177496509626507759e-03
1.604000000000000000e+03 9.504501342773437500e+00 -4.993144035339355469e+00 -3.446516348049044609e-03 9.442580048926174641e-04 -7.506774854846298695e-04 -5.261270562186837196e-04
1.605000000000000000e+03 1.273688602447509766e+01 5.168915748596191406e+00 2.521272050216794014e-03 6.933030672371387482e-04 9.643725352361798286e-04 1.481769606471061707e-03
1.606000000000000000e+03 1.132683658599853516e+01 6.920866012573242188e+00 -1.114148646593093872e-03 -9.834005031734704971e-04 -6.292647449299693108e-04 -1.048898906446993351e-03
1.607000000000000000e+03 1.165188884735107422e+01 6.050031661987304688e+00 1.386141637340188026e-03 1.541775418445467949e-03 8.783751400187611580e-04 1.159761683084070683e-03
1.608000000000000000e+03 7.621368408203125000e+00 1.216421318054199219e+01 2.570725977420806885e-03 6.258554058149456978e-04 9.589744149707257748e-04 -2.682042249944061041e-04
1.609000000000000000e+03 4.267302989959716797e+00 7.642978668212890625e+00 4.643457476049661636e-03 1.179098035208880901e-03 1.746766618452966213e-03 1.358317327685654163e-03
1.610000000000000000e+03 4.789880752563476562e+00 6.989459037780761719e+00 -1.951346173882484436e-03 -1.847910425567533821e-05 -5.909475730732083321e-04 -3.423451445996761322e-03
1.611000000000000000e+03 2.626619338989257812e+01 -1.886251831054687500e+01 -7.036805152893066406e-02 7.424153804779052734e+00 2.206135749816894531e+00 1.368747502565383911e-01
1.612000000000000000e+03 2.739200592041015625e+01 -1.670062446594238281e+01 -2.400468662381172180e-02 7.473794460296630859e+00 2.234936952590942383e+00 1.097518950700759888e-01
1.613000000000000000e+03 7.183857917785644531e+00 7.500746726989746094e+00 2.676834119483828545e-03 -4.293796664569526911e-04 6.742363912053406239e-04 -1.019679708406329155e-03
1.614000000000000000e+03 1.056325626373291016e+01 9.664629936218261719e+00 4.477757960557937622e-03 -3.296627255622297525e-04 1.244428684003651142e-03 5.611713859252631664e-04
1.615000000000000000e+03 2.732012939453125000e+01 2.202836275100708008e+00 9.199152886867523193e-02 7.859616756439208984e+00 2.385482549667358398e+00 1.080921366810798645e-01
1.616000000000000000e+03 8.555714607238769531e+00 -9.034889221191406250e+00 2.215399872511625290e-03 -1.858887699199840426e-04 6.088532973080873489e-04 -2.167094731703400612e-03
1.617000000000000000e+03 9.379720687866210938e+00 1.736875915527343750e+01 8.577353321015834808e-03 -8.588733035139739513e-04 2.315543824806809425e-03 1.676858752034604549e-03
1.618000000000000000e+03 8.930030822753906250e+00 2.311540222167968750e+01 9.930218569934368134e-03 -9.642309742048382759e-04 2.689796267077326775e-03 1.142224529758095741e-03
1.619000000000000000e+03 7.733614921569824219e+00 2.381568145751953125e+01 -9.531787596642971039e-03 -2.769558050204068422e-04 -2.942623104900121689e-03 1.747228379826992750e-04
1.620000000000000000e+03 2.849828338623046875e+01 -6.701382160186767578e+00 -9.990267455577850342e-03 7.686553001403808594e+00 2.302968978881835938e+00 1.470955312252044678e-01
1.621000000000000000e+03 2.688483619689941406e+01 -3.066530466079711914e+00 -1.870417222380638123e-02 7.769830226898193359e+00 2.325337886810302734e+00 1.490723639726638794e-01
1.622000000000000000e+03 1.088075447082519531e+01 -1.390402030944824219e+01 2.418753923848271370e-03 1.293429173529148102e-03 1.113654929213225842e-03 -8.221427560783922672e-04
1.623000000000000000e+03 6.974729919433593750e+01 -2.562152290344238281e+01 -1.342487335205078125e-02 7.844241619110107422e+00 2.349245071411132812e+00 -4.761787131428718567e-02
1.624000000000000000e+03 6.906200408935546875e+01 -3.025910568237304688e+01 -1.663392968475818634e-02 7.848907470703125000e+00 2.349682092666625977e+00 -3.987551108002662659e-02
1.625000000000000000e+03 6.978610229492187500e+01 -3.204201126098632812e+01 -1.476129703223705292e-02 7.860856533050537109e+00 2.353828668594360352e+00 -3.123075142502784729e-02
1.626000000000000000e+03 1.722081375122070312e+01 3.959537887573242188e+01 2.123993188142776489e-01 3.158971667289733887e-02 7.319670915603637695e-02 6.719858646392822266e-01
1.627000000000000000e+03 7.197684764862060547e+00 3.217459869384765625e+01 -1.307255961000919342e-02 1.325551187619566917e-03 -3.524102503433823586e-03 1.462924876250326633e-03
1.628000000000000000e+03 9.989980697631835938e+00 2.767775917053222656e+01 -6.572275888174772263e-03 -1.121290680021047592e-02 -5.335554946213960648e-03 2.096096752211451530e-03
1.629000000000000000e+03 7.311369323730468750e+01 -2.293027687072753906e+01 -5.093803163617849350e-03 7.866333961486816406e+00 2.358371973037719727e+00 -4.031416773796081543e-02
1.630000000000000000e+03 7.347161865234375000e+01 2.548254585266113281e+01 2.511635655537247658e-03 7.618657112121582031e+00 2.286350488662719727e+00 -3.063350357115268707e-02
1.631000000000000000e+03 7.072484588623046875e+01 1.709183883666992188e+01 5.853721406310796738e-03 7.673042297363281250e+00 2.303668737411499023e+00 -5.193811282515525818e-02
1.632000000000000000e+03 7.234655761718750000e+01 1.650088882446289062e+01 4.774459637701511383e-03 7.663314819335937500e+00 2.300426721572875977e+00 -4.484820738434791565e-02
1.633000000000000000e+03 7.105979919433593750e+01 9.731432914733886719e+00 5.183832719922065735e-03 7.700029373168945312e+00 2.311563968658447266e+00 -5.661256238818168640e-02
1.634000000000000000e+03 7.259486389160156250e+01 8.536065101623535156e+00 3.411136567592620850e-03 7.699081420898437500e+00 2.310747861862182617e+00 -5.027445033192634583e-02
1.635000000000000000e+03 7.305226898193359375e+01 -1.728121185302734375e+01 -2.269210526719689369e-03 7.839191436767578125e+00 2.351076602935791016e+00 -4.678130522370338440e-02
1.636000000000000000e+03 7.289305114746093750e+01 -6.678707599639892578e+00 -1.800618774723261595e-04 7.780353546142578125e+00 2.334052085876464844e+00 -5.291207507252693176e-02
1.637000000000000000e+03 7.300331878662109375e+01 -9.353688240051269531e+00 -8.758225012570619583e-04 7.795791149139404297e+00 2.338474512100219727e+00 -5.176931619644165039e-02
1.638000000000000000e+03 7.158510589599609375e+01 4.216246604919433594e+00 2.861165441572666168e-03 7.722835540771484375e+00 2.317708969116210938e+00 -5.726979672908782959e-02
1.639000000000000000e+03 7.304857635498046875e+01 -1.065895271301269531e+01 -1.737011363729834557e-03 7.803184986114501953e+00 2.340434312820434570e+00 -5.163900181651115417e-02
1.640000000000000000e+03 7.283736419677734375e+01 -2.542309045791625977e+00 7.952494779601693153e-04 7.756994247436523438e+00 2.327336788177490234e+00 -5.336045846343040466e-02
1.641000000000000000e+03 7.284854125976562500e+01 -3.930566072463989258e+00 2.400490775471553206e-04 7.764995098114013672e+00 2.329570531845092773e+00 -5.317221954464912415e-02
1.642000000000000000e+03 7.428476715087890625e+01 -1.335767555236816406e+01 -1.312139560468494892e-03 7.825793743133544922e+00 2.347344636917114258e+00 -4.302170872688293457e-02
1.643000000000000000e+03 7.283534240722656250e+01 -1.150762438774108887e+00 6.941826432012021542e-04 7.749571323394775391e+00 2.325079679489135742e+00 -5.264363437891006470e-02
1.644000000000000000e+03 7.284877777099609375e+01 2.203216552734375000e-01 1.404170296154916286e-03 7.741922378540039062e+00 2.322998046875000000e+00 -5.267087370157241821e-02
1.645000000000000000e+03 7.116708374023437500e+01 -2.671562194824218750e+01 -8.142411708831787109e-03 7.859287261962890625e+00 2.355343580245971680e+00 -4.190010949969291687e-02
1.646000000000000000e+03 7.263455200195312500e+01 -2.784151649475097656e+01 -8.990044705569744110e-03 7.880029201507568359e+00 2.361311912536621094e+00 -3.535129874944686890e-02
1.647000000000000000e+03 7.420359802246093750e+01 1.833446311950683594e+01 3.888848936185240746e-03 7.639832019805908203e+00 2.293116092681884766e+00 -3.516885638236999512e-02
1.648000000000000000e+03 5.644513130187988281e+00 -1.260662174224853516e+01 -3.686608280986547470e-03 -1.069921301677823067e-03 -1.426958828233182430e-03 1.044200849719345570e-03
1.649000000000000000e+03 8.618916511535644531e+00 -1.885136985778808594e+01 -7.438195403665304184e-03 6.559806643053889275e-04 -2.034664386883378029e-03 2.367630368098616600e-03
1.650000000000000000e+03 1.028763866424560547e+01 -1.689899253845214844e+01 6.912977434694766998e-03 1.341037452220916748e-03 2.476204419508576393e-03 -1.804808736778795719e-03
1.651000000000000000e+03 2.764872169494628906e+01 8.126362800598144531e+00 1.167824119329452515e-01 7.923826217651367188e+00 2.412182569503784180e+00 1.520269066095352173e-01
1.652000000000000000e+03 2.914099502563476562e+01 9.616604804992675781e+00 8.919329196214675903e-02 7.906310558319091797e+00 2.398651123046875000e+00 1.394615769386291504e-01
1.653000000000000000e+03 9.465602874755859375e+00 -2.026892852783203125e+01 -7.854807190597057343e-03 9.231004514731466770e-04 -2.079511992633342743e-03 3.401517635211348534e-03
1.654000000000000000e+03 2.757300949096679688e+01 1.419714355468750000e+01 1.981418393552303314e-02 7.950641632080078125e+00 2.391136646270751953e+00 1.401920467615127563e-01
1.655000000000000000e+03 2.759978866577148438e+01 1.820141983032226562e+01 -2.926778607070446014e-02 7.941287040710449219e+00 2.373605728149414062e+00 1.467877626419067383e-01
1.656000000000000000e+03 2.636713790893554688e+01 1.117072105407714844e+01 5.483702197670936584e-02 7.985860824584960938e+00 2.412209272384643555e+00 1.532202512025833130e-01
1.657000000000000000e+03 6.069337844848632812e+00 -8.631859779357910156e+00 -9.266720007872208953e-05 -7.271511130966246128e-04 -2.459454990457743406e-04 1.951016718521714211e-03
1.658000000000000000e+03 2.902455520629882812e+01 8.033606529235839844e+00 1.077242568135261536e-01 7.892260074615478516e+00 2.399995326995849609e+00 1.332358866930007935e-01
1.659000000000000000e+03 2.635791778564453125e+01 2.099746322631835938e+01 -5.836793035268783569e-02 7.909315109252929688e+00 2.355284214019775391e+00 1.593732684850692749e-01
1.660000000000000000e+03 2.760986709594726562e+01 2.250431632995605469e+01 -9.523716568946838379e-02 7.954132080078125000e+00 2.357668638229370117e+00 1.685665249824523926e-01
1.661000000000000000e+03 2.865387916564941406e+01 2.294194984436035156e+01 -1.118003949522972107e-01 7.993254661560058594e+00 2.364436388015747070e+00 1.612099558115005493e-01
1.662000000000000000e+03 6.061898708343505859e+00 2.574206542968750000e+01 2.802108647301793098e-03 5.608964245766401291e-03 2.523321891203522682e-03 4.043929744511842728e-03
1.663000000000000000e+03 2.737621307373046875e+01 2.518119239807128906e+01 -1.590101569890975952e-01 8.001371383666992188e+00 2.352708339691162109e+00 1.889473944902420044e-01
1.664000000000000000e+03 7.808680534362792969e+00 -1.654283714294433594e+01 4.777824971824884415e-03 2.794692292809486389e-03 2.271755132824182510e-03 -2.690174151211977005e-04
1.665000000000000000e+03 9.596744537353515625e+00 -2.658055496215820312e+01 3.270776942372322083e-03 9.999201633036136627e-03 3.980993293225765228e-03 -3.488891292363405228e-03
1.666000000000000000e+03 6.744122028350830078e+00 -2.187723541259765625e+01 -8.987833745777606964e-03 -1.959496876224875450e-03 -3.284199163317680359e-03 -2.664503175765275955e-03
1.667000000000000000e+03 5.917731761932373047e+00 -2.332822799682617188e+01 -1.318581029772758484e-02 -2.251136116683483124e-03 -4.631083924323320389e-03 1.739891245961189270e-03
1.668000000000000000e+03 5.734046459197998047e+00 -1.923731613159179688e+01 9.432670660316944122e-03 -6.731306784786283970e-04 2.627862151712179184e-03 1.020900206640362740e-03
1.669000000000000000e+03 7.776024818420410156e+00 -1.757402038574218750e+01 -3.552770474925637245e-03 -3.283605212345719337e-03 -2.050912706181406975e-03 1.855339622125029564e-03
1.670000000000000000e+03 8.796662330627441406e+00 2.728169822692871094e+01 5.499261897057294846e-03 -1.990944612771272659e-03 1.052495208568871021e-03 -1.660496694967150688e-03
1.671000000000000000e+03 5.572182178497314453e+00 1.831816291809082031e+01 -5.424762144684791565e-03 -1.828195061534643173e-03 -2.175887115299701691e-03 -2.403185237199068069e-03
1.672000000000000000e+03 5.484375953674316406e+00 1.617301559448242188e+01 3.744188463315367699e-03 -1.991567667573690414e-03 5.257862503640353680e-04 -1.882181619293987751e-03
1.673000000000000000e+03 2.737044334411621094e+01 2.386999702453613281e+01 -1.269710063934326172e-01 7.965920448303222656e+00 2.351684808731079102e+00 1.890107691287994385e-01
1.674000000000000000e+03 1.087134742736816406e+01 -2.229494094848632812e+01 -5.530672147870063782e-03 -1.366346841678023338e-03 -2.069105627015233040e-03 -4.206408280879259109e-03
1.675000000000000000e+03 1.140740871429443359e+01 -2.323954582214355469e+01 1.167289447039365768e-02 8.696402073837816715e-04 3.762760199606418610e-03 -1.590694417245686054e-03
1.676000000000000000e+03 7.051348686218261719e+00 2.020024871826171875e+01 -8.251752005890011787e-04 3.636512556113302708e-04 -1.384571805829182267e-04 2.585651818662881851e-04
1.677000000000000000e+03 5.058816909790039062e+00 1.312032890319824219e+01 -3.922446630895137787e-03 -1.989141106605529785e-03 -1.773476251401007175e-03 3.980003530159592628e-04
1.678000000000000000e+03 6.544353961944580078e+00 1.521107387542724609e+01 -1.745726913213729858e-03 2.880122279748320580e-03 3.403185692150145769e-04 1.792215742170810699e-03
1.679000000000000000e+03 7.733843326568603516e+00 1.932772636413574219e+01 -1.382272108457982540e-03 -1.483041560277342796e-03 -8.595940889790654182e-04 -3.021750599145889282e-04
1.680000000000000000e+03 2.741992950439453125e+01 -1.321753787994384766e+01 3.148648887872695923e-02 7.519159793853759766e+00 2.265193939208984375e+00 1.431612223386764526e-01
1.681000000000000000e+03 2.761806869506835938e+01 -9.843571662902832031e+00 1.386152114719152451e-02 7.599953174591064453e+00 2.284144401550292969e+00 1.734451353549957275e-01
1.682000000000000000e+03 8.281517982482910156e+00 -1.988992118835449219e+01 8.132114075124263763e-03 -1.312467269599437714e-03 2.045894041657447815e-03 -2.347676083445549011e-03
1.683000000000000000e+03 9.829710006713867188e+00 -2.271716880798339844e+01 1.554234419018030167e-02 -1.346680917777121067e-03 4.258699249476194382e-03 -4.864125046879053116e-03
1.684000000000000000e+03 6.691172599792480469e+00 -1.409988975524902344e+01 -4.453348461538553238e-03 -1.439325977116823196e-03 -1.767802401445806026e-03 3.955007123295217752e-04
1.685000000000000000e+03 9.434278488159179688e+00 -2.783622169494628906e+01 -7.999806664884090424e-03 -1.597491092979907990e-02 -7.192415185272693634e-03 8.273907937109470367e-03
1.686000000000000000e+03 1.072101306915283203e+01 -2.684445190429687500e+01 -1.405743998475372791e-03 -1.656784489750862122e-02 -5.392076447606086731e-03 4.574292805045843124e-03
1.687000000000000000e+03 8.428862571716308594e+00 9.060099601745605469e+00 -4.930716473609209061e-03 1.019711489789187908e-03 -1.173301599919795990e-03 -5.101235001347959042e-04
1.688000000000000000e+03 6.553841114044189453e+00 8.727744102478027344e+00 1.634432934224605560e-03 -1.148303854279220104e-03 1.458386977901682258e-04 -1.870444277301430702e-03
1.689000000000000000e+03 2.613711929321289062e+01 2.774567413330078125e+01 -2.496637552976608276e-01 8.026580810546875000e+00 2.333075046539306641e+00 2.577907741069793701e-01
1.690000000000000000e+03 9.257714271545410156e+00 1.279039001464843750e+01 4.791823215782642365e-03 8.388141286559402943e-04 1.689191209152340889e-03 2.086498774588108063e-03
1.691000000000000000e+03 6.808902740478515625e+00 -1.291705799102783203e+01 4.126126412302255630e-03 1.115441671572625637e-03 1.572470413520932198e-03 -4.602181725203990936e-04
1.692000000000000000e+03 6.440342426300048828e+00 1.220244884490966797e+01 -3.351025748997926712e-03 -2.696893643587827682e-03 -1.814375864341855049e-03 -1.461041974835097790e-03
1.693000000000000000e+03 6.183262825012207031e+00 -7.152103424072265625e+00 1.330986153334379196e-03 -7.264824816957116127e-04 1.813511044019833207e-04 4.394591378513723612e-04
1.694000000000000000e+03 2.757279586791992188e+01 6.611602306365966797e+00 1.316599100828170776e-01 7.907866477966308594e+00 2.411858081817626953e+00 1.398354619741439819e-01
1.695000000000000000e+03 2.818288230895996094e+01 -1.818578147888183594e+01 -4.444183036684989929e-02 7.468876838684082031e+00 2.227330446243286133e+00 1.063475310802459717e-01
1.696000000000000000e+03 2.628315162658691406e+01 1.406398105621337891e+01 1.748415827751159668e-02 7.967571258544921875e+00 2.395516633987426758e+00 1.359093040227890015e-01
1.697000000000000000e+03 2.582081222534179688e+01 -8.866999626159667969e+00 1.082108914852142334e-02 7.609708309173583984e+00 2.286158800125122070e+00 2.291223108768463135e-01
1.698000000000000000e+03 2.771947288513183594e+01 1.957662773132324219e+01 -4.889212548732757568e-02 7.942888736724853516e+00 2.368199110031127930e+00 1.495367735624313354e-01
1.699000000000000000e+03 2.601690292358398438e+01 -1.402583217620849609e+01 3.746748715639114380e-02 7.495066642761230469e+00 2.259760379791259766e+00 1.490633785724639893e-01
1.700000000000000000e+03 2.482903099060058594e+01 -1.486962032318115234e+01 4.249077290296554565e-02 7.462958812713623047e+00 2.251634836196899414e+00 1.689056158065795898e-01
1.701000000000000000e+03 2.718866729736328125e+01 8.076814413070678711e-01 5.554361641407012939e-02 7.837053298950195312e+00 2.367779016494750977e+00 1.061040684580802917e-01
1.702000000000000000e+03 2.741806602478027344e+01 3.651285171508789062e+00 1.198138520121574402e-01 7.870538234710693359e+00 2.397105693817138672e+00 1.093755215406417847e-01
1.703000000000000000e+03 1.001950073242187500e+01 1.627987289428710938e+01 3.812742186710238457e-03 -3.038356313481926918e-03 2.323157532373443246e-04 -2.852788427844643593e-03
1.704000000000000000e+03 1.023555946350097656e+01 -3.054696273803710938e+01 -1.578934676945209503e-02 1.691838540136814117e-02 3.387117176316678524e-04 8.381958119571208954e-03
1.705000000000000000e+03 1.115420818328857422e+01 -1.277725982666015625e+01 -3.935838118195533752e-03 -1.579602947458624840e-03 -1.654632389545440674e-03 5.464906571432948112e-04
1.706000000000000000e+03 1.013020896911621094e+01 -1.448976707458496094e+01 7.030183449387550354e-03 -1.087008058675564826e-04 2.076444914564490318e-03 8.177847485058009624e-04
1.707000000000000000e+03 1.066511344909667969e+01 3.010311126708984375e+01 -1.466010790318250656e-02 -2.069133566692471504e-03 -5.018772557377815247e-03 3.561527933925390244e-03
1.708000000000000000e+03 2.437928581237792969e+01 -2.364199447631835938e+01 -7.835043221712112427e-02 7.302156448364257812e+00 2.167141675949096680e+00 2.096863240003585815e-01
1.709000000000000000e+03 2.648550033569335938e+01 -2.214650535583496094e+01 -8.182019740343093872e-02 7.379325389862060547e+00 2.189251661300659180e+00 1.675901710987091064e-01
1.710000000000000000e+03 6.895365905761718750e+01 3.109497261047363281e+01 1.739229820668697357e-02 7.651316165924072266e+00 2.300612449645996094e+00 -3.153327852487564087e-02
1.711000000000000000e+03 1.067502593994140625e+01 2.369721794128417969e+01 1.144604850560426712e-02 7.469354895874857903e-04 3.657895140349864960e-03 2.045537112280726433e-03
1.712000000000000000e+03 3.409165191650390625e+01 3.543097305297851562e+01 2.333310097455978394e-01 8.071359634399414062e+00 2.491407155990600586e+00 8.444826118648052216e-03
1.713000000000000000e+03 2.667262840270996094e+01 3.533908081054687500e+01 9.833057522773742676e-01 8.314032554626464844e+00 2.789201498031616211e+00 -1.601520031690597534e-01
1.714000000000000000e+03 2.621212577819824219e+01 3.021906661987304688e+01 -3.488477766513824463e-01 8.283972740173339844e+00 2.380537509918212891e+00 1.741258800029754639e-01
1.715000000000000000e+03 2.763058662414550781e+01 2.882025146484375000e+01 -2.237085551023483276e-01 8.194898605346679688e+00 2.391356945037841797e+00 1.124651953577995300e-01
1.716000000000000000e+03 2.399209403991699219e+01 -2.894293785095214844e+01 7.816056907176971436e-02 7.252603054046630859e+00 2.199229001998901367e+00 2.539631128311157227e-01
1.717000000000000000e+03 2.510749816894531250e+01 -2.904072952270507812e+01 8.984217047691345215e-02 7.202296257019042969e+00 2.187641620635986328e+00 2.021379768848419189e-01
1.718000000000000000e+03 1.120699119567871094e+01 -6.747207641601562500e+00 4.181935917586088181e-03 -7.535634358646348119e-05 1.231973757967352867e-03 -5.473174387589097023e-04
1.719000000000000000e+03 8.853290557861328125e+00 -6.063394069671630859e+00 -3.856556722894310951e-03 4.475675814319401979e-04 -1.022696727886795998e-03 1.414652797393500805e-03
1.720000000000000000e+03 7.297625732421875000e+01 -1.597145462036132812e+01 -3.411495126783847809e-03 7.832390308380126953e+00 2.348693609237670898e+00 -4.840185120701789856e-02
1.721000000000000000e+03 2.576694297790527344e+01 -4.400890767574310303e-01 1.260656863451004028e-02 7.831893920898437500e+00 2.353350162506103516e+00 1.475878357887268066e-01
1.722000000000000000e+03 7.415697479248046875e+01 2.568321228027343750e-01 5.535213276743888855e-04 7.741385459899902344e+00 2.322581768035888672e+00 -4.472830519080162048e-02
1.723000000000000000e+03 6.695936679840087891e+00 -3.575791549682617188e+01 3.417641564738005400e-04 4.265683819539844990e-04 2.304997615283355117e-04 -3.862350434064865112e-02
1.724000000000000000e+03 7.134476470947265625e+01 6.996922016143798828e+00 3.633067244663834572e-03 7.710700035095214844e+00 2.314299821853637695e+00 -5.672934651374816895e-02
1.725000000000000000e+03 7.186911010742187500e+01 1.480426788330078125e+01 4.946693312376737595e-03 7.675000190734863281e+00 2.303984165191650391e+00 -5.000138282775878906e-02
1.726000000000000000e+03 1.575560283660888672e+01 3.894608688354492188e+01 -1.727983504533767700e-01 5.393587797880172729e-02 -3.565874323248863220e-02 2.934462428092956543e-01
1.727000000000000000e+03 7.419022369384765625e+01 -6.642410755157470703e+00 -2.859632077161222696e-04 7.783831119537353516e+00 2.335063457489013672e+00 -4.556926712393760681e-02
1.728000000000000000e+03 1.019165229797363281e+01 -1.138484001159667969e+01 -4.176978953182697296e-03 -8.279773755930364132e-04 -1.501486869528889656e-03 -5.140112480148673058e-04
1.729000000000000000e+03 9.009466171264648438e+00 -1.340115737915039062e+01 5.637265741825103760e-03 3.960225149057805538e-04 1.809986541047692299e-03 4.495039174798876047e-04
1.730000000000000000e+03 8.739500045776367188e+00 5.662177085876464844e+00 -2.217981033027172089e-03 2.106403408106416464e-04 -6.022022571414709091e-04 -1.924131764099001884e-03
1.731000000000000000e+03 5.692408561706542969e+00 5.837348461151123047e+00 -3.707123454660177231e-03 3.299929376225918531e-04 -1.013139146380126476e-03 -4.883425208390690386e-05
1.732000000000000000e+03 6.808967590332031250e+00 6.600140094757080078e+00 -1.476278412155807018e-03 9.411666542291641235e-04 -1.605335419299080968e-04 1.965954666957259178e-03
1.733000000000000000e+03 1.080009460449218750e+01 5.891830921173095703e+00 -1.664550043642520905e-03 -1.239382778294384480e-03 -8.711798000149428844e-04 -4.907497204840183258e-04
1.734000000000000000e+03 1.065363502502441406e+01 6.588678359985351562e+00 1.851664390414953232e-03 7.342441240325570107e-04 7.757725543342530727e-04 7.374758133664727211e-04
1.735000000000000000e+03 7.877810001373291016e+00 -6.197978496551513672e+00 3.406700445339083672e-03 -5.202183383516967297e-04 8.659446612000465393e-04 -1.247740583494305611e-03
1.736000000000000000e+03 7.921224594116210938e+00 -9.902059555053710938e+00 -2.088202629238367081e-03 2.062081912299618125e-04 -5.645983037538826466e-04 2.383308019489049911e-03
1.737000000000000000e+03 1.011793613433837891e+01 -8.096804618835449219e+00 4.055117256939411163e-03 7.478515908587723970e-05 1.238970668055117130e-03 -5.925698205828666687e-04
1.738000000000000000e+03 8.327408790588378906e+00 1.152375984191894531e+01 1.336477464064955711e-03 3.778831334784626961e-03 1.534592593088746071e-03 9.219915227731689811e-05
1.739000000000000000e+03 9.031068801879882812e+00 1.369799041748046875e+01 -5.018319934606552124e-03 3.827040200121700764e-04 -1.390684745274484158e-03 -1.564947422593832016e-03
1.740000000000000000e+03 7.851195335388183594e+00 -1.430433559417724609e+01 4.969223868101835251e-03 1.369153964333236217e-03 1.901513314805924892e-03 -2.985431347042322159e-04
1.741000000000000000e+03 9.478179931640625000e+00 9.815073966979980469e+00 -4.821225535124540329e-03 2.148955245502293110e-04 -1.381898997351527214e-03 -9.536879952065646648e-04
1.742000000000000000e+03 3.022006988525390625e+01 4.866505146026611328e+00 1.082368418574333191e-01 7.836590290069580078e+00 2.383448123931884766e+00 9.462944418191909790e-02
1.743000000000000000e+03 5.081563949584960938e+00 7.610502243041992188e+00 -6.955882417969405651e-04 -1.270011067390441895e-03 -5.896798102185130119e-04 1.742309657856822014e-03
1.744000000000000000e+03 7.014921188354492188e+00 1.018951225280761719e+01 -1.461623585782945156e-03 -7.780534360790625215e-05 -4.618286911863833666e-04 -1.573585468577221036e-04
1.745000000000000000e+03 9.357330322265625000e+00 1.177158641815185547e+01 -3.409110242500901222e-03 -2.038828795775771141e-03 -1.634381711483001709e-03 -1.281520351767539978e-03
1.746000000000000000e+03 7.243972015380859375e+01 9.960482597351074219e+00 2.061152597889304161e-03 7.692864418029785156e+00 2.308477640151977539e+00 -4.941843822598457336e-02
1.747000000000000000e+03 7.276272583007812500e+01 5.745495796203613281e+00 2.549041761085391045e-03 7.712413787841796875e+00 2.314488887786865234e+00 -5.071723461151123047e-02
1.748000000000000000e+03 7.294196319580078125e+01 -8.024188041687011719e+00 -8.341762586496770382e-04 7.788054466247558594e+00 2.336166143417358398e+00 -5.287114530801773071e-02
1.749000000000000000e+03 9.440258026123046875e+00 -9.751969337463378906e+00 -4.632653435692191124e-04 1.575457717990502715e-04 -9.171587589662522078e-05 1.067297533154487610e-03
1.750000000000000000e+03 1.028006649017333984e+01 -9.236213684082031250e+00 -4.717834759503602982e-03 7.170254248194396496e-04 -1.200242899358272552e-03 1.469434500904753804e-04
1.751000000000000000e+03 9.402093887329101562e+00 1.837512588500976562e+01 -4.961927421391010284e-03 -3.770526964217424393e-03 -2.619736362248659134e-03 -8.955559460446238518e-04
1.752000000000000000e+03 7.573895931243896484e+00 9.197849273681640625e+00 3.133986145257949829e-03 -4.120641460758633912e-05 9.278338984586298466e-04 -1.620505354367196560e-04
1.753000000000000000e+03 7.287079620361328125e+01 2.946657657623291016e+00 1.963339513167738914e-03 7.727074146270751953e+00 2.318711280822753906e+00 -5.158260464668273926e-02
1.754000000000000000e+03 7.018252563476562500e+01 -4.078330516815185547e+00 4.434795409906655550e-04 7.761345386505126953e+00 2.328536748886108398e+00 -6.635748594999313354e-02
1.755000000000000000e+03 7.258363342285156250e+01 -2.059088325500488281e+01 -5.622192285954952240e-03 7.851274490356445312e+00 2.353695631027221680e+00 -4.564968869090080261e-02
1.756000000000000000e+03 7.065356445312500000e+01 -2.448435783386230469e+01 -8.332050405442714691e-03 7.848390102386474609e+00 2.352017402648925781e+00 -4.820084944367408752e-02
1.757000000000000000e+03 1.130493259429931641e+01 -7.977473735809326172e+00 -4.365517292171716690e-03 1.900730603665579110e-05 -1.303953002206981182e-03 7.390935788862407207e-04
1.758000000000000000e+03 8.974205970764160156e+00 -8.034914970397949219e+00 -3.240881720557808876e-03 -4.143036494497209787e-04 -1.096555613912642002e-03 1.670007011853158474e-03
1.759000000000000000e+03 2.917661857604980469e+01 2.377927780151367188e+01 -1.226170435547828674e-01 8.022101402282714844e+00 2.369845151901245117e+00 1.459476351737976074e-01
1.760000000000000000e+03 2.752369880676269531e+01 1.556184768676757812e+01 1.937654917128384113e-03 7.948976516723632812e+00 2.385274171829223633e+00 1.415788233280181885e-01
1.761000000000000000e+03 2.883375930786132812e+01 1.688684463500976562e+01 -1.330844126641750336e-02 7.946870803833007812e+00 2.380068778991699219e+00 1.426615118980407715e-01
1.762000000000000000e+03 8.814827919006347656e+00 2.603629112243652344e+01 -9.976034983992576599e-03 -8.158531039953231812e-03 -5.440369714051485062e-03 -5.605844315141439438e-03
1.763000000000000000e+03 6.923445129394531250e+01 3.721666812896728516e+00 4.265944939106702805e-03 7.729824066162109375e+00 2.320227146148681641e+00 -6.769841164350509644e-02
1.764000000000000000e+03 7.153730773925781250e+01 -5.386817932128906250e+00 -2.011850010603666306e-04 7.770366668701171875e+00 2.331049680709838867e+00 -6.018930301070213318e-02
1.765000000000000000e+03 8.449387550354003906e+00 1.660353469848632812e+01 1.020427327603101730e-02 -5.076793953776359558e-03 1.538243610411882401e-03 7.829651003703474998e-04
1.766000000000000000e+03 3.119614219665527344e+01 -1.774818992614746094e+01 -4.079461842775344849e-02 7.503097534179687500e+00 2.238690853118896484e+00 7.357754558324813843e-02
1.767000000000000000e+03 7.033091545104980469e+00 -1.179635524749755859e+01 -3.271924331784248352e-03 -1.104371622204780579e-03 -1.312888809479773045e-03 7.591081666760146618e-04
1.768000000000000000e+03 2.778420829772949219e+01 1.123922443389892578e+01 6.271260231733322144e-02 7.947473049163818359e+00 2.403055667877197266e+00 1.503501087427139282e-01
1.769000000000000000e+03 2.878237724304199219e+01 1.440968799591064453e+01 1.741346530616283417e-02 7.943425178527832031e+00 2.388251543045043945e+00 1.427389830350875854e-01
1.770000000000000000e+03 7.344870758056640625e+01 2.277071762084960938e+01 2.420310396701097488e-03 7.628659725189208984e+00 2.289324045181274414e+00 -3.336868435144424438e-02
1.771000000000000000e+03 7.118207550048828125e+01 -2.326185226440429688e+01 -8.881284855306148529e-03 7.848063945770263672e+00 2.351754903793334961e+00 -4.809304699301719666e-02
1.772000000000000000e+03 7.192447662353515625e+01 -2.543041229248046875e+01 -9.094075299799442291e-03 7.861944675445556641e+00 2.355855226516723633e+00 -4.211101308465003967e-02
1.773000000000000000e+03 9.838835716247558594e+00 -1.920391273498535156e+01 8.714610710740089417e-03 -1.119816792197525501e-03 2.278438070788979530e-03 -2.548295073211193085e-03
1.774000000000000000e+03 9.058252334594726562e+00 -2.135431289672851562e+01 7.280907128006219864e-03 -2.917447127401828766e-04 2.096748678013682365e-03 -6.537382025271654129e-03
1.775000000000000000e+03 7.173473358154296875e+01 -1.746011543273925781e+01 -4.894610028713941574e-03 7.830303192138671875e+00 2.347622632980346680e+00 -5.374225229024887085e-02
1.776000000000000000e+03 7.225193786621093750e+01 -1.871672058105468750e+01 -4.722577985376119614e-03 7.839851856231689453e+00 2.350538730621337891e+00 -4.943326488137245178e-02
1.777000000000000000e+03 7.185327911376953125e+01 1.308002471923828125e+01 2.589090727269649506e-03 7.682235717773437500e+00 2.305447340011596680e+00 -5.001647397875785828e-02
1.778000000000000000e+03 7.069786834716796875e+01 1.113445854187011719e+01 3.463567234575748444e-03 7.694985389709472656e+00 2.309534788131713867e+00 -5.610116943717002869e-02
1.779000000000000000e+03 7.185498046875000000e+01 -1.065243530273437500e+01 -1.711958437226712704e-03 7.798214912414550781e+00 2.338950872421264648e+00 -5.728584900498390198e-02
1.780000000000000000e+03 7.148124694824218750e+01 -2.584705114364624023e+00 8.060972904786467552e-04 7.756031513214111328e+00 2.327051401138305664e+00 -6.011477857828140259e-02
1.781000000000000000e+03 7.093566131591796875e+01 1.884556770324707031e+01 6.578678730875253677e-03 7.663918495178222656e+00 2.301149129867553711e+00 -4.770642518997192383e-02
1.782000000000000000e+03 7.164426326751708984e+00 2.277422332763671875e+01 1.027663238346576691e-02 -2.484055701643228531e-03 2.337773097679018974e-03 4.221221606712788343e-04
1.783000000000000000e+03 2.779414939880371094e+01 2.104227066040039062e+01 -7.155720144510269165e-02 7.948308467864990234e+00 2.363025426864624023e+00 1.629464030265808105e-01
1.784000000000000000e+03 2.930514907836914062e+01 2.090350723266601562e+01 -7.568310946226119995e-02 7.977436065673828125e+00 2.370525836944580078e+00 1.450735479593276978e-01
1.785000000000000000e+03 7.300628662109375000e+01 -1.461351871490478516e+01 -2.460750052705407143e-03 7.825010299682617188e+00 2.346764802932739258e+00 -4.969872906804084778e-02
1.786000000000000000e+03 2.886774444580078125e+01 1.808223152160644531e+01 -3.465789183974266052e-02 7.953565120697021484e+00 2.375672101974487305e+00 1.417656689882278442e-01
1.787000000000000000e+03 2.879648971557617188e+01 1.565007686614990234e+01 1.056302571669220924e-03 7.944351196289062500e+00 2.383622169494628906e+00 1.401974856853485107e-01
1.788000000000000000e+03 2.979211807250976562e+01 1.508597469329833984e+01 9.755983948707580566e-03 7.937420845031738281e+00 2.384153127670288086e+00 1.402819007635116577e-01
1.789000000000000000e+03 6.662700176239013672e+00 -1.648260498046875000e+01 -5.325803067535161972e-03 -2.638058969751000404e-03 -2.389158587902784348e-03 -1.105343224480748177e-03
1.790000000000000000e+03 7.386968135833740234e+00 -2.497348976135253906e+01 -4.325067624449729919e-03 -8.998848497867584229e-03 -3.997175022959709167e-03 5.427471827715635300e-03
1.791000000000000000e+03 7.347532749176025391e+00 -2.775481796264648438e+01 -1.116720587015151978e-02 -1.810863241553306580e-02 -8.782751858234405518e-03 -3.773325006477534771e-04
1.792000000000000000e+03 8.286874771118164062e+00 1.572144126892089844e+01 -7.648530416190624237e-03 1.240970566868782043e-03 -1.922268071211874485e-03 -1.958849374204874039e-03
1.793000000000000000e+03 6.657848358154296875e+00 1.875873565673828125e+01 4.102815408259630203e-03 9.595520095899701118e-04 1.518710283562541008e-03 -1.949244760908186436e-04
1.794000000000000000e+03 7.037187576293945312e+00 -1.948559951782226562e+01 -6.261975504457950592e-03 -6.315394421108067036e-04 -2.068054396659135818e-03 1.341276802122592926e-03
1.795000000000000000e+03 7.825201511383056641e+00 -1.543233108520507812e+01 -4.576308187097311020e-03 -2.350314054638147354e-03 -2.077986719086766243e-03 2.325390669284388423e-04
1.796000000000000000e+03 9.038391113281250000e+00 -1.557432937622070312e+01 5.271780304610729218e-03 2.154636429622769356e-03 2.227924996986985207e-03 -9.192922734655439854e-04
1.797000000000000000e+03 2.836954689025878906e+01 2.396564674377441406e+01 -1.306683868169784546e-01 8.004094123840332031e+00 2.362027645111083984e+00 1.619945466518402100e-01
1.798000000000000000e+03 2.693275260925292969e+01 -4.352363586425781250e+00 -3.184121102094650269e-02 7.734876155853271484e+00 2.310910463333129883e+00 1.630229204893112183e-01
1.799000000000000000e+03 2.940989303588867188e+01 -2.491713285446166992e+00 1.091826613992452621e-02 7.765686511993408203e+00 2.332981348037719727e+00 9.484706073999404907e-02
1.800000000000000000e+03 1.014845848083496094e+01 -2.380475044250488281e+01 -1.545851118862628937e-02 -4.522822855506092310e-04 -4.773237742483615875e-03 -1.117039122618734837e-03
1.801000000000000000e+03 1.008725357055664062e+01 -2.170970726013183594e+01 -8.135004900395870209e-03 2.305079484358429909e-03 -1.748977578245103359e-03 6.552355363965034485e-03
1.802000000000000000e+03 8.884649276733398438e+00 -1.780725097656250000e+01 6.706479936838150024e-03 6.627385737374424934e-04 2.210765611380338669e-03 -2.285235561430454254e-03
1.803000000000000000e+03 9.856974601745605469e+00 -5.901105403900146484e+00 4.417011514306068420e-03 -7.947314879857003689e-04 1.086684060283005238e-03 -5.752338329330086708e-04
1.804000000000000000e+03 8.120159149169921875e+00 -7.009018898010253906e+00 -3.421141067519783974e-03 1.827774685807526112e-04 -9.715090855024755001e-04 1.550758024677634239e-03
1.805000000000000000e+03 6.727594375610351562e+00 9.478620529174804688e+00 -1.417881925590336323e-03 -1.907168305478990078e-03 -9.975150460377335548e-04 1.364861265756189823e-03
1.806000000000000000e+03 9.707877159118652344e+00 7.354281425476074219e+00 -1.171747455373406410e-03 -5.297629977576434612e-04 -5.104531301185488701e-04 1.838044729083776474e-03
1.807000000000000000e+03 2.869013214111328125e+01 2.794629859924316406e+01 -1.987561583518981934e-01 8.181259155273437500e+00 2.394750833511352539e+00 8.868031948804855347e-02
1.808000000000000000e+03 2.745326042175292969e+01 2.646292304992675781e+01 -2.019429206848144531e-01 8.056922912597656250e+00 2.356493949890136719e+00 1.935004591941833496e-01
1.809000000000000000e+03 6.973046302795410156e+00 -9.318890571594238281e+00 1.911614788696169853e-03 -3.669052239274606109e-05 5.624772747978568077e-04 -2.264741808176040649e-03
1.810000000000000000e+03 7.208223724365234375e+01 2.075848770141601562e+01 4.323863424360752106e-03 7.646679401397705078e+00 2.295300960540771484e+00 -4.162687808275222778e-02
1.811000000000000000e+03 7.077330017089843750e+01 2.051165390014648438e+01 6.590818986296653748e-03 7.661165237426757812e+00 2.300326824188232422e+00 -4.687654972076416016e-02
1.812000000000000000e+03 7.697507858276367188e+00 1.054499340057373047e+01 3.895823610946536064e-03 1.274327398277819157e-03 1.551045337691903114e-03 -9.439034038223326206e-04
1.813000000000000000e+03 8.403091430664062500e+00 -2.646851158142089844e+01 -2.110269386321306229e-03 -1.774631626904010773e-02 -5.956975743174552917e-03 1.680525019764900208e-03
1.814000000000000000e+03 2.928287315368652344e+01 1.132780742645263672e+01 6.109355390071868896e-02 7.921802997589111328e+00 2.394869089126586914e+00 1.420845389366149902e-01
1.815000000000000000e+03 3.077276229858398438e+01 1.112232685089111328e+01 6.180180981755256653e-02 7.899199008941650391e+00 2.388300180435180664e+00 1.269236356019973755e-01
1.816000000000000000e+03 7.135410308837890625e+01 -1.951057243347167969e+01 -5.013719201087951660e-03 7.837035179138183594e+00 2.349606513977050781e+00 -5.295795202255249023e-02
1.817000000000000000e+03 8.746294975280761719e+00 2.977943611145019531e+01 -1.164303813129663467e-02 -1.552352309226989746e-02 -8.149968460202217102e-03 1.445533242076635361e-03
1.818000000000000000e+03 3.012832069396972656e+01 -8.739393234252929688e+00 1.875655027106404305e-03 7.638332843780517578e+00 2.292062520980834961e+00 1.153179034590721130e-01
1.819000000000000000e+03 3.053599357604980469e+01 -9.589180946350097656e+00 6.157505325973033905e-03 7.618013858795166016e+00 2.287251472473144531e+00 1.063135415315628052e-01
1.820000000000000000e+03 2.699784088134765625e+01 -5.672829151153564453e+00 -2.777544409036636353e-02 7.712325572967529297e+00 2.305365085601806641e+00 1.776131391525268555e-01
1.821000000000000000e+03 7.166764831542968750e+01 -2.898907470703125000e+01 -7.598150521516799927e-03 7.872660160064697266e+00 2.359518527984619141e+00 -3.547782078385353088e-02
1.822000000000000000e+03 2.869936180114746094e+01 3.206255340576171875e+01 4.327967762947082520e-02 8.293496131896972656e+00 2.501032590866088867e+00 -1.508137881755828857e-01
1.823000000000000000e+03 7.494566440582275391e+00 1.127302169799804688e+01 -2.586753573268651962e-03 -2.206003991886973381e-03 -1.437827246263623238e-03 2.418297808617353439e-03
1.824000000000000000e+03 2.750066375732421875e+01 5.122231483459472656e+00 1.379438042640686035e-01 7.888728618621826172e+00 2.408001661300659180e+00 1.287392228841781616e-01
1.825000000000000000e+03 2.893363189697265625e+01 6.505705833435058594e+00 1.218635439872741699e-01 7.874729633331298828e+00 2.398977994918823242e+00 1.239743307232856750e-01
1.826000000000000000e+03 2.914601325988769531e+01 1.939958190917968750e+01 -4.953106120228767395e-02 7.959235668182373047e+00 2.372911453247070312e+00 1.488793939352035522e-01
1.827000000000000000e+03 6.736254882812500000e+01 2.309625625610351562e+01 1.314339600503444672e-02 7.682419776916503906e+00 2.308668851852416992e+00 -5.173583328723907471e-02
1.828000000000000000e+03 7.037023162841796875e+01 -2.805880546569824219e+01 -1.452078856527805328e-02 7.856749057769775391e+00 2.352668523788452148e+00 -4.191175848245620728e-02
1.829000000000000000e+03 2.802956962585449219e+01 -1.735353708267211914e+00 9.578253142535686493e-03 7.789383411407470703e+00 2.339688539505004883e+00 1.128813251852989197e-01
1.830000000000000000e+03 2.701080131530761719e+01 -5.025923848152160645e-01 2.614028751850128174e-02 7.825059413909912109e+00 2.355360031127929688e+00 1.206628754734992981e-01
1.831000000000000000e+03 8.060166358947753906e+00 2.837754631042480469e+01 3.786218876484781504e-04 7.326642517000436783e-03 2.311579184606671333e-03 -2.491374965757131577e-03
1.832000000000000000e+03 7.160176086425781250e+01 1.537464737892150879e+00 2.127245068550109863e-03 7.736042022705078125e+00 2.321450948715209961e+00 -5.876940116286277771e-02
1.833000000000000000e+03 7.165470123291015625e+01 2.856858730316162109e+00 1.844949088990688324e-03 7.729353904724121094e+00 2.319359540939331055e+00 -5.738793686032295227e-02
1.834000000000000000e+03 1.041773509979248047e+01 -2.931578063964843750e+01 -1.466035656630992889e-02 -2.019362710416316986e-02 -1.045619510114192963e-02 4.165575839579105377e-03
1.835000000000000000e+03 3.182283782958984375e+01 3.426314163208007812e+01 2.803110778331756592e-01 8.101763725280761719e+00 2.514622211456298828e+00 -6.715310364961624146e-02
1.836000000000000000e+03 2.776373672485351562e+01 3.331343841552734375e+01 2.332781404256820679e-01 8.369756698608398438e+00 2.580910444259643555e+00 -2.490977644920349121e-01
1.837000000000000000e+03 7.157821655273437500e+01 -6.764560699462890625e+00 -4.374122654553502798e-04 7.777251720428466797e+00 2.333044290542602539e+00 -5.998558178544044495e-02
1.838000000000000000e+03 6.993470764160156250e+01 8.220782279968261719e+00 5.305381026118993759e-03 7.710664272308349609e+00 2.314790964126586914e+00 -6.219383701682090759e-02
1.839000000000000000e+03 7.124825286865234375e+01 8.369970321655273438e+00 2.250486286357045174e-03 7.705793857574462891e+00 2.312413454055786133e+00 -5.612935125827789307e-02
1.840000000000000000e+03 2.775695800781250000e+01 3.012826538085937500e+01 -1.973396986722946167e-01 8.301197052001953125e+00 2.431157112121582031e+00 -5.118511617183685303e-03
1.841000000000000000e+03 2.855330657958984375e+01 6.130406260490417480e-01 5.638954788446426392e-02 7.818888664245605469e+00 2.362583398818969727e+00 9.215671569108963013e-02
1.842000000000000000e+03 2.876004028320312500e+01 3.533125638961791992e+00 1.097039356827735901e-01 7.845183849334716797e+00 2.386466264724731445e+00 9.858156740665435791e-02
1.843000000000000000e+03 2.652095222473144531e+01 -2.043738365173339844e+01 -7.701759040355682373e-02 7.410068035125732422e+00 2.199915170669555664e+00 1.435810178518295288e-01
1.844000000000000000e+03 1.221448230743408203e+01 3.435223388671875000e+01 -4.964642971754074097e-02 1.060340180993080139e-02 -1.171290781348943710e-02 1.219657063484191895e-02
1.845000000000000000e+03 2.823295021057128906e+01 -6.512575745582580566e-01 2.862832508981227875e-02 7.801490306854248047e+00 2.349035501480102539e+00 9.752567857503890991e-02
1.846000000000000000e+03 2.884875106811523438e+01 5.008512020111083984e+00 1.197797358036041260e-01 7.857997894287109375e+00 2.393333196640014648e+00 1.065151318907737732e-01
1.847000000000000000e+03 6.676292896270751953e+00 3.569514083862304688e+01 -9.686703793704509735e-03 -8.877217769622802734e-03 -5.569176282733678818e-03 6.026966031640768051e-03
1.848000000000000000e+03 8.880210876464843750e+00 3.284185028076171875e+01 -2.296702191233634949e-02 -2.662168408278375864e-04 -6.969971582293510437e-03 4.172679502516984940e-03
1.849000000000000000e+03 7.816246986389160156e+00 2.659800148010253906e+01 1.238996483152732253e-04 3.966092597693204880e-03 1.226997701451182365e-03 1.577612478286027908e-03
1.850000000000000000e+03 7.041888427734375000e+01 -1.559709930419921875e+01 -5.937666632235050201e-03 7.813219547271728516e+00 2.342184543609619141e+00 -6.081673875451087952e-02
1.851000000000000000e+03 7.020916748046875000e+01 1.264023494720458984e+01 5.686647724360227585e-03 7.691854953765869141e+00 2.309262514114379883e+00 -5.657761171460151672e-02
1.852000000000000000e+03 2.657089233398437500e+01 -2.634325981140136719e+01 -1.641824468970298767e-02 7.305241584777832031e+00 2.186646938323974609e+00 1.760145276784896851e-01
1.853000000000000000e+03 3.014282417297363281e+01 3.298905944824218750e+01 2.128471583127975464e-01 8.189582824707031250e+00 2.520729064941406250e+00 -1.289760768413543701e-01
1.854000000000000000e+03 7.032341766357421875e+01 -2.062519645690917969e+01 -8.076388388872146606e-03 7.831448078155517578e+00 2.347011566162109375e+00 -5.514149367809295654e-02
1.855000000000000000e+03 7.179044342041015625e+01 -2.188088798522949219e+01 -5.167248193174600601e-03 7.850442409515380859e+00 2.353582620620727539e+00 -4.804545268416404724e-02
1.856000000000000000e+03 2.560367584228515625e+01 -3.111872673034667969e+01 1.378734707832336426e-01 7.129544734954833984e+00 2.180225610733032227e+00 1.383435577154159546e-01
1.857000000000000000e+03 2.637738990783691406e+01 -2.954512786865234375e+01 6.858685612678527832e-02 7.207051753997802734e+00 2.182691574096679688e+00 1.568448692560195923e-01
1.858000000000000000e+03 7.027066707611083984e+00 2.879748725891113281e+01 -1.276278402656316757e-02 -6.333964411169290543e-03 -5.729024298489093781e-03 -7.162124384194612503e-03
1.859000000000000000e+03 1.012748813629150391e+01 -1.252137660980224609e+01 4.543058108538389206e-03 1.026086159981787205e-03 1.670743222348392010e-03 9.675421752035617828e-04
1.860000000000000000e+03 8.998723983764648438e+00 -1.447009754180908203e+01 -5.452152341604232788e-03 -1.249308581463992596e-03 -2.010438358411192894e-03 4.535302869044244289e-04
1.861000000000000000e+03 7.043206787109375000e+01 2.926599693298339844e+01 8.841023780405521393e-03 7.639420986175537109e+00 2.294478654861450195e+00 -3.364114835858345032e-02
1.862000000000000000e+03 2.805813598632812500e+01 -1.446767044067382812e+01 9.188069961965084076e-03 7.510968208312988281e+00 2.256046772003173828e+00 1.156744733452796936e-01
1.863000000000000000e+03 8.343070030212402344e+00 2.203920364379882812e+01 -7.322788238525390625e-03 8.044525166042149067e-04 -1.955500803887844086e-03 3.133335849270224571e-04
1.864000000000000000e+03 8.674571990966796875e+00 2.018737411499023438e+01 -7.210295880213379860e-04 -1.259805634617805481e-03 -5.942505667917430401e-04 1.051744475262239575e-04
1.865000000000000000e+03 7.045376586914062500e+01 -2.962740135192871094e+01 -1.219544000923633575e-02 7.860181808471679688e+00 2.354395866394042969e+00 -3.604187071323394775e-02
1.866000000000000000e+03 7.585988521575927734e+00 -8.503320693969726562e+00 -1.790191396139562130e-03 4.287673073122277856e-05 -5.241943872533738613e-04 1.900537754409015179e-03
1.867000000000000000e+03 1.003953361511230469e+01 6.555281639099121094e+00 -1.568475272506475449e-03 -6.424142047762870789e-04 -6.632668082602322102e-04 1.732497010380029678e-03
1.868000000000000000e+03 9.395379066467285156e+00 6.832355022430419922e+00 -4.753312095999717712e-04 4.646702436730265617e-04 -3.198282001903862692e-06 -2.254011342301964760e-03
1.869000000000000000e+03 9.014322280883789062e+00 -6.999830722808837891e+00 4.047067835927009583e-03 -2.490067563485354185e-04 1.139418338425457478e-03 -1.696929801255464554e-03
1.870000000000000000e+03 7.146469116210937500e+01 -1.174235939979553223e+00 1.495474833063781261e-03 7.748812675476074219e+00 2.325092315673828125e+00 -6.020463258028030396e-02
1.871000000000000000e+03 6.890446472167968750e+01 -5.574486255645751953e+00 -2.313850563950836658e-04 7.765240669250488281e+00 2.329502820968627930e+00 -7.156606763601303101e-02
1.872000000000000000e+03 9.323705673217773438e+00 8.962520599365234375e+00 5.113298539072275162e-03 -1.272552646696567535e-03 1.152223790995776653e-03 4.132411559112370014e-04
1.873000000000000000e+03 8.528615951538085938e+00 1.067147731781005859e+01 -3.823178587481379509e-03 -1.797992736101150513e-03 -1.686351373791694641e-03 -8.772562141530215740e-04
1.874000000000000000e+03 7.023593902587890625e+01 -6.894800186157226562e+00 -1.100605702959001064e-03 7.774435997009277344e+00 2.332000732421875000e+00 -6.632185727357864380e-02
1.875000000000000000e+03 7.151103210449218750e+01 -3.991958379745483398e+00 5.636671558022499084e-04 7.762922763824462891e+00 2.329046010971069336e+00 -6.071930006146430969e-02
1.876000000000000000e+03 7.397682666778564453e+00 8.396380424499511719e+00 -2.958421595394611359e-03 5.889544845558702946e-04 -7.108401041477918625e-04 1.134360209107398987e-03
1.877000000000000000e+03 8.281338691711425781e+00 8.232060432434082031e+00 4.627674818038940430e-03 -1.156516722403466702e-03 1.041347393766045570e-03 2.549271812313236296e-05
1.878000000000000000e+03 7.146525573730468750e+01 5.601446151733398438e+00 2.041702391579747200e-03 7.717038631439208984e+00 2.315724134445190430e+00 -5.683103948831558228e-02
1.879000000000000000e+03 7.038468170166015625e+01 4.025803565979003906e+00 2.565594622865319252e-03 7.726375102996826172e+00 2.318682193756103516e+00 -6.232398375868797302e-02
1.880000000000000000e+03 1.005480480194091797e+01 -6.938922882080078125e+00 -4.284990485757589340e-03 3.366525925230234861e-04 -1.184501452371478081e-03 8.635289268568158150e-04
1.881000000000000000e+03 1.032146167755126953e+01 -1.027539253234863281e+01 4.989768844097852707e-03 -5.220698076300323009e-04 1.340309740044176579e-03 2.117441181326285005e-05
1.882000000000000000e+03 1.028933143615722656e+01 7.063165664672851562e+00 -6.138442404335364699e-05 2.987273619510233402e-04 7.120287773432210088e-05 -2.323600929230451584e-03
1.883000000000000000e+03 6.761634826660156250e+01 -2.869261932373046875e+01 -1.940804161131381989e-02 7.833435058593750000e+00 2.344208240509033203e+00 -4.473798349499702454e-02
1.884000000000000000e+03 7.062119293212890625e+01 -9.549862861633300781e+00 -1.572286477312445641e-03 7.786128997802734375e+00 2.335366964340209961e+00 -6.366200000047683716e-02
1.885000000000000000e+03 7.066752624511718750e+01 -1.066971969604492188e+01 -3.010591026395559311e-03 7.792652606964111328e+00 2.336892604827880859e+00 -6.411352008581161499e-02
1.886000000000000000e+03 6.953254699707031250e+01 -1.668670463562011719e+01 -5.881880410015583038e-03 7.812006473541259766e+00 2.341837406158447266e+00 -6.324493139982223511e-02
1.887000000000000000e+03 7.045623016357421875e+01 -1.810800361633300781e+01 -6.736868992447853088e-03 7.823301315307617188e+00 2.344969272613525391e+00 -5.838782712817192078e-02
1.888000000000000000e+03 7.423895359039306641e+00 -7.281899929046630859e+00 9.116289438679814339e-04 -5.336024914868175983e-04 1.134079429903067648e-04 3.249580040574073792e-04
1.889000000000000000e+03 7.033871459960937500e+01 1.638996481895446777e+00 2.694735303521156311e-03 7.736728668212890625e+00 2.321827173233032227e+00 -6.382188946008682251e-02
1.890000000000000000e+03 6.924410247802734375e+01 1.063300609588623047e+01 6.973034702241420746e-03 7.705121517181396484e+00 2.313628435134887695e+00 -6.307692080736160278e-02
1.891000000000000000e+03 6.942971038818359375e+01 1.901151657104492188e+01 8.716337382793426514e-03 7.678250789642333984e+00 2.306090116500854492e+00 -5.423371493816375732e-02
1.892000000000000000e+03 6.920969390869140625e+01 1.766042900085449219e+01 8.516605012118816376e-03 7.682752132415771484e+00 2.307380676269531250e+00 -5.493280664086341858e-02
1.893000000000000000e+03 7.166596221923828125e+01 -8.111083984375000000e+00 -6.154007860459387302e-04 7.783823966979980469e+00 2.334962606430053711e+00 -5.916068702936172485e-02
1.894000000000000000e+03 7.065788269042968750e+01 -1.431412792205810547e+01 -3.488850314170122147e-03 7.809815406799316406e+00 2.341897964477539062e+00 -6.101377308368682861e-02
1.895000000000000000e+03 7.188638305664062500e+01 -1.189484786987304688e+01 -2.680805744603276253e-03 7.803924560546875000e+00 2.340373277664184570e+00 -5.724259465932846069e-02
1.896000000000000000e+03 3.232175827026367188e+01 2.578282928466796875e+01 -9.436213225126266479e-02 8.085137367248535156e+00 2.397232770919799805e+00 3.630423918366432190e-02
1.897000000000000000e+03 3.164068222045898438e+01 1.477202606201171875e+01 1.450346410274505615e-02 7.924774169921875000e+00 2.381783246994018555e+00 1.215609312057495117e-01
1.898000000000000000e+03 9.263352394104003906e+00 1.655835914611816406e+01 -9.460811503231525421e-03 4.032704047858715057e-03 -1.628432190045714378e-03 -1.976870698854327202e-03
1.899000000000000000e+03 8.503370285034179688e+00 1.466988849639892578e+01 5.280283279716968536e-03 5.959824193269014359e-04 1.762879779562354088e-03 1.377991284243762493e-03
1.900000000000000000e+03 2.853544616699218750e+01 2.512581443786621094e+01 -1.542684882879257202e-01 8.041282653808593750e+00 2.366104125976562500e+00 1.589467525482177734e-01
1.901000000000000000e+03 3.154944229125976562e+01 2.945494270324707031e+01 -4.896647855639457703e-02 8.165724754333496094e+00 2.435027360916137695e+00 -4.478018730878829956e-02
1.902000000000000000e+03 8.678274154663085938e+00 -2.254207038879394531e+01 -3.412881167605519295e-03 -5.810172762721776962e-03 -2.766916062682867050e-03 8.014963008463382721e-03
1.903000000000000000e+03 7.352997303009033203e+00 1.408326435089111328e+01 -3.386441385373473167e-04 -3.399184672161936760e-03 -1.121348585002124310e-03 -1.180241582915186882e-03
1.904000000000000000e+03 3.043558692932128906e+01 7.887414932250976562e+00 1.006610244512557983e-01 7.867137432098388672e+00 2.390339612960815430e+00 1.164682209491729736e-01
1.905000000000000000e+03 3.055754852294921875e+01 9.453953742980957031e+00 8.466833084821701050e-02 7.883398532867431641e+00 2.390419960021972656e+00 1.242243796586990356e-01
1.906000000000000000e+03 3.064743804931640625e+01 1.900119972229003906e+01 -4.638183116912841797e-02 7.969626903533935547e+00 2.376973628997802734e+00 1.300486326217651367e-01
1.907000000000000000e+03 2.985304069519042969e+01 -5.021704673767089844e+00 -2.481359057128429413e-03 7.720790863037109375e+00 2.315492868423461914e+00 1.055360585451126099e-01
1.908000000000000000e+03 2.903875350952148438e+01 -1.341420292854309082e+00 2.624554559588432312e-02 7.781908035278320312e+00 2.342446088790893555e+00 9.236535429954528809e-02
1.909000000000000000e+03 3.046831130981445312e+01 1.375320243835449219e+01 2.627382799983024597e-02 7.926650047302246094e+00 2.385877132415771484e+00 1.338842213153839111e-01
1.910000000000000000e+03 7.457582473754882812e+00 -1.846036148071289062e+01 5.034233909100294113e-03 -2.349421847611665726e-03 8.054435602389276028e-04 -4.428202752023935318e-03
1.911000000000000000e+03 7.971858978271484375e+00 -2.098804855346679688e+01 -4.255476407706737518e-03 -3.139973850920796394e-03 -2.218635054305195808e-03 2.289355034008622169e-03
1.912000000000000000e+03 7.001925659179687500e+01 1.537089061737060547e+01 6.442924961447715759e-03 7.684490203857421875e+00 2.307279825210571289e+00 -5.427190661430358887e-02
1.913000000000000000e+03 3.258748245239257812e+01 1.201221466064453125e+01 4.801097139716148376e-02 7.891204357147216797e+00 2.381764650344848633e+00 1.097897738218307495e-01
1.914000000000000000e+03 2.915141487121582031e+01 1.301560211181640625e+01 3.856770321726799011e-02 7.931582450866699219e+00 2.391045093536376953e+00 1.413502097129821777e-01
1.915000000000000000e+03 7.932618141174316406e+00 -1.319384956359863281e+01 -4.210880491882562637e-03 -1.159432227723300457e-03 -1.611093757674098015e-03 5.992285150568932295e-05
1.916000000000000000e+03 2.840102767944335938e+01 -5.380008220672607422e+00 -1.519042346626520157e-02 7.708851337432861328e+00 2.308098316192626953e+00 1.409202963113784790e-01
1.917000000000000000e+03 3.002857780456542969e+01 -7.633515357971191406e+00 1.508277200628072023e-04 7.666059970855712891e+00 2.299863100051879883e+00 1.151863634586334229e-01
1.918000000000000000e+03 3.017011451721191406e+01 2.599344635009765625e+01 -1.374886631965637207e-01 8.100433349609375000e+00 2.388883352279663086e+00 8.241047710180282593e-02
1.919000000000000000e+03 8.528124809265136719e+00 -2.534264945983886719e+01 -2.782152034342288971e-03 1.066054869443178177e-02 2.363519044592976570e-03 -2.770506078377366066e-03
1.920000000000000000e+03 7.671167850494384766e+00 -2.207205581665039062e+01 5.462881526909768581e-04 2.863417146727442741e-03 1.022911630570888519e-03 -1.748319598846137524e-03
1.921000000000000000e+03 9.055287361145019531e+00 -2.442460060119628906e+01 1.091254036873579025e-02 -4.944499582052230835e-03 1.790412236005067825e-03 5.123677663505077362e-03
1.922000000000000000e+03 3.081386184692382812e+01 2.065966033935546875e+01 -6.858482211828231812e-02 7.991553306579589844e+00 2.376890659332275391e+00 1.273045539855957031e-01
1.923000000000000000e+03 2.960578727722167969e+01 2.227837371826171875e+01 -9.702844172716140747e-02 7.998517036437988281e+00 2.370446681976318359e+00 1.452423185110092163e-01
1.924000000000000000e+03 7.729133129119873047e+00 9.904084205627441406e+00 -3.995486069470643997e-03 6.110209506005048752e-04 -1.015339512377977371e-03 -4.667555622290819883e-04
1.925000000000000000e+03 9.694095611572265625e+00 3.582272338867187500e+01 -4.670595377683639526e-02 9.936021640896797180e-03 -1.103097945451736450e-02 3.085065819323062897e-02
1.926000000000000000e+03 2.873237800598144531e+01 -2.007555198669433594e+01 -6.517662107944488525e-02 7.449572563171386719e+00 2.215318679809570312e+00 1.100116446614265442e-01
1.927000000000000000e+03 3.234228134155273438e+01 -2.380225753784179688e+01 -3.697732463479042053e-02 7.435509204864501953e+00 2.219559669494628906e+00 6.178584694862365723e-02
1.928000000000000000e+03 3.172263336181640625e+01 -2.138351631164550781e+01 -5.067034438252449036e-02 7.464595794677734375e+00 2.224177598953247070e+00 7.290500402450561523e-02
1.929000000000000000e+03 9.438672065734863281e+00 2.427802467346191406e+01 -8.849983103573322296e-03 -3.402015427127480507e-03 -3.675599582493305206e-03 -1.026736572384834290e-03
1.930000000000000000e+03 2.741989326477050781e+01 3.148369216918945312e+01 -1.025499925017356873e-01 8.356701850891113281e+00 2.476245403289794922e+00 -8.122802525758743286e-02
1.931000000000000000e+03 7.149903106689453125e+01 2.109927684068679810e-01 1.358378445729613304e-03 7.742545604705810547e+00 2.323171138763427734e+00 -5.898581445217132568e-02
1.932000000000000000e+03 9.997374534606933594e+00 -1.353149318695068359e+01 -5.611273460090160370e-03 -1.058964189724065363e-04 -1.715151011012494564e-03 -1.873163157142698765e-03
1.933000000000000000e+03 9.111976623535156250e+00 -1.236258125305175781e+01 -4.705125000327825546e-03 -8.660109015181660652e-04 -1.671340782195329666e-03 -1.471583847887814045e-03
1.934000000000000000e+03 6.897132873535156250e+01 -2.173453140258789062e+01 -1.011405419558286667e-02 7.825831413269042969e+00 2.344715118408203125e+00 -5.811263993382453918e-02
1.935000000000000000e+03 2.945619773864746094e+01 -1.361068534851074219e+01 8.815065957605838776e-03 7.540691852569580078e+00 2.264852046966552734e+00 1.041178777813911438e-01
1.936000000000000000e+03 2.819799423217773438e+01 -1.114710521697998047e+01 2.367239817976951599e-02 7.572888374328613281e+00 2.278968334197998047e+00 1.496964842081069946e-01
1.937000000000000000e+03 9.137223243713378906e+00 8.163191795349121094e+00 -4.869942087680101395e-03 1.291691791266202927e-03 -1.073475112207233906e-03 -3.771499323192983866e-04
1.938000000000000000e+03 9.538546562194824219e+00 2.121932220458984375e+01 4.794985987246036530e-03 -1.859744777902960777e-03 8.805724210105836391e-04 -2.234869636595249176e-03
1.939000000000000000e+03 6.996652221679687500e+01 6.847745418548583984e+00 2.765914658084511757e-03 7.716188907623291016e+00 2.315686464309692383e+00 -6.257948279380798340e-02
1.940000000000000000e+03 3.032232284545898438e+01 6.361405849456787109e+00 1.076888665556907654e-01 7.849837303161621094e+00 2.387257814407348633e+00 1.034683138132095337e-01
1.941000000000000000e+03 1.058516502380371094e+01 -2.806847763061523438e+01 4.078340716660022736e-03 1.043992955237627029e-02 4.355481360107660294e-03 -1.163329463452100754e-03
1.942000000000000000e+03 1.093365669250488281e+01 -3.370101165771484375e+01 -9.230087697505950928e-02 -1.032261992804706097e-03 -2.799994125962257385e-02 1.810409873723983765e-02
1.943000000000000000e+03 2.414350509643554688e+01 -2.503436851501464844e+01 -3.431958332657814026e-02 7.269007205963134766e+00 2.170406341552734375e+00 2.048952132463455200e-01
1.944000000000000000e+03 2.531331443786621094e+01 -2.648232460021972656e+01 3.492345800623297691e-03 7.269203662872314453e+00 2.181808710098266602e+00 2.046726047992706299e-01
1.945000000000000000e+03 7.109778594970703125e+01 2.192278480529785156e+01 6.364332977682352066e-03 7.651955604553222656e+00 2.297496080398559570e+00 -4.269818216562271118e-02
1.946000000000000000e+03 6.922666931152343750e+01 2.070892333984375000e+01 9.020992554724216461e-03 7.671044826507568359e+00 2.304019689559936523e+00 -5.022215470671653748e-02
1.947000000000000000e+03 2.866513824462890625e+01 2.067976713180541992e+00 8.411836624145507812e-02 7.827947616577148438e+00 2.373619794845581055e+00 8.781247586011886597e-02
1.948000000000000000e+03 3.174388313293457031e+01 6.172970294952392578e+00 9.771949052810668945e-02 7.831903457641601562e+00 2.378886938095092773e+00 8.881980925798416138e-02
1.949000000000000000e+03 6.980091094970703125e+01 -2.328220939636230469e+01 -1.034739427268505096e-02 7.837029457092285156e+00 2.348004579544067383e+00 -5.219383910298347473e-02
1.950000000000000000e+03 7.176795959472656250e+01 2.335913848876953125e+01 5.464849527925252914e-03 7.641009330749511719e+00 2.293942213058471680e+00 -3.979405015707015991e-02
1.951000000000000000e+03 8.092633247375488281e+00 -1.214862918853759766e+01 3.858551615849137306e-03 1.116091501899063587e-03 1.492392970249056816e-03 9.923266770783811808e-05
1.952000000000000000e+03 3.097932624816894531e+01 3.119539070129394531e+01 4.139110445976257324e-02 8.187573432922363281e+00 2.468689203262329102e+00 -9.442985057830810547e-02
1.953000000000000000e+03 3.001597404479980469e+01 -1.466301345825195312e+01 -3.713385434821248055e-03 7.527955532073974609e+00 2.257272720336914062e+00 8.407017588615417480e-02
1.954000000000000000e+03 3.173121643066406250e+01 -1.223523044586181641e+01 2.352669369429349899e-03 7.588392734527587891e+00 2.277223587036132812e+00 7.281217724084854126e-02
1.955000000000000000e+03 6.747486877441406250e+01 -1.616797828674316406e+01 -7.937216199934482574e-03 7.796293735504150391e+00 2.336506843566894531e+00 -7.131998986005783081e-02
1.956000000000000000e+03 6.811374664306640625e+01 -3.171586990356445312e+01 -2.077657356858253479e-02 7.842853546142578125e+00 2.346622943878173828e+00 -3.594099730253219604e-02
1.957000000000000000e+03 8.041363716125488281e+00 3.476914978027343750e+01 -1.366215874440968037e-03 7.033579982817173004e-03 1.700209220871329308e-03 1.419315021485090256e-02
1.958000000000000000e+03 7.187248992919921875e+01 -1.317155742645263672e+01 -2.373489551246166229e-03 7.811117172241210938e+00 2.342622995376586914e+00 -5.604430288076400757e-02
1.959000000000000000e+03 6.898600769042968750e+01 1.373724842071533203e+01 6.033010315150022507e-03 7.696099281311035156e+00 2.310639619827270508e+00 -6.104458495974540710e-02
1.960000000000000000e+03 6.877214050292968750e+01 -2.709722518920898438e+01 -1.304109580814838409e-02 7.838803768157958984e+00 2.347728967666625977e+00 -4.680518805980682373e-02
1.961000000000000000e+03 3.118959808349609375e+01 2.713819694519042969e+01 -1.234199255704879761e-01 8.130095481872558594e+00 2.402002573013305664e+00 3.819850459694862366e-02
1.962000000000000000e+03 2.264456176757812500e+01 -3.337225723266601562e+01 3.474757671356201172e-01 7.106645107269287109e+00 2.236236095428466797e+00 2.587639391422271729e-01
1.963000000000000000e+03 2.994123268127441406e+01 -3.048712730407714844e+01 -7.949046266730874777e-05 7.270891189575195312e+00 2.181243419647216797e+00 5.288693308830261230e-02
1.964000000000000000e+03 2.998931503295898438e+01 5.316465497016906738e-01 5.463965609669685364e-02 7.792560100555419922e+00 2.354159832000732422e+00 7.412614673376083374e-02
1.965000000000000000e+03 3.011287879943847656e+01 3.403277635574340820e+00 9.641312062740325928e-02 7.822439670562744141e+00 2.375655889511108398e+00 8.040094375610351562e-02
1.966000000000000000e+03 7.168954467773437500e+01 3.030401039123535156e+01 1.147229969501495361e-02 7.623906612396240234e+00 2.290613651275634766e+00 -2.953183837234973907e-02
1.967000000000000000e+03 2.860318183898925781e+01 -2.220133590698242188e+01 -5.512503907084465027e-02 7.415167331695556641e+00 2.208012819290161133e+00 1.211189478635787964e-01
1.968000000000000000e+03 2.622274017333984375e+01 -2.389618301391601562e+01 -4.909739643335342407e-02 7.337624073028564453e+00 2.186558008193969727e+00 1.719224750995635986e-01
1.969000000000000000e+03 2.985398101806640625e+01 3.594001388549804688e+01 4.345734715461730957e-01 8.148153305053710938e+00 2.574817895889282227e+00 4.380307719111442566e-02
1.970000000000000000e+03 7.018244171142578125e+01 -3.443187332153320312e+01 -1.935274899005889893e-02 7.869367122650146484e+00 2.355004310607910156e+00 -2.625302039086818695e-02
1.971000000000000000e+03 8.199909210205078125e+00 7.309141635894775391e+00 -4.243256989866495132e-03 3.991406119894236326e-04 -1.153234974481165409e-03 -3.693526668939739466e-04
1.972000000000000000e+03 6.900592041015625000e+01 -8.669642448425292969e+00 -2.520244801416993141e-03 7.777774810791015625e+00 2.332576513290405273e+00 -7.145475596189498901e-02
1.973000000000000000e+03 6.982338714599609375e+01 -1.240745830535888672e+01 -3.528694156557321548e-03 7.797200202941894531e+00 2.338101387023925781e+00 -6.560895591974258423e-02
1.974000000000000000e+03 9.053948402404785156e+00 7.397005558013916016e+00 3.780370112508535385e-03 3.486109199002385139e-04 1.238694298081099987e-03 9.626801474951207638e-04
1.975000000000000000e+03 6.864575958251953125e+01 1.213737201690673828e+01 5.842733662575483322e-03 7.703544616699218750e+00 2.312816143035888672e+00 -6.280685216188430786e-02
1.976000000000000000e+03 6.979389953613281250e+01 9.400825500488281250e+00 3.289962885901331902e-03 7.706728458404541016e+00 2.313005447387695312e+00 -6.134193763136863708e-02
1.977000000000000000e+03 8.164981842041015625e+00 1.309209346771240234e+01 -1.210397691465914249e-03 7.323668105527758598e-04 -1.434092700947076082e-04 5.736760213039815426e-04
1.978000000000000000e+03 6.229078292846679688e+00 7.966410636901855469e+00 -1.365827745757997036e-03 5.413951585069298744e-04 -2.473297936376184225e-04 3.658911737147718668e-04
1.979000000000000000e+03 3.115394592285156250e+01 -3.137779951095581055e+00 1.681988686323165894e-02 7.742554664611816406e+00 2.327812433242797852e+00 7.249324768781661987e-02
1.980000000000000000e+03 6.965928649902343750e+01 -1.457962226867675781e+01 -4.850945901125669479e-03 7.803866863250732422e+00 2.339704751968383789e+00 -6.488571316003799438e-02
1.981000000000000000e+03 3.188409042358398438e+01 2.368694686889648438e+01 -9.679260104894638062e-02 8.048242568969726562e+00 2.385435104370117188e+00 7.920118421316146851e-02
1.982000000000000000e+03 3.321417617797851562e+01 1.414881896972656250e+01 1.989100873470306396e-02 7.910966873168945312e+00 2.379257440567016602e+00 1.048552393913269043e-01
1.983000000000000000e+03 3.093755722045898438e+01 1.622732353210449219e+01 -8.202666416764259338e-03 7.944949626922607422e+00 2.381024122238159180e+00 1.311779022216796875e-01
1.984000000000000000e+03 3.121762657165527344e+01 2.494463348388671875e+01 -1.184686943888664246e-01 8.080118179321289062e+00 2.388494968414306641e+00 7.901383936405181885e-02
1.985000000000000000e+03 8.792509078979492188e+00 -1.050876140594482422e+01 9.060951560968533158e-05 -2.988712221849709749e-04 -6.247851706575602293e-05 -2.557640895247459412e-03
1.986000000000000000e+03 3.202416610717773438e+01 9.248407363891601562e+00 7.817389816045761108e-02 7.863417148590087891e+00 2.382477283477783203e+00 1.048552915453910828e-01
1.987000000000000000e+03 3.215267181396484375e+01 1.071310138702392578e+01 6.259298324584960938e-02 7.880114555358886719e+00 2.382812261581420898e+00 1.107125282287597656e-01
1.988000000000000000e+03 3.138611602783203125e+01 1.262381267547607422e+01 4.250682517886161804e-02 7.908097743988037109e+00 2.385181427001953125e+00 1.253395229578018188e-01
1.989000000000000000e+03 3.225574493408203125e+01 1.366967105865478516e+01 2.502877824008464813e-02 7.914139747619628906e+00 2.381750583648681641e+00 1.169964820146560669e-01
1.990000000000000000e+03 2.956739807128906250e+01 2.480226898193359375e+01 -1.473504602909088135e-01 8.066026687622070312e+00 2.375602960586547852e+00 1.264531463384628296e-01
1.991000000000000000e+03 3.001058197021484375e+01 1.750085258483886719e+01 -2.199749834835529327e-02 7.950973033905029297e+00 2.378692626953125000e+00 1.375885307788848877e-01
1.992000000000000000e+03 6.850755310058593750e+01 -2.430198860168457031e+01 -1.249671541154384613e-02 7.828550815582275391e+00 2.344816207885742188e+00 -5.459091812372207642e-02
1.993000000000000000e+03 6.723488616943359375e+01 -2.561309623718261719e+01 -1.935285516083240509e-02 7.820859909057617188e+00 2.340452194213867188e+00 -5.465566366910934448e-02
1.994000000000000000e+03 9.013126373291015625e+00 -1.670337867736816406e+01 -4.746837541460990906e-03 -2.742793178185820580e-03 -2.246889285743236542e-03 9.635257883928716183e-04
1.995000000000000000e+03 6.815398406982421875e+01 1.876504898071289062e+01 8.659324608743190765e-03 7.687813758850097656e+00 2.308941841125488281e+00 -5.686299875378608704e-02
1.996000000000000000e+03 6.834769439697265625e+01 1.637271499633789062e+01 6.952255964279174805e-03 7.692173004150390625e+00 2.309737682342529297e+00 -5.984552949666976929e-02
1.997000000000000000e+03 7.704634666442871094e+00 2.104124641418457031e+01 5.408284720033407211e-03 -1.662319758906960487e-03 1.123789465054869652e-03 -5.092778592370450497e-04
1.998000000000000000e+03 8.353653907775878906e+00 -2.763667297363281250e+01 -7.357349619269371033e-03 1.291768997907638550e-02 1.668102224357426167e-03 -1.898431335575878620e-03
1.999000000000000000e+03 3.040520477294921875e+01 2.419614982604980469e+01 -1.220150589942932129e-01 8.057763099670410156e+00 2.380724430084228516e+00 1.068852245807647705e-01
2.000000000000000000e+03 3.231039428710937500e+01 1.885552787780761719e+01 -3.871740400791168213e-02 7.970485210418701172e+00 2.379530191421508789e+00 1.137882024049758911e-01
2.001000000000000000e+03 3.221279525756835938e+01 2.224867057800292969e+01 -8.005052804946899414e-02 8.023406028747558594e+00 2.383006572723388672e+00 9.492249786853790283e-02
2.002000000000000000e+03 3.088948059082031250e+01 2.210132598876953125e+01 -9.135947376489639282e-02 8.016469001770019531e+00 2.377532958984375000e+00 1.159932017326354980e-01
2.003000000000000000e+03 7.020339202880859375e+01 5.394989490509033203e+00 3.857509698718786240e-03 7.721122264862060547e+00 2.317493915557861328e+00 -6.244855746626853943e-02
2.004000000000000000e+03 2.864734840393066406e+01 -8.003200531005859375e+00 -2.336663659662008286e-03 7.648219108581542969e+00 2.293764829635620117e+00 1.497518420219421387e-01
2.005000000000000000e+03 2.994672012329101562e+01 -6.361152648925781250e+00 -3.782390151172876358e-03 7.685585975646972656e+00 2.304541110992431641e+00 1.134088784456253052e-01
2.006000000000000000e+03 2.829143714904785156e+01 -4.096393108367919922e+00 -1.261057425290346146e-02 7.745069026947021484e+00 2.319737672805786133e+00 1.301084160804748535e-01
2.007000000000000000e+03 3.163113594055175781e+01 4.685279369354248047e+00 9.500380605459213257e-02 7.816589832305908203e+00 2.373478174209594727e+00 7.651763409376144409e-02
2.008000000000000000e+03 6.924169158935546875e+01 -1.912325286865234375e+01 -8.121733553707599640e-03 7.818248748779296875e+00 2.343038082122802734e+00 -6.161284819245338440e-02
2.009000000000000000e+03 3.001065635681152344e+01 1.958966374397277832e+00 8.082225918769836426e-02 7.812630176544189453e+00 2.368035554885864258e+00 7.821074128150939941e-02
2.010000000000000000e+03 3.009157562255859375e+01 2.867487525939941406e+01 -1.174631044268608093e-01 8.183588981628417969e+00 2.419837713241577148e+00 -2.369947731494903564e-03
2.011000000000000000e+03 3.098952484130859375e+01 -1.552287769317626953e+01 -1.474805735051631927e-02 7.533532142639160156e+00 2.255635261535644531e+00 7.680176198482513428e-02
2.012000000000000000e+03 2.979268455505371094e+01 -1.695196533203125000e+01 -2.782655321061611176e-02 7.500267505645751953e+00 2.241732358932495117e+00 8.298026770353317261e-02
2.013000000000000000e+03 3.058365631103515625e+01 -2.277398109436035156e+01 -5.585966259241104126e-02 7.431194782257080078e+00 2.212600469589233398e+00 9.863850474357604980e-02
2.014000000000000000e+03 6.939156341552734375e+01 2.257319259643554688e+01 8.446246385574340820e-03 7.665071964263916016e+00 2.302055597305297852e+00 -4.776150733232498169e-02
2.015000000000000000e+03 3.317624664306640625e+01 5.961243629455566406e+00 8.619245886802673340e-02 7.817018032073974609e+00 2.370963096618652344e+00 7.102674990892410278e-02
2.016000000000000000e+03 9.234481811523437500e+00 -2.908731079101562500e+01 9.268763242289423943e-04 6.998477037996053696e-03 2.377605997025966644e-03 4.718559794127941132e-03
2.017000000000000000e+03 6.928952026367187500e+01 2.754680442810058594e+01 1.249351259320974350e-02 7.654067039489746094e+00 2.299968242645263672e+00 -3.765919432044029236e-02
2.018000000000000000e+03 7.053279876708984375e+01 2.778468132019042969e+00 2.962799975648522377e-03 7.730976581573486328e+00 2.320181846618652344e+00 -6.265397369861602783e-02
2.019000000000000000e+03 2.798871231079101562e+01 -3.009094429016113281e+01 6.052689626812934875e-02 7.219484329223632812e+00 2.184003353118896484e+00 9.201958775520324707e-02
2.020000000000000000e+03 3.249290847778320312e+01 -3.336370849609375000e+01 -7.081792503595352173e-02 7.307735919952392578e+00 2.171075344085693359e+00 -4.397564008831977844e-02
2.021000000000000000e+03 8.543257713317871094e+00 9.861289024353027344e+00 4.915804136544466019e-03 -2.257452870253473520e-04 1.407017582096159458e-03 8.086144225671887398e-04
2.022000000000000000e+03 6.829968261718750000e+01 1.920545220375061035e+00 4.090369679033756256e-03 7.737079620361328125e+00 2.322350978851318359e+00 -7.182234525680541992e-02
2.023000000000000000e+03 6.952042388916015625e+01 2.395756721496582031e+00 2.367793116718530655e-03 7.734475135803222656e+00 2.321052789688110352e+00 -6.727903336286544800e-02
2.024000000000000000e+03 3.293683242797851562e+01 1.543016338348388672e+01 5.804321728646755219e-03 7.927012443542480469e+00 2.379845142364501953e+00 1.110580191016197205e-01
2.025000000000000000e+03 5.928566455841064453e+00 -3.126236152648925781e+01 -6.460299249738454819e-03 -7.182743400335311890e-03 -4.092912655323743820e-03 -9.483315050601959229e-03
2.026000000000000000e+03 3.313247680664062500e+01 2.426019096374511719e+01 -8.190718293190002441e-02 8.056258201599121094e+00 2.392305135726928711e+00 5.450855568051338196e-02
2.027000000000000000e+03 6.699444580078125000e+01 3.273825645446777344e+00 5.281796678900718689e-03 7.733821868896484375e+00 2.321731090545654297e+00 -7.536942511796951294e-02
2.028000000000000000e+03 6.881047821044921875e+01 8.655718803405761719e+00 5.692532751709222794e-03 7.713845252990722656e+00 2.315861225128173828e+00 -6.527570635080337524e-02
2.029000000000000000e+03 3.435575485229492188e+01 1.009360408782958984e+01 6.074891984462738037e-02 7.853409767150878906e+00 2.374247550964355469e+00 8.074291795492172241e-02
2.030000000000000000e+03 3.192738342285156250e+01 7.704629898071289062e+00 9.061381965875625610e-02 7.845707893371582031e+00 2.380896568298339844e+00 9.639884531497955322e-02
2.031000000000000000e+03 5.662318706512451172e+00 -2.060237312316894531e+01 -9.647337719798088074e-03 2.594569232314825058e-04 -2.816364169120788574e-03 -5.873510963283479214e-05
2.032000000000000000e+03 6.835754871368408203e+00 -2.071526908874511719e+01 8.214099332690238953e-03 -5.905881407670676708e-04 2.287053270265460014e-03 1.424242800567299128e-04
2.033000000000000000e+03 3.308818054199218750e+01 1.309890651702880859e+01 3.571379184722900391e-02 7.899261951446533203e+00 2.380492687225341797e+00 1.084632948040962219e-01
2.034000000000000000e+03 2.893576622009277344e+01 -1.237507057189941406e+01 1.445102877914905548e-02 7.556198596954345703e+00 2.271194934844970703e+00 1.203678771853446960e-01
2.035000000000000000e+03 3.408088302612304688e+01 8.375434875488281250e+00 7.364318519830703735e-02 7.837304115295410156e+00 2.373284101486206055e+00 7.723771780729293823e-02
2.036000000000000000e+03 7.074876403808593750e+01 -1.305282115936279297e+01 -4.111560992896556854e-03 7.804223537445068359e+00 2.340033531188964844e+00 -6.175983697175979614e-02
2.037000000000000000e+03 6.739340972900390625e+01 -1.241752529144287109e+01 -5.719740409404039383e-03 7.784081935882568359e+00 2.333508729934692383e+00 -7.536445558071136475e-02
2.038000000000000000e+03 3.331387710571289062e+01 7.364649295806884766e+00 8.262471854686737061e-02 7.832132339477539062e+00 2.374427080154418945e+00 8.074161410331726074e-02
2.039000000000000000e+03 7.035848236083984375e+01 -8.301744461059570312e+00 -1.117673586122691631e-03 7.781037330627441406e+00 2.333976030349731445e+00 -6.520590186119079590e-02
2.040000000000000000e+03 6.609466552734375000e+01 -8.585721969604492188e+00 -2.515987027436494827e-03 7.767638206481933594e+00 2.329536676406860352e+00 -7.977876067161560059e-02
2.041000000000000000e+03 3.015756988525390625e+01 -8.053046464920043945e-01 3.765266016125679016e-02 7.786266326904296875e+00 2.347175836563110352e+00 7.756610214710235596e-02
2.042000000000000000e+03 3.143059730529785156e+01 6.331847310066223145e-01 5.783138424158096313e-02 7.784688949584960938e+00 2.352756023406982422e+00 6.093326210975646973e-02
2.043000000000000000e+03 3.146232604980468750e+01 -6.092576980590820312e+00 3.605119418352842331e-03 7.698582172393798828e+00 2.310656070709228516e+00 8.133564144372940063e-02
2.044000000000000000e+03 2.968955039978027344e+01 -3.703484773635864258e+00 8.882865658961236477e-04 7.738944053649902344e+00 2.321949720382690430e+00 1.006209552288055420e-01
2.045000000000000000e+03 6.693439483642578125e+01 1.135539531707763672e+01 8.883194997906684875e-03 7.713507175445556641e+00 2.316717147827148438e+00 -6.782437115907669067e-02
2.046000000000000000e+03 3.149433517456054688e+01 3.227428674697875977e+00 8.705496788024902344e-02 7.807488918304443359e+00 2.368363142013549805e+00 7.144759595394134521e-02
2.047000000000000000e+03 6.742947387695312500e+01 -2.278358459472656250e+01 -1.548140682280063629e-02 7.815025806427001953e+00 2.339863300323486328e+00 -6.080058217048645020e-02
2.048000000000000000e+03 3.130086898803710938e+01 1.874552011489868164e+00 7.369895279407501221e-02 7.795986175537109375e+00 2.360905647277832031e+00 6.233188509941101074e-02
2.049000000000000000e+03 3.290357208251953125e+01 2.933975458145141602e+00 7.648196816444396973e-02 7.788627147674560547e+00 2.359532833099365234e+00 5.323771387338638306e-02
2.050000000000000000e+03 3.311669540405273438e+01 -1.335253906250000000e+01 -5.086357705295085907e-03 7.580650806427001953e+00 2.272669315338134766e+00 5.265788361430168152e-02
2.051000000000000000e+03 3.100800132751464844e+01 -1.965237998962402344e+01 -4.220779240131378174e-02 7.479996204376220703e+00 2.231336355209350586e+00 7.690577208995819092e-02
2.052000000000000000e+03 6.742017364501953125e+01 2.067885780334472656e+01 1.257919613271951675e-02 7.689155578613281250e+00 2.310520410537719727e+00 -5.733503401279449463e-02
2.053000000000000000e+03 2.807908058166503906e+01 -2.617368316650390625e+01 -3.819246077910065651e-03 7.316349983215332031e+00 2.193759202957153320e+00 1.413647234439849854e-01
2.054000000000000000e+03 2.816403961181640625e+01 -2.421695327758789062e+01 -5.364580452442169189e-02 7.370790004730224609e+00 2.195143222808837891e+00 1.466389000415802002e-01
2.055000000000000000e+03 7.004614257812500000e+01 2.439126396179199219e+01 9.455640800297260284e-03 7.655796527862548828e+00 2.299575567245483398e+00 -4.272849485278129578e-02
2.056000000000000000e+03 7.749098300933837891e+00 1.696021461486816406e+01 -2.948107976408209652e-05 2.245519543066620827e-03 6.648115231655538082e-04 2.619241364300251007e-03
2.057000000000000000e+03 8.462275505065917969e+00 1.736392211914062500e+01 -6.647045724093914032e-03 -6.681520026177167892e-04 -2.194559434428811073e-03 -3.015563357621431351e-03
2.058000000000000000e+03 3.555438995361328125e+01 1.263465023040771484e+01 3.719777241349220276e-02 7.876982212066650391e+00 2.374253988265991211e+00 7.826335728168487549e-02
2.059000000000000000e+03 3.438105392456054688e+01 1.570427799224853516e+01 6.264279363676905632e-04 7.923914909362792969e+00 2.377362251281738281e+00 9.085205197334289551e-02
2.060000000000000000e+03 3.130780601501464844e+01 -1.032410907745361328e+01 1.892915344797074795e-03 7.616010665893554688e+00 2.285371065139770508e+00 8.927912265062332153e-02
2.061000000000000000e+03 3.034853172302246094e+01 -1.138888168334960938e+01 8.421479724347591400e-03 7.584640502929687500e+00 2.277918577194213867e+00 1.047923043370246887e-01
2.062000000000000000e+03 3.503368759155273438e+01 1.125025081634521484e+01 4.804827645421028137e-02 7.864296913146972656e+00 2.373703479766845703e+00 7.914522290229797363e-02
2.063000000000000000e+03 3.368528747558593750e+01 2.678001403808593750e+01 -6.366673111915588379e-02 8.089321136474609375e+00 2.407696247100830078e+00 3.116558771580457687e-03
2.064000000000000000e+03 3.592329788208007812e+01 1.934442520141601562e+01 -2.525395900011062622e-02 7.961122989654541016e+00 2.380760669708251953e+00 6.213562935590744019e-02
2.065000000000000000e+03 3.423844909667968750e+01 1.734920120239257812e+01 -1.589056663215160370e-02 7.945902824401855469e+00 2.379003763198852539e+00 9.192258119583129883e-02
2.066000000000000000e+03 3.150433349609375000e+01 -7.518681049346923828e+00 -3.949856181861832738e-05 7.666780948638916016e+00 2.300022363662719727e+00 8.499002456665039062e-02
2.067000000000000000e+03 3.301401901245117188e+01 -5.879779815673828125e+00 6.432490423321723938e-03 7.692693233489990234e+00 2.309737682342529297e+00 5.919989570975303650e-02
2.068000000000000000e+03 3.284341430664062500e+01 -4.309543132781982422e+00 1.553673390299081802e-02 7.721091747283935547e+00 2.320988416671752930e+00 5.511263012886047363e-02
2.069000000000000000e+03 3.259753417968750000e+01 -2.743269205093383789e+00 2.364559657871723175e-02 7.738089084625244141e+00 2.328520536422729492e+00 5.478143692016601562e-02
2.070000000000000000e+03 6.678117370605468750e+01 1.002018153667449951e-01 4.027548711746931076e-03 7.743209838867187500e+00 2.324171304702758789e+00 -7.784049212932586670e-02
2.071000000000000000e+03 7.004789733886718750e+01 3.143199384212493896e-01 2.286728005856275558e-03 7.742037773132324219e+00 2.323297262191772461e+00 -6.613577902317047119e-02
2.072000000000000000e+03 6.888063049316406250e+01 -7.033115863800048828e+00 -7.241829880513250828e-04 7.769860744476318359e+00 2.330740928649902344e+00 -7.264386117458343506e-02
2.073000000000000000e+03 6.846976470947265625e+01 3.024629950523376465e-01 2.499198308214545250e-03 7.742485523223876953e+00 2.323495388031005859e+00 -7.163336127996444702e-02
2.074000000000000000e+03 6.889450836181640625e+01 -4.193878173828125000e+00 8.724755607545375824e-04 7.759139060974121094e+00 2.328003406524658203e+00 -7.254473119974136353e-02
2.075000000000000000e+03 6.790230560302734375e+01 7.520194530487060547e+00 4.872799385339021683e-03 7.719828605651855469e+00 2.317410469055175781e+00 -6.956622749567031860e-02
2.076000000000000000e+03 6.870857238769531250e+01 6.484412670135498047e+00 4.997664131224155426e-03 7.720444202423095703e+00 2.317632436752319336e+00 -6.682676821947097778e-02
2.077000000000000000e+03 2.894192504882812500e+01 -9.233697891235351562e+00 7.124368567019701004e-03 7.625120639801025391e+00 2.289673566818237305e+00 1.412328183650970459e-01
2.078000000000000000e+03 5.346813678741455078e+00 -3.241050720214843750e+01 -9.494003839790821075e-03 1.612822897732257843e-02 1.990267541259527206e-03 -2.919101621955633163e-03
2.079000000000000000e+03 6.792845153808593750e+01 -2.014871597290039062e+01 -1.161564327776432037e-02 7.811321735382080078e+00 2.339911699295043945e+00 -6.424090266227722168e-02
2.080000000000000000e+03 6.788127899169921875e+01 9.809782028198242188e+00 4.889715928584337234e-03 7.713834762573242188e+00 2.315617322921752930e+00 -6.752897799015045166e-02
2.081000000000000000e+03 6.518105316162109375e+01 -1.076737308502197266e+01 -5.478141829371452332e-03 7.768063068389892578e+00 2.328775405883789062e+00 -8.284797519445419312e-02
2.082000000000000000e+03 3.149166297912597656e+01 -7.669153809547424316e-01 4.217083379626274109e-02 7.767383575439453125e+00 2.342866420745849609e+00 5.820129066705703735e-02
2.083000000000000000e+03 3.245687103271484375e+01 1.417390704154968262e+00 6.602424383163452148e-02 7.781561851501464844e+00 2.354275941848754883e+00 5.487350746989250183e-02
2.084000000000000000e+03 4.474884986877441406e+00 -3.755588150024414062e+01 1.976983621716499329e-03 -9.157643653452396393e-03 -2.154198009520769119e-03 -4.317565262317657471e-02
2.085000000000000000e+03 6.643921661376953125e+01 -2.116603279113769531e+01 -1.418874785304069519e-02 7.803902149200439453e+00 2.336914062500000000e+00 -6.662273406982421875e-02
2.086000000000000000e+03 6.570166015625000000e+01 1.973498344421386719e+01 1.225860416889190674e-02 7.703061103820800781e+00 2.314595937728881836e+00 -6.103540584444999695e-02
2.087000000000000000e+03 6.694922637939453125e+01 1.779472732543945312e+01 1.160944718867540359e-02 7.697549819946289062e+00 2.312747716903686523e+00 -6.079063564538955688e-02
2.088000000000000000e+03 3.215935134887695312e+01 -1.635101699829101562e+01 -2.079402469098567963e-02 7.537479877471923828e+00 2.255005836486816406e+00 5.319514498114585876e-02
2.089000000000000000e+03 3.321157455444335938e+01 -1.497373962402343750e+01 -2.305462956428527832e-02 7.566660404205322266e+00 2.263081789016723633e+00 4.735316708683967590e-02
2.090000000000000000e+03 3.564373779296875000e+01 2.123197364807128906e+01 -4.142117500305175781e-02 7.987723350524902344e+00 2.383890628814697266e+00 4.607642814517021179e-02
2.091000000000000000e+03 3.690596008300781250e+01 2.371480560302734375e+01 -3.366995602846145630e-02 8.007260322570800781e+00 2.392077207565307617e+00 5.076923407614231110e-03
2.092000000000000000e+03 3.319802856445312500e+01 -2.239790153503417969e+01 -5.225025862455368042e-02 7.464732170104980469e+00 2.223744630813598633e+00 5.497179180383682251e-02
2.093000000000000000e+03 3.599798202514648438e+01 1.750634002685546875e+01 -1.490397285670042038e-02 7.939428329467773438e+00 2.377357244491577148e+00 6.444675475358963013e-02
2.094000000000000000e+03 3.082063674926757812e+01 -1.354005622863769531e+01 -3.676912048831582069e-03 7.553977489471435547e+00 2.265090227127075195e+00 8.704991638660430908e-02
2.095000000000000000e+03 3.125088691711425781e+01 -8.734961509704589844e+00 3.602551762014627457e-03 7.648984909057617188e+00 2.295776367187500000e+00 8.673924952745437622e-02
2.096000000000000000e+03 6.789158630371093750e+01 4.787242412567138672e+00 5.807532463222742081e-03 7.728205680847167969e+00 2.320204019546508789e+00 -7.203669100999832153e-02
2.097000000000000000e+03 6.810689544677734375e+01 3.404840469360351562e+00 3.718395950272679329e-03 7.732409000396728516e+00 2.320838212966918945e+00 -7.160136103630065918e-02
2.098000000000000000e+03 2.949229240417480469e+01 -1.035129547119140625e+01 7.984691299498081207e-03 7.601755619049072266e+00 2.282922029495239258e+00 1.254109293222427368e-01
2.099000000000000000e+03 6.876395416259765625e+01 -2.789166450500488281e+00 1.415829989127814770e-03 7.753902912139892578e+00 2.326595544815063477e+00 -7.163462042808532715e-02
2.100000000000000000e+03 6.769108581542968750e+01 -4.350534439086914062e+00 1.022648881189525127e-03 7.757493972778320312e+00 2.327554941177368164e+00 -7.539381086826324463e-02
2.101000000000000000e+03 6.760746765136718750e+01 -5.564772129058837891e+00 -4.655402735807001591e-04 7.761375904083251953e+00 2.328273057937622070e+00 -7.735306024551391602e-02
2.102000000000000000e+03 6.746448516845703125e+01 -7.031219959259033203e+00 -7.303595193661749363e-04 7.765876770019531250e+00 2.329543828964233398e+00 -7.647695392370223999e-02
2.103000000000000000e+03 6.414669799804687500e+01 -1.063027381896972656e+01 -5.778689403086900711e-03 7.763341426849365234e+00 2.327268838882446289e+00 -8.587128669023513794e-02
2.104000000000000000e+03 6.675219726562500000e+01 1.820912003517150879e+00 4.256481304764747620e-03 7.739122390747070312e+00 2.323013782501220703e+00 -7.645746320486068726e-02
2.105000000000000000e+03 3.526314544677734375e+01 9.351410865783691406e+00 6.092248111963272095e-02 7.841147422790527344e+00 2.370620965957641602e+00 6.963630020618438721e-02
2.106000000000000000e+03 3.630508804321289062e+01 8.682844161987304688e+00 6.144219264388084412e-02 7.828148365020751953e+00 2.366877079010009766e+00 5.516709759831428528e-02
2.107000000000000000e+03 6.900813293457031250e+01 5.095720767974853516e+00 3.694020677357912064e-03 7.724480628967285156e+00 2.318452358245849609e+00 -6.728298962116241455e-02
2.108000000000000000e+03 6.685780334472656250e+01 4.452920913696289062e+00 4.721231292933225632e-03 7.731029510498046875e+00 2.320725202560424805e+00 -7.402174174785614014e-02
2.109000000000000000e+03 6.882085418701171875e+01 -1.133457756042480469e+01 -4.032935015857219696e-03 7.785686016082763672e+00 2.334495782852172852e+00 -7.142575085163116455e-02
2.110000000000000000e+03 6.959355163574218750e+01 -1.010985660552978516e+01 -1.860194490291178226e-03 7.785717487335205078e+00 2.335157155990600586e+00 -6.842830777168273926e-02
2.111000000000000000e+03 3.195341300964355469e+01 -1.431096935272216797e+01 -1.082593761384487152e-02 7.563348770141601562e+00 2.265756845474243164e+00 6.678286939859390259e-02
2.112000000000000000e+03 3.815184783935546875e+01 4.895220756530761719e+00 5.765260010957717896e-02 7.782788276672363281e+00 2.352132320404052734e+00 1.944052614271640778e-02
2.113000000000000000e+03 3.588808822631835938e+01 -1.691681289672851562e+01 -2.807998098433017731e-02 7.568917751312255859e+00 2.262251377105712891e+00 1.522395201027393341e-02
2.114000000000000000e+03 3.294883346557617188e+01 -1.140124678611755371e+00 4.098070412874221802e-02 7.756065368652343750e+00 2.339113950729370117e+00 4.772776737809181213e-02
2.115000000000000000e+03 3.232715988159179688e+01 2.065146827697753906e+01 -6.378117203712463379e-02 7.997126102447509766e+00 2.380003452301025391e+00 1.003376320004463196e-01
2.116000000000000000e+03 6.833148956298828125e+01 -1.765075683593750000e+01 -9.231775999069213867e-03 7.806653022766113281e+00 2.339226484298706055e+00 -6.669667363166809082e-02
2.117000000000000000e+03 6.633749389648437500e+01 5.757185935974121094e+00 7.076215930283069611e-03 7.728932380676269531e+00 2.320802688598632812e+00 -7.467129826545715332e-02
2.118000000000000000e+03 6.076139450073242188e+01 -2.430076599121093750e+01 -3.223146870732307434e-02 7.763998508453369141e+00 2.319530010223388672e+00 -7.020797580480575562e-02
2.119000000000000000e+03 6.813799285888671875e+01 2.548633575439453125e+01 1.334537006914615631e-02 7.669244766235351562e+00 2.304777145385742188e+00 -4.607211425900459290e-02
2.120000000000000000e+03 6.541900634765625000e+01 9.859148025512695312e+00 8.052472025156021118e-03 7.723001956939697266e+00 2.319316387176513672e+00 -7.395203411579132080e-02
2.121000000000000000e+03 6.593653106689453125e+01 -2.709536552429199219e+01 -2.095779590308666229e-02 7.814025878906250000e+00 2.337920427322387695e+00 -5.473146960139274597e-02
2.122000000000000000e+03 3.459345626831054688e+01 7.276706695556640625e+00 7.494100183248519897e-02 7.819637298583984375e+00 2.368373394012451172e+00 6.384984403848648071e-02
2.123000000000000000e+03 3.393566894531250000e+01 2.087626647949218750e+01 -5.163420364260673523e-02 7.995782852172851562e+00 2.383244514465332031e+00 7.942900806665420532e-02
2.124000000000000000e+03 2.976609611511230469e+01 -2.633845138549804688e+01 -3.238880261778831482e-02 7.357356548309326172e+00 2.197490215301513672e+00 1.081196293234825134e-01
2.125000000000000000e+03 3.245321655273437500e+01 -2.604207801818847656e+01 -3.323909640312194824e-02 7.403459548950195312e+00 2.211066007614135742e+00 5.443755164742469788e-02
2.126000000000000000e+03 3.579261016845703125e+01 1.414118194580078125e+01 1.986560039222240448e-02 7.893678665161132812e+00 2.374063253402709961e+00 7.550472766160964966e-02
2.127000000000000000e+03 3.414572906494140625e+01 -1.048157596588134766e+01 1.450143405236303806e-03 7.627852916717529297e+00 2.288790941238403320e+00 4.589406773447990417e-02
2.128000000000000000e+03 3.247903823852539062e+01 -1.079703998565673828e+01 -5.182405002415180206e-03 7.616575717926025391e+00 2.283417940139770508e+00 6.895793229341506958e-02
2.129000000000000000e+03 6.119649887084960938e+01 5.344429016113281250e+00 9.321921505033969879e-03 7.741074085235595703e+00 2.325118780136108398e+00 -8.224551379680633545e-02
2.130000000000000000e+03 6.657744598388671875e+01 -1.486384868621826172e+01 -1.022677682340145111e-02 7.786885738372802734e+00 2.332997798919677734e+00 -7.577378302812576294e-02
2.131000000000000000e+03 6.629331970214843750e+01 -1.713689041137695312e+01 -1.205064449459314346e-02 7.791687011718750000e+00 2.333890914916992188e+00 -7.394012063741683960e-02
2.132000000000000000e+03 6.568144989013671875e+01 -2.075146436691284180e+00 3.276028670370578766e-03 7.748749256134033203e+00 2.325607538223266602e+00 -8.124143630266189575e-02
2.133000000000000000e+03 6.756004333496093750e+01 6.204440593719482422e+00 5.383838899433612823e-03 7.724491119384765625e+00 2.318962574005126953e+00 -7.104070484638214111e-02
2.134000000000000000e+03 6.711789703369140625e+01 -1.579319834709167480e+00 2.089922316372394562e-03 7.748656749725341797e+00 2.325223922729492188e+00 -7.710925489664077759e-02
2.135000000000000000e+03 7.011651611328125000e+01 -2.653715848922729492e+00 1.374657498672604561e-03 7.754728794097900391e+00 2.326830863952636719e+00 -6.705449521541595459e-02
2.136000000000000000e+03 6.859458923339843750e+01 -1.303932309150695801e+00 2.477431902661919594e-03 7.748350620269775391e+00 2.325248479843139648e+00 -7.239547371864318848e-02
2.137000000000000000e+03 6.387482833862304688e+01 1.118675518035888672e+01 1.168915163725614548e-02 7.728641033172607422e+00 2.322098970413208008e+00 -7.361823320388793945e-02
2.138000000000000000e+03 6.345455551147460938e+01 6.851428508758544922e+00 8.794581517577171326e-03 7.734597206115722656e+00 2.323017597198486328e+00 -7.935101538896560669e-02
2.139000000000000000e+03 3.346964645385742188e+01 -8.800972938537597656e+00 -4.709187778644263744e-04 7.655995368957519531e+00 2.296657323837280273e+00 5.277531594038009644e-02
2.140000000000000000e+03 3.441108322143554688e+01 2.593662738800048828e+00 6.789730489253997803e-02 7.782391548156738281e+00 2.355086565017700195e+00 4.204118624329566956e-02
2.141000000000000000e+03 3.382480239868164062e+01 6.882987022399902344e-01 5.457354336977005005e-02 7.767030239105224609e+00 2.346481084823608398e+00 3.771119192242622375e-02
2.142000000000000000e+03 7.163430786132812500e+01 -1.596966171264648438e+01 -3.904790850356221199e-03 7.822879314422607422e+00 2.345692396163940430e+00 -5.550634860992431641e-02
2.143000000000000000e+03 6.821763610839843750e+01 -1.391817665100097656e+01 -6.605572067201137543e-03 7.792607307434082031e+00 2.335800409317016602e+00 -7.216892391443252563e-02
2.144000000000000000e+03 3.463348388671875000e+01 5.871711730957031250e+00 7.560130208730697632e-02 7.807964324951171875e+00 2.365069627761840820e+00 5.644883215427398682e-02
2.145000000000000000e+03 3.301919174194335938e+01 -7.411296844482421875e+00 4.847980104386806488e-03 7.678446769714355469e+00 2.304988384246826172e+00 6.140022724866867065e-02
2.146000000000000000e+03 3.463208007812500000e+01 -5.715508937835693359e+00 1.373684592545032501e-02 7.697023391723632812e+00 2.313228130340576172e+00 3.372189402580261230e-02
2.147000000000000000e+03 3.422916412353515625e+01 1.286523246765136719e+01 3.539384528994560242e-02 7.888566017150878906e+00 2.377187967300415039e+00 9.342662245035171509e-02
2.148000000000000000e+03 3.589574050903320312e+01 7.432201862335205078e+00 6.688201427459716797e-02 7.818449020385742188e+00 2.365599393844604492e+00 5.413474887609481812e-02
2.149000000000000000e+03 3.589840698242187500e+01 1.575458812713623047e+01 5.623289383947849274e-03 7.913980007171630859e+00 2.375880956649780273e+00 7.278995215892791748e-02
2.150000000000000000e+03 3.792017745971679688e+01 1.958263778686523438e+01 -1.770641654729843140e-02 7.944828510284423828e+00 2.378136634826660156e+00 2.932758815586566925e-02
2.151000000000000000e+03 6.863256072998046875e+01 -1.531200313568115234e+01 -7.485034875571727753e-03 7.799275875091552734e+00 2.337537288665771484e+00 -6.883293390274047852e-02
2.152000000000000000e+03 6.498997497558593750e+01 -1.794911193847656250e+01 -1.345659233629703522e-02 7.784943103790283203e+00 2.331445932388305664e+00 -7.558435946702957153e-02
2.153000000000000000e+03 3.332815170288085938e+01 -2.089438056945800781e+01 -4.007610306143760681e-02 7.492908954620361328e+00 2.235849857330322266e+00 4.439641535282135010e-02
2.154000000000000000e+03 3.303171920776367188e+01 -1.929811859130859375e+01 -4.223201796412467957e-02 7.511032104492187500e+00 2.240640163421630859e+00 4.799456149339675903e-02
2.155000000000000000e+03 3.409732818603515625e+01 1.909407234191894531e+01 -3.548335656523704529e-02 7.968786716461181641e+00 2.379991054534912109e+00 8.259248733520507812e-02
2.156000000000000000e+03 6.515202331542968750e+01 -4.280469715595245361e-01 3.371879225596785545e-03 7.744423389434814453e+00 2.324338436126708984e+00 -8.197112381458282471e-02
2.157000000000000000e+03 6.520393371582031250e+01 4.729829788208007812e+00 6.346677895635366440e-03 7.733657360076904297e+00 2.322001218795776367e+00 -7.821070402860641479e-02
2.158000000000000000e+03 7.004728698730468750e+01 -1.196068525314331055e+00 1.680880086496472359e-03 7.748583793640136719e+00 2.325079441070556641e+00 -6.624384224414825439e-02
2.159000000000000000e+03 3.636219787597656250e+01 4.317609786987304688e+00 6.394434720277786255e-02 7.787284851074218750e+00 2.355368852615356445e+00 3.238753229379653931e-02
2.160000000000000000e+03 3.615642929077148438e+01 2.348434448242187500e+00 5.983281508088111877e-02 7.769580364227294922e+00 2.348824024200439453e+00 2.417107485234737396e-02
2.161000000000000000e+03 6.529721069335937500e+01 2.410211324691772461e+00 5.187315400689840317e-03 7.738253116607666016e+00 2.323032140731811523e+00 -8.017715811729431152e-02
2.162000000000000000e+03 6.538545227050781250e+01 -5.728458881378173828e+00 -2.102189173456281424e-04 7.756766796112060547e+00 2.326967000961303711e+00 -8.231585472822189331e-02
2.163000000000000000e+03 6.378569412231445312e+01 -6.689334392547607422e+00 5.278895696392282844e-05 7.755075454711914062e+00 2.326538324356079102e+00 -8.670752495527267456e-02
2.164000000000000000e+03 6.485977935791015625e+01 -7.918641567230224609e+00 -3.290767082944512367e-03 7.759545326232910156e+00 2.326876401901245117e+00 -8.493523299694061279e-02
2.165000000000000000e+03 3.742633438110351562e+01 9.997608184814453125e+00 4.988444596529006958e-02 7.836507320404052734e+00 2.365917444229125977e+00 5.047887563705444336e-02
2.166000000000000000e+03 3.707606506347656250e+01 1.236083889007568359e+01 3.265638649463653564e-02 7.867615222930908203e+00 2.370081424713134766e+00 5.884343385696411133e-02
2.167000000000000000e+03 6.549398803710937500e+01 7.123430728912353516e+00 6.692757364362478256e-03 7.727758884429931641e+00 2.320335626602172852e+00 -7.552449405193328857e-02
2.168000000000000000e+03 3.612945556640625000e+01 6.017296791076660156e+00 6.807522475719451904e-02 7.801058769226074219e+00 2.360740184783935547e+00 4.277318716049194336e-02
2.169000000000000000e+03 3.764202117919921875e+01 6.550926208496093750e+00 5.872566252946853638e-02 7.803555965423583984e+00 2.358684539794921875e+00 3.241252526640892029e-02
2.170000000000000000e+03 3.429552841186523438e+01 -3.926632165908813477e+00 2.039553597569465637e-02 7.717973709106445312e+00 2.321510791778564453e+00 3.462591767311096191e-02
2.171000000000000000e+03 3.964968490600585938e+01 1.666390228271484375e+01 4.342003259807825089e-03 7.900156497955322266e+00 2.371349573135375977e+00 2.694698609411716461e-02
2.172000000000000000e+03 3.791056060791015625e+01 1.746794700622558594e+01 -7.224475266411900520e-04 7.919950485229492188e+00 2.375768423080444336e+00 4.399069026112556458e-02
2.173000000000000000e+03 6.478076171875000000e+01 -2.221552467346191406e+01 -2.019275166094303131e-02 7.792903900146484375e+00 2.331813335418701172e+00 -6.829600781202316284e-02
2.174000000000000000e+03 3.737514114379882812e+01 1.561869049072265625e+01 5.175946746021509171e-03 7.904546260833740234e+00 2.372916698455810547e+00 5.508193373680114746e-02
2.175000000000000000e+03 3.600332641601562500e+01 -8.195628166198730469e+00 7.577783893793821335e-03 7.667244911193847656e+00 2.302446842193603516e+00 2.158069983124732971e-02
2.176000000000000000e+03 3.218824768066406250e+01 -9.475608825683593750e+00 4.186326637864112854e-03 7.635083675384521484e+00 2.291780948638916016e+00 7.487420737743377686e-02
2.177000000000000000e+03 3.980726242065429688e+01 5.858532428741455078e+00 4.860808327794075012e-02 7.788984298706054688e+00 2.351277589797973633e+00 6.463715340942144394e-03
2.178000000000000000e+03 3.392497634887695312e+01 -2.219519853591918945e+00 3.214851766824722290e-02 7.742573261260986328e+00 2.332416534423828125e+00 3.601136058568954468e-02
2.179000000000000000e+03 6.610299682617187500e+01 -3.561925649642944336e+00 1.083534210920333862e-03 7.752984523773193359e+00 2.326220512390136719e+00 -8.075392991304397583e-02
2.180000000000000000e+03 6.744664001464843750e+01 -1.078745937347412109e+01 -3.923426382243633270e-03 7.779088497161865234e+00 2.332549571990966797e+00 -7.546713948249816895e-02
2.181000000000000000e+03 3.451551437377929688e+01 -7.557945728302001953e+00 3.506519133225083351e-03 7.671308517456054688e+00 2.302444696426391602e+00 3.858752548694610596e-02
2.182000000000000000e+03 3.999225997924804688e+01 1.023411464691162109e+01 3.995130583643913269e-02 7.829347133636474609e+00 2.360789537429809570e+00 2.277847938239574432e-02
2.183000000000000000e+03 3.728372955322265625e+01 1.405094623565673828e+01 2.322907559573650360e-02 7.882841587066650391e+00 2.371821165084838867e+00 5.868943780660629272e-02
2.184000000000000000e+03 3.624261093139648438e+01 -5.195205688476562500e+00 1.608410105109214783e-02 7.699877262115478516e+00 2.314788579940795898e+00 1.638006046414375305e-02
2.185000000000000000e+03 3.712450790405273438e+01 7.865406036376953125e+00 6.004067137837409973e-02 7.814579963684082031e+00 2.362386226654052734e+00 4.278830438852310181e-02
2.186000000000000000e+03 3.841983032226562500e+01 8.909857749938964844e+00 5.034074187278747559e-02 7.822555065155029297e+00 2.361868619918823242e+00 3.482145816087722778e-02
2.187000000000000000e+03 6.348992156982421875e+01 -1.850535392761230469e+01 -1.743340305984020233e-02 7.776159286499023438e+00 2.327617645263671875e+00 -7.812390476465225220e-02
2.188000000000000000e+03 3.720787048339843750e+01 -1.738010533154010773e-02 4.379170760512351990e-02 7.745434284210205078e+00 2.336767911911010742e+00 8.618120104074478149e-03
2.189000000000000000e+03 6.563003540039062500e+01 1.300664520263671875e+01 8.572666905820369720e-03 7.716024398803710938e+00 2.317379236221313477e+00 -7.013057917356491089e-02
2.190000000000000000e+03 6.275753402709960938e+01 9.156080245971679688e+00 1.129902619868516922e-02 7.734165191650390625e+00 2.323639154434204102e+00 -7.806438207626342773e-02
2.191000000000000000e+03 3.855630874633789062e+01 1.484013175964355469e+01 1.732072979211807251e-02 7.883862972259521484e+00 2.370355129241943359e+00 4.328251630067825317e-02
2.192000000000000000e+03 4.134585571289062500e+01 6.738327026367187500e+00 4.487667232751846313e-02 7.791595935821533203e+00 2.350941896438598633e+00 -1.885339588625356555e-04
2.193000000000000000e+03 3.916099929809570312e+01 7.461450099945068359e+00 5.143437907099723816e-02 7.804319858551025391e+00 2.356726408004760742e+00 2.126791886985301971e-02
2.194000000000000000e+03 6.473283386230468750e+01 -4.246196269989013672e+00 1.906670397147536278e-03 7.752493381500244141e+00 2.326319932937622070e+00 -8.392778038978576660e-02
2.195000000000000000e+03 6.312245559692382812e+01 -4.943139553070068359e+00 9.157923632301390171e-04 7.750383853912353516e+00 2.325389862060546875e+00 -8.712573349475860596e-02
2.196000000000000000e+03 6.415161132812500000e+01 3.581481456756591797e+00 8.051065728068351746e-03 7.738229274749755859e+00 2.323884010314941406e+00 -8.128396421670913696e-02
2.197000000000000000e+03 6.286438751220703125e+01 1.069762483239173889e-01 4.822141025215387344e-03 7.743330955505371094e+00 2.324445962905883789e+00 -8.538310974836349487e-02
2.198000000000000000e+03 3.794404220581054688e+01 1.790354251861572266e+00 5.099638178944587708e-02 7.761084556579589844e+00 2.343624353408813477e+00 1.059673074632883072e-02
2.199000000000000000e+03 4.053675460815429688e+01 4.245872020721435547e+00 4.800855368375778198e-02 7.771838188171386719e+00 2.345953941345214844e+00 -3.210757859051227570e-03
2.200000000000000000e+03 6.235322570800781250e+01 7.302413940429687500e+00 1.005441136658191681e-02 7.738000869750976562e+00 2.324416637420654297e+00 -7.923441380262374878e-02
2.201000000000000000e+03 3.768681716918945312e+01 -4.212060928344726562e+00 2.156595140695571899e-02 7.710151195526123047e+00 2.319515228271484375e+00 9.829577757045626640e-04
2.202000000000000000e+03 3.677763366699218750e+01 -1.596291780471801758e+00 3.625918179750442505e-02 7.737760543823242188e+00 2.332205772399902344e+00 1.261924766004085541e-02
2.203000000000000000e+03 3.569139099121093750e+01 -3.453458070755004883e+00 2.522749267518520355e-02 7.721156597137451172e+00 2.323915243148803711e+00 2.118197083473205566e-02
2.204000000000000000e+03 3.791172027587890625e+01 -2.055368661880493164e+00 3.260224685072898865e-02 7.727436542510986328e+00 2.328011751174926758e+00 -1.092473627068102360e-03
2.205000000000000000e+03 3.721092605590820312e+01 -6.733053207397460938e+00 9.046453982591629028e-03 7.685552597045898438e+00 2.308379650115966797e+00 7.922905497252941132e-03
2.206000000000000000e+03 6.561870574951171875e+01 1.634172821044921875e+01 1.019483525305986404e-02 7.710021495819091797e+00 2.316064834594726562e+00 -6.637249141931533813e-02
2.207000000000000000e+03 6.228087615966796875e+01 1.282991218566894531e+01 1.176515407860279083e-02 7.734088897705078125e+00 2.323756217956542969e+00 -7.468920946121215820e-02
2.208000000000000000e+03 6.267133331298828125e+01 -1.489760017395019531e+01 -1.351503934711217880e-02 7.763946533203125000e+00 2.325129508972167969e+00 -8.534631133079528809e-02
2.209000000000000000e+03 6.338107299804687500e+01 -1.684785842895507812e+01 -1.553193759173154831e-02 7.770280838012695312e+00 2.326424598693847656e+00 -8.177752792835235596e-02
2.210000000000000000e+03 6.375600433349609375e+01 -1.257099628448486328e+00 5.070033948868513107e-03 7.745450973510742188e+00 2.325156450271606445e+00 -8.500058203935623169e-02
2.211000000000000000e+03 6.182147598266601562e+01 -2.953403234481811523e+00 4.360945895314216614e-03 7.746551036834716797e+00 2.325273513793945312e+00 -8.840934187173843384e-02
2.212000000000000000e+03 3.718350982666015625e+01 -9.234899520874023438e+00 7.616269431309774518e-05 7.659455776214599609e+00 2.297859430313110352e+00 4.131960216909646988e-03
2.213000000000000000e+03 6.297592163085937500e+01 2.476182222366333008e+00 6.519226823002099991e-03 7.740431785583496094e+00 2.324085235595703125e+00 -8.378744870424270630e-02
2.214000000000000000e+03 6.304795837402343750e+01 -1.204774188995361328e+01 -7.202831096947193146e-03 7.761019706726074219e+00 2.326145172119140625e+00 -8.721394836902618408e-02
2.215000000000000000e+03 3.870139694213867188e+01 -6.805638074874877930e-01 3.797577694058418274e-02 7.739747524261474609e+00 2.333317041397094727e+00 -2.560551278293132782e-03
2.216000000000000000e+03 3.871875762939453125e+01 1.167644977569580078e+01 3.617461770772933960e-02 7.849766731262207031e+00 2.365782260894775391e+00 3.782656416296958923e-02
2.217000000000000000e+03 3.980707550048828125e+01 1.361626529693603516e+01 2.181066572666168213e-02 7.865653514862060547e+00 2.366239309310913086e+00 2.952758595347404480e-02
2.218000000000000000e+03 3.893096923828125000e+01 -3.040045261383056641e+00 2.732803486287593842e-02 7.720969676971435547e+00 2.324489355087280273e+00 -7.958286441862583160e-03
2.219000000000000000e+03 6.323709869384765625e+01 4.779251575469970703e+00 7.639428135007619858e-03 7.737719535827636719e+00 2.323607683181762695e+00 -8.132415264844894409e-02
2.220000000000000000e+03 3.659580230712890625e+01 -1.164286994934082031e+01 -6.992846727371215820e-03 7.629673480987548828e+00 2.286804199218750000e+00 1.422347594052553177e-02
2.221000000000000000e+03 4.349158477783203125e+01 1.427438259124755859e+01 2.040890976786613464e-02 7.845632553100585938e+00 2.359812498092651367e+00 -9.827809408307075500e-03
2.222000000000000000e+03 3.955310821533203125e+01 -9.590477943420410156e+00 -2.132622757926583290e-03 7.663885593414306641e+00 2.298525810241699219e+00 -1.670663990080356598e-02
2.223000000000000000e+03 3.583548736572265625e+01 -9.926622390747070312e+00 -5.113455466926097870e-03 7.646445274353027344e+00 2.292399644851684570e+00 2.338036894798278809e-02
2.224000000000000000e+03 6.656023406982421875e+01 -1.286156845092773438e+01 -6.937817670404911041e-03 7.780488967895507812e+00 2.332065343856811523e+00 -7.790464162826538086e-02
2.225000000000000000e+03 4.418508148193359375e+01 7.588947772979736328e+00 3.718108683824539185e-02 7.786608219146728516e+00 2.347136735916137695e+00 -2.272958494722843170e-02
2.226000000000000000e+03 6.260696029663085938e+01 -1.994960308074951172e+00 3.763231914490461349e-03 7.745352745056152344e+00 2.324734926223754883e+00 -8.641497045755386353e-02
2.227000000000000000e+03 6.087652206420898438e+01 -6.952101707458496094e+00 3.834197705145925283e-04 7.747661590576171875e+00 2.324413537979125977e+00 -8.983121812343597412e-02
2.228000000000000000e+03 6.191613769531250000e+01 -1.043163490295410156e+01 -7.018014788627624512e-03 7.753472805023193359e+00 2.323936462402343750e+00 -8.823394030332565308e-02
2.229000000000000000e+03 6.299422073364257812e+01 -1.073362541198730469e+01 -6.137169897556304932e-03 7.760055541992187500e+00 2.326175451278686523e+00 -8.526542037725448608e-02
2.230000000000000000e+03 6.091673660278320312e+01 9.207715034484863281e+00 1.166539080440998077e-02 7.740957260131835938e+00 2.325786828994750977e+00 -7.797516882419586182e-02
2.231000000000000000e+03 6.091650009155273438e+01 7.119605064392089844e+00 1.334373466670513153e-02 7.740038871765136719e+00 2.326014757156372070e+00 -8.079326897859573364e-02
2.232000000000000000e+03 6.023770904541015625e+01 -4.886189460754394531e+00 2.360543934628367424e-03 7.745172977447509766e+00 2.324259996414184570e+00 -9.090510010719299316e-02
2.233000000000000000e+03 6.603250885009765625e+01 3.703773021697998047e+00 6.389947142452001572e-03 7.734570026397705078e+00 2.322288036346435547e+00 -7.697901129722595215e-02
2.234000000000000000e+03 3.866141891479492188e+01 -5.521152973175048828e+00 1.621925644576549530e-02 7.699467658996582031e+00 2.314706087112426758e+00 -7.068858481943607330e-03
2.235000000000000000e+03 5.922996139526367188e+01 6.702014923095703125e+00 1.240101736038923264e-02 7.746038913726806641e+00 2.327532052993774414e+00 -8.038821816444396973e-02
2.236000000000000000e+03 6.252646636962890625e+01 5.946648120880126953e+00 1.096236146986484528e-02 7.738106250762939453e+00 2.324720621109008789e+00 -8.130993694067001343e-02
2.237000000000000000e+03 6.035165405273437500e+01 1.134200859069824219e+01 1.599323377013206482e-02 7.742799282073974609e+00 2.327637910842895508e+00 -7.547933608293533325e-02
2.238000000000000000e+03 6.754037475585937500e+01 -8.854439735412597656e+00 -2.501972950994968414e-03 7.772122859954833984e+00 2.330886125564575195e+00 -7.718680799007415771e-02
2.239000000000000000e+03 6.193628692626953125e+01 3.826020956039428711e+00 1.054812129586935043e-02 7.740664958953857422e+00 2.325363874435424805e+00 -8.322224020957946777e-02
2.240000000000000000e+03 5.709437179565429688e+01 9.899375915527343750e+00 1.879442669451236725e-02 7.756043910980224609e+00 2.332451581954956055e+00 -7.555716484785079956e-02
2.241000000000000000e+03 6.294208145141601562e+01 -9.360318183898925781e+00 -2.841906854882836342e-03 7.756130218505859375e+00 2.325986385345458984e+00 -8.785394579172134399e-02
2.242000000000000000e+03 6.576104736328125000e+01 -1.378388309478759766e+01 -7.035009097307920456e-03 7.777961730957031250e+00 2.331278085708618164e+00 -7.903488725423812866e-02
2.243000000000000000e+03 4.198611068725585938e+01 1.129672622680664062e+01 3.130926191806793213e-02 7.829207420349121094e+00 2.358155012130737305e+00 3.656442044302821159e-03
2.244000000000000000e+03 4.250537872314453125e+01 9.240412712097167969e+00 3.888274356722831726e-02 7.807816982269287109e+00 2.354009866714477539e+00 -2.469382714480161667e-03
2.245000000000000000e+03 4.222803878784179688e+01 1.849740028381347656e+00 3.801378607749938965e-02 7.750710010528564453e+00 2.336617231369018555e+00 -2.436868473887443542e-02
2.246000000000000000e+03 3.842332839965820312e+01 -8.102598190307617188e+00 5.543781910091638565e-03 7.672230720520019531e+00 2.303332328796386719e+00 -5.041591823101043701e-03
2.247000000000000000e+03 3.977861022949218750e+01 -6.885912418365478516e+00 8.410123176872730255e-03 7.688127517700195312e+00 2.308961391448974609e+00 -1.766044832766056061e-02
2.248000000000000000e+03 4.001166152954101562e+01 -4.237236022949218750e+00 2.044902741909027100e-02 7.709686279296875000e+00 2.319040536880493164e+00 -1.895067468285560608e-02
2.249000000000000000e+03 4.248245239257812500e+01 -4.263766765594482422e+00 1.767656020820140839e-02 7.711786270141601562e+00 2.318838834762573242e+00 -3.676387295126914978e-02
2.250000000000000000e+03 4.155241394042968750e+01 1.341969585418701172e+01 2.683151699602603912e-02 7.849357128143310547e+00 2.362856626510620117e+00 1.108293142169713974e-02
2.251000000000000000e+03 4.255314636230468750e+01 1.641103935241699219e+01 1.593473926186561584e-02 7.871119499206542969e+00 2.366116285324096680e+00 9.725180570967495441e-04
2.252000000000000000e+03 3.764521408081054688e+01 -1.335220813751220703e+01 -1.541340537369251251e-02 7.619229316711425781e+00 2.281144857406616211e+00 -1.320050680078566074e-03
2.253000000000000000e+03 3.813192749023437500e+01 -1.070448207855224609e+01 -5.089249461889266968e-03 7.649269104003906250e+00 2.293253898620605469e+00 -3.729699645191431046e-03
2.254000000000000000e+03 5.974028778076171875e+01 -8.554859161376953125e+00 -5.084998905658721924e-03 7.744457721710205078e+00 2.321811676025390625e+00 -9.031316637992858887e-02
2.255000000000000000e+03 6.171413421630859375e+01 1.408508539199829102e+00 8.346867747604846954e-03 7.742530822753906250e+00 2.325263261795043945e+00 -8.516124635934829712e-02
2.256000000000000000e+03 6.109108734130859375e+01 -1.195268344879150391e+01 -7.131025660783052444e-03 7.752612590789794922e+00 2.323644399642944336e+00 -8.846582472324371338e-02
2.257000000000000000e+03 6.090472412109375000e+01 -9.508711814880371094e+00 -3.813484683632850647e-03 7.749532222747802734e+00 2.323715686798095703e+00 -9.034393727779388428e-02
2.258000000000000000e+03 4.094345855712890625e+01 -8.360534667968750000e+00 3.540222533047199249e-03 7.679075241088867188e+00 2.304784774780273438e+00 -2.709784917533397675e-02
2.259000000000000000e+03 6.043012619018554688e+01 2.797981500625610352e+00 8.596908301115036011e-03 7.742384433746337891e+00 2.325294494628906250e+00 -8.518178761005401611e-02
2.260000000000000000e+03 4.458300018310546875e+01 5.251641273498535156e+00 3.619452938437461853e-02 7.771167278289794922e+00 2.342208623886108398e+00 -3.029976971447467804e-02
2.261000000000000000e+03 4.120452880859375000e+01 -5.413519591093063354e-02 3.563584759831428528e-02 7.739938259124755859e+00 2.332672357559204102e+00 -1.999852620065212250e-02
2.262000000000000000e+03 4.452853393554687500e+01 9.576133728027343750e+00 3.045931644737720490e-02 7.804118633270263672e+00 2.350373506546020508e+00 -2.045024000108242035e-02
2.263000000000000000e+03 5.947393798828125000e+01 -6.147726535797119141e+00 -5.599690484814345837e-04 7.742376804351806641e+00 2.322545051574707031e+00 -9.044235199689865112e-02
2.264000000000000000e+03 4.378454589843750000e+01 -3.011769294738769531e+00 2.156117185950279236e-02 7.720838069915771484e+00 2.322719812393188477e+00 -4.228954389691352844e-02
2.265000000000000000e+03 5.767818832397460938e+01 -1.178298950195312500e+01 -1.179217267781496048e-02 7.735975265502929688e+00 2.317254781723022461e+00 -8.980389684438705444e-02
2.266000000000000000e+03 5.762492370605468750e+01 3.994883298873901367e+00 1.254366524517536163e-02 7.746347427368164062e+00 2.327667474746704102e+00 -8.258172124624252319e-02
2.267000000000000000e+03 4.332137680053710938e+01 3.703303575515747070e+00 3.935525566339492798e-02 7.763487339019775391e+00 2.340852737426757812e+00 -2.391340211033821106e-02
2.268000000000000000e+03 4.259181213378906250e+01 -1.428677082061767578e+00 2.782680653035640717e-02 7.730149745941162109e+00 2.327393054962158203e+00 -3.348639234900474548e-02
2.269000000000000000e+03 4.398441696166992188e+01 -4.471555352210998535e-01 2.911345660686492920e-02 7.736724376678466797e+00 2.329751253128051758e+00 -3.853594884276390076e-02
2.270000000000000000e+03 4.617378616333007812e+01 1.653173565864562988e+00 2.836761809885501862e-02 7.747869968414306641e+00 2.332871198654174805e+00 -4.714185371994972229e-02
2.271000000000000000e+03 4.342366027832031250e+01 6.221898555755615234e+00 3.921971097588539124e-02 7.780061721801757812e+00 2.345784425735473633e+00 -1.847015880048274994e-02
2.272000000000000000e+03 6.150659942626953125e+01 -5.269032001495361328e+00 4.143177357036620378e-04 7.747385501861572266e+00 2.324339866638183594e+00 -8.938133716583251953e-02
2.273000000000000000e+03 4.114691925048828125e+01 -5.590086936950683594e+00 1.490797288715839386e-02 7.701346874237060547e+00 2.314876317977905273e+00 -2.722835540771484375e-02
2.274000000000000000e+03 5.895359420776367188e+01 -1.274633502960205078e+01 -9.866561740636825562e-03 7.743118762969970703e+00 2.319975614547729492e+00 -8.957365155220031738e-02
2.275000000000000000e+03 6.020669555664062500e+01 -1.360650634765625000e+01 -1.399990823119878769e-02 7.749034881591796875e+00 2.320510387420654297e+00 -8.819043636322021484e-02
2.276000000000000000e+03 5.741429519653320312e+01 -9.106598854064941406e+00 -6.006241310387849808e-03 7.735860824584960938e+00 2.318956375122070312e+00 -9.037490189075469971e-02
2.277000000000000000e+03 5.637354660034179688e+01 -1.072154712677001953e+01 -7.109270431101322174e-03 7.731738567352294922e+00 2.317388772964477539e+00 -8.997089415788650513e-02
2.278000000000000000e+03 3.903624343872070312e+01 3.386651515960693359e+00 5.181694775819778442e-02 7.769874572753906250e+00 2.346507310867309570e+00 5.498573184013366699e-03
2.279000000000000000e+03 5.736983108520507812e+01 1.990603327751159668e+00 1.212076749652624130e-02 7.743159294128417969e+00 2.326584100723266602e+00 -8.476059138774871826e-02
2.280000000000000000e+03 5.915232849121093750e+01 1.330356597900390625e+00 1.009460166096687317e-02 7.743716716766357422e+00 2.326143264770507812e+00 -8.561992645263671875e-02
2.281000000000000000e+03 4.385939025878906250e+01 1.138969898223876953e+00 3.246322646737098694e-02 7.746413707733154297e+00 2.333662986755371094e+00 -3.444219008088111877e-02
2.282000000000000000e+03 4.516183853149414062e+01 4.074448645114898682e-01 2.765235118567943573e-02 7.740540981292724609e+00 2.330457925796508789e+00 -4.598883911967277527e-02
2.283000000000000000e+03 5.593135070800781250e+01 4.117296695709228516e+00 1.561938598752021790e-02 7.747837543487548828e+00 2.329037189483642578e+00 -7.994789630174636841e-02
2.284000000000000000e+03 4.561771774291992188e+01 6.913917064666748047e+00 3.334532305598258972e-02 7.781476497650146484e+00 2.344446420669555664e+00 -3.055355325341224670e-02
2.285000000000000000e+03 4.367878723144531250e+01 -5.741487979888916016e+00 1.220821961760520935e-02 7.704470157623291016e+00 2.315003633499145508e+00 -4.493173211812973022e-02
2.286000000000000000e+03 4.232699584960937500e+01 -7.056870937347412109e+00 6.646800786256790161e-03 7.692368984222412109e+00 2.309704780578613281e+00 -3.767199069261550903e-02
2.287000000000000000e+03 5.719529342651367188e+01 -6.430332183837890625e+00 -5.101126735098659992e-04 7.736497879028320312e+00 2.320796251296997070e+00 -9.009350091218948364e-02
2.288000000000000000e+03 5.504539871215820312e+01 -9.569228172302246094e+00 -6.987618282437324524e-03 7.726147174835205078e+00 2.315747976303100586e+00 -8.836335688829421997e-02
2.289000000000000000e+03 4.479321670532226562e+01 2.708721399307250977e+00 3.332765027880668640e-02 7.753529071807861328e+00 2.336056947708129883e+00 -3.825068101286888123e-02
2.290000000000000000e+03 5.531957626342773438e+01 -1.239032459259033203e+01 -1.429539918899536133e-02 7.724302768707275391e+00 2.313002109527587891e+00 -8.795336633920669556e-02
2.291000000000000000e+03 4.741338729858398438e+01 4.181604683399200439e-01 2.352835796773433685e-02 7.740978240966796875e+00 2.329351902008056641e+00 -5.712895840406417847e-02
2.292000000000000000e+03 4.711495590209960938e+01 5.810220241546630859e+00 3.017668239772319794e-02 7.770658016204833984e+00 2.340250492095947266e+00 -4.456704109907150269e-02
2.293000000000000000e+03 5.800643157958984375e+01 -1.450469684600830078e+01 -1.780360192060470581e-02 7.737234115600585938e+00 2.315829038619995117e+00 -8.822960406541824341e-02
2.294000000000000000e+03 5.824977111816406250e+01 -5.131715774536132812e+00 2.868979237973690033e-03 7.740605354309082031e+00 2.323042392730712891e+00 -9.063416719436645508e-02
2.295000000000000000e+03 5.481352233886718750e+01 -6.746613025665283203e+00 -2.524530282244086266e-04 7.729095458984375000e+00 2.318652868270874023e+00 -8.767283707857131958e-02
2.296000000000000000e+03 5.372016525268554688e+01 -8.357572555541992188e+00 -1.870439038611948490e-03 7.724388122558593750e+00 2.316755294799804688e+00 -8.658078312873840332e-02
2.297000000000000000e+03 4.498033905029296875e+01 -4.484710693359375000e+00 1.398148294538259506e-02 7.713480949401855469e+00 2.318238735198974609e+00 -5.190068483352661133e-02
2.298000000000000000e+03 5.144858932495117188e+01 -1.146462821960449219e+01 -9.835115633904933929e-03 7.707894325256347656e+00 2.309417724609375000e+00 -8.196921646595001221e-02
2.299000000000000000e+03 5.396257781982421875e+01 -1.118755531311035156e+01 -8.907262235879898071e-03 7.720500946044921875e+00 2.313477993011474609e+00 -8.718585968017578125e-02
2.300000000000000000e+03 4.505918502807617188e+01 -1.902577996253967285e+00 2.207251638174057007e-02 7.727887153625488281e+00 2.324987888336181641e+00 -4.863508790731430054e-02
2.301000000000000000e+03 5.157310485839843750e+01 4.358593940734863281e+00 2.166152559220790863e-02 7.756042003631591797e+00 2.333311080932617188e+00 -6.750064343214035034e-02
2.302000000000000000e+03 5.539968109130859375e+01 2.352741956710815430e+00 1.476659253239631653e-02 7.746804237365722656e+00 2.328471183776855469e+00 -8.065500855445861816e-02
2.303000000000000000e+03 6.103957366943359375e+01 -3.935750246047973633e+00 2.637214493006467819e-03 7.745288372039794922e+00 2.324377536773681641e+00 -8.831607550382614136e-02
2.304000000000000000e+03 3.873503494262695312e+01 2.432941436767578125e+01 -9.485851973295211792e-03 7.985157966613769531e+00 2.392701625823974609e+00 -1.020649168640375137e-02
2.305000000000000000e+03 3.812360763549804688e+01 2.652773475646972656e+01 -1.431883429177105427e-03 8.012018203735351562e+00 2.403175830841064453e+00 -3.668113797903060913e-02
2.306000000000000000e+03 5.716974639892578125e+01 -3.801839828491210938e+00 4.503623582422733307e-03 7.738503932952880859e+00 2.322902202606201172e+00 -8.841481059789657593e-02
2.307000000000000000e+03 5.863371276855468750e+01 1.034521770477294922e+01 1.456519681960344315e-02 7.749890804290771484e+00 2.329336881637573242e+00 -7.656884938478469849e-02
2.308000000000000000e+03 6.555632781982421875e+01 -1.578670883178710938e+01 -9.403059259057044983e-03 7.782803058624267578e+00 2.332020044326782227e+00 -7.726084440946578979e-02
2.309000000000000000e+03 6.073479843139648438e+01 -1.617180633544921875e+01 -1.787133701145648956e-02 7.754336833953857422e+00 2.320939540863037109e+00 -8.553935587406158447e-02
2.310000000000000000e+03 6.395462799072265625e+01 -2.035777664184570312e+01 -1.848221383988857269e-02 7.782792091369628906e+00 2.329293012619018555e+00 -7.418602705001831055e-02
2.311000000000000000e+03 3.284758377075195312e+01 -1.760034942626953125e+01 -3.179292380809783936e-02 7.526064395904541016e+00 2.248281478881835938e+00 4.845549538731575012e-02
2.312000000000000000e+03 5.533596801757812500e+01 6.491978645324707031e+00 1.721740886569023132e-02 7.754174232482910156e+00 2.331417560577392578e+00 -7.615327090024948120e-02
2.313000000000000000e+03 5.676807785034179688e+01 5.441606521606445312e+00 1.628202199935913086e-02 7.749404430389404297e+00 2.329705953598022461e+00 -7.858228683471679688e-02
2.314000000000000000e+03 4.863875198364257812e+01 4.444038867950439453e+00 2.713548205792903900e-02 7.760909557342529297e+00 2.336413383483886719e+00 -5.434157326817512512e-02
2.315000000000000000e+03 4.069395828247070312e+01 -1.119278240203857422e+01 -7.001922465860843658e-03 7.655881404876708984e+00 2.294663906097412109e+00 -2.660639211535453796e-02
2.316000000000000000e+03 4.481682586669921875e+01 -1.015991115570068359e+01 -6.231140810996294022e-03 7.680752277374267578e+00 2.302356481552124023e+00 -5.465002730488777161e-02
2.317000000000000000e+03 4.868263626098632812e+01 -5.995347976684570312e+00 6.815965287387371063e-03 7.715626716613769531e+00 2.316732883453369141e+00 -7.051566243171691895e-02
2.318000000000000000e+03 4.966209030151367188e+01 3.078278899192810059e-01 1.983500272035598755e-02 7.741346836090087891e+00 2.328354597091674805e+00 -6.695824861526489258e-02
2.319000000000000000e+03 5.102192306518554688e+01 1.026744961738586426e+00 1.923081278800964355e-02 7.744003772735595703e+00 2.328970432281494141e+00 -7.040935009717941284e-02
2.320000000000000000e+03 5.214375305175781250e+01 -1.443841338157653809e+00 1.279661804437637329e-02 7.735225677490234375e+00 2.324406623840332031e+00 -7.813917845487594604e-02
2.321000000000000000e+03 5.611456680297851562e+01 -7.959229469299316406e+00 -1.329104998148977757e-03 7.733112335205078125e+00 2.319535017013549805e+00 -8.970826864242553711e-02
2.322000000000000000e+03 7.057592010498046875e+01 3.453408432006835938e+01 1.583391055464744568e-02 7.626629352569580078e+00 2.292738914489746094e+00 -2.136580273509025574e-02
2.323000000000000000e+03 6.265624618530273438e+01 1.635728454589843750e+01 1.322217006236314774e-02 7.729989528656005859e+00 2.322963476181030273e+00 -6.987150013446807861e-02
2.324000000000000000e+03 5.419640350341796875e+01 -1.409434890747070312e+01 -1.660162769258022308e-02 7.717714309692382812e+00 2.310333728790283203e+00 -8.638831973075866699e-02
2.325000000000000000e+03 7.179634857177734375e+01 -1.451101589202880859e+01 -3.799445694312453270e-03 7.816110134124755859e+00 2.343693256378173828e+00 -5.589748919010162354e-02
2.326000000000000000e+03 6.753234863281250000e+01 -3.399806213378906250e+01 -2.317083440721035004e-02 7.840306282043457031e+00 2.345140695571899414e+00 -3.035376965999603271e-02
2.327000000000000000e+03 4.654166412353515625e+01 8.933016777038574219e+00 3.034633025527000427e-02 7.791079044342041016e+00 2.346427679061889648e+00 -3.579033911228179932e-02
2.328000000000000000e+03 2.969894027709960938e+01 3.824180984497070312e+01 3.400005996227264404e-01 8.240523338317871094e+00 2.574157238006591797e+00 2.961224913597106934e-01
2.329000000000000000e+03 2.748000526428222656e+01 3.796812057495117188e+01 5.622231960296630859e-01 8.319214820861816406e+00 2.664431333541870117e+00 4.279898703098297119e-01
2.330000000000000000e+03 5.282372283935546875e+01 -1.279517269134521484e+01 -1.644440181553363800e-02 7.710785865783691406e+00 2.308302402496337891e+00 -8.438321202993392944e-02
2.331000000000000000e+03 2.733161735534667969e+01 -3.217714691162109375e+01 7.381510734558105469e-02 7.146222591400146484e+00 2.166011333465576172e+00 6.264449656009674072e-02
2.332000000000000000e+03 3.124748229980468750e+01 -2.644683837890625000e+01 -1.741324737668037415e-02 7.370484352111816406e+00 2.205921411514282227e+00 8.042636513710021973e-02
2.333000000000000000e+03 3.334436035156250000e+01 -2.762141990661621094e+01 -3.536161407828330994e-02 7.398213386535644531e+00 2.208855390548706055e+00 3.986212238669395447e-02
2.334000000000000000e+03 6.409868621826171875e+01 2.156184387207031250e+01 1.833220943808555603e-02 7.711945056915283203e+00 2.319083213806152344e+00 -6.043420732021331787e-02
2.335000000000000000e+03 2.609154891967773438e+01 -3.418241882324218750e+01 1.306926608085632324e-01 7.006882667541503906e+00 2.141272544860839844e+00 -1.720492355525493622e-02
2.336000000000000000e+03 2.831621742248535156e+01 4.105091476440429688e+01 -3.286667466163635254e-01 8.635854721069335938e+00 2.492156505584716797e+00 2.193202674388885498e-01
2.337000000000000000e+03 6.173262786865234375e+01 -8.959728479385375977e-01 6.169903557747602463e-03 7.744693279266357422e+00 2.325258970260620117e+00 -8.695064485073089600e-02
2.338000000000000000e+03 6.475586700439453125e+01 -1.455992221832275391e+01 -1.219593454152345657e-02 7.775397300720214844e+00 2.328960418701171875e+00 -8.084881305694580078e-02
2.339000000000000000e+03 6.506489562988281250e+01 -1.184397411346435547e+01 -5.520604550838470459e-03 7.768370151519775391e+00 2.328854799270629883e+00 -8.319103717803955078e-02
2.340000000000000000e+03 2.423093986511230469e+01 -3.247708129882812500e+01 2.444028556346893311e-01 7.093109130859375000e+00 2.201253652572631836e+00 2.026977539062500000e-01
2.341000000000000000e+03 6.718946075439453125e+01 1.477178668975830078e+01 9.709799662232398987e-03 7.703217506408691406e+00 2.313878297805786133e+00 -6.335175037384033203e-02
2.342000000000000000e+03 3.920107269287109375e+01 -1.233609199523925781e+01 -1.277044974267482758e-02 7.637970447540283203e+00 2.287559986114501953e+00 -1.310083828866481781e-02
2.343000000000000000e+03 4.036887741088867188e+01 -1.412887573242187500e+01 -1.866501383483409882e-02 7.629707813262939453e+00 2.283312797546386719e+00 -2.559726871550083160e-02
2.344000000000000000e+03 6.521601867675781250e+01 -1.280484008789062500e+01 -8.401758968830108643e-03 7.774117469787597656e+00 2.329714775085449219e+00 -8.077020943164825439e-02
2.345000000000000000e+03 3.274977874755859375e+01 3.181793403625488281e+01 1.001990363001823425e-01 8.114239692687988281e+00 2.464331626892089844e+00 -7.871199399232864380e-02
2.346000000000000000e+03 3.300567245483398438e+01 2.967432403564453125e+01 -1.267234236001968384e-02 8.124602317810058594e+00 2.433578968048095703e+00 -6.454999744892120361e-02
2.347000000000000000e+03 6.460815429687500000e+01 -2.879387092590332031e+01 -2.805429697036743164e-02 7.805296897888183594e+00 2.333172798156738281e+00 -5.097573623061180115e-02
2.348000000000000000e+03 6.297124099731445312e+01 -3.256298065185546875e+00 3.164351452142000198e-03 7.747101306915283203e+00 2.325079679489135742e+00 -8.733194321393966675e-02
2.349000000000000000e+03 3.914530181884765625e+01 2.222162055969238281e+01 -1.514292415231466293e-02 7.964275360107421875e+00 2.384739875793457031e+00 -9.307164582423865795e-04
2.350000000000000000e+03 2.012266349792480469e+01 -4.057075881958007812e+01 -6.286991238594055176e-01 5.569545269012451172e+00 1.482253789901733398e+00 -1.398370712995529175e-01
2.351000000000000000e+03 1.823114776611328125e+01 -3.948865890502929688e+01 1.201458349823951721e-01 3.072133064270019531e+00 9.576836824417114258e-01 1.317898392677307129e+00
2.352000000000000000e+03 5.751454162597656250e+01 1.151924133300781250e+01 1.872974634170532227e-02 7.756095409393310547e+00 2.332447528839111328e+00 -7.221377640962600708e-02
2.353000000000000000e+03 3.880844879150390625e+01 -1.516902065277099609e+01 -2.447494864463806152e-02 7.609439849853515625e+00 2.275489568710327148e+00 -9.223243221640586853e-03
2.354000000000000000e+03 5.936523056030273438e+01 -1.541431713104248047e+01 -1.491313334554433823e-02 7.746363162994384766e+00 2.319435119628906250e+00 -8.692532777786254883e-02
2.355000000000000000e+03 7.099894714355468750e+01 3.213968658447265625e+01 1.188987214118242264e-02 7.627988338470458984e+00 2.291963338851928711e+00 -2.546640112996101379e-02
2.356000000000000000e+03 6.083495712280273438e+01 1.475931358337402344e+01 1.832402311265468597e-02 7.741069316864013672e+00 2.327817916870117188e+00 -7.146447896957397461e-02
2.357000000000000000e+03 5.902632522583007812e+01 1.314380359649658203e+01 1.526310667395591736e-02 7.750639915466308594e+00 2.329771041870117188e+00 -7.443350553512573242e-02
2.358000000000000000e+03 4.996406936645507812e+01 -7.314799308776855469e+00 5.688934470526874065e-04 7.713257789611816406e+00 2.314147949218750000e+00 -7.629486918449401855e-02
2.359000000000000000e+03 4.875563812255859375e+01 -8.749636650085449219e+00 -1.361859729513525963e-03 7.705134868621826172e+00 2.311131954193115234e+00 -7.267570495605468750e-02
2.360000000000000000e+03 3.483913421630859375e+01 -1.903086280822753906e+01 -3.379704803228378296e-02 7.531892299652099609e+00 2.249428510665893555e+00 2.703386172652244568e-02
2.361000000000000000e+03 3.624954605102539062e+01 2.573231124877929688e+01 -2.927665784955024719e-02 8.035458564758300781e+00 2.401854753494262695e+00 -4.878432489931583405e-03
2.362000000000000000e+03 6.205295181274414062e+01 -2.105685234069824219e+01 -2.456075325608253479e-02 7.768713951110839844e+00 2.323246002197265625e+00 -7.575793564319610596e-02
2.363000000000000000e+03 6.211375808715820312e+01 2.277245712280273438e+01 2.151089347898960114e-02 7.727702140808105469e+00 2.324764013290405273e+00 -6.208117306232452393e-02
2.364000000000000000e+03 6.686512756347656250e+01 -3.699126052856445312e+01 -3.044809587299823761e-02 7.835838794708251953e+00 2.341617107391357422e+00 -2.147139608860015869e-02
2.365000000000000000e+03 6.158909797668457031e+00 -3.816181182861328125e+01 3.721537534147500992e-03 8.481942117214202881e-03 3.661043941974639893e-03 -2.037703804671764374e-02
2.366000000000000000e+03 5.680538940429687500e+01 -3.786909866333007812e+01 -7.172716408967971802e-02 7.735179901123046875e+00 2.299035787582397461e+00 -2.363562770187854767e-02
2.367000000000000000e+03 4.005105972290039062e+01 -3.576251602172851562e+01 -1.400298774242401123e-01 7.511040687561035156e+00 2.211303234100341797e+00 -3.747646138072013855e-02
2.368000000000000000e+03 2.741930961608886719e+01 -4.091870117187500000e+01 -4.113399684429168701e-01 7.192350864410400391e+00 2.034303188323974609e+00 -5.184197053313255310e-02
2.369000000000000000e+03 6.343279266357421875e+01 -3.507585525512695312e+01 -3.816292807459831238e-02 7.800062656402587891e+00 2.328569889068603516e+00 -3.145915642380714417e-02
2.370000000000000000e+03 7.168653869628906250e+01 -4.078673553466796875e+01 -1.124029420316219330e-02 7.897933006286621094e+00 2.366007804870605469e+00 -5.984863732010126114e-03
2.371000000000000000e+03 3.577764511108398438e+01 3.345595550537109375e+01 1.627213805913925171e-01 8.034657478332519531e+00 2.459213733673095703e+00 -7.340150326490402222e-02
2.372000000000000000e+03 4.164727020263671875e+01 3.706281280517578125e+01 1.366946101188659668e-01 7.948408126831054688e+00 2.425530910491943359e+00 -2.134243585169315338e-02
2.373000000000000000e+03 4.619796752929687500e+01 3.589743423461914062e+01 1.089746579527854919e-01 7.881444454193115234e+00 2.397125720977783203e+00 -4.349841922521591187e-02
2.374000000000000000e+03 6.238042449951171875e+01 3.677745437622070312e+01 3.976237773895263672e-02 7.707981109619140625e+00 2.324322938919067383e+00 -2.047245204448699951e-02
2.375000000000000000e+03 8.047294616699218750e+00 4.112405776977539062e+01 1.637738384306430817e-02 -2.892163209617137909e-02 -3.763274755328893661e-03 8.708721026778221130e-03
2.376000000000000000e+03 5.100399017333984375e+01 -3.139419078826904297e+00 1.175131089985370636e-02 7.730207920074462891e+00 2.322587728500366211e+00 -7.613468170166015625e-02
2.377000000000000000e+03 4.129421615600585938e+01 1.851760864257812500e+01 3.279919037595391273e-03 7.903538703918457031e+00 2.372045516967773438e+00 2.952658105641603470e-04
2.378000000000000000e+03 3.994644546508789062e+01 2.039843177795410156e+01 -7.728621363639831543e-03 7.935236930847167969e+00 2.378252506256103516e+00 1.033857557922601700e-02
2.379000000000000000e+03 6.058479690551757812e+01 2.202354818582534790e-01 6.722376681864261627e-03 7.742470741271972656e+00 2.324757814407348633e+00 -8.721117675304412842e-02
2.380000000000000000e+03 6.312624740600585938e+01 -1.336783695220947266e+01 -9.036102332174777985e-03 7.764790058135986328e+00 2.326726198196411133e+00 -8.325387537479400635e-02
2.381000000000000000e+03 6.142582702636718750e+01 -1.434934139251708984e+01 -1.101264636963605881e-02 7.756622314453125000e+00 2.323682785034179688e+00 -8.579238504171371460e-02
2.382000000000000000e+03 5.967379379272460938e+01 1.678396224975585938e+01 1.585622318089008331e-02 7.749078750610351562e+00 2.329480648040771484e+00 -7.007668912410736084e-02
2.383000000000000000e+03 5.920766448974609375e+01 -4.051626682281494141e+00 3.117355983704328537e-03 7.741842746734619141e+00 2.323487997055053711e+00 -8.917554467916488647e-02
2.384000000000000000e+03 5.021142959594726562e+01 -1.301712322235107422e+01 -1.765107549726963043e-02 7.696084022521972656e+00 2.303529977798461914e+00 -7.793160527944564819e-02
2.385000000000000000e+03 4.622896194458007812e+01 -3.290217161178588867e+00 1.712212339043617249e-02 7.722921371459960938e+00 2.322013139724731445e+00 -5.606592819094657898e-02
2.386000000000000000e+03 4.743722152709960938e+01 -4.657242774963378906e+00 1.050950214266777039e-02 7.717349529266357422e+00 2.318357706069946289e+00 -6.446589529514312744e-02
2.387000000000000000e+03 5.661921310424804688e+01 -2.014266490936279297e+00 8.105110377073287964e-03 7.739726066589355469e+00 2.324349403381347656e+00 -8.722994476556777954e-02
2.388000000000000000e+03 4.594621276855468750e+01 4.217348575592041016e+00 3.319091722369194031e-02 7.763065338134765625e+00 2.338876962661743164e+00 -3.907608240842819214e-02
2.389000000000000000e+03 5.014688110351562500e+01 2.854852437973022461e+00 2.196620032191276550e-02 7.750542163848876953e+00 2.331752538681030273e+00 -6.556045264005661011e-02
2.390000000000000000e+03 5.342588424682617188e+01 3.057969808578491211e+00 1.772968098521232605e-02 7.748460292816162109e+00 2.329856872558593750e+00 -7.566015422344207764e-02
2.391000000000000000e+03 5.285182189941406250e+01 7.517814636230468750e-01 1.606408879160881042e-02 7.743981361389160156e+00 2.328013658523559570e+00 -7.692830264568328857e-02
2.392000000000000000e+03 4.865196990966796875e+01 1.664920210838317871e+00 2.374912798404693604e-02 7.747199535369873047e+00 2.331284761428833008e+00 -5.972287058830261230e-02
2.393000000000000000e+03 5.433260345458984375e+01 4.948893547058105469e+00 1.843186281621456146e-02 7.753959655761718750e+00 2.331717491149902344e+00 -7.487880438566207886e-02
2.394000000000000000e+03 6.380036926269531250e+01 -1.550863170623779297e+01 -1.008615922182798386e-02 7.770901203155517578e+00 2.328244447708129883e+00 -8.110710978507995605e-02
2.395000000000000000e+03 5.546912384033203125e+01 9.238123893737792969e+00 1.762819476425647736e-02 7.759922027587890625e+00 2.333265066146850586e+00 -7.316371798515319824e-02
2.396000000000000000e+03 5.281152343750000000e+01 1.255346488952636719e+01 2.028771862387657166e-02 7.782549381256103516e+00 2.340851068496704102e+00 -6.348955631256103516e-02
2.397000000000000000e+03 4.791759490966796875e+01 1.091220569610595703e+01 2.711169049143791199e-02 7.797386646270751953e+00 2.347349405288696289e+00 -3.871471434831619263e-02
2.398000000000000000e+03 4.443317031860351562e+01 1.756035423278808594e+01 1.242971606552600861e-02 7.866281986236572266e+00 2.363613367080688477e+00 -2.111803926527500153e-02
2.399000000000000000e+03 4.214035797119140625e+01 -9.931596755981445312e+00 -4.460683558136224747e-03 7.671073913574218750e+00 2.299983978271484375e+00 -3.723632544279098511e-02
2.400000000000000000e+03 6.279253768920898438e+01 2.521593666076660156e+01 2.387537062168121338e-02 7.719468116760253906e+00 2.323003053665161133e+00 -5.541034787893295288e-02
2.401000000000000000e+03 2.335496711730957031e+01 -3.908333587646484375e+01 -3.958109021186828613e-01 6.751766204833984375e+00 1.906786561012268066e+00 -1.336692720651626587e-01
2.402000000000000000e+03 3.166304016113281250e+01 -2.821052932739257812e+01 -2.706095390021800995e-02 7.357704639434814453e+00 2.199193239212036133e+00 5.127677693963050842e-02
2.403000000000000000e+03 4.428022003173828125e+01 1.195772171020507812e+01 2.977432683110237122e-02 7.820970058441162109e+00 2.355223417282104492e+00 -1.460402831435203552e-02
2.404000000000000000e+03 6.210267639160156250e+01 -1.664852142333984375e+01 -1.462236046791076660e-02 7.763379573822021484e+00 2.324627161026000977e+00 -8.196686208248138428e-02
2.405000000000000000e+03 6.292687606811523438e+01 -2.336311912536621094e+01 -2.509399689733982086e-02 7.779947757720947266e+00 2.326456069946289062e+00 -6.967607885599136353e-02
2.406000000000000000e+03 4.318914794921875000e+01 -1.477555847167968750e+01 -2.133287489414215088e-02 7.644082546234130859e+00 2.286824941635131836e+00 -4.540535062551498413e-02
2.407000000000000000e+03 5.295779418945312500e+01 -1.579992485046386719e+01 -2.613601833581924438e-02 7.706627368927001953e+00 2.304147243499755859e+00 -8.315596729516983032e-02
2.408000000000000000e+03 5.845121383666992188e+01 -1.734184074401855469e+01 -2.402231656014919281e-02 7.740019321441650391e+00 2.314799070358276367e+00 -8.546121418476104736e-02
2.409000000000000000e+03 5.742932891845703125e+01 1.437425231933593750e+01 1.996279880404472351e-02 7.759324073791503906e+00 2.333786010742187500e+00 -6.908027827739715576e-02
2.410000000000000000e+03 5.351432418823242188e+01 -5.550131797790527344e+00 4.515068139880895615e-03 7.729446887969970703e+00 2.320188522338867188e+00 -8.484698086977005005e-02
2.411000000000000000e+03 3.727856826782226562e+01 -1.608226585388183594e+01 -2.700047567486763000e-02 7.587117195129394531e+00 2.268035173416137695e+00 -8.442988037131726742e-04
2.412000000000000000e+03 3.445191574096679688e+01 -1.730631828308105469e+01 -3.650856018066406250e-02 7.549483776092529297e+00 2.253892660140991211e+00 3.241233900189399719e-02
2.413000000000000000e+03 3.826627349853515625e+01 -1.802219390869140625e+01 -3.236918151378631592e-02 7.579330921173095703e+00 2.264088392257690430e+00 -5.931049119681119919e-03
2.414000000000000000e+03 4.354812622070312500e+01 -8.590121269226074219e+00 1.563231809996068478e-03 7.686303615570068359e+00 2.306360006332397461e+00 -4.606856033205986023e-02
2.415000000000000000e+03 6.106525421142578125e+01 -2.661792945861816406e+01 -3.547396510839462280e-02 7.767806529998779297e+00 2.319699764251708984e+00 -6.385432183742523193e-02
2.416000000000000000e+03 6.599274444580078125e+01 2.674511146545410156e+01 1.972178369760513306e-02 7.685656547546386719e+00 2.311613321304321289e+00 -4.784885793924331665e-02
2.417000000000000000e+03 3.788113021850585938e+01 3.192747306823730469e+01 9.272193908691406250e-02 8.014925003051757812e+00 2.432294130325317383e+00 -4.921439662575721741e-02
2.418000000000000000e+03 6.113745117187500000e+01 -3.229967880249023438e+01 -4.899441823363304138e-02 7.771953582763671875e+00 2.316887855529785156e+00 -4.461543262004852295e-02
2.419000000000000000e+03 6.306350708007812500e+01 -3.061877059936523438e+01 -3.527257964015007019e-02 7.792057991027832031e+00 2.327035665512084961e+00 -5.013099685311317444e-02
2.420000000000000000e+03 3.518961334228515625e+01 -2.477704620361328125e+01 -5.137097835540771484e-02 7.459924221038818359e+00 2.222566127777099609e+00 1.972538605332374573e-02
2.421000000000000000e+03 3.908265686035156250e+01 -2.020115280151367188e+01 -4.536500573158264160e-02 7.569198608398437500e+00 2.257150173187255859e+00 -1.914461329579353333e-02
2.422000000000000000e+03 2.869671058654785156e+01 -3.588849258422851562e+01 -1.128965169191360474e-01 7.161274433135986328e+00 2.114513397216796875e+00 -9.778708219528198242e-02
2.423000000000000000e+03 3.468938446044921875e+01 3.167040252685546875e+01 8.403073251247406006e-02 8.080728530883789062e+00 2.449427843093872070e+00 -7.512146234512329102e-02
2.424000000000000000e+03 3.536893081665039062e+01 2.771492385864257812e+01 -1.858497969806194305e-02 8.069359779357910156e+00 2.415232419967651367e+00 -4.083214700222015381e-02
2.425000000000000000e+03 4.991894149780273438e+01 5.989530563354492188e+00 2.516200765967369080e-02 7.764441490173339844e+00 2.336880922317504883e+00 -5.871144682168960571e-02
2.426000000000000000e+03 6.296149444580078125e+01 -2.713539886474609375e+01 -3.039661236107349396e-02 7.787118434906005859e+00 2.327016592025756836e+00 -6.140792369842529297e-02
2.427000000000000000e+03 6.162440109252929688e+01 -2.865198898315429688e+01 -3.831487894058227539e-02 7.773384094238281250e+00 2.320520877838134766e+00 -5.617165192961692810e-02
2.428000000000000000e+03 3.740831756591796875e+01 2.166828155517578125e+01 -2.541369572281837463e-02 7.977416992187500000e+00 2.385601043701171875e+00 2.509303390979766846e-02
2.429000000000000000e+03 4.020820236206054688e+01 2.735583305358886719e+01 3.427884727716445923e-02 7.973407268524169922e+00 2.402305841445922852e+00 -4.395895823836326599e-02
2.430000000000000000e+03 3.890796279907226562e+01 -3.213111114501953125e+01 -1.082663610577583313e-01 7.482166290283203125e+00 2.212169885635375977e+00 -4.773505404591560364e-02
2.431000000000000000e+03 3.358775329589843750e+01 -2.509344863891601562e+01 -4.346839338541030884e-02 7.435923099517822266e+00 2.217736482620239258e+00 4.680045321583747864e-02
2.432000000000000000e+03 5.465378952026367188e+01 3.270075225830078125e+01 6.398349255323410034e-02 7.788279533386230469e+00 2.355678796768188477e+00 -4.402440786361694336e-02
2.433000000000000000e+03 5.512848663330078125e+01 2.940692901611328125e+01 4.408014193177223206e-02 7.787060737609863281e+00 2.349342346191406250e+00 -5.094659700989723206e-02
2.434000000000000000e+03 3.572382736206054688e+01 -3.282392883300781250e+01 -9.114746004343032837e-02 7.406217098236083984e+00 2.194520950317382812e+00 -3.835970163345336914e-02
2.435000000000000000e+03 6.092288589477539062e+01 2.911998367309570312e+01 3.326454013586044312e-02 7.732146263122558594e+00 2.329623222351074219e+00 -4.838387668132781982e-02
2.436000000000000000e+03 6.182105636596679688e+01 3.276356506347656250e+01 3.855369240045547485e-02 7.717414379119873047e+00 2.326790332794189453e+00 -3.908567130565643311e-02
2.437000000000000000e+03 4.645988845825195312e+01 1.302596187591552734e+01 2.322769723832607269e-02 7.818020343780517578e+00 2.352374315261840820e+00 -3.194413334131240845e-02
2.438000000000000000e+03 4.543322372436523438e+01 1.538435935974121094e+01 2.273034304380416870e-02 7.841567993164062500e+00 2.359289646148681641e+00 -2.057239599525928497e-02
2.439000000000000000e+03 5.275281524658203125e+01 6.160683631896972656e+00 2.034926787018775940e-02 7.759171009063720703e+00 2.333856105804443359e+00 -6.966372579336166382e-02
2.440000000000000000e+03 4.742074584960937500e+01 -2.087857246398925781e+00 1.776438206434249878e-02 7.729361057281494141e+00 2.324137687683105469e+00 -6.123201549053192139e-02
2.441000000000000000e+03 4.883993911743164062e+01 -1.163867759704589844e+01 -1.032035890966653824e-02 7.694614410400390625e+00 2.305288314819335938e+00 -7.382985949516296387e-02
2.442000000000000000e+03 4.617295074462890625e+01 -8.732776641845703125e+00 -2.407224528724327683e-04 7.695341110229492188e+00 2.308530092239379883e+00 -6.140209734439849854e-02
2.443000000000000000e+03 5.008951187133789062e+01 -1.011750698089599609e+01 -8.049652911722660065e-03 7.704485416412353516e+00 2.308930635452270508e+00 -7.752493768930435181e-02
2.444000000000000000e+03 5.972342681884765625e+01 -1.058550357818603516e+00 7.093384861946105957e-03 7.743962287902832031e+00 2.325316667556762695e+00 -8.817414194345474243e-02
2.445000000000000000e+03 5.489878845214843750e+01 2.044795304536819458e-01 1.249420922249555588e-02 7.741609573364257812e+00 2.326231241226196289e+00 -8.253761380910873413e-02
2.446000000000000000e+03 5.224689483642578125e+01 -4.324531555175781250e+00 7.036391180008649826e-03 7.728040695190429688e+00 2.320523023605346680e+00 -8.090521395206451416e-02
2.447000000000000000e+03 4.745519638061523438e+01 -7.351193904876708984e+00 1.996587961912155151e-03 7.705294132232666016e+00 2.312187194824218750e+00 -6.665515899658203125e-02
2.448000000000000000e+03 5.399595260620117188e+01 7.805326938629150391e+00 2.081031538546085358e-02 7.762421131134033203e+00 2.334969520568847656e+00 -7.022967189550399780e-02
2.449000000000000000e+03 6.177636718750000000e+01 -1.873860359191894531e+01 -2.081217430531978607e-02 7.762364864349365234e+00 2.322465896606445312e+00 -8.150246739387512207e-02
2.450000000000000000e+03 6.035712814331054688e+01 1.961855506896972656e+01 1.843974739313125610e-02 7.744732856750488281e+00 2.328951835632324219e+00 -6.745874881744384766e-02
2.451000000000000000e+03 6.282430648803710938e+01 1.964044761657714844e+01 1.617606170475482941e-02 7.725904941558837891e+00 2.322624444961547852e+00 -6.581117957830429077e-02
2.452000000000000000e+03 5.964582061767578125e+01 -2.972910308837890625e+01 -4.439561069011688232e-02 7.758409500122070312e+00 2.314204216003417969e+00 -5.612393096089363098e-02
2.453000000000000000e+03 3.727791595458984375e+01 2.862151908874511719e+01 3.320809826254844666e-02 8.027811050415039062e+00 2.418305635452270508e+00 -4.626045748591423035e-02
2.454000000000000000e+03 3.935067367553710938e+01 2.982208824157714844e+01 5.795865505933761597e-02 7.995437145233154297e+00 2.416018724441528320e+00 -6.108531355857849121e-02
2.455000000000000000e+03 5.459593963623046875e+01 -3.943670511245727539e+00 5.140324588865041733e-03 7.733434677124023438e+00 2.321572542190551758e+00 -8.619973808526992798e-02
2.456000000000000000e+03 4.552972030639648438e+01 2.057634162902832031e+01 1.451159454882144928e-02 7.879133701324462891e+00 2.368093729019165039e+00 -3.660878166556358337e-02
2.457000000000000000e+03 4.344316482543945312e+01 1.980200386047363281e+01 1.342210266739130020e-02 7.892804622650146484e+00 2.371867895126342773e+00 -1.572277396917343140e-02
2.458000000000000000e+03 4.338715362548828125e+01 -1.158704471588134766e+01 -9.362902492284774780e-03 7.666291236877441406e+00 2.297078609466552734e+00 -4.628850147128105164e-02
2.459000000000000000e+03 5.607652664184570312e+01 1.570156764984130859e+01 1.987688802182674408e-02 7.769655227661132812e+00 2.336859703063964844e+00 -6.900179386138916016e-02
2.460000000000000000e+03 6.406864929199218750e+01 1.463780689239501953e+01 1.365237496793270111e-02 7.722258090972900391e+00 2.320773124694824219e+00 -6.979911029338836670e-02
2.461000000000000000e+03 5.434430313110351562e+01 -1.724444770812988281e+01 -2.490890212357044220e-02 7.715631961822509766e+00 2.307216882705688477e+00 -8.351325988769531250e-02
2.462000000000000000e+03 5.588931274414062500e+01 -1.825747871398925781e+01 -3.046248294413089752e-02 7.722960948944091797e+00 2.307749509811401367e+00 -8.373554795980453491e-02
2.463000000000000000e+03 6.002294540405273438e+01 -1.832073402404785156e+01 -2.025579847395420074e-02 7.752385139465332031e+00 2.319638729095458984e+00 -8.202640712261199951e-02
2.464000000000000000e+03 5.594961929321289062e+01 1.265882778167724609e+01 1.787861622869968414e-02 7.764191627502441406e+00 2.334620952606201172e+00 -7.198444008827209473e-02
2.465000000000000000e+03 3.973780059814453125e+01 -2.272141456604003906e+01 -4.697465151548385620e-02 7.556443214416503906e+00 2.252840518951416016e+00 -2.094575203955173492e-02
2.466000000000000000e+03 3.738810729980468750e+01 -2.530489158630371094e+01 -4.985917359590530396e-02 7.496874332427978516e+00 2.234104633331298828e+00 -7.865979336202144623e-03
2.467000000000000000e+03 5.372956085205078125e+01 -2.083114051818847656e+01 -3.697805479168891907e-02 7.707659244537353516e+00 2.301204442977905273e+00 -7.900790870189666748e-02
2.468000000000000000e+03 6.747637939453125000e+01 3.364320373535156250e+01 1.981787011027336121e-02 7.662292480468750000e+00 2.304633140563964844e+00 -2.738809213042259216e-02
2.469000000000000000e+03 5.428478240966796875e+01 1.093413066864013672e+01 2.172189019620418549e-02 7.769098281860351562e+00 2.337245941162109375e+00 -6.777038425207138062e-02
2.470000000000000000e+03 3.465206527709960938e+01 -2.976087951660156250e+01 -4.894103109836578369e-02 7.397533416748046875e+00 2.204577684402465820e+00 -1.275296509265899658e-02
2.471000000000000000e+03 6.361257934570312500e+01 2.810715866088867188e+01 2.617964334785938263e-02 7.709674358367919922e+00 2.320756196975708008e+00 -5.014625191688537598e-02
2.472000000000000000e+03 3.519610214233398438e+01 -2.279731178283691406e+01 -4.122549667954444885e-02 7.488049983978271484e+00 2.234047412872314453e+00 2.406817488372325897e-02
2.473000000000000000e+03 4.294936752319335938e+01 2.239689636230468750e+01 5.181669723242521286e-03 7.917085170745849609e+00 2.376680135726928711e+00 -2.922840975224971771e-02
2.474000000000000000e+03 4.071389770507812500e+01 2.483018112182617188e+01 4.068153444677591324e-03 7.957738876342773438e+00 2.388541936874389648e+00 -3.359396010637283325e-02
2.475000000000000000e+03 4.748513412475585938e+01 -1.021339893341064453e+01 -7.710869424045085907e-03 7.692942619323730469e+00 2.305569648742675781e+00 -6.785901635885238647e-02
2.476000000000000000e+03 5.679148101806640625e+01 -7.341130636632442474e-03 1.042429730296134949e-02 7.742685317993164062e+00 2.325932741165161133e+00 -8.540548384189605713e-02
2.477000000000000000e+03 6.082878112792968750e+01 -1.970317125320434570e+00 4.843716509640216827e-03 7.743478775024414062e+00 2.324496746063232422e+00 -8.801098167896270752e-02
2.478000000000000000e+03 5.838978195190429688e+01 -3.704575002193450928e-01 8.381676860153675079e-03 7.741674423217773438e+00 2.325016975402832031e+00 -8.749928325414657593e-02
2.479000000000000000e+03 4.969158172607421875e+01 1.254784393310546875e+01 2.198008634150028229e-02 7.798648357391357422e+00 2.346188545227050781e+00 -5.022619292140007019e-02
2.480000000000000000e+03 5.155384063720703125e+01 -1.739061546325683594e+01 -2.869500778615474701e-02 7.695489406585693359e+00 2.300038337707519531e+00 -8.037062734365463257e-02
2.481000000000000000e+03 5.277027511596679688e+01 -1.900465583801269531e+01 -3.423729538917541504e-02 7.702439785003662109e+00 2.300460815429687500e+00 -7.821661233901977539e-02
2.482000000000000000e+03 5.507369995117187500e+01 2.607814407348632812e+01 4.175207391381263733e-02 7.784754276275634766e+00 2.347951889038085938e+00 -5.929309874773025513e-02
2.483000000000000000e+03 4.291156387329101562e+01 -1.825444412231445312e+01 -3.429708629846572876e-02 7.619040012359619141e+00 2.275423049926757812e+00 -4.382408782839775085e-02
2.484000000000000000e+03 4.470272827148437500e+01 -1.328513240814208984e+01 -1.800183020532131195e-02 7.661688327789306641e+00 2.293106079101562500e+00 -5.456004291772842407e-02
2.485000000000000000e+03 4.986481475830078125e+01 -4.615620136260986328e+00 8.135532028973102570e-03 7.722335815429687500e+00 2.319141387939453125e+00 -7.423650473356246948e-02
2.486000000000000000e+03 5.112088394165039062e+01 -5.858449459075927734e+00 5.457782186567783356e-03 7.722314834594726562e+00 2.318331718444824219e+00 -7.886043190956115723e-02
2.487000000000000000e+03 5.885450363159179688e+01 1.889251327514648438e+01 2.403169684112071991e-02 7.752765178680419922e+00 2.333039045333862305e+00 -6.807845085859298706e-02
2.488000000000000000e+03 4.613714981079101562e+01 -1.173321533203125000e+01 -1.062432210892438889e-02 7.680283546447753906e+00 2.300897836685180664e+00 -6.277010589838027954e-02
2.489000000000000000e+03 6.036356353759765625e+01 2.600726890563964844e+01 3.045334480702877045e-02 7.739866733551025391e+00 2.331096172332763672e+00 -5.772246792912483215e-02
2.490000000000000000e+03 3.996266555786132812e+01 3.399290847778320312e+01 1.205873042345046997e-01 7.975333213806152344e+00 2.428776025772094727e+00 -6.137240678071975708e-02
2.491000000000000000e+03 5.802679824829101562e+01 -1.865920662879943848e+00 7.240611128509044647e-03 7.741833686828613281e+00 2.324722290039062500e+00 -8.825254440307617188e-02
2.492000000000000000e+03 6.004531478881835938e+01 -3.033383369445800781e+00 5.095141939818859100e-03 7.744563102722167969e+00 2.324897527694702148e+00 -8.978739380836486816e-02
2.493000000000000000e+03 5.833421325683593750e+01 -3.076484918594360352e+00 5.702628288418054581e-03 7.742088317871093750e+00 2.324337244033813477e+00 -8.964951336383819580e-02
2.494000000000000000e+03 5.121056365966796875e+01 7.640921115875244141e+00 2.410579100251197815e-02 7.769185066223144531e+00 2.337987184524536133e+00 -6.053364649415016174e-02
2.495000000000000000e+03 5.491345214843750000e+01 -2.052885293960571289e+00 9.929622523486614227e-03 7.738166332244873047e+00 2.324428796768188477e+00 -8.473606407642364502e-02
2.496000000000000000e+03 5.071945571899414062e+01 -6.562426686286926270e-01 1.626624166965484619e-02 7.739115238189697266e+00 2.326614379882812500e+00 -7.198714464902877808e-02
2.497000000000000000e+03 3.657159423828125000e+01 -1.864933776855468750e+01 -4.005557298660278320e-02 7.558498859405517578e+00 2.255532979965209961e+00 6.513492204248905182e-03
2.498000000000000000e+03 4.839360046386718750e+01 1.445590114593505859e+01 2.455893717706203461e-02 7.813415050506591797e+00 2.351392269134521484e+00 -4.061316698789596558e-02
2.499000000000000000e+03 4.745326995849609375e+01 1.673598289489746094e+01 1.843825168907642365e-02 7.835626602172851562e+00 2.356219530105590820e+00 -3.894727304577827454e-02
2.500000000000000000e+03 5.547693252563476562e+01 1.765627098083496094e+01 2.493807673454284668e-02 7.775091171264648438e+00 2.340008735656738281e+00 -6.538525968790054321e-02
2.501000000000000000e+03 4.517446517944335938e+01 2.284779548645019531e+01 2.580452710390090942e-02 7.887383460998535156e+00 2.373956441879272461e+00 -3.896386176347732544e-02
2.502000000000000000e+03 4.889799118041992188e+01 -1.462776184082031250e+01 -1.960003748536109924e-02 7.683775424957275391e+00 2.299252748489379883e+00 -7.383204251527786255e-02
2.503000000000000000e+03 4.896541213989257812e+01 -1.751213455200195312e+01 -2.818876877427101135e-02 7.672221183776855469e+00 2.293209791183471680e+00 -7.276837527751922607e-02
2.504000000000000000e+03 5.443109512329101562e+01 1.430726623535156250e+01 2.251085080206394196e-02 7.777573108673095703e+00 2.340025186538696289e+00 -6.522978842258453369e-02
2.505000000000000000e+03 3.742464447021484375e+01 -2.287954521179199219e+01 -5.424325913190841675e-02 7.521787643432617188e+00 2.240263223648071289e+00 -4.694866482168436050e-03
2.506000000000000000e+03 4.751126480102539062e+01 -1.323832035064697266e+01 -1.856713555753231049e-02 7.680677890777587891e+00 2.298633098602294922e+00 -6.806332617998123169e-02
2.507000000000000000e+03 4.104023742675781250e+01 -1.942558670043945312e+01 -4.036555811762809753e-02 7.596094608306884766e+00 2.266718626022338867e+00 -2.840483561158180237e-02
2.508000000000000000e+03 4.459218215942382812e+01 -1.669427490234375000e+01 -3.184477984905242920e-02 7.640377044677734375e+00 2.282559633255004883e+00 -5.362411960959434509e-02
2.509000000000000000e+03 4.609989547729492188e+01 -1.494322776794433594e+01 -2.210574224591255188e-02 7.664510726928710938e+00 2.292721509933471680e+00 -6.347284466028213501e-02
2.510000000000000000e+03 3.657815170288085938e+01 -2.786647415161132812e+01 -6.451564282178878784e-02 7.455422878265380859e+00 2.217272043228149414e+00 -8.205262012779712677e-03
2.511000000000000000e+03 5.001894760131835938e+01 -1.877443122863769531e+01 -3.803403675556182861e-02 7.678646087646484375e+00 2.292183637619018555e+00 -7.644432783126831055e-02
2.512000000000000000e+03 6.003373718261718750e+01 2.340724372863769531e+01 2.493971399962902069e-02 7.744350910186767578e+00 2.330787181854248047e+00 -6.024284288287162781e-02
2.513000000000000000e+03 5.379664230346679688e+01 -2.292936325073242188e+01 -4.172698035836219788e-02 7.704293727874755859e+00 2.298769950866699219e+00 -7.323271781206130981e-02
2.514000000000000000e+03 5.886142730712890625e+01 -2.041020774841308594e+01 -3.075544349849224091e-02 7.744492053985595703e+00 2.314121007919311523e+00 -8.107712119817733765e-02
2.515000000000000000e+03 4.511644744873046875e+01 3.185018348693847656e+01 7.868663221597671509e-02 7.904448986053466797e+00 2.394940853118896484e+00 -4.858032986521720886e-02
2.516000000000000000e+03 4.251902770996093750e+01 2.807735443115234375e+01 3.890578076243400574e-02 7.938104152679443359e+00 2.393102884292602539e+00 -5.372251942753791809e-02
2.517000000000000000e+03 5.732526779174804688e+01 -1.927190208435058594e+01 -2.578357607126235962e-02 7.733665943145751953e+00 2.312364816665649414e+00 -8.196713775396347046e-02
2.518000000000000000e+03 4.991874313354492188e+01 3.412454223632812500e+01 8.683056384325027466e-02 7.837446212768554688e+00 2.377283096313476562e+00 -3.847853094339370728e-02
2.519000000000000000e+03 4.212714767456054688e+01 -2.203188323974609375e+01 -5.016192793846130371e-02 7.587159633636474609e+00 2.261099338531494141e+00 -4.148488119244575500e-02
2.520000000000000000e+03 4.820827484130859375e+01 3.097646903991699219e+01 7.412300258874893188e-02 7.865561962127685547e+00 2.381905555725097656e+00 -5.542138591408729553e-02
2.521000000000000000e+03 4.827441787719726562e+01 -3.517672729492187500e+01 -9.729001671075820923e-02 7.643539428710937500e+00 2.263874769210815430e+00 -3.879911080002784729e-02
2.522000000000000000e+03 4.644543838500976562e+01 -3.205803680419921875e+01 -1.002005487680435181e-01 7.615550518035888672e+00 2.254605054855346680e+00 -4.803991317749023438e-02
2.523000000000000000e+03 5.779493331909179688e+01 2.627156066894531250e+01 3.240396082401275635e-02 7.761609554290771484e+00 2.338203907012939453e+00 -5.625531077384948730e-02
2.524000000000000000e+03 5.135261535644531250e+01 1.412576484680175781e+01 2.376232855021953583e-02 7.795950889587402344e+00 2.345913887023925781e+00 -5.470698699355125427e-02
2.525000000000000000e+03 4.760330200195312500e+01 2.073550796508789062e+01 2.609995380043983459e-02 7.852474689483642578e+00 2.363572359085083008e+00 -4.749369993805885315e-02
2.526000000000000000e+03 5.549655914306640625e+01 2.301932334899902344e+01 2.839011698961257935e-02 7.783540725708007812e+00 2.343579292297363281e+00 -6.257116794586181641e-02
2.527000000000000000e+03 5.990917968750000000e+01 2.129583740234375000e+01 2.530322596430778503e-02 7.745698928833007812e+00 2.331300735473632812e+00 -6.580834835767745972e-02
2.528000000000000000e+03 5.374459838867187500e+01 1.792247390747070312e+01 2.452566288411617279e-02 7.789237022399902344e+00 2.344128847122192383e+00 -6.357277184724807739e-02
2.529000000000000000e+03 5.116809082031250000e+01 1.088292026519775391e+01 2.437113411724567413e-02 7.782911777496337891e+00 2.342184782028198242e+00 -5.576887354254722595e-02
2.530000000000000000e+03 5.262892913818359375e+01 9.298141479492187500e+00 2.090358175337314606e-02 7.770648479461669922e+00 2.337465524673461914e+00 -6.548434495925903320e-02
2.531000000000000000e+03 4.819481277465820312e+01 -1.944939613342285156e+01 -4.255020990967750549e-02 7.658913612365722656e+00 2.284909009933471680e+00 -6.944882869720458984e-02
2.532000000000000000e+03 5.597526550292968750e+01 -2.271228027343750000e+01 -4.228904843330383301e-02 7.721177101135253906e+00 2.303666353225708008e+00 -7.810194790363311768e-02
2.533000000000000000e+03 5.815406799316406250e+01 -2.251372718811035156e+01 -3.378879278898239136e-02 7.740204811096191406e+00 2.311924695968627930e+00 -7.576710730791091919e-02
2.534000000000000000e+03 5.195520401000976562e+01 1.921027755737304688e+01 2.517820708453655243e-02 7.808409690856933594e+00 2.350076436996459961e+00 -5.998911336064338684e-02
2.535000000000000000e+03 4.314435958862304688e+01 -2.520187759399414062e+01 -6.511788070201873779e-02 7.581792354583740234e+00 2.255002260208129883e+00 -4.547853395342826843e-02
2.536000000000000000e+03 4.904262542724609375e+01 2.452033996582031250e+01 3.760727867484092712e-02 7.850093841552734375e+00 2.366310358047485352e+00 -5.489803850650787354e-02
2.537000000000000000e+03 5.056598663330078125e+01 2.973276710510253906e+01 6.151626259088516235e-02 7.832315921783447266e+00 2.368149757385253906e+00 -5.341992899775505066e-02
2.538000000000000000e+03 5.821804809570312500e+01 2.104461479187011719e+01 2.243384532630443573e-02 7.760396480560302734e+00 2.334849119186401367e+00 -6.519962847232818604e-02
2.539000000000000000e+03 4.499846649169921875e+01 2.834928512573242188e+01 6.040607765316963196e-02 7.903982639312744141e+00 2.389316558837890625e+00 -5.561925470829010010e-02
2.540000000000000000e+03 5.881282043457031250e+01 -2.727953147888183594e+01 -4.331145808100700378e-02 7.747708797454833984e+00 2.311319112777709961e+00 -6.294493377208709717e-02
2.541000000000000000e+03 4.749994277954101562e+01 2.797219276428222656e+01 5.208813026547431946e-02 7.875504493713378906e+00 2.378277778625488281e+00 -5.373806506395339966e-02
2.542000000000000000e+03 4.608678054809570312e+01 -2.353824996948242188e+01 -5.667637288570404053e-02 7.627241611480712891e+00 2.271169662475585938e+00 -6.144017353653907776e-02
2.543000000000000000e+03 5.090849304199218750e+01 -2.051469802856445312e+01 -4.082906618714332581e-02 7.687072277069091797e+00 2.293872833251953125e+00 -7.535289973020553589e-02
2.544000000000000000e+03 4.008612823486328125e+01 -2.575868415832519531e+01 -6.841056048870086670e-02 7.536129474639892578e+00 2.240315675735473633e+00 -3.254422545433044434e-02
2.545000000000000000e+03 4.460520935058593750e+01 -2.866781806945800781e+01 -8.104347437620162964e-02 7.590484619140625000e+00 2.252832412719726562e+00 -5.448079109191894531e-02
2.546000000000000000e+03 5.479356002807617188e+01 1.956578063964843750e+01 2.280314452946186066e-02 7.783112525939941406e+00 2.341774702072143555e+00 -6.493973731994628906e-02
2.547000000000000000e+03 5.720206069946289062e+01 1.829798126220703125e+01 1.871778815984725952e-02 7.764410495758056641e+00 2.334938526153564453e+00 -6.726098805665969849e-02
2.548000000000000000e+03 5.280178833007812500e+01 1.589598846435546875e+01 2.208328060805797577e-02 7.792797565460205078e+00 2.344464302062988281e+00 -6.288663297891616821e-02
2.549000000000000000e+03 5.113176727294921875e+01 1.711197662353515625e+01 2.450222522020339966e-02 7.809700965881347656e+00 2.350260972976684570e+00 -5.598428100347518921e-02
2.550000000000000000e+03 4.985204696655273438e+01 2.021016883850097656e+01 2.401806414127349854e-02 7.831539154052734375e+00 2.356667041778564453e+00 -5.096098780632019043e-02
2.551000000000000000e+03 4.498190689086914062e+01 2.541745567321777344e+01 2.670559100806713104e-02 7.902266979217529297e+00 2.378691911697387695e+00 -4.602947458624839783e-02
2.552000000000000000e+03 5.310154342651367188e+01 -2.554947090148925781e+01 -5.807048827409744263e-02 7.695312023162841797e+00 2.291172504425048828e+00 -6.943841278553009033e-02
2.553000000000000000e+03 4.973720932006835938e+01 -2.997682380676269531e+01 -7.736296951770782471e-02 7.660569667816162109e+00 2.274961948394775391e+00 -5.709733441472053528e-02
2.554000000000000000e+03 5.335245895385742188e+01 2.151927185058593750e+01 3.126012161374092102e-02 7.798608303070068359e+00 2.348960638046264648e+00 -6.026415526866912842e-02
2.555000000000000000e+03 5.593073272705078125e+01 -2.535960388183593750e+01 -4.721925407648086548e-02 7.723576545715332031e+00 2.302907228469848633e+00 -6.850649416446685791e-02
2.556000000000000000e+03 4.871912384033203125e+01 -2.193548774719238281e+01 -4.987108334898948669e-02 7.658120632171630859e+00 2.282474994659423828e+00 -6.762161850929260254e-02
2.557000000000000000e+03 5.569358444213867188e+01 -3.478914642333984375e+01 -7.340341806411743164e-02 7.722472190856933594e+00 2.294720649719238281e+00 -3.592447936534881592e-02
2.558000000000000000e+03 4.281062698364257812e+01 2.519045257568359375e+01 2.971022017300128937e-02 7.926648139953613281e+00 2.386907577514648438e+00 -3.905569016933441162e-02
2.559000000000000000e+03 4.990080261230468750e+01 2.712076377868652344e+01 5.032210052013397217e-02 7.842503070831298828e+00 2.367847442626953125e+00 -5.861594527959823608e-02
2.560000000000000000e+03 5.236729431152343750e+01 2.624530982971191406e+01 4.206739366054534912e-02 7.811933994293212891e+00 2.356200456619262695e+00 -5.762572586536407471e-02
2.561000000000000000e+03 5.041788864135742188e+01 -3.745056915283203125e+01 -1.096564978361129761e-01 7.664597988128662109e+00 2.266482353210449219e+00 -2.895456925034523010e-02
2.562000000000000000e+03 5.124493789672851562e+01 -3.313810348510742188e+01 -8.565118908882141113e-02 7.675700664520263672e+00 2.277014732360839844e+00 -4.252010583877563477e-02
2.563000000000000000e+03 4.624308013916015625e+01 -1.857785797119140625e+01 -3.530161827802658081e-02 7.648307323455810547e+00 2.283901691436767578e+00 -6.304672360420227051e-02
2.564000000000000000e+03 4.942702865600585938e+01 1.756033325195312500e+01 2.575152367353439331e-02 7.824919223785400391e+00 2.355201244354248047e+00 -4.931139200925827026e-02
2.565000000000000000e+03 5.316743087768554688e+01 -2.868826484680175781e+01 -6.300213187932968140e-02 7.695669651031494141e+00 2.289800405502319336e+00 -5.841197818517684937e-02
2.566000000000000000e+03 4.711048507690429688e+01 2.538170433044433594e+01 4.210448637604713440e-02 7.874977111816406250e+00 2.375124454498291016e+00 -5.439036339521408081e-02
2.567000000000000000e+03 2.137520599365234375e+01 3.456296920776367188e+01 1.956323683261871338e-01 4.191790580749511719e+00 1.316226840019226074e+00 1.871008157730102539e+00
2.568000000000000000e+03 2.193160820007324219e+01 3.469642257690429688e+01 -2.824310064315795898e-01 6.424544334411621094e+00 1.842634081840515137e+00 2.158610343933105469e+00
2.569000000000000000e+03 2.264639472961425781e+01 3.406863021850585938e+01 -8.243139982223510742e-01 8.516976356506347656e+00 2.307798862457275391e+00 1.265207409858703613e+00
2.570000000000000000e+03 2.000973129272460938e+01 3.832525634765625000e+01 -2.171136885881423950e-01 6.058306097984313965e-01 1.166150718927383423e-01 -8.120579719543457031e-01
2.571000000000000000e+03 2.187639236450195312e+01 3.853129577636718750e+01 -2.765354812145233154e-01 6.597084045410156250e+00 1.896164536476135254e+00 -2.194800615310668945e+00
2.572000000000000000e+03 7.518735504150390625e+01 4.067140197753906250e+01 2.638992154970765114e-03 7.549957752227783203e+00 2.265779018402099609e+00 -9.335719048976898193e-03
2.573000000000000000e+03 1.265015840530395508e+00 2.698620557785034180e+00 7.035444723442196846e-04 -7.737876148894429207e-04 -2.107294130837544799e-05 -2.021630789386108518e-04
2.574000000000000000e+03 3.280781936645507812e+01 4.114087295532226562e+01 1.501367092132568359e-01 8.242806434631347656e+00 2.517882823944091797e+00 2.189009450376033783e-03
2.575000000000000000e+03 2.094591903686523438e+01 3.380049133300781250e+01 1.151095926761627197e-01 3.071672439575195312e+00 9.560346007347106934e-01 1.075457215309143066e+00
2.576000000000000000e+03 2.100026130676269531e+01 3.405429840087890625e+01 2.585169374942779541e-01 3.084395647048950195e+00 1.002873778343200684e+00 1.039335846900939941e+00
2.577000000000000000e+03 2.116676521301269531e+01 3.411400222778320312e+01 1.553236842155456543e-01 3.453407764434814453e+00 1.082619428634643555e+00 1.151389241218566895e+00
2.578000000000000000e+03 2.091313171386718750e+01 3.452552795410156250e+01 1.836670935153961182e-01 2.608863830566406250e+00 8.377592563629150391e-01 1.288199424743652344e+00
2.579000000000000000e+03 2.087621879577636719e+01 3.436272048950195312e+01 2.927758991718292236e-01 2.929929256439208984e+00 9.668115377426147461e-01 1.219801783561706543e+00
2.580000000000000000e+03 2.169106292724609375e+01 3.430399322509765625e+01 -2.042326033115386963e-01 5.540942192077636719e+00 1.601012825965881348e+00 1.797823667526245117e+00
2.581000000000000000e+03 2.149427604675292969e+01 3.393806076049804688e+01 -1.608569622039794922e-01 5.206924915313720703e+00 1.513820290565490723e+00 1.467743277549743652e+00
2.582000000000000000e+03 2.438415288925170898e+00 2.678016424179077148e+00 -1.904339063912630081e-03 -1.075495267286896706e-03 -8.939502877183258533e-04 1.977244246518239379e-04
2.583000000000000000e+03 2.140739440917968750e+01 3.341328430175781250e+01 -3.425429165363311768e-01 5.110444068908691406e+00 1.430370450019836426e+00 1.091957807540893555e+00
2.584000000000000000e+03 2.228533744812011719e+01 3.433698654174804688e+01 -6.961165070533752441e-01 7.700604438781738281e+00 2.101346492767333984e+00 1.911588191986083984e+00
2.585000000000000000e+03 2.658113861083984375e+01 3.640341949462890625e+01 1.119534373283386230e+00 8.251730918884277344e+00 2.811379671096801758e+00 1.753105819225311279e-01
2.586000000000000000e+03 7.732148742675781250e+01 4.187139892578125000e+01 -1.478079590015113354e-03 7.526869297027587891e+00 2.257617235183715820e+00 3.948174882680177689e-03
2.587000000000000000e+03 7.712486267089843750e+01 4.069680404663085938e+01 -1.038789167068898678e-03 7.533854961395263672e+00 2.259844779968261719e+00 6.247492972761392593e-03
2.588000000000000000e+03 2.173467826843261719e+01 3.819716644287109375e+01 -1.592434048652648926e-01 5.978086471557617188e+00 1.745653033256530762e+00 -2.592245817184448242e+00
2.589000000000000000e+03 8.869897842407226562e+00 -3.597426223754882812e+01 -5.696761980652809143e-02 6.991296261548995972e-02 3.883601631969213486e-03 -4.964106902480125427e-02
2.590000000000000000e+03 1.064804649353027344e+01 -2.072974777221679688e+01 7.888278923928737640e-03 -3.117908956483006477e-03 1.431111013516783714e-03 -4.848591983318328857e-03
2.591000000000000000e+03 3.693870925903320312e+01 3.543202972412109375e+01 1.502738744020462036e-01 8.040947914123535156e+00 2.457366466522216797e+00 -6.507832556962966919e-03
2.592000000000000000e+03 2.116163635253906250e+01 3.789194869995117188e+01 3.815663158893585205e-01 3.315454244613647461e+00 1.109106183052062988e+00 -1.854419589042663574e+00
2.593000000000000000e+03 2.227055740356445312e+01 3.373886489868164062e+01 -7.089346647262573242e-01 7.540700435638427734e+00 2.049529790878295898e+00 1.432144165039062500e+00
2.594000000000000000e+03 2.767922639846801758e+00 -2.890970468521118164e+00 1.693734433501958847e-03 -1.064729294739663601e-04 4.761784512083977461e-04 -4.348988004494458437e-04
2.595000000000000000e+03 1.254544162750244141e+01 -3.280789375305175781e+00 4.219875670969486237e-03 -7.285682950168848038e-04 1.047392142936587334e-03 -3.128588432446122169e-04
2.596000000000000000e+03 2.031798934936523438e+01 3.817845153808593750e+01 -4.991982504725456238e-02 5.818893313407897949e-01 1.595908552408218384e-01 -8.160503506660461426e-01
2.597000000000000000e+03 2.595969963073730469e+01 3.415871429443359375e+01 4.654164016246795654e-01 8.551360130310058594e+00 2.705032825469970703e+00 -3.720550537109375000e-01
2.598000000000000000e+03 2.114891624450683594e+01 -3.363490676879882812e+01 4.132647216320037842e-01 7.424052238464355469e+00 2.351195096969604492e+00 4.916969537734985352e-01
2.599000000000000000e+03 7.817845153808593750e+01 -3.580051422119140625e+01 -3.558872733265161514e-03 7.981047630310058594e+00 2.393246650695800781e+00 -1.976893516257405281e-03
2.600000000000000000e+03 2.268708419799804688e+01 -3.500663375854492188e+01 3.569922745227813721e-01 6.901889324188232422e+00 2.177664518356323242e+00 8.846680819988250732e-02
2.601000000000000000e+03 7.234997558593750000e+01 -3.369105529785156250e+01 -1.222094055265188217e-02 7.894047260284423828e+00 2.364547967910766602e+00 -2.291227504611015320e-02
2.602000000000000000e+03 1.104419040679931641e+01 -4.097318172454833984e+00 -1.333683379925787449e-03 -9.895961266010999680e-04 -6.969838868826627731e-04 1.364336349070072174e-03
2.603000000000000000e+03 5.267684173583984375e+01 2.919421005249023438e+01 5.580091103911399841e-02 7.805913448333740234e+00 2.358514308929443359e+00 -5.345077067613601685e-02
2.604000000000000000e+03 1.030043888092041016e+01 8.759374618530273438e+00 -4.489073529839515686e-03 1.545829698443412781e-03 -8.829731959849596024e-04 5.330742569640278816e-04
2.605000000000000000e+03 1.044066810607910156e+01 2.024094200134277344e+01 3.823338309302926064e-03 2.991304732859134674e-03 2.044392982497811317e-03 4.418100696057081223e-03
2.606000000000000000e+03 2.988408279418945312e+01 -2.827731704711914062e+01 1.410261727869510651e-02 7.302628517150878906e+00 2.195019483566284180e+00 8.781828731298446655e-02
2.607000000000000000e+03 9.712856292724609375e+00 1.500863552093505859e+01 -5.025036167353391647e-03 1.807613589335232973e-04 -1.453282427974045277e-03 -1.704578404314815998e-03
2.608000000000000000e+03 9.313846588134765625e+00 1.582925224304199219e+01 6.640666630119085312e-03 -6.341210100799798965e-04 1.801963662728667259e-03 3.671872429549694061e-03
2.609000000000000000e+03 2.527449226379394531e+01 -2.776691436767578125e+01 3.245778009295463562e-02 7.252082347869873047e+00 2.185361862182617188e+00 2.094599455595016479e-01
2.610000000000000000e+03 3.628970623016357422e+00 6.968598842620849609e+00 3.990269760834053159e-05 -6.947079091332852840e-04 -1.964415569091215730e-04 -3.640014620032161474e-04
2.611000000000000000e+03 2.665603828430175781e+01 -2.792560768127441406e+01 3.945543617010116577e-02 7.252708911895751953e+00 2.187649250030517578e+00 1.615293025970458984e-01
2.612000000000000000e+03 7.673100948333740234e+00 4.963208675384521484e+00 -8.473762136418372393e-06 -8.385070832446217537e-04 -2.540942514315247536e-04 -9.555727010592818260e-04
2.613000000000000000e+03 7.049782276153564453e+00 -2.293295669555664062e+01 9.768517687916755676e-03 -5.973111838102340698e-04 2.751362044364213943e-03 3.998819272965192795e-03
2.614000000000000000e+03 3.515127182006835938e+01 -2.084321022033691406e+01 -4.851161316037178040e-02 7.516849517822265625e+00 2.240501403808593750e+00 2.459796518087387085e-02
2.615000000000000000e+03 7.203273773193359375e+01 2.870586967468261719e+01 6.346379406750202179e-03 7.625722885131835938e+00 2.289620876312255859e+00 -2.977190166711807251e-02
2.616000000000000000e+03 8.228017807006835938e+00 1.829252052307128906e+01 3.988909069448709488e-03 3.222437109798192978e-03 2.163403900340199471e-03 1.276414608582854271e-03
2.617000000000000000e+03 2.996209335327148438e+01 -2.455115699768066406e+01 -3.129427507519721985e-02 7.387397289276123047e+00 2.206830978393554688e+00 1.030658110976219177e-01
2.618000000000000000e+03 3.249317550659179688e+01 2.816650009155273438e+01 -5.615914985537528992e-02 8.121403694152832031e+00 2.419573307037353516e+00 -2.765156514942646027e-02
2.619000000000000000e+03 1.091060543060302734e+01 -5.697289466857910156e+00 -4.754372872412204742e-03 1.223242492415010929e-03 -1.059339148923754692e-03 -1.262494915863499045e-04
2.620000000000000000e+03 8.139218330383300781e+00 5.335252761840820312e+00 1.226844848133623600e-03 9.972325060516595840e-04 6.672231829725205898e-04 2.057260368019342422e-03
2.621000000000000000e+03 3.521500778198242188e+01 2.312448692321777344e+01 -5.032444000244140625e-02 8.018692970275878906e+00 2.390510559082031250e+00 3.862882405519485474e-02
2.622000000000000000e+03 6.010783004760742188e+01 -2.195440292358398438e+01 -2.781762741506099701e-02 7.755723476409912109e+00 2.318371772766113281e+00 -7.612064480781555176e-02
2.623000000000000000e+03 2.883710670471191406e+01 2.646532058715820312e+01 -1.764575988054275513e-01 8.115011215209960938e+00 2.381566047668457031e+00 1.133763790130615234e-01
2.624000000000000000e+03 5.567642593383789062e+01 -2.031394386291503906e+01 -3.031099960207939148e-02 7.720751762390136719e+00 2.307132244110107422e+00 -7.795577496290206909e-02
2.625000000000000000e+03 7.138677120208740234e+00 2.759446144104003906e+01 4.027097020298242569e-03 -3.124297829344868660e-03 2.708397514652460814e-04 1.642543124035000801e-03
2.626000000000000000e+03 4.478468894958496094e+00 3.008561325073242188e+01 5.037629744037985802e-04 2.095962874591350555e-03 7.799177546985447407e-04 1.509286114014685154e-03
2.627000000000000000e+03 3.144656562805175781e+01 -2.507156562805175781e+01 -4.512934014201164246e-02 7.405905246734619141e+00 2.208232879638671875e+00 8.340741693973541260e-02
2.628000000000000000e+03 4.754901504516601562e+01 -1.640905570983886719e+01 -3.028057701885700226e-02 7.669167995452880859e+00 2.291666269302368164e+00 -6.721142679452896118e-02
2.629000000000000000e+03 4.263195037841796875e+00 2.111254501342773438e+01 1.003100909292697906e-02 -1.680738991126418114e-03 2.505081007257103920e-03 5.213233525864779949e-04
2.630000000000000000e+03 6.140824890136718750e+01 2.085622596740722656e+01 2.149417437613010406e-02 7.733662605285644531e+00 2.326547145843505859e+00 -6.399701535701751709e-02
2.631000000000000000e+03 9.185990333557128906e+00 -1.134755802154541016e+01 3.576234215870499611e-03 1.779335667379200459e-03 1.606671023182570934e-03 1.940314425155520439e-03
2.632000000000000000e+03 3.364261245727539062e+01 2.261467742919921875e+01 -6.878441572189331055e-02 8.023630142211914062e+00 2.386453866958618164e+00 6.127467378973960876e-02
2.633000000000000000e+03 5.644364547729492188e+01 2.050034332275390625e+01 2.869106270372867584e-02 7.771586418151855469e+00 2.340083122253417969e+00 -6.425393372774124146e-02
2.634000000000000000e+03 4.880522251129150391e+00 1.420565891265869141e+01 4.892979282885789871e-03 6.308472948148846626e-04 1.657148008234798908e-03 -1.396506675519049168e-03
2.635000000000000000e+03 6.230651855468750000e+00 1.342607879638671875e+01 2.566830487921833992e-03 2.939206315204501152e-03 1.651811064220964909e-03 6.451492081396281719e-04
2.636000000000000000e+03 7.305014038085937500e+01 -1.327063846588134766e+01 -2.428389154374599457e-03 7.817443370819091797e+00 2.344504594802856445e+00 -5.031136795878410339e-02
2.637000000000000000e+03 5.557053375244140625e+01 -1.529644870758056641e+01 -2.213293313980102539e-02 7.723390579223632812e+00 2.310377359390258789e+00 -8.601833134889602661e-02
2.638000000000000000e+03 6.140221023559570312e+01 1.804639244079589844e+01 1.992406882345676422e-02 7.736200809478759766e+00 2.326837539672851562e+00 -6.840991228818893433e-02
2.639000000000000000e+03 5.287413120269775391e+00 8.542080879211425781e+00 8.928762399591505527e-04 3.558447642717510462e-04 3.746162983588874340e-04 2.025750291068106890e-04
2.640000000000000000e+03 3.084271621704101562e+01 2.330724525451660156e+01 -1.082228571176528931e-01 8.041069984436035156e+00 2.379854202270507812e+00 1.109187677502632141e-01
2.641000000000000000e+03 2.708910751342773438e+01 -7.043738365173339844e+00 -1.618770509958267212e-02 7.666692733764648438e+00 2.295151472091674805e+00 1.866421997547149658e-01
2.642000000000000000e+03 5.127114486694335938e+01 -8.627099037170410156e+00 -1.860538613982498646e-03 7.714831829071044922e+00 2.313891410827636719e+00 -8.093608170747756958e-02
2.643000000000000000e+03 6.450426483154296875e+01 -1.654874038696289062e+01 -1.417220756411552429e-02 7.779258251190185547e+00 2.329525947570800781e+00 -7.941329479217529297e-02
2.644000000000000000e+03 3.603993606567382812e+01 -1.434230136871337891e+01 -1.863258890807628632e-02 7.593699455261230469e+00 2.272520065307617188e+00 2.017399668693542480e-02
2.645000000000000000e+03 2.996147727966308594e+01 2.336275482177734375e+01 -1.211256012320518494e-01 8.034570693969726562e+00 2.374033451080322266e+00 1.313231587409973145e-01
2.646000000000000000e+03 6.911811828613281250e+01 -1.340081691741943359e+01 -5.304038990288972855e-03 7.795535564422607422e+00 2.337069511413574219e+00 -6.897014379501342773e-02
2.647000000000000000e+03 3.134950637817382812e+01 -4.647012233734130859e+00 6.440551020205020905e-03 7.714409351348876953e+00 2.316254854202270508e+00 7.921478152275085449e-02
2.648000000000000000e+03 3.066779327392578125e+01 -1.900356173515319824e+00 2.383016236126422882e-02 7.759210586547851562e+00 2.334912300109863281e+00 7.352637499570846558e-02
2.649000000000000000e+03 7.072031402587890625e+01 -1.184944343566894531e+01 -2.810495207086205482e-03 7.798364639282226562e+00 2.338666200637817383e+00 -6.245580315589904785e-02
2.650000000000000000e+03 5.759361648559570312e+01 8.312860488891601562e+00 1.535792183130979538e-02 7.752128601074218750e+00 2.330245971679687500e+00 -7.660607993602752686e-02
2.651000000000000000e+03 6.725687408447265625e+01 -1.372280216217041016e+01 -6.071005482226610184e-03 7.788372993469238281e+00 2.334690570831298828e+00 -7.420288771390914917e-02
2.652000000000000000e+03 6.423930358886718750e+01 -1.325102424621582031e+01 -7.527634035795927048e-03 7.767926692962646484e+00 2.328119754791259766e+00 -8.384234458208084106e-02
2.653000000000000000e+03 6.591773223876953125e+01 -1.206026935577392578e+01 -5.235429387539625168e-03 7.776083946228027344e+00 2.331254720687866211e+00 -7.887525856494903564e-02
2.654000000000000000e+03 6.411698913574218750e+01 -1.191356945037841797e+01 -7.426655385643243790e-03 7.766114234924316406e+00 2.327606439590454102e+00 -8.322361856698989868e-02
2.655000000000000000e+03 5.340989303588867188e+01 -2.738996267318725586e+00 1.016236934810876846e-02 7.735426902770996094e+00 2.323676824569702148e+00 -8.167895674705505371e-02
2.656000000000000000e+03 6.834096527099609375e+01 -1.267163658142089844e+01 -4.399015568196773529e-03 7.788165092468261719e+00 2.335129737854003906e+00 -7.214128226041793823e-02
2.657000000000000000e+03 3.624863815307617188e+01 1.072136497497558594e+01 4.895961657166481018e-02 7.849762916564941406e+00 2.369616746902465820e+00 6.127684935927391052e-02
2.658000000000000000e+03 6.618871307373046875e+01 -1.080569362640380859e+01 -4.019185900688171387e-03 7.772131443023681641e+00 2.330433607101440430e+00 -7.964823395013809204e-02
2.659000000000000000e+03 4.855619049072265625e+01 -8.619529604911804199e-01 1.975110732018947601e-02 7.737126350402832031e+00 2.327063322067260742e+00 -6.298587471246719360e-02
2.660000000000000000e+03 4.974754714965820312e+01 -2.045983791351318359e+00 1.422664336860179901e-02 7.731868743896484375e+00 2.323828697204589844e+00 -7.134395092725753784e-02
2.661000000000000000e+03 3.338060379028320312e+01 1.049165916442871094e+01 6.130984425544738770e-02 7.867475986480712891e+00 2.378635644912719727e+00 9.630340337753295898e-02
2.662000000000000000e+03 3.535255432128906250e+01 -1.661472916603088379e+00 3.668157383799552917e-02 7.736856460571289062e+00 2.332061290740966797e+00 2.327050268650054932e-02
2.663000000000000000e+03 6.741883087158203125e+01 -3.061066150665283203e+00 1.886812038719654083e-03 7.753644466400146484e+00 2.326659440994262695e+00 -7.673472911119461060e-02
2.664000000000000000e+03 3.960113525390625000e+01 9.025104045867919922e-01 4.101328551769256592e-02 7.747929573059082031e+00 2.336682796478271484e+00 -9.150649420917034149e-03
2.665000000000000000e+03 6.557826232910156250e+01 -9.758143424987792969e+00 -4.364138003438711166e-03 7.767541885375976562e+00 2.328953266143798828e+00 -8.240126818418502808e-02
2.666000000000000000e+03 6.428996276855468750e+01 -9.238379478454589844e+00 -2.812911989167332649e-03 7.761177539825439453e+00 2.327509403228759766e+00 -8.422372490167617798e-02
2.667000000000000000e+03 6.603638458251953125e+01 -7.147522926330566406e+00 -8.022106485441327095e-04 7.762312412261962891e+00 2.328453063964843750e+00 -8.188471198081970215e-02
2.668000000000000000e+03 5.909629821777343750e+01 -2.231447219848632812e+00 5.756283644586801529e-03 7.741891860961914062e+00 2.324294567108154297e+00 -8.831429481506347656e-02
2.669000000000000000e+03 1.426702117919921875e+01 1.252673983573913574e+00 9.644546080380678177e-04 -8.738628093851730227e-05 2.631205134093761444e-04 6.481163436546921730e-04
2.670000000000000000e+03 1.462149238586425781e+01 1.164639949798583984e+00 -1.924066222272813320e-03 -1.516201009508222342e-04 -6.227059056982398033e-04 2.872399636544287205e-04
2.671000000000000000e+03 1.332876110076904297e+01 1.093653082847595215e+00 3.763818240258842707e-04 3.654510073829442263e-04 2.225498465122655034e-04 4.259224224369972944e-04
2.672000000000000000e+03 1.406522464752197266e+01 3.572364747524261475e-01 2.608997456263750792e-04 1.536101335659623146e-04 1.243529695784673095e-04 2.417400537524372339e-05
2.673000000000000000e+03 1.336003494262695312e+01 3.511472940444946289e-01 -1.417482126271352172e-04 -3.047748759854584932e-04 -1.339569280389696360e-04 -1.435921440133824944e-04
2.674000000000000000e+03 1.476313018798828125e+01 5.016638040542602539e-01 -1.000161937554366887e-04 -1.042799267452210188e-04 -6.128883251221850514e-05 -5.596405753749422729e-05
2.675000000000000000e+03 1.414069938659667969e+01 9.322270154953002930e-01 -1.238816883414983749e-03 4.217417736072093248e-04 -2.451225300319492817e-04 -4.454875888768583536e-04
2.676000000000000000e+03 1.384797477722167969e+01 1.187353014945983887e+00 -3.790670307353138924e-04 -7.602713594678789377e-05 -1.365282514598220587e-04 -4.029576666653156281e-04
2.677000000000000000e+03 1.112969017028808594e+01 3.708996772766113281e-01 1.807019725674763322e-04 5.376623012125492096e-04 2.155092806788161397e-04 3.255902629462070763e-05
2.678000000000000000e+03 1.113907623291015625e+01 1.110847473144531250e+00 -6.000144639983773232e-04 -4.786863864865154028e-04 -3.236102638766169548e-04 -9.444110037293285131e-05
2.679000000000000000e+03 1.263169097900390625e+01 3.451149165630340576e-01 1.466974790673702955e-04 4.543368995655328035e-04 1.803103223210200667e-04 6.934659177204594016e-05
2.680000000000000000e+03 1.037880802154541016e+01 3.837110698223114014e-01 -2.047417947323992848e-04 -6.116540753282606602e-04 -2.449187741149216890e-04 -8.081772830337285995e-05
2.681000000000000000e+03 1.188065242767333984e+01 3.580341637134552002e-01 -1.560557429911568761e-04 -5.128180491738021374e-04 -2.006621361942961812e-04 -3.330430990899913013e-05
2.682000000000000000e+03 1.264514160156250000e+01 1.084993243217468262e+00 -3.497797588352113962e-04 -4.547698772512376308e-04 -2.413648908259347081e-04 -1.858667092164978385e-04
2.683000000000000000e+03 1.038616180419921875e+01 1.123693704605102539e+00 6.321875844150781631e-04 5.479874671436846256e-04 3.540525212883949280e-04 2.163372118957340717e-04
2.684000000000000000e+03 1.189207077026367188e+01 1.097947120666503906e+00 4.578411753755062819e-04 4.769915249198675156e-04 2.804498071782290936e-04 5.038321251049637794e-05
2.685000000000000000e+03 9.625078201293945312e+00 3.871397972106933594e-01 1.912062580231577158e-04 7.802351028658449650e-04 2.914323995355516672e-04 1.434178848285228014e-04
2.686000000000000000e+03 8.868724822998046875e+00 3.828192353248596191e-01 -2.024941786658018827e-04 -9.995489381253719330e-04 -3.606129612307995558e-04 -1.860867778304964304e-04
2.687000000000000000e+03 9.644926071166992188e+00 1.127139806747436523e+00 -6.000317516736686230e-04 -6.966567598283290863e-04 -3.890065418090671301e-04 -3.469826187938451767e-04
2.688000000000000000e+03 8.112174034118652344e+00 3.804100155830383301e-01 1.730750955175608397e-04 1.175946556031703949e-03 4.047064867336302996e-04 1.932016166392713785e-04
2.689000000000000000e+03 7.356014251708984375e+00 3.793691694736480713e-01 -1.928747078636661172e-04 -1.248342217877507210e-03 -4.323650791775435209e-04 -1.759708829922601581e-04
2.690000000000000000e+03 5.843623161315917969e+00 3.767499327659606934e-01 -1.724896574160084128e-04 -9.812258649617433548e-04 -3.461146552581340075e-04 -6.842249422334134579e-05
2.691000000000000000e+03 5.088051319122314453e+00 3.757717311382293701e-01 9.586715168552473187e-05 6.694509647786617279e-04 2.295954327564686537e-04 -3.152611316181719303e-05
2.692000000000000000e+03 3.576755046844482422e+00 3.680583238601684570e-01 1.469105045543983579e-04 -1.894454953799140640e-06 4.350481685833074152e-05 -1.339278824161738157e-04
2.693000000000000000e+03 2.822042465209960938e+00 3.613462746143341064e-01 -2.662971673998981714e-04 1.353407569695264101e-04 -3.928692240151576698e-05 7.562579412478953600e-05
2.694000000000000000e+03 2.068703651428222656e+00 3.577998280525207520e-01 1.771584211383014917e-04 -1.296856062253937125e-04 1.424184665665961802e-05 -4.151821121922694147e-05
2.695000000000000000e+03 2.358754634857177734e+00 1.097799897193908691e+00 -6.743206758983433247e-04 -7.427517994074150920e-05 -2.245787618448957801e-04 -1.002035496640019119e-04
2.696000000000000000e+03 1.327708005905151367e+00 3.658417165279388428e-01 9.293999028159305453e-06 1.983967667911201715e-04 6.230722647160291672e-05 2.052284253295511007e-04
2.697000000000000000e+03 1.644779324531555176e+00 1.105841755867004395e+00 3.248088178224861622e-04 3.370217455085366964e-04 1.985491689993068576e-04 1.120252345572225749e-04
2.698000000000000000e+03 6.509408354759216309e-01 3.937322795391082764e-01 -8.151569636538624763e-04 -6.986667867749929428e-04 -4.541471425909548998e-04 -8.520692936144769192e-04
2.699000000000000000e+03 3.482567369937896729e-01 9.569563269615173340e-01 1.133428188040852547e-03 7.548364810645580292e-04 5.664794007316231728e-04 3.045909106731414795e-04
2.700000000000000000e+03 3.085073232650756836e+00 1.101346254348754883e+00 7.291928050108253956e-04 6.948818918317556381e-05 2.396042982582002878e-04 -6.984011270105838776e-05
2.701000000000000000e+03 3.812765598297119141e+00 1.108058333396911621e+00 -5.860049277544021606e-04 -2.455411886330693960e-04 -2.494638320058584213e-04 2.765882236417382956e-04
2.702000000000000000e+03 4.332499980926513672e+00 3.732680678367614746e-01 -1.554564078105613589e-04 -2.998773125000298023e-04 -1.366001088172197342e-04 1.140436361311003566e-04
2.703000000000000000e+03 5.998572826385498047e+00 1.116749882698059082e+00 3.234953619539737701e-04 8.035012870095670223e-04 3.380989946890622377e-04 -1.487839181208983064e-04
2.704000000000000000e+03 6.600036144256591797e+00 3.784387111663818359e-01 1.532746973680332303e-04 1.179698854684829712e-03 3.998920728918164968e-04 1.318094291491433978e-04
2.705000000000000000e+03 8.186062812805175781e+00 1.120409965515136719e+00 -4.690944624599069357e-04 -8.975960081443190575e-04 -4.100071382708847523e-04 -2.804441319312900305e-04
2.706000000000000000e+03 8.915593147277832031e+00 1.122819185256958008e+00 5.089494516141712666e-04 8.192714885808527470e-04 3.984662762377411127e-04 3.497668076306581497e-04
2.707000000000000000e+03 7.456923484802246094e+00 1.119369149208068848e+00 4.034705343656241894e-04 9.290595771744847298e-04 3.997590392827987671e-04 1.513871975475922227e-04
2.708000000000000000e+03 6.727965354919433594e+00 1.118438720703125000e+00 -3.828965709544718266e-04 -9.011921356432139874e-04 -3.852266236208379269e-04 -6.492312422778923064e-06
2.709000000000000000e+03 5.270021438598632812e+00 1.115771770477294922e+00 -3.159128827974200249e-04 -6.673152092844247818e-04 -2.949684276245534420e-04 2.612133685033768415e-04
2.710000000000000000e+03 4.541490077972412109e+00 1.113268017768859863e+00 3.524834755808115005e-04 4.835512663703411818e-04 2.508104080334305763e-04 -3.398307308088988066e-04
2.711000000000000000e+03 9.950323700904846191e-01 1.133732318878173828e+00 3.479448787402361631e-04 -1.008420484140515327e-03 -1.981426903512328863e-04 2.332657604711130261e-04
2.712000000000000000e+03 7.951600551605224609e+00 -3.791473805904388428e-01 2.380454679951071739e-04 1.176389981992542744e-03 4.243306466378271580e-04 -1.680286222836002707e-04
2.713000000000000000e+03 8.812386512756347656e+00 -1.121279358863830566e+00 6.148886750452220440e-04 7.888550171628594398e-04 4.211231134831905365e-04 -2.312970318598672748e-04
2.714000000000000000e+03 9.587816238403320312e+00 -3.863115906715393066e-01 2.117648691637441516e-04 9.527553338557481766e-04 3.493560652714222670e-04 -1.362867478746920824e-04
2.715000000000000000e+03 7.132064342498779297e+00 -3.779651820659637451e-01 -2.752032596617937088e-04 -1.212270813994109631e-03 -4.462422220967710018e-04 2.008079027291387320e-04
2.716000000000000000e+03 6.306247234344482422e+00 -3.772793114185333252e-01 1.976530038518831134e-04 1.185608794912695885e-03 4.149785381741821766e-04 -1.787462970241904259e-04
2.717000000000000000e+03 5.442752361297607422e+00 -3.835102021694183350e-01 -1.042735239025205374e-04 -1.011297223158180714e-03 -3.346712037455290556e-04 8.933341632655356079e-06
2.718000000000000000e+03 4.552286148071289062e+00 -3.399353623390197754e-01 2.302900393260642886e-04 9.383216383866965771e-04 3.505834902171045542e-04 8.702551713213324547e-05
2.719000000000000000e+03 4.371328830718994141e+00 -8.708365559577941895e-01 -1.248409738764166832e-03 -4.477462498471140862e-04 -5.088467733003199100e-04 -3.801466955337673426e-04
2.720000000000000000e+03 2.785328388214111328e+00 -7.796061038970947266e-01 -8.093303767964243889e-04 4.485159297473728657e-04 -1.082443341147154570e-04 -1.018345123156905174e-03
2.721000000000000000e+03 1.180722951889038086e+00 -3.608860373497009277e-01 1.038393354974687099e-03 -2.314328303327783942e-04 2.420881646685302258e-04 1.249783381354063749e-04
2.722000000000000000e+03 4.099212884902954102e-01 -5.526853203773498535e-01 6.633327302552061155e-06 2.620538289193063974e-04 8.060615073191002011e-05 1.531314046587795019e-04
2.723000000000000000e+03 7.477942705154418945e-01 -1.100885987281799316e+00 -3.243895713239908218e-03 -3.815618401858955622e-04 -1.087637268938124180e-03 -5.621360032819211483e-04
2.724000000000000000e+03 9.597747802734375000e+00 -1.126311540603637695e+00 -5.871181492693722248e-04 -7.656523375771939754e-04 -4.058311460539698601e-04 3.132588753942400217e-04
2.725000000000000000e+03 8.026608467102050781e+00 -1.119147419929504395e+00 -6.593358702957630157e-04 -7.796494173817336559e-04 -4.316956037655472755e-04 2.027754235314205289e-04
2.726000000000000000e+03 7.239610195159912109e+00 -1.117965221405029297e+00 6.285884883254766464e-04 7.270553614944219589e-04 4.066931433044373989e-04 -1.505002437625080347e-04
2.727000000000000000e+03 6.446331024169921875e+00 -1.117279291152954102e+00 -5.299701006151735783e-04 -6.131217814981937408e-04 -3.429275820963084698e-04 7.965124677866697311e-05
2.728000000000000000e+03 5.615375041961669922e+00 -1.123510241508483887e+00 2.696098526939749718e-04 4.450044943951070309e-04 2.143843012163415551e-04 1.426491326128598303e-05
2.729000000000000000e+03 4.879715442657470703e+00 -1.221276640892028809e+00 7.562455721199512482e-05 3.759015817195177078e-05 3.396441388758830726e-05 2.785526448860764503e-04
2.730000000000000000e+03 4.223337173461914062e+00 -1.290901184082031250e+00 1.297922804951667786e-03 -3.437862324062734842e-04 2.862409746740013361e-04 -3.747597929759649560e-06
2.731000000000000000e+03 3.489140987396240234e+00 -1.263193726539611816e+00 -1.356608467176556587e-03 1.088270873879082501e-04 -3.743344277609139681e-04 -6.147642270661890507e-04
2.732000000000000000e+03 2.723763942718505859e+00 -1.258556365966796875e+00 6.618770421482622623e-04 5.461134715005755424e-04 3.623971715569496155e-04 1.036075991578400135e-03
2.733000000000000000e+03 1.357383847236633301e+00 -1.202877521514892578e+00 3.159412182867527008e-03 1.238702447153627872e-03 1.319434377364814281e-03 4.300769651308655739e-04
2.734000000000000000e+03 8.769917488098144531e+00 -3.812793791294097900e-01 -2.361604856560006738e-04 -1.095110317692160606e-03 -3.993812133558094501e-04 1.481682847952470183e-04
2.735000000000000000e+03 3.581377506256103516e+00 -7.854385375976562500e-01 9.543233318254351616e-04 1.943713141372427344e-04 3.446083865128457546e-04 5.860733799636363983e-04
2.736000000000000000e+03 3.695749998092651367e+00 -2.822447717189788818e-01 -2.755440364126116037e-04 -9.372494532726705074e-04 -3.638380439952015877e-04 -2.642586769070476294e-04
2.737000000000000000e+03 2.864297151565551758e+00 -2.810497581958770752e-01 4.904085071757435799e-04 7.630251930095255375e-04 3.760301042348146439e-04 3.199468774255365133e-04
2.738000000000000000e+03 1.994235515594482422e+00 -3.319245874881744385e-01 -1.140683452831581235e-04 -3.259521035943180323e-04 -1.320061419392004609e-04 -5.316047463566064835e-04
2.739000000000000000e+03 1.981270551681518555e+00 -1.274680376052856445e+00 -7.021137862466275692e-04 -1.440281281247735023e-03 -6.427185144275426865e-04 -1.006540027447044849e-03
2.740000000000000000e+03 1.973554253578186035e+00 -8.466050028800964355e-01 -1.038463087752461433e-03 -6.580163608305156231e-04 -5.089438054710626602e-04 1.549022621475160122e-03
2.741000000000000000e+03 1.332448291778564453e+01 -3.621845245361328125e-01 -4.427604144439101219e-04 3.794808872044086456e-04 -1.898386108223348856e-05 -3.000707692990545183e-05
2.742000000000000000e+03 1.426397991180419922e+01 -1.317608714103698730e+00 1.318183611147105694e-03 6.928369984962046146e-04 6.033061654306948185e-04 4.550783778540790081e-04
2.743000000000000000e+03 1.327361392974853516e+01 -1.248556852340698242e+00 6.153911817818880081e-04 2.955185482278466225e-04 2.732729190029203892e-04 -1.034248969517648220e-03
2.744000000000000000e+03 1.480296707153320312e+01 -1.047354817390441895e+00 -9.699785732664167881e-04 -6.155031733214855194e-04 -4.756445123348385096e-04 -3.813969378825277090e-04
2.745000000000000000e+03 1.356446647644042969e+01 -7.579438090324401855e-01 5.912731867283582687e-04 5.057641465100459754e-05 1.925548713188618422e-04 9.217675542458891869e-04
2.746000000000000000e+03 1.393659019470214844e+01 -3.302382230758666992e-01 -8.929304021876305342e-05 -3.596351307351142168e-04 -1.346784556517377496e-04 -2.900217950809746981e-04
2.747000000000000000e+03 1.449034786224365234e+01 -4.399540424346923828e-01 8.134584059007465839e-04 6.814710795879364014e-04 4.484788514673709869e-04 8.653776603750884533e-04
2.748000000000000000e+03 1.380024147033691406e+01 -1.352263331413269043e+00 -1.728905830532312393e-03 -1.988469557545613497e-05 -5.246371729299426079e-04 4.732987144961953163e-04
2.749000000000000000e+03 1.402595424652099609e+01 -9.610455632209777832e-01 -1.452455413527786732e-03 -1.070079379132948816e-04 -4.678390105254948139e-04 -1.190989860333502293e-03
2.750000000000000000e+03 1.185737037658691406e+01 -1.162281751632690430e+00 5.156366387382149696e-04 3.883964382112026215e-04 2.712099230848252773e-04 -4.655041557271033525e-04
2.751000000000000000e+03 1.112013435363769531e+01 -4.102526009082794189e-01 2.005045098485425115e-04 5.669947131536900997e-04 2.302497741766273975e-04 -1.514723116997629404e-04
2.752000000000000000e+03 1.261753940582275391e+01 -4.348734915256500244e-01 2.194875996792688966e-04 -1.724570465739816427e-04 1.410916229360736907e-05 -2.685195649974048138e-04
2.753000000000000000e+03 1.037124824523925781e+01 -3.971002995967864990e-01 -2.135842514690011740e-04 -8.202844182960689068e-04 -3.101605980191379786e-04 1.450512354495003819e-04
2.754000000000000000e+03 1.036389350891113281e+01 -1.137082934379577637e+00 6.048711948096752167e-04 6.906782509759068489e-04 3.886648337356746197e-04 -4.122623649891465902e-04
2.755000000000000000e+03 1.260408973693847656e+01 -1.174751639366149902e+00 -5.322067881934344769e-04 -3.288558509666472673e-04 -2.583187888376414776e-04 6.120397010818123817e-04
2.756000000000000000e+03 1.111074829101562500e+01 -1.150200366973876953e+00 -6.163719226606190205e-04 -4.982244572602212429e-04 -3.343789139762520790e-04 4.467031976673752069e-04
2.757000000000000000e+03 1.186878871917724609e+01 -4.223687946796417236e-01 -1.587420410942286253e-04 -2.495952940080314875e-04 -1.225012092618271708e-04 2.164045290555804968e-04
2.758000000000000000e+03 2.222411537170410156e+01 3.637402343750000000e+01 1.630313110351562500e+01 5.005828857421875000e+00 6.392688274383544922e+00 7.887440681457519531e+00
2.759000000000000000e+03 2.223140907287597656e+01 3.635599517822265625e+01 1.321670341491699219e+01 1.207618141174316406e+01 7.587865829467773438e+00 1.180562114715576172e+01
2.760000000000000000e+03 2.224207115173339844e+01 3.633972930908203125e+01 1.117869091033935547e+01 1.781024932861328125e+01 8.696681976318359375e+00 1.261198616027832031e+01
2.761000000000000000e+03 2.225569152832031250e+01 3.632584762573242188e+01 8.847850799560546875e+00 2.335438919067382812e+01 9.660672187805175781e+00 1.197903347015380859e+01
2.762000000000000000e+03 2.227175331115722656e+01 3.631488037109375000e+01 7.113717079162597656e+00 2.771914291381835938e+01 1.044985771179199219e+01 1.016896915435791016e+01
2.763000000000000000e+03 2.228963851928710938e+01 3.630724716186523438e+01 5.966046810150146484e+00 3.102984809875488281e+01 1.109876823425292969e+01 7.375881195068359375e+00
2.764000000000000000e+03 2.230866813659667969e+01 3.630323791503906250e+01 5.727756023406982422e+00 3.284163284301757812e+01 1.157081604003906250e+01 4.194189548492431641e+00
2.765000000000000000e+03 2.232811546325683594e+01 3.630300521850585938e+01 6.337002754211425781e+00 3.318004226684570312e+01 1.185511302947998047e+01 9.875654578208923340e-01
2.766000000000000000e+03 2.234723472595214844e+01 3.630656051635742188e+01 7.923369884490966797e+00 3.231534957885742188e+01 1.207161617279052734e+01 -1.753305673599243164e+00
2.767000000000000000e+03 2.236529922485351562e+01 3.631376266479492188e+01 9.827853202819824219e+00 3.043836021423339844e+01 1.207986450195312500e+01 -3.727009296417236328e+00
2.768000000000000000e+03 2.238161849975585938e+01 3.632434463500976562e+01 1.231740760803222656e+01 2.815205001831054688e+01 1.214083671569824219e+01 -4.745865821838378906e+00
2.769000000000000000e+03 2.239556694030761719e+01 3.633789443969726562e+01 1.423854064941406250e+01 2.565178871154785156e+01 1.196709918975830078e+01 -4.924894809722900391e+00
2.770000000000000000e+03 2.240661430358886719e+01 3.635390090942382812e+01 1.626453971862792969e+01 2.366312026977539062e+01 1.197829818725585938e+01 -4.156235694885253906e+00
2.771000000000000000e+03 2.241433715820312500e+01 3.637174987792968750e+01 1.746237373352050781e+01 2.199868392944335938e+01 1.183831691741943359e+01 -2.941779375076293945e+00
2.772000000000000000e+03 2.241844367980957031e+01 3.639075851440429688e+01 1.817862319946289062e+01 2.108054924011230469e+01 1.177775192260742188e+01 -1.238287448883056641e+00
2.773000000000000000e+03 2.241877365112304688e+01 3.641020202636718750e+01 1.816915512084960938e+01 2.087046813964843750e+01 1.171188735961914062e+01 4.060476720333099365e-01
2.774000000000000000e+03 2.241531372070312500e+01 3.642934036254882812e+01 1.759926033020019531e+01 2.173768424987792969e+01 1.180108356475830078e+01 2.160416603088378906e+00
2.775000000000000000e+03 2.240820121765136719e+01 3.644744110107421875e+01 1.618247604370117188e+01 2.267985916137695312e+01 1.165869998931884766e+01 3.568620204925537109e+00
2.776000000000000000e+03 2.239770317077636719e+01 3.646380996704101562e+01 1.460068130493164062e+01 2.474648284912109375e+01 1.180414962768554688e+01 4.299850940704345703e+00
2.777000000000000000e+03 2.238422012329101562e+01 3.647782897949218750e+01 1.223657131195068359e+01 2.687641906738281250e+01 1.173389720916748047e+01 4.435826778411865234e+00
2.778000000000000000e+03 2.236827087402343750e+01 3.648895645141601562e+01 9.936977386474609375e+00 2.907617378234863281e+01 1.170394515991210938e+01 3.633631467819213867e+00
2.779000000000000000e+03 2.235046195983886719e+01 3.649676895141601562e+01 7.679530143737792969e+00 3.077839279174804688e+01 1.153737640380859375e+01 1.972832798957824707e+00
2.780000000000000000e+03 2.233147239685058594e+01 3.650096893310546875e+01 5.981391906738281250e+00 3.176074218750000000e+01 1.132264041900634766e+01 -5.369984507560729980e-01
2.781000000000000000e+03 2.231203079223632812e+01 3.650139617919921875e+01 4.895932197570800781e+00 3.150871849060058594e+01 1.092139530181884766e+01 -3.466224193572998047e+00
2.782000000000000000e+03 2.229287528991699219e+01 3.649803161621093750e+01 4.453715324401855469e+00 2.983350372314453125e+01 1.028616619110107422e+01 -6.493787765502929688e+00
2.783000000000000000e+03 2.227474021911621094e+01 3.649100875854492188e+01 5.170611381530761719e+00 2.710732460021972656e+01 9.683381080627441406e+00 -9.031763076782226562e+00
2.784000000000000000e+03 2.225831604003906250e+01 3.648059082031250000e+01 5.728173732757568359e+00 2.281351470947265625e+01 8.562506675720214844e+00 -1.104775142669677734e+01
2.785000000000000000e+03 2.224423217773437500e+01 3.646718215942382812e+01 7.068292140960693359e+00 1.857243728637695312e+01 7.692218780517578125e+00 -1.181063938140869141e+01
2.786000000000000000e+03 2.223302650451660156e+01 3.645128631591796875e+01 7.640378952026367188e+00 1.318161773681640625e+01 6.246598720550537109e+00 -1.182402515411376953e+01
2.787000000000000000e+03 2.222512435913085938e+01 3.643351745605468750e+01 8.352262496948242188e+00 8.860831260681152344e+00 5.163928031921386719e+00 -1.059637928009033203e+01
2.788000000000000000e+03 2.222082901000976562e+01 3.641455078125000000e+01 7.986130714416503906e+00 4.111145973205566406e+00 3.629182815551757812e+00 -8.514199256896972656e+00
2.789000000000000000e+03 2.222030448913574219e+01 3.639510726928710938e+01 7.304141521453857422e+00 1.289030671119689941e+00 2.577951669692993164e+00 -3.625716209411621094e+00
