# el_label, x, y, sXX, sYY, sZZ, sXY
1.000000000000000000e+00 7.711126708984375000e+01 3.200684356689453125e+01 3.102486190588275849e-14 5.904731727440076794e-14 2.702165375408505793e-14 -1.591275125990138095e-13
2.000000000000000000e+00 7.628588867187500000e+01 3.201039123535156250e+01 -2.151724233360498284e-14 3.652927163229693908e-14 4.503608959014176322e-15 7.005614350349270714e-14
3.000000000000000000e+00 7.876215362548828125e+01 3.125287437438964844e+01 6.154932385158198849e-14 1.636311257931927221e-13 6.755413692631148659e-14 -3.202566521438160452e-14
4.000000000000000000e+00 7.628551483154296875e+01 3.126938819885253906e+01 -1.586271126388302810e-13 2.351884725653678038e-14 -4.053248147816053415e-14 -4.403528797570881170e-14
5.000000000000000000e+00 7.793672943115234375e+01 3.200335693359375000e+01 -3.252606517456513302e-14 7.756215645877279075e-14 1.351082687704252897e-14 1.200962445539310169e-14
6.000000000000000000e+00 7.793652343750000000e+01 3.125835609436035156e+01 7.055654346367623564e-14 -1.551243095294137925e-14 1.651323256737433076e-14 -4.703769451307356075e-14
7.000000000000000000e+00 7.958742523193359375e+01 3.124735641479492188e+01 5.154130431912068433e-14 1.135910281308862013e-13 4.953969770212299228e-14 -7.005613842129502361e-15
8.000000000000000000e+00 7.958746337890625000e+01 3.199635505676269531e+01 -3.702967498061225660e-14 -1.531227130768114675e-13 -5.704571743366665393e-14 4.603689120457471473e-14
9.000000000000000000e+00 7.711097717285156250e+01 3.126384353637695312e+01 -1.100882199392720293e-14 4.103288143834406265e-14 9.007217918028352643e-15 -4.203368474684290867e-14
1.000000000000000000e+01 7.876228332519531250e+01 3.199987411499023438e+01 -6.154932385158198849e-14 1.566255127980961670e-13 2.852285871683332696e-14 -5.004010105043830980e-14
1.100000000000000000e+01 7.549750518798828125e+01 3.127133369445800781e+01 -1.646319257135597791e-13 -7.055654346367623564e-14 -7.055654346367623564e-14 4.703769451307356075e-14
1.200000000000000000e+01 7.324497985839843750e+01 3.200634765625000000e+01 -1.566255127980961670e-13 -1.586271126388302810e-13 -9.457578898633065001e-14 8.907137587178468041e-14
1.300000000000000000e+01 7.399598693847656250e+01 3.200730895996093750e+01 -2.802245536851800944e-14 -1.200962445539310169e-14 -1.200962445539310169e-14 3.202566521438160452e-14
1.400000000000000000e+01 7.549761962890625000e+01 3.201133346557617188e+01 3.052446194569922999e-14 1.045838085187919542e-13 4.053248147816053415e-14 -8.506816941405287436e-14
1.500000000000000000e+01 7.324671173095703125e+01 3.126634788513183594e+01 2.001604075898850282e-14 1.000802021008766196e-13 3.602887167211341057e-14 1.200962445539310169e-14
1.600000000000000000e+01 7.399710083007812500e+01 3.126730918884277344e+01 1.651323256737433076e-14 9.857899544406245607e-14 3.452766840343103605e-14 4.503609128420765773e-14
1.700000000000000000e+01 7.474725341796875000e+01 3.126942253112792969e+01 -7.956375629950690476e-14 -1.256006475040816195e-13 -6.154932385158198849e-14 2.301844560228735737e-14
1.800000000000000000e+01 7.474674987792968750e+01 3.200942230224609375e+01 -4.753809447325708926e-14 1.626303258728256651e-13 3.452766840343103605e-14 1.521218996039172544e-13
1.900000000000000000e+01 7.024474334716796875e+01 3.199615478515625000e+01 -1.175942345886180074e-13 -1.876503780921107145e-13 -9.157338244896590096e-14 -4.403528797570881170e-14
2.000000000000000000e+01 7.024684906005859375e+01 3.125615882873535156e+01 -1.846479647784823874e-13 1.496198998029996119e-13 -1.050842118671072717e-14 -7.606094980195862720e-14
2.100000000000000000e+01 7.099683380126953125e+01 3.125829696655273438e+01 -1.431146867680865853e-13 -1.070858150959731747e-13 -7.506014988159157020e-14 -5.704571743366665393e-14
2.200000000000000000e+01 7.174658203125000000e+01 3.126166534423828125e+01 -7.055654346367623564e-14 1.551243095294137925e-14 -1.651323256737433076e-14 -7.105694342385976414e-14
2.300000000000000000e+01 7.249642181396484375e+01 3.126490402221679688e+01 -2.752205540833448094e-14 -5.754611739385018243e-14 -2.552045048540268340e-14 4.303448466720996568e-14
2.400000000000000000e+01 7.249437713623046875e+01 3.200490188598632812e+01 -5.054050101062183831e-14 1.155926347478838934e-13 1.951563910473907981e-14 -1.210970478624298630e-13
2.500000000000000000e+01 7.099475097656250000e+01 3.199829483032226562e+01 -1.090874217129708668e-13 -1.000802037949425141e-15 -3.302646513474866152e-14 -8.506816941405287436e-14
2.600000000000000000e+01 7.174451446533203125e+01 3.200166320800781250e+01 -1.200962445539310169e-14 1.321058605389946461e-13 3.602887167211341057e-14 -2.602085213965210642e-14
2.700000000000000000e+01 6.874758148193359375e+01 3.125377655029296875e+01 -5.754611739385018243e-14 1.125902282105191443e-13 1.651323256737433076e-14 4.303448466720996568e-14
2.800000000000000000e+01 6.800035095214843750e+01 3.199114227294921875e+01 -3.753007494079578510e-14 2.126704303113957639e-13 5.254210423948774134e-14 -5.104090097080536681e-14
2.900000000000000000e+01 6.949690246582031250e+01 3.125537872314453125e+01 -1.766415518630187753e-13 -2.587073079634433226e-13 -1.306046606584440606e-13 8.807057595141762341e-14
3.000000000000000000e+01 6.724931335449218750e+01 3.124882125854492188e+01 -2.902325867701685547e-14 7.906335633932337625e-14 1.501202929869195624e-14 -9.807859548387892756e-14
3.100000000000000000e+01 6.949558258056640625e+01 3.199537658691406250e+01 -4.003208151797700565e-14 1.200962343895356499e-13 2.401924891078620339e-14 6.305052373213257400e-14
3.200000000000000000e+01 6.725275421142578125e+01 3.198883247375488281e+01 9.307458910578006450e-14 -1.431146867680865853e-13 -1.501202929869195624e-14 -1.401122768425900472e-14
3.300000000000000000e+01 6.874784851074218750e+01 3.199378013610839844e+01 -8.757017599123409490e-14 -3.753007494079578510e-14 -3.753007494079578510e-14 7.405934996122451319e-14
3.400000000000000000e+01 6.799849700927734375e+01 3.125113487243652344e+01 4.953969770212299228e-14 -2.451964887096973189e-14 7.506014649345978118e-15 4.703769451307356075e-14
3.500000000000000000e+01 6.575241088867187500e+01 3.126423072814941406e+01 1.200962445539310169e-14 1.881507780522942430e-13 6.004811719476782494e-14 -2.201764398785440585e-14
3.600000000000000000e+01 6.501776123046875000e+01 3.201393890380859375e+01 2.401924891078620339e-14 5.604491073703601889e-14 2.401924891078620339e-14 2.001604075898850282e-14
3.700000000000000000e+01 6.425657653808593750e+01 3.128445243835449219e+01 4.703769451307356075e-14 2.031628039628544102e-13 7.506014988159157020e-14 1.401122768425900472e-14
3.800000000000000000e+01 6.650653839111328125e+01 3.199358749389648438e+01 2.201764398785440585e-14 2.381908689383371858e-13 7.806255641895631925e-14 3.602887167211341057e-14
3.900000000000000000e+01 6.650051116943359375e+01 3.125359916687011719e+01 4.703769451307356075e-14 -1.170938346284344789e-13 -2.101684237342145434e-14 3.202566521438160452e-14
4.000000000000000000e+01 6.427339935302734375e+01 3.202428817749023438e+01 8.506817110811876886e-15 -1.336070739720723877e-13 -3.753007494079578510e-14 -4.303448466720996568e-14
4.100000000000000000e+01 6.576203918457031250e+01 3.200416946411132812e+01 -6.004812227696550847e-15 -9.407538902614712151e-14 -3.002405859738391247e-14 4.003208151797700565e-15
4.200000000000000000e+01 6.500453948974609375e+01 3.127404975891113281e+01 8.406736949368581735e-14 3.602887167211341057e-14 3.602887167211341057e-14 -4.003208151797700565e-15
4.300000000000000000e+01 6.204193878173828125e+01 3.210000610351562500e+01 -7.005613842129502361e-15 3.172542252776605620e-13 9.307458910578006450e-14 7.005613842129502361e-15
4.400000000000000000e+01 6.201310729980468750e+01 3.136056327819824219e+01 -6.605293026949732305e-14 -7.405934996122451319e-14 -4.203368474684290867e-14 3.002406113848275424e-15
4.500000000000000000e+01 6.126666641235351562e+01 3.138534736633300781e+01 -3.652927163229693908e-14 1.215974478226133915e-13 2.552045048540268340e-14 1.000802037949425141e-14
4.600000000000000000e+01 6.276046371459960938e+01 3.133337402343750000e+01 9.157338244896590096e-14 3.137514391089030186e-13 1.215974478226133915e-13 -3.702967498061225660e-14
4.700000000000000000e+01 6.352939224243164062e+01 3.204366302490234375e+01 7.005614350349270714e-14 3.002405859738391247e-14 3.002405859738391247e-14 -3.002406113848275424e-15
4.800000000000000000e+01 6.350872802734375000e+01 3.130392646789550781e+01 3.202566521438160452e-14 -3.202566521438160452e-14 0.000000000000000000e+00 1.401122768425900472e-14
4.900000000000000000e+01 6.129957962036132812e+01 3.212464141845703125e+01 -1.456166865690042278e-13 1.205966479022463345e-13 -7.506014649345978118e-15 -5.104090097080536681e-14
5.000000000000000000e+01 6.278520965576171875e+01 3.207296371459960938e+01 1.701363422162375377e-14 5.304250758780305885e-14 2.101684237342145434e-14 -1.601283260719080226e-14
5.100000000000000000e+01 5.902614212036132812e+01 3.150998687744140625e+01 -5.904731727440076794e-14 -7.105694342385976414e-14 -3.903127820947815962e-14 4.003208151797700565e-15
5.200000000000000000e+01 5.907215118408203125e+01 3.224856185913085938e+01 -4.503608959014176322e-15 8.957178260823178695e-14 2.552045048540268340e-14 -2.502005052521915490e-14
5.300000000000000000e+01 5.828060531616210938e+01 3.155119895935058594e+01 -3.602887167211341057e-14 7.606094980195862720e-14 1.200962445539310169e-14 4.103288143834406265e-14
5.400000000000000000e+01 5.977254104614257812e+01 3.146639251708984375e+01 -1.240994476235310340e-13 8.406736949368581735e-14 -1.200962445539310169e-14 3.602887167211341057e-14
5.500000000000000000e+01 6.055696487426757812e+01 3.215964889526367188e+01 -1.651323256737433076e-14 2.216776431472264330e-13 6.154932385158198849e-14 1.000802037949425141e-15
5.600000000000000000e+01 6.051979827880859375e+01 3.142056083679199219e+01 -1.401122870069854143e-13 -6.004811719476782494e-14 -6.004811719476782494e-14 5.004010189747125706e-15
5.700000000000000000e+01 5.833103179931640625e+01 3.228951644897460938e+01 -6.905533680686207210e-14 -1.210970478624298630e-13 -5.704571743366665393e-14 3.803047490097931360e-14
5.800000000000000000e+01 5.981412887573242188e+01 3.220522308349609375e+01 -8.106496295632106830e-14 1.100882199392720293e-14 -2.101684237342145434e-14 -8.206576287668812530e-14
5.900000000000000000e+01 5.604499816894531250e+01 3.173213005065917969e+01 3.402726844324750755e-14 1.060850151756061177e-13 4.203368474684290867e-14 -3.402726844324750755e-14
6.000000000000000000e+01 5.611047744750976562e+01 3.246923828125000000e+01 -6.455173038894673754e-14 1.095878216731543953e-13 1.351082687704252897e-14 3.102486190588275849e-14
6.100000000000000000e+01 5.530117034912109375e+01 3.179267501831054688e+01 3.002406113848275424e-15 4.703769451307356075e-14 1.501202929869195624e-14 -3.002406113848275424e-15
6.200000000000000000e+01 5.678963851928710938e+01 3.166926193237304688e+01 -7.005613842129502361e-15 -3.002406113848275424e-15 -3.002406113848275424e-15 -4.703769451307356075e-14
6.300000000000000000e+01 5.759029388427734375e+01 3.234218597412109375e+01 -7.606094980195862720e-14 3.602887167211341057e-14 -1.200962445539310169e-14 4.803849782157240678e-14
6.400000000000000000e+01 5.753508758544921875e+01 3.160421562194824219e+01 3.552847171192988207e-14 -3.052446194569922999e-14 1.501203056924137712e-15 3.002406113848275424e-15
6.500000000000000000e+01 5.537178421020507812e+01 3.252934646606445312e+01 -4.503608959014176322e-15 -7.055654346367623564e-14 -2.251804564210382886e-14 -4.603689120457471473e-14
6.600000000000000000e+01 5.684997940063476562e+01 3.240679931640625000e+01 -8.506817110811876886e-15 -2.652125379390152943e-14 -1.050842118671072717e-14 -5.104090097080536681e-14
6.700000000000000000e+01 5.315649414062500000e+01 3.277415466308593750e+01 3.502807175174635357e-14 1.501202929869195624e-14 1.501202929869195624e-14 -2.602085213965210642e-14
6.800000000000000000e+01 5.307151031494140625e+01 3.203905105590820312e+01 -8.006416303595401129e-15 8.807057595141762341e-14 2.401924891078620339e-14 -2.001604075898850282e-15
6.900000000000000000e+01 5.232960128784179688e+01 3.212165451049804688e+01 -4.003208151797700565e-15 4.403528797570881170e-14 1.200962445539310169e-14 -1.401122768425900472e-14
7.000000000000000000e+01 5.381415176391601562e+01 3.195396995544433594e+01 -1.951563910473907981e-14 -1.456166865690042278e-13 -4.953969770212299228e-14 5.404330750817011586e-14
7.100000000000000000e+01 5.463307952880859375e+01 3.260275268554687500e+01 -4.153328478665938017e-14 -6.355093046857968053e-14 -3.152526186606628700e-14 -2.001604075898850282e-14
7.200000000000000000e+01 5.455753707885742188e+01 3.186656951904296875e+01 -2.602085213965210642e-14 1.261010474642651480e-13 3.002405859738391247e-14 4.003208151797700565e-15
7.300000000000000000e+01 5.241930389404296875e+01 3.285622024536132812e+01 3.652927163229693908e-14 3.853087824929463112e-14 2.251804564210382886e-14 1.070858150959731747e-13
7.400000000000000000e+01 5.389441299438476562e+01 3.268961715698242188e+01 4.453568793589234021e-14 1.105886215935214523e-13 4.653729455289003225e-14 7.606094980195862720e-14
7.500000000000000000e+01 5.010603713989257812e+01 3.241886520385742188e+01 -6.455173038894673754e-14 1.095878216731543953e-13 1.351082687704252897e-14 -3.102486190588275849e-14
7.600000000000000000e+01 5.020995712280273438e+01 3.315154266357421875e+01 -6.805453688649501509e-14 -5.204170427930421283e-14 -3.602887167211341057e-14 -1.391114735340912012e-13
7.700000000000000000e+01 4.936609268188476562e+01 3.251750564575195312e+01 -1.020818019416107336e-13 2.001604075898850282e-15 -3.002405859738391247e-14 2.702165375408505793e-14
7.800000000000000000e+01 5.084666061401367188e+01 3.231782531738281250e+01 -7.506014988159157020e-14 -2.151724301123134064e-13 -8.706977603105056640e-14 1.200962445539310169e-14
7.900000000000000000e+01 5.168240356445312500e+01 3.294850540161132812e+01 -6.705373696612795809e-14 1.701363422162375377e-14 -1.501202929869195624e-14 -8.706977603105056640e-14
8.000000000000000000e+01 5.158797073364257812e+01 3.221453475952148438e+01 -5.304250758780305885e-14 2.301844560228735737e-14 -9.007217918028352643e-15 -3.402726844324750755e-14
8.100000000000000000e+01 4.947475433349609375e+01 3.324953460693359375e+01 -7.005614350349270714e-14 1.301042606982605321e-13 1.801443583605670529e-14 3.402726844324750755e-14
8.200000000000000000e+01 5.094583892822265625e+01 3.305115127563476562e+01 -1.801443583605670529e-14 3.803047490097931360e-14 6.004812227696550847e-15 2.301844560228735737e-14
8.300000000000000000e+01 4.727144622802734375e+01 3.360919570922851562e+01 -1.160930347080674219e-13 -1.641315257533762506e-13 -8.406736949368581735e-14 -7.806255641895631925e-14
8.400000000000000000e+01 4.715089797973632812e+01 3.287907791137695312e+01 -7.806255641895631925e-14 5.804651735403371093e-14 -6.004812227696550847e-15 1.601283260719080226e-14
8.500000000000000000e+01 4.641378021240234375e+01 3.299990844726562500e+01 -1.150922347877003649e-13 -9.507618894651417851e-14 -6.305052373213257400e-14 6.004812227696550847e-15
8.600000000000000000e+01 4.788861083984375000e+01 3.275563049316406250e+01 2.101684237342145434e-14 9.007217918028352643e-15 9.007217918028352643e-15 -9.007217918028352643e-15
8.700000000000000000e+01 4.873987197875976562e+01 3.336110687255859375e+01 -3.602887167211341057e-14 7.606094980195862720e-14 1.200962445539310169e-14 -5.004010189747125706e-15
8.800000000000000000e+01 4.862693405151367188e+01 3.262971878051757812e+01 -1.551243095294137925e-14 1.306046606584440606e-13 3.452766840343103605e-14 4.303448466720996568e-14
8.900000000000000000e+01 4.653813171386718750e+01 3.372938919067382812e+01 -9.807859548387892756e-14 -4.203368474684290867e-14 -4.203368474684290867e-14 3.402726844324750755e-14
9.000000000000000000e+01 4.800535202026367188e+01 3.348638153076171875e+01 -9.757819552369539906e-14 7.255814330441034965e-14 -7.506014649345978118e-15 6.204972381176551699e-14
9.100000000000000000e+01 4.420226669311523438e+01 3.339414215087890625e+01 -8.606896933441993136e-14 -1.741395520621011328e-13 -7.806255641895631925e-14 -3.903127820947815962e-14
9.200000000000000000e+01 4.433515167236328125e+01 3.412211608886718750e+01 -8.957178260823178695e-14 -1.756407519426517183e-13 -7.956375629950690476e-14 2.702165375408505793e-14
9.300000000000000000e+01 4.346595001220703125e+01 3.352351760864257812e+01 -1.496198998029996119e-13 -1.556247128777291100e-13 -9.157338244896590096e-14 -1.100882199392720293e-14
9.400000000000000000e+01 4.493911361694335938e+01 3.326211166381835938e+01 -1.120898214740720378e-13 -4.803849782157240678e-14 -4.803849782157240678e-14 1.000802037949425141e-14
9.500000000000000000e+01 4.580409240722656250e+01 3.385649871826171875e+01 -8.556856937423640286e-14 -2.196760433064923190e-13 -9.157338244896590096e-14 1.100882216333379238e-13
9.600000000000000000e+01 4.567650985717773438e+01 3.312757492065429688e+01 -7.205774334422682115e-14 1.521218996039172544e-13 2.401924891078620339e-14 7.005614350349270714e-14
9.700000000000000000e+01 4.360148620605468750e+01 3.425101852416992188e+01 -8.356696953350228885e-14 -2.416936822121490414e-13 -9.757819552369539906e-14 -1.701363422162375377e-14
9.800000000000000000e+01 4.506934738159179688e+01 3.399055862426757812e+01 -1.581267126786467525e-13 -2.201764398785440585e-14 -5.404330750817011586e-14 -4.203368474684290867e-14
9.900000000000000000e+01 4.139850234985351562e+01 3.467833328247070312e+01 -1.070858150959731747e-13 -2.301844560228735737e-14 -3.903127820947815962e-14 -3.302646513474866152e-14
1.000000000000000000e+02 4.199465942382812500e+01 3.380642318725585938e+01 -3.002406113848275424e-15 -4.703769451307356075e-14 -1.501202929869195624e-14 2.301844560228735737e-14
1.010000000000000000e+02 4.052394866943359375e+01 3.409660720825195312e+01 -6.355093046857968053e-14 1.851483749030612830e-14 -1.351082687704252897e-14 -3.002406113848275424e-15
1.020000000000000000e+02 4.213290405273437500e+01 3.453341293334960938e+01 -9.307458910578006450e-14 1.431146867680865853e-13 1.501202929869195624e-14 1.441154866884536423e-13
1.030000000000000000e+02 4.272992324829101562e+01 3.366130447387695312e+01 -7.005614350349270714e-14 -3.002405859738391247e-14 -3.002405859738391247e-14 1.341074739322559162e-13
1.040000000000000000e+02 4.286724853515625000e+01 3.438847732543945312e+01 -4.053248147816053415e-14 -1.546239129573620530e-13 -5.854691731421723944e-14 1.491194998428160834e-13
1.050000000000000000e+02 4.066404342651367188e+01 3.482323455810546875e+01 -5.154130431912068433e-14 4.653729455289003225e-14 -1.501203056924137712e-15 -8.006416303595401129e-14
1.060000000000000000e+02 4.125933456420898438e+01 3.395152664184570312e+01 5.004010189747125706e-15 1.851483647386659159e-13 5.704571743366665393e-14 -4.103288143834406265e-14
1.070000000000000000e+02 3.905131912231445312e+01 3.438002777099609375e+01 -2.271820562617724026e-13 -1.431146867680865853e-13 -1.110890215537049808e-13 -6.204972381176551699e-14
1.080000000000000000e+02 3.845631790161132812e+01 3.524533081054687500e+01 -6.855493684667854359e-14 1.536231130369949960e-13 2.552045048540268340e-14 6.505213034913026604e-14
1.090000000000000000e+02 3.757802581787109375e+01 3.465816116333007812e+01 -9.257418236933295796e-14 9.757819552369539906e-14 1.501203056924137712e-15 6.305052373213257400e-14
1.100000000000000000e+02 3.992870712280273438e+01 3.496635818481445312e+01 -6.004811719476782494e-14 1.801443651368306309e-13 3.602887167211341057e-14 -5.404330750817011586e-14
1.110000000000000000e+02 3.978794097900390625e+01 3.423986434936523438e+01 -9.207378240914942946e-14 -2.682149478645118323e-13 -1.080866150163402317e-13 8.006416303595401129e-15
1.120000000000000000e+02 3.772006225585937500e+01 3.538441467285156250e+01 -1.656327256339268361e-13 2.051644071917203133e-14 -4.353488801552528320e-14 -2.802245536851800944e-14
1.130000000000000000e+02 3.919250869750976562e+01 3.510644531250000000e+01 -4.503608959014176322e-15 8.957178260823178695e-14 2.552045048540268340e-14 -1.551243129175455815e-13
1.140000000000000000e+02 3.831470489501953125e+01 3.451899719238281250e+01 -1.996600042415697107e-13 -8.556856937423640286e-14 -8.556856937423640286e-14 7.706175649858926224e-14
1.150000000000000000e+02 3.551680755615234375e+01 3.582569122314453125e+01 -1.701363422162375377e-14 1.070858150959731747e-13 2.702165375408505793e-14 1.150922347877003649e-13
1.160000000000000000e+02 3.610754394531250000e+01 3.495201110839843750e+01 -1.831467648979318019e-13 1.301042606982605321e-14 -5.104090097080536681e-14 4.403528797570881170e-14
1.170000000000000000e+02 3.463803482055664062e+01 3.524788665771484375e+01 9.807859548387892756e-14 4.203368474684290867e-14 4.203368474684290867e-14 7.105694342385976414e-14
1.180000000000000000e+02 3.684228134155273438e+01 3.480297470092773438e+01 -1.716375387086563342e-13 -7.355895000104098469e-14 -7.355895000104098469e-14 -4.603689120457471473e-14
1.190000000000000000e+02 3.698487472534179688e+01 3.552911758422851562e+01 -2.251804564210382886e-14 -3.252606517456513302e-14 -1.651323256737433076e-14 3.402726844324750755e-14
1.200000000000000000e+02 3.478272247314453125e+01 3.597360992431640625e+01 -1.431146867680865853e-13 2.131708302715792924e-13 2.101684237342145434e-14 1.801443583605670529e-14
1.210000000000000000e+02 3.625083541870117188e+01 3.567801284790039062e+01 -9.757819552369539906e-14 -8.757017599123409490e-14 -5.554451077685249039e-14 7.005613842129502361e-15
1.220000000000000000e+02 3.537281799316406250e+01 3.509983062744140625e+01 4.503609128420765773e-14 6.505213034913026604e-14 3.302646513474866152e-14 5.304250758780305885e-14
1.230000000000000000e+02 3.242737579345703125e+01 3.568672943115234375e+01 -1.916535777735789425e-13 -1.736391521019176043e-13 -1.095878216731543953e-13 -4.003208151797700565e-14
1.240000000000000000e+02 3.169006347656250000e+01 3.583216094970703125e+01 -1.256006475040816195e-13 2.206768432268593760e-13 2.852285871683332696e-14 1.210970478624298630e-13
1.250000000000000000e+02 3.330534362792968750e+01 3.626757049560546875e+01 -1.936551911668402126e-13 8.506817110811876886e-15 -5.554451077685249039e-14 -5.304250758780305885e-14
1.260000000000000000e+02 3.316469573974609375e+01 3.554105377197265625e+01 -1.215974478226133915e-13 1.651323256737433076e-14 -3.152526186606628700e-14 4.503609128420765773e-14
1.270000000000000000e+02 3.390202713012695312e+01 3.539514541625976562e+01 -3.502807175174635357e-14 1.451162866088206993e-13 3.302646513474866152e-14 -8.106496295632106830e-14
1.280000000000000000e+02 3.404560089111328125e+01 3.612108612060546875e+01 4.053248147816053415e-14 1.546239129573620530e-13 5.854691731421723944e-14 -3.002405859738391247e-14
1.290000000000000000e+02 3.182485580444335938e+01 3.655983352661132812e+01 -1.135910281308862013e-13 -7.155734338404329264e-14 -5.554451077685249039e-14 -6.405133042876320904e-14
1.300000000000000000e+02 3.256509399414062500e+01 3.641382217407226562e+01 -6.605293026949732305e-14 2.461972954063279539e-13 5.404330750817011586e-14 3.502807175174635357e-14
1.310000000000000000e+02 2.946516418457031250e+01 3.621912765502929688e+01 -1.801443651368306309e-13 6.004811719476782494e-14 -3.602887167211341057e-14 3.402726844324750755e-14
1.320000000000000000e+02 2.958438682556152344e+01 3.694947052001953125e+01 -7.556054984177509870e-14 1.506206997233666689e-13 2.251804564210382886e-14 1.010810020212436766e-13
1.330000000000000000e+02 2.872264671325683594e+01 3.634394836425781250e+01 -7.355895000104098469e-14 -3.152526186606628700e-14 -3.152526186606628700e-14 8.406736949368581735e-14
1.340000000000000000e+02 3.020768547058105469e+01 3.609378433227539062e+01 -1.521218996039172544e-13 7.205774334422682115e-14 -2.401924891078620339e-14 3.002406113848275424e-15
1.350000000000000000e+02 3.095018768310546875e+01 3.596792221069335938e+01 -1.055846084391590112e-13 5.004010189747125706e-16 -3.152526186606628700e-14 1.000802037949425141e-14
1.360000000000000000e+02 3.108069419860839844e+01 3.669636154174804688e+01 -1.586271126388302810e-13 2.351884725653678038e-14 -4.053248147816053415e-14 5.904731727440076794e-14
1.370000000000000000e+02 2.883622932434082031e+01 3.707524490356445312e+01 -1.240994476235310340e-13 8.406736949368581735e-14 -1.200962445539310169e-14 5.204170427930421283e-14
1.380000000000000000e+02 3.033255004882812500e+01 3.682317352294921875e+01 -6.004811719476782494e-14 2.001604075898850282e-14 -1.200962445539310169e-14 -9.107298248878237246e-14
1.390000000000000000e+02 2.647223281860351562e+01 3.666142654418945312e+01 -5.904731727440076794e-14 -7.105694342385976414e-14 -3.903127820947815962e-14 -7.405934996122451319e-14
1.400000000000000000e+02 2.572040748596191406e+01 3.676027679443359375e+01 -1.135910281308862013e-13 8.857097591160115191e-14 -7.506014649345978118e-15 -1.000802037949425141e-15
1.410000000000000000e+02 2.731099891662597656e+01 3.729562377929687500e+01 -6.705373696612795809e-14 1.701363422162375377e-14 -1.501202929869195624e-14 4.203368474684290867e-14
1.420000000000000000e+02 2.722403526306152344e+01 3.656066131591796875e+01 -9.357498906596359300e-14 -1.316054605788111176e-13 -6.755413692631148659e-14 1.251002475438980910e-13
1.430000000000000000e+02 2.797564125061035156e+01 3.645804595947265625e+01 -1.175942345886180074e-13 -2.752205540833448094e-14 -4.353488801552528320e-14 -2.902325867701685547e-14
1.440000000000000000e+02 2.807846832275390625e+01 3.719087982177734375e+01 -2.602085213965210642e-14 1.261010474642651480e-13 3.002405859738391247e-14 1.110890215537049808e-13
1.450000000000000000e+02 2.577564430236816406e+01 3.749948883056640625e+01 -1.050842118671072717e-14 -4.503608959014176322e-15 -4.503608959014176322e-15 -9.307458910578006450e-14
1.460000000000000000e+02 2.654333496093750000e+01 3.739851379394531250e+01 -1.301042606982605321e-13 -1.000802037949425141e-14 -4.203368474684290867e-14 -2.001604075898850282e-14
1.470000000000000000e+02 2.340743637084960938e+01 3.754123687744140625e+01 -5.804651735403371093e-14 1.581267126786467525e-13 3.002405859738391247e-14 -1.100882216333379238e-13
1.480000000000000000e+02 2.266618919372558594e+01 3.679620742797851562e+01 -9.957980214069309111e-14 -6.555253030931379454e-14 -4.953969770212299228e-14 -3.002406113848275424e-15
1.490000000000000000e+02 2.419788742065429688e+01 3.680555725097656250e+01 -4.003208151797700565e-15 4.403528797570881170e-14 1.200962445539310169e-14 1.000802037949425141e-14
1.500000000000000000e+02 2.496211051940917969e+01 3.680892944335937500e+01 -8.206576287668812530e-14 -2.181748434259417335e-13 -9.007218256841531545e-14 6.104892389139845998e-14
1.510000000000000000e+02 2.499495697021484375e+01 3.754912567138671875e+01 -1.311050606186275891e-13 8.106496295632106830e-14 -1.501202929869195624e-14 1.811451650571976879e-13
1.520000000000000000e+02 2.261228370666503906e+01 3.753591537475585938e+01 -1.251002475438980910e-13 -1.451162866088206993e-13 -8.106496295632106830e-14 5.704571743366665393e-14
1.530000000000000000e+02 2.343242454528808594e+01 3.680136489868164062e+01 -3.853087824929463112e-14 -1.651323256737433076e-14 -1.651323256737433076e-14 -6.505213034913026604e-14
1.540000000000000000e+02 2.420181655883789062e+01 3.754558944702148438e+01 -1.391114735340912012e-13 -1.511210996835501974e-13 -8.706977603105056640e-14 -3.102486190588275849e-14
1.550000000000000000e+02 1.806994819641113281e+01 3.888457107543945312e+01 -1.471179000020819694e-13 -6.305052373213257400e-14 -6.305052373213257400e-14 6.004811719476782494e-14
1.560000000000000000e+02 1.974212455749511719e+01 3.794806289672851562e+01 -2.657129345110670338e-13 -1.596279261117244941e-13 -1.276022608973428896e-13 1.701363422162375377e-14
1.570000000000000000e+02 2.112387084960937500e+01 3.806455230712890625e+01 -2.231788430277770185e-13 -1.871499781319271860e-13 -1.230986477031639770e-13 1.281026608575264181e-13
1.580000000000000000e+02 2.251341247558593750e+01 3.836222457885742188e+01 -1.045838085187919542e-13 -9.057258252859884395e-14 -5.854691731421723944e-14 -6.104892389139845998e-14
1.590000000000000000e+02 2.223104286193847656e+01 3.928392410278320312e+01 -1.468676932457266271e-13 -8.581876935432816711e-14 -6.980593674713736485e-14 -1.175942345886180074e-13
1.600000000000000000e+02 2.651791381835937500e+01 3.823801040649414062e+01 -5.654531408535133641e-14 2.151724233360498284e-14 -1.050842118671072717e-14 1.100882199392720293e-14
1.610000000000000000e+02 2.730174636840820312e+01 3.919163894653320312e+01 -9.082278250869060821e-14 9.832879546397069181e-14 2.251804479507088161e-15 3.502807175174635357e-14
1.620000000000000000e+02 3.090340042114257812e+01 3.916237258911132812e+01 -1.010810020212436766e-13 -8.907137587178468041e-14 -5.704571743366665393e-14 -3.953167816966168813e-14
1.630000000000000000e+02 3.203726196289062500e+01 3.727494430541992188e+01 -7.681155651849749799e-14 1.043336085387001899e-13 8.256616283687165381e-15 6.405133042876320904e-14
1.640000000000000000e+02 3.649982452392578125e+01 3.656755447387695312e+01 -3.402726844324750755e-14 -1.060850151756061177e-13 -4.203368474684290867e-14 3.302646513474866152e-14
1.650000000000000000e+02 3.863334655761718750e+01 3.713436508178710938e+01 -5.029030103053007406e-14 -6.730393694621972234e-14 -3.527827173183811782e-14 3.002406113848275424e-15
1.660000000000000000e+02 4.157028198242187500e+01 3.549118423461914062e+01 -9.007217918028352643e-15 1.791435652164635739e-13 5.104090097080536681e-14 -3.402726844324750755e-14
1.670000000000000000e+02 4.290095520019531250e+01 3.526383972167968750e+01 -1.010810020212436766e-13 -8.907137587178468041e-14 -5.704571743366665393e-14 9.007218256841531545e-14
1.680000000000000000e+02 4.460714721679687500e+01 3.657739639282226562e+01 -7.881315635923161200e-14 -3.377706846315574329e-14 -3.377706846315574329e-14 -7.506014649345978118e-15
1.690000000000000000e+02 5.151607894897460938e+01 3.630318069458007812e+01 -7.193264674231272804e-14 -9.945469876251541996e-14 -5.141620432907480220e-14 2.902325867701685547e-14
1.700000000000000000e+02 5.044033050537109375e+01 3.403397369384765625e+01 -7.706175649858926224e-14 -3.302646513474866152e-14 -3.302646513474866152e-14 2.502005052521915490e-14
1.710000000000000000e+02 5.184097290039062500e+01 3.372241210937500000e+01 -7.005613842129502361e-15 -1.631307258330091936e-13 -5.104090097080536681e-14 1.215974478226133915e-13
1.720000000000000000e+02 5.545199584960937500e+01 3.342185592651367188e+01 -6.705373696612795809e-14 1.701363422162375377e-14 -1.501202929869195624e-14 -1.601283260719080226e-14
1.730000000000000000e+02 5.753176116943359375e+01 3.895523452758789062e+01 -3.114996189592864062e-14 3.240096518451925089e-14 3.753007642310344279e-16 1.175942362826839019e-14
1.740000000000000000e+02 5.673780822753906250e+01 3.547600555419921875e+01 -5.054050101062183831e-14 7.556054984177509870e-14 7.506014649345978118e-15 -2.689655376403917580e-14
1.750000000000000000e+02 5.424785614013671875e+01 3.672376251220703125e+01 -4.903929774193946378e-14 -2.101684237342145434e-14 -2.101684237342145434e-14 9.907939540424598457e-14
1.760000000000000000e+02 4.858372497558593750e+01 3.536937713623046875e+01 -1.371098736933570872e-13 -1.301042606982605321e-14 -4.503609128420765773e-14 1.060850151756061177e-13
1.770000000000000000e+02 4.443352890014648438e+01 3.516373825073242188e+01 -6.455173038894673754e-14 -5.054050101062183831e-14 -3.452766840343103605e-14 5.704571743366665393e-14
1.780000000000000000e+02 4.522837448120117188e+01 3.499402618408203125e+01 -4.303448466720996568e-14 -8.706977603105056640e-14 -3.903127820947815962e-14 4.203368474684290867e-14
1.790000000000000000e+02 5.693732070922851562e+01 3.326173400878906250e+01 -1.276022608973428896e-13 8.256616283687165381e-14 -1.351082687704252897e-14 -4.603689120457471473e-14
1.800000000000000000e+02 5.768713760375976562e+01 3.316945648193359375e+01 -8.606896933441993136e-14 -1.401122768425900472e-14 -3.002405859738391247e-14 6.505213034913026604e-14
1.810000000000000000e+02 6.205341720581054688e+01 3.280363464355468750e+01 -5.004010189747125706e-15 1.351082738526229732e-13 3.903127820947815962e-14 4.403528797570881170e-14
1.820000000000000000e+02 6.348719024658203125e+01 3.281825637817382812e+01 -5.054050101062183831e-14 -2.046640038434049957e-13 -7.656135653840573374e-14 -3.502807175174635357e-14
1.830000000000000000e+02 6.496585845947265625e+01 3.286985778808593750e+01 -1.501203056924137712e-15 -2.351884725653678038e-14 -7.506014649345978118e-15 2.602085213965210642e-14
1.840000000000000000e+02 6.878929901123046875e+01 3.383274459838867188e+01 -8.006416303595401129e-15 -7.205774334422682115e-14 -2.401924891078620339e-14 4.603689120457471473e-14
1.850000000000000000e+02 7.101163482666015625e+01 3.278917312622070312e+01 -2.301844560228735737e-14 1.301042606982605321e-14 -3.002406113848275424e-15 0.000000000000000000e+00
1.860000000000000000e+02 7.251460266113281250e+01 3.280156326293945312e+01 -7.706175649858926224e-14 1.271018609371593611e-13 1.501202929869195624e-14 -1.601283260719080226e-14
1.870000000000000000e+02 7.477729034423828125e+01 3.280616760253906250e+01 -6.004811719476782494e-14 2.001604075898850282e-14 -1.200962445539310169e-14 -2.201764398785440585e-14
1.880000000000000000e+02 7.407701873779296875e+01 3.368490982055664062e+01 -6.555253030931379454e-14 4.053248147816053415e-14 -7.506014649345978118e-15 1.301042606982605321e-13
1.890000000000000000e+02 7.785545349121093750e+01 3.773059844970703125e+01 -2.051644071917203133e-14 1.055846084391590112e-13 2.552045048540268340e-14 -2.001604075898850282e-15
1.900000000000000000e+02 7.967855072021484375e+01 3.895068359375000000e+01 -5.704571743366665393e-14 6.705373696612795809e-14 3.002406113848275424e-15 -5.104090097080536681e-14
1.910000000000000000e+02 7.386930084228515625e+01 3.893964004516601562e+01 5.404330750817011586e-14 4.603689120457471473e-14 3.002405859738391247e-14 4.803849782157240678e-14
1.920000000000000000e+02 6.175710678100585938e+01 3.631903457641601562e+01 1.777987377823714993e-14 2.134992215570979956e-13 6.938372809238077532e-14 3.928147818956992388e-14
1.930000000000000000e+02 3.571267318725585938e+01 3.684166717529296875e+01 -6.355093046857968053e-14 1.851483749030612830e-14 -1.351082687704252897e-14 5.904731727440076794e-14
1.940000000000000000e+02 1.879472351074218750e+01 3.976261901855468750e+01 -7.656135653840573374e-14 -7.856295637913984775e-14 -4.653729455289003225e-14 7.155734338404329264e-14
1.950000000000000000e+02 1.890858459472656250e+01 3.885394287109375000e+01 -2.266816563015888741e-13 -1.886511780124777715e-13 -1.245998475837145625e-13 2.001604075898850282e-15
1.960000000000000000e+02 1.808651733398437500e+01 3.786906814575195312e+01 -2.491996951674291250e-13 -3.012413994467333378e-13 -1.651323256737433076e-13 1.501203056924137712e-15
1.970000000000000000e+02 1.581399250030517578e+01 3.727444076538085938e+01 -4.153328478665938017e-14 -1.836471648581153304e-13 -6.755413692631148659e-14 -9.957980214069309111e-14
1.980000000000000000e+02 1.543519401550292969e+01 2.907686424255371094e+01 1.666335391068210492e-13 -2.717177340332693758e-13 -3.152526186606628700e-14 -2.802245536851800944e-14
1.990000000000000000e+02 1.289889717102050781e+01 2.517184448242187500e+01 -1.851483749030612830e-14 -2.366896826103137563e-13 -7.656135653840573374e-14 3.602887167211341057e-14
2.000000000000000000e+02 1.101800441741943359e+00 2.442886161804199219e+01 -7.205774334422682115e-14 1.521218996039172544e-13 2.401924891078620339e-14 -7.906335633932337625e-14
2.010000000000000000e+02 3.647954463958740234e-01 2.039765357971191406e+01 2.451964887096973189e-14 3.307650648601972998e-13 1.065854151357896462e-13 2.301844560228735737e-14
2.020000000000000000e+02 1.088873982429504395e+00 1.719499778747558594e+01 -1.266014474244486765e-13 -8.506817110811876886e-15 -4.053248147816053415e-14 -4.003208151797700565e-14
2.030000000000000000e+02 3.623585999011993408e-01 1.476888847351074219e+01 -1.746399520222846613e-13 1.996600042415697107e-13 7.506014649345978118e-15 -5.404330750817011586e-14
2.040000000000000000e+02 1.083497166633605957e+00 1.076238632202148438e+01 -2.251804564210382886e-14 2.877305869692509122e-13 7.956375629950690476e-14 6.004812227696550847e-15
2.050000000000000000e+02 8.848201751708984375e+00 1.843444824218750000e+00 2.301844560228735737e-14 -1.731387521417340758e-13 -4.503609128420765773e-14 -1.100882216333379238e-13
2.060000000000000000e+02 1.113328170776367188e+01 1.820319771766662598e+00 1.601283260719080226e-14 1.441154866884536423e-13 4.803849782157240678e-14 6.004812227696550847e-15
2.070000000000000000e+02 1.474333667755126953e+01 2.596611499786376953e+00 -8.006416303595401129e-14 -8.006416303595401129e-14 -4.803849782157240678e-14 2.602085213965210642e-14
2.080000000000000000e+02 1.467095565795898438e+01 4.262959003448486328e+00 -1.160930347080674219e-13 -4.003208151797700565e-15 -3.602887167211341057e-14 -3.002405859738391247e-14
2.090000000000000000e+02 1.476343059539794922e+01 1.225599765777587891e+01 6.154932385158198849e-14 -1.566255127980961670e-13 -2.852285871683332696e-14 -8.907137587178468041e-14
2.100000000000000000e+02 1.343207073211669922e+01 2.193232345581054688e+01 2.952365863720038397e-14 -1.245998475837145625e-13 -2.852285871683332696e-14 -3.502807175174635357e-14
2.110000000000000000e+02 1.491347885131835938e+01 2.346971511840820312e+01 7.656135653840573374e-14 -4.018219947315299079e-13 -9.757819552369539906e-14 -2.301844560228735737e-14
2.120000000000000000e+02 1.367084503173828125e+00 3.725320434570312500e+01 -3.452766840343103605e-14 -6.054852393121493148e-14 -2.852285871683332696e-14 -1.200962445539310169e-14
2.130000000000000000e+02 1.484523534774780273e+00 3.824311828613281250e+01 1.150922280114367868e-14 7.355895000104098469e-14 2.552045048540268340e-14 -7.405934996122451319e-14
2.140000000000000000e+02 1.284421920776367188e+01 3.185489082336425781e+01 3.002405859738391247e-14 -1.701363388281057487e-13 -4.203368474684290867e-14 -9.807859548387892756e-14
2.150000000000000000e+02 7.809561729431152344e+00 3.843449783325195312e+01 -6.255012631304788726e-15 -1.513713064399055397e-13 -4.728789449316532501e-14 -3.753007494079578510e-14
2.160000000000000000e+02 1.292725849151611328e+01 3.582587051391601562e+01 2.151724233360498284e-14 4.353488801552528320e-14 1.951563910473907981e-14 -8.431756947377758160e-14
2.170000000000000000e+02 3.860026299953460693e-01 3.485369110107421875e+01 -6.705373696612795809e-14 1.701363422162375377e-14 -1.501202929869195624e-14 -1.801443583605670529e-14
2.180000000000000000e+02 1.190486907958984375e+00 3.084167289733886719e+01 5.004010189747125706e-15 2.502005052521915490e-14 9.007217918028352643e-15 -1.701363422162375377e-14
2.190000000000000000e+02 1.296949100494384766e+01 3.084008407592773438e+01 -2.652125379390152943e-14 -1.486190998826325549e-13 -5.254210423948774134e-14 -1.401122768425900472e-14
2.200000000000000000e+02 3.781352639198303223e-01 2.843263626098632812e+01 -1.711371387484728057e-13 2.011612041221202962e-13 9.007217918028352643e-15 -5.904731727440076794e-14
2.210000000000000000e+02 4.964192867279052734e+00 2.583480834960937500e+00 -2.151724233360498284e-14 3.652927163229693908e-14 4.503608959014176322e-15 -7.105694342385976414e-14
2.220000000000000000e+02 3.757876455783843994e-01 6.710227966308593750e+00 5.004010105043830980e-14 9.007218256841531545e-14 4.203368474684290867e-14 4.403528797570881170e-14
2.230000000000000000e+02 5.181403636932373047e+00 5.521572113037109375e+00 2.952365863720038397e-14 1.956567910075743266e-13 6.755413692631148659e-14 3.102486190588275849e-14
2.240000000000000000e+02 1.583277034759521484e+01 3.151416015625000000e+01 -4.503608959014176322e-15 -7.055654346367623564e-14 -2.251804564210382886e-14 2.602085213965210642e-14
2.250000000000000000e+02 1.555484199523925781e+01 2.988151359558105469e+01 -1.205966479022463345e-13 -2.346880827695796423e-13 -1.065854151357896462e-13 2.702165375408505793e-14
2.260000000000000000e+02 7.025624084472656250e+01 3.279719543457031250e+01 -4.103288143834406265e-14 5.104090097080536681e-14 3.002406113848275424e-15 -9.507618894651417851e-14
2.270000000000000000e+02 1.437472438812255859e+01 2.591016197204589844e+01 -5.204170427930421283e-14 -3.883111822540474822e-13 -1.321058605389946461e-13 -1.611291259922750796e-13
2.280000000000000000e+02 1.255116558074951172e+01 1.717255783081054688e+01 -5.004010189747125706e-16 -2.747201608994248589e-13 -8.256616283687165381e-14 2.902325867701685547e-14
2.290000000000000000e+02 1.404471874237060547e+01 1.948174476623535156e+01 3.002405859738391247e-14 -4.903929909719217939e-13 -1.381106736137241442e-13 6.004811719476782494e-14
2.300000000000000000e+02 1.401806354522705078e+01 1.787131118774414062e+01 3.853087824929463112e-14 -3.037434128001781364e-13 -7.956375629950690476e-14 -6.004812227696550847e-15
2.310000000000000000e+02 1.335538482666015625e+01 1.003284931182861328e+01 -6.355093046857968053e-14 -3.017418129594440224e-13 -1.095878216731543953e-13 -1.791435652164635739e-13
2.320000000000000000e+02 1.476347923278808594e+01 1.145958518981933594e+01 -9.907939540424598457e-14 -2.712173476256130034e-13 -1.110890215537049808e-13 2.001604075898850282e-15
2.330000000000000000e+02 1.406854057312011719e+01 1.230905723571777344e+01 -1.351082687704252897e-14 -3.717979429104095734e-13 -1.155926347478838934e-13 1.301042606982605321e-14
2.340000000000000000e+02 2.130452919006347656e+01 3.878022766113281250e+01 -1.521218996039172544e-13 7.205774334422682115e-14 -2.401924891078620339e-14 -4.003208151797700565e-14
2.350000000000000000e+02 2.045003890991210938e+01 3.802691650390625000e+01 -2.066656172366662658e-13 7.155734338404329264e-14 -4.053248147816053415e-14 -2.001604075898850282e-14
2.360000000000000000e+02 2.425429344177246094e+01 3.824995040893554688e+01 -1.651323256737433076e-13 2.952365999245309958e-13 3.903127820947815962e-14 -9.607699564314481355e-14
2.370000000000000000e+02 2.344056892395019531e+01 3.837176513671875000e+01 -1.110890215537049808e-13 -1.391114735340912012e-13 -7.506014988159157020e-14 2.101684237342145434e-14
2.380000000000000000e+02 2.495075988769531250e+01 3.822895050048828125e+01 -6.705373696612795809e-14 1.701363422162375377e-14 -1.501202929869195624e-14 2.021620040424873532e-13
2.390000000000000000e+02 2.733324813842773438e+01 3.816262054443359375e+01 -1.135910281308862013e-13 8.857097591160115191e-14 -7.506014649345978118e-15 1.000802021008766196e-13
2.400000000000000000e+02 2.814417266845703125e+01 3.803394317626953125e+01 -1.005806020610601481e-13 2.552045048540268340e-14 -2.251804564210382886e-14 1.240994476235310340e-13
2.410000000000000000e+02 2.893067169189453125e+01 3.794003295898437500e+01 -1.471179000020819694e-13 9.707779556351187056e-14 -1.501202929869195624e-14 7.405934996122451319e-14
2.420000000000000000e+02 3.136099243164062500e+01 3.758609390258789062e+01 -4.603689120457471473e-14 2.602085213965210642e-14 -6.004812227696550847e-15 -2.301844560228735737e-14
2.430000000000000000e+02 3.195641899108886719e+01 3.865834808349609375e+01 -9.700742406625398329e-14 -6.445008643527622150e-14 -4.843725382808541924e-14 3.965677815970757025e-14
2.440000000000000000e+02 3.266031265258789062e+01 3.711535644531250000e+01 -1.556247128777291100e-13 7.055654346367623564e-14 -2.552045048540268340e-14 -9.607699564314481355e-14
2.450000000000000000e+02 3.400343322753906250e+01 3.711232757568359375e+01 -1.756407519426517183e-13 1.306046606584440606e-13 -1.351082687704252897e-14 -3.502807175174635357e-14
2.460000000000000000e+02 3.481255340576171875e+01 3.711338043212890625e+01 -1.240994476235310340e-13 1.641315257533762506e-13 1.200962445539310169e-14 5.754611739385018243e-14
2.470000000000000000e+02 3.699693298339843750e+01 3.755766296386718750e+01 -1.676343390271881062e-13 4.253408470702643718e-14 -3.753007494079578510e-14 4.078268145825229840e-14
2.480000000000000000e+02 3.611511993408203125e+01 3.804086303710937500e+01 -8.957178260823178695e-14 -1.551243095294137925e-14 -3.152526186606628700e-14 6.255012737183907132e-16
2.490000000000000000e+02 3.782255935668945312e+01 3.617112350463867188e+01 -1.261010474642651480e-13 -5.404330750817011586e-14 -5.404330750817011586e-14 9.807859548387892756e-14
2.500000000000000000e+02 3.925581359863281250e+01 3.621357727050781250e+01 -8.907137587178468041e-14 9.907939540424598457e-14 3.002406113848275424e-15 -7.455974992140804170e-14
2.510000000000000000e+02 4.012419509887695312e+01 3.613535690307617188e+01 -5.354290754798658736e-14 6.855493684667854359e-14 4.503608959014176322e-15 -6.204972381176551699e-14
2.520000000000000000e+02 4.092137145996093750e+01 3.571085739135742188e+01 -4.603689120457471473e-14 2.602085213965210642e-14 -6.004812227696550847e-15 -5.704571743366665393e-14
2.530000000000000000e+02 4.224765014648437500e+01 3.534441375732421875e+01 -1.145918348275168364e-13 1.951563910473907981e-14 -2.852285871683332696e-14 1.190954344691685929e-13
2.540000000000000000e+02 4.363103866577148438e+01 3.528191757202148438e+01 -4.703769451307356075e-14 -4.303448466720996568e-14 -2.702165375408505793e-14 2.552045048540268340e-14
2.550000000000000000e+02 4.601472473144531250e+01 3.484697723388671875e+01 -7.656135653840573374e-14 1.501203056924137712e-15 -2.251804564210382886e-14 2.251804564210382886e-14
2.560000000000000000e+02 4.750877380371093750e+01 3.453822326660156250e+01 -1.050842084789754827e-13 1.150922347877003649e-13 3.002406113848275424e-15 9.007217918028352643e-15
2.570000000000000000e+02 4.822494125366210938e+01 3.437131118774414062e+01 -7.105694342385976414e-14 -9.907939540424598457e-14 -5.104090097080536681e-14 -3.803047490097931360e-14
2.580000000000000000e+02 4.896054458618164062e+01 3.424433898925781250e+01 -1.065854151357896462e-13 -6.855493684667854359e-14 -5.254210423948774134e-14 7.155734338404329264e-14
2.590000000000000000e+02 5.114319229125976562e+01 3.388115310668945312e+01 -3.803047490097931360e-14 1.801443583605670529e-14 -6.004812227696550847e-15 -9.307458910578006450e-14
2.600000000000000000e+02 4.971121597290039062e+01 3.415103530883789062e+01 -1.426142868079030568e-13 -1.526222995641007829e-13 -8.857097591160115191e-14 -3.953167816966168813e-14
2.610000000000000000e+02 5.254513168334960938e+01 3.359055709838867188e+01 -1.851483749030612830e-14 -7.656135653840573374e-14 -2.852285871683332696e-14 -8.206576287668812530e-14
2.620000000000000000e+02 5.326011657714843750e+01 3.350007247924804688e+01 -7.806255641895631925e-14 -1.020818019416107336e-13 -5.404330750817011586e-14 9.507618894651417851e-14
2.630000000000000000e+02 5.471214294433593750e+01 3.343255615234375000e+01 3.953167816966168813e-14 -7.455974992140804170e-14 -1.050842118671072717e-14 1.200962445539310169e-14
2.640000000000000000e+02 5.549619674682617188e+01 3.456306457519531250e+01 3.552847171192988207e-14 -3.052446194569922999e-14 1.501203056924137712e-15 -1.901523745048965680e-14
2.650000000000000000e+02 5.619228363037109375e+01 3.336460876464843750e+01 -5.654531408535133641e-14 -1.386110735739076727e-13 -5.854691731421723944e-14 -4.653729455289003225e-14
2.660000000000000000e+02 5.918330001831054688e+01 3.307866668701171875e+01 -4.903929774193946378e-14 1.391114735340912012e-13 2.702165375408505793e-14 8.206576287668812530e-14
2.670000000000000000e+02 5.991164779663085938e+01 3.300467681884765625e+01 3.803047490097931360e-14 2.221780431074099615e-13 7.806255641895631925e-14 -6.204972381176551699e-14
2.680000000000000000e+02 6.062896728515625000e+01 3.290088653564453125e+01 -1.501202929869195624e-14 8.506816941405287436e-14 2.101684237342145434e-14 1.501202929869195624e-14
2.690000000000000000e+02 6.381120681762695312e+01 3.478247070312500000e+01 -1.501202929869195624e-14 1.651323256737433076e-13 4.503609128420765773e-14 -6.805453688649501509e-14
2.700000000000000000e+02 6.276687240600585938e+01 3.279215240478515625e+01 1.551243095294137925e-14 1.896519779328448285e-13 6.154932385158198849e-14 3.803047490097931360e-14
2.710000000000000000e+02 6.421791839599609375e+01 3.284987258911132812e+01 5.954771723458429644e-14 2.552045048540268340e-14 2.552045048540268340e-14 1.361090737729900302e-13
2.720000000000000000e+02 6.641462707519531250e+01 3.394831085205078125e+01 -1.901523745048965680e-14 1.291034607778934751e-13 3.302646513474866152e-14 2.101684237342145434e-14
2.730000000000000000e+02 6.572416687011718750e+01 3.288013458251953125e+01 -5.304250758780305885e-14 2.301844560228735737e-14 -9.007217918028352643e-15 4.403528797570881170e-14
2.740000000000000000e+02 6.648079681396484375e+01 3.288495635986328125e+01 7.506014649345978118e-15 -2.026624040026708817e-13 -5.854691731421723944e-14 -5.304250758780305885e-14
2.750000000000000000e+02 6.799846649169921875e+01 3.286539459228515625e+01 -6.755413692631148659e-14 -9.757819552369539906e-14 -4.953969770212299228e-14 5.404330750817011586e-14
2.760000000000000000e+02 6.950419616699218750e+01 3.281866455078125000e+01 -5.504410996963601463e-15 -1.396118734942747297e-13 -4.353488801552528320e-14 1.901523778930283570e-13
2.770000000000000000e+02 6.875431060791015625e+01 3.284622573852539062e+01 -4.703769451307356075e-14 1.170938346284344789e-13 2.101684237342145434e-14 -2.802245536851800944e-14
2.780000000000000000e+02 7.176441192626953125e+01 3.279214859008789062e+01 -9.907939540424598457e-14 4.903929774193946378e-14 -1.501202929869195624e-14 -3.803047490097931360e-14
2.790000000000000000e+02 7.402256774902343750e+01 3.281061172485351562e+01 -1.220978477827969200e-13 6.204972381176551699e-14 -1.801443583605670529e-14 2.401924687790712998e-13
2.800000000000000000e+02 7.631689453125000000e+01 3.278442001342773438e+01 4.453568793589234021e-14 -4.953969770212299228e-14 -1.501203056924137712e-15 -7.506014988159157020e-14
2.810000000000000000e+02 7.722837066650390625e+01 3.436817550659179688e+01 2.401924891078620339e-14 -1.040834085586084257e-13 -2.401924891078620339e-14 2.902325867701685547e-14
2.820000000000000000e+02 7.881969451904296875e+01 3.679106903076171875e+01 3.302646513474866152e-14 1.971579908881249121e-13 6.905533680686207210e-14 1.301042606982605321e-14
2.830000000000000000e+02 7.959354400634765625e+01 3.353751373291015625e+01 5.004010189747125706e-16 -4.553649124439118623e-14 -1.351082687704252897e-14 -6.605293026949732305e-14
2.840000000000000000e+02 7.958951568603515625e+01 3.275908279418945312e+01 -8.406736949368581735e-14 -3.602887167211341057e-14 -3.602887167211341057e-14 -4.203368474684290867e-14
2.850000000000000000e+02 7.957789611816406250e+01 4.206023025512695312e+01 1.501203056924137712e-15 1.836471648581153304e-13 5.554451077685249039e-14 -3.903127820947815962e-14
2.860000000000000000e+02 7.872843170166015625e+01 4.016384124755859375e+01 8.957178260823178695e-14 3.357690644620325848e-13 1.276022608973428896e-13 3.702967498061225660e-14
2.870000000000000000e+02 7.855185699462890625e+01 4.196307373046875000e+01 2.977385861729214822e-14 1.728885453853787335e-13 6.079872391130669573e-14 2.552045048540268340e-14
2.880000000000000000e+02 7.969274139404296875e+01 3.819347381591796875e+01 9.057258252859884395e-14 8.456776945386934585e-14 5.254210423948774134e-14 1.200962445539310169e-14
2.890000000000000000e+02 7.966397857666015625e+01 3.744319534301757812e+01 -5.004010105043830980e-14 7.005614350349270714e-14 6.004812227696550847e-15 -2.401924891078620339e-14
2.900000000000000000e+02 7.909375000000000000e+01 3.815916061401367188e+01 6.405133042876320904e-14 -6.405133042876320904e-14 0.000000000000000000e+00 -1.020818019416107336e-13
2.910000000000000000e+02 7.960179901123046875e+01 3.589825439453125000e+01 1.301042606982605321e-14 9.707779556351187056e-14 3.302646513474866152e-14 2.702165375408505793e-14
2.920000000000000000e+02 7.959878540039062500e+01 3.510650634765625000e+01 -3.652927163229693908e-14 1.215974478226133915e-13 2.552045048540268340e-14 6.104892389139845998e-14
2.930000000000000000e+02 7.959677886962890625e+01 3.431975173950195312e+01 8.606896933441993136e-14 1.741395520621011328e-13 7.806255641895631925e-14 -4.003208151797700565e-15
2.940000000000000000e+02 3.838148117065429688e-01 4.203259658813476562e+01 1.751403587587317678e-14 7.506014649345978118e-15 7.506014649345978118e-15 2.201764398785440585e-14
2.950000000000000000e+02 3.778024613857269287e-01 4.115741348266601562e+01 -7.756215645877279075e-14 1.251002526260957745e-14 -1.951563910473907981e-14 1.601283260719080226e-14
2.960000000000000000e+02 4.691881179809570312e+00 3.805816650390625000e+01 -3.577867169202164632e-14 -1.068356151158814105e-13 -4.278428468711820143e-14 -1.050842084789754827e-13
2.970000000000000000e+02 6.623159790039062500e+01 3.865287399291992188e+01 -3.715477497065813872e-14 9.845389884214836296e-14 1.838973750026024617e-14 -1.251002526260957745e-14
2.980000000000000000e+02 7.902329254150390625e+01 3.884579849243164062e+01 2.502005052521915490e-14 1.251002475438980910e-13 4.503609128420765773e-14 2.902325867701685547e-14
2.990000000000000000e+02 3.804829418659210205e-01 1.896688461303710938e+00 -5.254210423948774134e-14 -2.251804564210382886e-14 -2.251804564210382886e-14 4.703769451307356075e-14
3.000000000000000000e+02 1.143588900566101074e+00 1.887528896331787109e+00 6.955573676704560060e-14 7.556054984177509870e-14 4.353488801552528320e-14 4.603689120457471473e-14
3.010000000000000000e+02 2.651648759841918945e+00 2.630199193954467773e+00 9.407538902614712151e-14 8.606896933441993136e-14 5.404330750817011586e-14 -1.000802021008766196e-13
3.020000000000000000e+02 1.128234028816223145e+00 6.686604976654052734e+00 -1.801443583605670529e-14 1.981587908084919691e-13 5.404330750817011586e-14 -1.200962445539310169e-14
3.030000000000000000e+02 1.887058734893798828e+00 6.683252334594726562e+00 1.451162933850842773e-14 1.205966479022463345e-13 4.053248147816053415e-14 -7.506014988159157020e-14
3.040000000000000000e+02 3.749856650829315186e-01 5.902740955352783203e+00 1.851483749030612830e-14 2.366896826103137563e-13 7.656135653840573374e-14 -1.401122768425900472e-14
3.050000000000000000e+02 3.709982633590698242e-01 8.327499389648437500e+00 2.502005094873562853e-15 9.257418236933295796e-14 2.852285871683332696e-14 5.404330750817011586e-14
3.060000000000000000e+02 3.676720559597015381e-01 9.136059761047363281e+00 -5.004010189747125706e-16 4.553649124439118623e-14 1.351082687704252897e-14 -1.401122768425900472e-14
3.070000000000000000e+02 3.649188280105590820e-01 9.942810058593750000e+00 -8.757017599123409490e-14 1.225982477429804485e-13 1.050842118671072717e-14 9.007217918028352643e-15
3.080000000000000000e+02 3.630129992961883545e-01 1.074840068817138672e+01 3.452766840343103605e-14 2.206768432268593760e-13 7.656135653840573374e-14 4.403528797570881170e-14
3.090000000000000000e+02 3.617526888847351074e-01 1.155334281921386719e+01 -8.456776945386934585e-14 1.696359388679222202e-13 2.552045048540268340e-14 3.402726844324750755e-14
3.100000000000000000e+02 3.615534603595733643e-01 1.316125488281250000e+01 -1.891515779726613000e-13 7.906335633932337625e-14 -3.302646513474866152e-14 7.005613842129502361e-15
3.110000000000000000e+02 3.631002306938171387e-01 1.557240200042724609e+01 1.281026608575264181e-13 1.921539912862896271e-13 9.607699564314481355e-14 1.000802037949425141e-15
3.120000000000000000e+02 3.635807037353515625e-01 1.637654304504394531e+01 -1.000802021008766196e-13 3.002405995263662808e-13 6.004811719476782494e-14 -1.401122768425900472e-14
3.130000000000000000e+02 3.639746010303497314e-01 1.718073654174804688e+01 9.907939540424598457e-14 2.712173476256130034e-13 1.110890215537049808e-13 5.304250758780305885e-14
3.140000000000000000e+02 3.641651868820190430e-01 1.798498535156250000e+01 -1.165934346682509504e-13 2.016616040823038247e-13 2.552045048540268340e-14 -4.103288143834406265e-14
3.150000000000000000e+02 3.644484281539916992e-01 1.878896331787109375e+01 8.006416303595401129e-14 2.401924687790712998e-13 9.607699564314481355e-14 6.004812227696550847e-15
3.160000000000000000e+02 3.657910823822021484e-01 2.200405693054199219e+01 -2.652125379390152943e-14 1.716375387086563342e-13 4.353488801552528320e-14 -1.601283260719080226e-14
3.170000000000000000e+02 3.667281270027160645e-01 2.280761909484863281e+01 3.602887167211341057e-14 2.441956955655938399e-13 8.406736949368581735e-14 -6.405133042876320904e-14
3.180000000000000000e+02 3.675199151039123535e-01 2.361183738708496094e+01 9.507618725244828400e-15 9.557658890669770702e-14 3.152526186606628700e-14 -4.003208151797700565e-14
3.190000000000000000e+02 3.681671321392059326e-01 2.441585922241210938e+01 -3.452766840343103605e-14 9.957980214069309111e-14 1.951563910473907981e-14 -3.002406113848275424e-15
3.200000000000000000e+02 3.686236143112182617e-01 2.521969413757324219e+01 7.455974992140804170e-14 2.607089349092317487e-13 1.005806020610601481e-13 -2.001604075898850282e-15
3.210000000000000000e+02 3.711889386177062988e-01 2.682568550109863281e+01 -1.150922347877003649e-13 6.505213034913026604e-14 -1.501202929869195624e-14 2.802245536851800944e-14
3.220000000000000000e+02 3.837779462337493896e-01 2.923617172241210938e+01 9.707779556351187056e-14 1.331066604593617031e-13 6.905533680686207210e-14 2.702165375408505793e-14
3.230000000000000000e+02 3.899125158786773682e-01 3.003977966308593750e+01 -1.421138868477195283e-13 1.220978477827969200e-13 -6.004812227696550847e-15 0.000000000000000000e+00
3.240000000000000000e+02 3.959003090858459473e-01 3.084314918518066406e+01 1.195958344293521214e-13 5.504410996963601463e-15 3.753007494079578510e-14 -2.702165375408505793e-14
3.250000000000000000e+02 4.003243446350097656e-01 3.164694404602050781e+01 -1.080866150163402317e-13 -9.207378240914942946e-14 -6.004811719476782494e-14 -4.803849782157240678e-14
3.260000000000000000e+02 3.982493281364440918e-01 3.325636291503906250e+01 -1.751403587587317678e-14 -1.676343390271881062e-13 -5.554451077685249039e-14 1.801443583605670529e-14
3.270000000000000000e+02 3.940126299858093262e-01 3.564941787719726562e+01 -3.002405859738391247e-14 -1.501202997631831404e-13 -5.404330750817011586e-14 2.001604075898850282e-14
3.280000000000000000e+02 4.196496009826660156e-01 3.645474624633789062e+01 1.025822086780578402e-13 -4.753809447325708926e-14 1.651323256737433076e-14 -8.807057595141762341e-14
3.290000000000000000e+02 4.593340456485748291e-01 3.727974319458007812e+01 -7.656135653840573374e-14 -7.856295637913984775e-14 -4.653729455289003225e-14 -8.106496295632106830e-14
3.300000000000000000e+02 4.826163649559020996e-01 3.812990188598632812e+01 1.751403587587317678e-14 -1.526222995641007829e-13 -4.053248147816053415e-14 -6.004811719476782494e-14
3.310000000000000000e+02 4.236149489879608154e-01 3.897455978393554688e+01 6.655333022968085155e-14 -1.316054605788111176e-13 -1.951563910473907981e-14 -5.404330750817011586e-14
3.320000000000000000e+02 2.812086343765258789e-01 4.041463851928710938e+01 1.050842084789754827e-13 -2.752205473070812314e-13 -5.104090097080536681e-14 3.602887167211341057e-14
3.330000000000000000e+02 9.617514610290527344e+00 1.839715838432312012e+00 -4.503608959014176322e-15 8.957178260823178695e-14 2.552045048540268340e-14 -3.102486190588275849e-14
3.340000000000000000e+02 8.077604293823242188e+00 1.846688985824584961e+00 -8.506817110811876886e-15 1.336070739720723877e-13 3.753007494079578510e-14 -3.803047490097931360e-14
3.350000000000000000e+02 8.834927558898925781e+00 2.526767015457153320e+00 -3.052446194569922999e-14 -1.045838085187919542e-13 -4.053248147816053415e-14 -1.100882199392720293e-14
3.360000000000000000e+02 7.306644916534423828e+00 1.849420070648193359e+00 -4.003208151797700565e-15 4.403528797570881170e-14 1.200962445539310169e-14 3.102486190588275849e-14
3.370000000000000000e+02 4.989510059356689453e+00 1.860403418540954590e+00 4.103288143834406265e-14 1.090874217129708668e-13 4.503609128420765773e-14 4.003208151797700565e-14
3.380000000000000000e+02 4.218496799468994141e+00 1.864956736564636230e+00 -6.255012377194904549e-14 2.476985088394056955e-13 5.554451077685249039e-14 -6.004811719476782494e-14
3.390000000000000000e+02 3.448142528533935547e+00 1.869660973548889160e+00 7.005613842129502361e-15 3.002406113848275424e-15 3.002406113848275424e-15 -5.804651735403371093e-14
3.400000000000000000e+02 1.909977197647094727e+00 1.880493164062500000e+00 6.154932385158198849e-14 -1.566255127980961670e-13 -2.852285871683332696e-14 -1.401122768425900472e-14
3.410000000000000000e+02 1.188577079772949219e+01 1.810841679573059082e+00 -3.152526186606628700e-14 -1.351082687704252897e-14 -1.351082687704252897e-14 4.203368474684290867e-14
3.420000000000000000e+02 1.472506046295166016e+01 5.084125995635986328e+00 8.256616283687165381e-14 1.251002526260957745e-14 2.852285871683332696e-14 -4.603689120457471473e-14
3.430000000000000000e+02 1.406081676483154297e+01 1.803485393524169922e+00 5.504410996963601463e-15 1.396118734942747297e-13 4.353488801552528320e-14 1.401122768425900472e-14
3.440000000000000000e+02 1.475898265838623047e+01 1.805037617683410645e+00 8.857097591160115191e-14 -5.354290754798658736e-14 1.050842118671072717e-14 2.902325867701685547e-14
3.450000000000000000e+02 1.185643863677978516e+01 2.495095968246459961e+00 2.051644071917203133e-14 5.454371085648543338e-14 2.251804564210382886e-14 1.140914348673333079e-13
3.460000000000000000e+02 1.110934734344482422e+01 2.496775150299072266e+00 3.502806921064751181e-15 1.501203056924137712e-15 1.501203056924137712e-15 -1.200962343895356499e-13
3.470000000000000000e+02 1.475861644744873047e+01 6.677500724792480469e+00 1.521218996039172544e-13 -7.205774334422682115e-14 2.401924891078620339e-14 -3.002405859738391247e-14
3.480000000000000000e+02 1.476201343536376953e+01 8.268546104431152344e+00 -4.453568793589234021e-14 -4.308452737373374974e-13 -1.426142868079030568e-13 2.502005052521915490e-14
3.490000000000000000e+02 1.476132297515869141e+01 9.864010810852050781e+00 0.000000000000000000e+00 -3.202566521438160452e-13 -9.607699564314481355e-14 -2.502005052521915490e-14
3.500000000000000000e+02 1.476212882995605469e+01 1.066228008270263672e+01 2.902325867701685547e-14 -3.993200084831394214e-13 -1.110890215537049808e-13 1.401122768425900472e-14
3.510000000000000000e+02 1.476013755798339844e+01 1.305255222320556641e+01 -1.276022608973428896e-13 -2.376904825306808133e-13 -1.095878216731543953e-13 8.706977603105056640e-14
3.520000000000000000e+02 1.475361442565917969e+01 1.384996128082275391e+01 6.204972381176551699e-14 -2.021620040424873532e-13 -4.203368474684290867e-14 -4.703769451307356075e-14
3.530000000000000000e+02 1.474631786346435547e+01 1.464737319946289062e+01 -8.156536291650459680e-14 -2.637113346703329197e-13 -1.035830085984248972e-13 1.301042606982605321e-14
3.540000000000000000e+02 1.474102878570556641e+01 1.544419670104980469e+01 7.105694342385976414e-14 -3.813055557064237711e-13 -9.307458910578006450e-14 -3.402726844324750755e-14
3.550000000000000000e+02 1.474043941497802734e+01 1.704594802856445312e+01 -3.252606517456513302e-14 -4.028227946518969649e-13 -1.306046606584440606e-13 3.002406113848275424e-15
3.560000000000000000e+02 1.474354457855224609e+01 1.784932899475097656e+01 1.451162933850842773e-14 -5.199166292803314438e-13 -1.516214996437337259e-13 1.200962445539310169e-14
3.570000000000000000e+02 1.474783515930175781e+01 1.865280914306640625e+01 -5.804651735403371093e-14 -4.823865916089853378e-13 -1.621299259126421366e-13 -3.002405859738391247e-14
3.580000000000000000e+02 1.475285339355468750e+01 1.945574569702148438e+01 1.401122768425900472e-14 -3.142518255165593910e-13 -9.007218256841531545e-14 -4.003208151797700565e-15
3.590000000000000000e+02 1.478456592559814453e+01 2.106376647949218750e+01 -7.506014988159157020e-14 -3.753007561842214290e-13 -1.351082738526229732e-13 -5.504411081666896188e-14
3.600000000000000000e+02 1.482875728607177734e+01 2.186547088623046875e+01 1.165934346682509504e-13 -3.617899166016846912e-13 -7.355895000104098469e-14 1.200962445539310169e-14
3.610000000000000000e+02 1.504648113250732422e+01 2.506749153137207031e+01 6.505213034913026604e-15 -4.318460736577045544e-13 -1.276022608973428896e-13 -2.201764398785440585e-14
3.620000000000000000e+02 1.426671504974365234e+01 2.430904197692871094e+01 -4.603689120457471473e-14 -2.942358000041639388e-13 -1.020818019416107336e-13 -1.401122768425900472e-14
3.630000000000000000e+02 1.509077167510986328e+01 2.586841011047363281e+01 -8.056456299613753980e-14 -5.149126567835504709e-13 -1.786431517037528893e-13 1.901523745048965680e-14
3.640000000000000000e+02 1.523684883117675781e+01 2.747169685363769531e+01 8.506817110811876886e-15 -2.937353864914532542e-13 -8.556856937423640286e-14 -1.601283260719080226e-14
3.650000000000000000e+02 1.532606410980224609e+01 2.827399444580078125e+01 -7.455974992140804170e-14 -4.208372474286126153e-13 -1.486190998826325549e-13 -7.606094980195862720e-14
3.660000000000000000e+02 1.604200935363769531e+01 3.236559677124023438e+01 -2.201764398785440585e-14 -7.806255641895631925e-14 -3.002405859738391247e-14 2.151724233360498284e-14
3.670000000000000000e+02 1.638586235046386719e+01 3.310260009765625000e+01 2.101684237342145434e-14 -7.105694342385976414e-14 -1.501202929869195624e-14 -2.301844560228735737e-14
3.680000000000000000e+02 1.685244560241699219e+01 3.447873306274414062e+01 2.702165375408505793e-14 -2.171740299530475204e-13 -5.704571743366665393e-14 -1.601283260719080226e-14
3.690000000000000000e+02 1.612411880493164062e+01 3.447901535034179688e+01 0.000000000000000000e+00 1.601283260719080226e-13 4.803849782157240678e-14 -7.205774334422682115e-14
3.700000000000000000e+02 1.720831298828125000e+01 3.597536468505859375e+01 -3.853087824929463112e-14 -1.766415518630187753e-13 -6.455173038894673754e-14 -1.501202929869195624e-14
3.710000000000000000e+02 1.734974670410156250e+01 3.669573974609375000e+01 -6.455173038894673754e-14 -2.106688169181344938e-13 -8.256616283687165381e-14 -7.706175649858926224e-14
3.720000000000000000e+02 1.263507175445556641e+01 1.805405259132385254e+00 4.303448466720996568e-14 2.471980953266950110e-13 8.706977603105056640e-14 -8.406736949368581735e-14
3.730000000000000000e+02 2.174480819702148438e+01 3.818302917480468750e+01 -1.561251128379126385e-13 -2.041636038832214672e-13 -1.080866150163402317e-13 -1.611291259922750796e-13
3.740000000000000000e+02 2.054035758972167969e+01 3.891826629638671875e+01 -8.006416303595401129e-14 -8.006416303595401129e-14 -4.803849782157240678e-14 1.200962445539310169e-14
3.750000000000000000e+02 2.364655685424804688e+01 3.928693389892578125e+01 -1.195958344293521214e-13 -5.504410996963601463e-15 -3.753007494079578510e-14 1.050842118671072717e-14
3.760000000000000000e+02 5.335801696777343750e+01 3.419006729125976562e+01 -1.601283260719080226e-14 1.761411519028352468e-13 4.803849782157240678e-14 -3.202566521438160452e-14
3.770000000000000000e+02 5.631797790527343750e+01 3.449555206298828125e+01 -8.957178260823178695e-14 1.446158866486371708e-13 1.651323256737433076e-14 -7.906335633932337625e-14
3.780000000000000000e+02 5.843750000000000000e+01 3.311469650268554688e+01 -3.803047490097931360e-14 9.807859548387892756e-14 1.801443583605670529e-14 1.401122768425900472e-14
3.790000000000000000e+02 5.782985687255859375e+01 3.405176162719726562e+01 -1.045838085187919542e-13 2.296840560626900452e-13 3.753007494079578510e-14 -9.307458910578006450e-14
3.800000000000000000e+02 4.925664520263671875e+01 3.524695205688476562e+01 -9.507618725244828400e-15 -9.557658890669770702e-14 -3.152526186606628700e-14 -4.603689120457471473e-14
3.810000000000000000e+02 5.150925445556640625e+01 3.479512786865234375e+01 -8.006416303595401129e-15 8.807057595141762341e-14 2.401924891078620339e-14 3.202566521438160452e-14
3.820000000000000000e+02 5.290652847290039062e+01 3.487318420410156250e+01 -9.407538902614712151e-14 -8.606896933441993136e-14 -5.404330750817011586e-14 2.201764398785440585e-14
3.830000000000000000e+02 5.210971832275390625e+01 3.449475860595703125e+01 4.403528797570881170e-14 1.561251128379126385e-13 6.004811719476782494e-14 -6.004811719476782494e-14
3.840000000000000000e+02 5.271881866455078125e+01 3.428647994995117188e+01 -4.503609128420765773e-14 -6.505213034913026604e-14 -3.302646513474866152e-14 7.205774334422682115e-14
3.850000000000000000e+02 5.398142242431640625e+01 3.345006561279296875e+01 -4.503609128420765773e-14 -6.505213034913026604e-14 -3.302646513474866152e-14 -3.102486190588275849e-14
3.860000000000000000e+02 5.470510864257812500e+01 3.436076736450195312e+01 -5.104090097080536681e-14 1.000802037949425141e-15 -1.501202929869195624e-14 -5.004010105043830980e-14
3.870000000000000000e+02 6.134357452392578125e+01 3.283745193481445312e+01 -2.101684237342145434e-14 3.112494257554582200e-13 8.706977603105056640e-14 -1.000802037949425141e-15
3.880000000000000000e+02 5.857692337036132812e+01 3.402073287963867188e+01 -7.405934996122451319e-14 1.401122768425900472e-14 -1.801443583605670529e-14 1.020818019416107336e-13
3.890000000000000000e+02 5.936997604370117188e+01 3.407490921020507812e+01 4.553649124439118623e-14 1.951563910473907981e-14 1.951563910473907981e-14 8.006416303595401129e-15
3.900000000000000000e+02 6.078529739379882812e+01 3.361891937255859375e+01 2.552045048540268340e-14 2.396920823714149273e-13 7.956375629950690476e-14 5.804651735403371093e-14
3.910000000000000000e+02 6.332186126708984375e+01 3.364231491088867188e+01 9.807859548387892756e-14 2.021620040424873532e-13 9.007218256841531545e-14 6.004812227696550847e-15
3.920000000000000000e+02 6.140996932983398438e+01 3.354561614990234375e+01 -2.001604075898850282e-15 2.201764398785440585e-14 6.004812227696550847e-15 -4.803849782157240678e-14
3.930000000000000000e+02 4.677677917480468750e+01 3.469829559326171875e+01 -6.805453688649501509e-14 -1.321058605389946461e-13 -6.004811719476782494e-14 3.803047490097931360e-14
3.940000000000000000e+02 6.723773193359375000e+01 3.287851333618164062e+01 -4.703769451307356075e-14 1.170938346284344789e-13 2.101684237342145434e-14 5.004010189747125706e-15
3.950000000000000000e+02 6.404930114746093750e+01 3.377774429321289062e+01 -6.755413692631148659e-14 2.226784430675934900e-13 4.653729455289003225e-14 6.054852393121493148e-14
3.960000000000000000e+02 6.562161254882812500e+01 3.389457321166992188e+01 3.452766840343103605e-14 -9.957980214069309111e-14 -1.951563910473907981e-14 -1.701363422162375377e-14
3.970000000000000000e+02 6.546669769287109375e+01 3.488629150390625000e+01 1.351082687704252897e-14 2.116696303910287069e-13 6.755413692631148659e-14 -4.403528797570881170e-14
3.980000000000000000e+02 4.659670257568359375e+01 3.731055450439453125e+01 -6.630313024958908730e-14 -5.129110433902892008e-14 -3.527827173183811782e-14 5.604491073703601889e-14
3.990000000000000000e+02 4.294873428344726562e+01 3.884858322143554688e+01 -6.655333022968085155e-14 -2.852285871683332696e-14 -2.852285871683332696e-14 1.926543912464731556e-14
4.000000000000000000e+02 6.720898437500000000e+01 3.392987060546875000e+01 1.100882199392720293e-14 -4.103288143834406265e-14 -9.007217918028352643e-15 6.004812227696550847e-15
4.010000000000000000e+02 6.954388427734375000e+01 3.372932052612304688e+01 6.505213034913026604e-15 4.853889778175593528e-14 1.651323256737433076e-14 6.705373696612795809e-14
4.020000000000000000e+02 6.968093872070312500e+01 3.465927505493164062e+01 -6.330072371222433825e-14 -4.253408555405938443e-15 -2.026624073908026707e-14 4.203368474684290867e-14
4.030000000000000000e+02 4.250891494750976562e+01 3.622262573242187500e+01 -7.818765471493630687e-15 1.110264698646161452e-13 3.096231360492571194e-14 7.380914998113274894e-14
4.040000000000000000e+02 3.333620071411132812e+01 3.704629898071289062e+01 -6.104892389139845998e-14 1.110890215537049808e-13 1.501202929869195624e-14 -7.806255641895631925e-14
4.050000000000000000e+02 3.718306732177734375e+01 3.630274581909179688e+01 -1.501202997631831404e-13 -1.100882216333379238e-13 -7.806255641895631925e-14 6.605293026949732305e-14
4.060000000000000000e+02 3.702173995971679688e+01 3.875289154052734375e+01 -6.605293026949732305e-14 8.606896933441993136e-14 6.004812227696550847e-15 9.332478908587182875e-14
4.070000000000000000e+02 3.891080474853515625e+01 3.876390838623046875e+01 -6.217482718994318813e-14 -2.664635378394741155e-14 -2.664635378394741155e-14 -8.506817110811876886e-15
4.080000000000000000e+02 7.028981781005859375e+01 3.364387512207031250e+01 4.603689120457471473e-14 -2.602085213965210642e-14 6.004812227696550847e-15 -3.002405859738391247e-14
4.090000000000000000e+02 7.111457061767578125e+01 3.607717132568359375e+01 -1.040834085586084257e-13 1.040834085586084257e-13 0.000000000000000000e+00 3.953167816966168813e-14
4.100000000000000000e+02 7.104309844970703125e+01 3.362279891967773438e+01 -3.903127820947815962e-14 2.902325867701685547e-14 -3.002406113848275424e-15 -5.504411081666896188e-14
4.110000000000000000e+02 7.326721954345703125e+01 3.280926895141601562e+01 4.753809447325708926e-14 1.576263127184632240e-13 6.154932385158198849e-14 -6.004811719476782494e-14
4.120000000000000000e+02 7.179401397705078125e+01 3.363768768310546875e+01 -7.205774334422682115e-14 -8.006416303595401129e-15 -2.401924891078620339e-14 2.301844560228735737e-14
4.130000000000000000e+02 7.330616760253906250e+01 3.368593978881835938e+01 -1.180946345488015359e-13 1.781427517435693608e-13 1.801443583605670529e-14 -1.000802037949425141e-15
4.140000000000000000e+02 7.553269195556640625e+01 3.279716491699218750e+01 -4.403528797570881170e-14 4.003208151797700565e-15 -1.200962445539310169e-14 1.070858150959731747e-13
4.150000000000000000e+02 7.484239959716796875e+01 3.366828536987304688e+01 -3.252606517456513302e-14 7.756215645877279075e-14 1.351082687704252897e-14 7.405934996122451319e-14
4.160000000000000000e+02 7.713137817382812500e+01 3.277244949340820312e+01 -4.453568793589234021e-14 -1.105886215935214523e-13 -4.653729455289003225e-14 -6.104892389139845998e-14
4.170000000000000000e+02 7.961899566650390625e+01 3.668356704711914062e+01 1.951563910473907981e-14 1.456166865690042278e-13 4.953969770212299228e-14 -3.202566521438160452e-14
4.180000000000000000e+02 1.181217861175537109e+01 3.167213678359985352e+00 -9.007217918028352643e-15 -1.411130869273524713e-13 -4.503609128420765773e-14 2.401924891078620339e-14
4.190000000000000000e+02 1.037916374206542969e+01 1.831888914108276367e+00 2.652125379390152943e-14 1.486190998826325549e-13 5.254210423948774134e-14 -1.220978477827969200e-13
4.200000000000000000e+02 1.474833202362060547e+01 5.882915496826171875e+00 -1.386110735739076727e-13 -1.966575909279413836e-13 -1.005806020610601481e-13 -1.200962445539310169e-14
4.210000000000000000e+02 1.336041927337646484e+01 1.802237391471862793e+00 -1.951563910473907981e-14 1.746399520222846613e-13 4.653729455289003225e-14 5.204170427930421283e-14
4.220000000000000000e+02 1.397315597534179688e+01 5.262047290802001953e+00 -1.030826086382413687e-13 9.307458910578006450e-14 -3.002406113848275424e-15 2.001604075898850282e-15
4.230000000000000000e+02 2.943404579162597656e+01 4.009236907958984375e+01 -1.391114735340912012e-13 -7.105694342385976414e-14 -6.305052373213257400e-14 7.606094980195862720e-14
4.240000000000000000e+02 2.973142433166503906e+01 3.789293670654296875e+01 -9.157338244896590096e-14 -1.536231130369949960e-13 -7.355895000104098469e-14 5.804651735403371093e-14
4.250000000000000000e+02 3.056123542785644531e+01 3.781125259399414062e+01 -1.536231130369949960e-13 4.853889778175593528e-14 -3.152526186606628700e-14 -2.001604075898850282e-14
4.260000000000000000e+02 5.762032508850097656e+00 1.856544494628906250e+00 4.703769451307356075e-14 -1.170938346284344789e-13 -2.101684237342145434e-14 -3.202566521438160452e-14
4.270000000000000000e+02 6.534949779510498047e+00 1.852896928787231445e+00 2.952365863720038397e-14 1.956567910075743266e-13 6.755413692631148659e-14 6.004812227696550847e-15
4.280000000000000000e+02 3.717878162860870361e-01 4.293626785278320312e+00 -4.903929774193946378e-14 1.391114735340912012e-13 2.702165375408505793e-14 2.602085213965210642e-14
4.290000000000000000e+02 1.878736734390258789e+00 3.429925680160522461e+00 2.101684237342145434e-14 9.007217918028352643e-15 9.007217918028352643e-15 -1.200962445539310169e-14
4.300000000000000000e+02 2.678400754928588867e+00 1.874671220779418945e+00 1.801443583605670529e-14 -3.803047490097931360e-14 -6.004812227696550847e-15 -8.306656957331876034e-14
4.310000000000000000e+02 1.886605858802795410e+00 2.648213863372802734e+00 7.606094980195862720e-14 1.240994476235310340e-13 6.004811719476782494e-14 -4.503609128420765773e-14
4.320000000000000000e+02 3.740185499191284180e-01 2.692420005798339844e+00 6.405133042876320904e-14 9.607699564314481355e-14 4.803849782157240678e-14 7.105694342385976414e-14
4.330000000000000000e+02 7.292843341827392578e+00 2.545204877853393555e+00 -5.504410996963601463e-15 1.806447650970141594e-13 5.254210423948774134e-14 5.404330750817011586e-14
4.340000000000000000e+02 6.518808841705322266e+00 2.556343317031860352e+00 3.252606517456513302e-14 -7.756215645877279075e-14 -1.351082687704252897e-14 9.007217918028352643e-15
4.350000000000000000e+02 1.035908889770507812e+01 2.505865335464477539e+00 -9.357498906596359300e-14 -1.316054605788111176e-13 -6.755413692631148659e-14 7.005613842129502361e-15
4.360000000000000000e+02 9.601194381713867188e+00 2.516307115554809570e+00 8.506817110811876886e-15 -1.336070739720723877e-13 -3.753007494079578510e-14 -1.601283260719080226e-13
4.370000000000000000e+02 7.957719421386718750e+01 4.045541763305664062e+01 -8.506816941405287436e-14 5.504411081666896188e-14 -9.007217918028352643e-15 -1.100882199392720293e-14
4.380000000000000000e+02 7.895898437500000000e+01 3.954772567749023438e+01 -5.004010105043830980e-14 7.005614350349270714e-14 6.004812227696550847e-15 -4.203368474684290867e-14
4.390000000000000000e+02 7.951882934570312500e+01 4.122216415405273438e+01 -3.427746842333927180e-14 7.681155651849749799e-14 1.276022524270134170e-14 -4.803849782157240678e-14
4.400000000000000000e+02 7.964492034912109375e+01 3.970796585083007812e+01 1.000802021008766196e-13 1.801443651368306309e-13 8.406736949368581735e-14 -3.002405859738391247e-14
4.410000000000000000e+02 7.880810546875000000e+01 3.594499588012695312e+01 2.602085213965210642e-14 1.941555911270237411e-13 6.605293026949732305e-14 2.301844560228735737e-14
4.420000000000000000e+02 7.797813415527343750e+01 3.354725646972656250e+01 3.002406113848275424e-15 4.703769451307356075e-14 1.501202929869195624e-14 -9.507618894651417851e-14
4.430000000000000000e+02 7.880714416503906250e+01 3.512420272827148438e+01 1.451162933850842773e-14 1.205966479022463345e-13 4.053248147816053415e-14 -1.110890215537049808e-13
4.440000000000000000e+02 7.876902008056640625e+01 3.276022720336914062e+01 -1.050842084789754827e-13 -4.503609128420765773e-14 -4.503609128420765773e-14 2.001604075898850282e-14
4.450000000000000000e+02 7.878339385986328125e+01 3.353870010375976562e+01 2.602085213965210642e-14 1.941555911270237411e-13 6.605293026949732305e-14 8.506816941405287436e-14
4.460000000000000000e+02 2.570619392395019531e+01 3.826929855346679688e+01 -1.651323256737433076e-14 6.154932385158198849e-14 1.351082687704252897e-14 9.007217918028352643e-15
4.470000000000000000e+02 2.893204879760742188e+01 3.886441421508789062e+01 -2.401924891078620339e-14 -5.604491073703601889e-14 -2.401924891078620339e-14 2.902325867701685547e-14
4.480000000000000000e+02 1.366205120086669922e+01 2.594551467895507812e+01 -6.255012377194904549e-14 -3.928147954482263948e-13 -1.366094737331735587e-13 8.907137587178468041e-14
4.490000000000000000e+02 1.515336513519287109e+01 2.667059707641601562e+01 -3.402726844324750755e-14 -2.662133209187234062e-13 -9.007218256841531545e-14 -1.601283260719080226e-14
4.500000000000000000e+02 1.486568355560302734e+01 2.266705703735351562e+01 -1.055846084391590112e-13 -3.197562386311053606e-13 -1.276022608973428896e-13 -7.005613842129502361e-15
4.510000000000000000e+02 1.443814849853515625e+01 2.671575927734375000e+01 2.502005094873562853e-15 -2.276824562219559311e-13 -6.755413692631148659e-14 5.004010189747125706e-15
4.520000000000000000e+02 1.421522712707519531e+01 2.350607490539550781e+01 -7.956375629950690476e-14 -4.458572996478976647e-13 -1.576263127184632240e-13 -5.204170427930421283e-14
4.530000000000000000e+02 1.498425388336181641e+01 2.426951408386230469e+01 -6.054852393121493148e-14 -4.148324208013559611e-13 -1.426142868079030568e-13 5.404330750817011586e-14
4.540000000000000000e+02 1.389195156097412109e+01 3.001349449157714844e+01 8.106496295632106830e-14 -1.711371387484728057e-13 -2.702165375408505793e-14 2.602085213965210642e-14
4.550000000000000000e+02 1.472625160217285156e+01 2.998105812072753906e+01 1.225982477429804485e-13 -2.677145343518011478e-13 -4.353488801552528320e-14 -1.391114735340912012e-13
4.560000000000000000e+02 1.431961822509765625e+01 2.510852050781250000e+01 5.254210423948774134e-14 -2.977385861729214822e-13 -7.355895000104098469e-14 1.401122768425900472e-14
4.570000000000000000e+02 1.668153381347656250e+01 3.375155639648437500e+01 -5.404330750817011586e-14 -2.061652172764827373e-13 -7.806255641895631925e-14 7.005613842129502361e-15
4.580000000000000000e+02 1.604782104492187500e+01 3.368678665161132812e+01 3.502807175174635357e-14 -3.052445991282015658e-13 -8.106496295632106830e-14 2.201764398785440585e-14
4.590000000000000000e+02 1.631682205200195312e+01 3.648504257202148438e+01 2.251804479507088161e-15 -4.478589130411589347e-14 -1.276022524270134170e-14 2.401924891078620339e-14
4.600000000000000000e+02 1.416984844207763672e+01 2.270122337341308594e+01 9.857899544406245607e-14 -3.237594383125735886e-13 -6.755413692631148659e-14 -1.010810020212436766e-13
4.610000000000000000e+02 1.538483238220214844e+01 3.448473739624023438e+01 5.504410996963601463e-15 -2.051644071917203133e-14 -4.503608959014176322e-15 -6.905533680686207210e-14
4.620000000000000000e+02 1.450940990447998047e+01 2.752173995971679688e+01 -5.454371085648543338e-14 -4.808853510708532841e-13 -1.606287260320915511e-13 -1.150922347877003649e-13
4.630000000000000000e+02 1.458227729797363281e+01 2.833113670349121094e+01 -2.852285871683332696e-14 -2.867297870488838551e-13 -9.457578898633065001e-14 9.207378240914942946e-14
4.640000000000000000e+02 1.475860214233398438e+01 2.025968170166015625e+01 5.854691731421723944e-14 -3.637915164424188053e-13 -9.157338244896590096e-14 1.801443583605670529e-14
4.650000000000000000e+02 1.567962551116943359e+01 3.069292449951171875e+01 8.206576287668812530e-14 -1.020818019416107336e-13 -6.004812227696550847e-15 -5.404330750817011586e-14
4.660000000000000000e+02 1.704266166687011719e+01 3.522808456420898438e+01 -1.040834085586084257e-13 2.401924891078620339e-14 -2.401924891078620339e-14 -4.903929774193946378e-14
4.670000000000000000e+02 1.556507015228271484e+01 3.594119262695312500e+01 1.501203056924137712e-15 -2.166736299928639919e-13 -6.455173038894673754e-14 -1.135910281308862013e-13
4.680000000000000000e+02 1.465484428405761719e+01 2.915006828308105469e+01 -7.005613842129502361e-15 -3.232590519049172162e-13 -9.907939540424598457e-14 -2.502005052521915490e-14
4.690000000000000000e+02 1.480381202697753906e+01 3.083261680603027344e+01 -1.301042606982605321e-14 -9.707779556351187056e-14 -3.302646513474866152e-14 3.002405859738391247e-14
4.700000000000000000e+02 1.524019050598144531e+01 3.362252807617187500e+01 -1.801443583605670529e-14 3.803047490097931360e-14 6.004812227696550847e-15 -4.303448466720996568e-14
4.710000000000000000e+02 1.403064441680908203e+01 1.867730331420898438e+01 -2.151724233360498284e-14 -2.837273601827283720e-13 -9.157338244896590096e-14 -4.003208151797700565e-14
4.720000000000000000e+02 1.405820465087890625e+01 1.309179687500000000e+01 4.553649124439118623e-14 -1.406126869671689428e-13 -2.852285871683332696e-14 -1.170938346284344789e-13
4.730000000000000000e+02 1.473902225494384766e+01 1.624360275268554688e+01 2.902325867701685547e-14 -3.993200084831394214e-13 -1.110890215537049808e-13 5.504411081666896188e-14
4.740000000000000000e+02 1.406520366668701172e+01 1.073866462707519531e+01 -1.401122768425900472e-14 -6.004812227696550847e-15 -6.004812227696550847e-15 -1.110890215537049808e-13
4.750000000000000000e+02 1.399571895599365234e+01 1.545990180969238281e+01 8.006416303595401129e-14 -2.401924687790712998e-13 -4.803849782157240678e-14 1.421138868477195283e-13
4.760000000000000000e+02 1.476142501831054688e+01 9.065923690795898438e+00 -1.351082687704252897e-14 -3.717979429104095734e-13 -1.155926347478838934e-13 6.004812227696550847e-15
4.770000000000000000e+02 1.476185607910156250e+01 7.472397804260253906e+00 -8.306656957331876034e-14 -1.271018609371593611e-13 -6.305052373213257400e-14 4.803849782157240678e-14
4.780000000000000000e+02 1.406223392486572266e+01 9.947282791137695312e+00 -4.553649124439118623e-14 -3.397722912485551250e-13 -1.155926347478838934e-13 -5.004010189747125706e-15
4.790000000000000000e+02 1.334752559661865234e+01 7.697714805603027344e+00 5.004010189747125706e-16 -4.553649124439118623e-14 -1.351082687704252897e-14 5.604491073703601889e-14
4.800000000000000000e+02 1.332437515258789062e+01 2.517943620681762695e+00 -9.457578898633065001e-14 -4.053248147816053415e-14 -4.053248147816053415e-14 4.103288143834406265e-14
4.810000000000000000e+02 1.393931293487548828e+01 3.297310829162597656e+00 -8.106496295632106830e-14 -1.491194998428160834e-13 -6.905533680686207210e-14 8.306656957331876034e-14
4.820000000000000000e+02 1.468167495727539062e+01 3.418307781219482422e+00 4.253408470702643718e-14 -2.752205540833448094e-14 4.503608959014176322e-15 -1.401122768425900472e-14
4.830000000000000000e+02 1.406174755096435547e+01 7.584420680999755859e+00 -1.150922280114367868e-14 -2.336872557441582732e-13 -7.355895000104098469e-14 -1.020818019416107336e-13
4.840000000000000000e+02 1.405347442626953125e+01 6.806577205657958984e+00 -2.001604075898850282e-15 -1.381106736137241442e-13 -4.203368474684290867e-14 2.401924891078620339e-14
4.850000000000000000e+02 1.406257152557373047e+01 8.367709159851074219e+00 -3.652927163229693908e-14 -1.986592043212026537e-13 -7.055654346367623564e-14 7.105694342385976414e-14
4.860000000000000000e+02 1.406171226501464844e+01 9.156023979187011719e+00 -6.405133042876320904e-14 -5.764619467538145692e-13 -1.921539912862896271e-13 -9.007218256841531545e-14
4.870000000000000000e+02 1.334881019592285156e+01 1.311927223205566406e+01 -4.103288143834406265e-14 -1.090874217129708668e-13 -4.503609128420765773e-14 2.401924891078620339e-14
4.880000000000000000e+02 1.403673362731933594e+01 1.387952041625976562e+01 -1.140914348673333079e-13 -1.861491782115601290e-13 -9.007218256841531545e-14 2.702165375408505793e-14
4.890000000000000000e+02 1.401146602630615234e+01 1.466968154907226562e+01 1.301042606982605321e-14 -3.833071555471578851e-13 -1.110890215537049808e-13 -3.302646513474866152e-14
4.900000000000000000e+02 3.900537788867950439e-01 3.405736541748046875e+01 1.351082687704252897e-14 5.154130431912068433e-14 1.951563910473907981e-14 -2.902325867701685547e-14
4.910000000000000000e+02 1.995311021804809570e+00 3.557020187377929688e+01 2.652125379390152943e-14 -1.150922280114367868e-14 4.503608959014176322e-15 -3.602887167211341057e-14
4.920000000000000000e+02 3.737642467021942139e-01 2.762922859191894531e+01 1.220978477827969200e-13 9.807859548387892756e-14 6.605293026949732305e-14 -3.402726844324750755e-14
4.930000000000000000e+02 1.903873801231384277e+00 2.922692871093750000e+01 1.225982477429804485e-13 5.254210423948774134e-14 5.254210423948774134e-14 1.301042606982605321e-14
4.940000000000000000e+02 3.649736046791076660e-01 2.120141601562500000e+01 1.100882199392720293e-14 2.792237469885494594e-13 8.706977603105056640e-14 -3.502807175174635357e-14
4.950000000000000000e+02 1.824917674064636230e+00 2.284473991394042969e+01 -3.002405859738391247e-14 1.701363388281057487e-13 4.203368474684290867e-14 -6.405133042876320904e-14
4.960000000000000000e+02 1.098197698593139648e+00 2.282043266296386719e+01 2.552045048540268340e-14 7.956375629950690476e-14 3.152526186606628700e-14 -1.020818019416107336e-13
4.970000000000000000e+02 2.551344156265258789e+00 2.368819236755371094e+01 -5.404330750817011586e-14 1.140914348673333079e-13 1.801443583605670529e-14 -6.305052373213257400e-14
4.980000000000000000e+02 1.104840636253356934e+00 2.603129386901855469e+01 -2.001604075898850282e-14 6.004811719476782494e-14 1.200962445539310169e-14 -1.701363422162375377e-14
4.990000000000000000e+02 1.102357625961303711e+00 2.523173713684082031e+01 9.007217918028352643e-15 1.411130869273524713e-13 4.503609128420765773e-14 -1.251002475438980910e-13
5.000000000000000000e+02 3.695454001426696777e-01 2.602269172668457031e+01 4.403528797570881170e-14 1.561251128379126385e-13 6.004811719476782494e-14 -3.702967498061225660e-14
5.010000000000000000e+02 1.109026074409484863e+00 2.683101272583007812e+01 4.603689120457471473e-14 1.341074739322559162e-13 5.404330750817011586e-14 -8.406736949368581735e-14
5.020000000000000000e+02 1.148671865463256836e+00 2.923541450500488281e+01 -8.506816941405287436e-14 2.151724301123134064e-13 3.903127820947815962e-14 -6.405133042876320904e-14
5.030000000000000000e+02 2.719673156738281250e+00 3.000103569030761719e+01 6.405133042876320904e-14 9.607699564314481355e-14 4.803849782157240678e-14 5.204170427930421283e-14
5.040000000000000000e+02 1.211556911468505859e+00 3.245753479003906250e+01 -6.505213034913026604e-14 -1.651323256737433076e-13 -6.905533680686207210e-14 -9.907939540424598457e-14
5.050000000000000000e+02 1.204958081245422363e+00 3.164700317382812500e+01 2.502005052521915490e-14 -3.502807175174635357e-14 -3.002406113848275424e-15 6.505213034913026604e-14
5.060000000000000000e+02 4.017814695835113525e-01 3.245183181762695312e+01 -1.200962445539310169e-14 -1.881507780522942430e-13 -6.004811719476782494e-14 -4.003208151797700565e-15
5.070000000000000000e+02 1.205963253974914551e+00 3.327110290527343750e+01 3.552847171192988207e-14 -3.052446194569922999e-14 1.501203056924137712e-15 -6.605293026949732305e-14
5.080000000000000000e+02 1.183876156806945801e+00 3.560928344726562500e+01 6.004812227696550847e-15 -2.261812563414053456e-13 -6.605293026949732305e-14 -9.807859548387892756e-14
5.090000000000000000e+02 2.286682128906250000e+00 3.708164978027343750e+01 3.252606517456513302e-14 -7.756215645877279075e-14 -1.351082687704252897e-14 -5.904731727440076794e-14
5.100000000000000000e+02 8.034610748291015625e-01 4.004941177368164062e+01 3.108741359497159407e-14 1.332317689197370578e-14 1.332317689197370578e-14 -3.602887167211341057e-14
5.110000000000000000e+02 2.927251458168029785e-01 3.973352432250976562e+01 -1.521218996039172544e-13 -8.807057595141762341e-14 -7.205774334422682115e-14 3.002405859738391247e-14
5.120000000000000000e+02 1.168962121009826660e+00 4.076676177978515625e+01 4.703769451307356075e-14 -1.170938346284344789e-13 -2.101684237342145434e-14 7.205774334422682115e-14
5.130000000000000000e+02 1.302757382392883301e+00 4.185773468017578125e+01 7.255814330441034965e-14 -3.753007494079578510e-14 1.050842118671072717e-14 -2.201764398785440585e-14
5.140000000000000000e+02 3.647612333297729492e-01 1.959312057495117188e+01 -7.205774334422682115e-14 3.122502256758252770e-13 7.205774334422682115e-14 4.003208151797700565e-15
5.150000000000000000e+02 1.093091368675231934e+00 2.121699714660644531e+01 3.302646513474866152e-14 1.971579908881249121e-13 6.905533680686207210e-14 -2.201764398785440585e-14
5.160000000000000000e+02 3.617110848426818848e-01 1.396554946899414062e+01 1.651323256737433076e-13 1.851483647386659159e-13 1.050842084789754827e-13 1.901523745048965680e-14
5.170000000000000000e+02 1.800767183303833008e+00 1.561177349090576172e+01 1.070858150959731747e-13 1.831467648979318019e-13 8.706977603105056640e-14 -1.000802037949425141e-14
5.180000000000000000e+02 1.119351983070373535e+00 7.505113124847412109e+00 -2.251804564210382886e-14 -3.252606517456513302e-14 -1.651323256737433076e-14 5.004010105043830980e-14
5.190000000000000000e+02 3.741035461425781250e-01 7.518509387969970703e+00 4.003208151797700565e-15 -4.403528797570881170e-14 -1.200962445539310169e-14 2.802245536851800944e-14
5.200000000000000000e+02 3.730686008930206299e-01 5.096992969512939453e+00 5.304250758780305885e-14 1.371098736933570872e-13 5.704571743366665393e-14 7.005613842129502361e-15
5.210000000000000000e+02 1.831395506858825684e+00 8.345846176147460938e+00 -5.354290754798658736e-14 6.855493684667854359e-14 4.503608959014176322e-15 -5.704571743366665393e-14
5.220000000000000000e+02 1.129499435424804688e+00 5.871314525604248047e+00 -6.104892389139845998e-14 1.110890215537049808e-13 1.501202929869195624e-14 7.606094980195862720e-14
5.230000000000000000e+02 1.107645034790039062e+00 8.325160980224609375e+00 8.206576287668812530e-14 -1.020818019416107336e-13 -6.004812227696550847e-15 -5.504411081666896188e-14
5.240000000000000000e+02 2.489946126937866211e+00 1.003149986267089844e+01 2.401924891078620339e-14 5.604491073703601889e-14 2.401924891078620339e-14 -6.405133042876320904e-14
5.250000000000000000e+02 1.079890370368957520e+00 1.237185764312744141e+01 -1.075862150561567032e-13 -1.376102736535406157e-13 -7.355895000104098469e-14 4.203368474684290867e-14
5.260000000000000000e+02 1.080078244209289551e+00 1.156890296936035156e+01 1.321058605389946461e-13 1.481186999224490264e-13 8.406736949368581735e-14 -4.003208151797700565e-15
5.270000000000000000e+02 3.613880574703216553e-01 1.235727024078369141e+01 8.456776945386934585e-14 -9.507618725244828400e-15 2.251804564210382886e-14 -3.602887167211341057e-14
5.280000000000000000e+02 1.080844163894653320e+00 1.317557048797607422e+01 9.807859548387892756e-14 4.203368474684290867e-14 4.203368474684290867e-14 1.000802037949425141e-15
5.290000000000000000e+02 1.086081743240356445e+00 1.558574581146240234e+01 -1.356086738128065017e-13 1.706367387882892772e-13 1.050842118671072717e-14 -4.003208151797700565e-15
5.300000000000000000e+02 2.508158683776855469e+00 1.645772743225097656e+01 3.202566521438160452e-14 -3.202566521438160452e-14 0.000000000000000000e+00 4.003208151797700565e-15
5.310000000000000000e+02 1.089420557022094727e+00 1.799990272521972656e+01 6.255012377194904549e-14 2.326864558237912162e-13 8.857097591160115191e-14 5.204170427930421283e-14
5.320000000000000000e+02 1.090567827224731445e+00 1.880368614196777344e+01 -4.453568793589234021e-14 2.096680169977674368e-13 4.953969770212299228e-14 -6.405133042876320904e-14
5.330000000000000000e+02 1.095660090446472168e+00 2.201730918884277344e+01 3.502806921064751181e-15 1.616295259524586081e-13 4.953969770212299228e-14 -6.204972381176551699e-14
5.340000000000000000e+02 2.636498832702636719e+01 3.918177795410156250e+01 -1.331066604593617031e-13 1.030826086382413687e-13 -9.007217918028352643e-15 4.903929774193946378e-14
5.350000000000000000e+02 2.460780334472656250e+01 3.884504699707031250e+01 -1.766415518630187753e-13 2.416936822121490414e-13 1.951563910473907981e-14 -7.693665481447748561e-15
5.360000000000000000e+02 7.794958496093750000e+01 3.276445770263671875e+01 -3.352686848306397904e-14 1.686351389475551632e-13 4.053248147816053415e-14 2.001604075898850282e-14
5.370000000000000000e+02 7.491604614257812500e+01 3.455826568603515625e+01 2.502005094873562853e-15 9.257418236933295796e-14 2.852285871683332696e-14 -1.801443583605670529e-14
5.380000000000000000e+02 7.879753112792968750e+01 3.432570266723632812e+01 5.804651735403371093e-14 -1.581267126786467525e-13 -3.002405859738391247e-14 -7.806255641895631925e-14
5.390000000000000000e+02 1.713540458679199219e+01 3.766624069213867188e+01 -1.050842084789754827e-13 -4.503609128420765773e-14 -4.503609128420765773e-14 -2.001604075898850282e-14
5.400000000000000000e+02 5.516748428344726562e+01 3.575819778442382812e+01 -8.381716951359405310e-14 1.013312020013354409e-13 5.254210593355363584e-15 -3.302646513474866152e-14
5.410000000000000000e+02 5.389245605468750000e+01 3.487318038940429688e+01 -9.107298248878237246e-14 -3.903127820947815962e-14 -3.903127820947815962e-14 -1.321058605389946461e-13
5.420000000000000000e+02 5.007692718505859375e+01 3.526503372192382812e+01 -8.256616283687165381e-14 -1.251002526260957745e-14 -2.852285871683332696e-14 -1.851483749030612830e-14
5.430000000000000000e+02 5.042543029785156250e+01 3.658351135253906250e+01 -6.305052373213257400e-14 -1.070858150959731747e-13 -5.104090097080536681e-14 -4.053248147816053415e-14
5.440000000000000000e+02 5.752045822143554688e+01 3.582177352905273438e+01 -4.903929774193946378e-14 -2.101684237342145434e-14 -2.101684237342145434e-14 5.604491073703601889e-14
5.450000000000000000e+02 5.208086013793945312e+01 3.559938812255859375e+01 -8.706977603105056640e-14 -3.002406113848275424e-15 -2.702165375408505793e-14 -4.728789449316532501e-14
5.460000000000000000e+02 6.267192077636718750e+01 3.348380279541015625e+01 1.601283260719080226e-14 -1.601283260719080226e-14 0.000000000000000000e+00 2.001604075898850282e-14
5.470000000000000000e+02 5.937612152099609375e+01 3.518803787231445312e+01 0.000000000000000000e+00 1.601283260719080226e-13 4.803849782157240678e-14 3.102486190588275849e-14
5.480000000000000000e+02 6.300338745117187500e+01 3.447667312622070312e+01 9.607699564314481355e-14 2.241796429481440756e-13 9.607699564314481355e-14 -8.807057595141762341e-14
5.490000000000000000e+02 6.235088729858398438e+01 3.408814239501953125e+01 1.901523745048965680e-14 7.105694342385976414e-14 2.702165375408505793e-14 -9.882919542415422032e-15
5.500000000000000000e+02 6.632690429687500000e+01 3.512697982788085938e+01 3.202566521438160452e-14 -3.202566521438160452e-14 0.000000000000000000e+00 -9.507618725244828400e-15
5.510000000000000000e+02 5.708774948120117188e+01 3.421376800537109375e+01 -5.604491073703601889e-14 -2.401924891078620339e-14 -2.401924891078620339e-14 4.303448466720996568e-14
5.520000000000000000e+02 5.859332656860351562e+01 3.488077926635742188e+01 3.652927163229693908e-14 1.986592043212026537e-13 7.055654346367623564e-14 3.002406113848275424e-15
5.530000000000000000e+02 5.247951126098632812e+01 3.511473464965820312e+01 -3.002406113848275424e-15 -7.005613842129502361e-15 -3.002406113848275424e-15 3.640417164225105695e-14
5.540000000000000000e+02 5.086015701293945312e+01 3.510442733764648438e+01 5.004010189747125706e-16 -4.553649124439118623e-14 -1.351082687704252897e-14 -3.402726844324750755e-14
5.550000000000000000e+02 5.401212692260742188e+01 3.421591949462890625e+01 3.602887167211341057e-14 -7.606094980195862720e-14 -1.200962445539310169e-14 -3.402726844324750755e-14
5.560000000000000000e+02 5.340531539916992188e+01 3.478262329101562500e+01 -1.411130869273524713e-13 -2.892317732972743416e-13 -1.291034607778934751e-13 3.602887167211341057e-14
5.570000000000000000e+02 5.825613403320312500e+01 3.553991699218750000e+01 -4.966480108030066343e-14 1.159679313298897507e-13 1.989093907487672619e-14 4.603689120457471473e-14
5.580000000000000000e+02 6.013625335693359375e+01 3.392722702026367188e+01 -3.778027492088754935e-14 7.531034986168333445e-14 1.125902282105191443e-14 4.703769451307356075e-14
5.590000000000000000e+02 6.061939620971679688e+01 3.467356491088867188e+01 2.236166980751352895e-14 1.468364140130504203e-13 5.075942514616918477e-14 -5.004010105043830980e-14
5.600000000000000000e+02 6.288322448730468750e+01 3.687006378173828125e+01 1.576263093303314350e-14 1.668837323106492354e-13 5.479391083657719763e-14 -3.953167816966168813e-14
5.610000000000000000e+02 6.205424880981445312e+01 3.350347900390625000e+01 -2.852285871683332696e-14 3.352686848306397904e-14 1.501203056924137712e-15 -2.401924891078620339e-14
5.620000000000000000e+02 4.794733810424804688e+01 3.569025039672851562e+01 -8.456776945386934585e-14 -1.506206997233666689e-13 -7.055654346367623564e-14 -3.602887167211341057e-14
5.630000000000000000e+02 4.717611694335937500e+01 3.592375946044921875e+01 -5.854691731421723944e-14 4.353488801552528320e-14 -4.503608959014176322e-15 2.702165375408505793e-14
5.640000000000000000e+02 6.587823486328125000e+01 3.637043762207031250e+01 -1.501202929869195624e-14 8.506816941405287436e-14 2.101684237342145434e-14 -3.327666511484042577e-14
5.650000000000000000e+02 6.482640075683593750e+01 3.384484481811523438e+01 -2.401924891078620339e-14 1.040834085586084257e-13 2.401924891078620339e-14 -5.354290754798658736e-14
5.660000000000000000e+02 1.402954959869384766e+01 2.553878068923950195e+00 -6.004812227696550847e-15 6.605293026949732305e-14 1.801443583605670529e-14 4.003208151797700565e-15
5.670000000000000000e+02 4.631813430786132812e+01 3.608744812011718750e+01 -1.701363422162375377e-14 -5.304250758780305885e-14 -2.101684237342145434e-14 4.103288143834406265e-14
5.680000000000000000e+02 4.544734573364257812e+01 3.621481323242187500e+01 -6.605293026949732305e-14 -7.405934996122451319e-14 -4.203368474684290867e-14 3.102486190588275849e-14
5.690000000000000000e+02 4.543853378295898438e+01 3.738610458374023438e+01 -6.605293026949732305e-14 -7.405934996122451319e-14 -4.203368474684290867e-14 3.202566521438160452e-14
5.700000000000000000e+02 6.722579956054687500e+01 3.504615402221679688e+01 5.004010189747125706e-16 1.145918348275168364e-13 3.452766840343103605e-14 8.406736949368581735e-14
5.710000000000000000e+02 7.034052276611328125e+01 3.444293212890625000e+01 2.902325867701685547e-14 -7.906335633932337625e-14 -1.501202929869195624e-14 -3.602887167211341057e-14
5.720000000000000000e+02 7.104605102539062500e+01 3.445315551757812500e+01 2.802245536851800944e-14 1.200962445539310169e-14 1.200962445539310169e-14 0.000000000000000000e+00
5.730000000000000000e+02 7.254383087158203125e+01 3.366812896728515625e+01 -1.951563910473907981e-14 1.746399520222846613e-13 4.653729455289003225e-14 -1.901523745048965680e-14
5.740000000000000000e+02 7.253458404541015625e+01 3.457712936401367188e+01 -5.504411081666896188e-14 2.051644173561156803e-13 4.503609128420765773e-14 5.304250758780305885e-14
5.750000000000000000e+02 7.333166503906250000e+01 3.553440856933593750e+01 -5.254210423948774134e-14 1.376102736535406157e-13 2.552045048540268340e-14 -8.006416303595401129e-15
5.760000000000000000e+02 7.560420227050781250e+01 3.363735580444335938e+01 5.154130431912068433e-14 1.135910281308862013e-13 4.953969770212299228e-14 2.101684237342145434e-14
5.770000000000000000e+02 7.413013458251953125e+01 3.458824920654296875e+01 -3.853087824929463112e-14 1.436150867282701138e-13 3.152526186606628700e-14 2.131708302715792924e-13
5.780000000000000000e+02 7.717574310302734375e+01 3.356702804565429688e+01 4.103288143834406265e-14 1.090874217129708668e-13 4.503609128420765773e-14 5.604491073703601889e-14
5.790000000000000000e+02 7.178214263916015625e+01 3.450700378417968750e+01 4.203368474684290867e-14 1.781427517435693608e-13 6.605293026949732305e-14 -1.601283260719080226e-14
5.800000000000000000e+02 1.034170818328857422e+01 3.174442768096923828e+00 -1.150922280114367868e-14 -2.336872557441582732e-13 -7.355895000104098469e-14 -3.002405859738391247e-14
5.810000000000000000e+02 8.064432144165039062e+00 2.536290884017944336e+00 -1.125902282105191443e-13 -3.227586383922065316e-13 -1.306046606584440606e-13 -1.841475648182988589e-13
5.820000000000000000e+02 1.259862422943115234e+01 2.506521940231323242e+00 -1.000802037949425141e-14 -5.004010105043830980e-14 -1.801443583605670529e-14 -7.506014988159157020e-14
5.830000000000000000e+02 1.384905433654785156e+01 4.486069202423095703e+00 9.907939540424598457e-14 -4.903929774193946378e-14 1.501202929869195624e-14 -2.802245536851800944e-14
5.840000000000000000e+02 1.360595130920410156e+01 2.514284324645996094e+01 2.401924891078620339e-14 -1.040834085586084257e-13 -2.401924891078620339e-14 -4.003208151797700565e-14
5.850000000000000000e+02 2.773250007629394531e+01 4.019456100463867188e+01 -1.531227130768114675e-13 8.306656957331876034e-14 -2.101684237342145434e-14 8.782037597132585915e-14
5.860000000000000000e+02 5.740926742553710938e+00 2.569168090820312500e+00 -2.451964887096973189e-14 -1.050842118671072717e-14 -1.050842118671072717e-14 1.401122768425900472e-14
5.870000000000000000e+02 4.960130691528320312e+00 3.312283515930175781e+00 -2.151724233360498284e-14 3.652927163229693908e-14 4.503608959014176322e-15 1.000802037949425141e-14
5.880000000000000000e+02 4.184111595153808594e+00 3.345802068710327148e+00 -2.752205540833448094e-14 -5.754611739385018243e-14 -2.552045048540268340e-14 -1.000802021008766196e-13
5.890000000000000000e+02 3.420610666275024414e+00 2.614815473556518555e+00 -8.506817110811876886e-15 1.336070739720723877e-13 3.753007494079578510e-14 -1.801443583605670529e-14
5.900000000000000000e+02 4.191458702087402344e+00 2.599615335464477539e+00 -5.004010189747125706e-16 4.553649124439118623e-14 1.351082687704252897e-14 -3.102486190588275849e-14
5.910000000000000000e+02 5.740652084350585938e+00 3.280376195907592773e+00 -2.752205540833448094e-14 -5.754611739385018243e-14 -2.552045048540268340e-14 -7.305854326459387815e-14
5.920000000000000000e+02 2.654322624206542969e+00 4.197226047515869141e+00 3.702967498061225660e-14 1.531227130768114675e-13 5.704571743366665393e-14 -4.603689120457471473e-14
5.930000000000000000e+02 6.521172046661376953e+00 3.253298044204711914e+00 -6.405133042876320904e-14 6.405133042876320904e-14 0.000000000000000000e+00 1.080866150163402317e-13
5.940000000000000000e+02 8.064867973327636719e+00 3.215686559677124023e+00 -9.407538902614712151e-14 -8.606896933441993136e-14 -5.404330750817011586e-14 2.001604075898850282e-14
5.950000000000000000e+02 7.295311450958251953e+00 3.231895685195922852e+00 -8.206576287668812530e-14 -5.384314955697577787e-13 -1.861491782115601290e-13 -1.060850151756061177e-13
5.960000000000000000e+02 8.832352638244628906e+00 3.200881242752075195e+00 -1.245998475837145625e-13 -1.906527778532118855e-13 -9.457578898633065001e-14 -9.907939540424598457e-14
5.970000000000000000e+02 9.592817306518554688e+00 3.186315298080444336e+00 -3.102486190588275849e-14 -3.793039558656896570e-13 -1.230986477031639770e-13 -7.706175649858926224e-14
5.980000000000000000e+02 8.080780982971191406e+00 3.882026910781860352e+00 -4.753809447325708926e-14 -1.576263127184632240e-13 -6.154932385158198849e-14 3.202566521438160452e-14
5.990000000000000000e+02 1.174906063079833984e+01 3.816933631896972656e+00 -5.304250758780305885e-14 2.301844560228735737e-14 -9.007217918028352643e-15 5.604491073703601889e-14
6.000000000000000000e+02 7.897957611083984375e+01 3.752563476562500000e+01 4.803849782157240678e-14 -4.803849782157240678e-14 0.000000000000000000e+00 5.904731727440076794e-14
6.010000000000000000e+02 7.645051574707031250e+01 3.442656326293945312e+01 1.150922280114367868e-14 2.336872557441582732e-13 7.355895000104098469e-14 -1.210970478624298630e-13
6.020000000000000000e+02 7.599505615234375000e+01 3.637677001953125000e+01 8.406736949368581735e-14 -4.403528797570881170e-14 1.200962445539310169e-14 2.702165375408505793e-14
6.030000000000000000e+02 7.500305938720703125e+01 3.550295257568359375e+01 2.101684237342145434e-14 9.007217918028352643e-15 9.007217918028352643e-15 7.105694342385976414e-14
6.040000000000000000e+02 7.845838928222656250e+01 4.093173217773437500e+01 -7.255814669254213867e-15 1.976583908483084406e-14 3.753007324672989059e-15 6.004811719476782494e-14
6.050000000000000000e+02 7.671154785156250000e+01 4.178774261474609375e+01 -3.502806921064751181e-15 7.856295637913984775e-14 2.251804564210382886e-14 -1.901523745048965680e-14
6.060000000000000000e+02 7.670816040039062500e+01 3.603467941284179688e+01 3.602887167211341057e-14 2.441956955655938399e-13 8.406736949368581735e-14 -2.502005052521915490e-14
6.070000000000000000e+02 7.770318603515625000e+01 3.851716995239257812e+01 4.053248147816053415e-14 1.546239129573620530e-13 5.854691731421723944e-14 4.403528797570881170e-14
6.080000000000000000e+02 7.793915557861328125e+01 3.684473800659179688e+01 3.602887167211341057e-14 8.406736949368581735e-14 3.602887167211341057e-14 9.607699564314481355e-14
6.090000000000000000e+02 2.632559967041015625e+01 4.073830795288085938e+01 -1.152173246133508799e-13 1.565004094199184959e-13 1.238492442553074807e-14 2.201764398785440585e-14
6.100000000000000000e+02 1.624174499511718750e+01 3.520784759521484375e+01 -1.060850151756061177e-13 -2.742197473867141744e-13 -1.140914348673333079e-13 -1.301042606982605321e-14
6.110000000000000000e+02 1.509008884429931641e+01 3.264813995361328125e+01 4.078268145825229840e-14 -1.884009712561224292e-13 -4.428548795580057595e-14 2.902325867701685547e-14
6.120000000000000000e+02 1.491255187988281250e+01 3.171424484252929688e+01 3.202566521438160452e-14 -1.921539912862896271e-13 -4.803849782157240678e-14 1.901523745048965680e-14
6.130000000000000000e+02 7.638021850585937500e+01 3.359943771362304688e+01 -4.503608959014176322e-15 -7.055654346367623564e-14 -2.251804564210382886e-14 -1.050842084789754827e-13
6.140000000000000000e+02 1.472511863708496094e+01 3.477152252197265625e+01 -5.379310752807835161e-14 -6.880513682677030785e-14 -3.677947500052049234e-14 2.301844560228735737e-14
6.150000000000000000e+02 1.372462081909179688e+01 2.674811553955078125e+01 -5.004010189747125706e-16 -4.348484734188057255e-13 -1.306046606584440606e-13 -1.401122768425900472e-14
6.160000000000000000e+02 1.406468868255615234e+01 2.028828811645507812e+01 2.151724233360498284e-14 -3.567859169998494062e-13 -1.005806020610601481e-13 -5.304250758780305885e-14
6.170000000000000000e+02 1.265329742431640625e+01 1.956490707397460938e+01 -3.102486190588275849e-14 -3.793039558656896570e-13 -1.230986477031639770e-13 5.904731727440076794e-14
6.180000000000000000e+02 1.409352970123291016e+01 2.109538078308105469e+01 2.802245536851800944e-14 -3.082470259943570490e-13 -8.406736949368581735e-14 9.207378240914942946e-14
6.190000000000000000e+02 1.339916992187500000e+01 2.112981224060058594e+01 1.451162933850842773e-14 -1.996600042415697107e-13 -5.554451077685249039e-14 -1.230986477031639770e-13
6.200000000000000000e+02 1.400480365753173828e+01 1.706435585021972656e+01 4.503608959014176322e-15 -4.098284211995206761e-13 -1.215974478226133915e-13 -2.301844560228735737e-14
6.210000000000000000e+02 1.412989902496337891e+01 2.189883041381835938e+01 -8.506817110811876886e-15 -1.866495781717436575e-13 -5.854691731421723944e-14 -1.501202929869195624e-14
6.220000000000000000e+02 1.322198009490966797e+01 1.547971057891845703e+01 4.003208151797700565e-15 -3.642919299551294898e-13 -1.080866150163402317e-13 -6.305052373213257400e-14
6.230000000000000000e+02 1.336450481414794922e+01 1.235893154144287109e+01 -5.254210423948774134e-14 -3.427746910096562960e-13 -1.185950345089850644e-13 -3.903127820947815962e-14
6.240000000000000000e+02 1.406901931762695312e+01 1.152615642547607422e+01 5.454371085648543338e-14 -1.596279261117244941e-13 -3.152526186606628700e-14 3.803047490097931360e-14
6.250000000000000000e+02 1.399507427215576172e+01 1.625854110717773438e+01 1.251002526260957745e-14 -4.978989768221475654e-13 -1.456166865690042278e-13 -1.291034607778934751e-13
6.260000000000000000e+02 1.333579063415527344e+01 6.939671516418457031e+00 3.702967498061225660e-14 -1.671339390670045777e-13 -3.903127820947815962e-14 -1.100882199392720293e-14
6.270000000000000000e+02 1.402827453613281250e+01 6.033522129058837891e+00 2.652125379390152943e-14 -1.716375387086563342e-13 -4.353488801552528320e-14 1.601283260719080226e-14
6.280000000000000000e+02 1.324813556671142578e+01 5.468575477600097656e+00 2.902325867701685547e-14 -7.906335633932337625e-14 -1.501202929869195624e-14 -1.000802021008766196e-13
6.290000000000000000e+02 1.290430736541748047e+01 4.180673122406005859e+00 6.505213034913026604e-14 -1.551243129175455815e-13 -2.702165375408505793e-14 -8.606896933441993136e-14
6.300000000000000000e+02 1.171534252166748047e+01 4.463036537170410156e+00 4.803849782157240678e-14 -2.081668171172168513e-13 -4.803849782157240678e-14 1.461170865291877563e-13
6.310000000000000000e+02 1.335267639160156250e+01 9.246596336364746094e+00 -6.405133042876320904e-14 -2.562053217150528361e-13 -9.607699564314481355e-14 4.003208151797700565e-15
6.320000000000000000e+02 1.336044788360595703e+01 1.081876087188720703e+01 -6.855493684667854359e-14 -1.666335391068210492e-13 -7.055654346367623564e-14 3.502807175174635357e-14
6.330000000000000000e+02 1.192947101593017578e+01 1.098282051086425781e+01 -6.255012377194904549e-14 -7.255814330441034965e-14 -4.053248147816053415e-14 5.204170427930421283e-14
6.340000000000000000e+02 1.325158405303955078e+01 1.468327331542968750e+01 -6.955573676704560060e-14 -3.958171952093275658e-13 -1.396118734942747297e-13 5.304250758780305885e-14
6.350000000000000000e+02 3.717705011367797852e-01 3.491967201232910156e+00 5.204170427930421283e-14 6.805453688649501509e-14 3.602887167211341057e-14 2.702165375408505793e-14
6.360000000000000000e+02 1.100359439849853516e+00 2.362500953674316406e+01 -3.002405859738391247e-14 1.701363388281057487e-13 4.203368474684290867e-14 -5.504411081666896188e-14
6.370000000000000000e+02 1.829679489135742188e+00 2.525340652465820312e+01 -7.405934996122451319e-14 1.401122768425900472e-14 -1.801443583605670529e-14 -2.401924891078620339e-14
6.380000000000000000e+02 1.245722532272338867e+00 3.639988327026367188e+01 9.457578898633065001e-14 -1.195958344293521214e-13 -7.506014649345978118e-15 -1.701363422162375377e-14
6.390000000000000000e+02 2.699878931045532227e+00 4.096170425415039062e+01 1.607538260221374332e-14 -6.173697214258491717e-14 -1.369847770914429941e-14 -3.002406113848275424e-15
6.400000000000000000e+02 1.289480805397033691e+00 3.927279663085937500e+01 5.004010189747125706e-15 -5.504411081666896188e-14 -1.501202929869195624e-14 5.254210423948774134e-14
6.410000000000000000e+02 1.170015215873718262e+00 3.003832626342773438e+01 1.466175000418984409e-13 1.085870149765237602e-13 7.656135653840573374e-14 2.301844560228735737e-14
6.420000000000000000e+02 2.027014017105102539e+00 3.246519470214843750e+01 2.401924891078620339e-14 5.604491073703601889e-14 2.401924891078620339e-14 5.604491073703601889e-14
6.430000000000000000e+02 1.116379618644714355e+00 2.763218116760253906e+01 -5.654531408535133641e-14 1.816455650173812164e-13 3.753007494079578510e-14 1.120898214740720378e-13
6.440000000000000000e+02 1.177020549774169922e+00 3.406786727905273438e+01 -9.807859548387892756e-14 -4.203368474684290867e-14 -4.203368474684290867e-14 6.004811719476782494e-14
6.450000000000000000e+02 1.165404796600341797e+00 3.484159088134765625e+01 4.503609128420765773e-14 6.505213034913026604e-14 3.302646513474866152e-14 -2.802245536851800944e-14
6.460000000000000000e+02 2.707149744033813477e+00 3.590226745605468750e+01 1.276022524270134170e-14 -4.028228149806876990e-14 -8.256616283687165381e-15 -8.006416303595401129e-14
6.470000000000000000e+02 1.130192637443542480e+00 2.843319320678710938e+01 1.240994476235310340e-13 7.606094980195862720e-14 6.004811719476782494e-14 1.090874217129708668e-13
6.480000000000000000e+02 1.948646068572998047e+00 3.002877616882324219e+01 -6.104892389139845998e-14 1.110890215537049808e-13 1.501202929869195624e-14 -2.902325867701685547e-14
6.490000000000000000e+02 1.832161903381347656e+00 2.604654693603515625e+01 5.754611739385018243e-14 2.076664171570333228e-13 7.956375629950690476e-14 -1.160930347080674219e-13
6.500000000000000000e+02 1.845789551734924316e+00 2.763471412658691406e+01 4.053248147816053415e-14 1.546239129573620530e-13 5.854691731421723944e-14 -9.407538902614712151e-14
6.510000000000000000e+02 1.835902690887451172e+00 2.684010505676269531e+01 -9.157338244896590096e-14 6.505213034913026604e-15 -2.552045048540268340e-14 3.903127820947815962e-14
6.520000000000000000e+02 2.018561124801635742e+00 3.164639472961425781e+01 -5.104090097080536681e-14 -1.591275125990138095e-13 -6.305052373213257400e-14 -7.606094980195862720e-14
6.530000000000000000e+02 1.970995187759399414e+00 3.412125778198242188e+01 1.230986477031639770e-13 7.005613842129502361e-15 3.903127820947815962e-14 -1.100882216333379238e-13
6.540000000000000000e+02 2.047924280166625977e+00 3.332218551635742188e+01 -6.154932385158198849e-14 -1.636311257931927221e-13 -6.755413692631148659e-14 -1.901523745048965680e-14
6.550000000000000000e+02 1.091668486595153809e+00 1.960828781127929688e+01 4.453568793589234021e-14 2.707169341129023188e-13 9.457578898633065001e-14 -1.100882216333379238e-13
6.560000000000000000e+02 1.816900253295898438e+00 2.124383544921875000e+01 -1.651323256737433076e-14 2.216776431472264330e-13 6.154932385158198849e-14 -1.020818019416107336e-13
6.570000000000000000e+02 1.087669134140014648e+00 1.639013862609863281e+01 1.175942345886180074e-13 3.477786906114915810e-13 1.396118734942747297e-13 5.004010189747125706e-15
6.580000000000000000e+02 1.807320475578308105e+00 1.802787399291992188e+01 1.851483749030612830e-14 2.366896826103137563e-13 7.656135653840573374e-14 -7.205774334422682115e-14
6.590000000000000000e+02 1.088801503181457520e+00 9.954098701477050781e+00 4.503608959014176322e-15 7.055654346367623564e-14 2.251804564210382886e-14 -3.002405859738391247e-14
6.600000000000000000e+02 1.786607265472412109e+00 1.159867191314697266e+01 -6.905533680686207210e-14 1.991596042813861822e-13 3.903127820947815962e-14 1.501202929869195624e-14
6.610000000000000000e+02 1.125372171401977539e+00 5.060606956481933594e+00 -1.251002526260957745e-14 1.776423517833858323e-13 4.953969770212299228e-14 4.603689120457471473e-14
6.620000000000000000e+02 5.834716796875000000e+00 4.692440032958984375e+00 -8.306656957331876034e-14 -1.271018609371593611e-13 -6.305052373213257400e-14 9.007218256841531545e-14
6.630000000000000000e+02 1.081881761550903320e+00 1.398019504547119141e+01 -1.135910281308862013e-13 2.486993087597727525e-13 4.053248147816053415e-14 -8.807057595141762341e-14
6.640000000000000000e+02 1.126690149307250977e+00 2.668389558792114258e+00 -6.505213034913026604e-15 -4.853889778175593528e-14 -1.651323256737433076e-14 2.001604075898850282e-15
6.650000000000000000e+02 1.084218621253967285e+00 1.478242969512939453e+01 1.155926347478838934e-13 2.096680169977674368e-13 9.757819552369539906e-14 2.201764398785440585e-14
6.660000000000000000e+02 1.803447365760803223e+00 1.641653060913085938e+01 -2.001604075898850282e-15 1.821459649775647449e-13 5.404330750817011586e-14 -4.203368474684290867e-14
6.670000000000000000e+02 1.810862779617309570e+00 9.168491363525390625e+00 1.396118734942747297e-13 1.055846084391590112e-13 7.355895000104098469e-14 -8.206576287668812530e-14
6.680000000000000000e+02 1.096692562103271484e+00 9.142482757568359375e+00 5.004010189747125706e-15 1.851483647386659159e-13 5.704571743366665393e-14 8.306656957331876034e-14
6.690000000000000000e+02 1.790012717247009277e+00 1.079331207275390625e+01 5.704571743366665393e-14 9.307458910578006450e-14 4.503609128420765773e-14 -1.130906281707026728e-13
6.700000000000000000e+02 2.484247922897338867e+00 1.243928146362304688e+01 -1.641315257533762506e-13 4.403528797570881170e-14 -3.602887167211341057e-14 6.705373696612795809e-14
6.710000000000000000e+02 1.793927788734436035e+00 1.400614547729492188e+01 6.805453688649501509e-14 2.121700303512122354e-13 8.406736949368581735e-14 9.907939540424598457e-14
6.720000000000000000e+02 1.797745704650878906e+00 1.480860805511474609e+01 -8.857097591160115191e-14 5.354290754798658736e-14 -1.050842118671072717e-14 4.503609128420765773e-14
6.730000000000000000e+02 1.805167913436889648e+00 1.722324943542480469e+01 2.251804564210382886e-14 3.252606517456513302e-14 1.651323256737433076e-14 -4.003208151797700565e-15
6.740000000000000000e+02 1.810505986213684082e+00 1.883066558837890625e+01 -5.504410996963601463e-15 1.806447650970141594e-13 5.254210423948774134e-14 -1.901523745048965680e-14
6.750000000000000000e+02 1.092095971107482910e+00 2.041379547119140625e+01 -5.504410996963601463e-15 3.407730911689221820e-13 1.005806020610601481e-13 -1.751403519824681898e-13
6.760000000000000000e+02 1.820961594581604004e+00 2.204221343994140625e+01 3.102486190588275849e-14 5.904731727440076794e-14 2.702165375408505793e-14 -6.605293026949732305e-14
6.770000000000000000e+02 1.814574003219604492e+00 2.044172668457031250e+01 2.051644071917203133e-14 2.146720301521298779e-13 7.055654346367623564e-14 -4.003208151797700565e-15
6.780000000000000000e+02 1.334494972229003906e+01 1.951885604858398438e+01 2.952365863720038397e-14 -2.847281601030954290e-13 -7.656135653840573374e-14 -6.605293026949732305e-14
6.790000000000000000e+02 1.332536315917968750e+01 1.871597099304199219e+01 -3.502806921064751181e-15 -4.818861780962746533e-13 -1.456166865690042278e-13 2.802245536851800944e-14
6.800000000000000000e+02 2.168128013610839844e+01 4.034672927856445312e+01 -1.195958344293521214e-13 -5.504410996963601463e-15 -3.753007494079578510e-14 -7.806255641895631925e-14
6.810000000000000000e+02 1.389827632904052734e+01 3.089430236816406250e+01 9.907939540424598457e-14 -2.091676170375839083e-13 -3.302646513474866152e-14 -4.103288143834406265e-14
6.820000000000000000e+02 1.355742835998535156e+01 2.434030342102050781e+01 -6.855493684667854359e-14 -4.868901505930556262e-13 -1.666335391068210492e-13 -3.202566521438160452e-14
6.830000000000000000e+02 1.378751373291015625e+01 2.754936599731445312e+01 -6.855493684667854359e-14 -3.267618651787290718e-13 -1.185950345089850644e-13 1.170938346284344789e-13
6.840000000000000000e+02 7.803940582275390625e+01 3.513585281372070312e+01 6.004812227696550847e-15 -2.261812563414053456e-13 -6.605293026949732305e-14 3.702967498061225660e-14
6.850000000000000000e+02 1.392588520050048828e+01 3.183060264587402344e+01 1.601283260719080226e-14 -1.761411519028352468e-13 -4.803849782157240678e-14 -2.201764398785440585e-14
6.860000000000000000e+02 1.387473106384277344e+01 2.917419433593750000e+01 3.002406113848275424e-15 -2.732189474663471174e-13 -8.106496295632106830e-14 8.006416303595401129e-14
6.870000000000000000e+02 1.384023189544677734e+01 2.835577774047851562e+01 4.903929774193946378e-14 -2.992397996059992238e-13 -7.506014988159157020e-14 -1.080866150163402317e-13
6.880000000000000000e+02 1.431471920013427734e+01 3.383238220214843750e+01 6.004812227696550847e-15 -6.605293026949732305e-14 -1.801443583605670529e-14 4.703769451307356075e-14
6.890000000000000000e+02 1.347025108337402344e+01 2.273392105102539062e+01 -4.503609128420765773e-14 -3.853087824929463112e-13 -1.291034607778934751e-13 -8.106496295632106830e-14
6.900000000000000000e+02 1.301683235168457031e+01 2.676885414123535156e+01 -5.204170427930421283e-14 -3.883111822540474822e-13 -1.321058605389946461e-13 6.605293026949732305e-14
6.910000000000000000e+02 1.395375728607177734e+01 3.530681610107421875e+01 -1.055846084391590112e-13 -7.956375629950690476e-14 -5.554451077685249039e-14 2.514515051526503703e-14
6.920000000000000000e+02 1.121201395988464355e+00 3.459618091583251953e+00 -1.150922280114367868e-14 8.656937607086703790e-14 2.251804564210382886e-14 2.502005052521915490e-14
6.930000000000000000e+02 7.801066589355468750e+01 3.433814239501953125e+01 1.200962445539310169e-14 1.881507780522942430e-13 6.004811719476782494e-14 4.603689120457471473e-14
6.940000000000000000e+02 1.330321884155273438e+01 1.791145896911621094e+01 4.303448466720996568e-14 -7.305854326459387815e-14 -9.007217918028352643e-15 2.101684237342145434e-14
6.950000000000000000e+02 3.338806915283203125e+01 3.784683609008789062e+01 -1.971579908881249121e-13 7.005613842129502361e-15 -5.704571743366665393e-14 8.006416303595401129e-15
6.960000000000000000e+02 2.002050399780273438e+01 3.975875091552734375e+01 -1.815830201045559589e-13 -1.693231871987416204e-13 -1.052718635462419894e-13 -2.502005052521915490e-14
6.970000000000000000e+02 3.568373107910156250e+01 4.039638900756835938e+01 -1.348268014161185802e-13 7.946993215400544042e-14 -1.660705840694168961e-14 1.000802037949425141e-15
6.980000000000000000e+02 3.496469879150390625e+01 3.874118041992187500e+01 -1.371098736933570872e-13 6.705373696612795809e-14 -2.101684237342145434e-14 7.255814669254213867e-15
6.990000000000000000e+02 2.556664657592773438e+01 3.984010314941406250e+01 -5.304250758780305885e-14 2.301844560228735737e-14 -9.007217918028352643e-15 6.755413692631148659e-14
7.000000000000000000e+02 1.264292621612548828e+01 1.012063598632812500e+01 -1.030826086382413687e-13 -2.271820562617724026e-13 -9.907939540424598457e-14 1.130906281707026728e-13
7.010000000000000000e+02 1.107995510101318359e+01 3.165148496627807617e+00 -5.554451077685249039e-14 -6.955573676704560060e-14 -3.753007494079578510e-14 4.003208151797700565e-15
7.020000000000000000e+02 1.273167896270751953e+01 2.196584129333496094e+01 -4.553649124439118623e-14 -3.397722912485551250e-13 -1.155926347478838934e-13 -3.702967498061225660e-14
7.030000000000000000e+02 5.352696228027343750e+01 3.527292633056640625e+01 -1.751403460532375590e-15 -7.506015284620688559e-16 -7.506015284620688559e-16 8.006416303595401129e-14
7.040000000000000000e+02 5.796674346923828125e+01 3.484301757812500000e+01 2.151724233360498284e-14 -3.652927163229693908e-14 -4.503608959014176322e-15 6.705373696612795809e-14
7.050000000000000000e+02 5.380179977416992188e+01 3.584711456298828125e+01 -7.093184004568209300e-14 -3.039936195565334787e-14 -3.039936195565334787e-14 -5.104090097080536681e-14
7.060000000000000000e+02 5.279308700561523438e+01 3.703058242797851562e+01 -2.952365863720038397e-14 -3.552847171192988207e-14 -1.951563910473907981e-14 -3.702967498061225660e-14
7.070000000000000000e+02 6.408782196044921875e+01 3.644532775878906250e+01 6.505213034913026604e-15 8.506817110811876886e-15 4.503608959014176322e-15 -2.476984885106149614e-14
7.080000000000000000e+02 6.800640869140625000e+01 3.388255691528320312e+01 -4.553649124439118623e-14 1.406126869671689428e-13 2.852285871683332696e-14 4.903929774193946378e-14
7.090000000000000000e+02 6.776361083984375000e+01 3.587384796142578125e+01 2.952365863720038397e-14 1.155926347478838934e-13 4.353488801552528320e-14 2.001604075898850282e-15
7.100000000000000000e+02 6.803483581542968750e+01 3.490040969848632812e+01 4.503609128420765773e-14 -9.507618894651417851e-14 -1.501202929869195624e-14 -3.002406113848275424e-15
7.110000000000000000e+02 7.568353271484375000e+01 3.450020599365234375e+01 2.902325867701685547e-14 -7.906335633932337625e-14 -1.501202929869195624e-14 8.807057595141762341e-14
7.120000000000000000e+02 6.497044372558593750e+01 3.569704055786132812e+01 1.701363422162375377e-14 5.304250758780305885e-14 2.101684237342145434e-14 5.698316574457781836e-14
7.130000000000000000e+02 6.467657470703125000e+01 3.483876037597656250e+01 3.853087824929463112e-14 1.651323256737433076e-14 1.651323256737433076e-14 -1.301042606982605321e-14
7.140000000000000000e+02 1.295453357696533203e+01 2.597397804260253906e+01 3.452766840343103605e-14 -2.597081078838103796e-13 -6.755413692631148659e-14 -6.705373696612795809e-14
7.150000000000000000e+02 7.020034790039062500e+01 3.521064758300781250e+01 -5.754611739385018243e-14 1.125902282105191443e-13 1.651323256737433076e-14 -6.455173038894673754e-14
7.160000000000000000e+02 1.104860496520996094e+01 3.828324556350708008e+00 1.401122768425900472e-14 -3.142518255165593910e-13 -9.007218256841531545e-14 -9.007217918028352643e-15
7.170000000000000000e+02 7.332554626464843750e+01 3.459752273559570312e+01 -2.001604075898850282e-14 2.201764432666758475e-13 6.004811719476782494e-14 -1.100882216333379238e-13
7.180000000000000000e+02 7.245339965820312500e+01 3.556854248046875000e+01 2.351884725653678038e-14 1.015814019814272051e-13 3.753007494079578510e-14 2.802245536851800944e-14
7.190000000000000000e+02 7.803601074218750000e+01 3.595822525024414062e+01 3.152526186606628700e-14 1.736391521019176043e-13 6.154932385158198849e-14 2.401924891078620339e-14
7.200000000000000000e+02 1.883028149604797363e+00 4.225636959075927734e+00 4.053248147816053415e-14 1.546239129573620530e-13 5.854691731421723944e-14 -1.601283260719080226e-14
7.210000000000000000e+02 2.643217802047729492e+00 3.402408838272094727e+00 -1.000802037949425141e-15 9.107298248878237246e-14 2.702165375408505793e-14 -2.502005052521915490e-14
7.220000000000000000e+02 1.256016540527343750e+01 3.218385934829711914e+00 -4.753809447325708926e-14 -1.576263127184632240e-13 -6.154932385158198849e-14 1.000802037949425141e-14
7.230000000000000000e+02 1.313096618652343750e+01 4.787072658538818359e+00 -7.055654346367623564e-14 1.551243095294137925e-14 -1.651323256737433076e-14 -6.605293026949732305e-14
7.240000000000000000e+02 6.548583030700683594e+00 3.943186998367309570e+00 -6.104892389139845998e-14 -2.091676170375839083e-13 -8.106496295632106830e-14 -7.005613842129502361e-15
7.250000000000000000e+02 5.769155025482177734e+00 3.990016460418701172e+00 -1.165934346682509504e-13 4.153328478665938017e-14 -2.251804564210382886e-14 1.801443583605670529e-14
7.260000000000000000e+02 7.318166255950927734e+00 3.908018589019775391e+00 1.100882199392720293e-14 -4.103288143834406265e-14 -9.007217918028352643e-15 -6.805453688649501509e-14
7.270000000000000000e+02 2.695084571838378906e+00 5.861074924468994141e+00 -8.006416303595401129e-15 8.807057595141762341e-14 2.401924891078620339e-14 3.102486190588275849e-14
7.280000000000000000e+02 1.893233299255371094e+00 5.035591125488281250e+00 -2.001604075898850282e-15 2.201764398785440585e-14 6.004812227696550847e-15 -2.602085213965210642e-14
7.290000000000000000e+02 3.533366203308105469e+00 5.877897739410400391e+00 3.252606517456513302e-14 -7.756215645877279075e-14 -1.351082687704252897e-14 -7.405934996122451319e-14
7.300000000000000000e+02 4.379822254180908203e+00 5.749239921569824219e+00 -7.005613842129502361e-15 -3.002406113848275424e-15 -3.002406113848275424e-15 2.101684237342145434e-14
7.310000000000000000e+02 3.412467956542968750e+00 3.376107215881347656e+00 1.351082687704252897e-14 5.154130431912068433e-14 1.951563910473907981e-14 -8.006416303595401129e-15
7.320000000000000000e+02 1.285070419311523438e+01 2.436815834045410156e+01 -1.150922280114367868e-14 -2.336872557441582732e-13 -7.355895000104098469e-14 -6.305052373213257400e-14
7.330000000000000000e+02 1.351256847381591797e+01 2.353701782226562500e+01 -2.151724233360498284e-14 -2.837273601827283720e-13 -9.157338244896590096e-14 -5.004010189747125706e-15
7.340000000000000000e+02 1.405831241607666016e+01 3.281940841674804688e+01 -1.451162933850842773e-14 -1.205966479022463345e-13 -4.053248147816053415e-14 -6.855493684667854359e-14
7.350000000000000000e+02 7.733529663085937500e+01 3.591315078735351562e+01 1.060850151756061177e-13 -4.603689120457471473e-14 1.801443583605670529e-14 8.006416303595401129e-15
7.360000000000000000e+02 7.853704071044921875e+01 3.796458816528320312e+01 5.129110433902892008e-14 2.964876066012533951e-13 1.043336085387001899e-13 1.851483647386659159e-13
7.370000000000000000e+02 7.651725006103515625e+01 3.726536178588867188e+01 4.878909776184769953e-14 1.138412281109779656e-13 4.878909776184769953e-14 -2.871050700783625564e-14
7.380000000000000000e+02 7.712778472900390625e+01 3.801496124267578125e+01 8.497434526855141002e-14 -1.465862208092222341e-13 -1.848356164576171051e-14 1.100882199392720293e-14
7.390000000000000000e+02 7.830060577392578125e+01 3.953368377685546875e+01 -1.301042606982605321e-14 6.305052373213257400e-14 1.501202929869195624e-14 7.606094980195862720e-14
7.400000000000000000e+02 7.510552978515625000e+01 3.655817413330078125e+01 2.902325867701685547e-14 8.106496295632106830e-14 3.302646513474866152e-14 -1.301042606982605321e-14
7.410000000000000000e+02 7.405884552001953125e+01 3.759821319580078125e+01 -6.505213034913026604e-15 1.115894215138885093e-13 3.152526186606628700e-14 -2.752205540833448094e-14
7.420000000000000000e+02 1.252185249328613281e+01 5.651887416839599609e+00 4.953969770212299228e-14 -2.451964887096973189e-14 7.506014649345978118e-15 -2.401924891078620339e-14
7.430000000000000000e+02 1.032681655883789062e+01 3.841214179992675781e+00 -2.902325867701685547e-14 -2.411932958044926689e-13 -8.106496295632106830e-14 -8.006416303595401129e-15
7.440000000000000000e+02 7.837081146240234375e+01 3.871408462524414062e+01 1.050842118671072717e-14 4.503608959014176322e-15 4.503608959014176322e-15 -2.902325867701685547e-14
7.450000000000000000e+02 1.351257991790771484e+01 3.826297760009765625e+00 -1.120898214740720378e-13 -2.081668171172168513e-13 -9.607699564314481355e-14 -4.003208151797700565e-15
7.460000000000000000e+02 1.122007012367248535e+00 4.257261276245117188e+00 3.152526186606628700e-14 1.351082687704252897e-14 1.351082687704252897e-14 -2.201764398785440585e-14
7.470000000000000000e+02 1.263167285919189453e+01 1.876978111267089844e+01 -5.504410996963601463e-15 -1.396118734942747297e-13 -4.353488801552528320e-14 -1.000802037949425141e-15
7.480000000000000000e+02 1.305243110656738281e+01 2.995519447326660156e+01 4.253408470702643718e-14 -2.752205540833448094e-14 4.503608959014176322e-15 2.401924891078620339e-14
7.490000000000000000e+02 1.330979728698730469e+01 1.389369583129882812e+01 2.151724233360498284e-14 -3.567859169998494062e-13 -1.005806020610601481e-13 -2.201764398785440585e-14
7.500000000000000000e+02 1.264720439910888672e+01 1.166886711120605469e+01 -9.757819552369539906e-14 -8.757017599123409490e-14 -5.554451077685249039e-14 3.903127820947815962e-14
7.510000000000000000e+02 1.336544322967529297e+01 1.159529304504394531e+01 6.805453688649501509e-14 -1.080866150163402317e-13 -1.200962445539310169e-14 -1.801443583605670529e-14
7.520000000000000000e+02 1.263503837585449219e+01 9.339352607727050781e+00 -5.354290754798658736e-14 -2.517017085208739235e-13 -9.157338244896590096e-14 -4.803849782157240678e-14
7.530000000000000000e+02 1.330701923370361328e+01 6.194662094116210938e+00 1.501202929869195624e-14 -8.506816941405287436e-14 -2.101684237342145434e-14 1.000802037949425141e-15
7.540000000000000000e+02 1.030958461761474609e+01 4.513703346252441406e+00 4.803849782157240678e-14 -2.081668171172168513e-13 -4.803849782157240678e-14 4.503609128420765773e-14
7.550000000000000000e+02 1.102409458160400391e+01 4.500535488128662109e+00 -7.756215645877279075e-14 -3.077466124816463644e-13 -1.155926347478838934e-13 -1.070858150959731747e-13
7.560000000000000000e+02 1.244737243652343750e+01 4.997206211090087891e+00 2.101684237342145434e-14 -3.112494257554582200e-13 -8.706977603105056640e-14 -6.204972381176551699e-14
7.570000000000000000e+02 1.235470294952392578e+01 4.408340454101562500e+00 -4.253408470702643718e-14 2.752205540833448094e-14 -4.503608959014176322e-15 -1.381106736137241442e-13
7.580000000000000000e+02 1.336984443664550781e+01 2.032429313659667969e+01 1.851483749030612830e-14 -4.038236216773183340e-13 -1.155926347478838934e-13 -1.200962445539310169e-14
7.590000000000000000e+02 1.324037551879882812e+01 1.628829002380371094e+01 3.202566521438160452e-14 -3.522823038056704936e-13 -9.607699564314481355e-14 7.105694342385976414e-14
7.600000000000000000e+02 2.541581630706787109e+00 2.208061790466308594e+01 -2.401924891078620339e-14 2.642117210779892922e-13 7.205774334422682115e-14 -3.002405859738391247e-14
7.610000000000000000e+02 1.974742889404296875e+00 3.484516906738281250e+01 -1.000802037949425141e-14 -5.004010105043830980e-14 -1.801443583605670529e-14 -8.807057595141762341e-14
7.620000000000000000e+02 3.287305831909179688e+00 3.673334884643554688e+01 -2.401924891078620339e-14 2.401924891078620339e-14 0.000000000000000000e+00 -3.878107822938639537e-14
7.630000000000000000e+02 1.868621826171875000e+00 2.842943763732910156e+01 -1.721379386688398627e-13 -2.802245536851800944e-14 -6.004811719476782494e-14 -8.706977603105056640e-14
7.640000000000000000e+02 2.853440523147583008e+00 3.164825630187988281e+01 -4.403528797570881170e-14 1.641315257533762506e-13 3.602887167211341057e-14 8.706977603105056640e-14
7.650000000000000000e+02 2.554355382919311523e+00 2.528799819946289062e+01 -4.503608959014176322e-15 8.957178260823178695e-14 2.552045048540268340e-14 -6.405133042876320904e-14
7.660000000000000000e+02 1.828094124794006348e+00 2.365012550354003906e+01 -3.753007494079578510e-14 5.254210423948774134e-14 4.503608959014176322e-15 -8.106496295632106830e-14
7.670000000000000000e+02 2.511767387390136719e+00 1.726592826843261719e+01 -3.702967498061225660e-14 7.005613842129502361e-15 -9.007217918028352643e-15 -7.906335633932337625e-14
7.680000000000000000e+02 1.859893679618835449e+00 7.516028404235839844e+00 -4.503609128420765773e-14 -6.505213034913026604e-14 -3.302646513474866152e-14 -2.181748434259417335e-13
7.690000000000000000e+02 2.539434432983398438e+00 8.399769783020019531e+00 8.056456299613753980e-14 3.452766840343103605e-14 3.452766840343103605e-14 -8.506816941405287436e-14
7.700000000000000000e+02 2.480028390884399414e+00 1.084072399139404297e+01 -8.356696953350228885e-14 7.856295637913984775e-14 -1.501203056924137712e-15 6.004811719476782494e-14
7.710000000000000000e+02 1.798189520835876465e+00 9.983263015747070312e+00 4.003208151797700565e-15 1.160930347080674219e-13 3.602887167211341057e-14 -2.101684237342145434e-14
7.720000000000000000e+02 1.812958240509033203e+00 1.963584709167480469e+01 -1.651323256737433076e-14 2.216776431472264330e-13 6.154932385158198849e-14 -1.160930347080674219e-13
7.730000000000000000e+02 3.245575904846191406e+00 1.973443603515625000e+01 -1.200962445539310169e-14 1.321058605389946461e-13 3.602887167211341057e-14 -1.000802021008766196e-13
7.740000000000000000e+02 3.908498048782348633e+00 1.737853813171386719e+01 -2.752205540833448094e-14 -5.754611739385018243e-14 -2.552045048540268340e-14 1.601283260719080226e-14
7.750000000000000000e+02 2.524520874023437500e+00 1.887197303771972656e+01 -6.505213034913026604e-15 2.717177340332693758e-13 7.956375629950690476e-14 -6.305052373213257400e-14
7.760000000000000000e+02 2.529842138290405273e+00 1.967777252197265625e+01 4.253408470702643718e-14 2.927345865710861972e-13 1.005806020610601481e-13 2.401924891078620339e-14
7.770000000000000000e+02 2.533665180206298828e+00 2.048363494873046875e+01 -2.451964887096973189e-14 -1.050842118671072717e-14 -1.050842118671072717e-14 -9.207378240914942946e-14
7.780000000000000000e+02 1.790787935256958008e+00 1.320195102691650391e+01 -1.085870149765237602e-13 -4.653729455289003225e-14 -4.653729455289003225e-14 7.606094980195862720e-14
7.790000000000000000e+02 2.496750354766845703e+00 1.404388713836669922e+01 2.201764398785440585e-14 7.806255641895631925e-14 3.002405859738391247e-14 3.302646513474866152e-14
7.800000000000000000e+02 1.788251280784606934e+00 1.239912128448486328e+01 1.326062604991781746e-13 1.025822086780578402e-13 7.055654346367623564e-14 0.000000000000000000e+00
7.810000000000000000e+02 2.500595569610595703e+00 1.484930419921875000e+01 7.455974992140804170e-14 1.005806020610601481e-13 5.254210423948774134e-14 8.506816941405287436e-14
7.820000000000000000e+02 3.183619260787963867e+00 1.328471755981445312e+01 -7.005614350349270714e-14 2.902325732176413986e-13 6.605293026949732305e-14 1.801443583605670529e-14
7.830000000000000000e+02 2.491082668304443359e+00 1.323933219909667969e+01 4.303448466720996568e-14 8.706977603105056640e-14 3.903127820947815962e-14 -4.403528797570881170e-14
7.840000000000000000e+02 2.557765483856201172e+00 2.763948059082031250e+01 -2.251804564210382886e-14 1.276022608973428896e-13 3.152526186606628700e-14 1.271018609371593611e-13
7.850000000000000000e+02 1.898669958114624023e+00 5.855810642242431641e+00 8.056456299613753980e-14 1.946559910872072696e-13 8.256616283687165381e-14 -7.706175649858926224e-14
7.860000000000000000e+02 2.507238626480102539e+00 9.219007492065429688e+00 -2.301844560228735737e-14 1.731387521417340758e-13 4.503609128420765773e-14 -3.002406113848275424e-15
7.870000000000000000e+02 4.007062435150146484e+00 2.619271087646484375e+01 -5.054050101062183831e-14 1.155926347478838934e-13 1.951563910473907981e-14 7.005614350349270714e-14
7.880000000000000000e+02 1.829477190971374512e+00 2.445406723022460938e+01 -5.204170427930421283e-14 9.207378240914942946e-14 1.200962445539310169e-14 -1.000802021008766196e-13
7.890000000000000000e+02 2.553942680358886719e+00 2.449329757690429688e+01 -2.652125379390152943e-14 1.150922280114367868e-14 -4.503608959014176322e-15 7.005613842129502361e-15
7.900000000000000000e+02 2.553017377853393555e+00 2.607345581054687500e+01 -7.455974992140804170e-14 5.954771723458429644e-14 -4.503608959014176322e-15 -1.901523745048965680e-14
7.910000000000000000e+02 2.550824403762817383e+00 2.685750198364257812e+01 -2.902325867701685547e-14 7.906335633932337625e-14 1.501202929869195624e-14 -1.441154866884536423e-13
7.920000000000000000e+02 4.203537464141845703e+00 4.111041545867919922e+00 -8.006416303595401129e-15 8.807057595141762341e-14 2.401924891078620339e-14 -4.203368474684290867e-14
7.930000000000000000e+02 2.595077037811279297e+00 7.565470218658447266e+00 -2.101684237342145434e-14 -9.007217918028352643e-15 -9.007217918028352643e-15 7.906335633932337625e-14
7.940000000000000000e+02 2.638727903366088867e+00 3.452584075927734375e+01 1.082117200885837974e-14 -2.241170980353188180e-13 -6.398877873967437346e-14 8.306656957331876034e-14
7.950000000000000000e+02 2.839628934860229492e+00 3.246994018554687500e+01 -6.805453688649501509e-14 -2.121700303512122354e-13 -8.406736949368581735e-14 -1.200962343895356499e-13
7.960000000000000000e+02 2.832909584045410156e+00 3.328120040893554688e+01 4.453568793589234021e-14 1.105886215935214523e-13 4.653729455289003225e-14 -2.502005052521915490e-14
7.970000000000000000e+02 1.992063164710998535e+00 3.083626174926757812e+01 2.502005094873562853e-15 9.257418236933295796e-14 2.852285871683332696e-14 5.904731727440076794e-14
7.980000000000000000e+02 2.808027505874633789e+00 3.082051467895507812e+01 -9.307458910578006450e-14 -1.701363422162375377e-14 -3.302646513474866152e-14 -4.803849782157240678e-14
7.990000000000000000e+02 3.167935848236083984e+00 3.395162200927734375e+01 4.985244937130359211e-14 6.711628187895321562e-14 3.509062005270340012e-14 -6.355093046857968053e-14
8.000000000000000000e+02 4.294032573699951172e+00 3.365258407592773438e+01 -9.507618725244828400e-15 -9.557658890669770702e-14 -3.152526186606628700e-14 -3.702967498061225660e-14
8.010000000000000000e+02 2.082072496414184570e+00 3.994747161865234375e+01 4.935204941112006360e-14 -4.747554617230004270e-14 5.629511198767720402e-16 -6.805453688649501509e-14
8.020000000000000000e+02 2.481851100921630859e+00 3.806570053100585938e+01 -1.551243095294137925e-14 -1.896519779328448285e-13 -6.154932385158198849e-14 -4.003208151797700565e-14
8.030000000000000000e+02 6.889558410644531250e+01 3.491362762451171875e+01 8.056456299613753980e-14 1.946559910872072696e-13 8.256616283687165381e-14 1.035830085984248972e-13
8.040000000000000000e+02 7.728787231445312500e+01 3.515991210937500000e+01 2.902325867701685547e-14 2.411932958044926689e-13 8.106496295632106830e-14 -3.002406113848275424e-15
8.050000000000000000e+02 1.295222473144531250e+01 3.300317764282226562e+01 -4.753809447325708926e-14 -3.177546387903712466e-13 -1.095878216731543953e-13 2.502005094873562853e-15
8.060000000000000000e+02 1.205716705322265625e+01 3.060920333862304688e+01 2.602085213965210642e-14 -1.261010474642651480e-13 -3.002405859738391247e-14 -7.305854326459387815e-14
8.070000000000000000e+02 1.245449542999267578e+01 1.466699981689453125e+01 1.301042606982605321e-14 -3.833071555471578851e-13 -1.110890215537049808e-13 2.001604075898850282e-15
8.080000000000000000e+02 1.190162944793701172e+01 1.316779232025146484e+01 4.703769451307356075e-14 -1.170938346284344789e-13 -2.101684237342145434e-14 1.110890215537049808e-13
8.090000000000000000e+02 1.259465885162353516e+01 1.387672424316406250e+01 -3.552847171192988207e-14 -2.897321868099850262e-13 -9.757819552369539906e-14 3.502807175174635357e-14
8.100000000000000000e+02 1.335126209259033203e+01 8.467092514038085938e+00 2.351884725653678038e-14 -2.186752433861252620e-13 -5.854691731421723944e-14 -5.904731727440076794e-14
8.110000000000000000e+02 4.252960586547851562e+01 4.129421615600585938e+01 -3.402726844324750755e-14 1.341074739322559162e-13 3.002405859738391247e-14 1.100882199392720293e-14
8.120000000000000000e+02 2.713718414306640625e+01 4.188162994384765625e+01 -1.673841322708327639e-13 1.976583908483084406e-14 -4.428548795580057595e-14 5.704571743366665393e-14
8.130000000000000000e+02 2.192099952697753906e+01 4.172319412231445312e+01 -1.377353770317182868e-13 -3.615397166215929270e-14 -5.216680426935009496e-14 -4.803849782157240678e-14
8.140000000000000000e+02 1.232269954681396484e+01 2.901954078674316406e+01 -9.757819552369539906e-14 -8.757017599123409490e-14 -5.554451077685249039e-14 5.004010189747125706e-15
8.150000000000000000e+02 1.635665893554687500e+01 3.588901519775390625e+01 -1.075862150561567032e-13 -1.376102736535406157e-13 -7.355895000104098469e-14 -6.004812227696550847e-15
8.160000000000000000e+02 1.472184371948242188e+01 3.643127059936523438e+01 -1.003304020809683839e-13 9.282438912568830025e-14 -2.251804479507088161e-15 -6.348837877949084496e-14
8.170000000000000000e+02 5.443209075927734375e+01 3.522581481933593750e+01 1.000802037949425141e-15 6.905533680686207210e-14 2.101684237342145434e-14 7.155734338404329264e-14
8.180000000000000000e+02 3.828296661376953125e+01 4.119510269165039062e+01 -8.782037597132585915e-14 -1.476182931860019198e-14 -3.077466192579099424e-14 -1.701363422162375377e-14
8.190000000000000000e+02 2.857203483581542969e+01 3.959741592407226562e+01 -1.777674551615635035e-13 -1.125902239753544080e-15 -5.366800753803246948e-14 7.896953388788780642e-15
8.200000000000000000e+02 2.899794006347656250e+01 4.117542266845703125e+01 -1.121836523958370802e-13 1.806760307771632101e-13 2.054771656371644911e-14 3.002406113848275424e-15
8.210000000000000000e+02 1.489127254486083984e+01 3.844280624389648438e+01 -9.757819552369539906e-14 -8.757017599123409490e-14 -5.554451077685249039e-14 -4.003208151797700565e-14
8.220000000000000000e+02 3.010733604431152344e+00 3.890560913085937500e+01 4.253408470702643718e-14 -2.752205540833448094e-14 4.503608959014176322e-15 -6.004812227696550847e-15
8.230000000000000000e+02 4.010245800018310547e+00 3.948101806640625000e+01 1.551243095294137925e-14 -1.050842118671072717e-14 1.501203056924137712e-15 -8.694467095880700075e-15
8.240000000000000000e+02 4.765742111206054688e+01 3.727323532104492188e+01 -4.653729455289003225e-14 -8.857097591160115191e-14 -4.053248147816053415e-14 -4.303448466720996568e-14
8.250000000000000000e+02 4.556113052368164062e+01 3.901834106445312500e+01 -6.905533680686207210e-14 3.903127820947815962e-14 -9.007217918028352643e-15 1.876503747039789255e-14
8.260000000000000000e+02 1.745909118652343750e+01 4.173174667358398438e+01 -1.162181380862450930e-13 -2.328115727544960434e-13 -1.047089118969696253e-13 4.453568793589234021e-14
8.270000000000000000e+02 3.278816223144531250e+01 4.127996444702148438e+01 -1.227233511211581196e-13 -4.115798142838994478e-14 -4.916439773198534591e-14 2.426944889087796764e-14
8.280000000000000000e+02 4.163024139404296875e+01 3.645240020751953125e+01 -6.955573676704560060e-14 8.456776945386934585e-14 4.503608959014176322e-15 8.006416303595401129e-15
8.290000000000000000e+02 3.327785110473632812e+01 3.914567184448242188e+01 -1.133408281507944371e-13 6.580273028940555879e-14 -1.426142935841666348e-14 -4.003208151797700565e-15
8.300000000000000000e+02 1.400502014160156250e+01 3.989653015136718750e+01 -9.051003083951000838e-14 -2.904202215086443273e-13 -1.142790831583362365e-13 -5.254210423948774134e-14
8.310000000000000000e+02 1.678870964050292969e+01 3.894013977050781250e+01 -1.731387521417340758e-13 -9.707779556351187056e-14 -8.106496295632106830e-14 -2.702165375408505793e-14
8.320000000000000000e+02 3.427960634231567383e+00 4.161667346954345703e+00 1.601283260719080226e-14 -1.601283260719080226e-14 0.000000000000000000e+00 -3.702967498061225660e-14
8.330000000000000000e+02 1.262573432922363281e+01 8.569030761718750000e+00 -1.165934346682509504e-13 -2.787233605808930870e-13 -1.185950345089850644e-13 9.307458910578006450e-14
8.340000000000000000e+02 1.276595115661621094e+01 2.276515960693359375e+01 0.000000000000000000e+00 0.000000000000000000e+00 0.000000000000000000e+00 -7.405934996122451319e-14
8.350000000000000000e+02 1.196681213378906250e+01 1.961529350280761719e+01 2.952365863720038397e-14 -1.245998475837145625e-13 -2.852285871683332696e-14 -1.341074739322559162e-13
8.360000000000000000e+02 1.309783363342285156e+01 2.913557052612304688e+01 1.616295259524586081e-13 -2.967377862525544252e-13 -4.053248147816053415e-14 2.001604075898850282e-15
8.370000000000000000e+02 7.652701568603515625e+01 3.879371643066406250e+01 5.923496556540369662e-14 2.541411634089663085e-13 9.401283733705828594e-14 -2.902325867701685547e-14
8.380000000000000000e+02 7.579166412353515625e+01 3.540079879760742188e+01 1.050842118671072717e-14 1.646319257135597791e-13 5.254210423948774134e-14 -2.101684237342145434e-14
8.390000000000000000e+02 7.418946838378906250e+01 3.652418899536132812e+01 -1.150922280114367868e-14 8.656937607086703790e-14 2.251804564210382886e-14 6.104892389139845998e-14
8.400000000000000000e+02 7.417822265625000000e+01 3.553264999389648438e+01 -4.953969770212299228e-14 2.451964887096973189e-14 -7.506014649345978118e-15 -3.002406113848275424e-15
8.410000000000000000e+02 1.219442844390869141e+01 2.519925880432128906e+01 -1.751403587587317678e-14 -3.277626650990961288e-13 -1.035830085984248972e-13 -3.903127820947815962e-14
8.420000000000000000e+02 1.280639934539794922e+01 2.356572532653808594e+01 -8.957178260823178695e-14 -4.958973769814134513e-13 -1.756407519426517183e-13 -7.205774334422682115e-14
8.430000000000000000e+02 7.313048553466796875e+01 3.731687164306640625e+01 1.251002526260957745e-14 6.255012377194904549e-14 2.251804564210382886e-14 5.204170427930421283e-14
8.440000000000000000e+02 6.866637420654296875e+01 3.765198516845703125e+01 1.551243095294137925e-14 1.095878216731543953e-13 3.753007494079578510e-14 2.752205540833448094e-14
8.450000000000000000e+02 7.744023895263671875e+01 3.939596939086914062e+01 5.029030103053007406e-14 6.730393694621972234e-14 3.527827173183811782e-14 -3.402726844324750755e-14
8.460000000000000000e+02 7.709403991699218750e+01 4.049217605590820312e+01 5.667041407539721853e-14 2.072911205750274655e-13 7.918845971750104740e-14 -3.702967498061225660e-14
8.470000000000000000e+02 1.328333759307861328e+01 3.214296102523803711e+00 -3.402726844324750755e-14 -1.060850151756061177e-13 -4.203368474684290867e-14 -3.302646513474866152e-14
8.480000000000000000e+02 3.505424499511718750e+00 3.782262802124023438e+01 -3.552847171192988207e-14 -1.296038607380770036e-13 -4.953969770212299228e-14 -3.803047490097931360e-14
8.490000000000000000e+02 4.985596179962158203e+00 4.049800872802734375e+00 2.201764398785440585e-14 -8.206576287668812530e-14 -1.801443583605670529e-14 0.000000000000000000e+00
8.500000000000000000e+02 5.944033622741699219e+00 5.376742839813232422e+00 -2.652125379390152943e-14 1.150922280114367868e-14 -4.503608959014176322e-15 4.903929774193946378e-14
8.510000000000000000e+02 6.605215072631835938e+00 4.622321605682373047e+00 1.651323256737433076e-14 9.857899544406245607e-14 3.452766840343103605e-14 -7.005614350349270714e-14
8.520000000000000000e+02 8.840051651000976562e+00 3.862168073654174805e+00 1.000802037949425141e-14 5.004010105043830980e-14 1.801443583605670529e-14 -1.581267126786467525e-13
8.530000000000000000e+02 7.363010406494140625e+00 4.572506904602050781e+00 -9.307458910578006450e-14 -1.771419518232023038e-13 -8.106496295632106830e-14 4.003208151797700565e-15
8.540000000000000000e+02 9.590200424194335938e+00 3.849328756332397461e+00 1.551243095294137925e-14 -1.306046606584440606e-13 -3.452766840343103605e-14 -6.104892389139845998e-14
8.550000000000000000e+02 7.654383087158203125e+01 3.525292968750000000e+01 2.902325867701685547e-14 -7.906335633932337625e-14 -1.501202929869195624e-14 -4.703769451307356075e-14
8.560000000000000000e+02 7.714699554443359375e+01 3.661230468750000000e+01 4.803849782157240678e-14 3.202566521438160452e-14 2.401924891078620339e-14 -9.957980214069309111e-14
8.570000000000000000e+02 1.177046394348144531e+01 5.793177604675292969e+00 3.702967498061225660e-14 -1.671339390670045777e-13 -3.903127820947815962e-14 -4.903929774193946378e-14
8.580000000000000000e+02 1.100878334045410156e+01 5.188547134399414062e+00 1.150922280114367868e-14 -8.656937607086703790e-14 -2.251804564210382886e-14 -3.102486190588275849e-14
8.590000000000000000e+02 9.586801528930664062e+00 4.507103443145751953e+00 -1.396118734942747297e-13 -1.055846084391590112e-13 -7.355895000104098469e-14 -1.861491782115601290e-13
8.600000000000000000e+02 1.307552719116210938e+01 2.755364990234375000e+01 7.355895000104098469e-14 -2.887313868896179692e-13 -6.455173038894673754e-14 -5.204170427930421283e-14
8.610000000000000000e+02 1.225106620788574219e+01 2.599888420104980469e+01 -6.755413692631148659e-14 -2.577065080430762656e-13 -9.757819552369539906e-14 5.804651735403371093e-14
8.620000000000000000e+02 1.198611640930175781e+01 2.040392112731933594e+01 -5.004010105043830980e-14 -2.502004950877961820e-13 -9.007218256841531545e-14 -4.403528797570881170e-14
8.630000000000000000e+02 1.267721652984619141e+01 2.036466407775878906e+01 1.501203056924137712e-15 -1.366094737331735587e-13 -4.053248147816053415e-14 -6.405133042876320904e-14
8.640000000000000000e+02 1.194705104827880859e+01 1.883588218688964844e+01 0.000000000000000000e+00 -3.202566521438160452e-13 -9.607699564314481355e-14 -6.705373696612795809e-14
8.650000000000000000e+02 2.639656066894531250e+00 2.920451545715332031e+01 -1.030826086382413687e-13 9.307458910578006450e-14 -3.002406113848275424e-15 -5.204170427930421283e-14
8.660000000000000000e+02 3.464735269546508789e+00 2.993308448791503906e+01 -3.803047490097931360e-14 9.807859548387892756e-14 1.801443583605670529e-14 -9.007217918028352643e-15
8.670000000000000000e+02 2.679356336593627930e+00 5.018871784210205078e+00 4.503608959014176322e-15 -8.957178260823178695e-14 -2.552045048540268340e-14 -2.001604075898850282e-14
8.680000000000000000e+02 1.270326900482177734e+01 2.116597557067871094e+01 -6.805453688649501509e-14 -2.121700303512122354e-13 -8.406736949368581735e-14 5.304250758780305885e-14
8.690000000000000000e+02 3.743285655975341797e+00 3.166874694824218750e+01 -5.854691731421723944e-14 -1.165934346682509504e-13 -5.254210423948774134e-14 -1.020818019416107336e-13
8.700000000000000000e+02 1.264745330810546875e+01 1.090255832672119141e+01 3.352686848306397904e-14 -1.686351389475551632e-13 -4.053248147816053415e-14 -4.103288143834406265e-14
8.710000000000000000e+02 1.188262176513671875e+01 8.677885055541992188e+00 -1.175942345886180074e-13 -1.876503780921107145e-13 -9.157338244896590096e-14 -9.407538902614712151e-14
8.720000000000000000e+02 1.264294528961181641e+01 1.240989017486572266e+01 8.506817110811876886e-15 -1.336070739720723877e-13 -3.753007494079578510e-14 5.104090097080536681e-14
8.730000000000000000e+02 1.190748500823974609e+01 1.174097728729248047e+01 4.353488801552528320e-14 -1.185950345089850644e-13 -2.251804564210382886e-14 6.004812227696550847e-15
8.740000000000000000e+02 1.263486385345458984e+01 1.313514232635498047e+01 -4.153328478665938017e-14 -3.838075690598685696e-13 -1.276022608973428896e-13 -6.204972381176551699e-14
8.750000000000000000e+02 1.115644550323486328e+01 1.178043460845947266e+01 -2.502005094873562853e-15 -9.257418236933295796e-14 -2.852285871683332696e-14 -3.002405859738391247e-14
8.760000000000000000e+02 1.247813701629638672e+01 1.635366630554199219e+01 4.503609128420765773e-14 -4.153328343140666457e-13 -1.110890215537049808e-13 -7.506014988159157020e-14
8.770000000000000000e+02 1.327319335937500000e+01 1.710244941711425781e+01 -4.253408470702643718e-14 -6.129912116098479302e-13 -1.966575909279413836e-13 -4.503609128420765773e-14
8.780000000000000000e+02 1.260163307189941406e+01 1.797556495666503906e+01 3.953167816966168813e-14 -3.948163952889605088e-13 -1.065854151357896462e-13 2.401924891078620339e-14
8.790000000000000000e+02 1.256774520874023438e+01 6.348649024963378906e+00 -1.501203056924137712e-15 -1.836471648581153304e-13 -5.554451077685249039e-14 -2.602085213965210642e-14
8.800000000000000000e+02 1.259480094909667969e+01 7.071125507354736328e+00 -1.165934346682509504e-13 -2.787233605808930870e-13 -1.185950345089850644e-13 7.806255641895631925e-14
8.810000000000000000e+02 2.546599149703979492e+00 2.288146972656250000e+01 -1.000802037949425141e-15 9.107298248878237246e-14 2.702165375408505793e-14 7.005613842129502361e-15
8.820000000000000000e+02 3.272426843643188477e+00 2.373785018920898438e+01 -2.552045048540268340e-14 -7.956375629950690476e-14 -3.152526186606628700e-14 -8.406736949368581735e-14
8.830000000000000000e+02 3.990250587463378906e+00 2.379582977294921875e+01 -1.010810020212436766e-13 -8.907137587178468041e-14 -5.704571743366665393e-14 -1.551243129175455815e-13
8.840000000000000000e+02 3.166571855545043945e+00 1.009653759002685547e+01 -1.951563910473907981e-14 1.746399520222846613e-13 4.653729455289003225e-14 2.702165375408505793e-14
8.850000000000000000e+02 3.169719219207763672e+00 1.248759555816650391e+01 -6.855493684667854359e-14 -6.505213034913026604e-15 -2.251804564210382886e-14 -1.361090737729900302e-13
8.860000000000000000e+02 2.504418849945068359e+00 1.565256690979003906e+01 -1.401122768425900472e-14 -6.004812227696550847e-15 -6.004812227696550847e-15 2.502005052521915490e-14
8.870000000000000000e+02 3.203569412231445312e+00 1.651227569580078125e+01 -6.505213034913026604e-14 -1.651323256737433076e-13 -6.905533680686207210e-14 -7.205774334422682115e-14
8.880000000000000000e+02 3.222724437713623047e+00 1.812284278869628906e+01 -8.456776945386934585e-14 9.507618725244828400e-15 -2.251804564210382886e-14 -9.007217918028352643e-15
8.890000000000000000e+02 3.234778165817260742e+00 1.892633438110351562e+01 -9.507618725244828400e-15 2.246800564608547601e-13 6.455173038894673754e-14 8.006416303595401129e-15
8.900000000000000000e+02 2.517644166946411133e+00 1.807000160217285156e+01 1.050842118671072717e-14 1.646319257135597791e-13 5.254210423948774134e-14 4.603689120457471473e-14
8.910000000000000000e+02 3.211680412292480469e+00 1.731896209716796875e+01 -4.503608959014176322e-15 8.957178260823178695e-14 2.552045048540268340e-14 2.401924891078620339e-14
8.920000000000000000e+02 3.265793323516845703e+00 2.292958259582519531e+01 2.101684237342145434e-14 1.691355389077386917e-13 5.704571743366665393e-14 -1.180946345488015359e-13
8.930000000000000000e+02 3.189373254776000977e+00 9.295077323913574219e+00 -3.502806921064751181e-15 -1.501203056924137712e-15 -1.501203056924137712e-15 -5.404330750817011586e-14
8.940000000000000000e+02 2.537171840667724609e+00 2.128416633605957031e+01 6.855493684667854359e-14 1.666335391068210492e-13 7.055654346367623564e-14 0.000000000000000000e+00
8.950000000000000000e+02 5.097203731536865234e+00 1.108596324920654297e+01 9.007217918028352643e-15 1.411130869273524713e-13 4.503609128420765773e-14 -9.007218256841531545e-14
8.960000000000000000e+02 2.478679418563842773e+00 1.164254856109619141e+01 -1.000802037949425141e-15 9.107298248878237246e-14 2.702165375408505793e-14 -1.000802037949425141e-15
8.970000000000000000e+02 3.835717916488647461e+00 1.017342662811279297e+01 8.056456299613753980e-14 3.452766840343103605e-14 3.452766840343103605e-14 -1.461170865291877563e-13
8.980000000000000000e+02 3.273854494094848633e+00 2.611889457702636719e+01 -4.203368474684290867e-14 -1.801443583605670529e-14 -1.801443583605670529e-14 -3.302646513474866152e-14
8.990000000000000000e+02 3.276726007461547852e+00 2.840785980224609375e+01 -1.080866150163402317e-13 -9.207378240914942946e-14 -6.004811719476782494e-14 1.100882199392720293e-14
9.000000000000000000e+02 2.662679910659790039e+00 6.714169025421142578e+00 8.857097591160115191e-14 1.065854151357896462e-13 5.854691731421723944e-14 -3.602887167211341057e-14
9.010000000000000000e+02 3.941108465194702148e+00 1.898866271972656250e+01 2.001604075898850282e-15 1.381106736137241442e-13 4.203368474684290867e-14 -7.305854326459387815e-14
9.020000000000000000e+02 3.262236356735229492e+00 2.213130378723144531e+01 -1.701363422162375377e-14 -5.304250758780305885e-14 -2.101684237342145434e-14 -8.006416303595401129e-15
9.030000000000000000e+02 3.194693565368652344e+00 1.490281391143798828e+01 4.153328478665938017e-14 6.355093046857968053e-14 3.152526186606628700e-14 -8.706977603105056640e-14
9.040000000000000000e+02 3.191650867462158203e+00 1.409217929840087891e+01 -1.801443583605670529e-14 -1.220978477827969200e-13 -4.203368474684290867e-14 2.101684237342145434e-14
9.050000000000000000e+02 4.185432910919189453e+00 3.603109359741210938e+01 3.302646513474866152e-14 -2.301844560228735737e-14 3.002406113848275424e-15 -1.058348151955143535e-13
9.060000000000000000e+02 3.666082143783569336e+00 3.254534912109375000e+01 1.251002526260957745e-14 1.426142868079030568e-13 4.653729455289003225e-14 3.702967498061225660e-14
9.070000000000000000e+02 3.531264305114746094e+00 3.333536148071289062e+01 -1.551243095294137925e-14 -1.896519779328448285e-13 -6.154932385158198849e-14 -9.207378240914942946e-14
9.080000000000000000e+02 3.347159624099731445e+00 2.916152381896972656e+01 3.502806921064751181e-15 1.501203056924137712e-15 1.501203056924137712e-15 4.803849782157240678e-14
9.090000000000000000e+02 2.585293531417846680e+00 2.842062377929687500e+01 -7.005613842129502361e-15 -3.002406113848275424e-15 -3.002406113848275424e-15 3.903127820947815962e-14
9.100000000000000000e+02 3.280164003372192383e+00 2.454567909240722656e+01 -6.104892389139845998e-14 1.110890215537049808e-13 1.501202929869195624e-14 -1.080866150163402317e-13
9.110000000000000000e+02 3.232119560241699219e+00 8.492695808410644531e+00 -2.952365863720038397e-14 1.245998475837145625e-13 2.852285871683332696e-14 1.291034607778934751e-13
9.120000000000000000e+02 3.469114780426025391e+00 6.799223899841308594e+00 5.054050101062183831e-14 2.046640038434049957e-13 7.656135653840573374e-14 -1.000802037949425141e-15
9.130000000000000000e+02 3.321020603179931641e+00 3.524410247802734375e+01 -3.702967498061225660e-14 -1.931547912066566841e-13 -6.905533680686207210e-14 -2.802245536851800944e-14
9.140000000000000000e+02 3.651017665863037109e+00 3.077131462097167969e+01 1.401122768425900472e-14 6.004812227696550847e-15 6.004812227696550847e-15 9.207378240914942946e-14
9.150000000000000000e+02 1.261286258697509766e+01 7.812518596649169922e+00 -3.052446194569922999e-14 -1.045838085187919542e-13 -4.053248147816053415e-14 -6.505213034913026604e-14
9.160000000000000000e+02 1.056576347351074219e+01 1.107804393768310547e+01 -6.605293026949732305e-14 -7.405934996122451319e-14 -4.203368474684290867e-14 9.007218256841531545e-14
9.170000000000000000e+02 1.214089775085449219e+01 2.439662170410156250e+01 5.004010189747125706e-16 -3.657931433882072314e-13 -1.095878216731543953e-13 4.003208151797700565e-15
9.180000000000000000e+02 1.310725212097167969e+01 2.833980560302734375e+01 -5.354290754798658736e-14 -2.517017085208739235e-13 -9.157338244896590096e-14 1.411130869273524713e-13
9.190000000000000000e+02 1.231160068511962891e+01 2.678537368774414062e+01 -2.351884725653678038e-14 -4.218380473489796723e-13 -1.336070739720723877e-13 -3.102486190588275849e-14
9.200000000000000000e+02 8.111151695251464844e+00 4.534636497497558594e+00 -7.506014988159157020e-14 -2.151724301123134064e-13 -8.706977603105056640e-14 -5.004010189747125706e-15
9.210000000000000000e+02 1.205078315734863281e+01 2.279397392272949219e+01 -6.405133042876320904e-14 -2.562053217150528361e-13 -9.607699564314481355e-14 -6.505213034913026604e-14
9.220000000000000000e+02 1.178844356536865234e+01 3.153379440307617188e+01 3.277626515465689727e-14 5.979791721467606069e-14 2.777225538842624519e-14 3.102486190588275849e-14
9.230000000000000000e+02 1.221378135681152344e+01 2.978202629089355469e+01 9.257418745153064149e-15 -4.178348476675114442e-14 -9.757819552369539906e-15 7.606094980195862720e-14
9.240000000000000000e+02 1.193720149993896484e+01 1.382793998718261719e+01 -7.405934996122451319e-14 -3.062454261536229350e-13 -1.140914348673333079e-13 -1.541235129971785245e-13
9.250000000000000000e+02 6.037608337402343750e+01 3.690255737304687500e+01 -4.503609128420765773e-14 1.501202929869195624e-14 -9.007217918028352643e-15 7.005613842129502361e-15
9.260000000000000000e+02 6.115378189086914062e+01 3.534741973876953125e+01 -5.404330750817011586e-14 -2.061652172764827373e-13 -7.806255641895631925e-14 4.253408555405938443e-15
9.270000000000000000e+02 4.665910720825195312e+01 4.127882003784179688e+01 -1.601283260719080226e-14 5.604491073703601889e-14 1.200962445539310169e-14 -5.004010189747125706e-15
9.280000000000000000e+02 7.463738250732421875e+01 4.068734359741210938e+01 6.104892389139845998e-14 1.491194998428160834e-13 6.305052373213257400e-14 -1.494947930366901517e-14
9.290000000000000000e+02 6.712218475341796875e+01 3.710009765625000000e+01 3.452766840343103605e-14 6.054852393121493148e-14 2.852285871683332696e-14 6.305052373213257400e-14
9.300000000000000000e+02 5.768026351928710938e+01 3.702907562255859375e+01 -4.903929774193946378e-14 5.904731727440076794e-14 3.002406113848275424e-15 1.701363422162375377e-14
9.310000000000000000e+02 4.254249572753906250e+00 4.160814666748046875e+01 2.564555216951446004e-14 -1.188452361831427231e-14 4.128308141843582690e-15 -2.902325867701685547e-14
9.320000000000000000e+02 6.334183883666992188e+01 3.577988052368164062e+01 -8.306656957331876034e-14 3.302646513474866152e-14 -1.501202929869195624e-14 -1.025822035958601566e-14
9.330000000000000000e+02 7.249454498291015625e+01 3.840449905395507812e+01 3.502806921064751181e-15 1.501203056924137712e-15 1.501203056924137712e-15 4.816359781161828890e-14
9.340000000000000000e+02 5.026363372802734375e+01 3.817015457153320312e+01 -6.955573676704560060e-14 4.503608959014176322e-15 -1.951563910473907981e-14 -6.605293026949732305e-14
9.350000000000000000e+02 6.730861186981201172e+00 3.729698562622070312e+01 -4.278428468711820143e-14 -6.980593674713736485e-14 -3.377706846315574329e-14 -1.476182931860019198e-14
9.360000000000000000e+02 1.336548519134521484e+01 3.417066574096679688e+01 1.175942362826839019e-14 -1.093376216930626310e-13 -2.927345865710861972e-14 -1.200962445539310169e-14
9.370000000000000000e+02 1.191463470458984375e+01 1.806373977661132812e+01 -9.207378240914942946e-14 -2.682149478645118323e-13 -1.080866150163402317e-13 -4.403528797570881170e-14
9.380000000000000000e+02 1.239276695251464844e+01 1.550846099853515625e+01 -1.150922280114367868e-14 -3.938155953685934518e-13 -1.215974478226133915e-13 7.906335633932337625e-14
9.390000000000000000e+02 7.335395050048828125e+01 3.644454193115234375e+01 -4.503609128420765773e-14 9.507618894651417851e-14 1.501202929869195624e-14 -5.104090097080536681e-14
9.400000000000000000e+02 1.149141502380371094e+01 2.522984886169433594e+01 2.151724233360498284e-14 -3.567859169998494062e-13 -1.005806020610601481e-13 1.351082738526229732e-13
9.410000000000000000e+02 1.142420387268066406e+01 2.443023872375488281e+01 4.903929774193946378e-14 -1.391114735340912012e-13 -2.702165375408505793e-14 -2.602085213965210642e-14
9.420000000000000000e+02 3.469693899154663086e+00 4.986286163330078125e+00 -2.451964887096973189e-14 -1.050842118671072717e-14 -1.050842118671072717e-14 -5.504411081666896188e-14
9.430000000000000000e+02 4.260604381561279297e+00 4.906898498535156250e+00 9.107298248878237246e-14 3.903127820947815962e-14 3.903127820947815962e-14 -2.702165375408505793e-14
9.440000000000000000e+02 4.005216598510742188e+00 7.851030349731445312e+00 -1.751403587587317678e-14 3.127506391885359616e-13 8.857097591160115191e-14 5.804651735403371093e-14
9.450000000000000000e+02 5.052497386932373047e+00 4.793472290039062500e+00 -9.157338244896590096e-14 6.505213034913026604e-15 -2.552045048540268340e-14 1.200962445539310169e-14
9.460000000000000000e+02 9.566422462463378906e+00 5.161707878112792969e+00 5.254210423948774134e-14 2.251804564210382886e-14 2.251804564210382886e-14 -2.802245536851800944e-14
9.470000000000000000e+02 6.691906452178955078e+00 5.287932872772216797e+00 5.004010189747125706e-16 -4.553649124439118623e-14 -1.351082687704252897e-14 2.502005052521915490e-14
9.480000000000000000e+02 8.854559898376464844e+00 4.509837627410888672e+00 6.505213034913026604e-14 -1.551243129175455815e-13 -2.702165375408505793e-14 -3.502807175174635357e-14
9.490000000000000000e+02 1.209158229827880859e+01 2.359411048889160156e+01 -2.301844560228735737e-14 -1.471179000020819694e-13 -5.104090097080536681e-14 -6.605293026949732305e-14
9.500000000000000000e+02 7.429742813110351562e+00 5.225879192352294922e+00 6.405133042876320904e-14 2.562053217150528361e-13 9.607699564314481355e-14 2.301844560228735737e-14
9.510000000000000000e+02 4.369606018066406250e+00 3.054814147949218750e+01 -7.531034986168333445e-14 -3.227586519447336877e-14 -3.227586519447336877e-14 -4.003208151797700565e-15
9.520000000000000000e+02 1.099327659606933594e+01 5.891427516937255859e+00 -6.355093046857968053e-14 1.851483749030612830e-14 -1.351082687704252897e-14 8.907137587178468041e-14
9.530000000000000000e+02 7.623691082000732422e+00 6.521489620208740234e+00 -3.502807175174635357e-14 -1.501202929869195624e-14 -1.501202929869195624e-14 -3.002406113848275424e-15
9.540000000000000000e+02 3.251765489578247070e+00 2.765270805358886719e+01 -9.657739560332834206e-14 1.416134868875359998e-13 1.351082687704252897e-14 -1.491194998428160834e-13
9.550000000000000000e+02 3.940030813217163086e+00 2.839653396606445312e+01 -6.004812227696550847e-15 2.261812563414053456e-13 6.605293026949732305e-14 3.602887167211341057e-14
9.560000000000000000e+02 1.040952110290527344e+01 1.699763107299804688e+01 1.901523745048965680e-14 -1.291034607778934751e-13 -3.302646513474866152e-14 2.401924891078620339e-14
9.570000000000000000e+02 1.184544849395751953e+01 1.728610038757324219e+01 -3.002406113848275424e-15 -3.672943297162306608e-13 -1.110890215537049808e-13 -9.407538902614712151e-14
9.580000000000000000e+02 4.529028892517089844e+00 3.275579833984375000e+01 -2.101684237342145434e-14 -9.007217918028352643e-15 -9.007217918028352643e-15 -1.150922347877003649e-13
9.590000000000000000e+02 1.102923583984375000e+01 7.324244022369384766e+00 -1.000802021008766196e-13 -1.801443651368306309e-13 -8.406736949368581735e-14 -3.602887167211341057e-14
9.600000000000000000e+02 1.192809963226318359e+01 1.020775699615478516e+01 -3.702967498061225660e-14 -1.531227130768114675e-13 -5.704571743366665393e-14 -1.411130869273524713e-13
9.610000000000000000e+02 1.188316249847412109e+01 1.247021961212158203e+01 -9.307458910578006450e-14 -1.771419518232023038e-13 -8.106496295632106830e-14 2.401924891078620339e-14
9.620000000000000000e+02 1.111694049835205078e+01 1.329259395599365234e+01 -1.781427517435693608e-13 -1.220978477827969200e-13 -9.007218256841531545e-14 -9.607699564314481355e-14
9.630000000000000000e+02 1.105177211761474609e+01 1.253914070129394531e+01 -6.154932385158198849e-14 -3.237594383125735886e-13 -1.155926347478838934e-13 -3.002406113848275424e-15
9.640000000000000000e+02 4.009450435638427734e+00 2.460750389099121094e+01 -1.150922280114367868e-14 8.656937607086703790e-14 2.251804564210382886e-14 -3.502807175174635357e-14
9.650000000000000000e+02 3.257335186004638672e+00 2.689066123962402344e+01 -3.202566521438160452e-14 3.202566521438160452e-14 0.000000000000000000e+00 8.606896933441993136e-14
9.660000000000000000e+02 4.689910411834716797e+00 2.898107719421386719e+01 -2.702165375408505793e-14 5.704571743366665393e-14 9.007217918028352643e-15 1.791435652164635739e-13
9.670000000000000000e+02 3.991032838821411133e+00 2.219500923156738281e+01 -8.006416303595401129e-14 -8.006416303595401129e-14 -4.803849782157240678e-14 -1.040834085586084257e-13
9.680000000000000000e+02 3.849365472793579102e+00 1.253536319732666016e+01 -2.902325867701685547e-14 7.906335633932337625e-14 1.501202929869195624e-14 2.001604075898850282e-14
9.690000000000000000e+02 5.350748062133789062e+00 2.723986625671386719e+01 -1.025822086780578402e-13 4.753809447325708926e-14 -1.651323256737433076e-14 -1.210970478624298630e-13
9.700000000000000000e+02 3.918534994125366211e+00 8.618823051452636719e+00 -1.651323256737433076e-14 -9.857899544406245607e-14 -3.452766840343103605e-14 -1.741395520621011328e-13
9.710000000000000000e+02 3.198069095611572266e+00 1.570802497863769531e+01 -6.505213034913026604e-15 -4.853889778175593528e-14 -1.651323256737433076e-14 -1.230986477031639770e-13
9.720000000000000000e+02 3.886612653732299805e+00 1.577558994293212891e+01 -4.153328478665938017e-14 -6.355093046857968053e-14 -3.152526186606628700e-14 -2.902325867701685547e-14
9.730000000000000000e+02 3.259311199188232422e+00 2.133914947509765625e+01 -1.301042606982605321e-14 2.231788430277770185e-13 6.305052373213257400e-14 8.206576287668812530e-14
9.740000000000000000e+02 3.985008955001831055e+00 2.298788642883300781e+01 8.857097591160115191e-14 1.065854151357896462e-13 5.854691731421723944e-14 -6.305052373213257400e-14
9.750000000000000000e+02 4.593831539154052734e+00 1.664673423767089844e+01 6.505213034913026604e-15 -1.115894215138885093e-13 -3.152526186606628700e-14 -2.702165375408505793e-14
9.760000000000000000e+02 4.666690826416015625e+00 1.986618423461914062e+01 9.007217918028352643e-15 1.411130869273524713e-13 4.503609128420765773e-14 -1.781427517435693608e-13
9.770000000000000000e+02 3.873993873596191406e+00 1.333305835723876953e+01 -5.954771723458429644e-14 -2.552045048540268340e-14 -2.552045048540268340e-14 -1.851483647386659159e-13
9.780000000000000000e+02 3.157201528549194336e+00 1.169590950012207031e+01 -2.301844560228735737e-14 1.301042606982605321e-14 -3.002406113848275424e-15 1.100882216333379238e-13
9.790000000000000000e+02 5.276090621948242188e+00 9.611104965209960938e+00 -2.151724233360498284e-14 3.652927163229693908e-14 4.503608959014176322e-15 3.502807175174635357e-14
9.800000000000000000e+02 3.282896995544433594e+00 2.533952140808105469e+01 -6.054852393121493148e-14 6.555253030931379454e-14 1.501203056924137712e-15 8.206576287668812530e-14
9.810000000000000000e+02 3.155376911163330078e+00 1.089936447143554688e+01 9.107298248878237246e-14 3.903127820947815962e-14 3.903127820947815962e-14 -1.371098736933570872e-13
9.820000000000000000e+02 3.960839033126831055e+00 1.980109405517578125e+01 -9.007217918028352643e-15 1.791435652164635739e-13 5.104090097080536681e-14 1.601283260719080226e-14
9.830000000000000000e+02 3.254041671752929688e+00 2.054121017456054688e+01 -3.702967498061225660e-14 7.005613842129502361e-15 -9.007217918028352643e-15 4.503609128420765773e-14
9.840000000000000000e+02 3.895699024200439453e+00 1.657636260986328125e+01 -1.851483749030612830e-14 8.356696953350228885e-14 1.951563910473907981e-14 9.007217918028352643e-15
9.850000000000000000e+02 1.179707908630371094e+01 6.486002445220947266e+00 -6.555253030931379454e-14 -1.195958344293521214e-13 -5.554451077685249039e-14 5.304250758780305885e-14
9.860000000000000000e+02 3.883469820022583008e+00 1.414770412445068359e+01 -1.100882199392720293e-14 2.011612041221202962e-13 5.704571743366665393e-14 -3.702967498061225660e-14
9.870000000000000000e+02 4.902740478515625000e+00 3.102962303161621094e+01 -8.807057595141762341e-14 -3.122502256758252770e-13 -1.200962343895356499e-13 -9.007218256841531545e-14
9.880000000000000000e+02 3.314664363861083984e+00 7.671865940093994141e+00 7.455974992140804170e-14 -5.954771723458429644e-14 4.503608959014176322e-15 -1.631307258330091936e-13
9.890000000000000000e+02 3.869101285934448242e+00 9.390584945678710938e+00 -7.656135653840573374e-14 -7.856295637913984775e-14 -4.653729455289003225e-14 2.902325867701685547e-14
9.900000000000000000e+02 4.025662899017333984e+00 2.540991210937500000e+01 -4.453568793589234021e-14 2.096680169977674368e-13 4.953969770212299228e-14 -1.521218996039172544e-13
9.910000000000000000e+02 5.092312812805175781e+00 7.014473915100097656e+00 -8.706977603105056640e-14 7.706175649858926224e-14 -3.002406113848275424e-15 6.505213034913026604e-15
9.920000000000000000e+02 4.794945240020751953e+00 3.503711700439453125e+01 -1.501202929869195624e-14 -1.551243129175455815e-13 -5.104090097080536681e-14 -4.228388472693467293e-14
9.930000000000000000e+02 3.900572776794433594e+00 3.449039077758789062e+01 -2.351884725653678038e-14 -2.151724233360498284e-14 -1.351082687704252897e-14 -4.103288143834406265e-14
9.940000000000000000e+02 4.168683052062988281e+00 2.980423736572265625e+01 -5.954771723458429644e-14 -2.552045048540268340e-14 -2.552045048540268340e-14 1.271018609371593611e-13
9.950000000000000000e+02 4.682046413421630859e+00 3.183149337768554688e+01 1.251002547436781426e-15 4.628709118466647898e-14 1.426142935841666348e-14 4.803849782157240678e-14
9.960000000000000000e+02 1.182590675354003906e+01 7.199137210845947266e+00 -8.506817110811876886e-15 -1.866495781717436575e-13 -5.854691731421723944e-14 -4.603689120457471473e-14
9.970000000000000000e+02 8.881696701049804688e+00 5.731283664703369141e+00 1.731387521417340758e-13 -6.305052373213257400e-14 3.302646513474866152e-14 -1.301042606982605321e-13
9.980000000000000000e+02 1.237733078002929688e+01 2.754137420654296875e+01 -6.154932385158198849e-14 -4.838877779370087673e-13 -1.636311257931927221e-13 8.506816941405287436e-14
9.990000000000000000e+02 1.155447101593017578e+01 2.602167129516601562e+01 -3.202566521438160452e-14 -2.882309733769072846e-13 -9.607699564314481355e-14 -9.107298248878237246e-14
1.000000000000000000e+03 1.239086437225341797e+01 2.827982330322265625e+01 9.857899544406245607e-14 -3.237594383125735886e-13 -6.755413692631148659e-14 4.003208151797700565e-15
1.001000000000000000e+03 1.242454719543457031e+01 3.856483697891235352e+00 1.135910281308862013e-13 7.155734338404329264e-14 5.554451077685249039e-14 -4.903929774193946378e-14
1.002000000000000000e+03 5.302184104919433594e+00 3.672898101806640625e+01 1.801443583605670529e-14 -3.803047490097931360e-14 -6.004812227696550847e-15 -3.903127820947815962e-14
1.003000000000000000e+03 1.184494972229003906e+01 3.338484954833984375e+01 -8.631917100857759012e-15 -9.520129232469184966e-14 -3.114996189592864062e-14 -1.020818019416107336e-13
1.004000000000000000e+03 1.202268218994140625e+01 2.199617576599121094e+01 -5.554451077685249039e-14 -6.955573676704560060e-14 -3.753007494079578510e-14 -3.803047490097931360e-14
1.005000000000000000e+03 1.170146369934082031e+01 2.754872894287109375e+01 -3.102486190588275849e-14 -2.191756433463087905e-13 -7.506014988159157020e-14 -1.140914348673333079e-13
1.006000000000000000e+03 1.172201824188232422e+01 1.649486732482910156e+01 -4.553649124439118623e-14 -3.397722912485551250e-13 -1.155926347478838934e-13 -2.902325867701685547e-14
1.007000000000000000e+03 1.131507492065429688e+01 2.281457710266113281e+01 -2.752205540833448094e-14 -2.176744299132310489e-13 -7.355895000104098469e-14 -1.200962343895356499e-13
1.008000000000000000e+03 1.235566997528076172e+01 3.458639907836914062e+01 5.354290754798658736e-14 -6.855493684667854359e-14 -4.503608959014176322e-15 -2.326864727644501613e-14
1.009000000000000000e+03 5.433437824249267578e+00 3.303675079345703125e+01 -2.476984885106149614e-14 1.225982443548486595e-14 -3.753007324672989059e-15 3.302646513474866152e-14
1.010000000000000000e+03 1.121426677703857422e+01 3.024104309082031250e+01 -7.781235643886455500e-14 -1.248500543400699048e-13 -6.079872391130669573e-14 1.401122768425900472e-14
1.011000000000000000e+03 1.154582023620605469e+01 2.879962348937988281e+01 2.902325867701685547e-14 -3.993200084831394214e-13 -1.110890215537049808e-13 -7.405934996122451319e-14
1.012000000000000000e+03 1.136069774627685547e+01 2.362298202514648438e+01 -4.253408470702643718e-14 -2.927345865710861972e-13 -1.005806020610601481e-13 -1.200962445539310169e-14
1.013000000000000000e+03 1.129360485076904297e+01 2.043289756774902344e+01 2.502005094873562853e-15 -2.276824562219559311e-13 -6.755413692631148659e-14 1.401122768425900472e-14
1.014000000000000000e+03 1.190851116180419922e+01 9.436849594116210938e+00 -7.906335633932337625e-14 -1.711371387484728057e-13 -7.506014988159157020e-14 4.203368474684290867e-14
1.015000000000000000e+03 8.154903411865234375e+00 5.173870563507080078e+00 6.004811719476782494e-14 -2.001604075898850282e-14 1.200962445539310169e-14 -6.405133042876320904e-14
1.016000000000000000e+03 6.485787963867187500e+01 3.752029418945312500e+01 2.491058676337958716e-14 1.250533422474109368e-13 4.498917921145692556e-14 5.629511410525957216e-14
1.017000000000000000e+03 6.178945922851562500e+01 4.127485275268554688e+01 -8.131516293641283255e-15 1.939053911469319769e-14 3.377706719260632241e-15 -2.602085213965210642e-14
1.018000000000000000e+03 7.007229614257812500e+01 3.623680877685546875e+01 2.301844560228735737e-14 -1.301042606982605321e-14 3.002406113848275424e-15 -3.602887167211341057e-14
1.019000000000000000e+03 7.028192138671875000e+01 3.764550018310546875e+01 -2.802245536851800944e-14 -1.200962445539310169e-14 -1.200962445539310169e-14 1.401122768425900472e-14
1.020000000000000000e+03 7.088283538818359375e+01 3.932676315307617188e+01 2.752205540833448094e-14 5.754611739385018243e-14 2.552045048540268340e-14 4.228388472693467293e-14
1.021000000000000000e+03 7.508609008789062500e+01 3.865209960937500000e+01 -5.004010189747125706e-16 4.553649124439118623e-14 1.351082687704252897e-14 -1.010810020212436766e-13
1.022000000000000000e+03 7.579220581054687500e+01 3.969868469238281250e+01 5.441860747830776224e-14 9.194868580723533635e-14 4.391018798566292958e-14 -7.506014649345978118e-15
1.023000000000000000e+03 5.894678878784179688e+01 3.641021347045898438e+01 -1.094627199890426186e-14 -4.691259367599473137e-15 -4.691259367599473137e-15 4.103288143834406265e-14
1.024000000000000000e+03 5.737484359741210938e+01 4.130091476440429688e+01 -3.365196847310986117e-14 9.995509872269894847e-14 1.989093907487672619e-14 3.402726844324750755e-14
1.025000000000000000e+03 1.092230987548828125e+01 3.094997215270996094e+01 8.006416303595401129e-15 -2.481988952470620680e-13 -7.205774334422682115e-14 -4.103288143834406265e-14
1.026000000000000000e+03 5.294719696044921875e+01 3.874825286865234375e+01 -2.176744400776264160e-14 5.929751725449253219e-14 1.125902282105191443e-14 2.451964887096973189e-14
1.027000000000000000e+03 4.927692794799804688e+01 4.008747482299804688e+01 -6.520850533668761870e-15 4.295630013804660474e-14 1.093063407663205297e-14 3.265116516461101515e-14
1.028000000000000000e+03 4.732550811767578125e+01 3.848613357543945312e+01 -6.380112621350670851e-15 -5.491901082662307976e-14 -1.838973750026024617e-14 -1.094627162832734744e-16
1.029000000000000000e+03 7.097293090820312500e+01 3.526632308959960938e+01 1.085870149765237602e-13 4.653729455289003225e-14 4.653729455289003225e-14 1.601283260719080226e-14
1.030000000000000000e+03 7.254357147216796875e+01 3.658431243896484375e+01 -2.752205540833448094e-14 2.251804564210382886e-14 -1.501203056924137712e-15 9.007218256841531545e-14
1.031000000000000000e+03 7.159220886230468750e+01 3.713610458374023438e+01 5.129110433902892008e-14 1.363592669768182164e-13 5.629511410525957216e-14 2.001604075898850282e-14
1.032000000000000000e+03 1.000663185119628906e+01 4.074899673461914062e+01 -4.278428468711820143e-14 -6.980593674713736485e-14 -3.377706846315574329e-14 3.027426196560746574e-14
1.033000000000000000e+03 6.075312042236328125e+01 3.889299774169921875e+01 -1.138412281109779656e-14 7.518525325976924134e-14 1.914033913460143344e-14 3.727987496070402085e-14
1.034000000000000000e+03 1.118481731414794922e+01 3.234210586547851562e+01 3.990698152793112352e-14 -2.938604763171037693e-13 -7.618605318013629835e-14 4.397273967475176515e-14
1.035000000000000000e+03 5.518142318725585938e+01 3.805053329467773438e+01 -8.394226611550814621e-14 4.766319446330297138e-14 -1.088372200388132080e-14 -3.140016187602040487e-14
1.036000000000000000e+03 4.731588840484619141e+00 2.466216468811035156e+01 -3.102486190588275849e-14 1.010810020212436766e-13 2.101684237342145434e-14 -8.907137587178468041e-14
1.037000000000000000e+03 1.078828144073486328e+01 2.527270507812500000e+01 4.553649124439118623e-14 -1.406126869671689428e-13 -2.852285871683332696e-14 -3.803047490097931360e-14
1.038000000000000000e+03 4.671428680419921875e+00 8.043150901794433594e+00 1.210970478624298630e-13 -1.311050606186275891e-13 -3.002406113848275424e-15 -1.160930347080674219e-13
1.039000000000000000e+03 6.803539752960205078e+00 5.944060802459716797e+00 7.806255641895631925e-14 1.020818019416107336e-13 5.404330750817011586e-14 5.904731727440076794e-14
1.040000000000000000e+03 4.203477382659912109e+00 7.072394371032714844e+00 1.351082738526229732e-13 -4.503609128420765773e-14 2.702165375408505793e-14 -6.505213034913026604e-15
1.041000000000000000e+03 4.693863868713378906e+00 6.487616062164306641e+00 3.452766840343103605e-14 2.206768432268593760e-13 7.656135653840573374e-14 5.554451077685249039e-14
1.042000000000000000e+03 1.027406501770019531e+01 5.202252864837646484e+00 -6.405133042876320904e-14 6.405133042876320904e-14 0.000000000000000000e+00 -8.606896933441993136e-14
1.043000000000000000e+03 6.091838359832763672e+00 6.037161827087402344e+00 3.202566521438160452e-14 1.281026608575264181e-13 4.803849782157240678e-14 -6.505213034913026604e-14
1.044000000000000000e+03 4.881166458129882812e+00 2.964416885375976562e+01 -1.951563910473907981e-14 -1.456166865690042278e-13 -4.953969770212299228e-14 -4.403528797570881170e-14
1.045000000000000000e+03 8.869562149047851562e+00 5.139797687530517578e+00 -1.200962445539310169e-14 -1.881507780522942430e-13 -6.004811719476782494e-14 -4.503609128420765773e-14
1.046000000000000000e+03 1.173748302459716797e+01 5.120912551879882812e+00 6.004812227696550847e-15 -2.261812563414053456e-13 -6.605293026949732305e-14 2.301844560228735737e-14
1.047000000000000000e+03 7.518496513366699219e+00 5.875486850738525391e+00 -2.351884725653678038e-14 -1.015814019814272051e-13 -3.753007494079578510e-14 -2.802245536851800944e-14
1.048000000000000000e+03 1.017954444885253906e+01 5.936530590057373047e+00 1.050842118671072717e-14 4.503608959014176322e-15 4.503608959014176322e-15 -1.721379386688398627e-13
1.049000000000000000e+03 3.931081533432006836e+00 2.768649482727050781e+01 6.805453688649501509e-14 -1.080866150163402317e-13 -1.200962445539310169e-14 1.561251128379126385e-13
1.050000000000000000e+03 1.159335231781005859e+01 2.682121276855468750e+01 -7.405934996122451319e-14 -3.062454261536229350e-13 -1.140914348673333079e-13 7.906335633932337625e-14
1.051000000000000000e+03 1.087169551849365234e+01 2.604181671142578125e+01 -1.000802037949425141e-14 -3.702967294773318319e-13 -1.140914348673333079e-13 1.130906281707026728e-13
1.052000000000000000e+03 1.135194396972656250e+01 1.395166778564453125e+01 -7.205774334422682115e-14 -3.282630515067525012e-13 -1.200962343895356499e-13 2.351884725653678038e-14
1.053000000000000000e+03 4.480937957763671875e+00 1.179347229003906250e+01 2.752205540833448094e-14 5.754611739385018243e-14 2.552045048540268340e-14 3.002405859738391247e-14
1.054000000000000000e+03 4.700736522674560547e+00 2.305962181091308594e+01 -5.954771723458429644e-14 -2.552045048540268340e-14 -2.552045048540268340e-14 -7.205774334422682115e-14
1.055000000000000000e+03 1.042982006072998047e+01 1.170295238494873047e+01 5.504410996963601463e-15 -2.051644071917203133e-14 -4.503608959014176322e-15 6.054852393121493148e-14
1.056000000000000000e+03 1.121534633636474609e+01 1.029426956176757812e+01 -1.000802021008766196e-13 -1.801443651368306309e-13 -8.406736949368581735e-14 1.110890215537049808e-13
1.057000000000000000e+03 1.122313308715820312e+01 1.104326057434082031e+01 -6.505213034913026604e-15 -4.853889778175593528e-14 -1.651323256737433076e-14 -9.907939540424598457e-14
1.058000000000000000e+03 1.127885055541992188e+01 1.966018104553222656e+01 -5.354290754798658736e-14 -2.517017085208739235e-13 -9.157338244896590096e-14 -8.206576287668812530e-14
1.059000000000000000e+03 1.020013141632080078e+01 2.610780143737792969e+01 -1.015814019814272051e-13 -4.353488801552528320e-14 -4.353488801552528320e-14 -1.391114735340912012e-13
1.060000000000000000e+03 3.992483139038085938e+00 2.140941429138183594e+01 8.406736949368581735e-14 3.602887167211341057e-14 3.602887167211341057e-14 -9.307458910578006450e-14
1.061000000000000000e+03 1.059943199157714844e+01 1.824968719482421875e+01 -7.906335633932337625e-14 -1.711371387484728057e-13 -7.506014988159157020e-14 8.606896933441993136e-14
1.062000000000000000e+03 1.098856925964355469e+01 1.671313858032226562e+01 -7.305854326459387815e-14 -3.973184086424053074e-13 -1.411130869273524713e-13 -3.402726844324750755e-14
1.063000000000000000e+03 3.962502479553222656e+00 2.695342063903808594e+01 -1.401122768425900472e-14 -6.004812227696550847e-15 -6.004812227696550847e-15 -2.001604075898850282e-15
1.064000000000000000e+03 4.561597824096679688e+00 9.496700286865234375e+00 -6.455173038894673754e-14 -2.106688169181344938e-13 -8.256616283687165381e-14 -1.240994476235310340e-13
1.065000000000000000e+03 4.470575332641601562e+00 1.102625656127929688e+01 5.954771723458429644e-14 2.552045048540268340e-14 2.552045048540268340e-14 -8.506816941405287436e-14
1.066000000000000000e+03 3.819080829620361328e+00 1.096315670013427734e+01 2.502005094873562853e-15 9.257418236933295796e-14 2.852285871683332696e-14 6.104892389139845998e-14
1.067000000000000000e+03 6.820884704589843750e+00 1.779808425903320312e+01 -4.503608959014176322e-15 -7.055654346367623564e-14 -2.251804564210382886e-14 -2.101684237342145434e-14
1.068000000000000000e+03 3.980411291122436523e+00 2.061204528808593750e+01 -7.756215645877279075e-14 1.251002526260957745e-14 -1.951563910473907981e-14 -5.504411081666896188e-14
1.069000000000000000e+03 4.738601684570312500e+00 2.227808952331542969e+01 1.145918348275168364e-13 1.406126869671689428e-13 7.656135653840573374e-14 3.602887167211341057e-14
1.070000000000000000e+03 5.312793254852294922e+00 1.911538314819335938e+01 3.652927163229693908e-14 3.853087824929463112e-14 2.251804564210382886e-14 -4.603689120457471473e-14
1.071000000000000000e+03 3.923698663711547852e+00 1.818219184875488281e+01 -3.953167816966168813e-14 7.455974992140804170e-14 1.050842118671072717e-14 -2.401924891078620339e-14
1.072000000000000000e+03 5.342419147491455078e+00 1.991515922546386719e+01 -1.000802037949425141e-14 -2.101684169579509653e-13 -6.605293026949732305e-14 1.801443583605670529e-14
1.073000000000000000e+03 4.528421878814697266e+00 1.256829452514648438e+01 1.301042606982605321e-14 -6.305052373213257400e-14 -1.501202929869195624e-14 -4.203368474684290867e-14
1.074000000000000000e+03 3.825107336044311523e+00 1.174997329711914062e+01 -3.402726844324750755e-14 -1.060850151756061177e-13 -4.203368474684290867e-14 -1.010810020212436766e-13
1.075000000000000000e+03 4.607648372650146484e+00 1.744449806213378906e+01 -7.405934996122451319e-14 1.401122768425900472e-14 -1.801443583605670529e-14 -8.706977603105056640e-14
1.076000000000000000e+03 3.883188009262084961e+00 1.496689033508300781e+01 9.007217918028352643e-15 -1.791435652164635739e-13 -5.104090097080536681e-14 -9.007217918028352643e-15
1.077000000000000000e+03 4.504871845245361328e+00 1.025762748718261719e+01 5.354290754798658736e-14 2.517017085208739235e-13 9.157338244896590096e-14 -6.004812227696550847e-15
1.078000000000000000e+03 4.665573120117187500e+00 2.706652069091796875e+01 -8.606896933441993136e-14 -1.741395520621011328e-13 -7.806255641895631925e-14 1.401122768425900472e-14
1.079000000000000000e+03 4.694375991821289062e+00 2.385643577575683594e+01 2.251804564210382886e-14 3.252606517456513302e-14 1.651323256737433076e-14 -3.702967498061225660e-14
1.080000000000000000e+03 5.392768859863281250e+00 2.315733337402343750e+01 4.553649124439118623e-14 1.951563910473907981e-14 1.951563910473907981e-14 2.401924891078620339e-14
1.081000000000000000e+03 4.575749874114990234e+00 1.585012245178222656e+01 4.903929774193946378e-14 2.101684237342145434e-14 2.101684237342145434e-14 -4.103288143834406265e-14
1.082000000000000000e+03 4.575432777404785156e+00 1.337512397766113281e+01 -1.501202929869195624e-14 -2.351884691772360148e-13 -7.506014988159157020e-14 2.201764398785440585e-14
1.083000000000000000e+03 4.565127849578857422e+00 1.503936862945556641e+01 -1.401122870069854143e-13 -6.004811719476782494e-14 -6.004811719476782494e-14 -8.106496295632106830e-14
1.084000000000000000e+03 4.767056465148925781e+00 2.630679893493652344e+01 -5.854691731421723944e-14 4.353488801552528320e-14 -4.503608959014176322e-15 -9.307458910578006450e-14
1.085000000000000000e+03 4.618504524230957031e+00 8.753426551818847656e+00 -6.705373696612795809e-14 1.701363422162375377e-14 -1.501202929869195624e-14 -1.100882199392720293e-14
1.086000000000000000e+03 4.775554656982421875e+00 7.419026374816894531e+00 -2.502005094873562853e-15 2.276824562219559311e-13 6.755413692631148659e-14 1.501202997631831404e-13
1.087000000000000000e+03 1.078318214416503906e+01 3.391726684570312500e+01 3.402726844324750755e-14 -5.404330750817011586e-14 -6.004812227696550847e-15 4.653729455289003225e-14
1.088000000000000000e+03 5.886939525604248047e+00 3.554542160034179688e+01 -7.806255641895631925e-14 -1.020818019416107336e-13 -5.404330750817011586e-14 -1.901523745048965680e-14
1.089000000000000000e+03 4.989127635955810547e+00 3.035826301574707031e+01 1.025822086780578402e-13 -2.076664171570333228e-13 -3.152526186606628700e-14 9.007218256841531545e-14
1.090000000000000000e+03 5.606048583984375000e+00 3.207883071899414062e+01 -6.505213034913026604e-15 -4.853889778175593528e-14 -1.651323256737433076e-14 -6.505213034913026604e-14
1.091000000000000000e+03 1.099567127227783203e+01 6.603098869323730469e+00 -7.005613842129502361e-15 -3.002406113848275424e-15 -3.002406113848275424e-15 -1.431146867680865853e-13
1.092000000000000000e+03 1.120519924163818359e+01 1.494763374328613281e+01 -6.505213034913026604e-14 -4.853889642650321967e-13 -1.651323256737433076e-13 5.529431079676072613e-14
1.093000000000000000e+03 9.277222633361816406e+00 6.875036716461181641e+00 2.451964887096973189e-14 1.050842118671072717e-14 1.050842118671072717e-14 -1.120898214740720378e-13
1.094000000000000000e+03 1.171998310089111328e+01 2.816967201232910156e+01 -1.100882216333379238e-13 -2.301844695754007297e-13 -1.020818019416107336e-13 -8.206576287668812530e-14
1.095000000000000000e+03 1.069920063018798828e+01 2.447616767883300781e+01 -4.503608959014176322e-15 -2.306848559830571022e-13 -7.055654346367623564e-14 5.004010105043830980e-14
1.096000000000000000e+03 1.138236808776855469e+01 2.949925613403320312e+01 -7.956375629950690476e-14 -1.256006475040816195e-13 -6.154932385158198849e-14 -6.004812227696550847e-15
1.097000000000000000e+03 1.185547351837158203e+01 7.931371212005615234e+00 -6.204972381176551699e-14 -1.180946345488015359e-13 -5.404330750817011586e-14 6.505213034913026604e-14
1.098000000000000000e+03 1.154905414581298828e+01 1.568331146240234375e+01 7.130714340395152839e-14 -2.439454888092384977e-13 -5.179150429921244858e-14 -1.401122870069854143e-13
1.099000000000000000e+03 1.024928665161132812e+01 3.043786239624023438e+01 -6.905533680686207210e-14 -2.011612041221202962e-13 -8.106496295632106830e-14 3.302646513474866152e-14
1.100000000000000000e+03 1.117259788513183594e+01 1.743911933898925781e+01 -1.801443583605670529e-14 3.803047490097931360e-14 6.004812227696550847e-15 -2.001604075898850282e-15
1.101000000000000000e+03 1.129918575286865234e+01 2.201288986206054688e+01 -2.852285871683332696e-14 -2.867297870488838551e-13 -9.457578898633065001e-14 -1.120898214740720378e-13
1.102000000000000000e+03 1.107310009002685547e+01 8.058972358703613281e+00 -1.251002526260957745e-14 -1.426142868079030568e-13 -4.653729455289003225e-14 -1.941555911270237411e-13
1.103000000000000000e+03 6.922902107238769531e+00 6.590498924255371094e+00 2.151724233360498284e-14 -3.652927163229693908e-14 -4.503608959014176322e-15 -2.502005052521915490e-14
1.104000000000000000e+03 1.200389385223388672e+01 2.119899177551269531e+01 3.052446194569922999e-14 -2.156728300724969349e-13 -5.554451077685249039e-14 -8.506816941405287436e-14
1.105000000000000000e+03 5.187626838684082031e+00 3.403233718872070312e+01 -4.553649124439118623e-14 -9.957980214069309111e-14 -4.353488801552528320e-14 -7.205774334422682115e-14
1.106000000000000000e+03 6.838278961181640625e+01 3.940343856811523438e+01 6.255012631304788726e-15 -8.757017937936588392e-15 -7.506015284620688559e-16 3.502806921064751181e-15
1.107000000000000000e+03 1.126787662506103516e+01 1.890286636352539062e+01 -3.702967498061225660e-14 -1.531227130768114675e-13 -5.704571743366665393e-14 -1.080866150163402317e-13
1.108000000000000000e+03 8.154655456542968750e+00 3.165703773498535156e+01 -5.354290754798658736e-14 -2.517017085208739235e-13 -9.157338244896590096e-14 1.701363422162375377e-14
1.109000000000000000e+03 1.179658508300781250e+01 3.620635986328125000e+01 5.554451077685249039e-14 -1.050842118671072717e-14 1.351082687704252897e-14 -4.903929774193946378e-14
1.110000000000000000e+03 9.685340881347656250e+00 3.435348892211914062e+01 -2.977385861729214822e-14 -1.728885453853787335e-13 -6.079872391130669573e-14 -6.405133042876320904e-14
1.111000000000000000e+03 1.075998306274414062e+01 2.843326187133789062e+01 -3.640417164225105695e-14 3.014916197556158362e-14 -1.876503662336494530e-15 -3.002405859738391247e-14
1.112000000000000000e+03 7.190805816650390625e+01 4.137017822265625000e+01 5.004010105043830980e-14 1.000802037949425141e-14 1.801443583605670529e-14 2.527025050531091915e-14
1.113000000000000000e+03 7.440973281860351562e+00 4.171640014648437500e+01 -2.139214234355910071e-14 -5.491901082662307976e-14 -2.289334561224147524e-14 5.504410996963601463e-15
1.114000000000000000e+03 5.504659175872802734e+00 3.994402694702148438e+01 -5.129110433902892008e-14 -1.363592669768182164e-13 -5.629511410525957216e-14 -1.476182931860019198e-14
1.115000000000000000e+03 1.010678768157958984e+01 3.555670547485351562e+01 5.004010105043830980e-14 1.000802037949425141e-14 1.801443583605670529e-14 4.028228149806876990e-14
1.116000000000000000e+03 1.356446170806884766e+01 3.723479461669921875e+01 -5.354290754798658736e-14 -5.154130431912068433e-14 -3.152526186606628700e-14 2.777225538842624519e-14
1.117000000000000000e+03 6.786096191406250000e+01 4.142245864868164062e+01 -2.126704277702969222e-15 1.134659247527085302e-13 3.340176849301809692e-14 -3.753007324672989059e-15
1.118000000000000000e+03 5.390580654144287109e+00 6.195250034332275391e+00 -3.803047490097931360e-14 -6.204972381176551699e-14 -3.002405859738391247e-14 5.904731727440076794e-14
1.119000000000000000e+03 1.124549484252929688e+01 1.816519546508789062e+01 1.801443583605670529e-14 -3.582871304329271478e-13 -1.020818019416107336e-13 -1.080866150163402317e-13
1.120000000000000000e+03 9.414925575256347656e+00 1.669445037841796875e+01 2.502005052521915490e-14 -3.502807175174635357e-14 -3.002406113848275424e-15 -4.803849782157240678e-14
1.121000000000000000e+03 5.605300903320312500e+00 2.961729621887207031e+01 6.705373696612795809e-14 -1.701363422162375377e-14 1.501202929869195624e-14 7.005613842129502361e-15
1.122000000000000000e+03 4.559272766113281250e+00 2.839936637878417969e+01 8.106496295632106830e-14 -1.100882199392720293e-14 2.101684237342145434e-14 1.321058605389946461e-13
1.123000000000000000e+03 5.277019023895263672e+00 7.509943008422851562e+00 5.604491073703601889e-14 2.401924891078620339e-14 2.401924891078620339e-14 -1.961571909677578551e-13
1.124000000000000000e+03 5.625939846038818359e+00 6.806085586547851562e+00 -3.402726844324750755e-14 -1.060850151756061177e-13 -4.203368474684290867e-14 -1.200962445539310169e-14
1.125000000000000000e+03 8.222926139831542969e+00 5.807371616363525391e+00 -5.904731727440076794e-14 -7.105694342385976414e-14 -3.903127820947815962e-14 -1.501202929869195624e-14
1.126000000000000000e+03 6.249257564544677734e+00 6.673980236053466797e+00 -8.706977603105056640e-14 -2.431948956452267829e-13 -9.907939540424598457e-14 6.004811719476782494e-14
1.127000000000000000e+03 9.052796363830566406e+00 6.261447429656982422e+00 -6.305052373213257400e-14 -2.702165375408505793e-14 -2.702165375408505793e-14 3.202566521438160452e-14
1.128000000000000000e+03 5.173962593078613281e+00 1.035421180725097656e+01 1.651323256737433076e-14 -2.216776431472264330e-13 -6.154932385158198849e-14 -1.371098736933570872e-13
1.129000000000000000e+03 1.012548065185546875e+01 2.782030105590820312e+01 -1.256006475040816195e-13 -4.198364475082455582e-13 -1.636311257931927221e-13 3.502807175174635357e-14
1.130000000000000000e+03 5.275443553924560547e+00 2.792929649353027344e+01 -1.020818019416107336e-13 2.001604075898850282e-15 -3.002405859738391247e-14 6.405133042876320904e-14
1.131000000000000000e+03 4.606032848358154297e+00 2.776714324951171875e+01 -2.902325867701685547e-14 7.906335633932337625e-14 1.501202929869195624e-14 -2.001604075898850282e-14
1.132000000000000000e+03 1.008501815795898438e+01 2.534286880493164062e+01 -1.501203056924137712e-15 -1.836471648581153304e-13 -5.554451077685249039e-14 9.307458910578006450e-14
1.133000000000000000e+03 9.477174758911132812e+00 5.817052364349365234e+00 -4.003208151797700565e-14 1.200962343895356499e-13 2.401924891078620339e-14 7.405934996122451319e-14
1.134000000000000000e+03 9.310955047607421875e+00 3.126233100891113281e+01 -1.000802021008766196e-13 -2.602085213965210642e-13 -1.080866150163402317e-13 2.877305869692509122e-14
1.135000000000000000e+03 1.092348289489746094e+01 2.677862358093261719e+01 -1.251002475438980910e-13 -1.451162866088206993e-13 -8.106496295632106830e-14 -1.190954344691685929e-13
1.136000000000000000e+03 6.648978233337402344e+00 2.458419036865234375e+01 -1.376102736535406157e-13 -2.877305869692509122e-13 -1.276022608973428896e-13 1.461170865291877563e-13
1.137000000000000000e+03 5.523838520050048828e+00 2.239684486389160156e+01 -1.551243095294137925e-14 1.306046606584440606e-13 3.452766840343103605e-14 -7.906335633932337625e-14
1.138000000000000000e+03 5.969776630401611328e+00 1.919534301757812500e+01 9.007218256841531545e-14 1.301042606982605321e-13 6.605293026949732305e-14 -7.005614350349270714e-14
1.139000000000000000e+03 9.973991394042968750e+00 1.128008460998535156e+01 -1.118396214939802735e-13 -2.309350627394124444e-13 -1.028324086581496044e-13 -1.261010474642651480e-13
1.140000000000000000e+03 8.846674919128417969e+00 2.637547302246093750e+01 4.853889778175593528e-14 6.655333022968085155e-14 3.452766840343103605e-14 -2.602085213965210642e-14
1.141000000000000000e+03 4.748915195465087891e+00 2.149318504333496094e+01 -2.351884725653678038e-14 5.854691731421723944e-14 1.050842118671072717e-14 -1.170938346284344789e-13
1.142000000000000000e+03 9.901000976562500000e+00 1.893260765075683594e+01 -4.553649124439118623e-14 -1.951563910473907981e-14 -1.951563910473907981e-14 2.401924891078620339e-14
1.143000000000000000e+03 5.124962329864501953e+00 2.858844947814941406e+01 -1.553745061213737677e-13 -1.123400282304273801e-13 -8.031436301604577555e-14 -1.261010474642651480e-13
1.144000000000000000e+03 9.801307678222656250e+00 1.058373928070068359e+01 -8.306656957331876034e-14 -1.271018609371593611e-13 -6.305052373213257400e-14 -1.100882199392720293e-14
1.145000000000000000e+03 5.840975761413574219e+00 1.049527835845947266e+01 3.502806921064751181e-15 1.501203056924137712e-15 1.501203056924137712e-15 2.201764398785440585e-14
1.146000000000000000e+03 9.968712806701660156e+00 1.827478790283203125e+01 -3.552847171192988207e-14 -2.897321868099850262e-13 -9.757819552369539906e-14 -9.107298248878237246e-14
1.147000000000000000e+03 4.797685146331787109e+00 2.548937797546386719e+01 -1.150922280114367868e-14 8.656937607086703790e-14 2.251804564210382886e-14 8.606896933441993136e-14
1.148000000000000000e+03 5.549930572509765625e+00 2.157731437683105469e+01 3.202566521438160452e-14 -3.202566521438160452e-14 0.000000000000000000e+00 -5.004010189747125706e-15
1.149000000000000000e+03 4.636785507202148438e+00 1.905205345153808594e+01 6.004812227696550847e-15 9.407538902614712151e-14 3.002405859738391247e-14 -4.103288143834406265e-14
1.150000000000000000e+03 5.312974929809570312e+00 1.672065162658691406e+01 -1.951563910473907981e-14 1.451162933850842773e-14 -1.501203056924137712e-15 -2.001604075898850282e-15
1.151000000000000000e+03 5.969859600067138672e+00 1.994562911987304688e+01 -6.104892389139845998e-14 -2.091676170375839083e-13 -8.106496295632106830e-14 -6.505213034913026604e-14
1.152000000000000000e+03 4.710851669311523438e+00 2.068452262878417969e+01 1.000802037949425141e-15 -9.107298248878237246e-14 -2.702165375408505793e-14 -4.603689120457471473e-14
1.153000000000000000e+03 4.619718551635742188e+00 1.824623870849609375e+01 -6.405133042876320904e-14 -9.607699564314481355e-14 -4.803849782157240678e-14 -1.701363422162375377e-14
1.154000000000000000e+03 5.116530418395996094e+00 1.180725669860839844e+01 -1.261010474642651480e-13 -5.404330750817011586e-14 -5.404330750817011586e-14 -1.811451650571976879e-13
1.155000000000000000e+03 6.013062477111816406e+00 9.755265235900878906e+00 4.953969770212299228e-14 -3.447762908503904100e-13 -8.857097591160115191e-14 -7.706175649858926224e-14
1.156000000000000000e+03 4.579133987426757812e+00 1.420796871185302734e+01 1.501203056924137712e-15 1.836471648581153304e-13 5.554451077685249039e-14 -4.303448466720996568e-14
1.157000000000000000e+03 5.271502971649169922e+00 1.591791057586669922e+01 -2.702165375408505793e-14 -1.030826086382413687e-13 -3.903127820947815962e-14 -1.311050606186275891e-13
1.158000000000000000e+03 5.224940299987792969e+00 1.511539077758789062e+01 -4.503608959014176322e-15 8.957178260823178695e-14 2.552045048540268340e-14 3.402726844324750755e-14
1.159000000000000000e+03 5.208745002746582031e+00 1.255697917938232422e+01 3.652927163229693908e-14 3.853087824929463112e-14 2.251804564210382886e-14 -5.204170427930421283e-14
1.160000000000000000e+03 5.286966800689697266e+00 1.428152275085449219e+01 2.552045048540268340e-14 -8.056456299613753980e-14 -1.651323256737433076e-14 4.803849782157240678e-14
1.161000000000000000e+03 9.390421867370605469e+00 2.813204765319824219e+01 4.553649124439118623e-14 1.951563910473907981e-14 1.951563910473907981e-14 1.751403587587317678e-14
1.162000000000000000e+03 5.367080211639404297e+00 2.391320800781250000e+01 4.053248147816053415e-14 1.546239129573620530e-13 5.854691731421723944e-14 -1.431146867680865853e-13
1.163000000000000000e+03 5.364501953125000000e+00 8.857552528381347656e+00 7.956375629950690476e-14 -1.946559910872072696e-13 -3.452766840343103605e-14 -7.005614350349270714e-14
1.164000000000000000e+03 7.723041534423828125e+00 7.170879364013671875e+00 5.654531408535133641e-14 -2.151724233360498284e-14 1.050842118671072717e-14 -9.607699564314481355e-14
1.165000000000000000e+03 7.354078769683837891e+00 3.464360046386718750e+01 -1.010810020212436766e-13 -8.907137587178468041e-14 -5.704571743366665393e-14 -4.903929774193946378e-14
1.166000000000000000e+03 6.233249664306640625e+00 2.992962074279785156e+01 6.255012737183907132e-16 -1.369847703151794160e-13 -4.090778144829818053e-14 -5.004010105043830980e-14
1.167000000000000000e+03 5.752907752990722656e+00 3.114519119262695312e+01 -2.001604075898850282e-14 -1.000802021008766196e-13 -3.602887167211341057e-14 5.404330750817011586e-14
1.168000000000000000e+03 5.688930988311767578e+00 3.032618331909179688e+01 -6.004811719476782494e-14 -1.401122870069854143e-13 -6.004811719476782494e-14 -3.302646513474866152e-14
1.169000000000000000e+03 1.060978317260742188e+01 2.365451622009277344e+01 5.754611739385018243e-14 -1.125902282105191443e-13 -1.651323256737433076e-14 -1.150922347877003649e-13
1.170000000000000000e+03 1.060152435302734375e+01 2.121058654785156250e+01 4.003208151797700565e-14 -1.200962343895356499e-13 -2.401924891078620339e-14 -3.102486190588275849e-14
1.171000000000000000e+03 1.046744441986083984e+01 2.989676856994628906e+01 -3.652927163229693908e-14 -1.986592043212026537e-13 -7.055654346367623564e-14 -1.000802037949425141e-14
1.172000000000000000e+03 1.117106342315673828e+01 9.546266555786132812e+00 -4.303448466720996568e-14 -8.706977603105056640e-14 -3.903127820947815962e-14 -2.702165375408505793e-14
1.173000000000000000e+03 1.130074882507324219e+01 2.121847534179687500e+01 -1.015814019814272051e-13 -4.353488801552528320e-14 -4.353488801552528320e-14 -1.120898214740720378e-13
1.174000000000000000e+03 6.207132339477539062e+00 3.439472961425781250e+01 -5.729591741375841818e-14 -7.030634348358447139e-14 -3.828067826920286687e-14 7.205774334422682115e-14
1.175000000000000000e+03 1.029444694519042969e+01 3.289093399047851562e+01 -1.411130869273524713e-13 -2.091676170375839083e-13 -1.050842084789754827e-13 -5.379310752807835161e-14
1.176000000000000000e+03 1.060093307495117188e+01 2.044510459899902344e+01 -3.002405859738391247e-14 1.000802037949425141e-14 -6.004812227696550847e-15 -1.431146867680865853e-13
1.177000000000000000e+03 1.052190971374511719e+01 2.916068649291992188e+01 -8.932157585187644466e-14 -3.585373100842281779e-13 -1.343576671360841024e-13 9.007217918028352643e-15
1.178000000000000000e+03 9.853982925415039062e+00 2.370332527160644531e+01 -4.253408470702643718e-14 -2.927345865710861972e-13 -1.005806020610601481e-13 5.404330750817011586e-14
1.179000000000000000e+03 1.126747512817382812e+01 3.504880523681640625e+01 -1.150922280114367868e-14 -1.536231130369949960e-13 -4.953969770212299228e-14 -7.656135653840573374e-14
1.180000000000000000e+03 1.043871498107910156e+01 3.155008125305175781e+01 -6.655333022968085155e-14 -2.852285871683332696e-14 -2.852285871683332696e-14 -1.038332119666484504e-14
1.181000000000000000e+03 1.014235973358154297e+01 6.701514244079589844e+00 -9.657739560332834206e-14 -1.786431517037528893e-13 -8.256616283687165381e-14 -1.000802037949425141e-15
1.182000000000000000e+03 1.020468330383300781e+01 7.456370353698730469e+00 2.201764398785440585e-14 -8.206576287668812530e-14 -1.801443583605670529e-14 -4.803849782157240678e-14
1.183000000000000000e+03 1.004399681091308594e+01 1.615977668762207031e+01 -9.907939540424598457e-14 -2.712173476256130034e-13 -1.110890215537049808e-13 -4.003208151797700565e-14
1.184000000000000000e+03 1.038316154479980469e+01 1.365561294555664062e+01 2.689655376403917580e-14 -4.459823894735481797e-13 -1.257257508822592906e-13 2.702165375408505793e-14
1.185000000000000000e+03 9.823688507080078125e+00 3.087093734741210938e+01 2.101684237342145434e-14 -1.110890215537049808e-13 -2.702165375408505793e-14 -2.364394724658266250e-14
1.186000000000000000e+03 9.797744750976562500e+00 2.986294937133789062e+01 3.502807175174635357e-14 -3.052445991282015658e-13 -8.106496295632106830e-14 8.106496295632106830e-14
1.187000000000000000e+03 1.307393360137939453e+01 4.160437393188476562e+01 -9.082278250869060821e-14 -6.179952383167375274e-14 -4.578669122448295048e-14 -4.003208151797700565e-14
1.188000000000000000e+03 6.087947368621826172e+00 3.850439453125000000e+01 -1.751403460532375590e-15 -7.506015284620688559e-16 -7.506015284620688559e-16 1.551243095294137925e-14
1.189000000000000000e+03 8.792501449584960938e+00 3.603867721557617188e+01 -1.826463581614846954e-14 -9.932960216060132685e-14 -3.527827173183811782e-14 -4.653729455289003225e-14
1.190000000000000000e+03 6.479153442382812500e+01 4.030473709106445312e+01 3.402726844324750755e-14 1.160930347080674219e-13 4.503609128420765773e-14 1.526223097284961500e-14
1.191000000000000000e+03 1.133161640167236328e+01 3.898809432983398438e+01 -7.030634348358447139e-14 -7.255814669254213867e-15 -2.326864727644501613e-14 -6.555253030931379454e-14
1.192000000000000000e+03 6.325509262084960938e+01 3.839389801025390625e+01 -7.005613842129502361e-15 3.702967498061225660e-14 9.007217918028352643e-15 -6.305052373213257400e-14
1.193000000000000000e+03 1.058848667144775391e+01 1.894743537902832031e+01 5.404330750817011586e-14 -1.140914348673333079e-13 -1.801443583605670529e-14 -5.604491073703601889e-14
1.194000000000000000e+03 1.076422977447509766e+01 1.430300712585449219e+01 -7.731195647868102649e-14 -1.703865455844610910e-13 -7.430954994131627744e-14 -8.807057595141762341e-14
1.195000000000000000e+03 6.587393283843994141e+00 2.916001510620117188e+01 5.054050101062183831e-14 -3.552847171192988207e-14 4.503608959014176322e-15 -6.905533680686207210e-14
1.196000000000000000e+03 7.912446498870849609e+00 2.989791679382324219e+01 2.752205540833448094e-14 5.754611739385018243e-14 2.552045048540268340e-14 9.107298248878237246e-14
1.197000000000000000e+03 7.555705547332763672e+00 2.745964241027832031e+01 -6.004812227696550847e-15 -4.143320343936995886e-13 -1.261010474642651480e-13 8.306656957331876034e-14
1.198000000000000000e+03 1.034259128570556641e+01 2.681252670288085938e+01 -3.402726844324750755e-14 -4.263416605431585849e-13 -1.381106736137241442e-13 3.402726844324750755e-14
1.199000000000000000e+03 6.049766063690185547e+00 2.739989089965820312e+01 4.653729455289003225e-14 -7.155734338404329264e-14 -7.506014649345978118e-15 7.305854326459387815e-14
1.200000000000000000e+03 5.793210029602050781e+00 2.888313484191894531e+01 -2.752205540833448094e-14 -5.754611739385018243e-14 -2.552045048540268340e-14 7.205774334422682115e-14
1.201000000000000000e+03 6.011998653411865234e+00 2.329999732971191406e+01 -1.801443651368306309e-13 6.004811719476782494e-14 -3.602887167211341057e-14 -9.807859548387892756e-14
1.202000000000000000e+03 9.384757041931152344e+00 2.544008445739746094e+01 -1.501202929869195624e-14 8.506816941405287436e-14 2.101684237342145434e-14 5.404330750817011586e-14
1.203000000000000000e+03 9.975034713745117188e+00 2.454365921020507812e+01 6.054852393121493148e-14 -6.555253030931379454e-14 -1.501203056924137712e-15 -4.103288143834406265e-14
1.204000000000000000e+03 5.351912975311279297e+00 8.131319046020507812e+00 -9.407538902614712151e-14 -8.606896933441993136e-14 -5.404330750817011586e-14 1.000802021008766196e-13
1.205000000000000000e+03 6.454928398132324219e+00 7.862313747406005859e+00 -3.002405859738391247e-14 -1.501202997631831404e-13 -5.404330750817011586e-14 -4.203368474684290867e-14
1.206000000000000000e+03 7.023661613464355469e+00 7.227797508239746094e+00 -3.803047490097931360e-14 -6.204972381176551699e-14 -3.002405859738391247e-14 4.603689120457471473e-14
1.207000000000000000e+03 8.339934349060058594e+00 6.431792736053466797e+00 6.955573676704560060e-14 -8.456776945386934585e-14 -4.503608959014176322e-15 -1.631307258330091936e-13
1.208000000000000000e+03 1.018971633911132812e+01 1.242986202239990234e+01 -3.352686848306397904e-14 8.506817110811876886e-15 -7.506014649345978118e-15 1.030826086382413687e-13
1.209000000000000000e+03 1.076174545288085938e+01 1.598407649993896484e+01 -6.905533680686207210e-14 -4.413536864537187521e-13 -1.531227130768114675e-13 7.205774334422682115e-14
1.210000000000000000e+03 8.734181404113769531e+00 9.324879646301269531e+00 -4.053248147816053415e-14 5.504410996963601463e-15 -1.050842118671072717e-14 -2.191756433463087905e-13
1.211000000000000000e+03 5.449878215789794922e+00 2.655280685424804688e+01 -1.125902282105191443e-14 -9.632719562323657780e-14 -3.227586519447336877e-14 2.602085213965210642e-14
1.212000000000000000e+03 7.782762050628662109e+00 7.849840641021728516e+00 -4.203368474684290867e-14 -1.801443583605670529e-14 -1.801443583605670529e-14 -4.003208151797700565e-14
1.213000000000000000e+03 9.891018867492675781e+00 1.315563011169433594e+01 2.176744400776264160e-14 -2.194258365501369767e-13 -5.929751725449253219e-14 1.080866150163402317e-13
1.214000000000000000e+03 6.598748683929443359e+00 2.397624397277832031e+01 -6.004812227696550847e-15 2.261812563414053456e-13 6.605293026949732305e-14 -1.301042606982605321e-13
1.215000000000000000e+03 6.071423053741455078e+00 2.464136695861816406e+01 -8.006416303595401129e-15 -7.205774334422682115e-14 -2.401924891078620339e-14 -3.702967498061225660e-14
1.216000000000000000e+03 9.792520523071289062e+00 3.201824569702148438e+01 -8.456776945386934585e-14 -7.055654346367623564e-14 -4.653729455289003225e-14 4.203368474684290867e-14
1.217000000000000000e+03 6.238280296325683594e+00 2.272628593444824219e+01 1.203855401867362507e-13 1.888466461116497519e-13 9.276965724476851638e-14 2.577065215956034216e-14
1.218000000000000000e+03 6.049599170684814453e+00 2.672349929809570312e+01 -2.201764398785440585e-14 8.206576287668812530e-14 1.801443583605670529e-14 -3.302646513474866152e-14
1.219000000000000000e+03 5.985326766967773438e+00 2.813291358947753906e+01 -7.706175649858926224e-14 -3.302646513474866152e-14 -3.302646513474866152e-14 -1.681347389873716347e-13
1.220000000000000000e+03 5.556593894958496094e+00 2.544969177246093750e+01 -6.955573676704560060e-14 8.456776945386934585e-14 4.503608959014176322e-15 -1.100882216333379238e-13
1.221000000000000000e+03 9.104246139526367188e+00 1.081384754180908203e+01 -7.405934996122451319e-14 1.401122768425900472e-14 -1.801443583605670529e-14 -9.807859548387892756e-14
1.222000000000000000e+03 9.308470726013183594e+00 1.155283260345458984e+01 -1.751403587587317678e-14 -7.506014649345978118e-15 -7.506014649345978118e-15 -1.000802037949425141e-15
1.223000000000000000e+03 5.423861980438232422e+00 2.072816276550292969e+01 -9.507618725244828400e-15 6.455173038894673754e-14 1.651323256737433076e-14 -5.504411081666896188e-14
1.224000000000000000e+03 6.307231426239013672e+00 2.149118041992187500e+01 3.352686848306397904e-14 1.516214996437337259e-13 5.554451077685249039e-14 4.203368474684290867e-14
1.225000000000000000e+03 1.111985969543457031e+01 8.800623893737792969e+00 -9.007218256841531545e-14 -2.902325732176413986e-13 -1.140914348673333079e-13 5.504411081666896188e-14
1.226000000000000000e+03 1.050211715698242188e+01 1.040370368957519531e+01 -4.553649124439118623e-14 -1.951563910473907981e-14 -1.951563910473907981e-14 -9.507618894651417851e-14
1.227000000000000000e+03 6.131429195404052734e+00 8.997726440429687500e+00 -5.904731727440076794e-14 -7.105694342385976414e-14 -3.903127820947815962e-14 8.006416303595401129e-15
1.228000000000000000e+03 5.723936557769775391e+00 1.174297237396240234e+01 3.903127820947815962e-14 -2.902325867701685547e-14 3.002406113848275424e-15 1.401122768425900472e-14
1.229000000000000000e+03 1.057771968841552734e+01 1.968840599060058594e+01 5.704571743366665393e-14 -6.705373696612795809e-14 -3.002406113848275424e-15 -2.602085213965210642e-14
1.230000000000000000e+03 5.318290233612060547e+00 1.752357101440429688e+01 -5.704571743366665393e-14 -2.532028948488973530e-13 -9.307458910578006450e-14 -9.807859548387892756e-14
1.231000000000000000e+03 6.863058090209960938e+00 1.697654533386230469e+01 -3.978187814975345238e-14 -6.280032375204080974e-14 -3.077466192579099424e-14 -1.100882199392720293e-14
1.232000000000000000e+03 8.974843978881835938e+00 1.540215587615966797e+01 -8.819567932959529455e-14 -2.208019466050370472e-13 -9.269928574751062911e-14 -1.461170865291877563e-13
1.233000000000000000e+03 6.072099685668945312e+00 2.069622802734375000e+01 -4.403528797570881170e-14 -1.561251128379126385e-13 -6.004811719476782494e-14 5.504411081666896188e-14
1.234000000000000000e+03 5.424258232116699219e+00 2.467467117309570312e+01 -9.807859548387892756e-14 -4.203368474684290867e-14 -4.203368474684290867e-14 1.401122768425900472e-14
1.235000000000000000e+03 6.758304119110107422e+00 2.225853919982910156e+01 -1.705116354101116061e-13 -9.094787911060470131e-14 -7.843785977722575464e-14 5.832798979053810395e-14
1.236000000000000000e+03 5.312405586242675781e+00 1.832078361511230469e+01 5.504411081666896188e-14 1.150922347877003649e-13 5.104090097080536681e-14 -9.207378240914942946e-14
1.237000000000000000e+03 6.049413681030273438e+00 1.763169479370117188e+01 6.605293026949732305e-14 7.405934996122451319e-14 4.203368474684290867e-14 3.302646513474866152e-14
1.238000000000000000e+03 7.493439674377441406e+00 1.044393253326416016e+01 -5.004010105043830980e-14 -2.502004950877961820e-13 -9.007218256841531545e-14 5.004010189747125706e-15
1.239000000000000000e+03 6.078291893005371094e+00 1.679090499877929688e+01 -1.020818019416107336e-13 -3.182550251980276190e-13 -1.261010474642651480e-13 -1.080866150163402317e-13
1.240000000000000000e+03 5.310384273529052734e+00 1.340049362182617188e+01 -1.020818019416107336e-13 -1.581267126786467525e-13 -7.806255641895631925e-14 -4.203368474684290867e-14
1.241000000000000000e+03 6.309839725494384766e+00 1.502249813079833984e+01 -8.006416303595401129e-15 -2.321860694161348437e-13 -7.205774334422682115e-14 1.421138868477195283e-13
1.242000000000000000e+03 5.909162044525146484e+00 1.451795005798339844e+01 3.978187814975345238e-14 6.280032375204080974e-14 3.077466192579099424e-14 -3.803047490097931360e-14
1.243000000000000000e+03 5.904216766357421875e+00 1.243924331665039062e+01 -2.552045048540268340e-14 8.056456299613753980e-14 1.651323256737433076e-14 -3.903127820947815962e-14
1.244000000000000000e+03 6.052208423614501953e+00 1.327581501007080078e+01 1.801443583605670529e-14 -3.803047490097931360e-14 -6.004812227696550847e-15 -2.602085213965210642e-14
1.245000000000000000e+03 5.797359943389892578e+00 7.396433830261230469e+00 -3.502806921064751181e-15 -1.501203056924137712e-15 -1.501203056924137712e-15 8.006416303595401129e-14
1.246000000000000000e+03 5.939795494079589844e+00 7.996241569519042969e+00 -4.053248147816053415e-14 1.656327256339268361e-13 3.753007494079578510e-14 -1.381106736137241442e-13
1.247000000000000000e+03 6.496914863586425781e+00 3.228008270263671875e+01 -4.903929774193946378e-14 -2.101684237342145434e-14 -2.101684237342145434e-14 1.050842084789754827e-13
1.248000000000000000e+03 9.405281066894531250e+00 1.719456291198730469e+01 -5.504411081666896188e-14 -1.150922347877003649e-13 -5.104090097080536681e-14 -7.405934996122451319e-14
1.249000000000000000e+03 8.363180160522460938e+00 3.347381210327148438e+01 -6.955573676704560060e-14 -7.556054984177509870e-14 -4.353488801552528320e-14 -2.502005094873562853e-15
1.250000000000000000e+03 6.381286621093750000e+00 3.329851913452148438e+01 -4.403528797570881170e-14 4.003208151797700565e-15 -1.200962445539310169e-14 -4.303448466720996568e-14
1.251000000000000000e+03 1.054529857635498047e+01 2.281640625000000000e+01 -6.355093046857968053e-14 -4.618701254788248889e-13 -1.576263127184632240e-13 1.501202929869195624e-14
1.252000000000000000e+03 9.938593864440917969e+00 2.114773178100585938e+01 2.802245536851800944e-14 -1.481186999224490264e-13 -3.602887167211341057e-14 -2.001604075898850282e-15
1.253000000000000000e+03 9.911774635314941406e+00 2.046644210815429688e+01 1.200962445539310169e-14 -2.922341730583755126e-13 -8.406736949368581735e-14 4.703769451307356075e-14
1.254000000000000000e+03 9.719843864440917969e+00 2.279265594482421875e+01 -2.952365863720038397e-14 -1.956567910075743266e-13 -6.755413692631148659e-14 -4.203368474684290867e-14
1.255000000000000000e+03 9.128015518188476562e+00 2.380111503601074219e+01 -5.004010189747125706e-16 4.553649124439118623e-14 1.351082687704252897e-14 -1.210970478624298630e-13
1.256000000000000000e+03 8.541048049926757812e+00 3.463501739501953125e+01 -1.000802037949425141e-14 -5.004010105043830980e-14 -1.801443583605670529e-14 6.805453688649501509e-14
1.257000000000000000e+03 1.034027957916259766e+01 8.944744110107421875e+00 1.501202929869195624e-14 -8.506816941405287436e-14 -2.101684237342145434e-14 -1.461170865291877563e-13
1.258000000000000000e+03 6.891031742095947266e+00 3.036756515502929688e+01 -4.503608959014176322e-15 1.696359388679222202e-13 4.953969770212299228e-14 1.401122768425900472e-14
1.259000000000000000e+03 7.280528545379638672e+00 3.601234054565429688e+01 -2.602085213965210642e-14 -3.402726844324750755e-14 -1.801443583605670529e-14 -2.001604075898850282e-15
1.260000000000000000e+03 1.049773693084716797e+01 1.529955482482910156e+01 -6.405133042876320904e-14 -2.562053217150528361e-13 -9.607699564314481355e-14 -5.704571743366665393e-14
1.261000000000000000e+03 9.748457908630371094e+00 1.412211418151855469e+01 5.604491073703601889e-14 -2.161732300326804634e-13 -4.803849782157240678e-14 1.521218996039172544e-13
1.262000000000000000e+03 1.056007957458496094e+01 1.759540176391601562e+01 1.551243095294137925e-14 -1.306046606584440606e-13 -3.452766840343103605e-14 -1.060850151756061177e-13
1.263000000000000000e+03 9.850704193115234375e+00 1.557669448852539062e+01 7.781235643886455500e-14 -1.954065978037461404e-13 -3.527827173183811782e-14 1.521218996039172544e-13
1.264000000000000000e+03 9.300439834594726562e+00 3.023337554931640625e+01 1.401122768425900472e-14 -7.405934996122451319e-14 -1.801443583605670529e-14 4.778829445334885351e-14
1.265000000000000000e+03 1.203225803375244141e+01 3.749555969238281250e+01 -2.201764398785440585e-14 -7.806255641895631925e-14 -3.002405859738391247e-14 -7.305854326459387815e-14
1.266000000000000000e+03 7.371345043182373047e+00 3.243530273437500000e+01 -8.406736949368581735e-14 -1.961571909677578551e-13 -8.406736949368581735e-14 -4.803849782157240678e-14
1.267000000000000000e+03 8.670157432556152344e+00 2.993637084960937500e+01 -1.851483749030612830e-14 -7.656135653840573374e-14 -2.852285871683332696e-14 8.106496295632106830e-14
1.268000000000000000e+03 7.596889495849609375e+00 1.720071792602539062e+01 1.215974478226133915e-13 1.436150867282701138e-13 7.956375629950690476e-14 -1.401122768425900472e-14
1.269000000000000000e+03 1.000040817260742188e+01 1.670279884338378906e+01 1.000802037949425141e-15 -9.107298248878237246e-14 -2.702165375408505793e-14 1.200962445539310169e-14
1.270000000000000000e+03 9.531883239746093750e+00 2.623707199096679688e+01 -3.002405859738391247e-14 -4.703769383544720295e-13 -1.501202997631831404e-13 1.781427517435693608e-13
1.271000000000000000e+03 9.752256393432617188e+00 2.703342437744140625e+01 3.002405859738391247e-14 -1.000802037949425141e-14 6.004812227696550847e-15 -4.403528797570881170e-14
1.272000000000000000e+03 6.000662803649902344e+00 2.395865440368652344e+01 -9.907939540424598457e-14 4.903929774193946378e-14 -1.501202929869195624e-14 5.304250758780305885e-14
1.273000000000000000e+03 9.263968467712402344e+00 2.463397407531738281e+01 -1.716375387086563342e-13 -3.938155953685934518e-13 -1.696359388679222202e-13 6.805453688649501509e-14
1.274000000000000000e+03 6.376690864562988281e+00 7.287887573242187500e+00 -1.000802037949425141e-15 9.107298248878237246e-14 2.702165375408505793e-14 -3.202566521438160452e-14
1.275000000000000000e+03 7.070357322692871094e+00 7.867107868194580078e+00 -5.504411081666896188e-14 -1.150922347877003649e-13 -5.104090097080536681e-14 -5.704571743366665393e-14
1.276000000000000000e+03 8.471077919006347656e+00 7.070470333099365234e+00 -7.155734338404329264e-14 1.065854151357896462e-13 1.050842118671072717e-14 -6.805453688649501509e-14
1.277000000000000000e+03 1.026863574981689453e+01 8.202633857727050781e+00 -5.504411081666896188e-14 -2.752205473070812314e-13 -9.907939540424598457e-14 9.107298248878237246e-14
1.278000000000000000e+03 7.119670391082763672e+00 2.334679985046386719e+01 -2.852285871683332696e-14 3.352686848306397904e-14 1.501203056924137712e-15 1.000802037949425141e-14
1.279000000000000000e+03 6.657329082489013672e+00 1.159413242340087891e+01 9.207378240914942946e-14 -2.121700303512122354e-13 -3.602887167211341057e-14 3.602887167211341057e-14
1.280000000000000000e+03 5.839817523956298828e+00 2.612370872497558594e+01 -6.705373696612795809e-14 -1.431146867680865853e-13 -6.305052373213257400e-14 -7.506014649345978118e-15
1.281000000000000000e+03 7.197409152984619141e+00 2.467294311523437500e+01 -6.705373696612795809e-14 1.701363422162375377e-14 -1.501202929869195624e-14 -8.706977603105056640e-14
1.282000000000000000e+03 7.013771533966064453e+00 8.498193740844726562e+00 -3.302646513474866152e-14 1.230986477031639770e-13 2.702165375408505793e-14 3.803047490097931360e-14
1.283000000000000000e+03 6.498927116394042969e+00 2.596535301208496094e+01 4.503608959014176322e-15 7.055654346367623564e-14 2.251804564210382886e-14 1.571259127582796955e-13
1.284000000000000000e+03 6.248460292816162109e+00 2.530677986145019531e+01 -3.502807175174635357e-14 -3.352686780543762124e-13 -1.110890215537049808e-13 9.907939540424598457e-14
1.285000000000000000e+03 6.131074905395507812e+00 1.137438297271728516e+01 6.004812227696550847e-15 9.407538902614712151e-14 3.002405859738391247e-14 -4.003208151797700565e-14
1.286000000000000000e+03 5.987524986267089844e+00 1.593579483032226562e+01 -8.006416303595401129e-14 8.006416303595401129e-14 0.000000000000000000e+00 6.605293026949732305e-14
1.287000000000000000e+03 6.823367595672607422e+00 1.045615673065185547e+01 -7.205774334422682115e-14 -1.681347389873716347e-13 -7.205774334422682115e-14 -1.000802037949425141e-15
1.288000000000000000e+03 5.661843776702880859e+00 1.114824390411376953e+01 -3.002405859738391247e-14 -1.501202997631831404e-13 -5.404330750817011586e-14 -1.120898214740720378e-13
1.289000000000000000e+03 8.402473449707031250e+00 1.930282020568847656e+01 1.060850151756061177e-13 -4.603689120457471473e-14 1.801443583605670529e-14 6.605293026949732305e-14
1.290000000000000000e+03 6.011020660400390625e+00 1.842504310607910156e+01 -1.851483749030612830e-14 -2.366896826103137563e-13 -7.656135653840573374e-14 -3.602887167211341057e-14
1.291000000000000000e+03 7.862363338470458984e+00 2.044829368591308594e+01 1.294787573598993324e-13 -1.732638419673845909e-13 -1.313552605987193533e-14 1.296038607380770036e-13
1.292000000000000000e+03 8.399207115173339844e+00 2.094624710083007812e+01 -1.552494162957232526e-13 -2.037883073012156099e-13 -1.077113184343343744e-13 1.220978477827969200e-13
1.293000000000000000e+03 9.187334060668945312e+00 1.878433990478515625e+01 -2.351884725653678038e-14 -1.015814019814272051e-13 -3.753007494079578510e-14 -1.090874217129708668e-13
1.294000000000000000e+03 6.628213882446289062e+00 1.570259666442871094e+01 -4.253408555405938443e-15 -9.332478908587182875e-14 -2.927345865710861972e-14 -1.230986477031639770e-13
1.295000000000000000e+03 7.844094276428222656e+00 2.478315162658691406e+01 -4.553649124439118623e-14 -3.397722912485551250e-13 -1.155926347478838934e-13 1.621299259126421366e-13
1.296000000000000000e+03 6.767498493194580078e+00 1.303893947601318359e+01 -1.115894215138885093e-13 -9.357498906596359300e-14 -6.154932385158198849e-14 -6.104892389139845998e-14
1.297000000000000000e+03 7.157796859741210938e+00 1.527491664886474609e+01 -5.304250758780305885e-14 -2.171740299530475204e-13 -8.106496295632106830e-14 2.076664239332969009e-14
1.298000000000000000e+03 6.340239048004150391e+00 8.383701324462890625e+00 -7.005613842129502361e-15 -1.631307258330091936e-13 -5.104090097080536681e-14 -3.602887167211341057e-14
1.299000000000000000e+03 6.759132385253906250e+00 9.824471473693847656e+00 -2.802245536851800944e-14 -1.200962445539310169e-14 -1.200962445539310169e-14 1.281026608575264181e-13
1.300000000000000000e+03 8.585593223571777344e+00 1.173245716094970703e+01 -1.000802037949425141e-14 -5.004010105043830980e-14 -1.801443583605670529e-14 -5.404330750817011586e-14
1.301000000000000000e+03 6.367956638336181641e+00 1.403126621246337891e+01 -6.605293026949732305e-14 -1.541235129971785245e-13 -6.605293026949732305e-14 6.630313024958908730e-14
1.302000000000000000e+03 7.667331695556640625e+00 3.066694068908691406e+01 -6.004811719476782494e-14 -1.401122870069854143e-13 -6.004811719476782494e-14 1.070858150959731747e-13
1.303000000000000000e+03 6.623741149902343750e+00 3.128770637512207031e+01 -7.756215645877279075e-14 -1.476182999622654979e-13 -6.755413692631148659e-14 -6.204972381176551699e-14
1.304000000000000000e+03 9.345613479614257812e+00 1.818228530883789062e+01 4.903929774193946378e-14 2.101684237342145434e-14 2.101684237342145434e-14 3.602887167211341057e-14
1.305000000000000000e+03 9.605282783508300781e+00 2.905756950378417969e+01 -1.100882216333379238e-13 -2.301844695754007297e-13 -1.020818019416107336e-13 1.220978477827969200e-13
1.306000000000000000e+03 9.754445075988769531e+00 2.189869499206542969e+01 -3.052446194569922999e-14 -2.647121345906999768e-13 -8.857097591160115191e-14 4.903929774193946378e-14
1.307000000000000000e+03 9.084715843200683594e+00 1.956272315979003906e+01 7.506014988159157020e-14 5.504411081666896188e-14 3.903127820947815962e-14 -6.004812227696550847e-15
1.308000000000000000e+03 6.620647907257080078e+00 1.933371925354003906e+01 1.125902282105191443e-13 2.502005094873562853e-15 3.452766840343103605e-14 -5.804651735403371093e-14
1.309000000000000000e+03 8.223908424377441406e+00 3.248031234741210938e+01 3.753007494079578510e-14 -5.254210423948774134e-14 -4.503608959014176322e-15 1.170938346284344789e-13
1.310000000000000000e+03 6.620031833648681641e+00 2.058614730834960938e+01 -4.503609128420765773e-14 -6.505213034913026604e-14 -3.302646513474866152e-14 -1.551243095294137925e-14
1.311000000000000000e+03 8.560644149780273438e+00 2.472748947143554688e+01 -3.202566521438160452e-14 3.202566521438160452e-14 0.000000000000000000e+00 -9.007218256841531545e-14
1.312000000000000000e+03 8.491591453552246094e+00 2.209640884399414062e+01 -9.807859548387892756e-14 -8.206576287668812530e-14 -5.404330750817011586e-14 -2.089174238337557221e-14
1.313000000000000000e+03 1.013906383514404297e+01 1.468513488769531250e+01 -2.902325867701685547e-14 -2.411932958044926689e-13 -8.106496295632106830e-14 1.261010474642651480e-13
1.314000000000000000e+03 1.055192089080810547e+01 2.199712562561035156e+01 -3.502806921064751181e-15 -1.616295259524586081e-13 -4.953969770212299228e-14 -9.307458910578006450e-14
1.315000000000000000e+03 9.373720169067382812e+00 7.615130424499511719e+00 -9.257418236933295796e-14 -2.226784430675934900e-13 -9.457578898633065001e-14 -4.603689120457471473e-14
1.316000000000000000e+03 7.305123805999755859e+00 1.432126998901367188e+01 -5.804651735403371093e-14 -1.621299259126421366e-13 -6.605293026949732305e-14 9.407538902614712151e-14
1.317000000000000000e+03 9.449381828308105469e+00 8.366921424865722656e+00 -3.452766840343103605e-14 -6.054852393121493148e-14 -2.852285871683332696e-14 -2.271820562617724026e-13
1.318000000000000000e+03 1.042079639434814453e+01 9.681879043579101562e+00 -6.104892389139845998e-14 -2.091676170375839083e-13 -8.106496295632106830e-14 2.702165375408505793e-14
1.319000000000000000e+03 8.756396293640136719e+00 3.157466125488281250e+01 5.104090097080536681e-14 -8.106496295632106830e-14 -9.007217918028352643e-15 4.703769451307356075e-14
1.320000000000000000e+03 6.790281295776367188e+00 2.747535896301269531e+01 -1.401122768425900472e-14 -6.004812227696550847e-15 -6.004812227696550847e-15 -1.100882199392720293e-14
1.321000000000000000e+03 9.346152305603027344e+00 3.327370834350585938e+01 2.902325867701685547e-14 -7.906335633932337625e-14 -1.501202929869195624e-14 3.252606517456513302e-14
1.322000000000000000e+03 7.323644638061523438e+00 2.282960128784179688e+01 6.505213034913026604e-14 4.053248080053417635e-13 1.411130869273524713e-13 7.506015284620688559e-16
1.323000000000000000e+03 6.699463367462158203e+00 2.668632507324218750e+01 5.004010189747125706e-16 -2.056648173162992088e-13 -6.154932385158198849e-14 3.302646513474866152e-14
1.324000000000000000e+03 7.367324829101562500e+00 3.346920394897460938e+01 2.602085213965210642e-14 3.402726844324750755e-14 1.801443583605670529e-14 3.602887167211341057e-14
1.325000000000000000e+03 8.829124450683593750e+00 3.061126136779785156e+01 1.271018609371593611e-13 -3.702967498061225660e-14 2.702165375408505793e-14 8.406736949368581735e-14
1.326000000000000000e+03 7.752746105194091797e+00 4.010140609741210938e+01 -7.631115486424807498e-15 -2.614595212969798854e-14 -1.013312036954013354e-14 -2.151724233360498284e-14
1.327000000000000000e+03 8.495960235595703125e+00 1.582124710083007812e+01 -1.457417933353136880e-14 -2.350008208862330861e-13 -7.487250159058864152e-14 1.188452361831427231e-14
1.328000000000000000e+03 6.549093723297119141e+00 1.999694252014160156e+01 -6.805453688649501509e-14 1.080866150163402317e-13 1.200962445539310169e-14 -6.004812227696550847e-15
1.329000000000000000e+03 9.531153678894042969e+00 1.504190540313720703e+01 3.202566521438160452e-14 -1.120898214740720378e-13 -2.401924891078620339e-14 8.706977603105056640e-14
1.330000000000000000e+03 9.442294120788574219e+00 1.622913360595703125e+01 -8.506816941405287436e-14 -2.652125209983563492e-13 -1.050842084789754827e-13 2.341876692568689577e-13
1.331000000000000000e+03 8.921257019042968750e+00 2.291180610656738281e+01 6.204972381176551699e-14 -2.021620040424873532e-13 -4.203368474684290867e-14 1.100882199392720293e-14
1.332000000000000000e+03 7.024340152740478516e+00 2.030998039245605469e+01 -1.476182931860019198e-14 -9.782839550378716331e-14 -3.377706846315574329e-14 7.606094980195862720e-14
1.333000000000000000e+03 8.677461624145507812e+00 2.554202079772949219e+01 -1.301042606982605321e-14 -4.173344341548007597e-13 -1.291034607778934751e-13 1.050842084789754827e-13
1.334000000000000000e+03 8.130849838256835938e+00 2.649455451965332031e+01 -3.052446194569922999e-14 -4.248404471100808433e-13 -1.366094737331735587e-13 8.406736949368581735e-14
1.335000000000000000e+03 7.610415458679199219e+00 1.790768051147460938e+01 1.701363422162375377e-14 -2.672141479441447753e-13 -7.506014988159157020e-14 1.801443651368306309e-13
1.336000000000000000e+03 9.442730903625488281e+00 1.769771766662597656e+01 -6.004812227696550847e-15 -9.407538902614712151e-14 -3.002405859738391247e-14 -1.140914348673333079e-13
1.337000000000000000e+03 7.928341865539550781e+00 2.144604873657226562e+01 5.785886906303078225e-14 -1.985966458558502401e-13 -4.222133303784583735e-14 4.558340331714191840e-14
1.338000000000000000e+03 6.562064170837402344e+00 2.332164192199707031e+01 -9.807859548387892756e-14 -4.203368474684290867e-14 -4.203368474684290867e-14 1.271018609371593611e-13
1.339000000000000000e+03 9.377443313598632812e+00 1.231089210510253906e+01 5.854691731421723944e-14 -2.036632039230379387e-13 -4.353488801552528320e-14 -1.000802021008766196e-13
1.340000000000000000e+03 9.239315032958984375e+00 1.302091407775878906e+01 1.451162866088206993e-13 -3.953167816966168813e-13 -7.506014988159157020e-14 -4.303448466720996568e-14
1.341000000000000000e+03 8.387095451354980469e+00 1.105485343933105469e+01 -5.579471075694425464e-14 -2.069158104404944520e-13 -7.881315635923161200e-14 -6.805453688649501509e-14
1.342000000000000000e+03 7.666684627532958984e+00 2.335381126403808594e+01 -7.205774334422682115e-14 -8.006416303595401129e-15 -2.401924891078620339e-14 -1.200962445539310169e-14
1.343000000000000000e+03 7.936430454254150391e+00 2.562616729736328125e+01 -4.053248147816053415e-14 5.504410996963601463e-15 -1.050842118671072717e-14 6.004812227696550847e-15
1.344000000000000000e+03 7.195267200469970703e+00 2.577974891662597656e+01 -1.601283260719080226e-14 -4.643721388322696875e-13 -1.441154866884536423e-13 4.703769451307356075e-14
1.345000000000000000e+03 9.669145584106445312e+00 9.859383583068847656e+00 -3.452766840343103605e-14 -6.054852393121493148e-14 -2.852285871683332696e-14 -7.205774334422682115e-14
1.346000000000000000e+03 9.546216011047363281e+00 9.117795944213867188e+00 -5.854691731421723944e-14 -2.767217607401589730e-13 -1.005806020610601481e-13 5.604491073703601889e-14
1.347000000000000000e+03 7.187076568603515625e+00 2.400866317749023438e+01 -5.654531408535133641e-14 -2.987393860932885392e-13 -1.065854151357896462e-13 1.271018609371593611e-13
1.348000000000000000e+03 6.875663280487060547e+00 2.512663078308105469e+01 2.702165375408505793e-14 1.030826086382413687e-13 3.903127820947815962e-14 5.804651735403371093e-14
1.349000000000000000e+03 6.373431205749511719e+00 1.077584552764892578e+01 4.878909776184769953e-14 -4.365998665031844972e-13 -1.163432279118956081e-13 8.006416303595401129e-15
1.350000000000000000e+03 6.730725288391113281e+00 1.858482551574707031e+01 -5.004010189747125706e-15 -1.851483647386659159e-13 -5.704571743366665393e-14 1.401122768425900472e-14
1.351000000000000000e+03 7.821808815002441406e+00 1.911838340759277344e+01 -2.852285871683332696e-14 3.352686848306397904e-14 1.501203056924137712e-15 1.501202997631831404e-13
1.352000000000000000e+03 7.770596504211425781e+00 8.573367118835449219e+00 -6.154932385158198849e-14 -1.636311257931927221e-13 -6.755413692631148659e-14 -7.906335633932337625e-14
1.353000000000000000e+03 8.040313720703125000e+00 9.628387451171875000e+00 -1.015814019814272051e-13 -3.637915164424188053e-13 -1.396118734942747297e-13 8.807057595141762341e-14
1.354000000000000000e+03 7.128931522369384766e+00 1.628383255004882812e+01 -9.207378240914942946e-14 -2.682149478645118323e-13 -1.080866150163402317e-13 2.201764398785440585e-14
1.355000000000000000e+03 8.944254875183105469e+00 1.615954399108886719e+01 6.104892389139845998e-14 -2.712173476256130034e-13 -6.305052373213257400e-14 -1.821459649775647449e-13
1.356000000000000000e+03 7.954282283782958984e+00 1.196525764465332031e+01 8.656937607086703790e-14 -1.916535777735789425e-13 -3.152526186606628700e-14 -5.004010105043830980e-14
1.357000000000000000e+03 7.253253936767578125e+00 1.159719657897949219e+01 1.100882199392720293e-14 -3.612895301940283188e-13 -1.050842084789754827e-13 -5.204170427930421283e-14
1.358000000000000000e+03 6.624210834503173828e+00 1.230565071105957031e+01 4.203368474684290867e-14 1.801443583605670529e-14 1.801443583605670529e-14 -2.401924891078620339e-14
1.359000000000000000e+03 8.330599784851074219e+00 2.737265777587890625e+01 -9.507618725244828400e-15 -9.557658890669770702e-14 -3.152526186606628700e-14 6.405133042876320904e-14
1.360000000000000000e+03 8.253534317016601562e+00 1.354301357269287109e+01 1.801443583605670529e-14 -3.582871304329271478e-13 -1.020818019416107336e-13 -1.291034607778934751e-13
1.361000000000000000e+03 6.996252536773681641e+00 1.371259689331054688e+01 1.090874217129708668e-13 1.611291259922750796e-13 8.106496295632106830e-14 -1.020818019416107336e-13
1.362000000000000000e+03 9.835125923156738281e+00 1.970328140258789062e+01 6.305052373213257400e-14 1.871499781319271860e-13 7.506014988159157020e-14 -9.007218256841531545e-14
1.363000000000000000e+03 9.384126663208007812e+00 2.081301879882812500e+01 1.732638419673845909e-14 -1.755782070298264608e-13 -4.747554617230004270e-14 8.106496295632106830e-14
1.364000000000000000e+03 1.116972351074218750e+01 2.784060859680175781e+01 -5.601363828062339012e-14 -5.272662731772848055e-13 -1.749839693716143119e-13 -2.251804564210382886e-14
1.365000000000000000e+03 8.213418960571289062e+00 1.445595359802246094e+01 -1.544988095791843818e-14 -2.353761174682389434e-13 -7.524779817259449888e-14 -4.503609128420765773e-14
1.366000000000000000e+03 6.788797855377197266e+00 2.831996917724609375e+01 6.255012377194904549e-14 -4.078268213587865620e-13 -1.035830085984248972e-13 1.130906281707026728e-13
1.367000000000000000e+03 7.798608779907226562e+00 2.401728630065917969e+01 -5.804651735403371093e-14 -2.001604075898850282e-15 -1.801443583605670529e-14 -6.104892389139845998e-14
1.368000000000000000e+03 9.347395896911621094e+00 1.360218334197998047e+01 -5.004010189747125706e-15 -5.854691731421723944e-13 -1.771419518232023038e-13 6.004812227696550847e-15
1.369000000000000000e+03 6.933825969696044922e+00 2.121198844909667969e+01 4.603689120457471473e-14 -2.602085213965210642e-14 6.004812227696550847e-15 1.040834085586084257e-13
1.370000000000000000e+03 7.373429298400878906e+00 2.185194587707519531e+01 -6.805453688649501509e-14 -1.200962445539310169e-14 -2.401924891078620339e-14 2.376904723662854463e-14
1.371000000000000000e+03 8.559588432312011719e+00 7.768845081329345703e+00 -4.803849782157240678e-14 -1.120898214740720378e-13 -4.803849782157240678e-14 -1.251002475438980910e-13
1.372000000000000000e+03 6.776972293853759766e+00 1.467267227172851562e+01 7.906335633932337625e-14 1.711371387484728057e-13 7.506014988159157020e-14 -1.080866150163402317e-13
1.373000000000000000e+03 7.658608913421630859e+00 2.835267639160156250e+01 4.253408470702643718e-14 -2.752205540833448094e-14 4.503608959014176322e-15 8.106496295632106830e-14
1.374000000000000000e+03 9.077670097351074219e+00 2.723436737060546875e+01 -7.205774334422682115e-14 -3.282630515067525012e-13 -1.200962343895356499e-13 1.065854151357896462e-13
1.375000000000000000e+03 8.529834747314453125e+00 2.825360488891601562e+01 -1.035830085984248972e-13 -3.417738910892892390e-13 -1.336070739720723877e-13 1.531227130768114675e-13
1.376000000000000000e+03 8.692337036132812500e+00 2.912540054321289062e+01 4.303448466720996568e-14 -7.305854326459387815e-14 -9.007217918028352643e-15 9.307458910578006450e-14
1.377000000000000000e+03 8.340023994445800781e+00 3.101099014282226562e+01 -7.531034986168333445e-14 -3.227586519447336877e-14 -3.227586519447336877e-14 3.803047490097931360e-14
1.378000000000000000e+03 1.076796150207519531e+01 3.675558090209960938e+01 -5.535686248584956171e-14 -4.659984285384707881e-14 -3.058701024665627655e-14 -8.206576287668812530e-14
1.379000000000000000e+03 9.549207687377929688e+00 3.766396713256835938e+01 -1.626303258728256651e-14 -1.413632801311806575e-13 -4.728789449316532501e-14 2.276824562219559311e-14
1.380000000000000000e+03 9.010223388671875000e+00 2.151421546936035156e+01 1.038332119666484504e-14 -2.243047463263217467e-13 -6.417642703067730214e-14 2.001604075898850282e-14
1.381000000000000000e+03 7.674237728118896484e+00 1.961439704895019531e+01 5.979791721467606069e-14 -1.573761195146350378e-13 -2.927345865710861972e-14 3.803047490097931360e-14
1.382000000000000000e+03 7.635060310363769531e+00 1.346809101104736328e+01 -5.954771723458429644e-14 -2.552045048540268340e-14 -2.552045048540268340e-14 1.921539912862896271e-13
1.383000000000000000e+03 8.258095741271972656e+00 1.726508903503417969e+01 8.907137587178468041e-14 -9.907939540424598457e-14 -3.002406113848275424e-15 3.202566521438160452e-14
1.384000000000000000e+03 7.590476512908935547e+00 1.578487205505371094e+01 -5.365237130982615510e-14 -2.517486273698882338e-13 -9.162029452171663313e-14 -6.104892389139845998e-14
1.385000000000000000e+03 7.405066967010498047e+00 2.660200691223144531e+01 1.200962445539310169e-14 2.802245536851800944e-14 1.200962445539310169e-14 1.901523745048965680e-14
1.386000000000000000e+03 7.384407043457031250e+00 1.997704505920410156e+01 -1.443656934448089846e-13 -1.533729062806396537e-13 -8.932157585187644466e-14 2.802245536851800944e-14
1.387000000000000000e+03 7.191695690155029297e+00 1.944648170471191406e+01 -1.000802021008766196e-13 -1.801443651368306309e-13 -8.406736949368581735e-14 1.691355389077386917e-13
1.388000000000000000e+03 8.361404418945312500e+00 1.791945266723632812e+01 -6.805453688649501509e-14 1.080866150163402317e-13 1.200962445539310169e-14 -3.302646513474866152e-14
1.389000000000000000e+03 7.778075218200683594e+00 1.137666320800781250e+01 -1.951563910473907981e-14 -1.456166865690042278e-13 -4.953969770212299228e-14 -3.002405859738391247e-14
1.390000000000000000e+03 8.237720489501953125e+00 2.316086006164550781e+01 -1.951563910473907981e-14 1.746399520222846613e-13 4.653729455289003225e-14 -2.802245536851800944e-14
1.391000000000000000e+03 8.930858612060546875e+00 1.008194828033447266e+01 -1.901523745048965680e-14 -1.911531778133954140e-13 -6.305052373213257400e-14 1.000802037949425141e-15
1.392000000000000000e+03 6.869776725769042969e+00 9.133827209472656250e+00 -3.953167816966168813e-14 -2.456968818936172694e-13 -8.556856937423640286e-14 -3.002405859738391247e-14
1.393000000000000000e+03 7.444373130798339844e+00 9.814565658569335938e+00 -1.120898214740720378e-13 -4.803849782157240678e-14 -4.803849782157240678e-14 -7.606094980195862720e-14
1.394000000000000000e+03 7.378366470336914062e+00 1.105168151855468750e+01 2.602085213965210642e-14 -2.862293735361731706e-13 -7.806255641895631925e-14 -1.801443583605670529e-14
1.395000000000000000e+03 8.198597908020019531e+00 1.993400955200195312e+01 1.526223097284961500e-14 5.229190425939597708e-14 2.026624073908026707e-14 6.405133042876320904e-14
1.396000000000000000e+03 7.711049079895019531e+00 1.661824417114257812e+01 -1.901523745048965680e-14 -1.911531778133954140e-13 -6.305052373213257400e-14 5.204170427930421283e-14
1.397000000000000000e+03 8.252082824707031250e+00 1.668536949157714844e+01 3.753007494079578510e-14 1.075862150561567032e-13 4.353488801552528320e-14 -4.803849782157240678e-14
1.398000000000000000e+03 8.042093276977539062e+00 1.620943450927734375e+01 -2.777225538842624519e-14 -1.949061842910354558e-13 -6.680353698603619383e-14 1.601283260719080226e-14
1.399000000000000000e+03 8.849462509155273438e+00 1.723178100585937500e+01 -2.001604075898850282e-15 1.821459649775647449e-13 5.404330750817011586e-14 7.405934996122451319e-14
1.400000000000000000e+03 8.457028388977050781e+00 1.861528968811035156e+01 -1.000802037949425141e-14 -5.004010105043830980e-14 -1.801443583605670529e-14 2.011612041221202962e-13
1.401000000000000000e+03 6.828013420104980469e+00 1.099149322509765625e+01 8.506816941405287436e-14 -5.504411081666896188e-14 9.007217918028352643e-15 7.606094980195862720e-14
1.402000000000000000e+03 8.126305580139160156e+00 1.255733966827392578e+01 -5.754611400571839341e-15 -2.769719674965143152e-13 -8.481796943396111010e-14 -7.405934996122451319e-14
1.403000000000000000e+03 7.325303077697753906e+00 1.218468475341796875e+01 5.504410996963601463e-15 -1.806447650970141594e-13 -5.254210423948774134e-14 1.401122768425900472e-14
1.404000000000000000e+03 9.154254913330078125e+00 1.452588939666748047e+01 4.891419775189358166e-14 -2.077915205352109940e-13 -4.766319446330297138e-14 -7.606094980195862720e-14
1.405000000000000000e+03 7.494233608245849609e+00 1.283516979217529297e+01 -3.402726844324750755e-14 -2.662133209187234062e-13 -9.007218256841531545e-14 1.200962445539310169e-14
1.406000000000000000e+03 8.686510086059570312e+00 1.235738468170166016e+01 -5.604491073703601889e-14 -3.442758773376797254e-13 -1.200962343895356499e-13 2.001604075898850282e-15
1.407000000000000000e+03 8.559573173522949219e+00 1.295475578308105469e+01 -3.002405859738391247e-14 -3.102486258350911630e-13 -1.020818019416107336e-13 2.301844560228735737e-14
1.408000000000000000e+03 8.444893836975097656e+00 2.392968940734863281e+01 -9.507618894651417851e-14 -3.152526254369264480e-13 -1.230986477031639770e-13 2.802245536851800944e-14
1.409000000000000000e+03 8.754034996032714844e+00 1.399505805969238281e+01 2.802245536851800944e-14 1.200962445539310169e-14 1.200962445539310169e-14 -5.104090097080536681e-14
1.410000000000000000e+03 9.301893234252929688e+00 1.581860446929931641e+01 -1.160930347080674219e-13 1.561251128379126385e-13 1.200962445539310169e-14 5.104090097080536681e-14
1.411000000000000000e+03 8.604951858520507812e+00 8.536771774291992188e+00 -6.255012377194904549e-14 -7.255814330441034965e-14 -4.053248147816053415e-14 9.007217918028352643e-15
1.412000000000000000e+03 7.862127304077148438e+00 2.247562026977539062e+01 -8.907137587178468041e-14 -1.411130869273524713e-13 -6.905533680686207210e-14 -2.752205498481800731e-15
1.413000000000000000e+03 8.815392494201660156e+00 2.031817626953125000e+01 -1.000802037949425141e-15 -2.291836696550336727e-13 -6.905533680686207210e-14 3.452766840343103605e-14
1.414000000000000000e+03 8.205429077148437500e+00 1.033214664459228516e+01 -2.552045048540268340e-14 -2.396920823714149273e-13 -7.956375629950690476e-14 -8.907137587178468041e-14
1.415000000000000000e+03 7.443255901336669922e+00 2.086577606201171875e+01 -1.643817325097315929e-13 6.680353698603619383e-14 -2.927345865710861972e-14 1.000802021008766196e-13
1.416000000000000000e+03 8.953708648681640625e+00 1.780494689941406250e+01 3.002406113848275424e-15 -2.732189474663471174e-13 -8.106496295632106830e-14 1.801443583605670529e-14
1.417000000000000000e+03 7.677206039428710938e+00 1.486745738983154297e+01 -3.502807175174635357e-14 -1.501202929869195624e-14 -1.501202929869195624e-14 6.004812227696550847e-15
1.418000000000000000e+03 7.840706348419189453e+00 1.399107933044433594e+01 -7.706175649858926224e-14 -1.130906281707026728e-13 -5.704571743366665393e-14 -2.902325867701685547e-14
1.419000000000000000e+03 8.828582763671875000e+00 1.666539382934570312e+01 6.004812227696550847e-15 9.407538902614712151e-14 3.002405859738391247e-14 5.604491073703601889e-14
1.420000000000000000e+03 8.600666046142578125e+00 1.493562507629394531e+01 2.126704235351321859e-14 1.463672932855430986e-13 5.029030103053007406e-14 -6.004812227696550847e-15
1.421000000000000000e+03 8.080556869506835938e+00 1.535525035858154297e+01 -9.269928574751062911e-14 -1.312301639968052602e-13 -6.717883356804205119e-14 -5.304250758780305885e-14
1.422000000000000000e+03 4.346550750732421875e+01 3.677924728393554688e+01 -4.478589130411589347e-14 7.230794332431858540e-14 8.256616283687165381e-15 6.905533680686207210e-14
1.423000000000000000e+03 5.284084701538085938e+01 4.116828918457031250e+01 -4.003208151797700565e-14 4.003208151797700565e-14 0.000000000000000000e+00 -3.427746842333927180e-14
1.424000000000000000e+03 2.397644805908203125e+01 4.025347900390625000e+01 -7.631114978205039145e-14 5.879711729430900369e-14 -5.254210593355363584e-15 -5.454371085648543338e-14
1.425000000000000000e+03 3.851905059814453125e+01 3.611949157714843750e+01 -8.356696953350228885e-14 -8.156536291650459680e-14 -4.953969770212299228e-14 -1.901523745048965680e-14
1.426000000000000000e+03 3.766405105590820312e+01 3.701201629638671875e+01 -5.854691731421723944e-14 -1.165934346682509504e-13 -5.254210423948774134e-14 2.902325867701685547e-14
1.427000000000000000e+03 1.889351654052734375e+01 3.794041824340820312e+01 -3.142518255165593910e-13 9.407538902614712151e-14 -6.605293026949732305e-14 1.000802037949425141e-15
1.428000000000000000e+03 1.974714660644531250e+01 3.886695861816406250e+01 -1.346078738924394447e-13 7.956375629950690476e-14 -1.651323256737433076e-14 -6.405133042876320904e-14
1.429000000000000000e+03 1.707192039489746094e+01 4.027612304687500000e+01 -1.049591118770613896e-13 -5.642021409530545428e-14 -4.841379779171005315e-14 2.451964887096973189e-14
1.430000000000000000e+03 4.923120498657226562e+01 3.615100097656250000e+01 -9.870409882224012721e-14 9.495109234460008540e-14 -1.125902239753544080e-15 -4.403528797570881170e-14
1.431000000000000000e+03 4.866141891479492188e+01 3.697896194458007812e+01 -5.454371085648543338e-14 -5.004010189747125706e-16 -1.651323256737433076e-14 1.080866150163402317e-13
1.432000000000000000e+03 4.087986755371093750e+01 3.778632736206054688e+01 -9.269928574751062911e-14 3.390216845320162542e-14 -1.763913586591905891e-14 -2.242421980253647001e-14
1.433000000000000000e+03 2.820013427734375000e+01 3.891886138916015625e+01 -2.011612041221202962e-13 5.104090097080536681e-14 -4.503609128420765773e-14 2.221780431074099615e-13
1.434000000000000000e+03 2.543283462524414062e+01 3.906898117065429688e+01 -6.905533680686207210e-14 -1.210970478624298630e-13 -5.704571743366665393e-14 2.602085213965210642e-14
1.435000000000000000e+03 2.978483581542968750e+01 3.903971099853515625e+01 -1.286030608177099466e-13 1.736391521019176043e-13 1.351082687704252897e-14 5.004010105043830980e-14
1.436000000000000000e+03 3.045064735412597656e+01 4.078424072265625000e+01 -5.129110433902892008e-14 2.376904723662854463e-14 -8.256616283687165381e-15 -7.055654346367623564e-14
1.437000000000000000e+03 3.253446960449218750e+01 3.778964614868164062e+01 1.175942362826839019e-14 5.079070099071360256e-14 1.876503747039789255e-14 3.002405859738391247e-14
1.438000000000000000e+03 2.477142524719238281e+01 4.137921905517578125e+01 -9.057258252859884395e-14 -8.456776945386934585e-14 -5.254210423948774134e-14 5.004010189747125706e-15
1.439000000000000000e+03 5.617438888549804688e+01 3.653565979003906250e+01 -3.677947500052049234e-14 -1.576263093303314350e-14 -1.576263093303314350e-14 1.851483749030612830e-14
1.440000000000000000e+03 1.541079425811767578e+01 3.519560623168945312e+01 -9.257418236933295796e-14 -2.226784430675934900e-13 -9.457578898633065001e-14 -8.206576287668812530e-14
1.441000000000000000e+03 5.291485214233398438e+01 3.601259613037109375e+01 -1.461170865291877563e-13 -1.541235129971785245e-13 -9.007218256841531545e-14 3.002405859738391247e-14
1.442000000000000000e+03 6.248544311523437500e+01 3.533816909790039062e+01 -1.508709064797220112e-13 1.183448413051568782e-13 -9.757819552369539906e-15 -7.005613842129502361e-15
1.443000000000000000e+03 5.733810043334960938e+01 3.503552246093750000e+01 -1.421138868477195283e-13 1.220978477827969200e-13 -6.004812227696550847e-15 -5.404330750817011586e-14
1.444000000000000000e+03 6.031613922119140625e+01 3.549282455444335938e+01 1.351082687704252897e-14 5.154130431912068433e-14 1.951563910473907981e-14 1.100882199392720293e-14
1.445000000000000000e+03 6.119018173217773438e+01 3.417019271850585938e+01 -3.002405859738391247e-14 5.004010105043830980e-14 6.004812227696550847e-15 3.665437501047461022e-14
1.446000000000000000e+03 6.180021286010742188e+01 3.471725463867187500e+01 3.615397166215929270e-14 2.177995332914087201e-13 7.618605318013629835e-14 -2.558300048042562447e-14
1.447000000000000000e+03 7.502857208251953125e+01 3.763183593750000000e+01 1.801443583605670529e-14 1.220978477827969200e-13 4.203368474684290867e-14 3.302646513474866152e-14
1.448000000000000000e+03 5.297881317138671875e+01 3.537775039672851562e+01 3.002406113848275424e-15 4.703769451307356075e-14 1.501202929869195624e-14 -6.204972381176551699e-14
1.449000000000000000e+03 6.888102722167968750e+01 3.616674804687500000e+01 -2.502005052521915490e-14 -4.503609128420765773e-14 -2.101684237342145434e-14 5.854691731421723944e-14
1.450000000000000000e+03 7.582467651367187500e+01 3.801708221435546875e+01 4.928949772203122803e-14 -1.618797191562867943e-13 -3.377706846315574329e-14 -8.006416303595401129e-15
1.451000000000000000e+03 2.039952278137207031e+00 3.628256988525390625e+01 -1.085870149765237602e-13 -4.653729455289003225e-14 -4.653729455289003225e-14 -4.403528797570881170e-14
1.452000000000000000e+03 7.166783905029296875e+01 3.542391967773437500e+01 1.501202929869195624e-14 7.506014988159157020e-14 2.702165375408505793e-14 6.004812227696550847e-15
1.453000000000000000e+03 9.039883613586425781e+00 3.234531784057617188e+01 -3.302646513474866152e-14 -3.702967498061225660e-14 -2.101684237342145434e-14 -1.000802037949425141e-15
1.454000000000000000e+03 7.438932418823242188e+00 3.150844001770019531e+01 2.251804564210382886e-14 1.926543912464731556e-13 6.455173038894673754e-14 1.421138868477195283e-13
1.455000000000000000e+03 1.175932407379150391e+01 1.444996738433837891e+01 3.402726844324750755e-14 -2.942358000041639388e-13 -7.806255641895631925e-14 -9.307458910578006450e-14
1.456000000000000000e+03 1.068064022064208984e+01 2.736280632019042969e+01 1.463672932855430986e-14 1.142165246929838229e-13 3.865597823934051325e-14 -1.497293703411027577e-14
1.457000000000000000e+03 7.263169288635253906e+00 2.958189392089843750e+01 -2.714675374413094006e-14 -1.163432363822250806e-14 -1.163432363822250806e-14 2.121700303512122354e-13
1.458000000000000000e+03 7.844234943389892578e+00 2.916809463500976562e+01 -1.225982477429804485e-13 -2.126704303113957639e-13 -1.005806020610601481e-13 6.705373696612795809e-14
1.459000000000000000e+03 4.026690006256103516e+00 2.909455871582031250e+01 -9.007218256841531545e-14 -1.301042606982605321e-13 -6.605293026949732305e-14 5.404330750817011586e-14
1.460000000000000000e+03 7.581990242004394531e+00 9.232728958129882812e+00 -2.301844560228735737e-14 1.731387521417340758e-13 4.503609128420765773e-14 0.000000000000000000e+00
1.461000000000000000e+03 9.936675071716308594e+00 1.717181968688964844e+01 1.291034607778934751e-13 -2.191756433463087905e-13 -2.702165375408505793e-14 7.606094980195862720e-14
1.462000000000000000e+03 9.986649513244628906e+00 1.768857765197753906e+01 6.255012377194904549e-14 7.255814330441034965e-14 4.053248147816053415e-14 2.001604075898850282e-15
1.463000000000000000e+03 5.820614814758300781e+00 1.517286396026611328e+01 -9.007218256841531545e-14 -2.902325732176413986e-13 -1.140914348673333079e-13 -1.240994476235310340e-13
1.464000000000000000e+03 7.764186382293701172e+00 1.857169532775878906e+01 -6.104892389139845998e-14 -4.903929774193946378e-14 -3.302646513474866152e-14 -2.201764398785440585e-14
1.465000000000000000e+03 7.328866481781005859e+00 1.886446952819824219e+01 6.405133042876320904e-14 -6.405133042876320904e-14 0.000000000000000000e+00 -2.101684237342145434e-14
1.466000000000000000e+03 2.003907966613769531e+01 3.718877029418945312e+01 -1.240994476235310340e-13 4.403528797570881170e-14 -2.401924891078620339e-14 8.106496295632106830e-14
1.467000000000000000e+03 2.109172058105468750e+01 3.689155197143554688e+01 -1.811451650571976879e-13 1.511210996835501974e-13 -9.007217918028352643e-15 1.601283260719080226e-13
1.468000000000000000e+03 2.186012458801269531e+01 3.673274230957031250e+01 -2.026624040026708817e-13 -1.326062604991781746e-13 -1.005806020610601481e-13 -1.080866150163402317e-13
1.469000000000000000e+03 2.185932350158691406e+01 3.748458099365234375e+01 -7.005614350349270714e-14 -3.002405859738391247e-14 -3.002405859738391247e-14 -1.901523778930283570e-13
1.470000000000000000e+03 2.059076690673828125e+01 3.653647232055664062e+01 -1.551243095294137925e-14 5.054050101062183831e-14 1.050842118671072717e-14 3.702967498061225660e-14
1.471000000000000000e+03 2.059041976928710938e+01 3.734767150878906250e+01 -2.491996951674291250e-13 9.907939540424598457e-14 -4.503609128420765773e-14 8.857097591160115191e-14
1.472000000000000000e+03 2.117831993103027344e+01 3.744115829467773438e+01 -1.991596042813861822e-13 -1.311050606186275891e-13 -9.907939540424598457e-14 1.441154866884536423e-13
1.473000000000000000e+03 1.405844020843505859e+01 3.072836399078369141e-01 -5.504410996963601463e-15 1.806447650970141594e-13 5.254210423948774134e-14 -1.000802037949425141e-15
1.474000000000000000e+03 1.476110935211181641e+01 1.035655498504638672e+00 -1.361090737729900302e-13 -1.040834085586084257e-13 -7.205774334422682115e-14 5.004010105043830980e-14
1.475000000000000000e+03 1.336973762512207031e+01 1.069576501846313477e+00 -2.852285871683332696e-14 3.352686848306397904e-14 1.501203056924137712e-15 -2.401924891078620339e-14
1.476000000000000000e+03 1.406567287445068359e+01 1.052222609519958496e+00 -6.955573676704560060e-14 -7.556054984177509870e-14 -4.353488801552528320e-14 4.003208151797700565e-15
1.477000000000000000e+03 1.335768222808837891e+01 3.280228078365325928e-01 2.952365863720038397e-14 -1.245998475837145625e-13 -2.852285871683332696e-14 -1.501202929869195624e-14
1.478000000000000000e+03 1.475869846343994141e+01 2.873312234878540039e-01 7.405934996122451319e-14 -1.401122768425900472e-14 1.801443583605670529e-14 8.606896933441993136e-14
1.479000000000000000e+03 1.112969017028808594e+01 3.708996772766113281e-01 -1.050842118671072717e-14 -4.503608959014176322e-15 -4.503608959014176322e-15 -1.000802037949425141e-15
1.480000000000000000e+03 1.113907623291015625e+01 1.110847473144531250e+00 2.001604075898850282e-14 1.000802021008766196e-13 3.602887167211341057e-14 -7.005613842129502361e-15
1.481000000000000000e+03 1.263169097900390625e+01 3.451149165630340576e-01 -3.252606517456513302e-14 7.756215645877279075e-14 1.351082687704252897e-14 -5.904731727440076794e-14
1.482000000000000000e+03 1.037880802154541016e+01 3.837110698223114014e-01 -2.401924891078620339e-14 -5.604491073703601889e-14 -2.401924891078620339e-14 -1.000802037949425141e-14
1.483000000000000000e+03 1.188065242767333984e+01 3.580341637134552002e-01 -3.152526186606628700e-14 -1.351082687704252897e-14 -1.351082687704252897e-14 2.301844560228735737e-14
1.484000000000000000e+03 1.264514160156250000e+01 1.084993243217468262e+00 -5.504411081666896188e-14 -1.150922347877003649e-13 -5.104090097080536681e-14 -8.907137587178468041e-14
1.485000000000000000e+03 1.038616180419921875e+01 1.123693704605102539e+00 -2.251804564210382886e-14 1.276022608973428896e-13 3.152526186606628700e-14 -1.401122768425900472e-14
1.486000000000000000e+03 1.189207077026367188e+01 1.097947120666503906e+00 -1.651323256737433076e-14 2.216776431472264330e-13 6.154932385158198849e-14 1.110890215537049808e-13
1.487000000000000000e+03 9.618597030639648438e+00 3.900905549526214600e-01 -7.205774334422682115e-14 1.521218996039172544e-13 2.401924891078620339e-14 -1.020818019416107336e-13
1.488000000000000000e+03 9.624691009521484375e+00 1.130090594291687012e+00 0.000000000000000000e+00 0.000000000000000000e+00 0.000000000000000000e+00 -1.190954344691685929e-13
1.489000000000000000e+03 7.314191818237304688e+00 1.130210161209106445e+00 -8.206576287668812530e-14 1.020818019416107336e-13 6.004812227696550847e-15 -3.502807175174635357e-14
1.490000000000000000e+03 7.309560298919677734e+00 3.902101516723632812e-01 4.903929774193946378e-14 2.101684237342145434e-14 2.101684237342145434e-14 -7.706175649858926224e-14
1.491000000000000000e+03 5.003379821777343750e+00 1.130204081535339355e+00 9.007218256841531545e-14 1.301042606982605321e-13 6.605293026949732305e-14 -2.301844560228735737e-14
1.492000000000000000e+03 5.000210762023925781e+00 3.902040421962738037e-01 4.503609128420765773e-14 6.505213034913026604e-14 3.302646513474866152e-14 1.060850151756061177e-13
1.493000000000000000e+03 2.693477392196655273e+00 1.130197167396545410e+00 7.205774334422682115e-14 -1.521218996039172544e-13 -2.401924891078620339e-14 -4.203368474684290867e-14
1.494000000000000000e+03 2.691771030426025391e+00 3.901972174644470215e-01 -1.801443583605670529e-14 3.803047490097931360e-14 6.004812227696550847e-15 -3.102486190588275849e-14
1.495000000000000000e+03 1.923565149307250977e+00 1.130301833152770996e+00 8.857097591160115191e-14 -5.354290754798658736e-14 1.050842118671072717e-14 -4.703769451307356075e-14
1.496000000000000000e+03 1.922346234321594238e+00 3.903018534183502197e-01 6.505213034913026604e-15 4.853889778175593528e-14 1.651323256737433076e-14 -4.003208151797700565e-15
1.497000000000000000e+03 1.153617978096008301e+00 3.902602791786193848e-01 -5.154130431912068433e-14 -1.135910281308862013e-13 -4.953969770212299228e-14 -5.004010189747125706e-15
1.498000000000000000e+03 3.848929405212402344e-01 1.130084395408630371e+00 -7.005613842129502361e-15 -3.002406113848275424e-15 -3.002406113848275424e-15 -2.602085213965210642e-14
1.499000000000000000e+03 3.846491575241088867e-01 3.900844454765319824e-01 -3.452766840343103605e-14 -6.054852393121493148e-14 -2.852285871683332696e-14 3.102486190588275849e-14
1.500000000000000000e+03 4.231048107147216797e+00 3.902170956134796143e-01 1.220978477827969200e-13 9.807859548387892756e-14 6.605293026949732305e-14 -2.101684237342145434e-14
1.501000000000000000e+03 3.464041948318481445e+00 1.130161523818969727e+00 -2.902325867701685547e-14 7.906335633932337625e-14 1.501202929869195624e-14 -1.421138868477195283e-13
1.502000000000000000e+03 4.233729362487792969e+00 1.130217075347900391e+00 -3.953167816966168813e-14 7.455974992140804170e-14 1.050842118671072717e-14 2.502005052521915490e-14
1.503000000000000000e+03 6.539965152740478516e+00 3.901737630367279053e-01 6.505213034913026604e-15 4.853889778175593528e-14 1.651323256737433076e-14 1.901523745048965680e-14
1.504000000000000000e+03 5.774029254913330078e+00 1.130158543586730957e+00 -7.506014649345978118e-15 4.253408470702643718e-14 1.050842118671072717e-14 8.106496295632106830e-14
1.505000000000000000e+03 6.544109344482421875e+00 1.130173802375793457e+00 6.054852393121493148e-14 -6.555253030931379454e-14 -1.501203056924137712e-15 -4.703769451307356075e-14
1.506000000000000000e+03 8.849102020263671875e+00 3.902856111526489258e-01 -2.341876692568689577e-13 -1.461170865291877563e-13 -1.140914348673333079e-13 -5.004010105043830980e-14
1.507000000000000000e+03 8.079525947570800781e+00 3.903127014636993408e-01 -2.431948956452267829e-13 3.302646513474866152e-14 -6.305052373213257400e-14 9.007217918028352643e-15
1.508000000000000000e+03 8.084645271301269531e+00 1.130312681198120117e+00 -7.405934996122451319e-14 1.401122768425900472e-14 -1.801443583605670529e-14 1.100882199392720293e-14
1.509000000000000000e+03 1.154349327087402344e+00 1.130260229110717773e+00 -3.402726844324750755e-14 -1.060850151756061177e-13 -4.203368474684290867e-14 1.291034607778934751e-13
1.510000000000000000e+03 3.461848020553588867e+00 3.901615142822265625e-01 1.296038607380770036e-13 5.554451077685249039e-14 5.554451077685249039e-14 -5.504411081666896188e-14
1.511000000000000000e+03 5.770372390747070312e+00 3.901585340499877930e-01 -1.651323256737433076e-14 -9.857899544406245607e-14 -3.452766840343103605e-14 -4.503609128420765773e-14
1.512000000000000000e+03 8.854709625244140625e+00 1.130285620689392090e+00 -5.954771723458429644e-14 -2.552045048540268340e-14 -2.552045048540268340e-14 -3.002405859738391247e-14
1.513000000000000000e+03 2.379735183715820312e+01 3.522281646728515625e+01 7.681152263717960782e-14 -2.415864817223445371e-13 -4.943248365979133196e-14 -1.789169695035129452e-15
1.514000000000000000e+03 2.409597587585449219e+01 3.610876464843750000e+01 -1.512154117200292802e-13 -1.334330324183341521e-13 -8.539453459676174529e-14 1.014752382599501401e-13
1.515000000000000000e+03 2.288148307800292969e+01 3.515899276733398438e+01 -1.063634111884460831e-13 -2.285881174016873851e-13 -1.004854565441609671e-13 1.016443433056717777e-14
1.516000000000000000e+03 2.279606437683105469e+01 3.565671157836914062e+01 -1.612981293940430466e-14 8.458912146040373226e-14 2.053779272570641773e-14 7.523116922177400245e-14
1.517000000000000000e+03 2.475719642639160156e+01 3.528278350830078125e+01 -2.178216510157274244e-13 -9.335213808567277560e-14 -9.335213808567277560e-14 2.182528280553295424e-14
1.518000000000000000e+03 2.484765815734863281e+01 3.602330017089843750e+01 -5.359330262021642921e-14 -9.308322328318834201e-17 -1.610591475183047183e-14 4.104477039279172401e-14
1.519000000000000000e+03 2.344563865661621094e+01 3.617461013793945312e+01 -5.971602606933551494e-14 6.590931413922446191e-14 1.857985616285384202e-15 -1.176445822270028030e-13
1.520000000000000000e+03 2.272212982177734375e+01 3.614258575439453125e+01 -7.761938878095286931e-14 5.823644246959885917e-14 -5.814883300483139963e-15 6.375820959516817488e-14
1.521000000000000000e+03 2.359992408752441406e+01 3.574789810180664062e+01 -1.269486496176600032e-13 -2.831612982284736901e-13 -1.230329857090928236e-13 -8.808563280908801585e-14
1.522000000000000000e+03 2.713174057006835938e+01 3.578996658325195312e+01 -6.758747614311541585e-14 1.540377390528077650e-13 2.593507819528134695e-14 -1.771887554757357874e-14
1.523000000000000000e+03 2.639669990539550781e+01 3.588855361938476562e+01 -1.028405605032339798e-13 -8.982547236406623892e-14 -5.779980714968463440e-14 5.835476958419849591e-14
1.524000000000000000e+03 2.560692596435546875e+01 3.524289321899414062e+01 -7.869663850700731045e-14 1.950276149343538323e-13 3.489929225057759876e-14 2.552976445969069169e-14
1.525000000000000000e+03 2.704477500915527344e+01 3.505500793457031250e+01 -6.186841810347162851e-14 -1.637678843447246124e-13 -6.769088870157979887e-14 1.376117508790006272e-13
1.526000000000000000e+03 2.786719703674316406e+01 3.568653869628906250e+01 3.216571025374884152e-14 1.052871982307190812e-13 4.123587457821945024e-14 8.623190459215376857e-14
1.527000000000000000e+03 2.776436805725097656e+01 3.495370483398437500e+01 -4.989615627138191400e-14 -6.713501824774648075e-14 -3.510934964523308721e-14 6.720186608794379013e-14
1.528000000000000000e+03 2.632559776306152344e+01 3.515146636962890625e+01 -3.417022049968972131e-14 7.685751991434730535e-14 1.280618948558409631e-14 1.751371739148500917e-14
1.529000000000000000e+03 2.566216468811035156e+01 3.598210525512695312e+01 -1.350769404098381421e-13 -1.036410676247614959e-13 -7.161540241037989141e-14 -3.393496895705110095e-14
1.530000000000000000e+03 2.933965110778808594e+01 3.544803619384765625e+01 1.879377560423233645e-14 -3.769647286921799789e-14 -5.670809348902287883e-15 3.012140301181416568e-14
1.531000000000000000e+03 2.922042655944824219e+01 3.471769332885742188e+01 -3.390937500951686501e-14 8.342885742332068616e-15 -7.669946864858733643e-15 -3.543653136770311129e-14
1.532000000000000000e+03 2.848941230773925781e+01 3.484096145629882812e+01 1.136532376186643462e-14 5.062180262103109507e-14 1.859613740664949055e-14 4.844404025605882069e-14
1.533000000000000000e+03 3.068212890625000000e+01 3.447154998779296875e+01 -1.596806860999430699e-14 -2.971893361286039037e-14 -1.370610100566958811e-14 -1.748842769818542697e-13
1.534000000000000000e+03 2.995129966735839844e+01 3.459505081176757812e+01 -9.229706707030924107e-14 9.769696309542760804e-14 1.619968193436623332e-15 5.020393077496444756e-14
1.535000000000000000e+03 3.081263542175292969e+01 3.519998931884765625e+01 -8.987720236022095355e-14 9.873404313099146123e-14 2.657052146527857581e-15 -2.818628339897825269e-14
1.536000000000000000e+03 2.860299301147460938e+01 3.557225799560546875e+01 -1.658051917063831787e-14 -9.860783522185057048e-14 -3.455650479308736145e-14 -3.441615143372732388e-14
1.537000000000000000e+03 3.007616424560546875e+01 3.532444381713867188e+01 3.705951425727813109e-14 -2.986829940277921369e-14 2.157364541052969945e-15 -6.316097682845453476e-14
1.538000000000000000e+03 3.228277587890625000e+01 3.491655731201171875e+01 -2.213873886731249074e-13 -9.488030749526393803e-14 -9.488030749526393803e-14 1.699412197065080371e-14
1.539000000000000000e+03 3.141323661804199219e+01 3.433660507202148438e+01 -1.441949044975882055e-13 2.127078759439279820e-13 2.055389482203372198e-14 -1.171053678290442934e-13
1.540000000000000000e+03 3.301699829101562500e+01 3.477141952514648438e+01 -1.923910927488850509e-13 1.005504747931922072e-13 -2.755218437026831640e-14 1.795352230868785953e-14
1.541000000000000000e+03 3.287635040283203125e+01 3.404490280151367188e+01 -1.210262630130937156e-13 -2.348722074035219931e-13 -1.067695397697319970e-13 6.783767866430602186e-15
1.542000000000000000e+03 3.360715103149414062e+01 3.390307235717773438e+01 -9.547427410293296557e-14 2.107126728960115325e-13 3.457151760504449667e-14 4.370728632534584546e-14
1.543000000000000000e+03 3.375072097778320312e+01 3.462901306152343750e+01 -1.619710089792100738e-13 -2.366520099729516741e-14 -5.569086451761087742e-14 1.992503553913550080e-14
1.544000000000000000e+03 3.214505767822265625e+01 3.418946456909179688e+01 -1.291769019225522119e-13 8.189131474713520764e-14 -1.418567835491076415e-14 8.368500526876807011e-14
1.545000000000000000e+03 3.154802894592285156e+01 3.506427764892578125e+01 -1.803142325122047973e-13 5.997531301888542332e-14 -3.610167584799581220e-14 -3.744715719152316713e-15
1.546000000000000000e+03 3.448552703857421875e+01 3.448280334472656250e+01 -2.541298063912095229e-13 5.464593248662597685e-15 -7.459956724619257185e-14 1.084903786816374116e-13
1.547000000000000000e+03 3.581328582763671875e+01 3.345945358276367188e+01 -1.437288737462724675e-13 7.565475345803693297e-14 -2.042223710291019706e-14 7.833614806091945826e-14
1.548000000000000000e+03 3.434083938598632812e+01 3.375708389282226562e+01 -1.609204712841802443e-13 1.140378752800125239e-13 -1.406478049531621061e-14 6.425717976373673812e-14
1.549000000000000000e+03 3.654941177368164062e+01 3.331057739257812500e+01 -1.365454380423611336e-13 -8.139494666378060961e-14 -6.538211405658980735e-14 1.720464726630635544e-13
1.550000000000000000e+03 3.595657730102539062e+01 3.418545532226562500e+01 -1.818999459521006279e-13 5.929572832090793111e-14 -3.678126393410509343e-14 9.617338121627877490e-14
1.551000000000000000e+03 3.669200897216796875e+01 3.403672027587890625e+01 -8.729944393250088641e-14 1.913407041316539381e-13 3.121237805974591550e-14 1.133773928690615107e-14
1.552000000000000000e+03 3.522108078002929688e+01 3.433415222167968750e+01 -2.337115960829305727e-13 -7.728664035795348997e-14 -9.329947296514429222e-14 1.097279090641689950e-14
1.553000000000000000e+03 3.507709503173828125e+01 3.360829162597656250e+01 -1.084552234261945691e-13 4.502108524851410054e-14 -1.903024179211731948e-14 5.101777358321353539e-14
1.554000000000000000e+03 3.742828750610351562e+01 3.389342117309570312e+01 -8.025358670801438499e-14 -1.030208158906732729e-13 -5.498232145723265518e-14 2.865852628992915374e-14
1.555000000000000000e+03 3.802332687377929688e+01 3.303014373779296875e+01 -5.564769633048700925e-14 -1.153509118735282502e-13 -5.129958144476504112e-14 1.620760783341192862e-14
1.556000000000000000e+03 3.728625106811523438e+01 3.316717147827148438e+01 -7.614941392296986633e-14 5.886643847071229563e-14 -5.184893228600334289e-15 4.559592585223412597e-14
1.557000000000000000e+03 3.890202331542968750e+01 3.361664962768554688e+01 -5.167915723722042720e-14 -2.214821072854186723e-14 -2.214821072854186723e-14 3.121474636386643853e-14
1.558000000000000000e+03 3.963956451416015625e+01 3.347409820556640625e+01 -5.318936954832979846e-14 9.158192731733780234e-14 1.151776682248263281e-14 6.317012901944961747e-15
1.559000000000000000e+03 3.949879837036132812e+01 3.274760437011718750e+01 -9.661527999892723789e-15 -4.989160262225747489e-14 -1.786593910194176488e-14 1.153564429986738207e-14
1.560000000000000000e+03 3.876083374023437500e+01 3.289023590087890625e+01 -1.020789762396986933e-13 2.002816603562844813e-15 -3.002284903433523333e-14 -6.757535256054136505e-15
1.561000000000000000e+03 3.816493988037109375e+01 3.375647735595703125e+01 -5.809991431102862203e-14 1.581038360128073084e-13 3.000117515528089029e-14 -3.463999174850053431e-14
1.562000000000000000e+03 4.037628555297851562e+01 3.333070373535156250e+01 -2.180891812899200116e-14 -1.923504758249983126e-13 -6.424781496747189458e-14 5.705162633550669993e-14
1.563000000000000000e+03 4.171068954467773438e+01 3.231314468383789062e+01 -6.256641390959064020e-14 1.104386696568031290e-13 1.436167740179010444e-14 -1.069700494090060350e-13
1.564000000000000000e+03 4.023619079589843750e+01 3.260407638549804688e+01 -5.434338756445979135e-14 2.054647142528398529e-13 4.533639834532719737e-14 1.141781845936593043e-13
1.565000000000000000e+03 4.244785308837890625e+01 3.216765213012695312e+01 -1.111867708498840215e-14 -5.051609629734554741e-14 -1.849043277702983740e-14 -4.840594410222311128e-14
1.566000000000000000e+03 4.184893417358398438e+01 3.304013442993164062e+01 -8.604606217539438606e-15 -2.324424290198190413e-13 -7.231410972417459671e-14 -4.268890538912557819e-14
1.567000000000000000e+03 4.258517456054687500e+01 3.289482498168945312e+01 -6.856035785754097112e-14 2.908736348571777652e-13 6.669397835650653361e-14 -2.290517866251461782e-14
1.568000000000000000e+03 4.111263656616210938e+01 3.318542480468750000e+01 -9.788367663263368239e-17 1.829618406648872431e-13 5.485918997175619205e-14 -2.265266967060863834e-14
1.569000000000000000e+03 4.097346878051757812e+01 3.245861816406250000e+01 -6.518182125775026647e-14 -2.109388645742463209e-13 -8.283620371671990279e-14 5.574112406456915858e-14
1.570000000000000000e+03 4.332307434082031250e+01 3.275568008422851562e+01 -1.493782582438069051e-13 -2.012720908993112512e-13 -1.051951020324300157e-13 -6.609072826773559894e-15
1.571000000000000000e+03 4.318753814697265625e+01 3.202817916870117188e+01 -3.363505830735087632e-14 2.143397221862630708e-13 5.421139950248683725e-14 6.124191187810087977e-14
1.572000000000000000e+03 4.392967605590820312e+01 3.189475250244140625e+01 2.941814543702681028e-14 -7.889411915646196705e-14 -1.484279380989644154e-14 1.868213429009196735e-13
1.573000000000000000e+03 4.480221557617187500e+01 3.249026870727539062e+01 1.099324421099424909e-13 -1.358898887512949294e-13 -7.787234670032089356e-15 6.810060192629849296e-14
1.574000000000000000e+03 4.541445922851562500e+01 3.162938690185546875e+01 7.461598613284214920e-14 -3.664814423611460759e-14 1.139035358545779919e-14 1.209083289217816048e-13
1.575000000000000000e+03 4.554204177856445312e+01 3.235831069946289062e+01 1.839259538942428218e-13 3.307445802154009018e-14 6.510011984778990568e-14 -4.121365520994707543e-14
1.576000000000000000e+03 4.406255722045898438e+01 3.262272644042968750e+01 -6.612119434878244162e-14 1.089151894216079663e-13 1.283819886066083632e-14 9.479610564404328255e-14
1.577000000000000000e+03 4.467198181152343750e+01 3.176181983947753906e+01 5.007393154635164656e-14 3.188414159430164041e-13 1.106746056020631308e-13 1.261469498737427530e-13
1.578000000000000000e+03 4.628276062011718750e+01 3.223004150390625000e+01 8.807359138870984872e-14 2.207496202976874655e-13 9.264696621642462548e-14 -5.415909013579620068e-14
1.579000000000000000e+03 4.764949035644531250e+01 3.125085830688476562e+01 -2.266757406234852501e-14 -1.012165747266494109e-13 -3.716524429788620187e-14 2.284587110961376621e-14
1.580000000000000000e+03 4.615840911865234375e+01 3.150056076049804688e+01 -4.049224741316595488e-14 -2.003576205769283525e-13 -7.225495971940193440e-14 -5.607166681377388773e-15
1.581000000000000000e+03 4.839503097534179688e+01 3.112652587890625000e+01 -4.414573768389898345e-14 1.183332403419112833e-13 2.225625316909594226e-14 1.060983779673820016e-13
1.582000000000000000e+03 4.776623153686523438e+01 3.198161315917968750e+01 -8.296642995016256794e-14 2.389486449417416170e-13 4.679466720797914592e-14 1.538507616118990617e-14
1.583000000000000000e+03 4.850796127319335938e+01 3.185791587829589844e+01 -1.210761905231366731e-13 -2.806445397254830887e-13 -1.205162136535750661e-13 7.844335532698754054e-14
1.584000000000000000e+03 4.702449035644531250e+01 3.210565567016601562e+01 -9.490668748937322596e-14 -1.779882021120133412e-14 -3.381165451245803089e-14 -3.449271643589553460e-14
1.585000000000000000e+03 4.690394592285156250e+01 3.137553787231445312e+01 -6.006647409280072014e-14 2.945138707563521585e-13 7.033422103194450492e-14 -1.879276763502510383e-13
1.586000000000000000e+03 4.925159072875976562e+01 3.174488639831542969e+01 -5.733491481065000617e-14 6.692979232902213083e-14 2.878463382566579486e-15 -3.957788551100030472e-14
1.587000000000000000e+03 4.914293289184570312e+01 3.101285552978515625e+01 -2.176283784259547271e-14 3.642401931827111972e-14 4.398354103889515199e-15 2.310518685828388125e-15
1.588000000000000000e+03 4.989311599731445312e+01 3.090981101989746094e+01 -5.098481722530176508e-14 1.154022081888139706e-13 1.932521762786684055e-14 -1.529630880238355001e-14
1.589000000000000000e+03 5.074266433715820312e+01 3.154084205627441406e+01 -1.936681338302742583e-13 -8.300062975244090757e-14 -8.300062975244090757e-14 5.659338151104212344e-14
1.590000000000000000e+03 5.139404296875000000e+01 3.070597648620605469e+01 -2.614475950730825449e-14 8.029700222875885141e-14 1.624567179999564237e-14 1.680819485059669577e-14
1.591000000000000000e+03 5.148847579956054688e+01 3.143994712829589844e+01 -1.565424629116837774e-13 7.016322202055280677e-14 -2.591377023446021777e-14 4.547306541730078422e-14
1.592000000000000000e+03 4.999703216552734375e+01 3.164248847961425781e+01 -8.405846548334428014e-14 9.725891492455736309e-15 -2.229977372192586821e-14 2.744567336528287715e-14
1.593000000000000000e+03 5.064348983764648438e+01 3.080751800537109375e+01 -3.776194851604075531e-14 -1.618369270517915071e-14 -1.618369270517915071e-14 4.125235953343891343e-15
1.594000000000000000e+03 5.373043823242187500e+01 3.117490577697753906e+01 -1.255728783759388345e-13 -8.065999989237057632e-15 -4.009166520361866215e-14 5.210365626906639236e-14
1.595000000000000000e+03 5.214544677734375000e+01 3.061188697814941406e+01 -8.207093994206174359e-14 1.478305325375295354e-13 1.972787845626669534e-14 1.069609082294392666e-13
1.596000000000000000e+03 5.440248107910156250e+01 3.035354614257812500e+01 -3.729081185011896837e-14 2.976917283102793743e-14 -2.256491748078956645e-15 3.015683270593191856e-14
1.597000000000000000e+03 5.365017700195312500e+01 3.043926048278808594e+01 -3.223729470218719695e-14 -1.381598404881804673e-14 -1.381598404881804673e-14 1.111316374753472391e-13
1.598000000000000000e+03 5.447802734375000000e+01 3.108973121643066406e+01 -2.524708076607172502e-14 -5.657112487332006945e-14 -2.454546135300435944e-14 1.024301154420488580e-13
1.599000000000000000e+03 5.298280715942382812e+01 3.126048088073730469e+01 -4.930566249879662910e-14 9.324637416374681465e-14 1.318221366889164511e-14 -1.913765912235632083e-14
1.600000000000000000e+03 5.223514938354492188e+01 3.134645080566406250e+01 2.168125247614888576e-15 -2.194627807391644203e-14 -5.933445890242113399e-15 3.683322347618851397e-15
1.601000000000000000e+03 5.289782714843750000e+01 3.052537536621093750e+01 -6.472228894320586345e-14 1.801282477939102761e-14 -1.401283958795762966e-14 -9.499551752861767895e-14
1.602000000000000000e+03 5.597676467895507812e+01 3.095117187500000000e+01 -2.615377024380114573e-14 1.717950326267370098e-13 4.369237854547416977e-14 4.343508042928441448e-14
1.603000000000000000e+03 5.591128540039062500e+01 3.021406745910644531e+01 -5.034729279535313240e-14 -1.588302514683725963e-13 -6.275326260149136082e-14 -6.077056175987638476e-14
1.604000000000000000e+03 5.515621185302734375e+01 3.027851104736328125e+01 -1.954698948818285598e-14 1.746265079153458410e-13 4.652385722221479003e-14 1.376155320340771704e-13
1.605000000000000000e+03 5.666648483276367188e+01 3.015038108825683594e+01 -6.148204233051568490e-14 1.337788793588298719e-13 2.168905110849425610e-14 2.748590150104682564e-16
1.606000000000000000e+03 5.672682952880859375e+01 3.088792037963867188e+01 -1.036062308537068211e-13 -1.816555125723137709e-13 -8.557852370543253540e-14 -7.597066964230847486e-14
1.607000000000000000e+03 5.742179489135742188e+01 3.008745574951171875e+01 -9.390880136234472375e-14 -2.690013739103241930e-13 -1.088730546146797484e-13 -3.990770320000218419e-14
1.608000000000000000e+03 5.747700500488281250e+01 3.082542610168457031e+01 -7.886376149563237292e-14 2.864578962490788028e-13 6.227823974840757115e-14 2.025723000258737583e-14
1.609000000000000000e+03 5.522682952880859375e+01 3.101518249511718750e+01 -1.604123362191223895e-14 -1.212521836407853826e-13 -4.118802738109494932e-14 1.104709009545120496e-14
1.610000000000000000e+03 5.893249130249023438e+01 2.998887443542480469e+01 -1.358216314482733889e-14 -9.732282525449359456e-14 -3.327149482573038553e-14 2.540540816457249884e-14
1.611000000000000000e+03 5.817713546752929688e+01 3.003364562988281250e+01 -6.035334721137680658e-14 1.988522668468044319e-14 -1.214043683563526682e-14 1.006788240016237568e-13
1.612000000000000000e+03 6.044357681274414062e+01 2.990149307250976562e+01 1.109394152064291372e-13 4.754546365989820167e-14 4.754546365989820167e-14 8.878986277769881919e-14
1.613000000000000000e+03 5.972956466674804688e+01 3.068365669250488281e+01 -1.693019300598973265e-14 -1.445086455012511983e-13 -4.843164985810638479e-14 2.643384168781078014e-14
1.614000000000000000e+03 5.822756195068359375e+01 3.077196121215820312e+01 -7.872335053803192206e-14 -7.948952910827311591e-14 -4.746386389389151139e-14 3.419538754261854108e-14
1.615000000000000000e+03 6.048074340820312500e+01 3.064058303833007812e+01 1.340785528393048653e-13 1.947150801056077296e-13 9.863809123872649409e-14 8.540927297004397012e-14
1.616000000000000000e+03 5.897850036621093750e+01 3.072744750976562500e+01 -7.502411371188358324e-14 1.359775702138629055e-14 -1.842790649892941945e-14 6.549219445841497622e-14
1.617000000000000000e+03 5.968797683715820312e+01 2.994482421875000000e+01 6.208334085537614566e-14 2.096109473059132311e-13 8.150828644838681303e-14 1.553899695548588422e-13
1.618000000000000000e+03 6.198369598388671875e+01 3.057719421386718750e+01 3.302771874351059789e-14 -7.734715916796891522e-14 -1.329583212733749520e-14 1.085080863289162364e-15
1.619000000000000000e+03 6.195486831665039062e+01 2.983775329589843750e+01 3.006829743415311007e-14 1.043883133145656616e-13 4.033698288580245261e-14 -3.512594132660390445e-14
1.620000000000000000e+03 6.119919967651367188e+01 2.986580848693847656e+01 1.171991885864139687e-14 5.022822367989170089e-15 5.022822367989170089e-15 5.882292808227773673e-14
1.621000000000000000e+03 6.271061706542968750e+01 2.981033325195312500e+01 9.443785136493618171e-14 -2.340323301906060971e-13 -4.187834229244825901e-14 9.440126631787837397e-14
1.622000000000000000e+03 6.273536300659179688e+01 3.054992294311523438e+01 1.037867505154256575e-13 2.274838303839565867e-13 9.938117630269374669e-14 6.267297150138817843e-15
1.623000000000000000e+03 6.346643829345703125e+01 2.978354644775390625e+01 4.912946609324057856e-14 2.040592765291740496e-13 7.595662244791120954e-14 -9.125072388243421484e-14
1.624000000000000000e+03 6.348709869384765625e+01 3.052328491210937500e+01 9.415100535141440741e-14 -3.256571715851835913e-13 -6.945184309386717714e-14 2.743706073427519543e-14
1.625000000000000000e+03 6.123211288452148438e+01 3.060509872436523438e+01 1.182857929443378864e-13 5.069390884176495915e-14 5.069390884176495915e-14 5.938412467928338989e-15
1.626000000000000000e+03 6.573279571533203125e+01 2.974275588989257812e+01 1.804238453518430818e-13 -1.417739098455482807e-14 4.987393690310953920e-14 1.135235500981761347e-13
1.627000000000000000e+03 6.497737884521484375e+01 2.975337600708007812e+01 1.355094286564426098e-13 3.783321041433279630e-13 1.541524611951838875e-13 -9.599668336721794981e-15
1.628000000000000000e+03 6.422202301025390625e+01 2.976457405090332031e+01 6.027055482298038225e-14 -3.859282956143045284e-13 -9.769732223739724386e-14 7.899066058365822318e-14
1.629000000000000000e+03 6.648828125000000000e+01 2.973270988464355469e+01 1.671138948793407519e-13 1.173711870966834270e-13 8.534552865856540049e-14 -3.797843997296358742e-14
1.630000000000000000e+03 6.574242401123046875e+01 3.048269271850585938e+01 2.007992161217816984e-13 2.233096520198873947e-13 1.272326563767425811e-13 5.514782491886256743e-15
1.631000000000000000e+03 6.499060058593750000e+01 3.049326515197753906e+01 1.849829561447260962e-13 -1.037253846724629780e-13 2.437726940879986204e-14 5.099416508090766353e-14
1.632000000000000000e+03 6.649430847167968750e+01 3.047269821166992188e+01 2.516598583170159831e-13 -1.666514691002485282e-13 2.550252049197520438e-14 -2.268960708337250387e-14
1.633000000000000000e+03 6.423884582519531250e+01 3.050441169738769531e+01 6.220806476279344688e-14 2.096643984730167665e-13 8.156173761549034840e-14 -2.390432686863452894e-14
1.634000000000000000e+03 6.724551391601562500e+01 3.046955871582031250e+01 2.427504540696706625e-13 2.870397062398888366e-13 1.589370453823624185e-13 -3.759446977357784603e-14
1.635000000000000000e+03 6.799361419677734375e+01 2.973403739929199219e+01 9.630576907780283302e-14 1.785267490480094144e-13 8.244975340486460080e-14 -8.506716652704332526e-14
1.636000000000000000e+03 6.949829101562500000e+01 3.047536849975585938e+01 -1.992902082915233228e-15 -9.235600023464740627e-14 -2.830466980588419723e-14 -5.780291745466695219e-14
1.637000000000000000e+03 6.724207305908203125e+01 2.972954559326171875e+01 5.095842706679711009e-14 -1.154135245489892880e-13 -1.933652721177857997e-14 -1.170638699908924107e-13
1.638000000000000000e+03 6.874613189697265625e+01 2.973592948913574219e+01 3.612724269047573600e-14 -1.675206875344573132e-13 -3.941803345319447316e-14 -1.027052114145263206e-13
1.639000000000000000e+03 6.874639892578125000e+01 3.047593116760253906e+01 3.957914928415760814e-14 1.084643917108156497e-13 4.441306128205244064e-14 2.016038703166189716e-14
1.640000000000000000e+03 6.949961853027343750e+01 2.973537063598632812e+01 -3.345312240654423064e-14 -1.058389487162969544e-13 -4.178762167566553443e-14 -8.908008337048245462e-14
1.641000000000000000e+03 6.799546813964843750e+01 3.047404479980468750e+01 7.721080041598812893e-14 -1.041625011070912432e-13 -8.085511393177060441e-15 -7.338286879196576074e-14
1.642000000000000000e+03 7.174984741210937500e+01 3.047872543334960938e+01 -5.702356582803005947e-14 -7.018962234345282880e-14 -3.816395712907122428e-14 -5.074421582256828656e-14
1.643000000000000000e+03 7.100203704833984375e+01 2.973611640930175781e+01 -3.386966610494958341e-14 1.227372695665474023e-13 2.666028239373206127e-14 6.050647043944964998e-14
1.644000000000000000e+03 7.025117492675781250e+01 2.973616600036621094e+01 3.515532659361005063e-14 -1.221862780224902689e-13 -2.610928576747724439e-14 -6.533654283699457874e-15
1.645000000000000000e+03 7.250080108642578125e+01 2.974415397644042969e+01 6.549911979979172738e-14 7.382200455314028020e-14 4.179633595062688667e-14 1.922453759769029991e-14
1.646000000000000000e+03 7.175191497802734375e+01 2.973872756958007812e+01 -6.615870689691749282e-15 -1.400882177187562361e-13 -4.401122546374321154e-14 -6.315926921003287009e-14
1.647000000000000000e+03 7.099994659423828125e+01 3.047611427307128906e+01 2.506324242926554619e-14 -3.500955899965116358e-14 -2.983895055818979944e-15 -1.462351730864303728e-14
1.648000000000000000e+03 7.249875640869140625e+01 3.048415184020996094e+01 -1.101223468967169050e-13 -4.719529007510790686e-14 -4.719529007510790686e-14 -2.884392486142417500e-14
1.649000000000000000e+03 7.024906921386718750e+01 3.047616195678710938e+01 4.406887960833102275e-15 1.391415059342690497e-13 4.306452045551960317e-14 7.424568365709330320e-14
1.650000000000000000e+03 7.400031280517578125e+01 2.974510765075683594e+01 3.158361227173674124e-14 5.928678365298492570e-14 2.726111843860332118e-14 -5.321343460139424039e-15
1.651000000000000000e+03 7.399919891357421875e+01 3.048510742187500000e+01 5.428779848619738613e-14 2.326619935122745120e-14 2.326619935122745120e-14 -2.292103850741900734e-14
1.652000000000000000e+03 7.325025939941406250e+01 2.974634933471679688e+01 -3.794716412841916964e-14 -1.077649661130816727e-13 -4.371363907245025271e-14 5.003627584964850938e-14
1.653000000000000000e+03 7.474887084960937500e+01 3.048646545410156250e+01 9.212773501975773938e-14 -5.201858027984417043e-14 1.203274676078724958e-14 2.084983796940900747e-14
1.654000000000000000e+03 7.474937438964843750e+01 2.974646377563476562e+01 4.555631859162051489e-14 1.110260361837471510e-13 4.697470575498394196e-14 1.011330708305772930e-13
1.655000000000000000e+03 7.549745178222656250e+01 2.975057029724121094e+01 1.332445574231747032e-13 1.135386171202418942e-14 4.337952523233989943e-14 3.971197421468244948e-14
1.656000000000000000e+03 7.549755859375000000e+01 3.049057197570800781e+01 1.787479262911964573e-13 -1.489564188954153184e-14 4.915568684515578268e-14 6.390184605423177011e-14
1.657000000000000000e+03 7.324853515625000000e+01 3.048634719848632812e+01 2.931995060151751376e-14 1.256569311493607732e-14 1.256569311493607732e-14 -5.055671999749586365e-14
1.658000000000000000e+03 7.958734130859375000e+01 2.974535942077636719e+01 1.406714456427199736e-14 6.028776483840269512e-15 6.028776483840269512e-15 3.836999619942493833e-14
1.659000000000000000e+03 7.711063385009765625e+01 3.049304008483886719e+01 7.982196582314790567e-14 -1.154153456698258848e-14 2.048412980036606879e-14 -1.841269717532852124e-14
1.660000000000000000e+03 7.628511047363281250e+01 3.049243354797363281e+01 1.299426332593972555e-13 -3.581219725607397153e-14 2.823913317268923751e-14 -2.136553365055405412e-14
1.661000000000000000e+03 7.793627166748046875e+01 3.049355506896972656e+01 9.448080779382323630e-17 -4.571045825923006345e-14 -1.368479304484845893e-14 1.101357448403600999e-15
1.662000000000000000e+03 7.793605804443359375e+01 2.974855613708496094e+01 1.376077444131601143e-14 -2.686082150975266369e-13 -7.645423058750058787e-14 -7.289936205688227200e-14
1.663000000000000000e+03 7.958737945556640625e+01 3.049435806274414062e+01 2.343628695516790372e-14 5.579507328704567948e-14 2.376940807266407496e-14 2.682794578937747199e-14
1.664000000000000000e+03 7.876189422607421875e+01 2.974693298339843750e+01 7.311791688606461559e-15 -8.836827076292783079e-14 -2.431694372229641077e-14 2.305287240939556115e-14
1.665000000000000000e+03 7.876201629638671875e+01 3.049393272399902344e+01 5.491192200788750852e-15 -4.339758058664357210e-14 -1.137191621929491483e-14 -9.186827019328890759e-15
1.666000000000000000e+03 7.628472900390625000e+01 2.975143051147460938e+01 8.984913507648073505e-14 1.300086747242287788e-13 6.595734429546556976e-14 -7.575608570358285943e-14
1.667000000000000000e+03 7.711034393310546875e+01 2.975003814697265625e+01 3.574330298427609576e-14 -3.049380951740399137e-13 -8.075843189710510406e-14 4.793835481028442536e-15
1.668000000000000000e+03 2.119142532348632812e+01 3.498386383056640625e+01 3.921175043735194987e-14 -5.182138762159158030e-14 -3.782891494085068029e-15 -6.721547960147206124e-14
1.669000000000000000e+03 2.201044082641601562e+01 3.508184432983398438e+01 -1.649785722531577070e-14 -5.282145909362399860e-14 -2.079579557330828860e-14 -6.907912826828455088e-14
1.670000000000000000e+03 2.142804527282714844e+01 3.565596389770507812e+01 -5.428254688192440947e-14 -3.884741382640885272e-16 -1.640130563372414751e-14 -7.432433574844354851e-14
1.671000000000000000e+03 2.078809165954589844e+01 3.571563339233398438e+01 2.247004089685113865e-14 3.250549243834222057e-14 1.649265983115141831e-14 5.437952791922029058e-15
1.672000000000000000e+03 2.061665916442871094e+01 3.493267059326171875e+01 -3.977467836970179083e-14 -1.704629072987219607e-14 -1.704629072987219607e-14 -2.125620710805194158e-14
1.673000000000000000e+03 2.194780921936035156e+01 3.606669235229492188e+01 -3.829596890796670150e-14 -1.641255761939547364e-14 -1.641255761939547364e-14 -2.920034954936520655e-14
1.674000000000000000e+03 2.204035186767578125e+01 3.559127044677734375e+01 2.078142989452285566e-14 -1.283465250311727202e-13 -3.226952599989611759e-14 -3.607447253786179309e-14
1.675000000000000000e+03 1.185737037658691406e+01 -1.162281751632690430e+00 -6.548925356002210929e-14 -7.381776938840400870e-14 -4.179210756215419320e-14 2.134508288707554630e-14
1.676000000000000000e+03 1.112013435363769531e+01 -4.102526009082794189e-01 -1.548458626945969918e-13 7.089032865500305425e-14 -2.518666190594407578e-14 -9.685838692511869463e-14
1.677000000000000000e+03 1.261753940582275391e+01 -4.348734915256500244e-01 -7.721625530816844662e-14 1.265826873387328882e-14 -1.936739478644242118e-14 -4.386268976611269743e-14
1.678000000000000000e+03 1.037124824523925781e+01 -3.971002995967864990e-01 -1.510791851051882656e-14 8.502707815171567374e-14 2.097574602888657019e-14 -5.256462853962112769e-14
1.679000000000000000e+03 1.036389350891113281e+01 -1.137082934379577637e+00 -1.253615944775757218e-13 2.207793003321592562e-13 2.862531243400141812e-14 -6.212650565436822481e-14
1.680000000000000000e+03 1.260408973693847656e+01 -1.174751639366149902e+00 -1.358467375048300063e-13 -1.497219232274304979e-13 -8.567059957493086686e-14 -9.319921814550727324e-14
1.681000000000000000e+03 1.111074829101562500e+01 -1.150200366973876953e+00 6.650997146014385117e-15 -1.344024175807534416e-13 -3.832542532574041705e-14 -3.337141760845208083e-14
1.682000000000000000e+03 1.186878871917724609e+01 -4.223687946796417236e-01 -7.873428742744686959e-14 -1.252451647167779347e-13 -6.119383428801472569e-14 6.653945921813661513e-14
1.683000000000000000e+03 1.334497451782226562e+01 -4.469633400440216064e-01 -1.670303164443692756e-13 -7.158442133330111812e-14 -7.158442133330111812e-14 -1.119919095475671242e-14
1.684000000000000000e+03 1.475374603271484375e+01 -1.216524124145507812e+00 -8.397823452258035282e-14 1.012621722042660044e-13 5.185182490351821633e-15 8.892998913222899260e-14
1.685000000000000000e+03 1.333291912078857422e+01 -1.188516736030578613e+00 6.851244289778068985e-14 -1.638847477863913937e-14 1.563719043574246514e-14 2.189306915823582139e-14
1.686000000000000000e+03 1.475615692138671875e+01 -4.681999981403350830e-01 -6.489060963641834351e-15 -2.781026006270365114e-15 -2.781026006270365114e-15 1.703055624584400018e-14
1.687000000000000000e+03 1.405081462860107422e+01 -4.579705297946929932e-01 -1.052969560502714508e-13 4.637463034569931641e-14 -1.767669669493210360e-14 3.390747087945143734e-14
1.688000000000000000e+03 1.404358196258544922e+01 -1.202909350395202637e+00 1.275985000710570805e-14 1.884722982065448194e-13 6.036964412528197932e-14 4.991187381475116480e-14
1.689000000000000000e+03 9.580132484436035156e+00 -3.899298310279846191e-01 3.121091777494484909e-14 1.506289532124047148e-13 5.455196095739169027e-14 -2.616090734341471047e-14
1.690000000000000000e+03 8.747078895568847656e+00 -3.898048996925354004e-01 8.615115863535791063e-14 8.267287543569853958e-14 5.064721022131693506e-14 -6.983138161687288403e-14
1.691000000000000000e+03 7.913746833801269531e+00 -3.896712362766265869e-01 7.136798069835512126e-14 7.633722484429866784e-14 4.431156301804885234e-14 9.127649401282147967e-14
1.692000000000000000e+03 7.080257892608642578e+00 -3.895880579948425293e-01 3.532535236414535360e-15 4.726489246644968722e-14 1.523922894613397722e-14 -2.244835007713785052e-14
1.693000000000000000e+03 6.247022628784179688e+00 -3.895826041698455811e-01 2.158310465096816184e-15 1.381778399383096212e-13 4.210084429516480764e-14 1.984189925536249122e-14
1.694000000000000000e+03 5.413941383361816406e+00 -3.895811736583709717e-01 -1.410162947784038279e-13 -1.468460532479901742e-14 -4.671026884511472743e-14 7.143285664585122263e-14
1.695000000000000000e+03 4.580881595611572266e+00 -3.895813226699829102e-01 -1.001802807376606097e-13 4.856749022592345144e-14 -1.548383681470796858e-14 -5.712131343014320572e-14
1.696000000000000000e+03 3.747827529907226562e+00 -3.895839750766754150e-01 1.380798128153238810e-14 -1.313351418721561692e-13 -3.525814622901135564e-14 -7.232527192435351387e-15
1.697000000000000000e+03 2.914784193038940430e+00 -3.895940482616424561e-01 5.463604422399973015e-14 1.606682994113872720e-13 6.459130376824245845e-14 4.529714683855143309e-14
1.698000000000000000e+03 2.081797361373901367e+00 -3.896274566650390625e-01 -8.708891219939493555e-14 -1.288257152863570010e-13 -6.477439163385736998e-14 5.033693188834231780e-14
1.699000000000000000e+03 1.249124050140380859e+00 -3.897421360015869141e-01 -1.399265496223114913e-13 -1.057194696368890519e-13 -7.369380442250744734e-14 2.225653184293558892e-16
1.700000000000000000e+03 4.164600372314453125e-01 -3.899156153202056885e-01 -4.844953241768881758e-14 -2.076408435382898210e-14 -2.076408435382898210e-14 -5.671893551074773387e-15
1.701000000000000000e+03 4.161959588527679443e-01 -1.129915595054626465e+00 -1.078577467139921198e-13 4.527714669660086455e-14 -1.877418034403055547e-14 3.564916035438646380e-14
1.702000000000000000e+03 9.574058532714843750e+00 -1.129929780960083008e+00 -3.108087788875057988e-14 3.243057406822347222e-14 4.049089067814269031e-16 -1.604374592163379520e-13
1.703000000000000000e+03 8.741532325744628906e+00 -1.129804849624633789e+00 2.217146178294399778e-14 2.840077348645331234e-13 9.185376390703423044e-14 -2.843839936759670617e-14
1.704000000000000000e+03 7.908729076385498047e+00 -1.129671216011047363e+00 -3.852497273558637414e-14 2.122440407020115272e-13 5.211572140636708261e-14 -1.078039499574461046e-14
1.705000000000000000e+03 7.075768470764160156e+00 -1.129588007926940918e+00 9.894062430243141804e-14 8.815407307122616332e-14 5.612841124497634782e-14 6.715354455236882680e-14
1.706000000000000000e+03 6.243061542510986328e+00 -1.129582643508911133e+00 -1.499623450591791585e-13 2.723232101246256948e-14 -3.681900772223474505e-14 -9.239293934147716630e-15
1.707000000000000000e+03 5.410508155822753906e+00 -1.129581212997436523e+00 -2.103668157911204456e-14 -9.015720434752891310e-15 -9.015720434752891310e-15 8.841599598730792708e-14
1.708000000000000000e+03 4.577976703643798828e+00 -1.129581332206726074e+00 -1.278347883820231401e-14 -1.884824354968575588e-13 -6.037977463933114075e-14 -1.666609016591491521e-13
1.709000000000000000e+03 3.745450735092163086e+00 -1.129583954811096191e+00 -2.086174725264740293e-14 8.256114840182390835e-14 1.850981966712659382e-14 -1.002584923189387236e-16
1.710000000000000000e+03 2.912935495376586914e+00 -1.129594087600708008e+00 -7.629474444792797017e-14 -7.844869502268703165e-14 -4.642303319643721615e-14 3.064120680275339570e-14
1.711000000000000000e+03 2.080476760864257812e+00 -1.129627466201782227e+00 1.467827290648534427e-14 6.290688812010192602e-15 6.290688812010192602e-15 1.276279564888307960e-13
1.712000000000000000e+03 1.248331785202026367e+00 -1.129742145538330078e+00 2.937162638756360411e-14 1.258784048540793551e-14 1.258784048540793551e-14 -6.261762213344984618e-15
1.713000000000000000e+03 2.060629844665527344e+01 3.416408920288085938e+01 -2.273473699880221299e-14 1.275093854287423500e-13 3.143239656186111453e-14 1.346786113079305458e-14
1.714000000000000000e+03 2.137008857727050781e+01 3.352519989013671875e+01 -3.110208759374982757e-14 3.242148371063353907e-14 3.958187344799509637e-16 -1.533543799760173076e-13
1.715000000000000000e+03 2.692674446105957031e+01 3.432217407226562500e+01 2.249075085241150629e-14 1.468917354289014932e-13 5.081474656202025764e-14 3.396663782488304473e-14
1.716000000000000000e+03 2.078250694274902344e+01 3.260218429565429688e+01 -9.257571380490159374e-14 -1.311772007206793433e-13 -6.712587706817971234e-14 -7.033176802452925647e-14
1.717000000000000000e+03 2.078422355651855469e+01 2.526206970214843750e+01 -1.844401503270712284e-13 -2.391741047835099776e-13 -1.270842697569107838e-13 -6.868203922261173489e-14
1.718000000000000000e+03 2.598248100280761719e+01 1.842581367492675781e+01 -8.287114213172824817e-14 5.598569296962757624e-14 -8.065634071003843775e-15 -6.634153811154938629e-14
1.719000000000000000e+03 3.198002052307128906e+01 8.540108680725097656e+00 -1.022742749322812228e-13 3.679267177383871434e-13 7.969573080895270278e-14 -3.230322097053789365e-14
1.720000000000000000e+03 3.996776962280273438e+01 2.020261764526367188e+00 2.982315932295413752e-14 1.157209907325790210e-13 4.366324400022041086e-14 -6.410014663157936887e-14
1.721000000000000000e+03 4.772678375244140625e+01 -4.921192169189453125e+00 1.872622133855701698e-14 2.825312141359337392e-13 9.037722962590769016e-14 5.938039773431547097e-16
1.722000000000000000e+03 5.570405960083007812e+01 -1.288502311706542969e+01 -3.766147007970566118e-14 -7.046988182877675366e-14 -3.243940692779744006e-14 -5.345408428500571241e-14
1.723000000000000000e+03 6.568317413330078125e+01 -1.762582206726074219e+01 2.291350965506733749e-15 1.496725920285824074e-13 4.558918346997398174e-14 2.028649499091501190e-14
1.724000000000000000e+03 7.355473327636718750e+01 -2.315916824340820312e+01 8.583932684395802898e-15 -1.106985461412843263e-13 -3.063438310533031506e-14 8.016479055008782217e-15
1.725000000000000000e+03 7.880583953857421875e+01 -3.071481513977050781e+01 -1.002413433428281722e-14 1.100813166207519067e-13 3.001715358479789542e-14 8.375295086366502106e-14
1.726000000000000000e+03 7.961711883544921875e+01 -2.686585235595703125e+01 -3.450180340535367873e-14 -1.478648644769476467e-14 -1.478648644769476467e-14 -4.624915088489306436e-14
1.727000000000000000e+03 7.887380218505859375e+01 -2.355425643920898438e+01 7.401461306908233007e-14 -1.403040027502010581e-14 1.799526409232855145e-14 3.256728179777852727e-14
1.728000000000000000e+03 7.888459777832031250e+01 -2.195646286010742188e+01 3.241319972840939201e-14 5.964232065039723474e-14 2.761665543601563022e-14 2.475535103513629154e-15
1.729000000000000000e+03 7.385500335693359375e+01 -1.058763980865478516e+01 -1.497570513778190282e-13 -2.014344366221137994e-13 -1.053574477552325639e-13 -9.907398116964713508e-14
1.730000000000000000e+03 6.672184753417968750e+01 -5.818572521209716797e+00 -4.535687960199180635e-14 1.120953170238338237e-13 2.002153122655260520e-14 -5.270792279737403219e-14
1.731000000000000000e+03 6.022408676147460938e+01 1.061192870140075684e+00 -1.105347774031303909e-13 -1.846248983772627583e-13 -8.854790273411794477e-14 1.246921267411202350e-13
1.732000000000000000e+03 5.068432998657226562e+01 1.398343849182128906e+01 -1.229074079924646901e-13 -2.356783930339279021e-13 -1.075757389526650620e-13 3.660368517077912387e-14
1.733000000000000000e+03 4.361558914184570312e+01 2.210195541381835938e+01 -7.711929205856445785e-15 1.339477302946673332e-13 3.787074142778609764e-14 1.570406368692819216e-14
1.734000000000000000e+03 3.762788009643554688e+01 2.811602401733398438e+01 -1.282575662429202845e-13 1.280362670269888370e-13 -6.639040931856755846e-17 6.515359811994775319e-14
1.735000000000000000e+03 3.184029579162597656e+01 3.284068679809570312e+01 -1.048395176011726604e-13 -3.880633336374172959e-13 -1.478708513058188401e-13 -2.979976088481918473e-14
1.736000000000000000e+03 2.981592369079589844e+01 3.389605712890625000e+01 -1.269450039878550207e-13 -1.916578468196331042e-13 -9.558085795275186869e-14 -3.495009051049033366e-14
1.737000000000000000e+03 1.963104248046875000e+01 -3.570558929443359375e+01 -9.255298621686086635e-15 4.077919913639954652e-13 1.195610044345610246e-13 1.234825501399139380e-13
1.738000000000000000e+03 1.919409751892089844e+01 -3.643822097778320312e+01 6.982073949492358100e-15 1.745583793613322832e-13 5.446213480740126622e-14 6.050116462506804904e-14
1.739000000000000000e+03 1.844200134277343750e+01 -3.786764907836914062e+01 -1.157103926563429752e-13 1.791645716335554805e-13 1.903625572604282501e-14 -8.430081855021268056e-15
1.740000000000000000e+03 1.800967979431152344e+01 -3.932889938354492188e+01 -2.053951897885292199e-13 -4.227556008712905766e-14 -7.430122191337887316e-14 2.954427880726834266e-14
1.741000000000000000e+03 1.683029556274414062e+01 -3.818927383422851562e+01 -2.279074823828552976e-13 3.957820738352026135e-14 -5.649878487149276318e-14 6.757771832356304631e-14
1.742000000000000000e+03 1.496198368072509766e+01 -3.668486404418945312e+01 -9.905937832163647094e-14 -1.797068624551784177e-13 -8.362987358829718221e-14 1.594720313918482346e-13
1.743000000000000000e+03 1.552643108367919922e+01 -3.723062133789062500e+01 -9.094984422704233129e-14 5.252339497574878835e-14 -1.152793460598147343e-14 7.627289777415238725e-14
1.744000000000000000e+03 1.351831054687500000e+01 -3.303008270263671875e+01 -1.995824092473376388e-14 -1.000554280812353258e-13 -3.600410104060390581e-14 -4.814310300242652385e-14
1.745000000000000000e+03 1.084640860557556152e+00 -2.671823120117187500e+01 4.913659133439288174e-14 3.870661386892737532e-13 1.308608169742209171e-13 -5.807431358723080805e-14
1.746000000000000000e+03 3.779976367950439453e-01 -3.000841331481933594e+01 1.591630134438991317e-14 3.728288565461174153e-13 1.166235483835917353e-13 -3.050310316290126555e-14
1.747000000000000000e+03 1.191674947738647461e+00 -3.480165100097656250e+01 -2.915362382386287032e-14 3.992641178611477937e-13 1.110331512605040871e-13 -5.857443741467353165e-15
1.748000000000000000e+03 3.956415951251983643e-01 -3.643572616577148438e+01 2.667403312659778758e-14 5.146921842717755435e-13 1.624098533610507378e-13 3.542329901900110461e-15
1.749000000000000000e+03 9.789176940917968750e+00 -4.029150772094726562e+01 -3.729635822185758953e-14 2.299271883998699195e-13 5.778924973103005680e-14 -1.208943105265045462e-14
1.750000000000000000e+03 1.932625961303710938e+01 -2.897164154052734375e+01 4.325835547516927726e-14 5.446751990406673016e-13 1.763800694040695838e-13 2.201692316281629244e-15
1.751000000000000000e+03 1.928129005432128906e+01 -3.054566574096679688e+01 -1.073127115056200787e-13 3.657673664815563885e-13 7.753639988091268198e-14 2.525404337689815537e-14
1.752000000000000000e+03 2.100422286987304688e+01 -3.253763198852539062e+01 -1.269386614051459805e-13 4.031072079867942248e-13 8.285056261924175769e-14 6.157308820795015514e-14
1.753000000000000000e+03 2.802793502807617188e+01 -3.074349212646484375e+01 3.181905693788733558e-14 2.881424211644695310e-13 9.598844343070705998e-14 -4.855180317574030180e-14
1.754000000000000000e+03 3.230725479125976562e+01 -3.094793510437011719e+01 -3.229570609422985350e-14 2.721024089640672328e-13 7.194201153857757158e-14 -1.522504622646515121e-14
1.755000000000000000e+03 4.451225280761718750e+01 -3.150214385986328125e+01 3.313073817280833651e-16 2.003023940287673721e-13 6.019010702178195782e-14 -4.557255451915348532e-14
1.756000000000000000e+03 5.146684265136718750e+01 -3.129049491882324219e+01 3.019463409230198347e-14 1.845066119202445898e-13 6.441037753070893990e-14 -4.490068459725958527e-14
1.757000000000000000e+03 5.467279815673828125e+01 -3.051864814758300781e+01 1.468688553749302600e-14 6.348306618884566599e-14 2.345098467086866034e-14 8.649371908801828379e-15
1.758000000000000000e+03 6.531392669677734375e+01 -3.164977073669433594e+01 4.403348210146526553e-14 4.174696748232911703e-14 2.573413487513831477e-14 2.254047581570095158e-16
1.759000000000000000e+03 7.383019256591796875e+01 -3.078890991210937500e+01 1.765328131613820573e-14 -2.674752001103567617e-14 -2.728271523765946407e-15 1.561416299803840974e-14
1.760000000000000000e+03 7.955883789062500000e+01 -3.405435943603515625e+01 2.491982281063644805e-14 5.643087315791370240e-14 2.440520794353209788e-14 -2.118100074673112676e-14
1.761000000000000000e+03 7.234495544433593750e+01 -3.461305999755859375e+01 1.252136195157562901e-14 5.366298039749051521e-15 5.366298039749051521e-15 5.804062200472082100e-14
1.762000000000000000e+03 7.324263000488281250e+01 -2.607095718383789062e+01 3.670080258037951293e-14 2.216081864455515804e-13 7.749269975709793812e-14 7.142568735898566223e-14
1.763000000000000000e+03 6.604747009277343750e+01 -2.578563117980957031e+01 -9.862153682680535605e-15 8.727525944779088163e-14 2.322393240715946161e-14 -4.619022449681847720e-14
1.764000000000000000e+03 5.823702239990234375e+01 -2.573332214355468750e+01 2.751901286598794349e-14 6.326367787924322417e-14 2.723480790119570810e-14 -4.549091748369711585e-14
1.765000000000000000e+03 5.039697647094726562e+01 -2.320102691650390625e+01 -1.802968920537086073e-14 9.521262223739432318e-14 2.315488058723339654e-14 -2.130096602305075332e-14
1.766000000000000000e+03 4.126617813110351562e+01 -2.239039611816406250e+01 -6.517800791542172761e-15 2.373991303018796462e-13 6.926439809077158949e-14 3.521895570860779368e-14
1.767000000000000000e+03 3.218540191650390625e+01 -2.378929710388183594e+01 4.131268013774468117e-14 3.379620801963190146e-13 1.137824236956477830e-13 -4.677393861769393868e-14
1.768000000000000000e+03 2.735591506958007812e+01 -2.239789962768554688e+01 -3.393533487528431480e-14 3.743393399077699080e-13 1.021212059143170037e-13 2.776632107559778156e-14
1.769000000000000000e+03 1.932151031494140625e+01 -2.340929603576660156e+01 -5.507998774418286503e-14 3.424018880926471553e-13 8.619656637759431916e-14 2.758274193087346254e-14
1.770000000000000000e+03 1.929929351806640625e+01 -2.419709777832031250e+01 5.717423604868765441e-14 5.277637051340211549e-13 1.754813742232963492e-13 -8.217494881172099364e-14
1.771000000000000000e+03 1.931879043579101562e+01 -3.135140228271484375e+01 9.515693490331003646e-14 3.610381850253918667e-13 1.368585420772477912e-13 1.558213329417093562e-14
1.772000000000000000e+03 1.940430450439453125e+01 -2.181665420532226562e+01 5.082365734862537288e-14 4.335401124471588430e-13 1.453091255177244023e-13 -2.129242962500832448e-14
1.773000000000000000e+03 1.974623680114746094e+01 -1.546864128112792969e+01 6.522826661534706152e-15 5.518068640908424527e-13 1.674989086233175106e-13 3.820949362031561547e-14
1.774000000000000000e+03 2.003019905090332031e+01 -9.876563072204589844e+00 -2.181186919178023514e-15 5.252011390892430409e-13 1.569059823475910109e-13 2.204584171466850151e-14
1.775000000000000000e+03 2.032811737060546875e+01 -1.901809811592102051e+00 1.114635388653993642e-13 5.739059943422886167e-13 2.056108647056908989e-13 -4.087009187027715318e-14
1.776000000000000000e+03 2.077723884582519531e+01 5.277300357818603516e+00 2.098254838107938003e-13 1.814270982796253873e-13 1.173757814033893343e-13 -8.962054460093932251e-14
1.777000000000000000e+03 2.078781318664550781e+01 1.247777557373046875e+01 1.539378196582178587e-14 4.183558610214993534e-13 1.301249011971192249e-13 -8.743030035845630876e-15
1.778000000000000000e+03 2.078546905517578125e+01 1.887262725830078125e+01 1.243815841338660744e-13 2.363101847448895176e-13 1.082075306636266776e-13 4.530342504675648196e-14
1.779000000000000000e+03 2.078761100769042969e+01 2.606019592285156250e+01 1.231182311049044964e-13 7.014005397537950715e-15 3.903967061191955523e-14 -5.209154708605244488e-14
1.780000000000000000e+03 2.027613449096679688e+01 -2.702221870422363281e+00 -2.637020240841767005e-14 4.004570113014249699e-13 1.122260447007812634e-13 4.642807473653927375e-14
1.781000000000000000e+03 1.428105163574218750e+01 -3.562465286254882812e+01 -8.239205352049763786e-14 -2.183146784011380515e-13 -9.021201754361163339e-14 4.900328528915399995e-14
1.782000000000000000e+03 1.424211406707763672e+01 -3.479281234741210938e+01 -2.915009339053871440e-14 -2.412476414383885048e-13 -8.111932214274406028e-14 2.405845298371692143e-14
1.783000000000000000e+03 1.432487869262695312e+01 -3.395254135131835938e+01 3.542870817140227058e-14 -3.056721678074483806e-14 1.458447692482937614e-15 1.263560975550128904e-14
1.784000000000000000e+03 1.401392269134521484e+01 -2.593424224853515625e+01 3.121462100299024489e-14 1.506305388580819749e-13 5.455354999120073933e-14 -1.292334430658473310e-14
1.785000000000000000e+03 1.056531071662902832e+00 -1.787609291076660156e+01 -4.903113573245972134e-14 1.848659300727334420e-13 4.075043660801622170e-14 -1.119426969333316493e-14
1.786000000000000000e+03 3.545121848583221436e-01 -2.277171707153320312e+01 2.618478181406602018e-14 7.984847456626517626e-14 3.180997674469276948e-14 1.207262761304282381e-14
1.787000000000000000e+03 1.468540763854980469e+01 -3.154033279418945312e+01 2.548807688615862405e-14 1.024253585050170778e-13 3.837403146438565782e-14 -5.490419791444149655e-14
1.788000000000000000e+03 1.473402690887451172e+01 -2.995349502563476562e+01 -9.508585189837645557e-14 2.337546118041239351e-13 4.160062729409788607e-14 6.820593216735545972e-14
1.789000000000000000e+03 1.402978324890136719e+01 -2.273498153686523438e+01 8.925244441085333769e-14 1.297529520893209165e-13 6.570161488429412944e-14 -1.156003461358356965e-14
1.790000000000000000e+03 1.473865795135498047e+01 -1.561332225799560547e+01 7.377301216747109147e-14 -5.988489055770013225e-14 4.166436059414814139e-15 5.252398789881186636e-14
1.791000000000000000e+03 1.468497371673583984e+01 -8.404502868652343750e+00 7.951778612739351937e-14 5.695452247843346694e-14 4.094169325937445370e-14 6.270662157928375002e-14
1.792000000000000000e+03 1.474203395843505859e+01 -5.972993850708007812e+00 -2.288078919583137749e-14 -1.928098522854804209e-13 -6.470719142795400280e-14 -3.786013657528647380e-14
1.793000000000000000e+03 1.475494384765625000e+01 -3.579212427139282227e+00 -1.395936046876683490e-13 -1.513277215125716224e-13 -8.727639786007199141e-14 9.404543794113220945e-14
1.794000000000000000e+03 1.040097427368164062e+01 -2.581917047500610352e+00 -8.855363545310496187e-15 1.792086444518670163e-13 5.110598359434059823e-14 -1.571967518177244671e-13
1.795000000000000000e+03 1.325729465484619141e+01 -1.032798767089843750e+01 9.161339628539419411e-14 2.222666766350106515e-13 9.416402255374781149e-14 6.036070623362255194e-14
1.796000000000000000e+03 1.329327774047851562e+01 -1.731520843505859375e+01 9.231786342323022865e-14 8.531574698013993929e-14 5.329008176575833478e-14 8.745959414590415149e-14
1.797000000000000000e+03 1.400442600250244141e+01 -2.512770843505859375e+01 -1.055655942435590466e-13 6.913497823269471043e-14 -1.092918565029224812e-14 -6.727691998333409917e-14
1.798000000000000000e+03 1.474723243713378906e+01 -2.676374626159667969e+01 1.218128415248365820e-14 -4.053039777711028857e-14 -8.504734256794578562e-15 -2.206359383117705714e-14
1.799000000000000000e+03 1.112196922302246094e+01 -1.882315993309020996e+00 -4.351216985072609402e-16 1.370663700811861063e-13 4.098937443804129277e-14 -3.167879505808560148e-14
1.800000000000000000e+03 5.470570087432861328e+00 -1.853826165199279785e+00 -1.560989903418193159e-14 -5.244090413108158655e-14 -2.041524061076587654e-14 -2.980830914132287512e-14
1.801000000000000000e+03 1.056097507476806641e+00 -1.064387798309326172e+01 2.531691693850694758e-14 1.938538983200024934e-13 6.575124423873965340e-14 -1.764028783072732476e-14
1.802000000000000000e+03 3.519353270530700684e-01 -1.634024810791015625e+01 1.167398256784590166e-14 1.651314583120053192e-13 5.304163006166970340e-14 -2.585939241331238619e-14
1.803000000000000000e+03 1.889129519462585449e+00 -4.103034591674804688e+01 -3.446162016233593473e-14 3.283628523167297919e-13 8.817036998513133605e-14 5.009114664397164296e-14
1.804000000000000000e+03 1.766989326477050781e+01 -3.838409042358398438e+01 -3.616383451379712177e-13 -6.348596642965706471e-14 -1.275372900821566957e-13 -2.645431447414591658e-14
1.805000000000000000e+03 2.840363883972167969e+01 -3.792299652099609375e+01 -3.906342480389235483e-14 3.492661346769787567e-13 9.306081296192592056e-14 -1.264954429451656953e-14
1.806000000000000000e+03 3.792802047729492188e+01 -4.065731430053710938e+01 -2.024073149484075657e-14 2.944254269641316535e-13 8.225541016544657413e-14 8.748557772859412440e-15
1.807000000000000000e+03 4.279624557495117188e+01 -4.092791366577148438e+01 -3.823591427200637161e-15 2.557104105283675155e-13 7.556604539153688460e-14 -2.292562264972954761e-14
1.808000000000000000e+03 4.348092269897460938e+01 -3.774765014648437500e+01 -2.482869985320377768e-15 2.276906690534125088e-13 6.756233620524090822e-14 -3.921077126726492390e-14
1.809000000000000000e+03 6.220878219604492188e+01 -4.079748153686523438e+01 4.090786615159290596e-14 5.756402028222334932e-14 2.954156830183712890e-14 -6.628733732028753087e-15
1.810000000000000000e+03 6.701639556884765625e+01 -4.077886581420898438e+01 3.712422757444835963e-14 7.881794040131770429e-14 3.478264903747710357e-14 1.186842067495402081e-14
1.811000000000000000e+03 7.858993530273437500e+01 -3.725693130493164062e+01 7.397814999476892694e-14 2.147087168431413562e-13 8.660606276187851615e-14 9.481112862039578482e-14
1.812000000000000000e+03 7.866129302978515625e+01 -3.808787918090820312e+01 -7.881613791520594714e-14 2.864783063549758424e-13 6.229864985430461077e-14 7.159627301829910029e-14
1.813000000000000000e+03 7.890227508544921875e+01 -1.636708068847656250e+01 -1.146793841529450408e-13 -2.779030532171905543e-13 -1.177747271452825317e-13 4.772212762764113658e-14
1.814000000000000000e+03 7.963555145263671875e+01 -1.249217987060546875e+01 -4.770711820381579038e-14 -6.619685810789477376e-14 -3.417119289351316924e-14 -8.591428078946056202e-15
1.815000000000000000e+03 7.325668334960937500e+01 -1.874402999877929688e+00 -2.345914261459025596e-13 5.958914053383682075e-14 -5.250068432836700605e-14 -4.943272760528014120e-14
1.816000000000000000e+03 6.695194244384765625e+01 4.400669574737548828e+00 -1.122388789439980605e-13 -1.167287973094857656e-13 -6.869030626417693686e-14 1.762111947513095994e-14
1.817000000000000000e+03 5.403125000000000000e+01 1.331758975982666016e+01 -1.344934634581879118e-13 -1.033910031699412924e-13 -7.136534473182326588e-14 2.169315074795896692e-13
1.818000000000000000e+03 5.003237152099609375e+01 2.030023765563964844e+01 -1.185052625691032646e-13 1.783845457686925734e-14 -3.020004155063725493e-14 -2.430715202142615106e-15
1.819000000000000000e+03 4.340097808837890625e+01 2.855808067321777344e+01 7.674866008699912992e-16 -4.542202660003102910e-14 -1.339636223268237183e-14 1.356298970703329054e-13
1.820000000000000000e+03 3.713449096679687500e+01 3.247743988037109375e+01 -1.277347504028206182e-13 -1.919963076328287666e-13 -9.591931876594753104e-14 6.719545574259896958e-14
1.821000000000000000e+03 3.565968322753906250e+01 3.277051925659179688e+01 -1.496436302780498884e-13 -1.098839308389873426e-13 -7.785826562460573808e-14 7.639995271624053230e-14
1.822000000000000000e+03 3.272457122802734375e+01 3.335572052001953125e+01 -1.014859108750855443e-13 1.395098365173166877e-13 1.140717565979026960e-14 2.286931147587960809e-15
1.823000000000000000e+03 7.891502380371093750e+01 -9.180011749267578125e+00 1.962517198446714350e-13 -9.889591451534354705e-14 2.920674295405108201e-14 4.608701861439322423e-14
1.824000000000000000e+03 7.963935089111328125e+01 -5.304744720458984375e+00 2.783131797939875085e-13 -2.924814795739194562e-13 -4.250488832836752870e-15 -5.662140474906908472e-14
1.825000000000000000e+03 7.335483551025390625e+01 5.262640953063964844e+00 9.099539427081387855e-15 -3.621077775736031290e-13 -1.059024761873410270e-13 2.048296699353607808e-13
1.826000000000000000e+03 6.671356964111328125e+01 9.459877014160156250e+00 -9.057157964158929486e-14 6.934556248184339106e-15 -2.509110811916431816e-14 1.004440535736991769e-13
1.827000000000000000e+03 5.421534347534179688e+01 2.081878089904785156e+01 1.573867853535068639e-14 6.745147822717015990e-15 6.745147822717015990e-15 1.089273528147305381e-13
1.828000000000000000e+03 5.103139114379882812e+01 2.794659996032714844e+01 -3.571498328471759548e-15 1.814731497669017091e-13 5.337049568563886903e-14 -3.458561562141859724e-14
1.829000000000000000e+03 4.141830062866210938e+01 3.096356391906738281e+01 -1.143868126202163011e-15 2.511399833753091837e-13 7.499883824873751492e-14 1.105011671357833403e-13
1.830000000000000000e+03 4.156391143798828125e+01 3.162097167968750000e+01 -4.228703230136666991e-14 1.191298307830906955e-13 2.305284022214356549e-14 -9.555975666796986956e-14
1.831000000000000000e+03 3.934790039062500000e+01 3.205351257324218750e+01 -9.387290071790829749e-14 9.702160000965923126e-14 9.446105075032852974e-16 3.538172833601575806e-14
1.832000000000000000e+03 7.892098999023437500e+01 -4.390100002288818359e+00 3.110626177211389676e-13 -3.928233606453890303e-13 -2.452821915033005090e-14 -2.643838432550690495e-15
1.833000000000000000e+03 7.964081573486328125e+01 1.882086038589477539e+00 7.348142276944469309e-13 -4.628457448037359701e-13 8.159053673569699461e-14 -2.366858065875471206e-13
1.834000000000000000e+03 7.319192504882812500e+01 1.161048793792724609e+01 9.114483798776384926e-14 -2.811945554875849851e-13 -5.701491931570448757e-14 5.729100462266434324e-14
1.835000000000000000e+03 6.315206527709960938e+01 2.149535369873046875e+01 -4.223385218480625591e-14 -9.816438298077684310e-14 -4.211947224374082421e-14 1.168928370981828224e-13
1.836000000000000000e+03 5.711317825317382812e+01 2.725786781311035156e+01 4.521548269804075149e-14 -4.924835902584898117e-14 -1.209862263067758466e-15 -2.411963247943120503e-14
1.837000000000000000e+03 5.206084823608398438e+01 2.989403343200683594e+01 -5.271250693968457246e-14 1.146617658676421514e-13 1.858478038889270489e-14 1.152314802279653938e-14
1.838000000000000000e+03 5.045149993896484375e+01 2.940001296997070312e+01 3.514602617184919842e-14 -1.679412088995829722e-13 -3.983855481832013212e-14 9.030473038188630008e-14
1.839000000000000000e+03 4.752883148193359375e+01 3.054785728454589844e+01 -7.440418723844710591e-14 5.961438889192857693e-14 -4.436938572219316715e-15 -2.623007605388749663e-14
1.840000000000000000e+03 4.528375625610351562e+01 3.093356895446777344e+01 -1.380366818976496920e-14 2.228388914365941886e-13 6.271056536468616605e-14 1.957607931009699986e-13
1.841000000000000000e+03 7.892557525634765625e+01 2.796557188034057617e+00 3.129882691996904720e-13 -1.174923873470401503e-13 5.864876455579509651e-14 -1.427951181777464829e-13
1.842000000000000000e+03 7.964161682128906250e+01 9.069338798522949219e+00 -1.535909122324721765e-13 -2.488284643435700882e-13 -1.207258170385708262e-13 -1.638246423284542286e-14
1.843000000000000000e+03 7.336966705322265625e+01 1.821209526062011719e+01 2.822912293731858618e-14 1.493510447692775189e-13 5.327404912613270538e-14 3.962196171744362949e-14
1.844000000000000000e+03 6.256435775756835938e+01 2.848285102844238281e+01 -2.870809126987068638e-14 -5.805441847736569905e-14 -2.602875156891820002e-14 1.544273064459089628e-13
1.845000000000000000e+03 5.736358642578125000e+01 2.936481857299804688e+01 2.957679470804754074e-14 1.041776663849788842e-13 4.012633934434746419e-14 7.888072248336819303e-14
1.846000000000000000e+03 5.660487747192382812e+01 2.942968559265136719e+01 -4.900415603902377737e-14 -1.125036749958369109e-13 -4.845235134333727989e-14 -1.081534357514832290e-13
1.847000000000000000e+03 5.433115768432617188e+01 2.963586044311523438e+01 -1.155936376348934425e-13 -3.789183254817272972e-15 -3.581484677513298298e-14 1.563154309767653127e-13
1.848000000000000000e+03 7.892731475830078125e+01 9.984759330749511719e+00 -5.116348696706379817e-14 -2.049310021809067073e-13 -7.682834809964386724e-14 -1.434101996227246656e-14
1.849000000000000000e+03 7.964190673828125000e+01 1.625572776794433594e+01 1.665130842454579096e-13 1.628646490673540947e-13 9.881331863859088571e-14 5.303638184552851575e-14
1.850000000000000000e+03 6.928196716308593750e+01 2.833876609802246094e+01 6.646809161013275680e-14 9.711274753104737201e-14 4.907424970947496523e-14 -7.100478652309963334e-14
1.851000000000000000e+03 6.329930114746093750e+01 2.847100830078125000e+01 4.261287571178003220e-14 6.401360696942429152e-14 3.198794514317447601e-14 6.152838435009291493e-15
1.852000000000000000e+03 6.189738464355468750e+01 2.913958930969238281e+01 8.962419023074430502e-14 -7.340582338483635227e-15 2.468508118183207478e-14 2.513744929170860093e-14
1.853000000000000000e+03 6.038854598999023438e+01 2.917415618896484375e+01 7.644887056301036266e-14 7.851475004004571101e-14 4.648908482566410649e-14 2.436451919125143251e-13
1.854000000000000000e+03 7.892871856689453125e+01 1.797165107727050781e+01 5.316882391716119816e-14 2.057904356905088106e-13 7.768777483298239250e-14 1.488329045510466964e-14
1.855000000000000000e+03 7.964575958251953125e+01 2.343779182434082031e+01 -3.217762970138260403e-14 -1.510432539675657382e-13 -5.496626848881629168e-14 3.123136853842335692e-14
1.856000000000000000e+03 6.912673950195312500e+01 2.765924072265625000e+01 -2.097708942314091551e-14 5.963624234196773788e-14 1.159774621446122561e-14 -1.571177812419860542e-13
1.857000000000000000e+03 7.018337249755859375e+01 2.902160072326660156e+01 6.692979232902213083e-14 1.659370476312163611e-13 6.986005198807154759e-14 -5.347255892061827595e-15
1.858000000000000000e+03 6.641477203369140625e+01 2.903339004516601562e+01 2.103956487926449820e-14 -8.248494254162533346e-14 -1.843361380692801893e-14 -8.992801756079263353e-14
1.859000000000000000e+03 7.878330993652343750e+01 2.899072456359863281e+01 -4.924512335999046975e-15 -2.537407133365587875e-13 -7.759956820998711868e-14 -4.729039493442561970e-14
1.860000000000000000e+03 7.552307891845703125e+01 2.897568511962890625e+01 2.438010866323905845e-14 1.934524182555311111e-13 6.534975739800469308e-14 -1.816180432228590297e-14
1.861000000000000000e+03 7.892745971679687500e+01 2.510951232910156250e+01 -9.606892511322337458e-14 -2.699271470403552531e-13 -1.097988209684472305e-13 -4.974013619062946090e-14
1.862000000000000000e+03 7.475070953369140625e+01 2.897369384765625000e+01 9.332857701721194998e-14 1.712248642567540391e-14 3.313531903286620617e-14 1.256881968295098240e-13
1.863000000000000000e+03 7.245111083984375000e+01 2.900912475585937500e+01 7.785037805380090603e-14 -5.813744803498735458e-14 5.913878582127591807e-15 2.570057204163631037e-14
1.864000000000000000e+03 3.070341110229492188e+01 2.858237075805664062e+01 3.070551015597715316e-14 1.961633031575052422e-13 6.806064229997882409e-14 -6.709439454759616450e-14
1.865000000000000000e+03 2.727309608459472656e+01 2.648835945129394531e+01 5.889831316755042220e-15 1.968081899978314092e-14 7.671195391422986481e-15 3.063672430439652594e-14
1.866000000000000000e+03 3.838283538818359375e+01 2.780551528930664062e+01 -2.252946771199096365e-13 -2.452454472140486175e-13 -1.411620386554401918e-13 -4.797956465723424158e-14
1.867000000000000000e+03 4.488831710815429688e+01 2.829027366638183594e+01 4.477708216146444875e-14 2.479449208881573385e-13 8.781660159251289399e-14 2.622171685513763340e-13
1.868000000000000000e+03 5.112427520751953125e+01 2.861565017700195312e+01 1.362218443514556787e-13 1.041317368704469670e-13 7.210607843232894054e-14 -3.340600365775436842e-14
1.869000000000000000e+03 5.645941925048828125e+01 2.803035926818847656e+01 -2.547319282320947148e-14 -5.666803221874953944e-14 -2.464236700436793492e-14 -5.461398070978965014e-14
1.870000000000000000e+03 7.233664703369140625e+01 2.828784561157226562e+01 -3.901635454773872292e-16 4.558373535405724208e-14 1.355807183374153208e-14 1.372904611177117040e-13
1.871000000000000000e+03 3.583911895751953125e+01 2.073386764526367188e+01 -1.076795919682620173e-13 7.394784654404795710e-14 -1.011952294963786025e-14 -1.276742654741230831e-13
1.872000000000000000e+03 3.785907363891601562e+01 2.085471725463867188e+01 -1.098949354910380705e-13 1.359059620485020270e-13 7.803308814272134214e-15 -8.420448718718734349e-14
1.873000000000000000e+03 4.402366638183593750e+01 2.140393066406250000e+01 -2.616189667789710349e-14 3.453870693679965409e-14 2.513043204725707268e-15 8.061493773957664755e-14
1.874000000000000000e+03 5.130303573608398438e+01 2.106472206115722656e+01 -1.659832346437642436e-13 -1.168866164882181868e-13 -8.486095805010016035e-14 -3.313855131059292858e-14
1.875000000000000000e+03 5.567811203002929688e+01 2.153104782104492188e+01 -7.011661487966308615e-14 -1.901783038774779167e-13 -7.808847562714230084e-14 1.494538000301748326e-13
1.876000000000000000e+03 6.383011627197265625e+01 2.172487831115722656e+01 -1.149815241933624388e-13 -2.551570608445852262e-13 -1.110415741561315839e-13 1.757519504279672629e-13
1.877000000000000000e+03 7.338592529296875000e+01 1.900947952270507812e+01 7.114901251709451757e-14 -2.897641978791276607e-13 -6.558455493098358513e-14 6.363731427667246310e-15
1.878000000000000000e+03 2.576880645751953125e+01 1.017420959472656250e+01 -5.959925071909524807e-14 4.319669621999366882e-13 1.117103100561206430e-13 -1.378242290938193684e-14
1.879000000000000000e+03 3.303479385375976562e+01 2.414901018142700195e+00 -1.371004004768749951e-13 1.699974254247560435e-13 9.869107823177493410e-15 4.973927221702326151e-14
1.880000000000000000e+03 4.000501632690429688e+01 -3.748684167861938477e+00 -1.534147158269161260e-13 2.316320150009404388e-13 2.346518433119643143e-14 3.711992803520809681e-14
1.881000000000000000e+03 4.748296737670898438e+01 -8.702723503112792969e+00 -1.229626345406256704e-13 9.599231267721011762e-14 -8.091098422497149806e-15 -8.168402884428313526e-14
1.882000000000000000e+03 5.837825012207031250e+01 -2.112911605834960938e+01 4.350662337310835445e-15 9.336646988314031836e-14 2.931513945437710933e-14 -1.814204981989003818e-14
1.883000000000000000e+03 6.635676574707031250e+01 -1.885194396972656250e+01 1.979384877033064927e-14 8.282837035602369502e-14 3.078666607671948219e-14 3.495444764797100978e-14
1.884000000000000000e+03 4.546817016601562500e+01 1.439316558837890625e+01 -1.908984411248381557e-14 1.290714903663323088e-13 3.299449133505570619e-14 1.318145218627206350e-14
1.885000000000000000e+03 4.395021057128906250e+01 1.381872558593750000e+01 -4.103411133018347590e-14 7.391584902743247865e-14 9.864521986801058628e-15 2.692543928160644195e-14
1.886000000000000000e+03 5.146206665039062500e+01 1.489505577087402344e+01 -2.181613654376850231e-14 -3.222524650554545178e-14 -1.621241559242054403e-14 1.512673619447502810e-14
1.887000000000000000e+03 6.686219024658203125e+01 8.952425956726074219e+00 -8.558455627408288052e-15 1.793358891293353463e-13 5.123322827180892824e-14 7.431759336618340428e-14
1.888000000000000000e+03 2.719004631042480469e+01 9.350473403930664062e+00 -1.677864932495692907e-13 1.568462428078870596e-13 -3.282072887867359089e-15 -7.530950282873608015e-14
1.889000000000000000e+03 2.576662254333496094e+01 4.554675102233886719e+00 -1.458217532455344939e-14 3.140071481912837248e-13 8.982749169061249317e-14 1.104451884223651981e-13
1.890000000000000000e+03 3.228302764892578125e+01 -4.687538623809814453e+00 -2.644655734641496170e-14 3.661110856752886056e-13 1.018993578210357354e-13 -5.025793081941780371e-14
1.891000000000000000e+03 4.194392776489257812e+01 -9.778324127197265625e+00 -6.763919258674297441e-14 2.683929467561796400e-13 6.022612286269921067e-14 -5.989867347781785423e-14
1.892000000000000000e+03 4.961046600341796875e+01 -1.663189697265625000e+01 6.680292712231417074e-14 2.001958847178478273e-13 8.009964355204859943e-14 -5.517477073098062124e-14
1.893000000000000000e+03 6.053923416137695312e+01 -1.614171600341796875e+01 -3.482596630239968849e-14 9.945196115202989406e-14 1.938779811607588277e-14 -5.882770534810025098e-14
1.894000000000000000e+03 3.385467529296875000e+01 1.014869976043701172e+01 -1.066102569180667203e-13 6.083993476410813682e-17 -3.196482453184622263e-14 2.564233683244668272e-14
1.895000000000000000e+03 4.637454605102539062e+01 -3.532595336437225342e-01 -4.781812801254233403e-16 1.370479115391995406e-13 4.097091928418651607e-14 -5.561770458789062899e-14
1.896000000000000000e+03 4.802753067016601562e+01 1.756199002265930176e+00 -5.694797660781708570e-14 1.128465674854126077e-13 1.676957861853137222e-14 2.198867207292651976e-14
1.897000000000000000e+03 6.626266479492187500e+01 2.199827909469604492e+00 -9.806729267623076618e-14 -1.449684691951294568e-13 -7.291073262716621373e-14 -4.081283921930634051e-14
1.898000000000000000e+03 7.333602905273437500e+01 1.290984034538269043e+00 -3.451394985781730540e-13 -2.851697827530030871e-13 -1.890927871098582735e-13 1.338711720687627005e-13
1.899000000000000000e+03 2.640769958496093750e+01 1.319091558456420898e+00 -1.050151244717974219e-13 1.379973202765907847e-13 9.894657724998472126e-15 -2.501063829510926512e-14
1.900000000000000000e+03 2.689310646057128906e+01 -5.626554012298583984e+00 1.224205605594372304e-13 3.269716582991050169e-13 1.348176670128153898e-13 4.665916904147277000e-14
1.901000000000000000e+03 3.292933654785156250e+01 -1.047509670257568359e+01 1.583308713358575620e-14 3.041667666434794137e-13 9.599995630252614043e-14 -1.554955132482185171e-14
1.902000000000000000e+03 4.046052932739257812e+01 -1.764273071289062500e+01 9.668368637974749519e-15 1.985851126552404255e-13 6.247604565851397340e-14 5.913633027276182785e-14
1.903000000000000000e+03 5.196739578247070312e+01 -1.830222892761230469e+01 2.388264282518481885e-14 1.589260000727302224e-13 5.484259490225358580e-14 -4.010397089827637263e-14
1.904000000000000000e+03 2.036688995361328125e+01 -3.106541931629180908e-01 1.091163902397669638e-13 4.127717590472756992e-13 1.565664508847500191e-13 4.500475886712678621e-18
1.905000000000000000e+03 2.666822433471679688e+01 -1.153712177276611328e+01 5.037677293004937107e-14 5.291396119010138843e-13 1.738549218867693757e-13 -1.164850686611110242e-13
1.906000000000000000e+03 3.447436523437500000e+01 -1.544460010528564453e+01 -4.184198425022031542e-14 2.336979351355572554e-13 5.755679000898558662e-14 -2.175218725031669714e-14
1.907000000000000000e+03 4.100907135009765625e+01 -1.577613735198974609e+01 -2.384209196986796647e-14 1.384725396413183374e-13 3.438913447084170072e-14 -2.095135486813743536e-14
1.908000000000000000e+03 3.320054244995117188e+01 3.268546342849731445e+00 -3.968626845879917597e-14 5.777539362726569205e-13 1.614203020382232179e-13 -6.290205579713784023e-14
1.909000000000000000e+03 3.860320281982421875e+01 2.553961038589477539e+00 -2.024042269839192317e-16 1.829170495626364357e-13 5.481439548137359563e-14 4.496304993910002490e-14
1.910000000000000000e+03 5.943136978149414062e+01 -3.211278915405273438e+00 -1.338164198590521825e-13 -9.166310695500265449e-14 -6.764385465608466208e-14 -6.124337893916552422e-15
1.911000000000000000e+03 5.936007690429687500e+01 -4.827470302581787109e+00 -8.458128809970752449e-14 2.093956416951165550e-14 -1.909251565439945564e-14 8.590111577987786205e-16
1.912000000000000000e+03 6.766273498535156250e+01 -3.116159915924072266e+00 -1.237327568962692803e-13 -3.015285165107982335e-14 -4.616568425827062561e-14 -1.923899983823171983e-14
1.913000000000000000e+03 7.321671295166015625e+01 -5.096199035644531250e+00 -1.206821101384925043e-13 -2.804756481320641592e-13 -1.203473220601561366e-13 -8.133684020359896460e-14
1.914000000000000000e+03 2.075989532470703125e+01 4.474729537963867188e+00 -1.021032149345173223e-13 3.451245365881927540e-13 7.290639581847627171e-14 6.524529451868571472e-14
1.915000000000000000e+03 2.003894042968750000e+01 -9.075093269348144531e+00 -1.333561387673824067e-14 4.289187548970480046e-13 1.246749421366863397e-13 2.774284809856347039e-14
1.916000000000000000e+03 2.631001091003417969e+01 -1.705223083496093750e+01 1.153209417302720249e-15 2.978754124870891529e-13 8.970858181734514547e-14 -4.743135815750768036e-14
1.917000000000000000e+03 2.687567329406738281e+01 -7.138056755065917969e+00 4.277229747684865857e-14 5.215913963761698025e-13 1.693091196755536210e-13 2.047491238783404749e-14
1.918000000000000000e+03 3.461048126220703125e+01 -2.629810333251953125e+00 -9.985392910747889483e-14 1.116149138174690747e-13 3.528294777722343518e-15 -2.818414209968759382e-14
1.919000000000000000e+03 4.092840194702148438e+01 -4.492196083068847656e+00 -5.152288982284737584e-14 2.295489915770526634e-13 5.340782612169026056e-14 -3.413580046884509556e-14
1.920000000000000000e+03 4.815131759643554688e+01 -7.207095146179199219e+00 -1.018850260235681926e-13 4.783688703946693821e-14 -1.621444169523037632e-14 -4.169877808389392537e-14
1.921000000000000000e+03 6.644472503662109375e+01 -1.235414791107177734e+01 -6.271685373728658197e-14 1.887229725250870460e-14 -1.315336626780700541e-14 5.301928533252113496e-14
1.922000000000000000e+03 6.701135253906250000e+01 -9.974918365478515625e+00 9.319121071954040471e-16 -1.597289330966186749e-13 -4.763910484628305908e-14 1.557299719680185074e-14
1.923000000000000000e+03 7.389930725097656250e+01 -9.775270462036132812e+00 -4.632465201367952368e-14 2.589752753066366930e-14 -6.128137260201461586e-15 -8.526391195189976513e-15
1.924000000000000000e+03 2.004907989501953125e+01 -6.679707050323486328e+00 7.060210705997493896e-14 4.648920679840851111e-13 1.606482552237234462e-13 -5.464645595298738001e-14
1.925000000000000000e+03 1.965357398986816406e+01 -1.626242637634277344e+01 2.602245303192241704e-14 7.202922069557415874e-13 2.238943893565631393e-13 3.908592877523500708e-14
1.926000000000000000e+03 2.745083045959472656e+01 -1.704694175720214844e+01 5.006498010216506311e-14 5.018414069718479809e-13 1.655719154445775554e-13 -4.134031374061590547e-14
1.927000000000000000e+03 2.692015075683593750e+01 -1.008794116973876953e+01 -6.184840779712569292e-14 6.597577844290325455e-13 1.793728062133084777e-13 -6.152643363321538827e-14
1.928000000000000000e+03 4.195097732543945312e+01 -1.270765590667724609e+01 -8.842775958087939481e-14 1.679816631931438375e-13 2.386616972842661721e-14 -7.306798259975808008e-14
1.929000000000000000e+03 4.912690734863281250e+01 -6.976442337036132812e+00 -1.810750307291650318e-13 4.821152293577393722e-14 -3.985905301564368619e-14 8.100327185270664310e-14
1.930000000000000000e+03 5.817695999145507812e+01 -1.240762615203857422e+01 -8.499796732338443794e-14 -1.355222730640547740e-14 -2.956505821953038515e-14 -5.259438650112406577e-14
1.931000000000000000e+03 7.388227844238281250e+01 -1.769823646545410156e+01 1.134554012153718427e-13 -8.862910270057353102e-14 7.447887860373599012e-15 -2.592635714405641667e-14
1.932000000000000000e+03 7.389044952392578125e+01 -1.693958854675292969e+01 -6.118614322885365664e-14 -7.197358215058763387e-14 -3.994791693620602935e-14 -1.117064950197262096e-13
1.933000000000000000e+03 1.957109832763671875e+01 -1.705299568176269531e+01 2.661316364494219905e-14 6.061680020777449052e-13 1.898343407382568904e-13 6.033816160469843148e-14
1.934000000000000000e+03 2.765292167663574219e+01 -3.255537414550781250e+01 -1.016974607417940948e-14 3.158981865154786295e-13 9.171853001480739787e-14 -4.099597790689808730e-14
1.935000000000000000e+03 2.849328994750976562e+01 -2.326033020019531250e+01 7.047131839665529696e-14 3.618963852550227678e-13 1.297103022863607680e-13 -1.766846692281658082e-14
1.936000000000000000e+03 3.441446685791015625e+01 -2.710378837585449219e+01 1.628312082065964950e-14 2.271549241024059529e-13 7.303141110522742840e-14 -1.073230249787858470e-13
1.937000000000000000e+03 3.283728408813476562e+01 -2.603076744079589844e+01 -4.782122709433810070e-14 9.960143197403417692e-14 1.553406078628246506e-14 -5.251496530385771355e-14
1.938000000000000000e+03 4.103753662109375000e+01 -3.111701965332031250e+01 2.144211559338120993e-14 2.322253446398331311e-13 7.610023857818407067e-14 -4.078282375978743712e-15
1.939000000000000000e+03 4.342319488525390625e+01 -2.293679046630859375e+01 3.486078952092720729e-14 2.322573557089757657e-13 8.013544255253135518e-14 -8.546636299068890996e-14
1.940000000000000000e+03 4.798363494873046875e+01 -3.468543243408203125e+01 -3.980137515413335186e-15 1.812980240109909880e-13 5.319536654159635891e-14 -5.995810808566079397e-14
1.941000000000000000e+03 5.374410629272460938e+01 -2.775326728820800781e+01 2.631067462695053233e-14 1.370911169957730880e-13 4.902053765622367554e-14 -4.539858411618281908e-14
1.942000000000000000e+03 5.908856964111328125e+01 -3.192790412902832031e+01 3.570966561187473298e-14 1.068060367253632903e-13 4.275470968473187028e-14 1.211524438171802942e-14
1.943000000000000000e+03 5.732078170776367188e+01 -2.374330902099609375e+01 -6.948445894453415123e-15 9.996173268474184415e-14 2.790398425831733947e-14 6.256325108856559264e-15
1.944000000000000000e+03 6.494903564453125000e+01 -2.497806167602539062e+01 2.149683222770794322e-14 1.007148262900138536e-13 3.666349924938243354e-14 1.232269672654423727e-15
1.945000000000000000e+03 4.785439682006835938e+01 -3.784457397460937500e+01 6.911150186752861024e-15 1.745279810429212208e-13 5.443173987712199291e-14 -6.742508468053371590e-15
1.946000000000000000e+03 5.735955429077148438e+01 -4.081535339355468750e+01 2.611526073788717622e-14 1.255696257694213780e-13 4.550546612159915572e-14 -8.200439364559365674e-15
1.947000000000000000e+03 6.193783950805664062e+01 -3.378689956665039062e+01 3.757465936700746245e-14 3.326003277588814033e-14 2.125040832049503864e-14 -1.978700982631451805e-14
1.948000000000000000e+03 7.105660247802734375e+01 -3.814023208618164062e+01 -9.106086991763663596e-16 2.248521295100235767e-14 6.472381614360976296e-15 2.016761222270197634e-14
1.949000000000000000e+03 1.307066535949707031e+01 -3.132562637329101562e+01 2.073038811263778515e-15 9.239034233846088462e-14 2.833901529782946460e-14 -9.183205953479378625e-14
1.950000000000000000e+03 1.475772857666015625e+01 -1.959269714355468750e+01 2.746246325236335190e-14 1.032715240905333898e-13 3.922019704990196975e-14 2.139363650967805730e-14
1.951000000000000000e+03 1.258242607116699219e+01 -1.738287734985351562e+01 -6.218915221114715286e-14 6.484940487166621081e-14 7.980758193315410677e-16 6.040672383958098357e-14
1.952000000000000000e+03 1.474550533294677734e+01 -1.243205070495605469e+01 -2.429683685419448819e-14 3.555946498628309582e-13 9.938934847656885618e-14 5.733395342825487254e-15
1.953000000000000000e+03 1.401657295227050781e+01 -1.094898605346679688e+01 4.625070603738422326e-14 1.113236293513036879e-13 4.727229892254047883e-14 8.430840118915650105e-14
1.954000000000000000e+03 3.503316938877105713e-01 -9.108675956726074219e+00 1.363472238623741548e-14 2.345982024094805940e-13 7.446987633757257141e-14 -8.490367730976198374e-15
1.955000000000000000e+03 2.078836250305175781e+01 1.167829227447509766e+01 -4.046660264365488369e-14 2.571628619687377215e-13 6.500887745871167245e-14 -7.822346726794621868e-15
1.956000000000000000e+03 2.163278579711914062e+01 3.201304244995117188e+01 8.231250018609151398e-14 -1.047416209212607974e-14 2.155150142818963027e-14 -6.631328617462666636e-15
1.957000000000000000e+03 2.532353973388671875e+01 3.374856567382812500e+01 -1.584101197384026743e-14 1.608647026349330211e-14 7.363749086637734367e-17 -8.650821351581169938e-14
1.958000000000000000e+03 2.548801803588867188e+01 3.449539184570312500e+01 -1.506160512065521373e-13 2.695216147702642062e-14 -3.709916556360499940e-14 -3.708662269972205772e-14
1.959000000000000000e+03 2.595336151123046875e+01 3.296354293823242188e+01 -1.870734944449219117e-14 -3.089291111335948359e-14 -1.488007850616868133e-14 -4.207051289235657840e-15
1.960000000000000000e+03 2.087663650512695312e+01 2.926821708679199219e+01 -9.558994661627590733e-15 1.102806607426905228e-13 3.021650109486830049e-14 -6.855809500902238125e-16
1.961000000000000000e+03 2.080753517150878906e+01 2.765808486938476562e+01 8.409430344734260959e-15 2.647951539839262652e-14 1.046668363823477152e-14 2.635374625231841350e-14
1.962000000000000000e+03 2.078250312805175781e+01 2.446207237243652344e+01 4.743411948491572938e-14 8.895533235801084126e-14 4.091683453643843449e-14 2.513383923728740310e-14
1.963000000000000000e+03 2.078201103210449219e+01 2.366323089599609375e+01 2.075630012104371508e-14 2.376503128401902254e-13 7.752197999201862477e-14 3.870578377663906611e-14
1.964000000000000000e+03 2.148224067687988281e+01 2.508625030517578125e+01 -9.610641817960063893e-14 4.562484525111928230e-15 -2.746317984223672903e-14 -3.778803374268439874e-14
1.965000000000000000e+03 2.078274154663085938e+01 2.126743125915527344e+01 9.638546301967820112e-15 1.871345960136050479e-13 5.903194193234220788e-14 -3.797089121533765710e-14
1.966000000000000000e+03 2.078184890747070312e+01 2.206498527526855469e+01 -3.873663610470985674e-14 3.036552129534464406e-13 7.947557678156594307e-14 5.145866439665476577e-14
1.967000000000000000e+03 2.078619003295898438e+01 1.807365989685058594e+01 2.714197647830842580e-14 3.318889217271414616e-13 1.077092652264702299e-13 7.487622175929298241e-14
1.968000000000000000e+03 2.078648567199707031e+01 1.727435302734375000e+01 -8.492128034847182261e-14 1.923599083838989365e-13 3.223158908825449198e-14 4.024953181619612963e-14
1.969000000000000000e+03 2.078459739685058594e+01 1.967060089111328125e+01 -8.188650359999480322e-15 4.224152630330837987e-14 1.021586278299266987e-14 -3.854229286529183007e-14
1.970000000000000000e+03 2.078657150268554688e+01 1.647514343261718750e+01 2.966828104261458321e-14 4.244735259898574364e-13 1.362425390604229958e-13 3.251705274400634726e-14
1.971000000000000000e+03 2.078682708740234375e+01 1.567535591125488281e+01 -5.894951546217899740e-14 2.034906666998140268e-13 4.336234740416958222e-14 3.807414114347616729e-14
1.972000000000000000e+03 2.078698158264160156e+01 1.487586593627929688e+01 -3.765678768157323941e-14 2.583670582166630592e-13 6.621308725916416615e-14 5.043426275024541494e-14
1.973000000000000000e+03 2.078754425048828125e+01 1.327663898468017578e+01 8.105682847541211163e-16 3.206040305198804008e-13 9.642438079547274721e-14 -9.246869796827959093e-15
1.974000000000000000e+03 2.078882408142089844e+01 1.087872886657714844e+01 4.993574997946836902e-14 2.044048253140723359e-13 7.630217800907307391e-14 -2.753219947491079844e-14
1.975000000000000000e+03 2.078933334350585938e+01 1.007911491394042969e+01 -8.470079428416973921e-14 1.467034501691222292e-13 1.860079778192528371e-14 -3.132687997355575182e-14
1.976000000000000000e+03 2.150050926208496094e+01 9.922370910644531250e+00 -4.578282875424347087e-14 -6.537215972539367481e-14 -3.334649789914385931e-14 -2.395258233563960643e-14
1.977000000000000000e+03 2.078965759277343750e+01 8.478953361511230469e+00 1.164674232707538226e-13 1.871674608919585148e-13 9.109046524881370122e-14 1.093263392142052037e-14
1.978000000000000000e+03 2.078895759582519531e+01 7.678657054901123047e+00 -1.366293417379843556e-13 3.294646456694638736e-14 -3.110486586181682167e-14 1.790060816047288339e-14
1.979000000000000000e+03 2.078682136535644531e+01 6.877964019775390625e+00 1.398886296513288108e-13 1.743296398079921539e-13 9.426548354830172061e-14 -9.452298156426702791e-14
1.980000000000000000e+03 2.078215599060058594e+01 6.077601432800292969e+00 -1.027937839557548083e-13 1.389493175466688379e-13 1.084666007727420889e-14 -1.114113616358484993e-14
1.981000000000000000e+03 2.071010017395019531e+01 3.670382022857666016e+00 1.155611793323546577e-13 3.697828718576823270e-13 1.456032153570110954e-13 -1.649337642102479545e-14
1.982000000000000000e+03 2.063857078552246094e+01 2.868213415145874023e+00 -9.371072440169520013e-14 3.487213230853047907e-13 7.650318231558830839e-14 4.855649912639987964e-14
1.983000000000000000e+03 2.138630294799804688e+01 3.479487657546997070e+00 -1.180688982997321612e-13 2.696556899214191949e-13 4.547604019701154132e-14 2.694594764332536307e-14
1.984000000000000000e+03 2.056210136413574219e+01 2.069509744644165039e+00 -7.567768433398500139e-14 2.649478672480526376e-13 5.678105690709936426e-14 -5.514583862660125610e-15
1.985000000000000000e+03 2.048198318481445312e+01 1.273265123367309570e+00 2.122305932069409179e-14 1.692239149373234164e-13 5.713409346325137861e-14 -1.690270678685133060e-14
1.986000000000000000e+03 2.040897750854492188e+01 4.803219735622406006e-01 -1.469439804210881384e-13 3.259070801859415001e-13 5.368892586369786168e-14 6.101324686366010885e-14
1.987000000000000000e+03 2.084109115600585938e+01 -5.280932426452636719e+00 -6.160594631004004396e-14 3.853559994975580549e-13 9.712501256812361428e-14 -2.423506951761481010e-14
1.988000000000000000e+03 2.097795104980468750e+01 -2.893954753875732422e+00 5.747680976997404656e-14 2.991386164382520141e-13 1.069846251519623870e-13 4.428947239878446018e-14
1.989000000000000000e+03 2.021218490600585938e+01 -3.501448869705200195e+00 4.694245412848428722e-14 3.403748366059139441e-13 1.161951936577698685e-13 1.196274795802615420e-14
1.990000000000000000e+03 2.009236907958984375e+01 -5.091498374938964844e+00 -3.210693971973654914e-14 3.751229470279338063e-13 1.029047994819537459e-13 9.362616340850490881e-14
1.991000000000000000e+03 2.005998992919921875e+01 -5.884601116180419922e+00 -1.225172307356414692e-13 3.363756755775382246e-13 6.415753480782174223e-14 5.076088881910204020e-15
1.992000000000000000e+03 2.000079345703125000e+01 -1.067867088317871094e+01 -4.330468817738408749e-14 6.448296215565141321e-13 1.804574691717172885e-13 5.194173745086926031e-14
1.993000000000000000e+03 2.070694160461425781e+01 -1.166520214080810547e+01 -4.284989585921251953e-14 4.848961943776375350e-13 1.326138905719670413e-13 8.635546975849922591e-14
1.994000000000000000e+03 1.995764160156250000e+01 -1.147784519195556641e+01 3.501508165446726162e-14 5.868933269058407287e-13 1.865725185023342503e-13 8.567810259277764545e-16
1.995000000000000000e+03 1.993303489685058594e+01 -1.227327346801757812e+01 -1.427670475058744753e-14 4.513909049059378065e-13 1.311342527621217613e-13 7.485750571929045138e-14
1.996000000000000000e+03 1.989304542541503906e+01 -1.386979198455810547e+01 1.936199410437072777e-14 5.115584605225320658e-13 1.592761296118072600e-13 2.866914723605477541e-15
1.997000000000000000e+03 1.951257514953613281e+01 -1.784382438659667969e+01 3.986616131613704428e-14 4.517194994793638507e-13 1.474757002715293419e-13 8.657453958371350011e-14
1.998000000000000000e+03 2.022452545166015625e+01 -1.879292297363281250e+01 2.428983697391837865e-14 6.051722708025342179e-13 1.888386365681005152e-13 2.719871243918141335e-14
1.999000000000000000e+03 1.942461776733398438e+01 -1.942923545837402344e+01 -7.822709087489457258e-14 5.612364414354920061e-13 1.449028072010583035e-13 6.151622858026686846e-14
2.000000000000000000e+03 2.105008697509765625e+01 -1.738074874877929688e+01 1.021435540315973611e-13 7.300400518481242607e-13 2.496550871849273490e-13 1.044127857904777329e-14
2.001000000000000000e+03 2.099462127685546875e+01 -1.892131996154785156e+01 9.673691562421884993e-14 4.989681627945441456e-13 1.787115242032552564e-13 1.536809992686103549e-14
2.002000000000000000e+03 1.940929985046386719e+01 -2.022265815734863281e+01 1.080958646161242487e-13 6.182136508443847323e-13 2.178928559934054099e-13 1.385980021614656443e-14
2.003000000000000000e+03 1.929338264465332031e+01 -2.498668479919433594e+01 1.511812885742326671e-15 5.954102770718006088e-13 1.790766157323125940e-13 6.112692546144521399e-14
2.004000000000000000e+03 2.005138206481933594e+01 -2.507796287536621094e+01 2.899023455646930481e-14 4.699338791366858281e-13 1.496772269928697829e-13 -5.606659478048572898e-14
2.005000000000000000e+03 2.005050086975097656e+01 -2.584772491455078125e+01 3.188591155434822300e-14 5.626768040216389988e-13 1.783688078965325885e-13 4.698027923177687526e-14
2.006000000000000000e+03 1.930129814147949219e+01 -2.657205581665039062e+01 2.783327733601233950e-14 6.066908585754260397e-13 1.903572514460466492e-13 -1.338809773221601163e-14
2.007000000000000000e+03 1.931534194946289062e+01 -2.736890029907226562e+01 3.516951947767424369e-14 4.268311778240357901e-13 1.386002179996556616e-13 2.985785718060546268e-14
2.008000000000000000e+03 1.927343177795410156e+01 -3.213355255126953125e+01 -2.169195405981108604e-13 3.187930334210692385e-13 3.056204310350300879e-14 -1.696994595627027147e-14
2.009000000000000000e+03 2.046130371093750000e+01 -3.359228897094726562e+01 -4.330450860639926958e-14 3.931994703790242518e-13 1.049684902258533892e-13 9.312572956700349014e-14
2.010000000000000000e+03 1.936194610595703125e+01 -3.351732254028320312e+01 -8.502597362075245413e-14 3.295678888213388058e-13 7.336257388254954770e-14 -3.461343218340642847e-14
2.011000000000000000e+03 2.129127120971679688e+01 -3.322763442993164062e+01 6.210038993453848022e-14 3.926220514070127843e-13 1.364167296919599481e-13 -3.562317677169649088e-14
2.012000000000000000e+03 1.950534248352050781e+01 -3.420437240600585938e+01 -2.908987273612072266e-14 3.992914397558944284e-13 1.110604731552507218e-13 -1.995339420220957477e-14
2.013000000000000000e+03 2.026456451416015625e+01 -3.479813385009765625e+01 1.943297139959249131e-13 4.092596758448890926e-13 1.810768196627496329e-13 1.786410951077569559e-14
2.014000000000000000e+03 1.416342735290527344e+01 -3.655443572998046875e+01 -1.348148209821126153e-13 -1.035287307271648416e-13 -7.150306551278323708e-14 4.075615577447608273e-14
2.015000000000000000e+03 1.447662162780761719e+01 -3.313103866577148438e+01 -7.985579970719303144e-14 -1.714767650790038900e-13 -7.539976943585907643e-14 -1.601681366204289747e-14
2.016000000000000000e+03 1.471455192565917969e+01 -3.074741935729980469e+01 8.774192039161937684e-14 1.748565214062386408e-13 7.877953253935740530e-14 2.567692796394665383e-14
2.017000000000000000e+03 1.461699199676513672e+01 -3.233192825317382812e+01 6.055324021066524343e-14 1.174532883061948918e-13 5.340195787743168276e-14 -4.561669510010080142e-14
2.018000000000000000e+03 1.474393081665039062e+01 -2.915946578979492188e+01 2.335483457289403569e-14 1.472620582334410733e-13 5.118506936655983774e-14 6.997165535513587969e-15
2.019000000000000000e+03 1.474883651733398438e+01 -2.756483268737792969e+01 -1.363125717445019813e-14 -2.871744251360837386e-14 -1.270460990641757160e-14 6.210411264434166287e-15
2.020000000000000000e+03 1.474447345733642578e+01 -2.596175575256347656e+01 -2.439625480527961993e-14 3.529541229055875584e-14 3.269747287935388137e-15 -3.198988315455779385e-14
2.021000000000000000e+03 1.474247360229492188e+01 -2.516068840026855469e+01 4.615107463399638343e-14 1.570318717723437341e-13 6.095488290546249854e-14 -4.286823581658646964e-14
2.022000000000000000e+03 1.327898025512695312e+01 -2.269874954223632812e+01 2.980751631848424510e-14 1.042765456231095622e-13 4.022521858247814219e-14 -9.401051816084870366e-15
2.023000000000000000e+03 1.475233173370361328e+01 -2.276615333557128906e+01 7.375123495039718341e-15 2.319155067639910861e-13 7.178718746834664155e-14 -6.350468924592317377e-14
2.024000000000000000e+03 1.475664138793945312e+01 -2.197232818603515625e+01 6.205034722801469615e-14 1.638458520334534763e-13 6.776885639030866271e-14 -3.787642332479627949e-14
2.025000000000000000e+03 1.474783897399902344e+01 -1.800517272949218750e+01 -9.742346632115456151e-14 -1.887744043656443271e-14 -3.489027304375523497e-14 -3.078539393911182464e-16
2.026000000000000000e+03 1.401462841033935547e+01 -1.725840568542480469e+01 -7.744093587962533332e-14 -7.893991992198590157e-14 -4.691425809573608607e-14 8.505536227589038933e-14
2.027000000000000000e+03 1.474041843414306641e+01 -1.641108131408691406e+01 1.632092411285384573e-15 -6.792695339584778336e-14 -1.988845896240716560e-14 4.629114254325319630e-15
2.028000000000000000e+03 1.400418472290039062e+01 -1.646410560607910156e+01 7.216744427529162009e-14 -6.057299301899521371e-14 3.478334868669153562e-15 6.022743068156977131e-14
2.029000000000000000e+03 1.473847389221191406e+01 -1.481692028045654297e+01 -5.616376978832653133e-14 6.743171017224713903e-14 3.380381649308061322e-15 -1.531902453196301583e-14
2.030000000000000000e+03 1.474223518371582031e+01 -1.322681713104248047e+01 -8.440213724323145095e-14 9.578604321389475040e-15 -2.244705919892623497e-14 7.792119000819136554e-14
2.031000000000000000e+03 1.474663543701171875e+01 -1.163708496093750000e+01 7.696454422129878070e-14 2.617395503893421571e-13 1.016112243174341345e-13 3.602130258569674615e-14
2.032000000000000000e+03 1.402376937866210938e+01 -1.173360443115234375e+01 -2.357401620645734747e-14 1.729006477921291030e-13 4.479799032273447390e-14 -4.598162738696405516e-14
2.033000000000000000e+03 1.472351360321044922e+01 -1.003702926635742188e+01 6.108739951599453932e-14 9.480673760159721852e-14 4.676824316815660076e-14 7.530266557878584344e-14
2.034000000000000000e+03 1.470552539825439453e+01 -7.586280345916748047e+00 -4.242282862347047934e-14 2.756973658700132002e-14 -4.455927356830863620e-15 5.562293247524108253e-14
2.035000000000000000e+03 1.396852111816406250e+01 -6.726623058319091797e+00 -8.727000784351790497e-14 -3.740143096489859098e-14 -3.740143096489859098e-14 1.554621062687788074e-14
2.036000000000000000e+03 1.474972438812255859e+01 -5.173525333404541016e+00 3.396437116471619222e-14 -1.226966933002421323e-13 -2.661969426896552970e-14 -6.435672476976395801e-15
2.037000000000000000e+03 1.404592418670654297e+01 -3.542086362838745117e+00 -4.450192943777952007e-15 1.353456192607072062e-13 3.926862700569418163e-14 -7.087273323958974067e-15
2.038000000000000000e+03 1.260364151000976562e+01 -1.923091769218444824e+00 1.619164295642207957e-14 5.269022319690820633e-14 2.066455967659249632e-14 -8.365612483339848748e-14
2.039000000000000000e+03 1.475502300262451172e+01 -2.783034324645996094e+00 -1.948420910019826174e-14 1.289024768001689747e-13 3.282547776889237212e-14 -5.960702309341925353e-14
2.040000000000000000e+03 1.475357818603515625e+01 -1.987606525421142578e+00 6.936607592575999570e-14 1.669811614283742141e-13 7.090417256149297853e-14 1.059614296804699263e-13
2.041000000000000000e+03 1.332963180541992188e+01 -1.945126891136169434e+00 -1.558678371680959854e-15 4.508294237058618759e-14 1.305727969730342483e-14 1.583398181213629356e-15
2.042000000000000000e+03 1.186446094512939453e+01 -1.902041554450988770e+00 2.611956027712743905e-14 -3.455685038252984120e-14 -2.531187709247078449e-15 -3.608179767878964828e-14
2.043000000000000000e+03 9.590822219848632812e+00 -1.850155472755432129e+00 -7.615305616464305982e-15 5.457476918296899626e-13 1.614397092571107084e-13 -2.107135944678581452e-13
2.044000000000000000e+03 1.037420463562011719e+01 -1.863376736640930176e+00 4.576273035647102083e-14 1.568654467388672091e-13 6.078845109572239558e-14 -5.294132103192406014e-14
2.045000000000000000e+03 8.771880149841308594e+00 -1.845534324645996094e+00 -4.674488199947132716e-14 1.629702774640084950e-13 3.486761660648207695e-14 7.118670717731322845e-15
2.046000000000000000e+03 7.948540687561035156e+00 -1.845423340797424316e+00 7.059463961751194505e-14 3.505114763973499192e-13 1.263318334492058437e-13 1.272448468749194650e-14
2.047000000000000000e+03 7.123125076293945312e+00 -1.847660064697265625e+00 4.414333803955941202e-15 2.763975571855314950e-13 8.424356589924186789e-14 3.405721614013063059e-14
2.048000000000000000e+03 4.646255016326904297e+00 -1.857368588447570801e+00 4.183622442617898618e-14 1.792981046836242265e-14 1.792981046836242265e-14 -7.369355370075506007e-14
2.049000000000000000e+03 1.024423003196716309e+00 -6.673096656799316406e+00 -1.135630370801112357e-14 2.696386950523654846e-13 7.748471731860301359e-14 -3.858088029823694698e-14
2.050000000000000000e+03 3.394283533096313477e+00 -3.398604154586791992e+00 6.879958410228458228e-16 -2.258061935404929305e-14 -6.567787170374964414e-15 7.686862112815402021e-15
2.051000000000000000e+03 8.624585866928100586e-01 -2.344203948974609375e+00 1.091792350022555494e-14 -1.783246808681124285e-13 -5.022203017498137745e-14 1.085290609822726210e-14
2.052000000000000000e+03 3.308505117893218994e-01 -1.897848725318908691e+00 3.215635901001115404e-14 1.378129635556208862e-14 1.378129635556208862e-14 -5.831575863477975186e-14
2.053000000000000000e+03 4.524185955524444580e-01 -4.205044937133789062e+01 3.171371653243500177e-14 2.880972912490398219e-13 9.594329996275019479e-14 1.980372517449563441e-14
2.054000000000000000e+03 5.786386132240295410e-01 -4.119601821899414062e+01 3.603827882002561683e-15 2.760501788094671394e-13 8.389620785196824637e-14 -3.412962729272550622e-14
2.055000000000000000e+03 5.974424481391906738e-01 -4.038904571533203125e+01 -1.249431195440506293e-13 3.124605337922331527e-13 5.625522562970747265e-14 -5.023727422693311309e-15
2.056000000000000000e+03 5.068193674087524414e-01 -3.880056381225585938e+01 -3.115882186055692060e-14 5.814085649556710589e-13 1.650749171687102002e-13 -6.813683460765024291e-14
2.057000000000000000e+03 5.650265216827392578e-01 -3.958974075317382812e+01 9.444136146946960353e-14 4.522334113091219798e-13 1.640024243796875392e-13 -1.705137123348982736e-14
2.058000000000000000e+03 4.094284176826477051e-01 -3.722683715820312500e+01 -3.155650382929281461e-14 5.354871819400475186e-13 1.511791993674682644e-13 -7.139529581683817794e-14
2.059000000000000000e+03 3.946515023708343506e-01 -3.564179229736328125e+01 -4.802602272032524544e-14 3.454249961152427995e-13 8.921969472898069742e-14 -3.409256790721723607e-14
2.060000000000000000e+03 3.966695070266723633e-01 -3.484183883666992188e+01 2.430841240645166546e-14 3.764254804129035792e-13 1.202201722503778991e-13 -6.051916238113130841e-14
2.061000000000000000e+03 3.977146744728088379e-01 -3.403746795654296875e+01 -3.469339548175902344e-14 2.367616194244581695e-13 6.062046752162292274e-14 -1.913985632582149848e-14
2.062000000000000000e+03 3.970877230167388916e-01 -3.323177337646484375e+01 1.628217553189051370e-14 2.586082932000410839e-13 8.246714129720583708e-14 1.872755626248188976e-14
2.063000000000000000e+03 3.945071101188659668e-01 -3.242574691772460938e+01 -3.308198983850707542e-14 5.348334080300387594e-13 1.505254254574595052e-13 2.082617186886272231e-14
2.064000000000000000e+03 1.192532420158386230e+00 -3.318321990966796875e+01 4.977567515199740958e-15 4.596427405356706686e-13 1.393860883918546234e-13 1.651613111411983498e-14
2.065000000000000000e+03 3.901146650314331055e-01 -3.161944007873535156e+01 2.381409414282942283e-14 4.219645737425087306e-13 1.337336003656014460e-13 6.411727702590463984e-14
2.066000000000000000e+03 3.725039660930633545e-01 -2.920392990112304688e+01 -2.315670001400409878e-14 2.874568801308069466e-13 7.929004946106293916e-14 1.772470652238247735e-15
2.067000000000000000e+03 3.682615458965301514e-01 -2.839900588989257812e+01 8.423128730963846955e-14 4.249821794390790108e-13 1.527640454456261065e-13 2.959419276478414407e-14
2.068000000000000000e+03 3.646610379219055176e-01 -2.759475326538085938e+01 9.110101589120470078e-14 4.965527771946809388e-13 1.762961386033920497e-13 3.804699543158256148e-14
2.069000000000000000e+03 3.617952466011047363e-01 -2.679082489013671875e+01 -1.247472448690639668e-13 3.125444781454378429e-13 5.633917337104395184e-14 5.944650018551919657e-14
2.070000000000000000e+03 3.595621883869171143e-01 -2.598686599731445312e+01 1.240479073627565043e-13 1.675407588271754511e-13 8.747660256748501784e-14 1.236835205651112823e-13
2.071000000000000000e+03 3.579804599285125732e-01 -2.518331718444824219e+01 -6.136578875257092669e-14 1.338286984486555808e-13 2.173887358645175405e-14 -2.247628861187008636e-14
2.072000000000000000e+03 3.567766845226287842e-01 -2.437927627563476562e+01 1.392684287392174231e-14 9.747054780049474454e-14 3.341921737173153550e-14 2.391625139846597498e-14
2.073000000000000000e+03 3.539818525314331055e-01 -2.196819686889648438e+01 -3.669682999585689026e-15 1.128046495189188869e-13 3.274048987109666464e-14 -2.744363201587999429e-14
2.074000000000000000e+03 3.535195887088775635e-01 -2.116373252868652344e+01 2.842069637899909129e-14 3.324369317152242598e-13 1.082572887670801842e-13 -8.129328238131935946e-14
2.075000000000000000e+03 3.531352281570434570e-01 -2.035970306396484375e+01 -5.579357912092672289e-14 9.046583604845406801e-14 1.040167809469774024e-14 -4.966321204649161436e-14
2.076000000000000000e+03 3.528804183006286621e-01 -1.955567741394042969e+01 1.580393056547536867e-14 2.355278515622782898e-13 7.539953904289742326e-14 -2.095694867372110276e-14
2.077000000000000000e+03 3.526754379272460938e-01 -1.875160026550292969e+01 3.807337881382363842e-14 1.631716138074390532e-14 1.631716138074390532e-14 -3.002436352924492402e-14
2.078000000000000000e+03 1.763773679733276367e+00 -2.021038436889648438e+01 6.235899925773058516e-14 -4.190113764312476674e-14 6.137359331414692781e-15 -7.778523783202526132e-14
2.079000000000000000e+03 3.523857891559600830e-01 -1.794742965698242188e+01 -1.369704452939754513e-14 3.988078788107023154e-14 7.855122666688627020e-15 -6.699282513282500684e-14
2.080000000000000000e+03 3.523157238960266113e-01 -1.553680992126464844e+01 -4.574552881137818050e-14 3.235268769465754479e-13 8.333440816750414815e-14 2.671174472747544354e-14
2.081000000000000000e+03 3.526481688022613525e-01 -1.473221397399902344e+01 1.757032799148180308e-14 2.820358421633251123e-13 8.988185087703548515e-14 -1.617935526121449825e-15
2.082000000000000000e+03 3.527469635009765625e-01 -1.392765140533447266e+01 -1.246401443291472386e-14 3.149149235652515255e-13 9.073527384084387193e-14 -7.091412773972205832e-15
2.083000000000000000e+03 3.528437912464141846e-01 -1.312368679046630859e+01 5.796976600461710427e-15 1.397372614755226783e-13 4.366027260864144277e-14 -1.112814691333870523e-14
2.084000000000000000e+03 3.529784381389617920e-01 -1.231986141204833984e+01 -2.405778890988627405e-14 2.184442676658043814e-13 5.831594159389635879e-14 -4.571685420501478067e-15
2.085000000000000000e+03 3.528611958026885986e-01 -1.151619815826416016e+01 4.876337845343726995e-14 1.810269057052338315e-13 6.893709100742537177e-14 1.083390884328624265e-14
2.086000000000000000e+03 1.763107061386108398e+00 -1.297016239166259766e+01 5.510299654716208084e-14 3.896231481979178790e-13 1.334178535879193550e-13 -5.100567456459495497e-14
2.087000000000000000e+03 3.522633910179138184e-01 -1.071290969848632812e+01 -8.412550305892177449e-14 1.927009577297814080e-13 3.257263843413696347e-14 3.537397290235069769e-14
2.088000000000000000e+03 3.488587439060211182e-01 -8.307685852050781250e+00 -1.123008563447486577e-14 2.239418503066636923e-13 6.381353101101924774e-14 3.236113091907577566e-14
2.089000000000000000e+03 3.456219434738159180e-01 -7.507543563842773438e+00 1.423260482722159964e-14 2.348544264878932308e-13 7.472611396851236432e-14 -7.484878636213141562e-15
2.090000000000000000e+03 3.405811488628387451e-01 -6.709359645843505859e+00 4.338329961115286459e-14 2.015966332671176309e-13 7.349397918585479084e-14 -1.411623012356538406e-14
2.091000000000000000e+03 3.333903551101684570e-01 -5.913326263427734375e+00 -3.281834575147649091e-14 7.743689045026924678e-14 1.338556425667077401e-14 -4.863108545960330431e-14
2.092000000000000000e+03 3.251270353794097900e-01 -5.119401454925537109e+00 -4.439862784063122736e-14 -6.477893173045465303e-14 -3.275326651607304851e-14 -9.123964469148412859e-15
2.093000000000000000e+03 3.206727206707000732e-01 -4.324872493743896484e+00 5.989578001327003354e-14 -1.573341744430870048e-13 -2.923151697369237578e-14 -2.398119256749901493e-15
2.094000000000000000e+03 3.493746221065521240e-01 -3.501558542251586914e+00 -7.696362264945216802e-14 -1.244863045112010180e-13 -6.043498085870138703e-14 5.117311264947639604e-14
2.095000000000000000e+03 7.957522583007812500e+01 -4.205632019042968750e+01 1.063262840403020326e-14 2.561870529084464554e-13 8.004590778187478661e-14 -1.395019324293693842e-15
2.096000000000000000e+03 7.950273895263671875e+01 -4.121094894409179688e+01 3.898404426420747082e-14 1.997112463467468069e-13 7.160858548922038880e-14 4.636170462292421579e-15
2.097000000000000000e+03 7.338185119628906250e+01 -3.842024993896484375e+01 5.767280895880395539e-15 1.511622722610503344e-13 4.707886709057369778e-14 2.499640644752949836e-14
2.098000000000000000e+03 5.248297500610351562e+01 -4.091864013671875000e+01 4.661372741791847130e-14 1.686678954056913815e-13 6.458448684708295584e-14 -4.177102745319587543e-15
2.099000000000000000e+03 3.287329864501953125e+01 -4.063714981079101562e+01 -3.896335294337194277e-14 3.550278831771641608e-13 9.481936178064309662e-14 -3.326159470464287726e-14
2.100000000000000000e+03 1.418660259246826172e+01 -3.749274826049804688e+01 -3.334776506043295174e-14 -1.429190052166118968e-14 -1.429190052166118968e-14 4.241895937696742169e-14
2.101000000000000000e+03 1.882091641426086426e+00 -4.015805435180664062e+01 -1.587211332959755083e-14 2.677033670694245471e-13 7.554937578313491997e-14 3.966689173309778660e-14
2.102000000000000000e+03 1.565083503723144531e+00 -4.198830795288085938e+01 1.806646229374295892e-14 4.538145304423119031e-13 1.415642912139594700e-13 1.149707634868005202e-14
2.103000000000000000e+03 7.959559631347656250e+01 2.897842788696289062e+01 1.234392633681774543e-14 -2.005890164255910713e-13 -5.647352634900563995e-14 1.398463423784700871e-14
2.104000000000000000e+03 7.961096954345703125e+01 2.819121551513671875e+01 8.813915851509090960e-14 -3.739846160619869631e-13 -8.575363590881610043e-14 -1.002967054162607133e-14
2.105000000000000000e+03 7.796646118164062500e+01 2.899638748168945312e+01 7.663845686539660917e-14 -1.730342214997793171e-13 -2.891872803506209677e-14 -2.228719867079093087e-14
2.106000000000000000e+03 7.802674865722656250e+01 2.823317909240722656e+01 -4.098397036783781033e-14 -1.776928756046236568e-13 -6.560305413055161905e-14 -6.631864789318278608e-14
2.107000000000000000e+03 7.962361145019531250e+01 2.740049743652343750e+01 -1.343300877433215024e-13 -4.235776226296783520e-13 -1.673723144671526719e-13 2.499709085015087984e-14
2.108000000000000000e+03 7.964061737060546875e+01 2.581680297851562500e+01 -1.952536981923713721e-14 -1.913718071814771160e-13 -6.326915310021427596e-14 -3.203684266115357226e-14
2.109000000000000000e+03 7.735308837890625000e+01 2.670280075073242188e+01 3.599256445186230224e-14 -2.819557738328870578e-13 -7.378896349193378446e-14 -1.285067353839152403e-15
2.110000000000000000e+03 7.964591217041015625e+01 2.423210334777832031e+01 8.405225842590680063e-14 -1.012304525144572254e-13 -5.153458565378306322e-15 -3.860153096149100682e-14
2.111000000000000000e+03 7.964225006103515625e+01 2.184769439697265625e+01 -1.154285000914967441e-13 -1.867222061647730302e-13 -9.064521052162821668e-14 7.064134162609175815e-14
2.112000000000000000e+03 7.964165496826171875e+01 2.104960632324218750e+01 4.846979005765535142e-14 -7.072912812074519384e-14 -6.677801927146721078e-15 1.115057719281494636e-14
2.113000000000000000e+03 7.964165496826171875e+01 2.025069808959960938e+01 -3.997698371882400792e-14 -1.713299302235314625e-14 -1.713299302235314625e-14 -1.615993004287687856e-14
2.114000000000000000e+03 7.964183807373046875e+01 1.945201683044433594e+01 -1.157512027037416874e-14 -2.337154992107515206e-13 -7.358718669137065405e-14 1.733683658330757715e-14
2.115000000000000000e+03 7.964175415039062500e+01 1.865319442749023438e+01 -4.542205370508534124e-14 2.628435561921344671e-14 -5.741309171651684182e-15 5.744641822782656226e-14
2.116000000000000000e+03 7.822724151611328125e+01 1.966537857055664062e+01 -2.975404821072176464e-14 -1.957555347204334439e-13 -6.765287386290702587e-14 6.259280067996350616e-14
2.117000000000000000e+03 7.964160156250000000e+01 1.705501365661621094e+01 3.737529491627811229e-14 1.075198822119913244e-13 4.346855178322811541e-14 -7.257866183052463782e-14
2.118000000000000000e+03 7.964131927490234375e+01 1.466002178192138672e+01 9.770340054582674072e-14 -1.868818549346715208e-13 -2.675353733309297072e-14 -2.449571680207800889e-14
2.119000000000000000e+03 7.964137268066406250e+01 1.386141395568847656e+01 -1.089882307667155992e-13 -1.839620849316409013e-13 -8.788509606475966573e-14 3.578338797147195827e-14
2.120000000000000000e+03 7.964147186279296875e+01 1.306268024444580078e+01 1.596445957201264587e-13 -1.603356390798144071e-13 -2.073115917731758258e-16 -6.805629871502530404e-14
2.121000000000000000e+03 7.964144134521484375e+01 1.226429462432861328e+01 -4.231670217144309354e-14 -6.388668077634412912e-14 -3.186101556196252460e-14 5.945320191019787259e-14
2.122000000000000000e+03 7.964117431640625000e+01 1.146577835083007812e+01 1.678099154046267666e-14 -3.588157332021224555e-13 -1.026104250395967754e-13 -2.397961454511828017e-14
2.123000000000000000e+03 7.892677307128906250e+01 1.158406543731689453e+01 -7.770542699960317212e-14 -2.391815857785001276e-13 -9.506610586631006332e-14 7.173679578424858871e-15
2.124000000000000000e+03 7.964122009277343750e+01 9.868220329284667969e+00 1.586220710987282234e-13 -2.352100888461817335e-14 4.053031985007914118e-14 -6.723584227352405462e-14
2.125000000000000000e+03 7.964061737060546875e+01 7.473578453063964844e+00 -1.640118162810066949e-13 -2.532945641425810024e-13 -1.251919168375817404e-13 5.679108238906306616e-14
2.126000000000000000e+03 7.964068603515625000e+01 6.674685001373291016e+00 2.830142804138846557e-13 -2.447157602426808243e-13 1.148955300204253932e-14 -8.015984387767585706e-14
2.127000000000000000e+03 7.964087677001953125e+01 5.875698089599609375e+00 -2.492188313357734941e-13 -1.983099692489179167e-13 -1.342586388201547076e-13 8.370475807709804039e-14
2.128000000000000000e+03 7.964089202880859375e+01 5.077087402343750000e+00 3.273579595331616021e-13 -8.845847638367862475e-14 7.166984291196581980e-14 -1.132870856043570462e-13
2.129000000000000000e+03 7.964061737060546875e+01 4.278438568115234375e+00 -4.247882156704213541e-13 -1.363011401878458373e-13 -1.683268054022274418e-13 1.510539740165461886e-13
2.130000000000000000e+03 7.822115325927734375e+01 5.287729740142822266e+00 1.567441787258747055e-13 -2.530805697387866759e-13 -2.890092001437902236e-14 -1.002537218823193466e-13
2.131000000000000000e+03 7.964053344726562500e+01 2.680889129638671875e+00 -6.345999030085702763e-13 -4.092242495389031287e-13 -3.131472403432311591e-13 1.617290286068384653e-13
2.132000000000000000e+03 7.963954162597656250e+01 2.865285873413085938e-01 -2.197191430533540490e-12 -1.216159226276325445e-12 -1.024005207884981505e-12 -6.057942775888891518e-13
2.133000000000000000e+03 7.963951110839843750e+01 -5.123111605644226074e-01 9.715118249806198314e-13 -4.986567799306063087e-13 1.418564972519714695e-13 6.267125625966998848e-14
2.134000000000000000e+03 7.963963317871093750e+01 -1.311249971389770508e+00 -5.896463872723245458e-13 -5.272113041271397904e-13 -3.350572857357958512e-13 -4.851442191771207502e-14
2.135000000000000000e+03 7.963957977294921875e+01 -2.109825611114501953e+00 3.300645618365544154e-13 -4.075551473994160068e-13 -2.324717499123211961e-14 2.227090345095165264e-14
2.136000000000000000e+03 7.963925170898437500e+01 -2.908454656600952148e+00 -3.180381847635305181e-13 -5.480606203242532892e-13 -2.598296469473460046e-13 3.343690341967020530e-14
2.137000000000000000e+03 7.892144012451171875e+01 -2.791110754013061523e+00 2.834779394729480817e-13 -4.046453656088994100e-13 -3.635022919603811409e-14 -2.122733514301183150e-14
2.138000000000000000e+03 7.963910675048828125e+01 -4.505980491638183594e+00 -2.415286937465510597e-13 -2.865160908006869622e-13 -1.584134434956877002e-13 1.619810412374373537e-14
2.139000000000000000e+03 7.963788604736328125e+01 -6.900335311889648438e+00 2.496074636045009232e-13 -4.420367609274389320e-13 -5.772879190738683386e-14 -6.308557056735816793e-14
2.140000000000000000e+03 7.963768768310546875e+01 -7.699490547180175781e+00 -2.473491788994308660e-13 -4.262634353564137557e-13 -2.020837788557425241e-13 3.907500882647900464e-14
2.141000000000000000e+03 7.963746643066406250e+01 -8.498266220092773438e+00 2.344424296623487391e-13 -1.740303593508046864e-13 1.812362177108957362e-14 -2.652815075967454757e-15
2.142000000000000000e+03 7.963710021972656250e+01 -9.297026634216308594e+00 -2.279710437352172603e-13 -1.434528223206305020e-13 -1.114271638825124755e-13 2.569610478987249119e-14
2.143000000000000000e+03 7.963700866699218750e+01 -1.009608936309814453e+01 2.583809088994165615e-13 6.498373074457358678e-14 9.700939595895519130e-14 3.158770354675109792e-16
2.144000000000000000e+03 7.963607788085937500e+01 -1.169277477264404297e+01 8.992433804966976085e-14 -3.732195487989725668e-13 -8.498856186953812619e-14 -5.228326791146577224e-14
2.145000000000000000e+03 7.963450622558593750e+01 -1.408814716339111328e+01 6.118160990851995162e-14 2.622068923476602448e-14 2.622068923476602448e-14 1.930635589819738179e-14
2.146000000000000000e+03 7.963417053222656250e+01 -1.488701343536376953e+01 6.299535139408021789e-14 -6.450388996808581465e-14 -4.525608628115857044e-16 -4.308159663973624987e-14
2.147000000000000000e+03 7.963368225097656250e+01 -1.568558406829833984e+01 -7.991553247063340470e-14 -2.172533122369105230e-13 -8.915065137938410489e-14 3.238209329045442508e-14
2.148000000000000000e+03 7.963308715820312500e+01 -1.648418045043945312e+01 -3.225762010478951114e-14 -1.968284882953794113e-13 -6.872583421411657123e-14 8.181108378637128031e-15
2.149000000000000000e+03 7.963276672363281250e+01 -1.728311729431152344e+01 1.689315394927219660e-14 -1.300129166652286283e-13 -3.393593118647918183e-14 1.972948443073468949e-14
2.150000000000000000e+03 7.963145446777343750e+01 -1.887964057922363281e+01 -6.729192940715944538e-14 -1.203412911855716860e-13 -5.628996753307205503e-14 2.376408192949173992e-14
2.151000000000000000e+03 7.962972259521484375e+01 -2.047729873657226562e+01 1.502500753750978663e-14 5.219023658880293792e-14 2.016457476255312242e-14 8.084564240935440682e-14
2.152000000000000000e+03 7.962741088867187500e+01 -2.207397842407226562e+01 -7.172116633230585236e-14 -3.073764319786419230e-14 -3.073764319786419230e-14 1.607034275617758023e-14
2.153000000000000000e+03 7.962557983398437500e+01 -2.287211418151855469e+01 1.141060309390803940e-13 1.861554259265790767e-13 9.007843705969784120e-14 -1.192698453292718314e-14
2.154000000000000000e+03 7.962382507324218750e+01 -2.367127418518066406e+01 -8.067406741555857574e-14 -8.032555062721311034e-14 -4.829988541283150583e-14 2.257049731032960416e-14
2.155000000000000000e+03 7.962220764160156250e+01 -2.447036743164062500e+01 4.470336657813080150e-14 -7.234330864393234695e-14 -8.291983297366821437e-15 1.705885731067766087e-14
2.156000000000000000e+03 7.961859130859375000e+01 -2.606729507446289062e+01 1.150066505787097904e-13 9.503950903176627829e-14 6.301385059364825181e-14 -3.154288353950096546e-14
2.157000000000000000e+03 7.961299133300781250e+01 -2.846037864685058594e+01 -2.168622540658221576e-14 -5.504504594104273063e-14 -2.301938072666112611e-14 -2.401865598772312538e-14
2.158000000000000000e+03 7.961095428466796875e+01 -2.925819587707519531e+01 -1.042226133412919864e-13 -9.041778556342222606e-14 -5.839212034904062154e-14 3.634224675754318956e-14
2.159000000000000000e+03 7.960698699951171875e+01 -3.005575752258300781e+01 -3.827886900682753168e-14 -1.640523078440172394e-14 -1.640523078440172394e-14 8.450046082774873013e-14
2.160000000000000000e+03 7.959972381591796875e+01 -3.085383224487304688e+01 3.672679293933306388e-14 1.072419537613382434e-13 4.319062333257503439e-14 9.974833628620827924e-15
2.161000000000000000e+03 7.958995056152343750e+01 -3.165320968627929688e+01 -9.644838909732972310e-15 1.331193456247797835e-13 3.704234998163496995e-14 5.981447162659719874e-14
2.162000000000000000e+03 7.956877136230468750e+01 -3.325405883789062500e+01 -5.306045452188948297e-14 -6.849114510135492773e-14 -3.646547988697332321e-14 2.868919565888333745e-14
2.163000000000000000e+03 7.954089355468750000e+01 -3.566504287719726562e+01 -1.199383745532217604e-13 6.297521233872629964e-14 -1.708895069722771165e-14 5.188570452734249383e-14
2.164000000000000000e+03 7.953370666503906250e+01 -3.647707366943359375e+01 6.005484602450081311e-14 4.861326727452486285e-14 3.260043466733406059e-14 3.583074388948705169e-14
2.165000000000000000e+03 7.953736877441406250e+01 -3.728663635253906250e+01 -8.680209329092747339e-14 2.373048047128734073e-13 4.515081003845199115e-14 1.448897798343295323e-14
2.166000000000000000e+03 7.956327056884765625e+01 -3.808628463745117188e+01 6.750179706643474886e-14 9.755576609125210519e-14 4.951726826967969841e-14 1.317322474349714567e-15
2.167000000000000000e+03 7.959769439697265625e+01 -3.887387847900390625e+01 -8.634092112059718604e-14 1.688760215652271302e-13 2.476052979457580433e-14 6.679031649579544871e-14
2.168000000000000000e+03 7.953244781494140625e+01 -4.042152404785156250e+01 -1.168331653211146515e-13 8.718148951239804156e-14 -8.895501895582035717e-15 2.361877258035731744e-15
2.169000000000000000e+03 7.632164764404296875e+01 2.898604011535644531e+01 9.528642252402269586e-14 -1.650422284732097622e-13 -2.092674178475611990e-14 6.446893969461620771e-15
2.170000000000000000e+03 7.321290588378906250e+01 2.899718475341796875e+01 1.457875974889694115e-13 2.912351349665387445e-13 1.311068224471578780e-13 3.333715004353796085e-14
2.171000000000000000e+03 7.093665313720703125e+01 2.901994514465332031e+01 3.816880893379309692e-14 -7.514383673678029507e-14 -1.109250884911592780e-14 -3.607492993565331041e-14
2.172000000000000000e+03 6.565953063964843750e+01 2.904729652404785156e+01 7.307042883090975049e-14 1.228177986829087631e-13 5.876646825414555408e-14 1.595865502463170160e-13
2.173000000000000000e+03 6.716919708251953125e+01 2.902528762817382812e+01 1.042673366809070135e-13 9.043694883682090735e-14 5.841129039870288087e-14 -8.285487232287738757e-14
2.174000000000000000e+03 6.942907714843750000e+01 2.902178192138671875e+01 -6.250045206585615881e-15 -1.399314420846148321e-13 -4.385444644147001858e-14 -1.664497803911119123e-13
2.175000000000000000e+03 6.415393066406250000e+01 2.907976150512695312e+01 7.326303734685180036e-14 2.144022399940340162e-13 8.629957913650759815e-14 7.151528311601443311e-14
2.176000000000000000e+03 5.963570404052734375e+01 2.920898818969726562e+01 4.891404867409486490e-14 -1.162896818771019802e-13 -2.021269131615485021e-14 2.082787948728438698e-14
2.177000000000000000e+03 6.114310836791992188e+01 2.915363693237304688e+01 1.025606940411975809e-13 2.269583718010614870e-13 9.885571771979864697e-14 -5.262192523630519758e-14
2.178000000000000000e+03 5.881614303588867188e+01 2.851366424560546875e+01 4.698633382328384900e-14 -2.561394937025240209e-14 6.411714997096255170e-15 2.674047608504630941e-14
2.179000000000000000e+03 5.812246322631835938e+01 2.930595588684082031e+01 -2.769205873249668166e-15 -4.693775140156113135e-14 -1.491208788124542134e-14 -3.516989556030282460e-14
2.180000000000000000e+03 5.508860015869140625e+01 2.956109809875488281e+01 -6.470874319231337268e-15 -4.852417973726444456e-14 -1.649851621694873455e-14 -3.160626193274632123e-14
2.181000000000000000e+03 5.357506179809570312e+01 2.971924209594726562e+01 5.999917901920726049e-14 7.146488126752101322e-14 3.943921944127119772e-14 2.948735480508106466e-14
2.182000000000000000e+03 5.281824874877929688e+01 2.980558395385742188e+01 -6.991950692470522144e-14 1.072873411747839179e-13 1.121035061383678783e-14 5.690380892181545747e-14
2.183000000000000000e+03 5.130350875854492188e+01 2.998937416076660156e+01 -7.351053359777592888e-14 -3.150451294699034566e-14 -3.150451294699034566e-14 1.061562879159198836e-13
2.184000000000000000e+03 4.828013992309570312e+01 3.042223358154296875e+01 -2.566508771389345960e-15 -1.099932315469845639e-15 -1.099932315469845639e-15 1.119748147286256379e-13
2.185000000000000000e+03 4.903453445434570312e+01 3.030576896667480469e+01 -9.658699756881841680e-14 1.873603133533893739e-13 2.723199405774492932e-14 -2.025033007219904230e-14
2.186000000000000000e+03 4.677940368652343750e+01 3.067515373229980469e+01 -8.792738164355249492e-15 -1.867721065697616756e-13 -5.866945248849883554e-14 -8.895477670439744244e-14
2.187000000000000000e+03 4.230463409423828125e+01 3.147673416137695312e+01 -3.085883667195733759e-14 1.240276327821310254e-13 2.795063883305210634e-14 -9.025828925945424130e-15
2.188000000000000000e+03 4.304771041870117188e+01 3.133716964721679688e+01 1.383877002919257546e-16 -4.569164057527386191e-14 -1.366597536089225740e-14 5.978441889762861616e-14
2.189000000000000000e+03 4.379273223876953125e+01 3.120208358764648438e+01 1.326028808377186299e-14 1.429358205146807892e-13 4.685883503593134269e-14 1.744343872903814097e-13
2.190000000000000000e+03 4.082451248168945312e+01 3.176558303833007812e+01 -1.235882225822815955e-14 3.149599992705726104e-13 9.078035632242853481e-14 1.441815010482308534e-13
2.191000000000000000e+03 4.008597564697265625e+01 3.191036796569824219e+01 -8.183610513963317235e-15 -3.507261467334361546e-15 -3.507261467334361546e-15 4.914209704855003469e-14
2.192000000000000000e+03 3.639678192138671875e+01 3.262244033813476562e+01 -1.105104167355673572e-13 4.414028956798224379e-14 -1.991103747264917623e-14 8.795126627859917168e-14
2.193000000000000000e+03 3.919232559204101562e+01 3.139320564270019531e+01 -6.141807101420725112e-15 -9.413409857378721157e-14 -3.008277153315579155e-14 -2.976857313170128139e-14
2.194000000000000000e+03 3.492327499389648438e+01 3.291868972778320312e+01 -2.401695650081775435e-13 -1.944317103153014870e-13 -1.303803798865382779e-13 5.961524947740298730e-14
2.195000000000000000e+03 3.418755340576171875e+01 3.306653213500976562e+01 -9.595223107814604413e-14 -8.687333214992334907e-14 -5.484766693554174455e-14 1.320542525155843361e-13
2.196000000000000000e+03 3.345455169677734375e+01 3.321212768554687500e+01 -1.849837150862468360e-13 -2.165315859557412348e-13 -1.204545903125964212e-13 -1.532014261545339151e-14
2.197000000000000000e+03 3.054153633117675781e+01 3.377282333374023438e+01 -1.175039883102857452e-13 4.114304654346395695e-14 -2.290828049716746306e-14 -1.229786536277241438e-13
2.198000000000000000e+03 3.199567222595214844e+01 3.349877929687500000e+01 -8.574912969353670755e-14 5.475227069689017623e-14 -9.299057190774191045e-15 8.474519236313302062e-14
2.199000000000000000e+03 2.908980178833007812e+01 3.401591873168945312e+01 -1.635900751884369897e-13 1.586447173716060144e-13 -1.483606688598758470e-15 -6.711506215150916943e-14
2.200000000000000000e+03 2.836326408386230469e+01 3.413105392456054688e+01 -1.186057884392834050e-14 -9.658500534732647469e-14 -3.253367491856326565e-14 1.030417613213929773e-13
2.201000000000000000e+03 2.764269065856933594e+01 3.423281478881835938e+01 -1.165000391214207967e-14 -4.992859000996522842e-15 -4.992859000996522842e-15 5.648430738435829268e-14
2.202000000000000000e+03 2.469036293029785156e+01 3.455064773559570312e+01 -5.753898198830251220e-14 -1.161614614176784133e-13 -5.211013098891520423e-14 -5.292778968059167269e-15
2.203000000000000000e+03 2.620874977111816406e+01 3.440907669067382812e+01 -5.111618864728911804e-14 1.153459109910076608e-13 1.926891534786284721e-14 7.862444419484693192e-14
2.204000000000000000e+03 2.094769668579101562e+01 3.097930717468261719e+01 -1.176091694735439952e-13 -5.040392880633834394e-14 -5.040392880633834394e-14 7.387948082080916801e-14
2.205000000000000000e+03 2.212502098083496094e+01 3.369952774047851562e+01 6.845579333426832225e-14 -1.307901269925748622e-13 -1.870030043630514088e-14 -2.452853678768527126e-15
2.206000000000000000e+03 2.119178390502929688e+01 3.427902984619140625e+01 -1.851537366216174027e-15 -7.935160292182343554e-16 -7.935160292182343554e-16 -9.460456777774656212e-14
2.207000000000000000e+03 2.606101799011230469e+01 3.368067932128906250e+01 -7.226122098694803819e-14 -5.384456986182173388e-14 -3.783173725463093162e-14 8.095042377306155279e-14
2.208000000000000000e+03 2.291781997680664062e+01 3.454068374633789062e+01 -4.632027793553990247e-14 -4.316100970548630844e-13 -1.433791101254286438e-13 6.633230206429252540e-14
2.209000000000000000e+03 2.084504127502441406e+01 3.180998039245605469e+01 1.577947299734316911e-13 6.762631090968113101e-14 6.762631090968113101e-14 1.776699548930709555e-14
2.210000000000000000e+03 2.751487731933593750e+01 3.353802490234375000e+01 -6.987313017677715399e-14 -1.900739494183761868e-13 -7.798412116804057104e-14 3.601173111339277255e-14
2.211000000000000000e+03 2.895627212524414062e+01 3.334588241577148438e+01 -1.292197821184740136e-13 -1.240063282094416852e-13 -7.596783038786927844e-14 -1.685355177085626904e-14
2.212000000000000000e+03 2.967633247375488281e+01 3.323161315917968750e+01 -1.449553774538966944e-13 1.208800583501340453e-13 -7.222595731128794716e-15 -3.375579099552071527e-14
2.213000000000000000e+03 2.823496246337890625e+01 3.344917678833007812e+01 -1.097984686027411727e-13 6.732088438142838638e-14 -1.274327611342678315e-14 1.578013232778931185e-14
2.214000000000000000e+03 3.025948905944824219e+01 3.245249938964843750e+01 -1.194673971294940573e-13 8.605253689524319793e-14 -1.002445874790161562e-14 -1.213949459618474114e-13
2.215000000000000000e+03 3.256672668457031250e+01 3.269987106323242188e+01 -1.659250943022647085e-13 -9.398622694998734484e-14 -7.797339434279654258e-14 1.150308435337492677e-14
2.216000000000000000e+03 3.126797294616699219e+01 3.364037322998046875e+01 -1.135840350268736698e-13 -9.442982149259621094e-14 -6.240415627821460642e-14 -1.856888666267042520e-13
2.217000000000000000e+03 3.111646080017089844e+01 3.297811889648437500e+01 -1.087755374055282553e-13 -4.661808794353093643e-14 -4.661808794353093643e-14 -1.173009307959063663e-13
2.218000000000000000e+03 3.039559745788574219e+01 3.310882568359375000e+01 -7.535213230290549458e-14 1.507100244298523184e-13 2.260736696045768934e-14 -8.771539809597495019e-14
2.219000000000000000e+03 1.330931854248046875e+01 -5.064122676849365234e+00 -8.744504550800211162e-14 5.402544866551020619e-14 -1.002587922215416108e-14 5.119440366963858013e-14
2.220000000000000000e+03 1.188423252105712891e+01 -2.647707223892211914e+00 -3.741709091002742849e-14 7.546600063607078468e-14 1.141467274840641741e-14 -8.897957105282947032e-14
2.221000000000000000e+03 1.116216659545898438e+01 -3.352413415908813477e+00 2.563378857594299232e-14 3.312425474969599160e-13 1.070629045488158404e-13 -4.461996093788056506e-14
2.222000000000000000e+03 1.114849281311035156e+01 -2.613295555114746094e+00 -9.108661971923316669e-15 4.184723585449329208e-14 9.821572334177582075e-15 4.001074645210156433e-14
2.223000000000000000e+03 7.559519195556640625e+01 2.733837699890136719e+01 -7.629293518555263498e-14 -5.557244931158472623e-14 -3.955961670439392397e-14 -2.573232222463119057e-14
2.224000000000000000e+03 7.963362884521484375e+01 2.660868644714355469e+01 5.052754479466063653e-14 -1.842246109351811101e-13 -4.010911747046388975e-14 1.758442770192179816e-14
2.225000000000000000e+03 7.473841094970703125e+01 2.816347122192382812e+01 -2.220644085553381136e-14 8.198485428956639454e-14 1.793352386080318550e-14 3.313192751294539995e-14
2.226000000000000000e+03 7.397911834716796875e+01 2.898255920410156250e+01 1.844402214778387977e-14 1.451574320812665242e-13 4.908043643812171064e-14 2.507086064359315136e-14
2.227000000000000000e+03 7.392050170898437500e+01 2.820444107055664062e+01 7.800877999120103823e-14 1.055685876579946433e-14 2.656969052595731934e-14 1.227430564956430437e-13
2.228000000000000000e+03 7.312127685546875000e+01 2.825261688232421875e+01 5.546305246534799158e-15 -4.337396191994233319e-14 -1.134829670556072867e-14 -9.753949628240124459e-14
2.229000000000000000e+03 7.169165039062500000e+01 2.901572990417480469e+01 3.277861990625026423e-14 3.343046325876564140e-13 1.101249760869851824e-13 -1.017591501513426255e-14
2.230000000000000000e+03 6.867483520507812500e+01 2.902218055725097656e+01 1.137774770232358179e-13 3.010826044860456796e-15 3.503649125924206131e-14 1.954422434912654431e-15
2.231000000000000000e+03 6.852639770507812500e+01 2.834304237365722656e+01 -2.046287393207119575e-15 -2.375245555525772739e-14 -7.739622948066925134e-15 -1.179430630850880624e-13
2.232000000000000000e+03 3.756653213500976562e+01 3.101979064941406250e+01 -1.058766247417908257e-13 1.376280952267508462e-13 9.525443686586847897e-15 9.766395591553900246e-14
2.233000000000000000e+03 3.771582412719726562e+01 3.168007087707519531e+01 -5.913565264640402441e-14 6.615805044638337074e-14 2.106719170587214446e-15 -2.039487455058209414e-14
2.234000000000000000e+03 3.861035537719726562e+01 3.219467544555664062e+01 3.755295160663522924e-14 1.609412235913879746e-14 1.609412235913879746e-14 2.469423972557426190e-15
2.235000000000000000e+03 3.993288421630859375e+01 3.124939537048339844e+01 -3.675412838660685466e-14 9.862560258495217669e-14 1.856144293712995441e-14 1.322900529355727772e-13
2.236000000000000000e+03 3.787273406982421875e+01 3.233586883544921875e+01 -7.052731066260059523e-14 1.070268548265806974e-13 1.094986511266651460e-14 -4.740510098317574431e-15
2.237000000000000000e+03 3.845429992675781250e+01 3.153614044189453125e+01 -6.451433896652314370e-14 1.553547871943616876e-13 2.725213650123063658e-14 7.929313266099094482e-14
2.238000000000000000e+03 3.476296234130859375e+01 3.226700210571289062e+01 -5.634545157924900072e-14 2.046066902060619808e-13 4.447837091041753621e-14 1.080301484119444710e-13
2.239000000000000000e+03 3.329602432250976562e+01 3.255745315551757812e+01 -2.141419772625288709e-13 -2.732369469164762713e-16 -6.432456292875671222e-14 4.845115533281575682e-14
2.240000000000000000e+03 3.402822113037109375e+01 3.241313934326171875e+01 -1.539501016359530461e-14 -7.522428453797871950e-14 -2.718578841047220723e-14 -3.234509150318656823e-14
2.241000000000000000e+03 4.067508697509765625e+01 3.110590553283691406e+01 -5.924716283984415854e-14 2.262385835312755167e-13 5.009742485217669183e-14 5.135357471295481924e-14
2.242000000000000000e+03 4.291254425048828125e+01 3.068133163452148438e+01 5.534191828356115408e-15 7.099822032369251801e-14 2.295972419618600574e-14 7.115156716846343654e-14
2.243000000000000000e+03 6.792185211181640625e+01 2.902320671081542969e+01 4.900194020083376012e-15 -8.940181358890395003e-14 -2.535048654827253001e-14 -1.121181462558282216e-13
2.244000000000000000e+03 6.956047821044921875e+01 2.629249954223632812e+01 1.053010421372090055e-13 -1.378747783260456106e-13 -9.772120856650981513e-15 1.723946336975711729e-14
2.245000000000000000e+03 6.761887359619140625e+01 2.767631340026855469e+01 -3.843916829802951352e-15 1.127299818705525258e-13 3.266581883459851454e-14 -2.099510479748947778e-13
2.246000000000000000e+03 7.004040527343750000e+01 2.833459854125976562e+01 1.179288735891556583e-14 -1.321987495601223417e-13 -3.612176069324110617e-14 -7.169819479877631574e-14
2.247000000000000000e+03 6.702286529541015625e+01 2.835774803161621094e+01 3.622197824342844596e-14 -3.022724486077127404e-14 1.798419930093856853e-15 -2.124415823378383861e-13
2.248000000000000000e+03 4.365933609008789062e+01 3.054377365112304688e+01 8.177097677631878919e-15 2.637994498137698901e-14 1.036711237418618675e-14 8.141761326544913469e-14
2.249000000000000000e+03 4.603132629394531250e+01 3.080294418334960938e+01 -8.891234543593768552e-15 2.706951687542896723e-13 7.854117746800004518e-14 -1.582902645763661909e-13
2.250000000000000000e+03 4.453767776489257812e+01 3.106745529174804688e+01 -2.428072289940592238e-14 -1.040602422075010206e-14 -1.040602422075010206e-14 9.289132505731212408e-14
2.251000000000000000e+03 4.216531753540039062e+01 3.082120895385742188e+01 -8.308791480358956871e-14 1.016437368300815436e-13 5.566746269134413561e-15 -9.481906362504566310e-14
2.252000000000000000e+03 6.477531433105468750e+01 2.842298507690429688e+01 9.267042564093178059e-14 1.312177905395117694e-13 6.716646688701213841e-14 1.170576087233463070e-13
2.253000000000000000e+03 6.264984512329101562e+01 2.912222290039062500e+01 4.423373085459154919e-14 1.562101549458169703e-13 6.013316607893573473e-14 7.858197057473981229e-14
2.254000000000000000e+03 6.552080535888671875e+01 2.839724540710449219e+01 1.623502628991455032e-13 6.957868119552082509e-14 6.957868119552082509e-14 1.309384865073523474e-14
2.255000000000000000e+03 6.490615844726562500e+01 2.906320571899414062e+01 6.127420077405021370e-14 -2.939962726392075787e-13 -6.981662291479992510e-14 -2.993461530628564737e-14
2.256000000000000000e+03 6.403601837158203125e+01 2.844952964782714844e+01 7.593928198941501950e-14 -1.504583946581455889e-13 -2.235573210655327631e-14 7.269925221715933805e-14
2.257000000000000000e+03 6.627111053466796875e+01 2.837411499023437500e+01 1.161073732817985427e-13 3.242660046726131284e-13 1.321120133863235013e-13 1.157472013200988581e-13
2.258000000000000000e+03 4.665701675415039062e+01 3.000665283203125000e+01 -2.300713263024382893e-14 3.103964296962552494e-13 8.621679352437475186e-14 -1.751679449277579459e-13
2.259000000000000000e+03 4.740914154052734375e+01 2.987621498107910156e+01 9.056230971301454380e-14 -5.268947780791462254e-14 1.136185007974974473e-14 9.452293074229019265e-15
2.260000000000000000e+03 4.979056549072265625e+01 3.019786071777343750e+01 1.777045477186368211e-14 -2.211388353250826055e-13 -6.101051602943816099e-14 7.767347691683273991e-14
2.261000000000000000e+03 4.515755844116210938e+01 3.027131843566894531e+01 2.813239855100572312e-14 1.205674235715001666e-14 1.205674235715001666e-14 7.109751291390145611e-14
2.262000000000000000e+03 6.182847213745117188e+01 2.847994232177734375e+01 6.195842043631508145e-14 7.230455519252956820e-14 4.027889336627975270e-14 -8.313960414216281514e-15
2.263000000000000000e+03 6.392781829833984375e+01 2.782443428039550781e+01 1.207374451068707333e-13 5.993669085758946899e-15 3.801933472365702504e-14 2.585907392892421858e-14
2.264000000000000000e+03 6.340173339843750000e+01 2.909992980957031250e+01 1.231687007160336966e-13 -3.871531120322978248e-14 2.533601753146753205e-14 3.942400080030787970e-15
2.265000000000000000e+03 6.321563339233398438e+01 2.784421920776367188e+01 -3.376777142952668009e-14 3.127904632895840698e-14 -7.466170854781846271e-16 1.536047087051170545e-13
2.266000000000000000e+03 5.888077163696289062e+01 2.925463867187500000e+01 -2.216586120109675234e-14 8.200224218190763081e-14 1.795091514127621080e-14 2.223704076778632022e-13
2.267000000000000000e+03 5.957295227050781250e+01 2.845382118225097656e+01 5.134484010920273289e-14 1.363823062729835334e-13 5.631814323702952207e-14 2.512888985437000677e-13
2.268000000000000000e+03 6.108238601684570312e+01 2.845997619628906250e+01 1.352765233950678839e-14 -3.995338199278171409e-14 -7.927719319498951339e-15 1.229186701425313832e-13
2.269000000000000000e+03 5.729572296142578125e+01 2.865722656250000000e+01 -1.097015451636857049e-15 -1.377229900218976399e-13 -4.164600454314819344e-14 -5.882289420095984656e-14
2.270000000000000000e+03 5.584698104858398438e+01 2.949464035034179688e+01 -3.270372864118582801e-14 2.147388576635364532e-13 5.461053836789200866e-14 8.620592439759558467e-14
2.271000000000000000e+03 5.274064254760742188e+01 2.910607147216796875e+01 -3.742240011254081844e-14 2.971277737739974611e-14 -2.312887413465384776e-15 -5.679972212512506002e-14
2.272000000000000000e+03 5.350178146362304688e+01 2.901867294311523438e+01 -5.022303645012271556e-14 2.422679061758834657e-14 -7.798874596793257952e-15 1.571190145219572565e-13
2.273000000000000000e+03 5.054678726196289062e+01 3.009207725524902344e+01 -3.586330722411129601e-14 -1.536998881033341258e-14 -1.536998881033341258e-14 -1.116610805012262231e-13
2.274000000000000000e+03 5.121524047851562500e+01 2.929586601257324219e+01 -1.247320643445832752e-14 1.319071804908866774e-13 3.583019501213723090e-14 -9.264998842998042883e-14
2.275000000000000000e+03 4.816660690307617188e+01 2.974933815002441406e+01 -5.361034153498339672e-14 2.286543621544262495e-13 5.251320347532742461e-14 -4.732164028578393633e-14
2.276000000000000000e+03 5.035576248168945312e+01 2.872351646423339844e+01 -6.751801944144056322e-14 2.455694068231872862e-13 5.341541553689765909e-14 -6.427885703092287017e-14
2.277000000000000000e+03 4.892723083496093750e+01 2.962796401977539062e+01 -4.653164907829658234e-15 -9.349611335791527256e-14 -2.944478292915206352e-14 8.147500821795508608e-14
2.278000000000000000e+03 5.653721618652343750e+01 2.872603225708007812e+01 5.834176593439224789e-14 2.537583587269159890e-13 9.363003943127154449e-14 1.737615178696097495e-13
2.279000000000000000e+03 5.577922821044921875e+01 2.879370880126953125e+01 -7.053793584389095317e-14 1.552040492110683123e-14 -1.650525859920887878e-14 -1.024508372560704872e-13
2.280000000000000000e+03 5.426077651977539062e+01 2.893838500976562500e+01 5.747416025091503511e-14 2.463178248065904519e-14 2.463178248065904519e-14 -1.173029230173983084e-13
2.281000000000000000e+03 1.618219947814941406e+01 -3.768606948852539062e+01 -1.172142217271618381e-13 -1.874875173732762357e-13 -9.141052173013142212e-14 4.790388395746296435e-14
2.282000000000000000e+03 1.385628890991210938e+01 -3.145073890686035156e+01 1.320818454608740922e-13 2.853612528566640272e-13 1.252329267847560046e-13 5.349355602034776280e-14
2.283000000000000000e+03 7.884311676025390625e+01 -2.833680915832519531e+01 3.771725905774361842e-14 -7.533736004830537958e-14 -1.128602961954217054e-14 7.630152748776958260e-14
2.284000000000000000e+03 7.961514282226562500e+01 -2.766308593750000000e+01 7.303653396049242241e-14 -6.020052891516497473e-14 3.850801937114707932e-15 1.760466331903170339e-14
2.285000000000000000e+03 7.774684143066406250e+01 -3.543696212768554688e+01 -3.852804915925080176e-14 6.363453177344073272e-15 -9.649379006330255359e-15 1.151445475425227905e-13
2.286000000000000000e+03 7.954995727539062500e+01 -3.485737228393554688e+01 9.175924858264780659e-14 -6.425555091937916810e-15 2.560010885189426683e-14 -1.009152275090706430e-13
2.287000000000000000e+03 7.962871551513671875e+01 -2.127569770812988281e+01 6.336388526503519691e-14 -1.100968952507178078e-13 -1.401990214867183601e-14 -2.455672858526873614e-14
2.288000000000000000e+03 7.738044738769531250e+01 -2.339971351623535156e+01 3.908890355494576418e-14 1.082542868823151150e-13 4.420295645355190595e-14 1.708603012762557882e-14
2.289000000000000000e+03 7.886367797851562500e+01 -2.515241813659667969e+01 3.732575365325910277e-14 1.599675253372012662e-14 1.599675253372012662e-14 3.877425453196331473e-14
2.290000000000000000e+03 7.886891174316406250e+01 -2.435527038574218750e+01 -4.853708851938060009e-14 2.494934021478236591e-14 -7.076324152566291353e-15 6.052204229315197304e-14
2.291000000000000000e+03 7.962045288085937500e+01 -2.526873970031738281e+01 -7.955762378096878362e-14 -3.409612544559570413e-14 -3.409612544559570413e-14 3.057042703561493185e-15
2.292000000000000000e+03 7.885851287841796875e+01 -2.595063018798828125e+01 2.318022381301524520e-14 -1.044429909853768212e-13 -2.437882964348870446e-14 7.809489952501427745e-14
2.293000000000000000e+03 7.807959747314453125e+01 -2.823235130310058594e+01 6.298080868540880881e-15 -8.880271734970635045e-14 -2.475139200314082494e-14 -5.671816640483162697e-14
2.294000000000000000e+03 7.724674987792968750e+01 -3.042776679992675781e+01 -1.983890584092689452e-14 -8.502387975530684150e-15 -8.502387975530684150e-15 9.544925613780286255e-14
2.295000000000000000e+03 7.874259948730468750e+01 -3.231667709350585938e+01 -4.043926719638109291e-14 -1.088330136731971431e-13 -4.478168324443393411e-14 -5.652379606035928816e-14
2.296000000000000000e+03 7.877641296386718750e+01 -3.151347923278808594e+01 -3.209519306682402651e-14 -1.375508237991046254e-14 -1.375508237991046254e-14 1.892631593168690035e-14
2.297000000000000000e+03 7.957932281494140625e+01 -3.245366287231445312e+01 7.936991450359365263e-14 7.976662407850609871e-14 4.774096225225628320e-14 2.630340200206540691e-14
2.298000000000000000e+03 7.870877075195312500e+01 -3.312068557739257812e+01 2.250352919145378466e-14 5.539531778165490694e-14 2.336965426133919693e-14 -2.065470190715235077e-14
2.299000000000000000e+03 7.863224792480468750e+01 -3.556024169921875000e+01 5.367897153250172915e-14 1.602581186244816935e-13 6.418112975760045802e-14 3.675225813785931717e-14
2.300000000000000000e+03 7.881564331054687500e+01 -3.883939743041992188e+01 5.843355042455672388e-14 1.165448488583964437e-13 5.249352181776502368e-14 -1.493633843452531196e-14
2.301000000000000000e+03 7.756308746337890625e+01 -3.964712142944335938e+01 -4.904551835190409936e-14 2.534861968765678153e-13 6.133219881401461016e-14 -3.101366074218826763e-14
2.302000000000000000e+03 7.878842926025390625e+01 -3.949125671386718750e+01 9.397102948484770818e-15 2.327820824554044377e-13 7.265374960723283704e-14 3.343412515160321119e-14
2.303000000000000000e+03 7.958677673339843750e+01 -3.964905166625976562e+01 6.998594141282427072e-14 7.574492519746983676e-14 4.371925998308823225e-14 3.847990634762770909e-15
2.304000000000000000e+03 7.855995941162109375e+01 -4.017329406738281250e+01 3.564527416722446107e-14 1.982803434245547503e-13 7.017768256702833218e-14 4.605904958647488723e-14
2.305000000000000000e+03 7.853322601318359375e+01 -4.196691131591796875e+01 5.583774341879656211e-14 1.840587822128994522e-13 7.196896073882741440e-14 4.618036842144422616e-14
2.306000000000000000e+03 7.886180114746093750e+01 2.744411277770996094e+01 3.087246712614455380e-14 -2.612746444977803728e-13 -6.912065321149074570e-14 -2.192199406283513487e-15
2.307000000000000000e+03 7.963063812255859375e+01 -1.967892646789550781e+01 1.296966769143712353e-14 -8.594346615669115619e-14 -2.189214081012563068e-14 7.110151768567607444e-14
2.308000000000000000e+03 7.887925720214843750e+01 -2.275359153747558594e+01 -2.895390700742746237e-14 -1.240881668387395012e-14 -1.240881668387395012e-14 9.926955091277278598e-14
2.309000000000000000e+03 7.890674591064453125e+01 -1.397089385986328125e+01 1.250190814587603949e-13 -1.294241948855689994e-13 -1.321531486943739592e-15 -3.650819745256925208e-14
2.310000000000000000e+03 7.963507080078125000e+01 -1.329031658172607422e+01 -2.705982614088602023e-14 -1.030989665385187437e-13 -3.904763949788732369e-14 2.904153425988681425e-14
2.311000000000000000e+03 7.891760253906250000e+01 -6.781181812286376953e+00 -2.673868884552760283e-13 -3.662246016427478379e-13 -1.900834497399125911e-13 -1.059996427248523568e-14
2.312000000000000000e+03 7.963876342773437500e+01 -6.102362155914306641e+00 -2.928784601993750236e-13 -4.457759844849612518e-13 -2.215963415368171763e-13 1.953040458307561678e-14
2.313000000000000000e+03 7.892250823974609375e+01 4.055533409118652344e-01 -1.047953932832579316e-12 -1.288664812880424559e-13 -3.530461242361865315e-13 -8.493836330895204734e-14
2.314000000000000000e+03 7.964027404785156250e+01 1.084429502487182617e+00 -1.472979182202960313e-12 -1.271790073427425671e-12 -8.234307875311375202e-13 8.753566448083116569e-13
2.315000000000000000e+03 7.892583465576171875e+01 7.592684268951416016e+00 7.220333136720089029e-14 -2.893123566237443267e-13 -6.513270689933667312e-14 -4.801399485247423438e-14
2.316000000000000000e+03 7.964122772216796875e+01 8.271572113037109375e+00 1.115869414014189487e-13 -4.096865262401966357e-13 -8.942987409638059049e-14 -2.674438598913083526e-14
2.317000000000000000e+03 7.892744445800781250e+01 1.477775287628173828e+01 -3.416444034685765796e-14 -1.061437992621455662e-13 -4.209247222151414614e-14 4.328225874494079362e-14
2.318000000000000000e+03 7.964170837402343750e+01 1.545782184600830078e+01 -4.703122995762011593e-14 -6.590719316872453715e-14 -3.388152456621114361e-14 4.486624084949243640e-14
2.319000000000000000e+03 7.893069458007812500e+01 2.196690940856933594e+01 3.864629326462160758e-15 -4.409467853783849423e-14 -1.206901501752278422e-14 2.795198730950413518e-14
2.320000000000000000e+03 7.964405822753906250e+01 2.264334869384765625e+01 6.810907225577103596e-14 -1.080632436832595911e-13 -1.198625142824656653e-14 -3.016654647977103088e-14
2.321000000000000000e+03 7.891368865966796875e+01 2.588797569274902344e+01 1.543547970374922057e-14 -3.593923932326131832e-13 -1.031870715175603470e-13 -4.747467881056205430e-14
2.322000000000000000e+03 7.381002807617187500e+01 2.744588279724121094e+01 -4.743623029102028710e-14 -2.033336064626023454e-13 -7.523095238133950535e-14 -3.984285774569218397e-14
2.323000000000000000e+03 7.964452362060546875e+01 2.502484321594238281e+01 -6.150844942967928497e-15 -2.771417806617798574e-13 -8.498778259922665224e-14 2.162799189145848261e-14
2.324000000000000000e+03 7.893394470214843750e+01 2.275746154785156250e+01 -6.507888981399992390e-14 -1.193928446776085228e-13 -5.534152102510889182e-14 1.012920351978544020e-13
2.325000000000000000e+03 7.893461608886718750e+01 2.432847404479980469e+01 -1.404177203115017369e-13 -2.431828067910035696e-13 -1.150801594860043076e-13 -2.412515174611551405e-14
2.326000000000000000e+03 7.822769927978515625e+01 2.206026840209960938e+01 -6.285927216297202552e-15 -2.693968806984515379e-15 -2.693968806984515379e-15 3.026163439842979863e-14
2.327000000000000000e+03 7.892949676513671875e+01 2.116921997070312500e+01 -6.855863668659215038e-14 -7.513321833175351516e-14 -4.310755650550369966e-14 1.675039332227606231e-14
2.328000000000000000e+03 7.892856597900390625e+01 1.717085266113281250e+01 1.049423406247057544e-13 -1.151530314245224895e-13 -3.063208256384557238e-15 2.352642650734881186e-14
2.329000000000000000e+03 7.892935943603515625e+01 1.877171516418457031e+01 3.638707512924367615e-14 -7.590744032686183584e-14 -1.185610905106567955e-14 3.559466225456012212e-14
2.330000000000000000e+03 7.964160156250000000e+01 1.785419082641601562e+01 5.145721427624906641e-14 2.205309231669699832e-14 2.205309231669699832e-14 1.364737367033760571e-14
2.331000000000000000e+03 7.892895507812500000e+01 1.637036132812500000e+01 2.457605448899329026e-14 5.628354363520007841e-14 2.425788011488436841e-14 1.610220474752149800e-14
2.332000000000000000e+03 7.822039794921875000e+01 1.487059593200683594e+01 1.080615021835200362e-13 -1.824426704545925593e-13 -2.231435115894811472e-14 -4.947238907600237656e-14
2.333000000000000000e+03 7.892778015136718750e+01 1.397908020019531250e+01 1.032660556458259160e-13 -1.844978569877017693e-13 -2.436954108018911380e-14 -7.362504567598113225e-14
2.334000000000000000e+03 7.892652130126953125e+01 1.078450489044189453e+01 1.245573468585531307e-13 -1.753730217686835791e-13 -1.524470247303913450e-14 -5.481243375306775467e-14
2.335000000000000000e+03 7.964102172851562500e+01 1.066703796386718750e+01 -7.888984333414422734e-14 -2.625646824527122503e-13 -1.024363563808042277e-13 3.127968668586653123e-14
2.336000000000000000e+03 7.892823791503906250e+01 9.185722351074218750e+00 1.829636024934175320e-13 -1.503417751619676168e-13 9.786551756973353028e-15 -7.741415608596494136e-14
2.337000000000000000e+03 7.822009277343750000e+01 7.686929702758789062e+00 -9.819874541338105556e-14 -2.937153829613708966e-13 -1.175742446110628059e-13 1.013590185633232721e-13
2.338000000000000000e+03 7.892632293701171875e+01 6.792545795440673828e+00 -2.423853218830318568e-13 -3.555096484125080947e-13 -1.793684965096728479e-13 1.132803364458333240e-13
2.339000000000000000e+03 7.892523956298828125e+01 3.596012592315673828e+00 -2.743198463522888986e-13 -3.920713309134987723e-13 -1.999173531797363013e-13 2.269245446932799393e-13
2.340000000000000000e+03 7.892580413818359375e+01 4.395518302917480469e+00 3.230184945478969949e-13 -9.031824902772447872e-14 6.981007026791996584e-14 -1.644240163944585276e-13
2.341000000000000000e+03 7.964041900634765625e+01 3.479664564132690430e+00 4.958522741710380544e-13 -6.199757368726896423e-14 1.301564108227570848e-13 -1.592761160592801040e-13
2.342000000000000000e+03 7.892597198486328125e+01 1.997882246971130371e+00 -4.890859310428818940e-13 -8.958725146272772388e-13 -4.154875228590260150e-13 3.616058190727966526e-13
2.343000000000000000e+03 7.821414947509765625e+01 4.999479651451110840e-01 -7.287469239170007995e-13 -4.495729689132227369e-13 -3.534959597175507673e-13 8.952104872282304338e-14
2.344000000000000000e+03 7.892266082763671875e+01 -3.943907916545867920e-01 -8.447807882915048250e-13 -1.185565968314650220e-12 -6.091040215608356512e-13 -9.211549708773580925e-13
2.345000000000000000e+03 7.892073822021484375e+01 -3.590645313262939453e+00 -2.743249692075538926e-13 -5.293263657252245125e-13 -2.410954194533715400e-13 -6.303245821343353428e-14
2.346000000000000000e+03 7.963901519775390625e+01 -3.707219600677490234e+00 2.859404336572057836e-13 -3.807145299971476105e-13 -2.843223296774069486e-14 -2.121835998190272493e-14
2.347000000000000000e+03 7.892133331298828125e+01 -5.188694953918457031e+00 -2.726961993888832314e-13 -4.828774099324695257e-13 -2.266720746648895335e-13 -5.169965882267577029e-14
2.348000000000000000e+03 7.820557403564453125e+01 -6.686534881591796875e+00 1.117307201620176826e-13 -2.266211036102555587e-13 -3.446711571209772063e-14 -8.543210220203836802e-14
2.349000000000000000e+03 7.749397277832031250e+01 -9.023925781250000000e+00 1.848951222162276142e-13 -8.088755359958454960e-14 3.120227126261927719e-14 -2.135901657905787954e-14
2.350000000000000000e+03 7.891352081298828125e+01 -1.077757549285888672e+01 1.359056638929045935e-13 -2.162604134398754541e-13 -2.410642384765172147e-14 -6.376115049356104181e-14
2.351000000000000000e+03 7.891465759277343750e+01 -9.980963706970214844e+00 -1.274408096413326419e-13 -1.461193904588042880e-13 -8.206806003004107897e-14 -6.432933341831564844e-14
2.352000000000000000e+03 7.963681793212890625e+01 -1.089428234100341797e+01 -2.019069048238286701e-13 -2.695353163752189918e-13 -1.414326690702197298e-13 3.182315996548383541e-14
2.353000000000000000e+03 7.891128540039062500e+01 -1.157574272155761719e+01 -1.449074692703999911e-13 -6.210320208392336450e-14 -6.210320208392336450e-14 -1.389898057215475935e-14
2.354000000000000000e+03 7.818505859375000000e+01 -1.387795066833496094e+01 4.232128123155595029e-15 -8.968813105386663764e-14 -2.563680062510342861e-14 4.654083515060955523e-15
2.355000000000000000e+03 7.745975494384765625e+01 -1.620612525939941406e+01 -4.601168689219621577e-14 -1.112211925747945418e-13 -4.716986214603133276e-14 7.604958600793826351e-14
2.356000000000000000e+03 7.889973449707031250e+01 -1.796407508850097656e+01 -1.008336819531725770e-13 -3.177201340562318954e-13 -1.255661427699422683e-13 4.302916868843299769e-14
2.357000000000000000e+03 7.890132904052734375e+01 -1.716765785217285156e+01 1.737586786151705531e-14 -1.298060508907183941e-13 -3.372905524757358053e-14 4.674693520733547158e-15
2.358000000000000000e+03 7.963236236572265625e+01 -1.808122825622558594e+01 -1.393686666181954970e-14 -9.747483717533964032e-14 -3.342351352284000932e-14 -1.677846230008217532e-14
2.359000000000000000e+03 7.888848114013671875e+01 -2.115929222106933594e+01 -3.552709274229175207e-14 -1.067277912098277270e-13 -4.267646755732809605e-14 1.022918796650569562e-13
2.360000000000000000e+03 7.889708709716796875e+01 -1.876207733154296875e+01 -2.936381589675697221e-15 4.449249941997773794e-14 1.246683505262908068e-14 -2.849395795267301024e-14
2.361000000000000000e+03 2.105052375793457031e+01 -3.396852874755859375e+01 -1.634571791071445790e-13 4.675205535209503438e-13 9.121901774515259187e-14 -4.781579253094851711e-14
2.362000000000000000e+03 1.606126594543457031e+01 -3.854363250732421875e+01 -1.978199776295902490e-13 1.210992840294106143e-13 -2.301620774124071150e-14 4.440541765673641783e-14
2.363000000000000000e+03 2.011853981018066406e+01 -2.354612159729003906e+01 1.225515457344006354e-13 5.557825250371295489e-13 2.035002212314590553e-13 2.349404951997296348e-14
2.364000000000000000e+03 1.491483688354492188e+01 -3.822488403320312500e+01 -1.437444049423933223e-13 -3.872927030620053335e-14 -5.474210291339133561e-14 9.336622593765150913e-14
2.365000000000000000e+03 1.325274085998535156e+01 -3.391874694824218750e+01 -6.454641102203798053e-14 -5.053822079792782973e-14 -3.452538819073702747e-14 -6.411259462777221807e-14
2.366000000000000000e+03 2.063931083679199219e+01 -1.325371265411376953e+01 2.820044409579045008e-14 4.238444447843270346e-13 1.356134714074197500e-13 4.184099830386971142e-14
2.367000000000000000e+03 2.142679786682128906e+01 -1.266154003143310547e+01 1.796136583377943435e-14 6.482110312920619233e-13 1.998517182907194600e-13 7.047717986465029671e-14
2.368000000000000000e+03 2.106285476684570312e+01 -1.296514630317687988e+00 -2.144259803158423045e-16 3.201647389046435865e-13 9.598509595649951098e-14 -9.537594374215210835e-14
2.369000000000000000e+03 2.037706947326660156e+01 -1.644764328002929688e+01 9.386354947417061001e-14 8.179933510057968427e-13 2.735570830188910341e-13 6.167169639553771177e-14
2.370000000000000000e+03 2.035210609436035156e+01 -1.103959083557128906e+00 -6.462172919170783292e-14 2.010597227987756530e-13 4.093139672686763042e-14 7.349374540476134865e-15
2.371000000000000000e+03 2.158635711669921875e+01 -5.458652019500732422e+00 -4.559194140925024175e-14 2.092153354857004266e-13 4.908701957818777106e-14 1.313467834929832323e-13
2.372000000000000000e+03 2.015660285949707031e+01 -2.275832176208496094e+01 2.223708989569726097e-14 4.670396556473443983e-13 1.467830306085826653e-13 -8.759159576040426165e-14
2.373000000000000000e+03 1.937017440795898438e+01 -2.261603736877441406e+01 1.693382847139934810e-14 3.046385301137821688e-13 9.647170622030173948e-14 9.818019877996797540e-15
2.374000000000000000e+03 2.018739700317382812e+01 -2.115468215942382812e+01 7.892731776579665209e-15 3.236392545017535705e-13 9.945959122481876080e-14 2.193425190013132547e-14
2.375000000000000000e+03 1.372392177581787109e+01 -3.222478866577148438e+01 -5.158112503203700350e-14 -9.073261754552128244e-14 -4.269412311208066468e-14 -5.626159701153671949e-15
2.376000000000000000e+03 1.992316818237304688e+01 -1.306953716278076172e+01 -4.090316003653796106e-14 5.086059611664195401e-13 1.403108450823489783e-13 8.386681580869852215e-15
2.377000000000000000e+03 2.067575645446777344e+01 -1.245996189117431641e+01 8.656394828374103234e-14 6.776121005448720869e-13 2.292528146485839358e-13 -2.128583293241510799e-14
2.378000000000000000e+03 2.058922195434570312e+01 -1.405320930480957031e+01 -1.078335114073052797e-14 5.901408918831951844e-13 1.738072576487614818e-13 2.687610808275835150e-14
2.379000000000000000e+03 2.079079055786132812e+01 -7.650417804718017578e+00 -4.437582317259229983e-15 5.013586117444401857e-13 1.490763079387696921e-13 -3.854858462602403502e-14
2.380000000000000000e+03 2.004504394531250000e+01 -7.476708889007568359e+00 3.846133006806147503e-14 7.027476474005811546e-13 2.223626962899113990e-13 1.227787894275559136e-14
2.381000000000000000e+03 2.079970359802246094e+01 -6.856729984283447266e+00 2.007571592418846279e-14 7.406190461259343216e-13 2.282084298008829615e-13 1.232417352848777514e-13
2.382000000000000000e+03 1.924277877807617188e+01 -3.283280563354492188e+01 2.644569676094055133e-13 2.963424861404662103e-13 1.682398388354669483e-13 -5.174597119609984641e-15
2.383000000000000000e+03 2.143375205993652344e+01 4.294009685516357422e+00 1.341505032059764346e-13 2.862478049731054242e-13 1.261194924537245576e-13 -1.925208310913500975e-13
2.384000000000000000e+03 1.880112648010253906e+01 -3.709307098388671875e+01 1.201662196397695892e-13 4.861338111575297383e-13 1.818900119496952295e-13 2.540986398139153009e-15
2.385000000000000000e+03 1.946240234375000000e+01 -1.863628387451171875e+01 1.266788323545098294e-13 4.889249270202677966e-13 1.846811278124332878e-13 -3.678362546196203842e-14
2.386000000000000000e+03 2.109758949279785156e+01 -5.105323791503906250e-01 2.751711254757077847e-15 4.129378317150461664e-13 1.247068718906660378e-13 -3.918972419259154905e-14
2.387000000000000000e+03 2.102482604980468750e+01 -2.091709375381469727e+00 -2.907832979463201468e-15 3.190104159566525821e-13 9.483077978477208458e-14 8.792481852185410340e-14
2.388000000000000000e+03 1.982956695556640625e+01 -1.467075634002685547e+01 1.158438681081713079e-14 5.997270822316602690e-13 1.833934344446994102e-13 7.165752366478095325e-14
2.389000000000000000e+03 1.317492008209228516e+01 -3.058774566650390625e+01 3.410914603606089723e-14 3.348748416152208529e-13 1.106951986670767774e-13 -2.029703546891064442e-14
2.390000000000000000e+03 2.019946479797363281e+01 -1.957695007324218750e+01 1.209940893136252082e-13 5.551150359696388481e-13 2.028327457164955105e-13 -6.617608886002809832e-14
2.391000000000000000e+03 2.092845153808593750e+01 -3.695130109786987305e+00 -1.100683604047907049e-13 4.560882921333941908e-13 1.038059747751965411e-13 6.553814430173762751e-14
2.392000000000000000e+03 2.052461051940917969e+01 -1.485621070861816406e+01 -3.130182473897596962e-14 5.813472533228170036e-13 1.650136326409104570e-13 9.425830748517258217e-14
2.393000000000000000e+03 2.031237411499023438e+01 -1.723085403442382812e+01 2.191170727120720502e-14 5.126511736820715814e-13 1.603688563238739317e-13 1.097990107038274155e-13
2.394000000000000000e+03 1.929271697998046875e+01 -2.577890586853027344e+01 -4.325066695710704998e-15 4.556559123070069717e-13 1.353992466106637704e-13 -8.383055263416067104e-14
2.395000000000000000e+03 2.080093193054199219e+01 -2.516928672790527344e+01 8.866669741090446588e-14 4.497585572200979431e-13 1.615275702906635025e-13 -4.792103468057896942e-14
2.396000000000000000e+03 2.014878273010253906e+01 -4.297953605651855469e+00 -6.154203936823560150e-14 4.540097952535765424e-13 1.177403308313604291e-13 6.912976728600320198e-14
2.397000000000000000e+03 1.393716812133789062e+01 -3.067812538146972656e+01 -5.181736590915801688e-14 -1.137093349166951040e-13 -4.965801126419547296e-14 -2.077707106297628503e-14
2.398000000000000000e+03 2.146339416503906250e+01 5.103096485137939453e+00 -1.082112643848581746e-13 1.823784856859814174e-13 2.225016808440286736e-14 -3.102428592347862557e-14
2.399000000000000000e+03 2.114164543151855469e+01 2.733448445796966553e-01 3.906611498053283449e-14 3.369992544570432624e-13 1.128196115088991869e-13 -3.652457229350557222e-14
2.400000000000000000e+03 2.119908905029296875e+01 1.064186692237854004e+00 -6.760010709842487198e-14 2.455342244626901316e-13 5.338023317640050447e-14 -5.950771017441958133e-14
2.401000000000000000e+03 2.093564605712890625e+01 -2.369377517700195312e+01 3.739042631284786311e-14 3.362811060430431764e-13 1.121014630948991009e-13 5.655369971152915398e-14
2.402000000000000000e+03 2.148117828369140625e+01 5.907187938690185547e+00 8.174511686043911540e-14 1.265355143798344018e-13 6.248419072733477075e-14 -4.248275789855461559e-14
2.403000000000000000e+03 1.940757560729980469e+01 -2.101793861389160156e+01 -1.455684395723286229e-13 3.036211147951217715e-13 4.741580663259609141e-14 2.427729919223312050e-14
2.404000000000000000e+03 1.323504734039306641e+01 -2.984168815612792969e+01 1.912737783644254813e-14 5.394839577236437700e-14 2.192273225204866699e-14 2.916883653559555756e-14
2.405000000000000000e+03 1.998677444458007812e+01 -3.056558799743652344e+01 5.580733154785834371e-14 2.984231243195745176e-13 1.062691330332848905e-13 4.229647502466266085e-14
2.406000000000000000e+03 2.012652587890625000e+01 -2.741160583496093750e+01 -3.478507493983803989e-14 5.341035231275215178e-13 1.497955270024151075e-13 2.730161677787744379e-14
2.407000000000000000e+03 2.004221916198730469e+01 -8.275192260742187500e+00 1.850631464479085553e-14 7.628219345252873484e-13 2.343984652642544519e-13 5.007610672696019560e-14
2.408000000000000000e+03 2.149879264831542969e+01 7.515519142150878906e+00 5.480028052434054997e-14 2.064896241190175563e-13 7.838697003775471628e-14 3.111538939915350910e-14
2.409000000000000000e+03 2.126345252990722656e+01 1.863488316535949707e+00 -3.749933442107403203e-14 1.669326569336826438e-13 3.882999607615622573e-14 8.089783996769600583e-14
2.410000000000000000e+03 1.474332523345947266e+01 -2.436075592041015625e+01 -1.483440106864186703e-13 1.651787430792528433e-13 5.050421666026030584e-15 -3.367682380791409136e-14
2.411000000000000000e+03 1.323799419403076172e+01 -2.429202651977539062e+01 -6.962748384580982886e-14 8.453702554601580377e-14 4.472862086545318847e-15 4.665330079721419221e-14
2.412000000000000000e+03 2.018461418151855469e+01 -3.303460311889648438e+01 3.589898848701438341e-15 4.132970549998449261e-13 1.250660951754647976e-13 -5.328350540195585239e-14
2.413000000000000000e+03 2.079414558410644531e+01 2.685911750793457031e+01 -1.229291869036044926e-13 -2.980846499538516992e-14 -4.582129421444418316e-14 -1.726965162399726056e-14
2.414000000000000000e+03 1.474807357788085938e+01 -2.836357879638671875e+01 2.382037912729804974e-14 5.595968228188329119e-14 2.393401876156758118e-14 7.438562874657276419e-15
2.415000000000000000e+03 1.398564720153808594e+01 -2.990248489379882812e+01 -8.749409888004350266e-14 2.827591676426988165e-13 5.857952469455474098e-14 -5.874675610339705201e-14
2.416000000000000000e+03 2.006962394714355469e+01 -3.123029518127441406e+01 -8.184197677202353916e-14 3.538079388926834712e-13 8.158978457043983279e-14 7.360725629002289744e-15
2.417000000000000000e+03 2.081463241577148438e+01 -6.067324638366699219e+00 -6.899725745173473923e-14 3.364373395760983376e-13 8.023202463730907952e-14 1.111330672669622044e-13
2.418000000000000000e+03 2.150133514404296875e+01 8.318589210510253906e+00 -1.948126040910228007e-13 -1.486469130564885971e-14 -6.290318743315537198e-14 7.123473902762023080e-14
2.419000000000000000e+03 2.204065895080566406e+01 3.444540786743164062e+01 2.648823306148576778e-14 -5.727432146173522254e-14 -9.235827028294604779e-15 -1.009783755093543456e-13
2.420000000000000000e+03 1.474710083007812500e+01 -2.356226921081542969e+01 8.201558464489278055e-14 2.181533355653450523e-13 9.005067470781863426e-14 -1.120577358660300449e-13
2.421000000000000000e+03 1.158246040344238281e+01 -2.337202835083007812e+01 5.425550620211626318e-14 2.062561547336999590e-13 7.815350065243711897e-14 3.760820864798231078e-14
2.422000000000000000e+03 2.095927619934082031e+01 3.011251449584960938e+01 -1.499498699579319971e-14 1.079509474432444049e-13 2.788678948948807718e-14 -2.462713057571272457e-14
2.423000000000000000e+03 2.380721092224121094e+01 3.456048965454101562e+01 -1.701838268832606138e-14 -5.304454046687646918e-14 -2.101887694656075917e-14 -6.766181175456645325e-14
2.424000000000000000e+03 2.217963600158691406e+01 2.488978385925292969e+01 -9.098157069311468836e-14 6.758848157122380670e-15 -2.526681663374275022e-14 5.662933975371896300e-14
2.425000000000000000e+03 2.073813629150390625e+01 -1.086227607727050781e+01 2.048585774757846756e-14 6.492929566399852082e-13 2.009336436386427449e-13 9.093176515581613550e-14
2.426000000000000000e+03 2.078356552124023438e+01 -8.447669029235839844e+00 6.297254926714013212e-14 5.759996429474667501e-13 1.916916468223603398e-13 -3.520798154974316696e-14
2.427000000000000000e+03 2.149272155761718750e+01 2.588100624084472656e+01 -3.941168409422185492e-14 -1.689072127064768225e-14 -1.689072127064768225e-14 -2.935408602929186206e-14
2.428000000000000000e+03 2.078722953796386719e+01 1.407625961303710938e+01 -2.727655815516587257e-14 3.085666758998600878e-13 8.438703972797959030e-14 -2.565027014303066649e-14
2.429000000000000000e+03 2.078981399536132812e+01 9.278934478759765625e+00 -1.359417407201940486e-13 -1.040116953611620876e-13 -7.198603014678048306e-14 2.759594378638936807e-14
2.430000000000000000e+03 2.149635505676269531e+01 1.232213306427001953e+01 -2.385849137475975698e-15 1.819812882200913529e-13 5.387863075069672381e-14 2.583095582320716482e-14
2.431000000000000000e+03 2.149354553222656250e+01 1.392062950134277344e+01 -2.613641284464601061e-14 2.633043793848904857e-13 7.115038809860085856e-14 3.009803506686531405e-14
2.432000000000000000e+03 2.078202629089355469e+01 2.286451339721679688e+01 2.755642122907048241e-14 2.405646482798312613e-13 8.043631543165966069e-14 2.541628745574703307e-14
2.433000000000000000e+03 2.452478790283203125e+01 2.570166587829589844e+01 -1.734801233601365039e-14 -7.434863034743669635e-15 -7.434863034743669635e-15 9.997587474682920194e-14
2.434000000000000000e+03 2.221903800964355469e+01 8.967448234558105469e+00 -1.552191670551109071e-13 -4.364702840147817453e-14 -5.965985762053718777e-14 -1.727936912478134079e-13
2.435000000000000000e+03 2.150167655944824219e+01 9.120716094970703125e+00 4.343612058574364276e-14 2.473702124215770848e-13 8.724190667845979630e-14 1.525119684405232268e-13
2.436000000000000000e+03 2.220110893249511719e+01 1.537203979492187500e+01 -8.554047498544187222e-14 2.835964427704007473e-13 5.941678626972951571e-14 8.829407745301193211e-14
2.437000000000000000e+03 2.078385543823242188e+01 2.046931838989257812e+01 -4.062542132126506500e-14 2.834005376022279837e-14 -3.685610607125858890e-15 1.310638643242049289e-14
2.438000000000000000e+03 2.147387313842773438e+01 2.349028778076171875e+01 8.563460406280434811e-14 1.282024345624493966e-13 6.415111090994976561e-14 2.513358089223849054e-15
2.439000000000000000e+03 2.190974807739257812e+01 2.986917304992675781e+01 -9.683612012300127359e-14 -1.330030920468350253e-13 -6.895176161807181625e-14 1.015302276388858893e-13
2.440000000000000000e+03 2.441998672485351562e+01 3.310671997070312500e+01 -1.287198276976207409e-14 8.598533668933983076e-14 2.193400456651072722e-14 -3.924008199537171171e-14
2.441000000000000000e+03 2.148774528503417969e+01 1.871668434143066406e+01 3.110699699671211349e-14 1.963353660422786917e-13 6.823270518475227364e-14 1.038045060200660022e-14
2.442000000000000000e+03 2.148409843444824219e+01 1.951169395446777344e+01 -2.434398270803866254e-14 3.531781461794773758e-14 3.292148980049659432e-15 1.396623973155125542e-13
2.443000000000000000e+03 2.149185943603515625e+01 1.632051277160644531e+01 -1.149092180728530227e-14 4.068338547991157128e-13 1.186028814222084282e-13 5.712962790555345394e-14
2.444000000000000000e+03 2.149180603027343750e+01 1.711975479125976562e+01 1.586255879795252233e-14 3.270548708158432794e-13 1.028752346439627818e-13 5.719077013181805835e-14
2.445000000000000000e+03 2.147692680358886719e+01 2.110155868530273438e+01 7.231832456012013410e-14 2.597483046793552797e-13 9.961999215997441315e-14 1.086902581283986924e-13
2.446000000000000000e+03 2.149272918701171875e+01 1.472070980072021484e+01 -4.114595694867072273e-14 2.568716994753167393e-13 6.471772851781784630e-14 -4.169346210511695738e-14
2.447000000000000000e+03 2.149504470825195312e+01 1.312075996398925781e+01 -1.760503770759438980e-14 2.898361617983263860e-13 8.166933112858237864e-14 5.544110160651989638e-14
2.448000000000000000e+03 1.402491855621337891e+01 -2.833972930908203125e+01 4.289493768321571421e-14 1.838354399534992273e-14 1.838354399534992273e-14 -6.246951334042474824e-14
2.449000000000000000e+03 1.932756996154785156e+01 -2.817054176330566406e+01 -1.009645400731938938e-14 5.904353069831336231e-13 1.741016456436456084e-13 6.726619993435364875e-14
2.450000000000000000e+03 2.017078208923339844e+01 -2.822681045532226562e+01 5.715979583100286310e-14 5.048819977544749538e-13 1.686125468847859965e-13 -1.220633599893165139e-14
2.451000000000000000e+03 1.475883293151855469e+01 -2.117926216125488281e+01 5.709301067124365053e-15 2.312015867384636936e-13 7.107326744281924902e-14 2.973586410741010932e-14
2.452000000000000000e+03 2.010606956481933594e+01 -2.985011291503906250e+01 -6.835551140957699112e-14 3.367123745622035980e-13 8.050705962341433986e-14 -9.351400269376128338e-14
2.453000000000000000e+03 1.930371093750000000e+01 -2.976196670532226562e+01 7.644385104576493367e-15 4.150347058216874441e-13 1.268037324447801595e-13 1.288389832104427923e-13
2.454000000000000000e+03 1.402319335937500000e+01 -2.674230384826660156e+01 -7.934245708357545723e-14 -1.712567533531522690e-13 -7.517976448627103347e-14 -5.798537512776910652e-14
2.455000000000000000e+03 1.475942516326904297e+01 -2.038583755493164062e+01 -1.350452071675022070e-14 8.571424548863698645e-14 2.166291675393967192e-14 7.798742989049078315e-16
2.456000000000000000e+03 1.405295848846435547e+01 -2.117275238037109375e+01 8.929323074132952676e-14 2.212723277175698833e-13 9.316966686004346521e-14 -2.041592331932136350e-14
2.457000000000000000e+03 1.474338817596435547e+01 -1.720884895324707031e+01 8.193419494305700934e-14 1.266165584922276932e-13 6.256522128720090614e-14 -6.743134425401392518e-14
2.458000000000000000e+03 1.473957061767578125e+01 -1.402166175842285156e+01 -2.615076835903607649e-14 3.454347742635859031e-14 2.517812847251696233e-15 1.510907386345888143e-14
2.459000000000000000e+03 1.399674034118652344e+01 -1.566954135894775391e+01 -2.496456309091042020e-14 -1.022009964179483588e-13 -3.814966598918514973e-14 -5.062304267726587537e-14
2.460000000000000000e+03 1.472719383239746094e+01 -6.776376247406005859e+00 -3.549327579890557138e-14 -1.521140391381667345e-14 -1.521140391381667345e-14 1.704217245568264566e-14
2.461000000000000000e+03 1.397094726562500000e+01 -1.015269279479980469e+01 -7.292151366251886646e-14 1.517517123246492350e-13 2.364906163151818397e-14 3.692875269901280122e-14
2.462000000000000000e+03 1.475369548797607422e+01 -4.375953674316406250e+00 1.126523597712661418e-13 1.855324298057417498e-13 8.945543416259693625e-14 8.590340488641781680e-14
2.463000000000000000e+03 1.404259586334228516e+01 -1.966897606849670410e+00 6.169502707103688421e-14 2.644072467754016859e-14 2.644072467754016859e-14 1.659871174427944573e-14
2.464000000000000000e+03 1.474162864685058594e+01 -1.084026432037353516e+01 -1.068530233370133808e-13 1.600851206153344752e-13 1.596962884468314942e-14 -3.697931548376619942e-15
2.465000000000000000e+03 1.325441455841064453e+01 -1.338009262084960938e+01 1.448956582429834772e-14 1.434626614553458079e-13 4.738566920033278340e-14 5.896478916028388695e-14
2.466000000000000000e+03 1.469300079345703125e+01 -9.224394798278808594e+00 -9.955967663786632893e-14 7.170894195281107830e-14 -8.355221083142932992e-15 -1.962109047150750393e-15
2.467000000000000000e+03 1.330684280395507812e+01 -1.107271862030029297e+01 -4.952647805891519442e-15 1.808812295908332479e-13 5.277857550957040789e-14 4.978549226385608692e-15
2.468000000000000000e+03 1.390568733215332031e+01 -7.549449920654296875e+00 4.749232420091925588e-15 2.035385232143009475e-15 2.035385232143009475e-15 3.094438699963002193e-14
2.469000000000000000e+03 1.333288669586181641e+01 -3.498910427093505859e+00 -1.757972730433924723e-15 -9.225531173414139308e-14 -2.820398638757586757e-14 2.147978145447971415e-14
2.470000000000000000e+03 1.400966262817382812e+01 -5.921113967895507812e+00 1.609597566722738987e-14 5.264922341412930917e-14 2.062355989381359916e-14 -6.467924950508997795e-15
2.471000000000000000e+03 1.399257850646972656e+01 -1.487813854217529297e+01 1.370697853180294357e-13 1.502460943202457710e-13 8.619476389148256201e-14 5.001767839425859397e-14
2.472000000000000000e+03 1.402844047546386719e+01 -1.804823875427246094e+01 1.246648861615365367e-13 9.917875575709070302e-14 6.715309054270909850e-14 -2.315859736780594841e-14
2.473000000000000000e+03 1.475340652465820312e+01 -1.879953956604003906e+01 1.064016496438169312e-13 2.286045159595462284e-13 1.005018483257562323e-13 -4.821798410309559302e-14
2.474000000000000000e+03 1.401454925537109375e+01 -2.352497673034667969e+01 -5.064169010759967879e-15 3.409617694519889719e-13 1.007692735678633600e-13 2.533611239915762453e-14
2.475000000000000000e+03 2.017909622192382812e+01 -2.905549812316894531e+01 6.377788786459878678e-14 5.305937980648600671e-13 1.783115078117167296e-13 6.871104163072572213e-14
2.476000000000000000e+03 2.149801254272460938e+01 1.152259922027587891e+01 6.196711438248569959e-14 4.840668339257947483e-13 1.638101817819787032e-13 -7.024361561164260692e-14
2.477000000000000000e+03 2.083284759521484375e+01 2.845826911926269531e+01 -3.224748959074034971e-14 -3.669582880291323568e-14 -2.068299450165653891e-14 -4.368652724187453706e-14
2.478000000000000000e+03 2.299831008911132812e+01 2.697900772094726562e+01 -3.796093349600973554e-14 -1.535218214490305377e-13 -5.744482580588572418e-14 -5.664301425361943643e-14
2.479000000000000000e+03 2.154509353637695312e+01 2.746767044067382812e+01 -5.551168994421228076e-14 -2.379072450381467668e-14 -2.379072450381467668e-14 1.702889267313559274e-14
2.480000000000000000e+03 4.477880895137786865e-01 -3.801546096801757812e+01 2.661187107266468899e-14 6.061674057665500381e-13 1.898337850846434915e-13 -1.613103774904603438e-14
2.481000000000000000e+03 1.209814906120300293e+00 -3.711450195312500000e+01 -1.615408043334314037e-14 4.963372378027908205e-13 1.440549475496474829e-13 -1.284706136638795806e-14
2.482000000000000000e+03 1.117271304130554199e+00 -2.913156127929687500e+01 -9.618359812768855627e-15 3.161344883789718452e-13 9.195483865456419159e-14 6.865210846638755693e-14
2.483000000000000000e+03 1.184504270553588867e+00 -3.636474609375000000e+01 -9.971684783639410063e-16 5.943349653571294855e-13 1.780013446752229389e-13 -9.553721203904574910e-14
2.484000000000000000e+03 1.061384797096252441e+00 -2.189874267578125000e+01 6.051479931442000151e-15 2.084727654177651046e-13 6.435727195304788428e-14 3.290113813987291524e-14
2.485000000000000000e+03 1.056243777275085449e+00 -1.546747303009033203e+01 4.804693088159527059e-14 3.637236453864212127e-13 1.235311766073499129e-13 -8.703275730312376446e-14
2.486000000000000000e+03 1.743079423904418945e+00 -8.191845893859863281e+00 1.350955886872048928e-13 3.552792825559092371e-13 1.471124518861652297e-13 4.020471699702279911e-14
2.487000000000000000e+03 1.727452397346496582e+00 -3.933415985107421875e+01 1.361780120905011632e-14 3.718438046623057103e-13 1.156384829472528741e-13 1.003354571735975975e-14
2.488000000000000000e+03 2.485068559646606445e+00 -3.816046524047851562e+01 1.063185048897144491e-13 3.200707656813434054e-13 1.279167879475809344e-13 -3.290834173157283944e-15
2.489000000000000000e+03 1.517648100852966309e+00 -3.857065582275390625e+01 -7.889544391599147277e-15 4.541282443409205838e-13 1.338716193021588508e-13 4.480284212745634653e-14
2.490000000000000000e+03 1.187382102012634277e+00 -3.559533691406250000e+01 3.455937835236092166e-15 2.759868071924853616e-13 8.383282268245931257e-14 -7.155919330400009604e-14
2.491000000000000000e+03 1.924687027931213379e+00 -3.065604591369628906e+01 -2.011750514167420095e-14 6.090160385545384525e-13 1.766695513841232135e-13 7.275181230560236190e-15
2.492000000000000000e+03 1.185406684875488281e+00 -3.237046813964843750e+01 -2.772547714688117920e-14 4.456271506317333042e-13 1.253704984879172590e-13 -8.608135803830647276e-15
2.493000000000000000e+03 3.843797445297241211e-01 -3.081328964233398438e+01 5.943216838805165381e-14 4.829804091388556486e-13 1.627237705475667595e-13 -1.056436008958034842e-14
2.494000000000000000e+03 1.171828627586364746e+00 -3.155683898925781250e+01 1.844649040179217880e-14 4.196641677830376116e-13 1.314331944061303270e-13 7.329325270614625576e-16
2.495000000000000000e+03 1.153985500335693359e+00 -3.074454689025878906e+01 5.027454621771114407e-14 3.418028663923489141e-13 1.176232234442048386e-13 1.147759865665134993e-13
2.496000000000000000e+03 1.103998661041259766e+00 -2.832525253295898438e+01 1.054640993676872474e-13 2.739536570685319194e-13 1.138253174440967408e-13 -8.313182837970702066e-15
2.497000000000000000e+03 1.818589210510253906e+00 -2.743268013000488281e+01 6.348512617297338845e-14 2.330871769467418586e-13 8.897169025828821631e-14 2.393919582694119946e-14
2.498000000000000000e+03 1.073666572570800781e+00 -2.511251258850097656e+01 4.047161707870262914e-14 1.734497826399658549e-14 1.734497826399658549e-14 1.500436602221155713e-13
2.499000000000000000e+03 1.078276395797729492e+00 -2.591471672058105469e+01 -7.300276783908307698e-14 1.059659494482764752e-13 9.888954652164608922e-15 -4.620705334741452563e-15
2.500000000000000000e+03 3.555002510547637939e-01 -2.357494926452636719e+01 -5.961365027919857118e-14 4.307771722883782517e-14 -4.960779745701634352e-15 -1.411752947210647216e-14
2.501000000000000000e+03 1.070132613182067871e+00 -2.430865478515625000e+01 -9.085456657300337857e-15 -7.252018945210977896e-14 -2.448169332460326669e-14 2.333560184279367955e-14
2.502000000000000000e+03 1.768813014030456543e+00 -2.181862831115722656e+01 4.698171918778720757e-14 1.802633427727337589e-13 6.817352129866172117e-14 -9.126428318585386168e-14
2.503000000000000000e+03 1.059834003448486328e+00 -2.109356117248535156e+01 2.642633019963452901e-14 1.028274687620012173e-13 3.877613833323800829e-14 8.719724432521697155e-14
2.504000000000000000e+03 1.057332277297973633e+00 -1.868075561523437500e+01 3.511738629383663601e-14 1.065522046679936996e-13 4.250087762736227959e-14 -2.072912391596400811e-14
2.505000000000000000e+03 1.058018803596496582e+00 -1.948528099060058594e+01 1.799591630769793726e-14 5.346348296258844612e-14 2.143781944227273611e-14 -1.309677057559008317e-13
2.506000000000000000e+03 3.519733548164367676e-01 -1.714327239990234375e+01 -3.628732852937500974e-14 2.360785178456836775e-13 5.993735239032127460e-14 2.778092392360844570e-14
2.507000000000000000e+03 1.055703043937683105e+00 -1.627033805847167969e+01 -8.118854167519368170e-14 4.227144079649997055e-13 1.024577558211836603e-13 -2.271926170685587693e-14
2.508000000000000000e+03 1.759638428688049316e+00 -1.538694381713867188e+01 -1.102623445022390958e-14 2.240292098967117118e-13 6.390089737733084529e-14 -2.826214197566845332e-14
2.509000000000000000e+03 1.056941032409667969e+00 -1.466183185577392578e+01 -2.331372298176610097e-14 3.575935256456067024e-14 3.733689044244960231e-15 2.514407139529023505e-14
2.510000000000000000e+03 1.763727188110351562e+00 -1.216669368743896484e+01 1.430710984526208790e-14 2.577618294589273384e-13 8.162068433235566967e-14 3.898247555918915586e-14
2.511000000000000000e+03 1.058387994766235352e+00 -1.224838352203369141e+01 3.156251776321832014e-14 1.965305901959618629e-13 6.842792933843544478e-14 1.623909204806137097e-14
2.512000000000000000e+03 3.511523902416229248e-01 -9.910166740417480469e+00 5.853612950260100867e-14 2.309661793417627784e-13 8.685069265330913613e-14 6.504086904609652012e-15
2.513000000000000000e+03 1.053128242492675781e+00 -9.844195365905761719e+00 4.405997390392359103e-14 1.561356973616215282e-13 6.005870171847671468e-14 -7.877126888592399234e-16
2.514000000000000000e+03 1.045772790908813477e+00 -8.253085136413574219e+00 1.428681493584587486e-14 3.263795754927106829e-13 1.021999122157758733e-13 -1.245378312194483916e-13
2.515000000000000000e+03 4.783324241638183594e+00 -2.581725358963012695e+00 -1.510377651940675303e-14 -5.222399593394870532e-14 -2.019833241363299531e-14 -2.976918977168688252e-14
2.516000000000000000e+03 3.824328899383544922e+00 -1.863107681274414062e+00 -3.348671234510054717e-14 -1.435144863191906150e-14 -1.435144863191906150e-14 -6.312935878259942624e-14
2.517000000000000000e+03 3.009202718734741211e+00 -1.875921487808227539e+00 3.011660541720091733e-14 5.865806836568773774e-14 2.663240145724023872e-14 1.136832479959855660e-14
2.518000000000000000e+03 1.730890870094299316e+00 -7.407100677490234375e+00 3.395492505328841226e-14 3.348087594928078614e-13 1.106291029921366298e-13 -1.002867019571536400e-13
2.519000000000000000e+03 2.401255369186401367e+00 -6.577718734741210938e+00 4.961126520990240263e-14 2.271412360499783234e-13 8.302574936152468110e-14 -6.932951798375650010e-14
2.520000000000000000e+03 1.460606932640075684e+00 -1.976431727409362793e+00 -1.008659369678040207e-14 -1.187002021197161583e-13 -3.863603569563035800e-14 7.098749349844848955e-14
2.521000000000000000e+03 7.714583587646484375e+01 2.899504470825195312e+01 7.492325580478811919e-14 -1.364098280675057201e-14 1.838468071356513800e-14 -4.690988401759646487e-14
2.522000000000000000e+03 7.721704101562500000e+01 2.822694587707519531e+01 5.590337491968161432e-14 -3.649244806076118453e-13 -9.270633306163178489e-14 -1.598433333664748407e-14
2.523000000000000000e+03 7.556460571289062500e+01 2.816484260559082031e+01 2.563199625422660222e-14 -8.051675645659450709e-14 -1.646542772189719256e-14 6.292053466791514005e-14
2.524000000000000000e+03 1.327679061889648438e+01 -5.852103710174560547e+00 -7.944792284990398468e-14 1.947056339941799497e-13 3.457731131040371608e-14 6.104654542288256991e-14
2.525000000000000000e+03 6.296474933624267578e+00 -1.850687384605407715e+00 4.910136831631425891e-14 2.955491483058042546e-13 1.033951502432510494e-13 9.986707505882028157e-14
2.526000000000000000e+03 8.832253456115722656e+00 -2.545722961425781250e+00 5.325564818238655296e-14 6.175861688370587466e-13 2.012525481551522000e-13 -1.671076200592674921e-13
2.527000000000000000e+03 7.216836929321289062e+00 -2.549629211425781250e+00 9.072824854957934476e-15 2.326430877368917960e-13 7.251477521751092947e-14 -9.709399760972695081e-14
2.528000000000000000e+03 6.402714252471923828e+00 -2.558784246444702148e+00 -9.698285841671771407e-15 1.788473882879948462e-13 5.074473081860021717e-14 1.894921936376747773e-13
2.529000000000000000e+03 1.004276633262634277e+00 -5.892046928405761719e+00 4.819040132220120398e-14 -2.509791995812613724e-14 6.927744832738993649e-15 -2.287488198805722600e-14
2.530000000000000000e+03 2.212180376052856445e+00 -1.907759904861450195e+00 -1.516602835883226058e-14 -5.225067408365542676e-14 -2.022501056333971675e-14 5.952857767810813827e-15
2.531000000000000000e+03 9.791299104690551758e-01 -5.118978500366210938e+00 3.806483055731994802e-14 1.631349881027997772e-14 1.631349881027997772e-14 -2.439490294069580206e-14
2.532000000000000000e+03 1.520855307579040527e+00 -3.669706583023071289e+00 4.969525699695213905e-14 -1.617058266803472755e-13 -3.360317259908443543e-14 -4.204649866126897173e-14
2.533000000000000000e+03 2.292206382751464844e+01 3.382094192504882812e+01 -5.059622561415580422e-15 -1.851722036339334410e-13 -5.706954955267060092e-14 -7.704481245151238722e-15
2.534000000000000000e+03 2.259047317504882812e+01 3.164034652709960938e+01 -1.674670364675782258e-14 3.130794777074508151e-13 8.889983475930673951e-14 7.530354649305098791e-14
2.535000000000000000e+03 2.072076225280761719e+01 3.338435363769531250e+01 1.834932217021495449e-14 9.936589582832527912e-14 3.531456539956207008e-14 -8.078031245219857714e-15
2.536000000000000000e+03 2.149250602722167969e+01 3.276890563964843750e+01 -1.179885385899602512e-14 -9.655855081431782838e-14 -3.250722038555461935e-14 3.062641083123075758e-14
2.537000000000000000e+03 1.404617500305175781e+01 -2.753382921218872070e+00 5.631070967588441833e-14 1.156350541578823887e-13 5.158373050538275773e-14 1.666452620428110487e-13
2.538000000000000000e+03 3.608297824859619141e+00 -4.191682815551757812e+01 -2.635687010982788736e-14 3.775872572508304215e-13 1.053691164811139391e-13 1.036563260762733349e-14
2.539000000000000000e+03 2.679203605651855469e+01 3.361353302001953125e+01 -1.055567512195897117e-13 -9.098955313160961289e-14 -5.896388791722800837e-14 1.272149838813310674e-13
2.540000000000000000e+03 2.954982566833496094e+01 3.257391357421875000e+01 -1.050056986891603761e-13 -2.212696883629062389e-14 -3.813979974941553164e-14 -4.897404232368299248e-14
2.541000000000000000e+03 1.261287117004394531e+01 -2.684080123901367188e+00 2.852853722571171979e-14 1.222651655889998509e-14 1.222651655889998509e-14 5.070236900684213510e-14
2.542000000000000000e+03 2.455492019653320312e+01 3.382424926757812500e+01 -7.427054576816111142e-14 -7.758118420689991135e-14 -4.555551899251830683e-14 -7.025726978275234624e-14
2.543000000000000000e+03 2.669299125671386719e+01 3.292166519165039062e+01 -3.480659635296187715e-14 -1.521699568652126744e-13 -5.609296461019964986e-14 2.868943689386671547e-13
2.544000000000000000e+03 2.374199485778808594e+01 3.386355972290039062e+01 -6.876301557236924600e-14 -2.124736611696168009e-13 -8.437100031209038287e-14 -8.373659296338764602e-14
2.545000000000000000e+03 2.368030548095703125e+01 3.320455551147460938e+01 -2.245664761188915365e-15 4.478852049438417082e-14 1.276285697406846081e-14 -1.054305771917667112e-13
2.546000000000000000e+03 3.097378349304199219e+01 3.232319259643554688e+01 -7.422641196347737336e-14 -5.468679505006741881e-14 -3.867396244287661655e-14 -9.514932515931190382e-14
2.547000000000000000e+03 1.290053749084472656e+01 -3.206038284301757812e+01 1.719248184030471027e-14 5.311915390513420598e-14 2.109349207888439048e-14 -1.061116729965221051e-13
2.548000000000000000e+03 1.263343524932861328e+01 -3.282138061523437500e+01 -1.109429659685440273e-13 -4.754698493107147039e-14 -4.754698493107147039e-14 -6.498165720791870825e-14
2.549000000000000000e+03 2.185987281799316406e+01 3.123834609985351562e+01 -2.895524531948412417e-14 -1.954131843319439898e-13 -6.731053025068114981e-14 -1.106640210783542411e-13
2.550000000000000000e+03 2.812785720825195312e+01 3.278090286254882812e+01 -8.307118420881540177e-14 -3.560193657351114205e-14 -3.560193657351114205e-14 5.605584762645096641e-14
2.551000000000000000e+03 2.186595344543457031e+01 7.812789082527160645e-02 3.103959011476961627e-14 2.878083784751267471e-13 9.565438718883711999e-14 -7.676241505502959250e-14
2.552000000000000000e+03 3.314324951171875000e+01 3.190789222717285156e+01 -3.961033703727551147e-14 -6.272680806848271451e-14 -3.070114285410110999e-14 1.144965063515010484e-13
2.553000000000000000e+03 3.387409973144531250e+01 3.176426887512207031e+01 -9.034248772254310778e-14 9.853463802268064287e-14 2.457644285359960636e-15 -1.581120996662407213e-14
2.554000000000000000e+03 1.260762882232666016e+01 -4.220823287963867188e+00 1.347373022208457963e-14 1.887782465070930726e-13 6.067559242583023260e-14 4.535652046002217053e-14
2.555000000000000000e+03 1.189170265197753906e+01 -3.401368856430053711e+00 -1.174436592356505049e-15 1.367495119962772177e-13 4.067252312939598213e-14 9.864822175277565552e-14
2.556000000000000000e+03 9.628525733947753906e+00 -2.557875871658325195e+00 3.900667719631634254e-16 1.831709697114325408e-13 5.506830885390612274e-14 -4.789697555674515828e-14
2.557000000000000000e+03 9.658759117126464844e+00 -3.276803016662597656e+00 -2.790223767638010111e-14 2.167966462818596285e-13 5.666832020995160590e-14 -9.632331282420636409e-14
2.558000000000000000e+03 4.054660034179687500e+01 3.044081687927246094e+01 -2.250490816109191466e-14 1.733588316302214771e-13 4.525617754895863709e-14 1.243768678544157624e-13
2.559000000000000000e+03 2.153670310974121094e+01 -8.620203018188476562e+00 6.624925217788013576e-14 5.774039016012699754e-13 1.930959596862721894e-13 -6.484467503968874280e-15
2.560000000000000000e+03 7.751380920410156250e+01 2.366763305664062500e+01 -5.971103281011145084e-15 -2.559044293541667438e-15 -2.559044293541667438e-15 4.153909204454575566e-14
2.561000000000000000e+03 7.079921722412109375e+01 2.832589530944824219e+01 3.958095177026936529e-14 1.542161174152359426e-13 5.813912177209112908e-14 5.132522621427611231e-14
2.562000000000000000e+03 7.156250762939453125e+01 2.831046485900878906e+01 -4.886316232275561555e-15 -9.359603614063696786e-14 -2.954470571187375882e-14 -8.266336833789855731e-14
2.563000000000000000e+03 7.141625976562500000e+01 2.761800765991210938e+01 7.485966734737184436e-14 7.783366101155389516e-14 4.580799918530407966e-14 3.542203355177790669e-14
2.564000000000000000e+03 3.697674179077148438e+01 3.182522010803222656e+01 -7.137667464452573940e-14 8.378736750637785780e-14 3.723208705588582773e-15 1.063132668379686285e-13
2.565000000000000000e+03 3.905048751831054688e+01 3.072662162780761719e+01 -9.292599919804092612e-14 2.880099384352553804e-14 -1.923750058991507972e-14 1.528709884374146455e-13
2.566000000000000000e+03 3.623768615722656250e+01 3.197218322753906250e+01 -7.132126513724815209e-14 -1.220681541957979732e-13 -5.801683054329834222e-14 5.762606375154383231e-14
2.567000000000000000e+03 3.549934387207031250e+01 3.211991119384765625e+01 -9.318522516121863219e-14 -1.706105112601104951e-14 -3.307388203913595726e-14 7.487664866389839857e-14
2.568000000000000000e+03 3.817166137695312500e+01 3.019132232666015625e+01 -3.321180949613505851e-14 1.230192163415022577e-13 2.694222239242333866e-14 7.493915291914218790e-14
2.569000000000000000e+03 3.460868072509765625e+01 3.161897277832031250e+01 -8.780067059684093511e-14 -2.435081216528578452e-13 -9.939264174066778090e-14 6.016738621000480847e-14
2.570000000000000000e+03 3.608436584472656250e+01 3.132171440124511719e+01 -8.892762421624025859e-14 -3.811183749776077268e-14 -3.811183749776077268e-14 8.018426553161109305e-14
2.571000000000000000e+03 4.129590606689453125e+01 3.030198097229003906e+01 -1.046035409983311903e-13 2.068001260686902487e-13 3.065897755398679092e-14 -5.740336862531530970e-14
2.572000000000000000e+03 3.979637527465820312e+01 3.058320045471191406e+01 3.101627299179759989e-14 2.191719570589223398e-13 7.505647037046869752e-14 -5.865623199825809042e-14
2.573000000000000000e+03 6.837072753906250000e+01 2.766583251953125000e+01 2.121919854452050669e-13 3.654451144908393845e-13 1.732911232045497574e-13 -1.466199123917322211e-14
2.574000000000000000e+03 6.612255096435546875e+01 2.771947097778320312e+01 -8.570909552831768030e-14 -2.883626768358099612e-13 -1.122215384855018705e-13 -8.503815056640218195e-14
2.575000000000000000e+03 6.777406311035156250e+01 2.834905052185058594e+01 5.855399173339270735e-14 -8.928280207168293181e-14 -9.218642423860709534e-15 -7.321552218664262313e-14
2.576000000000000000e+03 6.988693237304687500e+01 2.765306663513183594e+01 9.285752505458488848e-14 1.999244004938574570e-13 8.783457901978541926e-14 1.553408789133677720e-14
2.577000000000000000e+03 2.007924652099609375e+01 -2.431337928771972656e+01 1.139297125607799388e-13 4.148346163107552442e-13 1.586292945957024081e-13 2.487016804520250646e-14
2.578000000000000000e+03 4.354774475097656250e+01 2.988516426086425781e+01 1.490221825334401423e-14 2.351414148029501439e-13 7.501308873104212127e-14 1.857933701636046986e-13
2.579000000000000000e+03 4.280007934570312500e+01 3.002306175231933594e+01 -6.487324376693373584e-14 1.094500263532950657e-13 1.337303409828204115e-14 -9.327971338055074391e-14
2.580000000000000000e+03 4.429557418823242188e+01 2.974731254577636719e+01 4.855278573395911679e-14 2.953140390647007729e-13 1.031600477784111458e-13 -1.512051558451039251e-14
2.581000000000000000e+03 4.440716552734375000e+01 3.040679359436035156e+01 -7.868604043077126464e-14 1.264057353797878869e-13 1.431590543538637655e-14 2.067188515633353041e-13
2.582000000000000000e+03 6.464730834960937500e+01 2.779216194152832031e+01 5.751502112029058256e-14 -2.110165408836413292e-14 1.092400943195157709e-14 5.602097358594661236e-14
2.583000000000000000e+03 6.537963867187500000e+01 2.775471305847167969e+01 4.519219945638662528e-14 -1.636357065473714734e-13 -3.553305246610863333e-14 1.131829276568990794e-13
2.584000000000000000e+03 4.590824508666992188e+01 3.013824844360351562e+01 -1.108871092278702897e-13 1.583562247260347777e-13 1.424073464944934642e-14 3.331977909185566966e-14
2.585000000000000000e+03 4.730159759521484375e+01 2.921233177185058594e+01 -6.771317583248795402e-14 1.539838677573623915e-13 2.588120689983597345e-14 -2.569459944291863085e-13
2.586000000000000000e+03 6.250831985473632812e+01 2.784719657897949219e+01 1.465311162338056583e-13 1.085499962485969583e-13 7.652433103421535376e-14 1.888501460517878067e-14
2.587000000000000000e+03 6.107766723632812500e+01 2.776833915710449219e+01 -6.600135358630606144e-15 -2.828629469664293607e-15 -2.828629469664293607e-15 -5.891709104095810279e-14
2.588000000000000000e+03 6.032718658447265625e+01 2.843773841857910156e+01 2.768850415873352899e-14 -1.482618146092171130e-13 -3.617199313514507519e-14 8.928226674686026709e-14
2.589000000000000000e+03 6.115867614746093750e+01 2.711630821228027344e+01 9.517298109546282192e-14 8.653937077574350156e-14 5.451370556136189705e-14 -8.249209827596373779e-14
2.590000000000000000e+03 3.830877685546875000e+01 3.087116432189941406e+01 -2.652048638205131703e-14 1.258869175351992609e-13 2.980993205644981436e-14 -4.620637910918851121e-14
2.591000000000000000e+03 5.197848129272460938e+01 2.919837379455566406e+01 -1.016235317061577395e-14 1.328975585178707175e-13 3.682055948659411493e-14 1.814806443144190151e-13
2.592000000000000000e+03 5.342273712158203125e+01 2.832850074768066406e+01 1.481489898206428402e-13 -2.800947204750249553e-14 3.604185499312892449e-14 4.315633882700196933e-14
2.593000000000000000e+03 5.265786743164062500e+01 2.841799163818359375e+01 -4.580833799848298138e-14 2.091225955423714478e-13 4.899427624672700321e-14 1.441345957517436993e-13
2.594000000000000000e+03 4.968860626220703125e+01 2.951147651672363281e+01 -3.504560194562272857e-14 2.366106713769938752e-13 6.046951947415862838e-14 -2.961313242148475022e-14
2.595000000000000000e+03 4.958806991577148438e+01 2.883847427368164062e+01 4.475439861913697859e-14 -7.232144164136602993e-14 -8.270112906668715402e-15 9.752252174213826841e-14
2.596000000000000000e+03 5.570341110229492188e+01 2.810088539123535156e+01 -5.306834886895789305e-14 1.602602192661908842e-13 3.215756179679625515e-14 9.452084026497636904e-14
2.597000000000000000e+03 5.562057495117187500e+01 2.741627311706542969e+01 -7.960369898516762854e-15 4.233936199684804058e-14 1.031369762949938332e-14 1.384006265440964473e-14
2.598000000000000000e+03 5.501989746093750000e+01 2.886407661437988281e+01 -8.015745185663281092e-14 1.944015559423792339e-13 3.427322987047121128e-14 1.807107659042642145e-13
2.599000000000000000e+03 5.494416046142578125e+01 2.817316055297851562e+01 -5.666082905056608887e-14 2.146773664596975800e-14 -1.055792772137889926e-14 2.902684332044963567e-14
2.600000000000000000e+03 2.235943984985351562e+01 -4.829132556915283203e+00 1.940270420188166395e-14 2.370701833627475441e-13 7.694187084336667759e-14 -7.249008928929615014e-14
2.601000000000000000e+03 2.026269340515136719e+01 -1.800973510742187500e+01 1.393379498153962670e-13 5.629766943425484893e-13 2.106943905368779957e-13 1.549467375423514010e-14
2.602000000000000000e+03 2.045112419128417969e+01 -1.565530776977539062e+01 2.470060898982114062e-14 5.138463981570196015e-13 1.615641079038762640e-13 1.082911497561796221e-13
2.603000000000000000e+03 4.504776382446289062e+01 2.961075782775878906e+01 5.611434372178834840e-14 3.900565851214232715e-13 1.338512769588975915e-13 2.672963846789278008e-13
2.604000000000000000e+03 4.204808044433593750e+01 3.016257667541503906e+01 6.987800231028976072e-14 2.587024561587214500e-13 9.857413686307700540e-14 7.520502639688994573e-14
2.605000000000000000e+03 2.182918548583984375e+01 -2.303467559814453125e+01 9.373991654518937233e-14 4.519327891517460616e-13 1.637018157748387770e-13 -2.655279221865959605e-14
2.606000000000000000e+03 2.019037628173828125e+01 -2.036187171936035156e+01 -6.071227234057813282e-14 4.772409138882605095e-13 1.249585829775357038e-13 -5.427804490180975286e-15
2.607000000000000000e+03 2.101699829101562500e+01 -1.814717292785644531e+01 -5.612407782441819482e-14 3.877053571851168945e-13 9.947438380820960990e-14 3.627067247350020118e-14
2.608000000000000000e+03 5.189141082763671875e+01 2.851416206359863281e+01 9.394315024242178014e-14 3.605179848230333217e-13 1.363383418748892462e-13 -1.002340673298112578e-14
2.609000000000000000e+03 5.721292114257812500e+01 2.795449066162109375e+01 -3.397243830650584218e-14 1.684441838399261537e-13 4.034152298239973566e-14 1.355400167102338571e-13
2.610000000000000000e+03 8.027392387390136719e+00 -2.544116497039794922e+00 -7.104311984616057396e-14 1.525567459902468781e-13 2.445408682678635454e-14 1.301778509207179857e-13
2.611000000000000000e+03 8.906205177307128906e+00 -3.979632139205932617e+00 -1.877547461037396004e-14 4.494628681826068339e-13 1.292062160387907888e-13 -1.123787478005122686e-13
2.612000000000000000e+03 4.806062316894531250e+01 2.908427429199218750e+01 -1.169893531143906609e-14 -9.651572482850465096e-14 -3.246439778787323094e-14 1.123407397381030737e-13
2.613000000000000000e+03 2.049595451354980469e+01 -3.188276481628417969e+01 -2.061761880472155750e-14 4.601111158741844065e-13 1.318480508149047492e-13 -2.884509503744080681e-15
2.614000000000000000e+03 5.333805847167968750e+01 2.764975547790527344e+01 7.588901566619316030e-14 3.070295482698187639e-13 1.148755705360562929e-13 1.506032034108081841e-13
2.615000000000000000e+03 2.132704353332519531e+01 2.668078660964965820e+00 -8.379050491641448772e-14 3.300973860573264140e-13 7.389206434227357789e-14 -6.455278070980133287e-14
2.616000000000000000e+03 2.179914093017578125e+01 -1.977934074401855469e+01 6.027180843174231861e-14 5.290912022740124065e-13 1.768089120208690690e-13 4.398765084275522985e-14
2.617000000000000000e+03 2.098993110656738281e+01 -2.047952270507812500e+01 1.123663878957459339e-13 5.056665264464854648e-13 1.854098743026694196e-13 8.166136224261461019e-14
2.618000000000000000e+03 2.161702537536621094e+01 -4.671720981597900391e+00 -9.671754906291282761e-14 5.533119535466868300e-13 1.369783193122531273e-13 4.411381809431465240e-14
2.619000000000000000e+03 2.088118553161621094e+01 -4.491383552551269531e+00 9.183759574213704036e-14 5.426193890913089124e-13 1.903370988381655748e-13 3.276889257988399584e-15
2.620000000000000000e+03 7.889204406738281250e+01 2.666627693176269531e+01 1.587720569167644369e-14 -1.761992786918076259e-13 -4.809662122241299687e-14 -5.241634017561121184e-14
2.621000000000000000e+03 7.639283752441406250e+01 2.819935417175292969e+01 6.335178963454840551e-14 2.715076868030092544e-14 2.715076868030092544e-14 -1.842195693950790525e-14
2.622000000000000000e+03 2.294734191894531250e+01 3.313597869873046875e+01 5.252063364834073933e-14 -2.324210634607574988e-14 8.783558868305854639e-15 1.158209219856301889e-14
2.623000000000000000e+03 2.302536392211914062e+01 3.251311492919921875e+01 3.201211946348911375e-14 1.967232800270668491e-13 6.862061916954043106e-14 -8.136635760774488246e-14
2.624000000000000000e+03 2.178401756286621094e+01 -1.488074421882629395e+00 -5.567505549468332315e-14 3.421468566366242525e-13 8.594154169783499442e-14 1.499203593300496573e-14
2.625000000000000000e+03 1.298011493682861328e+01 -3.672433853149414062e+01 -7.663624102720659192e-14 8.153327053219902587e-14 1.469109613827382713e-15 6.246082786458360264e-15
2.626000000000000000e+03 2.155195236206054688e+01 -7.029383182525634766e+00 -4.560892611390858498e-14 4.837137634883248438e-13 1.314314461301271941e-13 -4.356222685093086300e-14
2.627000000000000000e+03 2.221359443664550781e+01 7.355234622955322266e+00 -3.610191640535283242e-14 2.361579627598725528e-13 6.001681763330088404e-14 -2.961230571732823003e-14
2.628000000000000000e+03 2.165541076660156250e+01 -3.877837419509887695e+00 6.794812244326556283e-14 3.493772653996585209e-13 1.251976224515144454e-13 2.697450620617498906e-14
2.629000000000000000e+03 2.077565956115722656e+01 -9.248577117919921875e+00 -3.456519196299440155e-14 3.969448738889297390e-13 1.087139072882860324e-13 4.521976529662206923e-14
2.630000000000000000e+03 1.232724571228027344e+01 -3.118985176086425781e+01 5.656543196488157330e-15 -2.045124120509007881e-14 -4.438409444932223807e-15 4.865472445509527732e-15
2.631000000000000000e+03 1.401154899597167969e+01 -2.912484931945800781e+01 -1.025375531010785934e-13 1.848100801083232825e-13 2.468175742454704891e-14 1.169976116856263904e-13
2.632000000000000000e+03 1.327102470397949219e+01 -2.908811950683593750e+01 -7.321583389476721271e-14 1.437273456988356207e-14 -1.765292895043214794e-14 -9.358767423138167341e-14
2.633000000000000000e+03 2.007988166809082031e+01 -2.662177658081054688e+01 -8.419576952409420223e-15 3.623992111175672326e-13 1.061938894025143965e-13 9.775499671077578917e-15
2.634000000000000000e+03 2.178948211669921875e+01 -2.386813735961914062e+01 6.212540112340500520e-14 7.128893829422278117e-13 2.325044453840852121e-13 1.790678980692194527e-14
2.635000000000000000e+03 2.103404045104980469e+01 -2.823908996582031250e+01 3.166712972033601525e-14 4.253301541263382335e-13 1.370991943019581050e-13 -3.748270885838532462e-14
2.636000000000000000e+03 1.983673667907714844e+01 -3.243212890625000000e+01 -9.285635276098588853e-14 2.347101191787354102e-13 4.255612789244578309e-14 6.074018377025605653e-14
2.637000000000000000e+03 7.882661437988281250e+01 -2.992213821411132812e+01 2.936933939860601750e-14 1.955906546750527109e-13 6.748800059378987082e-14 -7.236859088334199330e-14
2.638000000000000000e+03 7.687916564941406250e+01 -3.363331985473632812e+01 2.243477383305925860e-14 -3.613604505686360269e-14 -4.110381536547892678e-15 2.466251453005132571e-14
2.639000000000000000e+03 7.811808776855468750e+01 -2.426351356506347656e+01 3.100396052087631138e-14 -3.246353720239882057e-14 -4.378726497617060941e-16 5.319980160610818243e-15
2.640000000000000000e+03 7.814179992675781250e+01 -3.905688858032226562e+01 -3.945737982766032992e-14 1.660934844521788634e-13 3.799083375904781235e-14 1.671803009918560682e-15
2.641000000000000000e+03 7.703374481201171875e+01 -4.053318405151367188e+01 1.363364072516377173e-14 1.888467816369213126e-13 6.074412755565847255e-14 -3.900506084569474452e-14
2.642000000000000000e+03 7.860420227050781250e+01 -3.640509796142578125e+01 -1.363587926383677540e-13 -1.041904328655599010e-13 -7.216476765117829650e-14 7.056154434619682503e-14
2.643000000000000000e+03 7.770111846923828125e+01 -3.630663681030273438e+01 7.487750247310923091e-14 1.464677310642967245e-13 6.640356802834271321e-14 5.063576511213363496e-14
2.644000000000000000e+03 7.885389709472656250e+01 -2.674843597412109375e+01 7.320393477592418430e-14 -6.012878183640074647e-14 3.922544780714199916e-15 3.630300202703100332e-14
2.645000000000000000e+03 7.867939758300781250e+01 -3.392441558837890625e+01 2.959220731955577999e-14 -5.594404944180876582e-14 -7.905551620236359045e-15 5.783004961403340194e-14
2.646000000000000000e+03 7.884822082519531250e+01 -2.754222297668457031e+01 -1.494629107165554999e-14 -2.928102774352528415e-14 -1.326819598336742914e-14 -1.849709553819293972e-14
2.647000000000000000e+03 7.807156372070312500e+01 -2.901608467102050781e+01 1.961599895646155833e-14 8.406856211607555140e-15 8.406856211607555140e-15 -2.297099312251627695e-14
2.648000000000000000e+03 7.865646362304687500e+01 -3.473500442504882812e+01 -6.763030890519217131e-14 3.964200251697566624e-14 -8.396492763497898776e-15 2.184181112883931686e-13
2.649000000000000000e+03 7.813735961914062500e+01 -2.265871047973632812e+01 3.090150002744464219e-14 1.324350073779023002e-14 1.324350073779023002e-14 -1.449664024347381563e-14
2.650000000000000000e+03 7.810961914062500000e+01 -2.505861663818359375e+01 4.053011995030358916e-14 1.737005043923531278e-14 1.737005043923531278e-14 -2.786159025930726174e-14
2.651000000000000000e+03 7.812754821777343750e+01 -2.346209526062011719e+01 -1.480169746536155739e-14 3.940736422619085799e-14 7.381699858842200729e-15 1.925451578775952410e-14
2.652000000000000000e+03 7.809449768066406250e+01 -2.665149497985839844e+01 -2.872013607838064253e-14 -1.953124212925386183e-13 -6.720976721127577824e-14 1.883442132723928131e-14
2.653000000000000000e+03 7.883789062500000000e+01 -2.913096237182617188e+01 -8.661960851277100693e-14 -1.057491157900429524e-13 -5.771061796847054559e-14 -3.545210660953722337e-15
2.654000000000000000e+03 7.791452026367187500e+01 -3.216454315185546875e+01 -5.976503878379543777e-14 2.013735959395784175e-14 -1.188830392635786826e-14 4.602370459565185978e-14
2.655000000000000000e+03 7.697480773925781250e+01 -3.280934524536132812e+01 -3.039692927702883352e-14 -1.302725492042210165e-14 -1.302725492042210165e-14 5.857816266557555607e-14
2.656000000000000000e+03 7.779603576660156250e+01 -3.378129959106445312e+01 -2.361069103900756416e-14 1.271339804265192441e-13 3.105698478337443058e-14 6.608612040850253555e-14
2.657000000000000000e+03 7.776845550537109375e+01 -3.459934616088867188e+01 -4.209224352261838747e-15 8.969794308352763146e-14 2.564661604289621144e-14 -3.573628277520925212e-14
2.658000000000000000e+03 7.757316589355468750e+01 -3.724327468872070312e+01 -5.803045083309019136e-14 4.375622788903819893e-14 -4.282266544402418829e-15 4.155028304384487947e-14
2.659000000000000000e+03 7.767873382568359375e+01 -3.822923660278320312e+01 3.477897969074959794e-14 1.635958621175326311e-13 5.951245355892420541e-14 2.142235939691945062e-14
2.660000000000000000e+03 7.808246612548828125e+01 2.746519088745117188e+01 -2.306654860336192908e-14 -5.131461119738112142e-13 -1.608637946156135645e-13 1.164722649110803282e-14
2.661000000000000000e+03 7.889157104492187500e+01 -2.036124229431152344e+01 1.095352717491067385e-13 1.192738539126947123e-15 3.321840280059648598e-14 -4.116003294218819469e-15
2.662000000000000000e+03 7.815221405029296875e+01 -2.106606864929199219e+01 8.196537930804312366e-14 8.087896807363118001e-14 4.885330285924957550e-14 4.458473453167015321e-14
2.663000000000000000e+03 7.815825653076171875e+01 -2.026806259155273438e+01 -6.494048463041857122e-14 -1.193335388187735657e-13 -5.528220500187856767e-14 6.516785537851593757e-14
2.664000000000000000e+03 7.890415954589843750e+01 -1.556840133666992188e+01 6.576742595616399956e-14 7.393699096979594598e-14 4.191132575541434147e-14 -3.833118853791353531e-14
2.665000000000000000e+03 7.817208862304687500e+01 -1.786872863769531250e+01 6.276071649142719866e-14 2.689744992489737085e-14 2.689744992489737085e-14 -5.154519728254626509e-14
2.666000000000000000e+03 7.891631317138671875e+01 -8.380852699279785156e+00 -1.449679406465703702e-13 -1.536310141603269841e-13 -8.957969050782735310e-14 1.230305276194798916e-14
2.667000000000000000e+03 7.819590759277343750e+01 -1.068393135070800781e+01 -2.355158169181637007e-13 -3.296901055112322343e-13 -1.695617794393242117e-13 -2.840064541507168749e-14
2.668000000000000000e+03 7.750832366943359375e+01 -2.632495164871215820e+00 8.878207685084765766e-14 -2.135807535604689056e-13 -3.743960165763365877e-14 -7.839438327010908591e-14
2.669000000000000000e+03 7.891945648193359375e+01 -5.983640670776367188e+00 1.656291071091761657e-13 -3.407746361570179738e-13 -5.254365939197890023e-14 -1.280571650238634951e-13
2.670000000000000000e+03 7.752169799804687500e+01 4.553197383880615234e+00 7.431528266030329455e-14 -4.027846036303711630e-13 -9.854079764627307614e-14 -9.183863928672805765e-14
2.671000000000000000e+03 7.892411804199218750e+01 1.202866792678833008e+00 -7.485007080289263204e-13 -3.207860138545320927e-13 -3.207860138545320927e-13 3.733743999742578090e-13
2.672000000000000000e+03 7.751760864257812500e+01 1.174796009063720703e+01 -5.380536240075922683e-14 -4.593491521398887500e-14 -2.992208260679807275e-14 2.565077666873312456e-14
2.673000000000000000e+03 7.892699432373046875e+01 8.390293121337890625e+00 -1.188318920260916789e-13 -2.339317433340537544e-13 -1.058290960290544924e-13 6.407179982696655646e-15
2.674000000000000000e+03 7.683694458007812500e+01 1.817531776428222656e+01 8.659698934494752809e-14 -5.438890033878165942e-14 9.662426701849760602e-15 -1.226564558471157640e-13
2.675000000000000000e+03 7.892807769775390625e+01 1.557440948486328125e+01 3.378741242950761281e-14 -3.057763189786427693e-13 -8.159667603049869378e-14 8.699444261478766344e-15
2.676000000000000000e+03 7.822544860839843750e+01 2.362385749816894531e+01 -7.737702216155731283e-14 5.834031581398654853e-14 -5.711011226644871486e-15 -1.578040644882686703e-16
2.677000000000000000e+03 7.817043304443359375e+01 2.593487358093261719e+01 -5.232042894092771290e-14 -3.426796877942922537e-13 -1.185000312936210221e-13 -3.502237969034080467e-14
2.678000000000000000e+03 7.892990112304687500e+01 1.957075309753417969e+01 -9.829151584989613555e-15 1.330403479439870584e-13 3.696335907710582291e-14 -1.211752798254382701e-14
2.679000000000000000e+03 7.822585296630859375e+01 1.886666488647460938e+01 1.653717268307905268e-15 1.150861090454258218e-13 3.502194600947181047e-14 3.895836900151029847e-14
2.680000000000000000e+03 7.892758178710937500e+01 1.238253116607666016e+01 1.342688303205760714e-13 -2.169619057980007315e-13 -2.480792128797468243e-14 -6.198503759964960058e-14
2.681000000000000000e+03 7.822018432617187500e+01 1.247869205474853516e+01 -6.635622227472298684e-14 -2.571931112093500671e-13 -9.706480546623277861e-14 1.138931088789972915e-14
2.682000000000000000e+03 7.892672729492187500e+01 5.194256782531738281e+00 -3.030305227667146051e-13 -2.671230749616559930e-13 -1.710460793185111794e-13 1.635153736587527384e-13
2.683000000000000000e+03 7.821958160400390625e+01 4.489031314849853516e+00 -2.468203863948553733e-13 -4.946632296484732016e-13 -2.224450821024931413e-13 1.787882315069586059e-13
2.684000000000000000e+03 7.892256164550781250e+01 -1.992395758628845215e+00 -5.343180325273477749e-13 -5.950010449617959551e-13 -3.387957232467431190e-13 -1.931882795012593301e-13
2.685000000000000000e+03 7.821338653564453125e+01 -1.898352503776550293e+00 2.191689890554751607e-13 -3.635799072834039469e-13 -4.332327546837863586e-14 5.442117652923678453e-15
2.686000000000000000e+03 7.890947723388671875e+01 -1.237699508666992188e+01 9.975292889884829206e-14 -1.402525421105235703e-13 -1.214988294706304678e-14 4.120745831690496297e-14
2.687000000000000000e+03 7.817552947998046875e+01 -1.707473182678222656e+01 -1.226273043612030600e-13 -2.813092911824882636e-13 -1.211809786631073971e-13 1.537655839787231693e-14
2.688000000000000000e+03 7.890787506103515625e+01 -1.317414569854736328e+01 -9.162045376391071694e-15 -9.542848688993618711e-14 -3.137715984930476709e-14 -7.870402463430736795e-14
2.689000000000000000e+03 7.818373107910156250e+01 -1.467584705352783203e+01 1.863196147930748503e-13 1.256022060447045674e-13 9.357654760658654092e-14 -7.785801490285335080e-14
2.690000000000000000e+03 7.820513916015625000e+01 -7.487940311431884766e+00 -2.382571950062389865e-13 -2.622385544392286105e-13 -1.501487194126294167e-13 -2.413550926499453964e-14
2.691000000000000000e+03 7.821481323242187500e+01 -1.101320266723632812e+00 -3.743589097569832713e-13 -8.467037834747337399e-13 -3.663187917064825161e-13 -5.307144697666577038e-13
2.692000000000000000e+03 7.822211456298828125e+01 6.084935665130615234e+00 -2.296826194948115019e-13 -3.043146789248607487e-13 -1.601991922364071064e-13 9.863165378832736141e-14
2.693000000000000000e+03 7.822113800048828125e+01 1.327487564086914062e+01 1.615685395802562985e-13 -2.510129690908025069e-13 -2.683333291892200934e-14 -1.158713018112669801e-13
2.694000000000000000e+03 7.822758483886718750e+01 2.046267700195312500e+01 -1.809014025275050563e-14 3.799803015096768488e-14 5.972367477684922127e-15 2.031060154859386929e-14
2.695000000000000000e+03 7.813127136230468750e+01 2.669885253906250000e+01 1.309797675050697330e-13 -8.111866484517699094e-14 1.495833079796782261e-14 -2.868877891867328833e-14
2.696000000000000000e+03 7.893647003173828125e+01 2.354336166381835938e+01 6.773874945123145586e-14 -6.247100411841191581e-14 1.580322286944793771e-15 1.893065104631094786e-14
2.697000000000000000e+03 7.753340911865234375e+01 2.211848640441894531e+01 -1.071355528706359472e-13 -2.289190430097842732e-13 -1.008163753759942771e-13 3.114486953384974777e-14
2.698000000000000000e+03 7.822697448730468750e+01 2.126411247253417969e+01 7.009180697870390220e-14 -1.300889734476284865e-13 -1.799915197355644869e-14 3.072028918684084620e-14
2.699000000000000000e+03 7.892975616455078125e+01 2.036894798278808594e+01 3.697004047299376484e-14 -2.586613920014385615e-13 -6.650740749141251240e-14 4.445751695925613534e-14
2.700000000000000000e+03 7.822276306152343750e+01 1.646152496337890625e+01 1.158989489666653605e-13 -3.163366107689774553e-13 -6.013129583018819724e-14 4.082449778079234870e-14
2.701000000000000000e+03 7.753079986572265625e+01 1.893417930603027344e+01 1.196508034794971365e-13 5.527969524325585318e-15 3.755363262112482170e-14 -1.402302600618130987e-14
2.702000000000000000e+03 7.822089385986328125e+01 1.407337379455566406e+01 1.777572670492739287e-14 -8.388372597445750700e-14 -1.983240062789198149e-14 3.149905805481002796e-14
2.703000000000000000e+03 7.892807006835937500e+01 1.317988586425781250e+01 -7.793271643253760206e-14 -2.164035281266435407e-13 -8.830087404538070062e-14 8.246382770431617826e-14
2.704000000000000000e+03 7.821917724609375000e+01 1.167993640899658203e+01 1.436025235355964380e-13 -2.815881750863058475e-13 -4.139569614283918064e-14 -5.749129064524030608e-14
2.705000000000000000e+03 7.822211456298828125e+01 9.279126167297363281e+00 -8.405565333395939587e-14 -2.647785961838733382e-13 -1.046502768882288936e-13 7.608352153593705980e-14
2.706000000000000000e+03 7.821938323974609375e+01 1.087846469879150391e+01 -5.661042720207266898e-14 -7.001255857615878986e-14 -3.798689674990897436e-14 -8.651399705677555174e-15
2.707000000000000000e+03 7.822114562988281250e+01 6.885767936706542969e+00 9.092722505921885245e-14 -2.812878239794730506e-13 -5.710818103132897505e-14 -6.892013001968955166e-14
2.708000000000000000e+03 7.892707061767578125e+01 5.992276668548583984e+00 2.480890384619349742e-13 -1.681818204667118177e-13 2.397216912551191487e-14 -5.427041737011972788e-14
2.709000000000000000e+03 7.821859741210937500e+01 2.090776205062866211e+00 -3.352311375541539018e-13 -3.266742887482465552e-13 -1.985716278907201371e-13 1.838183197235693234e-13
2.710000000000000000e+03 7.821871948242187500e+01 3.688216924667358398e+00 1.679266670379445103e-13 -1.110352247971589656e-13 1.706743097816976890e-14 -7.032961317271144153e-14
2.711000000000000000e+03 7.821445465087890625e+01 -3.008227944374084473e-01 -7.453687190031588194e-13 -2.050663648221415225e-13 -2.851305075293047997e-13 -1.517946230137571378e-14
2.712000000000000000e+03 7.892311859130859375e+01 -1.194484829902648926e+00 3.851347680442623878e-13 -4.068291114146110887e-13 -6.508303011104610292e-15 1.456178927439211179e-13
2.713000000000000000e+03 7.821141052246093750e+01 -2.697117090225219727e+00 -3.219109007135401157e-13 -5.725958444370571332e-13 -2.683520181241683122e-13 -2.830640995037103647e-13
2.714000000000000000e+03 7.821004486083984375e+01 -5.095667839050292969e+00 2.073160436724674760e-13 -3.686597468272045930e-13 -4.840311162404749290e-14 -4.052351648144679463e-14
2.715000000000000000e+03 7.821025085449218750e+01 -3.498149871826171875e+00 1.966911063275983418e-13 -4.189642610705895942e-13 -6.668194371239194451e-14 -1.382004455536059440e-13
2.716000000000000000e+03 7.891728210449218750e+01 -7.582079887390136719e+00 2.015933535555458622e-13 -2.796104547984207267e-13 -2.340512800117020703e-14 -2.851164061247989101e-14
2.717000000000000000e+03 7.819895172119140625e+01 -9.889700889587402344e+00 1.983221394183040664e-13 -5.225764347074543514e-14 4.381934878426758939e-14 -6.080193586024268404e-14
2.718000000000000000e+03 7.820122528076171875e+01 -9.087787628173828125e+00 -1.314850192699751341e-13 -3.079809356761747940e-13 -1.318397837733395472e-13 -1.764443083827893499e-13
2.719000000000000000e+03 7.818954467773437500e+01 -1.228487300872802734e+01 -7.887362095913841298e-14 -1.253048771514275739e-13 -6.125354672266436484e-14 -2.642092443536515206e-14
2.720000000000000000e+03 7.819262695312500000e+01 -1.148148059844970703e+01 1.599617113030513127e-13 2.280407003366676649e-14 5.482973355398247650e-14 1.444037015072181795e-14
2.721000000000000000e+03 7.890592193603515625e+01 -1.477038002014160156e+01 -1.254228027724102121e-14 -2.825073752406662142e-14 -1.223790576390876642e-14 7.182947812933715426e-14
2.722000000000000000e+03 7.889450836181640625e+01 -1.956300163269042969e+01 -2.712451743519962016e-14 -1.031266882328164824e-13 -3.907536119218506243e-14 7.494570556602214717e-14
2.723000000000000000e+03 7.814568328857421875e+01 -2.186169624328613281e+01 -5.159417272755650874e-14 -1.136136879562911484e-13 -4.956235752752793933e-14 9.408735251949414125e-15
2.724000000000000000e+03 7.816828155517578125e+01 -1.866619873046875000e+01 -4.897337824985234511e-14 -2.497433412417676690e-13 -8.961501516985964644e-14 6.846905448209053557e-14
2.725000000000000000e+03 2.149271774291992188e+01 6.711213111877441406e+00 -8.016003361305604202e-14 1.486494982010436172e-13 2.054683903758309366e-14 4.571297225301751421e-14
2.726000000000000000e+03 2.294144821166992188e+01 8.831576347351074219e+00 -8.766852413970684446e-16 -6.900214313777450204e-14 -2.096364870433388428e-14 -2.418759501498710107e-14
2.727000000000000000e+03 1.319949436187744141e+01 -3.578672027587890625e+01 -1.308264613178802827e-13 -1.031753214765160354e-14 -4.234319736203320805e-14 9.703021941693049102e-14
2.728000000000000000e+03 2.076256561279296875e+01 -1.005411148071289062e+01 -5.386385510796481979e-14 6.174287968917224756e-13 1.690694703378528563e-13 1.872034970616665017e-14
2.729000000000000000e+03 2.060000610351562500e+01 -3.078328514099121094e+01 -2.813348614130999764e-14 4.912032152554202113e-13 1.389209250022768738e-13 -1.266221150283616814e-13
2.730000000000000000e+03 2.137563896179199219e+01 -1.345824527740478516e+01 -1.154879279230761058e-13 3.622637129510608567e-13 7.403273279788999406e-14 -7.612412490729664194e-14
2.731000000000000000e+03 2.079410934448242188e+01 -2.588953399658203125e+01 1.000719757168928858e-13 5.003974665185317861e-13 1.801408414797700530e-13 -1.441063658376776080e-13
2.732000000000000000e+03 2.171839904785156250e+01 2.905557823181152344e+01 2.199005951289412231e-14 5.517525862195823971e-14 2.314959510164252970e-14 -1.087209478261436102e-14
2.733000000000000000e+03 2.387022209167480469e+01 2.813897323608398438e+01 9.336424896275261759e-15 -3.162553227110953546e-13 -9.207566621042412303e-14 5.564738123423063065e-14
2.734000000000000000e+03 2.161010932922363281e+01 2.825685691833496094e+01 -1.039400024925064836e-13 -9.029666662822843914e-14 -5.827100141384683463e-14 7.920687082564256687e-14
2.735000000000000000e+03 2.221776580810546875e+01 9.770898818969726562e+00 -1.223430672091588289e-15 1.824794655658212861e-13 5.437681148455844604e-14 -1.341039231701410261e-13
2.736000000000000000e+03 1.327561092376708984e+01 -2.592340469360351562e+01 -3.906518324429085476e-14 9.763515001906877822e-14 1.757099037124655594e-14 2.348842352713730042e-14
2.737000000000000000e+03 2.221578216552734375e+01 1.057172298431396484e+01 -8.938083427686635551e-14 7.607130393270586377e-14 -3.992859103248147523e-15 -1.059563542590499785e-13
2.738000000000000000e+03 2.149944877624511719e+01 1.072259807586669922e+01 -3.471005831389741003e-14 -1.487573830934695029e-14 -1.487573830934695029e-14 -8.530885552008107831e-14
2.739000000000000000e+03 2.220191001892089844e+01 1.457158470153808594e+01 -1.567959629321380444e-14 4.507896605911859700e-13 1.305330219998970809e-13 4.744719767362133578e-14
2.740000000000000000e+03 2.235536766052246094e+01 2.800178527832031250e+01 2.338840926485730165e-14 1.015255045831719993e-13 3.747417415440879029e-14 -6.891712135866090438e-14
2.741000000000000000e+03 2.151060867309570312e+01 2.667536544799804688e+01 6.885372009552597275e-15 9.445277269733501346e-14 3.040144226857180443e-14 2.342260229087206325e-14
2.742000000000000000e+03 1.244517993927001953e+01 -2.343742370605468750e+01 6.909199639281923822e-14 3.041165409778390227e-13 1.119625632440765517e-13 1.702100916808890751e-13
2.743000000000000000e+03 1.325323867797851562e+01 -2.348481559753417969e+01 1.422770186170971285e-13 4.727344275583245103e-13 1.845034270763629136e-13 -4.025485457123667565e-14
2.744000000000000000e+03 1.400359439849853516e+01 -2.432429313659667969e+01 -1.426694523696918349e-14 1.997648601441762151e-13 5.564937684385436178e-14 -8.627141020881370914e-14
2.745000000000000000e+03 1.296525192260742188e+01 -8.273417472839355469e+00 8.596420829950351949e-14 3.113474918419595339e-13 1.191935141081970628e-13 9.174718683347890535e-14
2.746000000000000000e+03 1.400361156463623047e+01 -1.330355834960937500e+01 -9.754731270243850727e-15 2.703251034477660575e-13 7.817110538521285235e-14 -1.157005399691005132e-13
2.747000000000000000e+03 1.399440670013427734e+01 -1.408991336822509766e+01 -9.454627158218473215e-14 5.231119204663790476e-15 -2.679454558620134041e-14 3.285590827455543012e-15
2.748000000000000000e+03 1.404303264617919922e+01 -1.883217430114746094e+01 -2.378279796949427094e-14 -5.594357849149009243e-14 -2.391791327710848791e-14 -6.882951104686049759e-14
2.749000000000000000e+03 1.334845638275146484e+01 -1.963075065612792969e+01 2.472582177252911212e-14 1.020986816141836173e-13 3.804735118542040828e-14 1.364660744433351947e-13
2.750000000000000000e+03 2.149226570129394531e+01 1.552069950103759766e+01 -1.397365838491648748e-14 4.515207652211472578e-13 1.312641401823855247e-13 2.558248379032779934e-14
2.751000000000000000e+03 2.147615051269531250e+01 2.428666877746582031e+01 -1.889052201340182813e-14 -8.095937521724813624e-15 -8.095937521724813624e-15 -9.141842793566109376e-15
2.752000000000000000e+03 2.219950103759765625e+01 2.567808151245117188e+01 -3.116454102701678164e-14 7.814566729174091120e-14 1.409433771001064942e-14 7.328250555211149320e-14
2.753000000000000000e+03 2.147310829162597656e+01 2.269334030151367188e+01 -1.628464886809649625e-14 1.302737079452928604e-13 3.419671907841162484e-14 3.151375915864257360e-14
2.754000000000000000e+03 2.215828704833984375e+01 2.330587577819824219e+01 1.649003911121261351e-14 7.067159679593473451e-15 7.067159679593473451e-15 8.144978018865406399e-14
2.755000000000000000e+03 2.147316551208496094e+01 2.189497947692871094e+01 3.841994403825862991e-14 6.221663673621966040e-14 3.019097490996984490e-14 -2.243180413554618502e-14
2.756000000000000000e+03 2.220112991333007812e+01 1.617075538635253906e+01 -3.357306566000722858e-14 3.516191244418154227e-13 9.541382305555332066e-14 1.600107070768522904e-14
2.757000000000000000e+03 2.149047660827636719e+01 1.791913795471191406e+01 -3.146765684938941654e-14 1.237667059767952327e-13 2.768971541584810264e-14 1.977819390739949529e-14
2.758000000000000000e+03 2.218241119384765625e+01 1.935637855529785156e+01 -4.935066366521835557e-14 1.161025621346581382e-13 2.002556987964511370e-14 9.530813663714203347e-16
2.759000000000000000e+03 2.216309165954589844e+01 2.093205642700195312e+01 7.154101936508380777e-14 1.221623307070054953e-13 5.811100705450586434e-14 5.325525177096723795e-14
2.760000000000000000e+03 2.148075294494628906e+01 2.030736351013183594e+01 -9.601617867753195479e-14 -4.114978892572410119e-14 -4.114978892572410119e-14 1.494577438155772486e-14
2.761000000000000000e+03 2.219123649597167969e+01 1.856570434570312500e+01 -7.711230403674960987e-15 2.712008677525912237e-13 7.904689679509233069e-14 6.917571712932585326e-14
2.762000000000000000e+03 2.217280578613281250e+01 2.014533805847167969e+01 1.501345061997744895e-14 1.894381326068492188e-13 6.133547174932280077e-14 1.149099126398697712e-13
2.763000000000000000e+03 2.215417098999023438e+01 2.171998977661132812e+01 7.082358245875941538e-14 1.676058109575245814e-13 7.152881531437976781e-14 1.385790625047650382e-13
2.764000000000000000e+03 2.220064544677734375e+01 1.697006988525390625e+01 2.305746841016736298e-14 2.386365031362830402e-13 7.850819739316575174e-14 -5.508228997973350222e-15
2.765000000000000000e+03 1.325129985809326172e+01 -1.573628044128417969e+01 1.846894185709210129e-14 -3.783568781629692568e-14 -5.810023448948268415e-15 1.168581019710818181e-13
2.766000000000000000e+03 1.263373756408691406e+01 -1.890189170837402344e+01 -5.135124706641576442e-14 1.152451750566566013e-13 1.916817771944589327e-14 -5.989865314902712012e-14
2.767000000000000000e+03 1.257536506652832031e+01 -1.052453708648681641e+01 -2.120318115148792787e-14 3.666387194387922543e-14 4.638206729497620917e-15 1.863772672435967670e-13
2.768000000000000000e+03 1.330375385284423828e+01 -1.183078384399414062e+01 1.070248422762980212e-13 9.161873598109368522e-14 5.959307076671208070e-14 1.177958826401731551e-13
2.769000000000000000e+03 1.321449470520019531e+01 -6.645424842834472656e+00 4.479286746746947989e-14 1.919694295833464931e-14 1.919694295833464931e-14 3.729986832639101135e-14
2.770000000000000000e+03 1.403084182739257812e+01 -5.124429702758789062e+00 -1.258445912988249635e-14 -5.393339566590145059e-15 -5.393339566590145059e-15 1.154979313821831791e-14
2.771000000000000000e+03 1.404212093353271484e+01 -4.332225799560546875e+00 6.510760084278005566e-14 7.365420393815741429e-14 4.162854211190759879e-14 -6.719507711887154691e-15
2.772000000000000000e+03 1.254650115966796875e+01 -1.267633152008056641e+01 8.188142140231127741e-14 1.494694125414586239e-13 6.940524950550461258e-14 3.275426262681901957e-14
2.773000000000000000e+03 1.401586341857910156e+01 -1.251797103881835938e+01 7.652319939819782202e-14 2.615504113203520609e-13 1.014220784721804602e-13 4.199098412190592489e-14
2.774000000000000000e+03 1.327178287506103516e+01 -1.652684211730957031e+01 -8.974813486785013228e-14 -8.421443474211989799e-14 -5.218877291587008249e-14 3.182230954440479209e-14
2.775000000000000000e+03 1.405386543273925781e+01 -1.961192321777343750e+01 9.548005425576502891e-14 3.154257183137637588e-13 1.232717270274741317e-13 2.734806298250718609e-14
2.776000000000000000e+03 1.333632373809814453e+01 -2.116131401062011719e+01 6.179073501781304212e-14 -1.926920672719670269e-14 1.275645848718490183e-14 -1.859915114987582135e-14
2.777000000000000000e+03 1.405741596221923828e+01 -2.039161300659179688e+01 -7.041882945897984247e-14 1.070733467709895914e-13 1.099635451597656688e-14 1.202086526022952406e-13
2.778000000000000000e+03 2.291704368591308594e+01 2.544886398315429688e+01 -3.342883966601234436e-14 -1.432664581315756108e-14 -1.432664581315756108e-14 7.120091191983868306e-15
2.779000000000000000e+03 2.220697402954101562e+01 1.297127056121826172e+01 2.025872586277222692e-14 3.746898895751887837e-13 1.184845949651902597e-13 4.965801804045905099e-14
2.780000000000000000e+03 1.404316997528076172e+01 -2.195309638977050781e+01 7.479623474401786432e-14 7.780647464207882114e-14 4.578081281582900564e-14 -5.858102902506906462e-14
2.781000000000000000e+03 1.330944728851318359e+01 -2.192855072021484375e+01 1.047509924937892190e-13 1.821461276078906177e-13 8.606913874100938222e-14 -4.417709145547454863e-14
2.782000000000000000e+03 2.221041870117187500e+01 1.217212677001953125e+01 -2.194963740658525259e-14 3.108496533094085024e-13 8.667000358500084878e-14 -4.165561328490184623e-14
2.783000000000000000e+03 2.227269172668457031e+01 2.723793983459472656e+01 -5.217946910597744126e-14 -2.236262864880982082e-14 -2.236262864880982082e-14 7.160301540055924452e-14
2.784000000000000000e+03 1.330310726165771484e+01 -2.753719711303710938e+01 -6.879707307311244691e-14 -2.124882572413638870e-13 -8.438559638383746897e-14 1.846759507470596695e-14
2.785000000000000000e+03 2.436012458801269531e+01 3.155335235595703125e+01 1.062615232892867578e-13 2.800142658975629528e-13 1.158827401441867022e-13 7.163939038344613319e-14
2.786000000000000000e+03 2.235715103149414062e+01 3.056774711608886719e+01 4.061253625607143258e-14 1.832525694774392311e-13 6.715952799310823118e-14 -1.590266241987322443e-14
2.787000000000000000e+03 2.221806144714355469e+01 8.162024497985839844e+00 3.427538726338786798e-15 7.009537129334594829e-14 2.205687177770764701e-14 -1.965688693089141792e-14
2.788000000000000000e+03 2.156559753417968750e+01 -6.242085933685302734e+00 -2.308738561386438487e-14 5.391167655528772418e-13 1.548088236378794558e-13 3.283411411682257697e-14
2.789000000000000000e+03 2.095495986938476562e+01 -3.006070137023925781e+01 -1.457044053010218831e-14 2.682612161922226512e-13 7.610723168219660217e-14 3.744518868695374814e-14
2.790000000000000000e+03 2.220355796813964844e+01 6.545562267303466797e+00 2.820393768318140044e-15 1.842125356334850528e-13 5.610987816409042372e-14 -3.745723349546370429e-14
2.791000000000000000e+03 2.218709945678710938e+01 5.736249923706054688e+00 -1.700149454542370514e-14 3.129702985486815248e-13 8.879063527174671511e-14 -4.574468770766155698e-15
2.792000000000000000e+03 2.212956619262695312e+01 4.112463951110839844e+00 -4.099484627088055555e-14 3.026874269892315672e-13 7.850777048856033558e-14 -5.269622781347129206e-15
2.793000000000000000e+03 2.197298431396484375e+01 1.670331716537475586e+00 -3.577117375637255126e-14 2.591751954109794420e-13 6.702120412468981492e-14 -1.607058399116095826e-13
2.794000000000000000e+03 2.120544815063476562e+01 -3.130065727233886719e+01 -5.245628963753551366e-14 2.977753677316230529e-13 7.359572478347897739e-14 7.949894811464658373e-14
2.795000000000000000e+03 1.193273067474365234e+00 -3.399428176879882812e+01 -3.652762500024747672e-14 1.902245722051887356e-13 4.610908551673509326e-14 4.700037593548343079e-15
2.796000000000000000e+03 1.982517957687377930e+00 -3.230598449707031250e+01 2.240746252622446456e-15 3.212169571130407686e-13 9.703731416489669304e-14 -4.950670407476154278e-14
2.797000000000000000e+03 2.796602487564086914e+00 -3.636291885375976562e+01 5.467255155578462731e-16 5.721211807259429794e-13 1.718003723224365009e-13 7.811962949894231401e-15
2.798000000000000000e+03 2.097045421600341797e+00 -3.757562255859375000e+01 -4.454645203058604785e-14 3.697917352104423960e-13 9.757358088819875763e-14 1.107153800740780583e-14
2.799000000000000000e+03 1.991703510284423828e+00 -3.556398391723632812e+01 -1.555169940037608861e-14 5.423463869842770624e-13 1.580384044116978082e-13 -6.605483439956275071e-14
2.800000000000000000e+03 1.093105912208557129e+00 -2.752119255065917969e+01 1.185621323611819183e-14 5.540926333209850174e-13 1.697846507484057632e-13 6.676916100090482531e-14
2.801000000000000000e+03 2.479144573211669922e+00 -2.173294639587402344e+01 -1.217427156671333985e-14 4.053340305000714683e-14 8.507739529691436819e-15 2.083352580891078415e-14
2.802000000000000000e+03 2.469608783721923828e+00 -2.012690925598144531e+01 8.569383538273994683e-14 3.672592896572686449e-14 3.672592896572686449e-14 4.403538623153069320e-14
2.803000000000000000e+03 1.759878396987915039e+00 -1.699134063720703125e+01 -3.648974229871447539e-14 4.647465138424289322e-13 1.284770223151585067e-13 5.237640426621406609e-14
2.804000000000000000e+03 1.057938575744628906e+00 -1.144540786743164062e+01 -4.914499983046027518e-15 2.495240071422738515e-13 7.338284846317502663e-14 6.418497867531278156e-14
2.805000000000000000e+03 1.050597906112670898e+00 -9.047985076904296875e+00 2.683738004234399038e-14 2.402564909173565688e-13 8.012815806918496819e-14 -3.513330373698143883e-14
2.806000000000000000e+03 1.037480831146240234e+00 -7.460537433624267578e+00 -6.308241452259669840e-15 8.879836698848925236e-14 2.474703655972604333e-14 -5.863166126652413768e-14
2.807000000000000000e+03 4.139567375183105469e+00 -3.352761268615722656e+00 -9.048731002773285903e-14 -1.302821782747654034e-13 -6.623084106973861629e-14 7.605052113231203226e-14
2.808000000000000000e+03 2.443541049957275391e+00 -8.124486923217773438e+00 6.765008881857645373e-14 2.577476535155220905e-13 9.761932066735048985e-14 -1.275535666672711343e-13
2.809000000000000000e+03 1.779349684715270996e+00 -2.342447662353515625e+01 -1.977187842974476722e-14 1.440181151689690769e-14 -1.611020137381828903e-15 6.601987565576367123e-14
2.810000000000000000e+03 1.058772802352905273e+00 -2.028953361511230469e+01 1.610892002472733009e-14 1.670321460355353449e-13 5.494231778519972909e-14 -4.773195998609286450e-14
2.811000000000000000e+03 1.762449741363525391e+00 -1.940569114685058594e+01 3.690838663882901882e-14 1.581787950405075249e-14 1.581787950405075249e-14 4.582032351468662973e-15
2.812000000000000000e+03 1.058101296424865723e+00 -1.305197334289550781e+01 -7.989836819499024356e-14 1.716371185803144961e-13 2.752162342153138125e-14 -1.768163320294870167e-14
2.813000000000000000e+03 2.470950841903686523e+00 -1.207817554473876953e+01 -8.794659065673032794e-14 2.596897848670953746e-13 5.152295419735136717e-14 -8.090559201322927718e-14
2.814000000000000000e+03 1.134238123893737793e+00 -2.993706321716308594e+01 2.796331722220660870e-14 4.237428279357108307e-13 1.355118410062763901e-13 4.200167367770027416e-14
2.815000000000000000e+03 1.860279202461242676e+00 -2.903837394714355469e+01 1.200050529868296190e-13 3.488119081768159546e-13 1.406450910595991033e-13 -6.533741951609498694e-15
2.816000000000000000e+03 1.063562512397766113e+00 -2.270171737670898438e+01 -5.247011999149828188e-14 1.147656459882934188e-13 1.868866050954397229e-14 3.063947546740920791e-14
2.817000000000000000e+03 1.761679768562316895e+00 -1.377461242675781250e+01 -2.372920873602033312e-15 9.048493155921696895e-14 2.643360282451965443e-14 -1.802348553606517023e-14
2.818000000000000000e+03 1.321038007736206055e+00 -3.784550476074218750e+01 -9.698328193319134122e-15 5.448549597608653983e-13 1.605469907408133001e-13 -4.485450436097528082e-14
2.819000000000000000e+03 1.993075728416442871e+00 -3.313304901123046875e+01 -5.629068242887953766e-14 3.647584892550043145e-13 9.254034170902425416e-14 2.022409957940494475e-15
2.820000000000000000e+03 2.691574573516845703e+00 -3.054517745971679688e+01 -2.607050182288836448e-14 4.005854621538101901e-13 1.123544887769029055e-13 -2.818694239061121654e-14
2.821000000000000000e+03 1.836616992950439453e+00 -2.823414421081542969e+01 -1.505620376095716251e-14 4.281813618944863009e-13 1.239375491341246360e-13 1.341194408137347249e-13
2.822000000000000000e+03 2.506704330444335938e+00 -2.495128631591796875e+01 -5.842781770556970677e-14 -2.165020024830254311e-15 -1.817785220850458294e-14 5.361110386463592559e-14
2.823000000000000000e+03 1.789528012275695801e+00 -2.503221893310546875e+01 -7.386304838163243458e-14 -1.002820127827576402e-13 -5.224351834931702243e-14 -3.712827639193623519e-14
2.824000000000000000e+03 1.066669464111328125e+00 -2.350385475158691406e+01 6.331784733028603118e-14 2.101400108610318451e-13 8.203735677976900509e-14 1.048588909387422607e-13
2.825000000000000000e+03 1.773803353309631348e+00 -2.262153244018554688e+01 -9.225776135342485251e-15 1.104234704975975978e-13 3.035930746164358651e-14 3.208574017913266851e-14
2.826000000000000000e+03 1.765545845031738281e+00 -2.101430320739746094e+01 4.053147181488740702e-14 1.317480060594386493e-13 5.168384302348463799e-14 -2.992007683277897456e-14
2.827000000000000000e+03 1.055774331092834473e+00 -1.707180595397949219e+01 -1.222686807757309563e-14 1.548882278944868629e-13 4.279840980854661414e-14 -7.764044263188982220e-14
2.828000000000000000e+03 1.761199355125427246e+00 -1.860035324096679688e+01 -4.480693837878926833e-14 2.095517634198226786e-13 4.942344751231002309e-14 -8.114850750997465445e-14
2.829000000000000000e+03 1.760268211364746094e+00 -1.458119869232177734e+01 -2.590858639282302145e-15 2.505198468377017873e-13 7.437869493486654049e-14 -1.031262867391994839e-14
2.830000000000000000e+03 1.057516813278198242e+00 -1.385595417022705078e+01 4.951086470059845590e-14 4.558529660518562121e-13 1.516091532914945472e-13 2.018562183722649728e-14
2.831000000000000000e+03 1.756173610687255859e+00 -9.770620346069335938e+00 7.841934702513056465e-14 1.708611415329394645e-13 7.478414588979465094e-14 1.737702152039121567e-14
2.832000000000000000e+03 1.763131976127624512e+00 -1.136495304107666016e+01 -2.075428757076103886e-14 2.884864656188534937e-13 8.031965527790022041e-14 -3.065836769026476782e-14
2.833000000000000000e+03 3.205752372741699219e+00 -2.630908489227294922e+00 -1.687028575376222500e-14 1.300227286948896221e-13 3.394572966361301958e-14 6.577279127461014511e-16
2.834000000000000000e+03 2.475337743759155273e+00 -2.697901248931884766e+00 7.794342970525447445e-14 -3.522209650677621262e-14 1.281640131479619416e-14 -2.305291814917471288e-14
2.835000000000000000e+03 9.560654163360595703e-01 -4.358014583587646484e+00 5.268821911695500265e-15 4.800901429874437909e-14 1.598335077842866908e-14 5.835915382673348417e-14
2.836000000000000000e+03 1.988439559936523438e+00 -3.395273208618164062e+01 -3.482694208435492544e-14 4.425836596082949326e-13 1.223270074644788874e-13 2.633576204878231020e-15
2.837000000000000000e+03 1.987602710723876953e+00 -3.476651763916015625e+01 -1.737791429311762170e-14 1.755561164105620686e-13 4.745346232929922858e-14 -5.711854871460336769e-14
2.838000000000000000e+03 1.977057099342346191e+00 -3.631650161743164062e+01 1.781992149598333325e-15 3.210203641541148345e-13 9.684070087718002484e-14 -2.187803093529026854e-14
2.839000000000000000e+03 2.154324722290039062e+01 -7.822134971618652344e+00 1.230636415255198512e-13 5.560020217669492393e-13 2.037196908562244335e-13 8.001419486832958561e-14
2.840000000000000000e+03 2.191662406921386719e+01 8.684821128845214844e-01 2.030537027311162673e-14 3.289589466711623222e-13 1.047792969467546687e-13 3.786576087405624236e-14
2.841000000000000000e+03 2.116007995605468750e+01 -1.582899856567382812e+01 1.243905660712387590e-14 6.915952728038521347e-13 2.112102945881280669e-13 1.015677816916353560e-13
2.842000000000000000e+03 2.178397750854492188e+01 -1.900900268554687500e+01 1.267741337254713052e-14 4.171917260438473551e-13 1.289607391144129145e-13 1.592432511809266371e-13
2.843000000000000000e+03 2.109759712219238281e+01 -1.661066818237304688e+01 4.410791258060639541e-14 5.679148015573509678e-13 1.836068054322445575e-13 1.165763178264528355e-13
2.844000000000000000e+03 7.664092254638671875e+01 2.592943572998046875e+01 -7.095469214756606677e-15 -1.860447153322411507e-13 -5.794205447471473258e-14 1.013814208907122538e-13
2.845000000000000000e+03 7.295716285705566406e+00 -3.263608932495117188e+00 -3.440315117205286488e-14 7.675769199931570252e-14 1.270636157055249349e-14 1.037146713997461056e-13
2.846000000000000000e+03 5.590251922607421875e+00 -2.569451093673706055e+00 3.374858782733726470e-14 1.288410567470976709e-13 4.877689371114365957e-14 -1.430713186811871651e-13
2.847000000000000000e+03 6.498053073883056641e+00 -3.278717994689941406e+00 -6.013513119537336471e-14 1.114806489309339010e-13 1.540365498185498200e-14 -4.770808382137566028e-14
2.848000000000000000e+03 5.702173709869384766e+00 -3.299220561981201172e+00 -1.516508815226080831e-14 -5.225027089597253371e-14 -2.022460737565682370e-14 2.365231254396974597e-14
2.849000000000000000e+03 2.218604326248168945e+00 -4.313300132751464844e+00 7.687749803344124527e-15 -1.110826247608873163e-13 -3.101846172493330500e-14 -2.264170737020527319e-14
2.850000000000000000e+03 2.080400466918945312e+00 -3.564995765686035156e+00 -3.491721207960971074e-14 -8.359094395404137456e-14 -3.555244613246896779e-14 -1.955253247178968812e-14
2.851000000000000000e+03 1.831917881965637207e+00 -2.821326494216918945e+00 2.594385853881258502e-14 -3.463215161154074850e-14 -2.606488514741512122e-15 6.964157085075561512e-15
2.852000000000000000e+03 1.639749169349670410e+00 -5.102110862731933594e+00 2.749257188550645326e-15 1.178253111058596113e-15 1.178253111058596113e-15 4.053312522320044742e-14
2.853000000000000000e+03 4.914315223693847656e+00 -3.323025226593017578e+00 -4.552884084281158539e-14 -8.813878582059411770e-14 -4.010028799902171093e-14 -1.376998558580422305e-13
2.854000000000000000e+03 1.042036342620849609e+01 -3.308537483215332031e+00 3.583835363348518432e-14 1.526121351687337313e-13 5.653514968998428480e-14 -2.169383345651445388e-14
2.855000000000000000e+03 2.123278808593750000e+01 -1.504150962829589844e+01 -2.599223597856206713e-14 4.006190182110486164e-13 1.123880312816141758e-13 1.145097878281139958e-13
2.856000000000000000e+03 2.169816589355468750e+01 -3.080202579498291016e+00 -8.782359469652542550e-14 3.283688967438413986e-13 7.216359535757929655e-14 -3.434324222575946273e-14
2.857000000000000000e+03 2.149326515197753906e+01 -1.104927253723144531e+01 9.854394860883686214e-15 5.074837577077884188e-13 1.552014403495907691e-13 8.978477243095066979e-15
2.858000000000000000e+03 2.208229064941406250e+01 3.292102813720703125e+00 -2.704358682522126078e-14 1.714136916176195458e-13 4.331103076009312769e-14 -1.535946391774400954e-13
2.859000000000000000e+03 2.146327972412109375e+01 -1.185910701751708984e+01 3.597941850052091550e-14 6.101820979910466125e-13 1.938484502040857538e-13 -3.972288738717487389e-14
2.860000000000000000e+03 1.184817600250244141e+01 -3.251297760009765625e+01 -5.130336683500632058e-15 1.808050779407432973e-13 5.270242385948045727e-14 3.559264631614565688e-14
2.861000000000000000e+03 1.313153743743896484e+01 -3.488227081298828125e+01 -8.198244193973261429e-14 -3.513533322792306013e-14 -3.513533322792306013e-14 4.548926068725228644e-14
2.862000000000000000e+03 2.301753997802734375e+01 -3.647339248657226562e+01 -9.032999906876879037e-15 2.935098724395762693e-13 8.534306209862299597e-14 -7.409231648353165056e-14
2.863000000000000000e+03 2.089400672912597656e+01 -3.767012786865234375e+01 -6.011986427353205320e-14 3.859928869587303524e-13 9.776190680555948975e-14 4.878515058831349449e-15
2.864000000000000000e+03 2.235775184631347656e+01 3.227919387817382812e+01 1.606100337090115432e-14 -8.461861175949533798e-14 -2.056728133073212894e-14 -2.056743210259674021e-14
2.865000000000000000e+03 2.320830154418945312e+01 3.196685600280761719e+01 7.577222676342573737e-14 -5.902808623836630630e-14 5.023241649298060968e-15 -1.673954757360623935e-13
2.866000000000000000e+03 7.882487487792968750e+01 2.822057723999023438e+01 1.464672939952959413e-14 -4.512323132331574893e-13 -1.309756746418686002e-13 1.271380783719180604e-14
2.867000000000000000e+03 9.768440127372741699e-01 -3.607957839965820312e+00 1.070609241857851598e-14 -1.326645228134221144e-13 -3.658752717027730084e-14 5.507268293204574394e-14
2.868000000000000000e+03 6.030646514892578125e+01 2.765189552307128906e+01 1.381654647869502359e-14 5.921377364809634128e-15 5.921377364809634128e-15 2.482461935668367481e-13
2.869000000000000000e+03 7.299031066894531250e+01 2.752925491333007812e+01 2.669102121938791983e-14 1.143900969904692796e-14 1.143900969904692796e-14 7.732677616712618773e-14
2.870000000000000000e+03 5.805499649047851562e+01 2.858577728271484375e+01 4.762497294859106833e-14 2.034145014971969201e-13 7.531184063967050202e-14 8.704861375989636496e-14
2.871000000000000000e+03 1.692024421691894531e+01 -4.153465652465820312e+01 -9.927737072094183768e-14 -8.234234285088917749e-15 -3.225348319587512114e-14 -3.170630330008063213e-14
2.872000000000000000e+03 1.323551750183105469e+01 -1.494810962677001953e+01 -1.540385657569642852e-14 8.490024682632560382e-14 2.084891639756239479e-14 2.511606213330690347e-16
2.873000000000000000e+03 4.796075820922851562e+00 -3.896786117553710938e+01 -8.753619302939025237e-14 1.998175388172318545e-13 3.368440305872612284e-14 -2.469519644928818564e-14
2.874000000000000000e+03 1.962565803527832031e+01 -3.734455871582031250e+01 -8.884231105779280546e-14 1.906794627791821850e-13 3.055114687166952947e-14 -3.186896750727134797e-14
2.875000000000000000e+03 7.064904785156250000e+01 2.764080047607421875e+01 4.830079004401917342e-14 -4.792608299694460505e-14 1.124121776498415541e-16 -5.574315694364256890e-14
2.876000000000000000e+03 7.219592285156250000e+01 2.758361053466796875e+01 -2.132475748447323211e-14 -9.139181416045836365e-15 -9.139181416045836365e-15 -3.564134393434920112e-14
2.877000000000000000e+03 2.591272544860839844e+01 3.226668167114257812e+01 -4.667209815237965964e-14 -1.115042235519218827e-13 -4.745289651129046271e-14 9.368420210605077347e-14
2.878000000000000000e+03 2.518488502502441406e+01 3.299259185791015625e+01 -1.213683559035672044e-13 -2.578942918593507549e-13 -1.137787916183699566e-13 1.258100408249064606e-14
2.879000000000000000e+03 7.468449401855468750e+01 2.733587455749511719e+01 4.109469112657110346e-14 -7.388988916166502885e-14 -9.838558732901819814e-15 7.615033549481647901e-14
2.880000000000000000e+03 1.139731788635253906e+01 -3.319500350952148438e+01 -6.793944204962210076e-14 -2.235584357608913497e-13 -8.744936198790131954e-14 5.568673438496006545e-14
2.881000000000000000e+03 2.663556289672851562e+01 3.224872589111328125e+01 9.392816792365074607e-14 8.600587554424485304e-14 5.398021371799503754e-14 1.425310336335833261e-13
2.882000000000000000e+03 2.741477203369140625e+01 3.286066818237304688e+01 -4.993543488321199042e-14 2.435004746394100333e-14 -7.675616056374706675e-15 -7.457339901032009749e-15
2.883000000000000000e+03 2.734443473815917969e+01 3.219813156127929688e+01 -4.941339831342379807e-14 7.032472748667167872e-14 6.273398328457890569e-15 1.367455817634019577e-13
2.884000000000000000e+03 3.013462257385253906e+01 3.180449676513671875e+01 -4.132962418482155620e-14 -6.346364541743101939e-14 -3.143798020304941487e-14 -1.250759478627072596e-13
2.885000000000000000e+03 2.883983421325683594e+01 3.268412017822265625e+01 -1.091692586482027882e-13 1.819679254283154690e-13 2.183959935640744643e-14 7.488836482362482005e-14
2.886000000000000000e+03 1.248642635345458984e+01 -2.264660453796386719e+01 5.865543917541946040e-14 2.310173265792497821e-13 8.690182633826898373e-14 5.908356350827967396e-14
2.887000000000000000e+03 2.086945343017578125e+01 -2.444629859924316406e+01 5.590959214151446088e-14 5.729726589021044703e-13 1.886646763295252160e-13 1.756560832389970211e-14
2.888000000000000000e+03 2.334760475158691406e+01 -1.826815223693847656e+01 4.462830929460870344e-14 5.681378219442312361e-13 1.838298393716519818e-13 3.865575885780717438e-15
2.889000000000000000e+03 3.084099769592285156e+01 3.167719650268554688e+01 -4.569919949729515929e-14 7.191652601126058419e-14 7.865198123596216923e-15 -4.953293160294032493e-14
2.890000000000000000e+03 2.182306098937988281e+01 -7.043032050132751465e-01 3.000457345146527455e-14 4.703685899977438911e-13 1.501119514064550020e-13 -4.214251492803793020e-14
2.891000000000000000e+03 2.263878059387207031e+01 6.961863040924072266e-01 4.663593471597134773e-16 9.170176553871534075e-14 2.765043680401802623e-14 -8.413746994040058325e-14
2.892000000000000000e+03 3.227257919311523438e+01 3.140654563903808594e+01 2.056151303636132716e-14 2.375668292729088416e-13 7.743850320100081897e-14 -1.642473049928705464e-13
2.893000000000000000e+03 3.169391059875488281e+01 3.218869400024414062e+01 -4.757852166176364250e-14 -8.901721997326902946e-14 -4.097872215169662269e-14 -4.264809534172686600e-14
2.894000000000000000e+03 2.174272346496582031e+01 -2.280867099761962891e+00 9.050761848967622814e-14 3.590456111677436946e-13 1.348659682195996190e-13 -4.734155233630799042e-14
2.895000000000000000e+03 2.255183792114257812e+01 -8.725023865699768066e-01 -1.993994501307307099e-14 1.744581042129045301e-13 4.635544674350990102e-14 -3.357109376730602057e-14
2.896000000000000000e+03 1.042389297485351562e+01 -4.035827636718750000e+00 -2.335982529101925803e-14 2.187433854926659760e-13 5.861506619702153142e-14 -1.489300490657013976e-13
2.897000000000000000e+03 1.333343315124511719e+01 -2.720156669616699219e+00 -2.482626971567810509e-14 -5.639077800632247284e-14 -2.436511448600676283e-14 -9.808397583715988688e-14
2.898000000000000000e+03 2.221921348571777344e+01 3.297163391113281250e+01 -6.149025516197226260e-15 -9.413719532624237329e-14 -3.008586489747916426e-14 -4.509174134884226526e-14
2.899000000000000000e+03 8.878388404846191406e+00 -3.260302305221557617e+00 -1.074594718221931477e-13 9.119878382210858114e-14 -4.878205468289128002e-15 -8.175313318025193010e-14
2.900000000000000000e+03 1.040778827667236328e+01 -4.746977329254150391e+00 8.896268460399300859e-15 1.868164775436706448e-13 5.871382346240780481e-14 2.036601444400324562e-14
2.901000000000000000e+03 3.241682434082031250e+01 3.204974365234375000e+01 -1.111937080497220343e-13 -1.903498178849015454e-15 -3.392916169916472546e-14 -1.277309556952169189e-13
2.902000000000000000e+03 3.299488449096679688e+01 3.126466369628906250e+01 -7.351234286015126407e-14 -3.150528882917003060e-14 -3.150528882917003060e-14 2.831073456178653802e-14
2.903000000000000000e+03 2.305958175659179688e+01 -1.224432468414306641e+01 1.422386514127182977e-14 3.949789985097790224e-13 1.227608645163261181e-13 -2.432774847457158662e-14
2.904000000000000000e+03 2.804269409179687500e+01 3.212316513061523438e+01 -7.092469786387084474e-14 1.526075002044463558e-13 2.450483765285404320e-14 -7.132010639617630821e-14
2.905000000000000000e+03 2.797610664367675781e+01 3.147123718261718750e+01 2.851484112647109138e-15 1.384749113335706494e-13 4.239791907855762487e-14 4.314543920703670099e-14
2.906000000000000000e+03 3.155515098571777344e+01 3.154498672485351562e+01 3.907048905867245570e-14 1.539973389693555239e-13 5.792035010247428839e-14 -1.654729853844700421e-14
2.907000000000000000e+03 2.178731536865234375e+01 -1.749578094482421875e+01 7.166251099477438657e-14 4.882219845417368198e-13 1.679653459504479307e-13 9.650774239000972643e-14
2.908000000000000000e+03 2.181528472900390625e+01 -1.674996757507324219e+01 1.001470634936010851e-13 7.291843994935987006e-13 2.487994348304017889e-13 7.572826067126555566e-15
2.909000000000000000e+03 2.308563041687011719e+01 -5.722691059112548828e+00 2.930277277334719654e-14 2.870640194736068240e-13 9.491004173984435299e-14 -1.187953950704603856e-13
2.910000000000000000e+03 3.968020248413085938e+01 2.989734649658203125e+01 -9.700006504400823792e-14 9.568139059919558709e-14 -3.956035616415687697e-16 9.506251444661370509e-14
2.911000000000000000e+03 4.044220352172851562e+01 2.976122474670410156e+01 -3.864978134629840079e-14 7.493770279873648854e-14 1.088637660513801578e-14 -4.628211401906841271e-14
2.912000000000000000e+03 2.130801391601562500e+01 -1.425096035003662109e+01 -4.082835008663646126e-14 5.772644732018883396e-13 1.609308389674546369e-13 2.565694306858913587e-14
2.913000000000000000e+03 2.220518684387207031e+01 -1.287430763244628906e+01 -5.499679894436712568e-14 4.796903976464483854e-13 1.274080802882507357e-13 -1.608492802825458885e-15
2.914000000000000000e+03 3.534511947631835938e+01 3.147165298461914062e+01 -7.973572431659026183e-14 -5.704792649559309314e-14 -4.103509727653407990e-14 8.877768583204909136e-14
2.915000000000000000e+03 2.231801223754882812e+01 -6.392065525054931641e+00 -4.832169481715740955e-14 3.910492535254966873e-13 1.028182665960622466e-13 -1.008868349646786788e-13
2.916000000000000000e+03 2.177942657470703125e+01 -1.824608039855957031e+01 1.101508817426440079e-13 5.047170363939312843e-13 1.844603706975880830e-13 8.630496626605213550e-14
2.917000000000000000e+03 2.098568916320800781e+01 -1.969730186462402344e+01 3.292502108085369750e-14 5.631220858538787954e-13 1.788141439388810094e-13 1.241361749721239804e-13
2.918000000000000000e+03 3.682524490356445312e+01 3.117044258117675781e+01 5.679529383687681454e-14 1.387182063010763966e-13 5.865405004138596334e-14 6.858353945524142681e-14
2.919000000000000000e+03 3.892384719848632812e+01 3.003948783874511719e+01 -2.670669810517570242e-14 3.545618659783755788e-13 9.835655103958632073e-14 -6.236526772505674061e-16
2.920000000000000000e+03 7.048821258544921875e+01 2.695877838134765625e+01 1.005483538226922824e-13 4.309215067025903845e-14 4.309215067025903845e-14 1.436902625964048275e-14
2.921000000000000000e+03 3.726768493652343750e+01 2.967964553833007812e+01 -1.381901981490100614e-14 -7.454886046583814041e-14 -2.651036433833162814e-14 1.080276140893662862e-13
2.922000000000000000e+03 7.683299255371093750e+01 2.290831375122070312e+01 7.032623859344958039e-14 7.589076394219629318e-14 4.386509872781468866e-14 -1.107521243633299499e-14
2.923000000000000000e+03 1.261463928222656250e+01 -3.450929880142211914e+00 -2.156308502725980646e-15 9.057776637023604027e-14 2.652643763553872575e-14 -7.129395679502867345e-14
2.924000000000000000e+03 3.372381591796875000e+01 3.112174034118652344e+01 -8.399886824517546757e-14 -3.599951351016157652e-14 -3.599951351016157652e-14 -3.873674367789415804e-15
2.925000000000000000e+03 3.445732498168945312e+01 3.097622680664062500e+01 -1.352833860560065382e-13 -1.494804985086722882e-13 -8.542916807990907913e-14 4.131446907132928226e-14
2.926000000000000000e+03 6.687017822265625000e+01 2.769335365295410156e+01 1.652716321003805389e-13 1.394571307392067361e-13 9.141862614137075127e-14 7.441498860259049275e-14
2.927000000000000000e+03 6.972548675537109375e+01 2.697300720214843750e+01 -1.580827245636299422e-14 -7.540139573911780468e-14 -2.736290130567718693e-14 -1.802951370014418964e-13
2.928000000000000000e+03 6.896536254882812500e+01 2.698103141784667969e+01 4.391026930082586599e-14 1.881868684321108542e-14 1.881868684321108542e-14 7.921986769918523685e-14
2.929000000000000000e+03 4.420712280273437500e+01 2.908676528930664062e+01 -7.784961233601658814e-14 1.496396729401203163e-13 2.153702055292337075e-14 1.930441890325360066e-13
2.930000000000000000e+03 4.580038452148437500e+01 2.947655487060546875e+01 -4.423522840884229479e-14 2.555477259923860656e-13 6.339375503488717256e-14 -2.257721733091994087e-13
2.931000000000000000e+03 4.346149063110351562e+01 2.922391510009765625e+01 1.504434699376149681e-14 1.894513734258806981e-13 6.134871256835427999e-14 3.630438777293271135e-14
2.932000000000000000e+03 6.524089813232421875e+01 2.712599372863769531e+01 -2.800728500843268493e-14 -1.492559737912776963e-13 -5.317897476000109369e-14 -3.783651282638755137e-15
2.933000000000000000e+03 4.654979705810546875e+01 2.934381103515625000e+01 -7.949041002253826038e-14 -3.406731954912547988e-14 -3.406731954912547988e-14 1.325403545596182120e-13
2.934000000000000000e+03 6.248716354370117188e+01 2.721901321411132812e+01 -2.473380082289224763e-14 -1.060020059467751963e-14 -1.060020059467751963e-14 1.260463765697175664e-13
2.935000000000000000e+03 6.180257415771484375e+01 2.782783317565917969e+01 -1.081027662405784767e-14 4.111797436822522966e-14 9.092309153843625147e-15 1.638545798609419846e-13
2.936000000000000000e+03 4.645817565917968750e+01 2.868338394165039062e+01 -8.233029465424743232e-14 1.019684350519502181e-13 5.891442373420719900e-15 -1.447390113578500559e-13
2.937000000000000000e+03 6.315653228759765625e+01 2.721882820129394531e+01 7.866487138335348517e-14 -2.407921681057273444e-13 -4.863819037196487338e-14 9.472881057044982289e-14
2.938000000000000000e+03 3.519331359863281250e+01 3.082718658447265625e+01 3.401688043118238081e-14 1.457866183188823855e-14 1.457866183188823855e-14 2.838659144441084414e-14
2.939000000000000000e+03 3.593241882324218750e+01 3.067268753051757812e+01 1.043028409139241247e-14 1.874739106360115426e-13 5.937126333101228060e-14 1.041747864729582196e-13
2.940000000000000000e+03 4.882368087768554688e+01 2.895970916748046875e+01 2.292760301276022816e-14 1.928299100256714027e-13 6.472725594440856267e-14 -1.267181871993051587e-14
2.941000000000000000e+03 5.093838500976562500e+01 2.728318977355957031e+01 7.967642523401888277e-14 2.629017880131923057e-13 1.027734619412842831e-13 4.891173119195117713e-14
2.942000000000000000e+03 4.863267898559570312e+01 2.763132286071777344e+01 1.317487222257955528e-15 1.378174782412297517e-13 4.174049276248030516e-14 5.717544899986812257e-14
2.943000000000000000e+03 5.410155868530273438e+01 2.756699180603027344e+01 3.020193890443910456e-14 1.501965327284360274e-13 5.411954386155479191e-14 -8.269525065803320918e-15
2.944000000000000000e+03 5.784840774536132812e+01 2.715386199951171875e+01 1.301223617923433565e-14 2.114559476953589701e-13 6.734045423064174973e-14 7.474535855707398202e-14
2.945000000000000000e+03 5.637124252319335938e+01 2.734219169616699219e+01 1.137566603415240962e-14 2.336300369745053507e-13 7.350171090259732809e-14 1.204043917520103424e-13
2.946000000000000000e+03 4.495829772949218750e+01 2.895104026794433594e+01 -1.470746335591362197e-14 3.944775075711594303e-14 7.422085542734338515e-15 4.961365045468187074e-14
2.947000000000000000e+03 4.120205688476562500e+01 2.962954902648925781e+01 -7.585098727499323124e-14 1.324338300021056167e-14 -1.878228136713809560e-14 8.268763413777149851e-14
2.948000000000000000e+03 4.196019744873046875e+01 2.949617004394531250e+01 -1.282255687263048061e-13 1.280499821844707786e-13 -5.267444119962562540e-17 -2.483532958008193708e-14
2.949000000000000000e+03 2.151636886596679688e+01 -2.529258537292480469e+01 -3.574561707828799451e-14 4.879409051285199528e-13 1.356585877703223031e-13 -1.413491228225002491e-14
2.950000000000000000e+03 4.271510314941406250e+01 2.936028861999511719e+01 8.828305924843404817e-15 9.528546029459461497e-14 3.123412986583140594e-14 9.667628839398617613e-14
2.951000000000000000e+03 6.383895111083984375e+01 2.720598220825195312e+01 -8.990520865758896973e-14 -3.853080371039527274e-14 -3.853080371039527274e-14 1.296354245738234878e-13
2.952000000000000000e+03 5.180097579956054688e+01 2.784056282043457031e+01 7.916052795903238959e-14 7.967688601994218911e-14 4.765122419369237361e-14 1.846517933674039769e-14
2.953000000000000000e+03 5.016796493530273438e+01 2.739591598510742188e+01 1.336574487155114954e-13 2.402855475355791803e-13 1.121829002305799183e-13 6.822317775816155727e-14
2.954000000000000000e+03 5.026076507568359375e+01 2.805776977539062500e+01 1.058090653939178227e-13 2.283505416006414990e-13 1.002478807431150809e-13 7.482188967792430256e-14
2.955000000000000000e+03 2.187359809875488281e+01 -1.599483489990234375e+01 -1.543347392973012239e-14 4.508951534625688096e-13 1.306385013187527644e-13 8.140656117955336057e-14
2.956000000000000000e+03 5.872626113891601562e+01 2.776210212707519531e+01 8.010475285478643737e-14 1.715834505727764636e-13 7.550646170589522810e-14 1.732792918483425093e-13
2.957000000000000000e+03 4.720793914794921875e+01 2.855137062072753906e+01 -4.204975465591821726e-14 2.564843682491962928e-13 6.433038373917024377e-14 -2.122931804714135381e-15
2.958000000000000000e+03 4.796340560913085938e+01 2.842227745056152344e+01 -6.747608453428789732e-15 2.258629074785092894e-13 6.573458818286484484e-14 -6.941416029210972782e-14
2.959000000000000000e+03 2.255634689331054688e+01 -1.829252624511718750e+01 6.182968667492547837e-15 3.686574428975880613e-13 1.124521211825352252e-13 8.327880214858279784e-14
2.960000000000000000e+03 5.418389892578125000e+01 2.824837493896484375e+01 -8.307695080912030905e-14 1.016484395570046995e-13 5.571446878475201300e-15 8.994310829978091615e-14
2.961000000000000000e+03 5.257044219970703125e+01 2.774122810363769531e+01 5.536997201477421651e-15 2.372998800633180708e-15 2.372998800633180708e-15 8.236914297334030355e-14
2.962000000000000000e+03 4.872574996948242188e+01 2.829672431945800781e+01 1.589587429783392847e-14 -3.893842984593193224e-14 -6.912767172649169484e-15 1.185192487771283276e-13
2.963000000000000000e+03 1.225060749053955078e+01 -3.365634918212890625e+01 -6.640283619187628550e-14 -7.420930867420641452e-14 -4.218364345982481001e-14 -7.673752583890747214e-15
2.964000000000000000e+03 2.230737876892089844e+01 -7.178327560424804688e+00 1.800715338558939171e-13 4.889320285444975767e-13 2.007010822726446042e-13 -1.825061233867372734e-14
2.965000000000000000e+03 2.202868270874023438e+01 2.477790117263793945e+00 -5.065275659305555622e-14 2.985483225654422812e-13 7.436866606477104957e-14 -6.850300610371532969e-15
2.966000000000000000e+03 2.216377639770507812e+01 4.927608013153076172e+00 3.370652078304482713e-14 1.516984915505073528e-13 5.562150607175790629e-14 -1.413311470892936184e-13
2.967000000000000000e+03 1.250753688812255859e+01 -2.905712127685546875e+01 -1.087834757983099226e-14 -4.662148962784710970e-15 -4.662148962784710970e-15 3.856989936310874223e-14
2.968000000000000000e+03 1.242717266082763672e+01 -3.050060462951660156e+01 -1.021207654571844314e-14 1.328762403926542213e-13 3.679924813764119673e-14 -3.771372523628767348e-14
2.969000000000000000e+03 2.085683822631835938e+01 -2.662627983093261719e+01 2.349812036031746765e-14 5.362065500814916508e-13 1.679113933398396208e-13 -6.754741487284207646e-14
2.970000000000000000e+03 1.329498958587646484e+01 -2.832062149047851562e+01 -3.105961820880744420e-15 2.731745764924381481e-13 8.102057842988494296e-14 7.736784710067265425e-14
2.971000000000000000e+03 1.402828216552734375e+01 -2.754502868652343750e+01 -2.909206146925642777e-14 7.903387281649534857e-14 1.498254408179803404e-14 -5.062536693567314117e-14
2.972000000000000000e+03 1.385027885437011719e+01 -9.310449600219726562e+00 8.721159751026643248e-16 4.612471158054604059e-14 1.409904890726327784e-14 5.595798821598878259e-14
2.973000000000000000e+03 1.231633949279785156e+01 -7.290647983551025391e+00 3.182463041468026888e-14 1.051410274490773011e-13 4.108969702031409210e-14 -5.359138493762384547e-14
2.974000000000000000e+03 7.664345550537109375e+01 -3.693142700195312500e+01 1.249571735147114726e-13 2.823078142782931010e-13 1.221794882063850785e-13 7.124025490617275080e-14
2.975000000000000000e+03 7.808642578125000000e+01 -2.744206809997558594e+01 1.100125443216984356e-13 4.714823570082203597e-14 4.714823570082203597e-14 1.482176604757426408e-13
2.976000000000000000e+03 7.731465148925781250e+01 -2.815563201904296875e+01 7.557413625024905768e-14 -5.911297926847192130e-14 4.938346501610077835e-15 7.599746298849602288e-14
2.977000000000000000e+03 7.571202087402343750e+01 -3.095805931091308594e+01 -1.868102535455742202e-14 -5.375710185155646581e-14 -2.173143833124075580e-14 8.748711932855812723e-14
2.978000000000000000e+03 7.805466461181640625e+01 -2.979186630249023438e+01 -4.449940782069554401e-14 1.181816688781978097e-13 2.210468001131657423e-14 1.103706427467432416e-13
2.979000000000000000e+03 7.822853851318359375e+01 2.284447097778320312e+01 -5.318571714226123792e-14 -1.142957798717925133e-13 -5.024444944302930427e-14 -2.075139580027911268e-14
2.980000000000000000e+03 7.753514862060546875e+01 2.132632827758789062e+01 2.906091267965409813e-15 1.384983165479691802e-13 4.242132090482436668e-14 2.810280660796044688e-14
2.981000000000000000e+03 7.822100067138671875e+01 1.566621017456054688e+01 7.956902145630703749e-15 -1.795936988534252432e-13 -5.149103799589882513e-14 6.264966030764679283e-14
2.982000000000000000e+03 7.751745605468750000e+01 1.254733943939208984e+01 6.061991864427310195e-14 -4.315295137283930993e-13 -1.112728819133677882e-13 -5.733101168282905835e-14
2.983000000000000000e+03 7.822080230712890625e+01 8.485145568847656250e+00 8.691406427029091386e-14 -1.457549087934689735e-13 -1.765225301814023900e-14 8.783487717538285278e-15
2.984000000000000000e+03 7.752377319335937500e+01 5.351373195648193359e+00 -2.534228726934310838e-14 -1.481138210126728416e-13 -5.203683553392339511e-14 6.528362784174665534e-14
2.985000000000000000e+03 7.821588134765625000e+01 1.297636389732360840e+00 -6.974011754375120109e-13 -3.903881070407150267e-13 -3.263367766119518176e-13 5.220538153789984481e-14
2.986000000000000000e+03 7.751099395751953125e+01 -1.834023833274841309e+00 -2.106288776206055591e-13 -6.392808916781678175e-13 -2.549729362106428754e-13 -4.071568928364077689e-13
2.987000000000000000e+03 7.820745086669921875e+01 -5.888725757598876953e+00 -2.306756944746995996e-13 -5.106195414411596190e-13 -2.223885680642523344e-13 -4.682957174166960113e-14
2.988000000000000000e+03 7.750136566162109375e+01 -6.625373840332031250e+00 -2.241378740594490715e-13 -5.993195306350229679e-13 -2.470372268293524742e-13 -1.260990959003546741e-13
2.989000000000000000e+03 7.818673706054687500e+01 -1.308289718627929688e+01 1.351841408996426463e-13 -3.080715207676859579e-13 -5.186621599329206689e-14 1.911062183067996356e-14
2.990000000000000000e+03 7.746792602539062500e+01 -1.381637382507324219e+01 1.289114485731462922e-13 -2.192579342912004403e-13 -2.710394639304260223e-14 1.042148680720222931e-14
2.991000000000000000e+03 7.816394042968750000e+01 -1.946875000000000000e+01 1.232436461912067571e-13 9.856965775285192466e-14 6.654399253847032014e-14 -1.600928015101001772e-14
2.992000000000000000e+03 7.741841888427734375e+01 -2.100106239318847656e+01 -8.348682666416487597e-14 -1.730329204571723345e-13 -7.695592481402752094e-14 7.728672844938000441e-14
2.993000000000000000e+03 7.753343963623046875e+01 1.973177146911621094e+01 -1.099673669724236802e-13 -1.843817253825014157e-13 -8.830472973935660219e-14 -1.218046930678839956e-13
2.994000000000000000e+03 7.751746368408203125e+01 1.413768863677978516e+01 6.801448916874883177e-14 -3.368585250150546440e-13 -8.065321007626538585e-14 -8.289851823658350716e-14
2.995000000000000000e+03 7.752543640136718750e+01 6.945705890655517578e+00 -1.494568493487849481e-13 -4.071850549878380798e-13 -1.669925726562396240e-13 1.091125209932639062e-13
2.996000000000000000e+03 7.751448822021484375e+01 -2.403672486543655396e-01 -5.797759733243423863e-13 -8.889886981937322741e-13 -4.406294122974441230e-13 -2.722901927803417221e-13
2.997000000000000000e+03 7.820368957519531250e+01 -8.287159919738769531e+00 1.480171237314142907e-13 -2.110697819865739455e-13 -1.891580086467968547e-14 -8.538174778738999438e-14
2.998000000000000000e+03 7.745469665527343750e+01 -1.700726318359375000e+01 2.822242798890348819e-14 -1.251575205236596378e-13 -2.908052826864661322e-14 -4.386546803417969154e-14
2.999000000000000000e+03 7.818119812011718750e+01 -1.547369289398193359e+01 -1.570919365726994310e-13 -2.045779588484911149e-13 -1.085009699816098794e-13 5.041375354149354657e-15
3.000000000000000000e+03 7.752256774902343750e+01 9.344533920288085938e+00 9.755775153648046927e-14 -4.969143518429412765e-14 1.435989524446908139e-14 1.488331586609308727e-14
3.001000000000000000e+03 7.822110748291015625e+01 1.007693958282470703e+01 9.297446981141460620e-14 -2.117840137202259276e-13 -3.564286520552246984e-14 -1.308465834325752558e-14
3.002000000000000000e+03 7.752555084228515625e+01 6.147149562835693359e+00 8.455869603693835779e-14 -1.925153016602704215e-13 -3.238698236462597690e-14 -1.680569881390772680e-13
3.003000000000000000e+03 7.752258300781250000e+01 1.652677154541015625e+01 -4.359210593814525844e-15 -3.678758144463889490e-13 -1.116705130601268470e-13 2.935336435722080139e-14
3.004000000000000000e+03 7.822366333007812500e+01 1.726233100891113281e+01 1.393007769274730648e-14 7.459645694121025405e-14 2.655796081370374179e-14 1.330629361951079625e-15
3.005000000000000000e+03 7.751767730712890625e+01 1.334215927124023438e+01 -4.062239233144568362e-14 -1.089114963579579376e-13 -4.486016592919472856e-14 1.824718016117145292e-14
3.006000000000000000e+03 7.751774597167968750e+01 2.155950307846069336e+00 -3.083611653780654605e-13 -3.151585708984633305e-13 -1.870559235934640685e-13 2.570403979452236948e-14
3.007000000000000000e+03 7.821907043457031250e+01 2.887624263763427734e+00 -2.384021528367002984e-13 -6.283082778016368941e-13 -2.600131210599848641e-13 2.815488727575532479e-13
3.008000000000000000e+03 7.751351165771484375e+01 -1.038422703742980957e+00 -2.639418360522033380e-13 -3.418726890122569806e-13 -1.817443493878218019e-13 -1.829757726628036818e-13
3.009000000000000000e+03 7.752315521240234375e+01 8.548941612243652344e+00 1.791065227716142488e-14 -2.210787434196725965e-13 -6.095043090029172994e-14 8.691369157579412197e-14
3.010000000000000000e+03 7.752113342285156250e+01 1.014046669006347656e+01 -1.582022578531464690e-14 -6.780096825637202049e-15 -6.780096825637202049e-15 2.665377718069714824e-14
3.011000000000000000e+03 7.681192016601562500e+01 -1.800744414329528809e+00 -1.466739192124491553e-13 -1.543621458953425840e-13 -9.031082224284295301e-14 -1.687181752814403968e-13
3.012000000000000000e+03 7.821047210693359375e+01 -4.298874378204345703e+00 -2.636885664247107242e-13 -5.933943657623896861e-13 -2.571248606825921046e-13 -1.566477253901049638e-13
3.013000000000000000e+03 7.749827575683593750e+01 -8.223270416259765625e+00 -1.557694945253373930e-13 -3.412640450176779305e-13 -1.491100672839154595e-13 -1.296008791821026684e-13
3.014000000000000000e+03 7.822444152832031250e+01 1.806535339355468750e+01 1.660514580654678940e-13 -2.033698493083494624e-14 4.371434380386236829e-14 6.048002945896815974e-14
3.015000000000000000e+03 7.752569580078125000e+01 1.732777786254882812e+01 2.006141157058841107e-13 4.022652640134870283e-14 7.225219500386209637e-14 -7.452165376757233228e-14
3.016000000000000000e+03 7.752823638916015625e+01 1.813179397583007812e+01 -1.564866264998007739e-14 -6.706569707134318881e-15 -6.706569707134318881e-15 -6.480663309596165766e-14
3.017000000000000000e+03 7.746370697021484375e+01 -1.540666007995605469e+01 1.514066649832557232e-14 -2.222658905884355995e-13 -6.213756451652757695e-14 -1.653629558046217085e-14
3.018000000000000000e+03 7.751574707031250000e+01 1.361613154411315918e+00 -5.184218397451256788e-13 -2.679317271520043064e-13 -2.359060754901498580e-13 1.634870217719422425e-13
3.019000000000000000e+03 7.751943206787109375e+01 2.950005292892456055e+00 -1.865910041493751281e-13 -2.629713666876115630e-13 -1.348687058300851449e-13 -3.350173532145304944e-14
3.020000000000000000e+03 7.750247955322265625e+01 -5.824862480163574219e+00 1.284335458080418380e-13 -1.737117936474741331e-13 -1.358347265776379403e-14 -6.928509279973890655e-14
3.021000000000000000e+03 7.750546264648437500e+01 -4.236738204956054688e+00 1.838418740157665709e-13 -2.872182201275885749e-13 -3.101290518879931679e-14 -1.225834483833260213e-13
3.022000000000000000e+03 7.750413513183593750e+01 -5.030764579772949219e+00 -1.707269850666215394e-13 -3.476743903624984755e-13 -1.555204126287360045e-13 -1.932935284271533605e-13
3.023000000000000000e+03 7.739579010009765625e+01 -2.259549140930175781e+01 -4.357521356007816593e-14 -2.016788835544278125e-13 -7.357622947316497242e-14 1.044139682484720999e-13
3.024000000000000000e+03 7.748274993896484375e+01 -1.062164020538330078e+01 1.088202810739340165e-13 -4.486463487502444225e-14 1.918669385967287228e-14 2.243209212674825148e-14
3.025000000000000000e+03 7.747876739501953125e+01 -1.141811561584472656e+01 -1.650413069013631495e-13 -2.994867266507827974e-13 -1.393584141314019309e-13 -1.292265312769977359e-14
3.026000000000000000e+03 7.748821258544921875e+01 -9.826765060424804688e+00 -1.195114021851698127e-13 -1.427210671693657229e-13 -7.866974351686609190e-14 -5.889582034958665280e-14
3.027000000000000000e+03 7.747465515136718750e+01 -1.222091007232666016e+01 1.398601286867195981e-13 -1.230637363932099437e-13 5.038918111569369931e-15 2.684158810202594975e-14
3.028000000000000000e+03 7.821530151367187500e+01 2.439922332763671875e+01 -8.789057806199429557e-14 -2.206711918230352953e-13 -9.256853096550887727e-14 -2.980549487435562271e-15
3.029000000000000000e+03 7.752805328369140625e+01 2.289516830444335938e+01 -1.178197842158787770e-14 1.322034251819911854e-13 3.612643292697816089e-14 2.834687237544819549e-14
3.030000000000000000e+03 7.744928741455078125e+01 -1.780131149291992188e+01 -6.895681671070102992e-14 -7.530387175370273356e-14 -4.327820653932112904e-14 4.357856103428571493e-14
3.031000000000000000e+03 7.744431304931640625e+01 -1.859827995300292969e+01 1.646676501751431765e-13 2.482089952679251282e-14 5.684656304710822283e-14 -2.128300553643717313e-14
3.032000000000000000e+03 7.817819213867187500e+01 -1.627351951599121094e+01 5.252351017222961493e-14 2.251007675613606041e-14 2.251007675613606041e-14 -6.248216462452493847e-14
3.033000000000000000e+03 7.742895507812500000e+01 -2.020014190673828125e+01 1.582217836566465752e-13 2.508131235253591163e-13 1.227104762203598542e-13 8.045935790419852986e-16
3.034000000000000000e+03 7.819757843017578125e+01 2.516874694824218750e+01 2.555756238695368332e-14 -1.262996055396287121e-13 -3.022261328461568752e-14 8.860302594425936012e-15
3.035000000000000000e+03 7.445484161376953125e+01 2.651320266723632812e+01 -7.028487628056925840e-14 -7.246616738479979419e-15 -2.325944849863783442e-14 -3.686495078929381830e-14
3.036000000000000000e+03 7.748866271972656250e+01 2.443407058715820312e+01 1.607198430602935907e-14 6.887993153007875707e-15 6.887993153007875707e-15 -3.679225164549687621e-14
3.037000000000000000e+03 7.810204315185546875e+01 -2.585635757446289062e+01 1.006093876287396383e-13 4.311831043580204026e-14 4.311831043580204026e-14 5.819955249068003988e-14
3.038000000000000000e+03 7.646545410156250000e+01 -2.957596969604492188e+01 2.118144289792959351e-14 -1.281750855626484498e-13 -3.209809330763542523e-14 5.835185579085994112e-14
3.039000000000000000e+03 7.659828186035156250e+01 -2.417014312744140625e+01 9.136013343416515831e-14 1.306562415768000585e-13 6.660491114803684942e-14 1.489768052843898349e-13
3.040000000000000000e+03 7.735182189941406250e+01 -2.499718284606933594e+01 1.086003506632453319e-13 1.380449031994357423e-13 7.399357277067253325e-14 5.427394102718030577e-14
3.041000000000000000e+03 7.732717132568359375e+01 -2.737082099914550781e+01 3.172012687777982232e-14 -2.609113554548347924e-13 -6.875737094480874334e-14 -6.682644753319352815e-14
3.042000000000000000e+03 7.734375762939453125e+01 -2.579139709472656250e+01 -4.450859304597556965e-14 -1.105770070777487013e-13 -4.652568003711728128e-14 5.445168919709572619e-14
3.043000000000000000e+03 7.646717834472656250e+01 2.742744445800781250e+01 -2.819988335997936774e-14 -3.780932544047294064e-13 -1.218879462422037263e-13 8.889188620212970515e-14
3.044000000000000000e+03 7.784835815429687500e+01 -3.297266006469726562e+01 -2.592957798683835115e-15 -1.111267628007357906e-15 -1.111267628007357906e-15 2.060107794532757552e-14
3.045000000000000000e+03 7.686331176757812500e+01 -3.447275543212890625e+01 -6.527165587807016306e-15 -2.797356589735191211e-15 -2.797356589735191211e-15 9.658432094470509321e-14
3.046000000000000000e+03 7.797606658935546875e+01 -3.136157608032226562e+01 -4.519907058765475216e-14 -6.512198007409264466e-14 -3.309631485971104015e-14 3.263221534351504194e-15
3.047000000000000000e+03 7.802352905273437500e+01 -3.057022285461425781e+01 -7.600597736368182311e-15 2.254973416110014894e-13 6.536902231535704488e-14 -9.853577643496175265e-14
3.048000000000000000e+03 7.727777099609375000e+01 -2.967234230041503906e+01 2.154567214744662618e-14 1.464867046023152208e-13 5.040971234730219630e-14 4.927823896009632387e-14
3.049000000000000000e+03 1.381857013702392578e+01 -8.419185638427734375e+00 -2.193146177360306981e-14 1.049781735065064003e-13 2.491401385868417806e-14 3.414064210917160114e-14
3.050000000000000000e+03 2.366152191162109375e+01 9.533883094787597656e+00 -9.436908584214628859e-14 2.340617933846433907e-13 4.190781226274913063e-14 2.785618110690609578e-14
3.051000000000000000e+03 2.094552421569824219e+01 -2.740217018127441406e+01 4.803076271669808051e-14 4.552185993607349435e-13 1.509748137054275907e-13 -5.131436725189231218e-14
3.052000000000000000e+03 7.668791198730468750e+01 -3.871205520629882812e+01 -2.782553376080854068e-14 1.710785647261042763e-13 4.297591064484143630e-14 3.218028599670519352e-14
3.053000000000000000e+03 2.270355415344238281e+01 2.946073532104492188e+01 -3.792487360937922547e-14 1.209993341416346069e-13 2.492233680442389882e-14 -1.495835248201127232e-13
3.054000000000000000e+03 2.515757751464843750e+01 3.222507476806640625e+01 4.688154907144491401e-14 8.871851549848569496e-14 4.068002106504507720e-14 -1.201145031961420306e-13
3.055000000000000000e+03 2.153006362915039062e+01 -9.423757553100585938e+00 6.963119723825059171e-14 6.474797369267204505e-13 2.151332904138866797e-13 -1.044247154025068625e-13
3.056000000000000000e+03 2.233432197570800781e+01 -5.611747741699218750e+00 -8.940943010916566069e-14 6.936968360848894122e-13 1.812862197598380520e-13 -1.345803080522040007e-13
3.057000000000000000e+03 1.331612682342529297e+01 -1.809599113464355469e+01 -5.044366820409172669e-14 2.413223294155456000e-14 -7.893430578761150007e-15 1.850685674587709828e-13
3.058000000000000000e+03 2.293726730346679688e+01 1.043978214263916016e+01 1.905241880874233157e-14 5.114257541766198401e-13 1.591434503709493464e-13 8.498292571230709608e-15
3.059000000000000000e+03 2.248852729797363281e+01 2.875605773925781250e+01 -3.759175926814663227e-14 -1.533635956944834344e-13 -5.728660682760219891e-14 6.396819922718788298e-14
3.060000000000000000e+03 1.246224021911621094e+01 -2.511245727539062500e+01 1.249874363078509742e-14 1.883603949898171592e-13 6.025774090855431919e-14 1.029208253453157973e-13
3.061000000000000000e+03 1.324838829040527344e+01 -2.510694122314453125e+01 2.931192411730933201e-14 2.413170032723732650e-13 8.118867720046524239e-14 3.895898225336411058e-14
3.062000000000000000e+03 2.293337631225585938e+01 1.124004840850830078e+01 1.235061705006810714e-14 3.026742810378901805e-13 9.450747069693690716e-14 3.253103556389962125e-14
3.063000000000000000e+03 2.221352577209472656e+01 1.137252140045166016e+01 7.400701010134777547e-14 3.519739296027613040e-13 1.277942866546172285e-13 -4.465491968167964454e-14
3.064000000000000000e+03 2.291602516174316406e+01 1.364171028137207031e+01 -9.509174047142576747e-14 2.566275642511273158e-13 4.846074713391046451e-14 2.655325808678058591e-14
3.065000000000000000e+03 1.242785930633544922e+01 -2.426940917968750000e+01 8.274569147004220276e-15 2.094255080768367416e-13 6.531002138838309934e-14 7.732668129943609525e-14
3.066000000000000000e+03 2.307376289367675781e+01 2.772226905822753906e+01 -6.008485131962434944e-14 -7.150160183985038165e-14 -3.947593662546877713e-14 1.346529902553419977e-13
3.067000000000000000e+03 2.222688102722167969e+01 2.646171951293945312e+01 2.701695441529369107e-14 1.945824957324399085e-13 6.647983487491349042e-14 -1.090391001773959034e-13
3.068000000000000000e+03 2.220388412475585938e+01 1.377156639099121094e+01 -6.397706935621153002e-14 1.098341049728980556e-13 1.375711102381913659e-14 5.960658263628668130e-14
3.069000000000000000e+03 1.261217498779296875e+01 -2.113565444946289062e+01 7.440833431175686297e-14 1.233911790018277221e-13 5.933985534932809114e-14 3.817026583046237431e-14
3.070000000000000000e+03 1.254943275451660156e+01 -2.188706588745117188e+01 2.883358767133588352e-14 1.235725185914395008e-14 1.235725185914395008e-14 1.575201422207225810e-13
3.071000000000000000e+03 2.355168914794921875e+01 1.911677932739257812e+01 5.601854090732209801e-14 2.298872084447595165e-13 8.577172853256945229e-14 9.660870871732243903e-14
3.072000000000000000e+03 2.290855789184570312e+01 1.683887481689453125e+01 6.163954302485993852e-14 3.466735904421314185e-13 1.224939339414601869e-13 -4.858717188348585236e-14
3.073000000000000000e+03 2.290133666992187500e+01 1.764019012451171875e+01 1.370932396603389072e-14 3.718830256758953734e-13 1.156777039608425373e-13 6.549146939821212654e-14
3.074000000000000000e+03 2.219710159301757812e+01 1.777052879333496094e+01 5.425634984693172846e-14 2.062565206519331729e-13 7.815385979440675479e-14 -5.389425681450767114e-14
3.075000000000000000e+03 2.216566276550292969e+01 2.409612083435058594e+01 -7.366804784464733857e-14 1.417892750232114737e-14 -1.784673686502750989e-14 1.254400636098093602e-13
3.076000000000000000e+03 1.120804595947265625e+01 -1.827125549316406250e+01 -3.762768362950558165e-14 -6.187709849711509058e-14 -2.985143667086527508e-14 -3.127682371450481169e-14
3.077000000000000000e+03 1.323543262481689453e+01 -1.416269493103027344e+01 5.661957854603480444e-14 1.157674352431428688e-13 5.171610142624787076e-14 3.175261906163649728e-14
3.078000000000000000e+03 1.250535964965820312e+01 -1.582369041442871094e+01 -1.678362581292863753e-14 1.071843894022428412e-13 2.712022975442061890e-14 -5.597019904295640058e-14
3.079000000000000000e+03 1.333554267883300781e+01 -1.886705970764160156e+01 1.460251326324338295e-13 6.258219582746388232e-14 6.258219582746388232e-14 1.848194855621695942e-13
3.080000000000000000e+03 2.285252571105957031e+01 1.999908065795898438e+01 1.522404672758739114e-14 2.352793253192903000e-13 7.515101279990943350e-14 -2.474150712864636725e-14
3.081000000000000000e+03 2.287532806396484375e+01 1.921856307983398438e+01 -2.870457438907368652e-14 2.164527780103286947e-13 5.632446210281603916e-14 8.418301998417213050e-14
3.082000000000000000e+03 2.289158821105957031e+01 1.843295478820800781e+01 4.590496328194101569e-15 1.163447322424099317e-13 3.628056581832413141e-14 -3.496637048373656131e-14
3.083000000000000000e+03 2.283340263366699219e+01 2.311149215698242188e+01 2.936213623042256693e-14 1.258377218616227311e-14 1.258377218616227311e-14 9.431312068125530246e-14
3.084000000000000000e+03 2.215399932861328125e+01 2.251357460021972656e+01 -3.232671766449472794e-14 -3.341109398695418786e-13 -1.099312969213978031e-13 5.341087544030037604e-14
3.085000000000000000e+03 2.282909011840820312e+01 2.077452087402343750e+01 1.349477983785679625e-14 1.430363260560701955e-13 4.695933041292538190e-14 9.752997563207410625e-14
3.086000000000000000e+03 2.281423759460449219e+01 2.155103492736816406e+01 6.574209628290930696e-14 -1.757576424893728118e-14 1.444989927137842883e-14 -9.663378766882474435e-15
3.087000000000000000e+03 2.291246223449707031e+01 1.444255542755126953e+01 -4.414145847344945472e-14 2.327124495708765561e-13 5.657129766804130933e-14 6.330607018418740739e-14
3.088000000000000000e+03 2.291157531738281250e+01 1.524164199829101562e+01 9.297022617634886216e-15 3.242410680226459618e-13 1.000614318507654643e-13 -1.718026254300761974e-14
3.089000000000000000e+03 1.186446380615234375e+01 -1.199556159973144531e+01 7.194614505936017257e-14 7.658501247455665184e-14 4.455934726017504732e-14 -1.826928517999594839e-15
3.090000000000000000e+03 1.308247852325439453e+01 -9.577131271362304688e+00 -5.151066883148439079e-14 2.367494865245216989e-14 -8.350715714896487368e-15 1.411395685654154297e-13
3.091000000000000000e+03 9.685733795166015625e+00 -1.167778682708740234e+01 9.934633275537549379e-14 -9.467584729432390600e-14 1.401146019480302603e-15 -5.147514765780833446e-14
3.092000000000000000e+03 2.365914916992187500e+01 2.519420623779296875e+01 -7.040068940138144438e-14 1.557922288896416985e-14 -1.644644063135154016e-14 1.429650939733378978e-13
3.093000000000000000e+03 2.285485839843750000e+01 2.388882637023925781e+01 -4.312996899728804845e-14 2.726667497473730939e-14 -4.758988545578400620e-15 1.633126278524979491e-13
3.094000000000000000e+03 2.292133331298828125e+01 1.284134483337402344e+01 -3.891925640813788390e-14 7.482221493857604822e-14 1.077088789794462820e-14 1.854714163284851280e-14
3.095000000000000000e+03 2.296979141235351562e+01 3.107965660095214844e+01 9.518714009820912481e-15 -1.503299980158689930e-13 -4.224338638766055032e-14 -4.991175523013854920e-14
3.096000000000000000e+03 2.304304504394531250e+01 3.007525634765625000e+01 5.607410288053019110e-14 -2.171919023482345862e-14 1.030647328549225139e-14 -2.732645856015451791e-14
3.097000000000000000e+03 1.332642555236816406e+01 -4.280162811279296875e+00 -8.693504358232850837e-14 8.493071460143834100e-15 -2.353259290720482316e-14 2.939776709486529270e-15
3.098000000000000000e+03 1.113386440277099609e+01 -4.821724891662597656e+00 4.938069267726441502e-14 1.126650517129478002e-13 4.861372467231638017e-14 -4.785442739773868026e-14
3.099000000000000000e+03 1.252737998962402344e+01 -2.594289779663085938e+01 -2.200386614993436740e-14 1.735735714230093873e-13 4.547091056548296928e-14 1.163108509245197597e-13
3.100000000000000000e+03 2.462994003295898438e+01 2.983326721191406250e+01 4.243035705230567556e-14 6.393538855894304040e-14 3.190972334456143589e-14 -2.494080042860814805e-14
3.101000000000000000e+03 2.293902778625488281e+01 8.023641586303710938e+00 -1.254137174970179625e-13 3.775316309031183371e-14 -2.629816564438548082e-14 -1.381406653563205245e-13
3.102000000000000000e+03 2.293213081359863281e+01 7.211420536041259766e+00 -1.809946608549977548e-14 1.981223616154964562e-13 5.400686815077923586e-14 -1.313015993674448989e-13
3.103000000000000000e+03 1.335014152526855469e+01 -2.039435768127441406e+01 1.193347720987447680e-13 1.883963227393078976e-13 9.231932709616308408e-14 5.283309732631927269e-14
3.104000000000000000e+03 2.333183288574218750e+01 -2.974563598632812500e+01 3.865677106217914327e-14 4.740766698478615648e-13 1.538200312565726757e-13 -2.363356770484700831e-14
3.105000000000000000e+03 2.151723861694335938e+01 -1.023462200164794922e+01 1.052899476996658687e-14 4.162709673488640405e-13 1.280399939719567559e-13 -2.675806387716309770e-14
3.106000000000000000e+03 1.681627273559570312e+00 -5.859989166259765625e+00 3.308261325475625458e-14 1.743065869592996808e-13 6.221675870896406502e-14 -8.632695524136285714e-14
3.107000000000000000e+03 1.329573535919189453e+01 -2.673722267150878906e+01 -6.762222482274357627e-14 6.252094518098202935e-14 -1.530385036022942867e-15 6.894476851405928475e-14
3.108000000000000000e+03 2.291897964477539062e+01 6.396835803985595703e+00 -1.746252441421885376e-14 3.127727027027460416e-13 8.859305297833838799e-14 -3.053638816959657054e-14
3.109000000000000000e+03 2.099015426635742188e+01 -2.208728790283203125e+01 -4.256600599067666274e-15 3.413078467854463449e-13 1.011153780063750451e-13 -9.285805360314397516e-15
3.110000000000000000e+03 2.255722999572753906e+01 -3.107941818237304688e+01 4.129979337848515425e-15 3.677775857295617623e-13 1.115722707907725042e-13 2.163640292862471781e-14
3.111000000000000000e+03 1.751087307929992676e+00 -8.980095863342285156e+00 5.263361429097730693e-14 2.055610591683923460e-13 7.745839831086592797e-14 -5.857512012322901862e-14
3.112000000000000000e+03 3.551167011260986328e+00 -4.172947883605957031e+00 3.684177003862630986e-15 -1.585493888955902264e-13 -4.645956403338639962e-14 2.932063161600710621e-14
3.113000000000000000e+03 1.759764671325683594e+00 -1.618988227844238281e+01 -5.980397519431482345e-14 2.488754102976387106e-13 5.672143256387623955e-14 -1.402475395339370864e-14
3.114000000000000000e+03 3.175787448883056641e+00 -1.439915084838867188e+01 -5.641110340892478703e-14 1.588276087255771629e-13 3.072495125618253387e-14 -3.361106567560342463e-15
3.115000000000000000e+03 3.335248947143554688e+00 -3.747254180908203125e+01 2.130945837537992493e-14 2.922166089831812474e-13 9.405782495095285634e-14 3.201037796374955890e-14
3.116000000000000000e+03 2.603072166442871094e+00 -3.708391952514648438e+01 -2.434892429825294413e-14 2.068817529397512511e-13 5.475984994770220771e-14 2.275590435215409796e-14
3.117000000000000000e+03 1.890287876129150391e+00 -2.984376335144042969e+01 1.025548529019933153e-14 3.017763719036919978e-13 9.360955478647514649e-14 2.782408025227105230e-14
3.118000000000000000e+03 2.562514781951904297e+00 -2.812997245788574219e+01 1.403636457281490224e-13 3.575370251598930516e-13 1.493701944901490442e-13 -1.196094276140896584e-13
3.119000000000000000e+03 2.473175048828125000e+00 -2.093036460876464844e+01 5.597186261566480803e-14 1.154898388294051115e-13 5.143850840064190244e-14 -2.530522788383483823e-14
3.120000000000000000e+03 2.513659715652465820e+00 -2.574796295166015625e+01 -1.020345099745831579e-15 4.531365720475931391e-14 1.328799368444360390e-14 -2.652710679156705664e-14
3.121000000000000000e+03 2.465401887893676758e+00 -1.449247932434082031e+01 3.066299079609088180e-15 9.281602721643300580e-14 2.876469678766979676e-14 -1.927844955071714161e-14
3.122000000000000000e+03 2.469174861907958984e+00 -1.288113212585449219e+01 4.933929648306620286e-14 2.956511175201265162e-13 1.034971194575733111e-13 3.304814240193479358e-14
3.123000000000000000e+03 2.814603328704833984e+00 -3.555894851684570312e+01 2.842786566586465169e-14 3.781909681255246625e-13 1.219856464104718263e-13 2.686387692699999941e-14
3.124000000000000000e+03 1.760238528251647949e+00 -1.779519653320312500e+01 5.849777585074933395e-14 2.538252268959040325e-13 9.369690082399600994e-14 -7.632535960677352960e-14
3.125000000000000000e+03 2.466187000274658203e+00 -1.610253715515136719e+01 -2.451259139245320906e-14 2.640003016543546188e-13 7.184631036806499171e-14 -4.113916713256553226e-14
3.126000000000000000e+03 3.173986673355102539e+00 -1.762598991394042969e+01 -3.978206788513363734e-14 2.117052870899763239e-13 5.157696440620009037e-14 -5.902266522750387878e-14
3.127000000000000000e+03 2.466269969940185547e+00 -1.690590858459472656e+01 -3.774967670270093500e-14 2.583272679969328411e-13 6.617327671064321404e-14 -9.662841409180736307e-14
3.128000000000000000e+03 2.465090751647949219e+00 -1.529829502105712891e+01 -6.086544300249602246e-14 2.484205061711181051e-13 5.626651827296026698e-14 -7.798414657902898867e-15
3.129000000000000000e+03 3.179026603698730469e+00 -1.278878974914550781e+01 -4.730896867289301200e-14 3.228568400039794062e-13 8.266436444864452837e-14 -6.425030185620503320e-14
3.130000000000000000e+03 1.760498523712158203e+00 -1.056599521636962891e+01 -2.492783404825157922e-14 5.794306413798785971e-14 9.904569704547241948e-15 4.901543851788120465e-14
3.131000000000000000e+03 3.913610458374023438e+00 -9.521688461303710938e+00 3.334235760209768029e-14 4.260481128049581345e-13 1.378171394280508499e-13 -1.061483190299521151e-13
3.132000000000000000e+03 2.469709157943725586e+00 -1.048214149475097656e+01 8.730392981898954519e-14 2.204197653392359069e-13 9.231711125797306683e-14 -6.811425609740823228e-14
3.133000000000000000e+03 2.464685201644897461e+00 -9.691130638122558594e+00 5.018167413724239356e-14 2.960121297385098771e-13 1.038581384522202500e-13 -1.628998856379598736e-13
3.134000000000000000e+03 1.784299373626708984e+00 -2.422945594787597656e+01 1.046324129633713004e-14 7.311066628403611878e-14 2.507217354466139553e-14 9.702549636121660104e-14
3.135000000000000000e+03 2.487649202346801758e+00 -2.253695678710937500e+01 3.359227297911916710e-14 6.014764017793841622e-14 2.812197326949091719e-14 -6.918120590282406113e-14
3.136000000000000000e+03 2.703380346298217773e+00 -3.470240831375122070e+00 4.212901745802343292e-15 -4.394542116813691945e-14 -1.191975510672236768e-14 -2.096278981292536842e-14
3.137000000000000000e+03 1.711665272712707520e+00 -6.629138469696044922e+00 1.048149604219658637e-13 9.067164472584612889e-14 5.864597951146452437e-14 -4.447657520056935709e-14
3.138000000000000000e+03 2.495893716812133789e+00 -2.334355163574218750e+01 -2.075323724990644353e-14 -5.464519217983007660e-14 -2.261952865951436659e-14 4.099743141543557567e-14
3.139000000000000000e+03 1.796390414237976074e+00 -2.583207893371582031e+01 2.922585201734113902e-14 2.184046400764000362e-13 7.428914661168281586e-14 3.565377160175131621e-14
3.140000000000000000e+03 1.805611491203308105e+00 -2.663279342651367188e+01 -3.307081577986689669e-14 1.688305934941999875e-13 4.072793263667356944e-14 7.912309587902732755e-14
3.141000000000000000e+03 2.538336992263793945e+00 -2.733713340759277344e+01 5.859862020531764193e-15 7.113779102460929260e-14 2.309929659116867484e-14 1.860850069954761432e-14
3.142000000000000000e+03 2.523298501968383789e+00 -2.654397964477539062e+01 1.276486105402166449e-13 1.919593905488556351e-13 9.588240168197439961e-14 -7.538446185643629671e-14
3.143000000000000000e+03 4.447990417480468750e+00 -5.627718925476074219e+00 5.924090157229805476e-14 1.397663316462724459e-13 5.970216861031843458e-14 -5.665698013285376533e-14
3.144000000000000000e+03 2.302937269210815430e+00 -5.061522006988525391e+00 3.982761115264160656e-14 1.314463539099988698e-13 5.138218748591306950e-14 -1.880899949679992744e-13
3.145000000000000000e+03 1.587462425231933594e+00 -4.363389968872070312e+00 -1.805483591950894640e-14 3.801316154753743570e-14 5.987498027221725694e-15 -9.223976190329569863e-15
3.146000000000000000e+03 1.957271456718444824e+00 -3.147838020324707031e+01 -3.856663659219591866e-14 4.638563838588183330e-13 1.275869329891293757e-13 9.977366257133118282e-15
3.147000000000000000e+03 2.640307188034057617e+00 -2.972875404357910156e+01 2.913155014525742326e-14 4.699944318280191435e-13 1.497377932367302544e-13 -3.532237165520396571e-14
3.148000000000000000e+03 3.447300672531127930e+00 -3.041001129150390625e+01 7.278400294572981433e-14 4.429516920357451371e-13 1.547207051063106964e-13 7.805583944768459265e-15
3.149000000000000000e+03 2.596719741821289062e+00 -2.892630386352539062e+01 -9.814899408619112697e-15 3.389257190872241310e-13 9.873325030815283121e-14 6.377465558687206437e-14
3.150000000000000000e+03 2.807519912719726562e+00 -3.309276962280273438e+01 -2.707805259584503826e-14 4.687800711847267543e-13 1.325106067625106410e-13 8.381141985394809091e-15
3.151000000000000000e+03 2.774654388427734375e+00 -3.473728179931640625e+01 1.119307198874574735e-14 5.080574632873591234e-13 1.557751594816886298e-13 4.726630192927391838e-14
3.152000000000000000e+03 2.780413389205932617e+00 -3.392447280883789062e+01 -7.230075370866229090e-14 2.435196684059948158e-13 5.136567034344161065e-14 -3.116233154157386880e-15
3.153000000000000000e+03 2.341917419433593750e+01 1.365374088287353516e+00 -4.825422017257913199e-14 -2.068038055798131214e-14 -2.068038055798131214e-14 -1.499695956612076553e-13
3.154000000000000000e+03 2.017969512939453125e+01 -2.195592498779296875e+01 8.501704250535660479e-14 4.481944058509074180e-13 1.599634324740001334e-13 7.166587879777266967e-14
3.155000000000000000e+03 2.097466659545898438e+01 -2.289936828613281250e+01 -2.226689190291345627e-14 4.022155872251964581e-13 1.139846138482891735e-13 1.109015629980822371e-13
3.156000000000000000e+03 2.917965173721313477e+00 -3.889073944091796875e+01 -1.104475143748383584e-14 2.468967413328526650e-13 7.075560298254457425e-14 -1.464360215388833125e-14
3.157000000000000000e+03 4.010621070861816406e+00 -3.818112945556640625e+01 3.439648671682386805e-14 4.036244266331784347e-13 1.314062655346712183e-13 7.694728507796552708e-14
3.158000000000000000e+03 2.266950607299804688e+01 -2.406885719299316406e+01 7.858167919540595681e-14 4.454364123645387918e-13 1.572054254351043512e-13 1.507979362853819477e-14
3.159000000000000000e+03 2.269188690185546875e+01 1.499410629272460938e+00 -1.993569460174374891e-14 1.744599202515434433e-13 4.635726955841239227e-14 -1.609574358019984219e-14
3.160000000000000000e+03 2.109967422485351562e+01 -2.916152954101562500e+01 -1.983638004161774140e-17 2.973726679397076245e-13 8.920585082249077313e-14 -1.037109918886232329e-13
3.161000000000000000e+03 1.036400699615478516e+01 -5.418276309967041016e+00 1.586445064604021481e-15 9.218180282684687588e-14 2.813047409214956135e-14 2.854694833385323927e-14
3.162000000000000000e+03 7.518474578857421875e+01 2.612499427795410156e+01 7.138320018635138653e-14 -1.524110021132105142e-13 -2.430833956161820159e-14 7.668604656450514478e-14
3.163000000000000000e+03 2.287589073181152344e+01 4.772430896759033203e+00 -1.292039917302712990e-14 1.774664806384815274e-13 4.936382316908689838e-14 -9.218943289963574261e-14
3.164000000000000000e+03 6.745780944824218750e+01 2.700730895996093750e+01 1.516235325228071362e-13 2.479853074190824236e-13 1.198826601140831616e-13 -4.502932518502499037e-14
3.165000000000000000e+03 2.251354408264160156e+01 -1.655059099197387695e+00 -3.414750646417614999e-14 4.428748492067702269e-13 1.226181970629541818e-13 -8.499634779638928772e-14
3.166000000000000000e+03 5.950738906860351562e+01 2.764185142517089844e+01 2.292944785051934803e-14 5.557785338178820866e-14 2.355219155553839316e-14 1.289305305313820371e-13
3.167000000000000000e+03 2.239368247985839844e+01 -4.039008140563964844e+00 -6.386382443929541908e-14 4.758902148217780681e-13 1.236079245686347305e-13 -9.546966624369990218e-14
3.168000000000000000e+03 2.247348785400390625e+01 -2.447456598281860352e+00 -8.585376197944513676e-14 4.207150307387191868e-13 1.004583785949031416e-13 -3.199272918526056830e-14
3.169000000000000000e+03 7.361587524414062500e+01 2.669968414306640625e+01 9.182060087308333007e-14 -5.215021258797927772e-14 1.190111614671803680e-14 5.464251894384854202e-14
3.170000000000000000e+03 4.273296356201171875e+00 -4.116033554077148438e+00 2.159572332429988278e-14 1.693836314698576873e-13 5.729380321952207145e-14 1.928832256675033774e-14
3.171000000000000000e+03 2.865970134735107422e+00 -4.242598056793212891e+00 -6.878582193447406803e-15 -2.947963706438215710e-15 -2.947963706438215710e-15 -1.424708400842196465e-14
3.172000000000000000e+03 2.362583398818969727e+00 -5.815690994262695312e+00 2.409209713238186223e-14 -1.255028982079025787e-14 3.462541939367597132e-15 4.566586366862301904e-14
3.173000000000000000e+03 5.796577453613281250e+00 -4.036448478698730469e+00 1.368537580351616989e-14 -1.701031385247051692e-14 -9.974812452797146567e-16 1.777636536776962262e-14
3.174000000000000000e+03 6.573155879974365234e+00 -4.005859375000000000e+00 -8.723250122461348455e-14 -1.746382037462815284e-13 -7.856121487940029291e-14 -7.126576076228047230e-14
3.175000000000000000e+03 8.089619636535644531e+00 -3.256753444671630859e+00 -6.577968421697666379e-14 2.920653356750652074e-13 6.788569950318470991e-14 -6.934060395097016438e-14
3.176000000000000000e+03 7.351244926452636719e+00 -3.985195398330688477e+00 -7.907711893065036413e-14 3.321173902299384695e-13 7.591208206741278941e-14 1.927859862851585837e-14
3.177000000000000000e+03 2.227312850952148438e+01 -1.123344802856445312e+01 8.454395088739255493e-14 4.479916600446526287e-13 1.597606866677453441e-13 -2.002963563779193434e-14
3.178000000000000000e+03 7.728638458251953125e+01 2.746165084838867188e+01 -8.348159369461673890e-15 -2.323325180245833232e-13 -7.220420550520245673e-14 -8.647841150859550408e-14
3.179000000000000000e+03 1.210351085662841797e+01 -3.515586853027343750e+01 -9.262992391352586896e-14 9.755430919458282779e-14 1.477314504350079900e-15 -7.802550719784341615e-15
3.180000000000000000e+03 2.214314842224121094e+01 -1.368182373046875000e+01 -2.962078282306435106e-14 5.820677056664336213e-13 1.657340849845270747e-13 2.316863877398905869e-13
3.181000000000000000e+03 2.274509811401367188e+01 2.309315443038940430e+00 4.894143833147727995e-14 2.954805996234488585e-13 1.033266083371592314e-13 -2.292951256383651826e-13
3.182000000000000000e+03 2.284082603454589844e+01 3.951144933700561523e+00 1.008925338023478058e-14 1.873277601831604966e-13 5.922510610189765656e-14 -1.591018034549987470e-13
3.183000000000000000e+03 9.673573493957519531e+00 -3.997550010681152344e+00 2.821009688325736009e-14 2.865957254502560225e-13 9.444174771649355149e-14 4.710908244986815319e-14
3.184000000000000000e+03 2.229602622985839844e+01 -1.040604496002197266e+01 1.063047084170695711e-13 5.488196160551017666e-13 1.965372986969041169e-13 1.754170674819408027e-14
3.185000000000000000e+03 6.047962570190429688e+01 2.692998504638671875e+01 -3.794418257244483450e-14 3.497457857180863439e-13 9.354048433182424183e-14 1.978730222208791023e-13
3.186000000000000000e+03 2.259218406677246094e+01 -9.253471344709396362e-02 -2.323999723403708667e-14 4.475494952936587278e-13 1.272928431498426827e-13 -2.108295837715233600e-14
3.187000000000000000e+03 2.196022415161132812e+01 -1.523639202117919922e+01 6.089145030210851850e-14 8.038624562008156449e-13 2.594261882139098363e-13 9.750066151583552942e-14
3.188000000000000000e+03 2.224410057067871094e+01 -1.205672264099121094e+01 2.148294427550476171e-14 6.039692942820529264e-13 1.876356736001463799e-13 5.555960490397256202e-14
3.189000000000000000e+03 6.671132659912109375e+01 2.703453063964843750e+01 -1.917997688840114567e-14 6.040643246024712809e-14 1.236793717977356308e-14 -8.405986139364135523e-14
3.190000000000000000e+03 1.246450233459472656e+01 -1.503394889831542969e+01 6.600960961644294911e-14 9.691625621607510843e-14 4.887776178263449067e-14 4.869196341158836538e-14
3.191000000000000000e+03 1.281113719940185547e+01 -3.814644241333007812e+01 -8.387932140313178464e-14 6.699135468362857337e-14 -5.066391625213563163e-15 4.501257764959187835e-14
3.192000000000000000e+03 2.238848876953125000e+01 -3.005887031555175781e+01 -3.884360620155270782e-14 2.692961684810230016e-13 6.913577105553334046e-14 -4.355603673415232857e-14
3.193000000000000000e+03 7.202960205078125000e+01 2.688527679443359375e+01 5.950590768830782418e-14 7.125348217267707396e-14 3.922781695829546944e-14 3.004757900826326988e-15
3.194000000000000000e+03 2.351560783386230469e+01 3.148993301391601562e+01 -3.662965858907372974e-14 2.130563249696376671e-13 5.292799889772964450e-14 -2.732614685202992832e-14
3.195000000000000000e+03 1.401985645294189453e+01 -3.947563171386718750e+01 -3.928184071967134872e-14 6.322908505367735854e-14 7.184173469608392398e-15 7.475335454809606262e-14
3.196000000000000000e+03 2.159859085083007812e+01 -3.518420028686523438e+01 1.089026194526707125e-14 3.020484253338229230e-13 9.388160821660607169e-14 -6.187906361355272056e-14
3.197000000000000000e+03 2.196858215332031250e+01 -3.197303771972656250e+01 1.535524196672171521e-14 4.497931432694002307e-13 1.395445174343090677e-13 -6.923908874630763099e-14
3.198000000000000000e+03 3.345201492309570312e+00 -3.975800704956054688e+01 1.916854406119558075e-15 2.982026789128539024e-13 9.003586179563705105e-14 2.057517059560285549e-14
3.199000000000000000e+03 2.294247436523437500e+01 -3.502186203002929688e+01 -4.524772754827682819e-14 4.381176140193926427e-13 1.178609618755765975e-13 -8.259330854876525962e-14
3.200000000000000000e+03 2.128615570068359375e+01 -3.627571868896484375e+01 -1.758476651510069988e-14 1.983429425474886321e-13 5.422745247090320075e-14 -1.058270428211903480e-13
3.201000000000000000e+03 2.215379524230957031e+01 -3.421865463256835938e+01 1.471519439502980142e-13 2.003179658824696951e-13 1.042409702393248816e-13 4.711720718989821644e-14
3.202000000000000000e+03 7.569460296630859375e+01 -3.950997161865234375e+01 6.882995828025664786e-14 1.438759322184429701e-13 6.381176240622538076e-14 -2.876285364397657141e-14
3.203000000000000000e+03 2.356505966186523438e+01 -4.106029510498046875e+01 -1.214214140473832138e-13 2.625000097931234899e-13 4.232358007897479846e-14 -1.641535282812141283e-14
3.204000000000000000e+03 1.920303726196289062e+01 -4.063525009155273438e+01 -1.378197008556833469e-13 2.840665257273361499e-13 4.387405017200127211e-14 1.094913242916713964e-14
3.205000000000000000e+03 2.593371582031250000e+01 3.159157752990722656e+01 5.200976774906093669e-14 -2.346104911634793594e-14 8.564615251000721324e-15 2.332605578147812359e-14
3.206000000000000000e+03 2.661425590515136719e+01 3.159021377563476562e+01 -2.706998206592359929e-14 3.414952917885419326e-14 2.123863964472588739e-15 1.451618908627008708e-13
3.207000000000000000e+03 1.215056800842285156e+01 -3.185441780090332031e+01 2.934988813400526975e-14 5.832947379226169349e-14 2.630380688381419446e-14 -6.299159056779440879e-14
3.208000000000000000e+03 5.677822113037109375e+00 -3.352890014648437500e+01 3.324337333188154275e-14 2.715962491798423750e-13 9.145188404301174412e-14 9.440277742465627564e-14
3.209000000000000000e+03 2.336807060241699219e+01 5.638021230697631836e-01 1.164244414308783504e-14 3.252462589618115851e-13 1.010666092374039315e-13 -4.028850803726403626e-15
3.210000000000000000e+03 2.933569145202636719e+01 3.128384590148925781e+01 2.006466722642447770e-14 2.831048384003415075e-13 9.095085389031545842e-14 -7.752866138790656669e-14
3.211000000000000000e+03 2.363418579101562500e+01 3.265220260620117188e+01 1.588328569417183506e-14 2.355618684054400225e-13 7.543354233353199989e-14 -1.183478364136583694e-13
3.212000000000000000e+03 2.340595626831054688e+01 2.909040832519531250e+01 1.233738995297037344e-13 -2.673821179657170921e-13 -4.320246824130943852e-14 3.759909796160164352e-14
3.213000000000000000e+03 3.002221107482910156e+01 3.117071723937988281e+01 -1.462298537195216158e-14 2.682386918920892649e-13 7.608471415832679385e-14 -8.039805664749807845e-14
3.214000000000000000e+03 3.071750831604003906e+01 3.104659652709960938e+01 2.836451395415713443e-15 1.215622087109087708e-15 1.215622087109087708e-15 -1.808889342025214730e-14
3.215000000000000000e+03 2.308601570129394531e+01 -1.139852619171142578e+01 5.883625021647215236e-14 5.742269181853443261e-13 1.899189491652922279e-13 9.183586779492464158e-14
3.216000000000000000e+03 2.183290100097656250e+01 -2.137653923034667969e+01 -4.345598859055443963e-14 3.931345537739466822e-13 1.049035668445122416e-13 9.062336384785263377e-14
3.217000000000000000e+03 2.168439102172851562e+01 -2.464234542846679688e+01 5.350789120594709458e-14 3.889395316231114563e-13 1.327342370131129323e-13 1.748094738082163480e-14
3.218000000000000000e+03 2.388729667663574219e+01 -4.235129833221435547e+00 -7.421003373440926421e-14 7.002108853675081956e-13 1.878002554899296794e-13 -1.004708130385688347e-13
3.219000000000000000e+03 2.943639945983886719e+01 3.192382812500000000e+01 -1.649680825971389098e-13 6.655223925124478801e-14 -2.952475300376823653e-14 -1.030009140045445859e-13
3.220000000000000000e+03 1.188613605499267578e+01 -4.157090663909912109e+00 -2.238121085760668566e-14 2.191627955505648373e-13 5.903447625492039275e-14 -3.700268512278094557e-14
3.221000000000000000e+03 1.115906333923339844e+01 -4.092497348785400391e+00 2.087830166456854097e-14 1.462006920692135448e-13 5.012369642606873121e-14 3.734907755249469719e-14
3.222000000000000000e+03 2.873969459533691406e+01 3.203046417236328125e+01 -1.082478629844431384e-14 1.783646066131142072e-13 5.026194575558778910e-14 1.188356325235867539e-13
3.223000000000000000e+03 2.730049324035644531e+01 3.154675865173339844e+01 -4.922851812609249644e-14 1.161549155470620320e-13 2.007791820985132397e-14 7.548947361310509585e-14
3.224000000000000000e+03 3.142028427124023438e+01 3.091435432434082031e+01 -6.234883740346237532e-15 -2.554756739817608258e-14 -9.534735638018227571e-15 -8.848173929654201686e-14
3.225000000000000000e+03 6.939702606201171875e+01 2.561194229125976562e+01 -5.823070297434826403e-14 -7.070696296258144331e-14 -3.868130113633162781e-14 8.387033946575910004e-15
3.226000000000000000e+03 6.820935058593750000e+01 2.699061775207519531e+01 -1.049280088272382117e-13 -6.784462179337466536e-14 -5.183178918618386311e-14 -1.616159598727753832e-13
3.227000000000000000e+03 3.284644699096679688e+01 3.063127136230468750e+01 -2.434432152121756426e-14 -3.330875411101420769e-14 -1.729592319788929994e-14 -7.910970598219713157e-14
3.228000000000000000e+03 2.252237319946289062e+01 -1.686286735534667969e+01 -1.783650131889288892e-14 4.041143233848160099e-13 1.158833500079087253e-13 1.286446806286062339e-13
3.229000000000000000e+03 2.258693313598632812e+01 -1.616415405273437500e+01 2.568882708278968224e-14 6.515227810380275209e-13 2.031634815892122137e-13 9.253258288722740477e-14
3.230000000000000000e+03 3.958692169189453125e+01 2.917214012145996094e+01 -1.114246227836707126e-13 1.352503856523815107e-13 7.147729877052776126e-15 6.367502418348422455e-14
3.231000000000000000e+03 3.357199859619140625e+01 3.048756408691406250e+01 -1.022102324652052197e-13 -2.092891018910109091e-14 -3.694174279629189317e-14 -2.698842465156427173e-14
3.232000000000000000e+03 2.252415847778320312e+01 -1.756708717346191406e+01 7.107709603174083846e-14 4.879711001590236741e-13 1.677144615677347850e-13 6.827399295873323726e-14
3.233000000000000000e+03 3.742111587524414062e+01 3.035188865661621094e+01 4.846703550651088044e-14 2.495263381769446953e-13 8.939801210503667273e-14 7.942886291452486841e-15
3.234000000000000000e+03 3.880511093139648438e+01 2.931561279296875000e+01 -1.078488630324413167e-13 4.528095834486350890e-14 -1.877037208389970013e-14 1.243646163698666762e-13
3.235000000000000000e+03 4.036840820312500000e+01 2.905809593200683594e+01 -1.036946746459273261e-13 1.310373521929558693e-15 -3.071529169245204582e-14 3.885512584963536631e-14
3.236000000000000000e+03 2.313926696777343750e+01 -4.162657260894775391e+00 4.923018847506448192e-14 4.328572006037645359e-13 1.446262136743300952e-13 -1.330587251708106877e-13
3.237000000000000000e+03 3.667494964599609375e+01 3.051337814331054688e+01 -2.211331466518088457e-14 1.277757061398862581e-13 3.169871727300502262e-14 6.683100795858154530e-14
3.238000000000000000e+03 4.114091873168945312e+01 2.894408798217773438e+01 -1.327577099901472435e-13 -1.026471049543446756e-13 -7.062144651622664915e-14 4.959773894076769871e-15
3.239000000000000000e+03 3.430297470092773438e+01 3.034045219421386719e+01 -1.837407077886783063e-14 1.751291982526187452e-13 4.702653739509232711e-14 6.461042807812556604e-15
3.240000000000000000e+03 7.032132720947265625e+01 2.627457618713378906e+01 -5.984739749132286790e-14 -1.629017287816530990e-13 -6.682473991477186348e-14 -1.504760536010299465e-13
3.241000000000000000e+03 2.230265235900878906e+01 -7.971520900726318359e+00 -1.099722865397813332e-14 3.612944904189674400e-13 1.050891822564417599e-13 -1.091415098488507374e-13
3.242000000000000000e+03 2.307099342346191406e+01 -6.499816417694091797e+00 7.344427529250990849e-14 3.974836952636007226e-13 1.412784006536021986e-13 -5.081657954131811594e-14
3.243000000000000000e+03 7.090541076660156250e+01 2.554464530944824219e+01 -4.283292809521312139e-14 9.602040028974107022e-14 1.595624233598474245e-14 -5.153071301914821656e-14
3.244000000000000000e+03 6.880095672607421875e+01 2.630441284179687500e+01 -4.611232118259360468e-14 -4.263789706504192423e-14 -2.662506615191701648e-14 -2.111041579717053140e-15
3.245000000000000000e+03 4.336296081542968750e+01 2.788617324829101562e+01 -7.511909659845689147e-14 5.930800013424775141e-14 -4.743329870998983996e-15 8.578831682580848050e-14
3.246000000000000000e+03 4.414253234863281250e+01 2.842324638366699219e+01 -9.418634356597385682e-14 5.385372374688271110e-15 -2.664029241617685978e-14 4.073232026734034672e-14
3.247000000000000000e+03 3.867253875732421875e+01 2.853973007202148438e+01 -9.493588640913097620e-14 1.423169850196803754e-13 1.421432924435164086e-14 -4.567918241468564566e-14
3.248000000000000000e+03 3.503722000122070312e+01 3.018819046020507812e+01 1.164177075189476787e-14 1.422421750697788756e-13 4.616518281476585106e-14 8.608456829317656656e-14
3.249000000000000000e+03 6.182362747192382812e+01 2.719522666931152344e+01 3.860929994768322326e-14 1.537996889133114164e-13 5.772270004643018093e-14 1.329338928431761380e-13
3.250000000000000000e+03 6.377735137939453125e+01 2.659090805053710938e+01 9.420488342312335894e-14 -1.883812252240560370e-13 -2.825290084621390890e-14 1.920962304155504619e-13
3.251000000000000000e+03 5.170905303955078125e+01 2.717478942871093750e+01 3.025103293406196381e-14 1.296472779528873645e-14 1.296472779528873645e-14 2.909558173818521665e-14
3.252000000000000000e+03 4.949120712280273438e+01 2.817435455322265625e+01 6.347112641242116937e-14 2.102056999601573106e-13 8.210305265515804862e-14 -4.459713848214974519e-14
3.253000000000000000e+03 4.570908355712890625e+01 2.881673812866210938e+01 -1.287278524877630281e-13 2.193366067113414197e-13 2.718262728351305418e-14 -4.095306382965839542e-14
3.254000000000000000e+03 5.486280822753906250e+01 2.748990058898925781e+01 -1.123650783828094787e-14 2.239390991436510103e-13 6.381077984800656577e-14 9.590747385721312690e-14
3.255000000000000000e+03 5.543823242187500000e+01 2.606477737426757812e+01 1.533578731398917844e-14 5.232342743756099313e-14 2.029776391724528312e-14 3.312178344636908245e-14
3.256000000000000000e+03 5.796626281738281250e+01 2.786642646789550781e+01 7.830431995089343067e-14 -1.951957475862520219e-13 -3.506743167873936640e-14 -7.407829639418869738e-14
3.257000000000000000e+03 3.803047180175781250e+01 2.949391365051269531e+01 -5.943639677652434727e-14 1.575310520050832164e-13 2.942839792382037634e-14 -2.715193589170224187e-14
3.258000000000000000e+03 2.243245124816894531e+01 -3.244944572448730469e+00 4.341296270496571019e-14 2.931112384058076614e-13 1.009572606720451904e-13 -8.467121589365161904e-14
3.259000000000000000e+03 2.328503227233886719e+01 -9.970490336418151855e-01 -6.346609927187921510e-15 5.462914192191914431e-13 1.619834366466121889e-13 -6.820762623324996832e-14
3.260000000000000000e+03 4.637693405151367188e+01 2.802197456359863281e+01 -9.529129465753530259e-14 2.794175210218269312e-13 5.523786790928748858e-14 1.250770591699340573e-13
3.261000000000000000e+03 4.265764999389648438e+01 2.869142532348632812e+01 -7.982191838930285943e-14 5.729250217691508884e-14 -6.758823169650436669e-15 6.221205598204090914e-14
3.262000000000000000e+03 4.563319778442382812e+01 2.815740966796875000e+01 -6.982430042143383808e-14 6.157719462367844399e-14 -2.474130934645318337e-15 -1.959210923921719805e-13
3.263000000000000000e+03 6.510139465332031250e+01 2.651280403137207031e+01 1.824811054216071704e-13 1.239571460883923115e-13 9.193147409774712897e-14 -4.750129258576478442e-14
3.264000000000000000e+03 6.453163146972656250e+01 2.717535209655761719e+01 1.473910240818582240e-13 -2.113381084717369518e-13 -1.918412396171090273e-14 2.287213251911043854e-14
3.265000000000000000e+03 6.312526321411132812e+01 2.658958053588867188e+01 -8.747834406722457268e-15 8.775282339971643419e-14 2.370149805315090868e-14 -9.158646233173740187e-15
3.266000000000000000e+03 6.443576812744140625e+01 2.657674598693847656e+01 1.051461503043422951e-13 -9.219021216994721657e-14 3.886781355615228847e-15 1.135494964114164285e-13
3.267000000000000000e+03 4.190383148193359375e+01 2.882096672058105469e+01 -1.407703570681026473e-13 3.117174419520023221e-14 -3.287958284543118781e-14 3.456429749620210101e-14
3.268000000000000000e+03 5.553184509277343750e+01 2.673826789855957031e+01 -1.310372046239345899e-17 2.287491214243014825e-13 6.862080890492061602e-14 7.713112510883760042e-14
3.269000000000000000e+03 5.857912445068359375e+01 2.701830482482910156e+01 3.015120840716215000e-14 -2.158327905505200150e-13 -5.570447803113914853e-14 2.271241821003765421e-16
3.270000000000000000e+03 4.787310409545898438e+01 2.775565147399902344e+01 -1.000706814505494813e-13 9.436541310728699394e-14 -1.711581053550161914e-15 4.080121792727001151e-14
3.271000000000000000e+03 5.477769851684570312e+01 2.681380462646484375e+01 2.744416056443908097e-14 1.032636839535736040e-13 3.921235352481039493e-14 6.295874601823167604e-14
3.272000000000000000e+03 1.264448833465576172e+01 -2.038796424865722656e+01 1.932396029215993627e-13 3.706602285844483313e-14 6.909168468469464863e-14 1.664232445429403295e-13
3.273000000000000000e+03 2.149905395507812500e+01 -2.588515090942382812e+01 1.259066830490234400e-16 4.575634576092779682e-13 1.373068054654619230e-13 -3.567820087898307749e-15
3.274000000000000000e+03 8.129466056823730469e+00 -3.976567029953002930e+00 -5.361183570110235330e-14 -2.297650053073932441e-14 -2.297650053073932441e-14 -7.737452172029701813e-14
3.275000000000000000e+03 1.107077121734619141e+01 -5.528455257415771484e+00 5.371804008016088650e-14 2.517767624162642326e-13 9.164844312061978804e-14 -3.048797854259509277e-14
3.276000000000000000e+03 4.712243652343750000e+01 2.788636970520019531e+01 -7.373865651113045705e-14 1.056505685888275980e-13 9.573573792715731751e-15 -2.575879505355149757e-13
3.277000000000000000e+03 2.230305862426757812e+01 -8.772834777832031250e+00 1.187269277032679260e-13 7.142717407121468298e-13 2.498996018798771424e-13 -3.051610342457572456e-14
3.278000000000000000e+03 2.310838699340820312e+01 -4.947176933288574219e+00 -3.310078041740896482e-14 7.178291164602890184e-13 2.054185001352376583e-13 -1.943194818379220812e-13
3.279000000000000000e+03 7.729813385009765625e+01 -2.892172241210937500e+01 -3.598931184534484573e-14 3.032695757932205027e-14 -1.698706470389251769e-15 -4.608114020573927938e-14
3.280000000000000000e+03 7.586936950683593750e+01 2.588251304626464844e+01 -9.044741816404897050e-14 -3.876317872914501750e-14 -3.876317872914501750e-14 -5.906950276135525257e-14
3.281000000000000000e+03 7.576174163818359375e+01 2.658178520202636719e+01 1.038707016448939258e-14 -2.243031471281173306e-13 -6.417482105620930799e-14 1.135984820208220392e-13
3.282000000000000000e+03 1.311890506744384766e+01 -7.446270942687988281e+00 -3.787476314021966106e-14 -1.992358372466390692e-13 -7.113317638911265117e-14 1.035144057059608769e-13
3.283000000000000000e+03 1.253747940063476562e+01 -5.763831138610839844e+00 1.395692016684579526e-14 2.804872219902554420e-13 8.833324425649297096e-14 -2.475468357317385515e-14
3.284000000000000000e+03 6.597017669677734375e+01 2.707419776916503906e+01 1.378567534649280391e-13 1.277078892939972898e-13 7.966939147242488306e-14 -1.931143640181501309e-14
3.285000000000000000e+03 2.290052795410156250e+01 5.584913253784179688e+00 4.339843439585440443e-14 3.846069242165878199e-13 1.284016025015349838e-13 -1.124729310879833688e-13
3.286000000000000000e+03 7.608427429199218750e+01 -3.260680389404296875e+01 4.983243906495765652e-14 2.135676008328639408e-14 2.135676008328639408e-14 -3.274600574964918465e-14
3.287000000000000000e+03 7.719078826904296875e+01 -3.120380592346191406e+01 -2.938368474860071633e-14 1.246598446214344791e-13 2.858284559015787651e-14 7.793987216687600639e-14
3.288000000000000000e+03 2.205682373046875000e+01 -1.446987342834472656e+01 -1.230230923642688934e-13 3.132834161360953384e-13 5.707809442104250230e-14 1.168827946755601754e-13
3.289000000000000000e+03 2.301772117614746094e+01 -1.308836078643798828e+01 -4.810150352032097065e-14 5.283964455218836953e-13 1.440884900543587532e-13 1.292719729005520346e-13
3.290000000000000000e+03 7.740775299072265625e+01 -2.179779434204101562e+01 7.818286220252074203e-14 1.250088357482304069e-13 6.095751209573077589e-14 7.683692684933365880e-14
3.291000000000000000e+03 7.662417602539062500e+01 -2.336346435546875000e+01 5.288554221828146995e-14 -6.883666678119890192e-14 -4.785337622985113767e-15 1.328907687017655270e-13
3.292000000000000000e+03 2.241825103759765625e+01 -2.635822677612304688e+01 -2.553038618187397635e-15 5.250417613698876718e-13 1.567466181807627978e-13 4.442888385750715097e-14
3.293000000000000000e+03 2.253214454650878906e+01 -2.499019432067871094e+01 3.139920642285590202e-14 4.709663106554351497e-13 1.507096449590919485e-13 1.025025909691477249e-15
3.294000000000000000e+03 2.172327232360839844e+01 -3.056051445007324219e+01 -1.415744674677877832e-14 3.141891586309897288e-13 9.000951568284565329e-14 -2.072160937846914686e-13
3.295000000000000000e+03 7.741100311279296875e+01 2.594946670532226562e+01 7.024884688712484948e-14 -6.139524517034464224e-14 2.656080811495593712e-15 -1.359756050974252756e-14
3.296000000000000000e+03 7.656255340576171875e+01 2.667502975463867188e+01 -4.449570798078193723e-14 3.805885473987706893e-15 -1.220694670968662174e-14 1.048087906339780634e-14
3.297000000000000000e+03 7.585403442382812500e+01 -2.334202384948730469e+01 -1.784755848698634656e-14 -7.627537788662194784e-14 -2.823688006504954107e-14 -8.379828406700207122e-14
3.298000000000000000e+03 7.736388397216796875e+01 -2.420266151428222656e+01 -5.003060411703369459e-14 -1.586945364614317233e-13 -6.261754081828690977e-14 9.432749483037020793e-15
3.299000000000000000e+03 7.746631622314453125e+01 -1.461086082458496094e+01 -2.249076948713634588e-14 8.186299674164260187e-14 1.781166800694528735e-14 7.506806455745071438e-14
3.300000000000000000e+03 7.674466705322265625e+01 -1.616201400756835938e+01 1.696790765618599872e-13 1.184705545470565724e-13 8.644488933267496789e-14 -7.129840541206765303e-15
3.301000000000000000e+03 7.684205627441406250e+01 1.897703552246093750e+01 6.235839617027214010e-14 -6.477687174632693057e-14 -7.255416352010767532e-16 -1.005562481697606925e-13
3.302000000000000000e+03 7.684672546386718750e+01 2.214068222045898438e+01 -6.666199439241821123e-14 -2.856942858827336840e-14 -2.856942858827336840e-14 -4.853730874794688621e-15
3.303000000000000000e+03 7.750047302246093750e+01 -7.426023960113525391e+00 1.233517953579121862e-13 7.114106057178569420e-15 3.913976957749427943e-14 -1.426042714903347219e-13
3.304000000000000000e+03 7.678889465332031250e+01 -8.987204551696777344e+00 -1.655860507304013352e-13 -2.997202095886275508e-13 -1.395918699641923721e-13 -1.374173805345282884e-13
3.305000000000000000e+03 7.671440124511718750e+01 -1.935089111328125000e+01 2.443188270510703031e-14 -1.725329948354392684e-13 -4.443033058978106131e-14 -3.263632514737511980e-14
3.306000000000000000e+03 7.675955200195312500e+01 -1.218458938598632812e+01 -1.007143722803541253e-13 -1.804161475164184347e-13 -8.433915864953719921e-14 -1.214914806127800895e-13
3.307000000000000000e+03 2.393441390991210938e+01 3.108123970031738281e+01 -5.679899367679042133e-14 -5.436648784699731063e-14 -3.334964547357585629e-14 -7.388440038816682098e-14
3.308000000000000000e+03 7.610532379150390625e+01 -2.589158535003662109e+00 -1.108993403836286418e-13 -3.449094579822259421e-13 -1.367426408650090908e-13 -2.583299242922554306e-13
3.309000000000000000e+03 7.750645446777343750e+01 -3.435758352279663086e+00 -2.656903560008250231e-13 -5.942522407313688415e-13 -2.579827898616798842e-13 -2.232547100747966917e-13
3.310000000000000000e+03 7.682895660400390625e+01 4.587885856628417969e+00 -7.455542666524525575e-14 -5.352127703701914374e-13 -1.829304530119937877e-13 1.493963678082192020e-14
3.311000000000000000e+03 7.682350921630859375e+01 2.985753774642944336e+00 -1.251238560462039628e-13 -3.281302096355687148e-13 -1.359762183492790877e-13 1.508351273845135159e-15
3.312000000000000000e+03 7.752033233642578125e+01 3.750563621520996094e+00 -1.415564307482089501e-13 -5.181765390036008334e-13 -1.979198868597847882e-13 1.173999184542542928e-13
3.313000000000000000e+03 7.753540802001953125e+01 2.052653312683105469e+01 5.576328922273290911e-14 -2.185239633017456440e-14 1.017326803717409286e-14 3.149727928562079393e-14
3.314000000000000000e+03 7.615605926513671875e+01 1.900189208984375000e+01 1.556771205002416281e-13 -2.535378862151410617e-13 -2.935822971446983010e-14 -3.702849591074967861e-14
3.315000000000000000e+03 7.681747436523437500e+01 1.178787517547607422e+01 3.679421676193450619e-14 -2.816122172694807135e-13 -7.344540015226386220e-14 -7.462055333449374439e-14
3.316000000000000000e+03 7.682434844970703125e+01 1.017720508575439453e+01 3.848956675839114439e-14 -1.665082730983175052e-13 -3.840561224079108715e-14 -1.681201666325470717e-14
3.317000000000000000e+03 7.751890563964843750e+01 1.094321823120117188e+01 7.237582115657975601e-14 -2.434874947065263084e-13 -5.133350003210489232e-14 -1.405184037298100666e-14
3.318000000000000000e+03 7.685150146484375000e+01 2.056299591064453125e+01 1.466281963739563682e-14 -3.946688353732852317e-14 -7.441219169979865905e-15 -8.076404941961129458e-14
3.319000000000000000e+03 7.685189819335937500e+01 2.135730171203613281e+01 1.013832538700101121e-14 5.009594423858489132e-14 1.807028071826918131e-14 4.679044080473992258e-17
3.320000000000000000e+03 7.751750183105468750e+01 1.493226051330566406e+01 -5.038623937026788513e-14 -1.588469481818288731e-13 -6.276995931494763759e-14 -3.010798600992965757e-14
3.321000000000000000e+03 7.751929473876953125e+01 1.572859001159667969e+01 2.745367138918403116e-13 -2.483490030378426860e-13 7.856313595012466566e-15 -1.165726044340120726e-13
3.322000000000000000e+03 7.681378173828125000e+01 1.258762454986572266e+01 -9.765324264282213007e-14 -2.248551822167654812e-13 -9.675252813550264119e-14 5.816645721936491986e-14
3.323000000000000000e+03 7.752412414550781250e+01 7.747372627258300781e+00 9.749878449082441390e-14 -1.640940801208440325e-13 -1.997858665612681217e-14 -5.997169449413475295e-14
3.324000000000000000e+03 7.683197021484375000e+01 5.384279251098632812e+00 7.380497580276867975e-14 -2.428749746891806227e-13 -5.072100373168172971e-14 -1.419642805004436847e-13
3.325000000000000000e+03 7.751469421386718750e+01 5.607294440269470215e-01 -6.898862449193632340e-13 2.075949004712307477e-13 -1.446874033344397459e-13 -7.183153811346487672e-14
3.326000000000000000e+03 7.680827331542968750e+01 -2.597867250442504883e+00 -2.053589232258595798e-13 -5.455204430543370009e-13 -2.252638180155752679e-13 -2.755896368316496092e-13
3.327000000000000000e+03 7.683170318603515625e+01 8.581463813781738281e+00 5.222377570538241920e-14 -1.834976533785295794e-13 -3.938216330194414805e-14 -1.847452177133543372e-13
3.328000000000000000e+03 7.682111358642578125e+01 1.098156738281250000e+01 -8.443489370136766925e-14 -8.193733235309363927e-14 -4.991166713871203475e-14 -1.032656829513291241e-14
3.329000000000000000e+03 7.611141204833984375e+01 1.180295467376708984e+01 -1.483639735589195596e-13 -2.923393135640522944e-13 -1.322109874921442718e-13 2.080461826848688939e-14
3.330000000000000000e+03 7.682093811035156250e+01 1.394546627998352051e+00 -5.065297682162184234e-13 -3.408038418530393021e-14 -1.621830382665667702e-13 -1.227179572153500042e-13
3.331000000000000000e+03 7.682466888427734375e+01 1.656950187683105469e+01 2.266858982425887237e-13 -3.603583902632434555e-13 -4.010174828382277734e-14 -1.369797694326588267e-13
3.332000000000000000e+03 7.680133819580078125e+01 -5.792384147644042969e+00 -2.191713743002546289e-13 -4.599381856276729685e-13 -2.037328639126201324e-13 -1.261223113793730199e-13
3.333000000000000000e+03 7.747048187255859375e+01 -1.302109718322753906e+01 -6.118016656437783030e-14 -1.634729135911727749e-13 -6.739592472429153935e-14 -4.149782798748731516e-14
3.334000000000000000e+03 7.682616424560546875e+01 3.786177873611450195e+00 -5.441553444277512364e-14 -4.350794897967080743e-13 -1.468485028672736337e-13 -1.201678188379740053e-13
3.335000000000000000e+03 7.613626098632812500e+01 4.597485542297363281e+00 -9.037169003043264703e-15 -4.613825597618581575e-13 -1.411259211705692684e-13 -4.899328352411282117e-14
3.336000000000000000e+03 7.680501556396484375e+01 -3.400766611099243164e+00 1.642001489746310050e-14 -3.360949756350817275e-13 -9.590248652721969358e-14 -1.651285851762482326e-13
3.337000000000000000e+03 7.680242919921875000e+01 -4.201986312866210938e+00 -1.531993255128247244e-13 -4.316644426887589203e-13 -1.754591345262332402e-13 -1.811506267256415836e-13
3.338000000000000000e+03 7.677027893066406250e+01 -1.059001255035400391e+01 -1.157060016375444089e-13 -2.325920760246763530e-13 -1.044894219434135130e-13 -1.280482068034133336e-13
3.339000000000000000e+03 7.335356903076171875e+01 2.596946525573730469e+01 -8.988466980268394746e-14 7.228946784167307460e-15 -2.479671843021429706e-14 -2.571476661976639794e-14
3.340000000000000000e+03 7.745467376708984375e+01 2.519433975219726562e+01 -2.338271889751764726e-14 -2.387759044306103640e-13 -7.864759191122949744e-14 -7.045144361558092205e-14
3.341000000000000000e+03 7.676121520996093750e+01 2.442973518371582031e+01 -1.082356250524212082e-13 -2.065150215549080293e-13 -9.442519330457241344e-14 4.590750522781572585e-14
3.342000000000000000e+03 7.743807983398437500e+01 -1.939940834045410156e+01 -4.297474851563780340e-14 -1.556706017346795590e-13 -5.959360609153474542e-14 5.989640342951921270e-14
3.343000000000000000e+03 7.673034667968750000e+01 -1.775763320922851562e+01 8.616299676782873673e-14 -1.003258484318439447e-13 -4.248856600347393833e-15 3.145289348863524771e-15
3.344000000000000000e+03 7.733609008789062500e+01 -2.658230400085449219e+01 1.643632536389542931e-14 -1.302087100250523544e-13 -3.413171438190754081e-14 1.095013701024258324e-13
3.345000000000000000e+03 7.649288940429687500e+01 -2.884601020812988281e+01 1.073050678803040558e-13 1.832407381212319830e-13 8.716374247808716946e-14 9.972129052420244943e-14
3.346000000000000000e+03 7.658068847656250000e+01 -2.496958541870117188e+01 3.634998525054930485e-14 -3.017238423084350751e-14 1.853280348263386564e-15 7.527589933765260755e-14
3.347000000000000000e+03 7.657703399658203125e+01 -2.654339790344238281e+01 4.357427504757260817e-14 -1.643291080467845777e-13 -3.622645057738994867e-14 -7.322939997445043758e-14
3.348000000000000000e+03 7.683464813232421875e+01 7.777617454528808594e+00 -3.895845709293681292e-14 -2.454512287863863662e-13 -8.532290271447834362e-14 6.143142448862071517e-16
3.349000000000000000e+03 7.681295013427734375e+01 1.496924781799316406e+01 2.366575902260081854e-13 -3.103338712309028358e-13 -2.210288091333660609e-14 -9.062875775366074915e-14
3.350000000000000000e+03 7.681814575195312500e+01 1.576898956298828125e+01 1.438444903554408905e-14 -8.533713286799221587e-14 -2.128580582736079585e-14 -5.422550429512451586e-14
3.351000000000000000e+03 7.682025909423828125e+01 5.915154218673706055e-01 -4.278205394114831250e-13 -4.349818844961300668e-13 -2.588407190407676639e-13 -1.017103203959993096e-13
3.352000000000000000e+03 7.680100250244140625e+01 -6.594236373901367188e+00 8.839276017949884712e-14 -5.361928620290640213e-14 1.043204168475796514e-14 -1.061522695916181092e-14
3.353000000000000000e+03 7.675138854980468750e+01 -1.457480239868164062e+01 2.415746910237187572e-13 1.203010910018949969e-14 7.608143444675502520e-14 3.633880780377733710e-14
3.354000000000000000e+03 7.675493621826171875e+01 -1.298425197601318359e+01 8.795056832345063413e-14 -5.380879796639329027e-14 1.024253161533697151e-14 2.453068232214066641e-14
3.355000000000000000e+03 7.675233459472656250e+01 -1.378224182128906250e+01 -1.018948990396013887e-13 2.081706499413031770e-15 -2.994395638562796780e-14 1.543448359300324951e-14
3.356000000000000000e+03 7.677948760986328125e+01 -9.790280342102050781e+00 8.872877476154283904e-14 -5.347528043747780402e-14 1.057604745018656325e-14 -1.908879590921158838e-15
3.357000000000000000e+03 7.585801696777343750e+01 -3.350233459472656250e+01 4.097356880324552753e-14 1.319374703890804912e-13 5.187331074125826891e-14 2.918715277604698455e-14
3.358000000000000000e+03 7.709575653076171875e+01 -3.199958610534667969e+01 -1.399849762609471984e-14 -5.175030461665799941e-14 -1.972464109634228940e-14 3.803268396290575282e-14
3.359000000000000000e+03 7.666782379150390625e+01 -2.175814628601074219e+01 1.859392495659126232e-14 5.371977480363686330e-14 2.169410958925525879e-14 2.403025059822161587e-15
3.360000000000000000e+03 7.670233917236328125e+01 -2.015176200866699219e+01 -1.537371406123543699e-14 3.916221256246472937e-14 7.136549889181966616e-15 1.028113886885305417e-13
3.361000000000000000e+03 7.668605041503906250e+01 -2.095671272277832031e+01 7.992243070695584373e-14 1.257543738196129079e-13 6.170304339084969891e-14 -5.309021248339242105e-15
3.362000000000000000e+03 7.673782348632812500e+01 -1.696139717102050781e+01 -1.793768990765096105e-13 -2.141286686808616113e-13 -1.180516730377167978e-13 3.944437617785408190e-14
3.363000000000000000e+03 2.295285034179687500e+01 2.621969795227050781e+01 1.350169755593702212e-14 2.345411733752078565e-13 7.441286763209056798e-14 1.022992115822483894e-13
3.364000000000000000e+03 2.376995086669921875e+01 2.745162582397460938e+01 3.398054610587696034e-14 -7.693880797222940604e-14 -1.288747754346619701e-14 -1.299578934049749890e-13
3.365000000000000000e+03 2.610011482238769531e+01 3.024248886108398438e+01 -1.262534795134530319e-14 -2.828633831883971966e-14 -1.227350571164891740e-14 8.682278799989479046e-14
3.366000000000000000e+03 2.320315361022949219e+01 2.843719863891601562e+01 -5.969890245127382200e-14 -1.170871396800193809e-13 -5.303581263938796087e-14 -1.182044371238200053e-13
3.367000000000000000e+03 2.370589637756347656e+01 2.595915412902832031e+01 1.046780798976895688e-13 -8.889141736939339990e-16 3.113675157008326255e-14 -2.625830935608537697e-14
3.368000000000000000e+03 2.288457679748535156e+01 2.466935729980468750e+01 -2.880554410451818814e-14 -5.809618058979712507e-14 -2.607051876354730957e-14 1.082163736875960125e-13
3.369000000000000000e+03 2.355357170104980469e+01 2.365473937988281250e+01 1.418891317373632832e-13 1.505867709716314506e-14 4.708434231154474958e-14 1.023327947445411279e-13
3.370000000000000000e+03 1.191083335876464844e+01 -1.820653152465820312e+01 1.863958469112947901e-15 1.380516794630137767e-13 4.197469398426433018e-14 3.845814183604800984e-14
3.371000000000000000e+03 1.175586700439453125e+01 -2.180062675476074219e+01 1.366962861399376519e-14 5.160936172236667285e-14 1.958369650798506834e-14 1.002762529587163109e-13
3.372000000000000000e+03 1.155751037597656250e+01 -2.426524543762207031e+01 3.255438995632131682e-14 1.740802055456847075e-13 6.199037729534909169e-14 4.891945613243013635e-14
3.373000000000000000e+03 7.581708526611328125e+01 -2.653866577148437500e+01 -5.894818053825412463e-14 -7.101445625122548844e-14 -3.898879103684388392e-14 1.459569634208388034e-13
3.374000000000000000e+03 7.645915985107421875e+01 -3.030857276916503906e+01 -2.599167354868509028e-14 8.036261001272138049e-14 1.631128127802406597e-14 -3.283080645316354892e-15
3.375000000000000000e+03 2.365801811218261719e+01 1.033721542358398438e+01 -2.023532742463727413e-14 5.860900415162462185e-13 1.697564208343396719e-13 -8.980933808048693900e-14
3.376000000000000000e+03 2.294044494628906250e+01 9.637933731079101562e+00 -5.990723189871691168e-14 4.775859070195453970e-13 1.253036032138749034e-13 -6.713371720513949814e-14
3.377000000000000000e+03 2.365152931213378906e+01 1.113666439056396484e+01 -2.625533627044051438e-14 4.920081269482734498e-13 1.397258502476572684e-13 -8.690700340364260201e-14
3.378000000000000000e+03 1.260479927062988281e+01 -9.003973960876464844e+00 4.781134730204132655e-14 1.062736053672463932e-13 4.622548817247856823e-14 7.266115436925773413e-15
3.379000000000000000e+03 1.247098255157470703e+01 -9.938045501708984375e+00 5.476214371292337235e-14 3.894770790602297694e-13 1.332717708977040894e-13 -1.392490316847252996e-14
3.380000000000000000e+03 2.365799140930175781e+01 7.913589954376220703e+00 -5.275586486218862559e-14 1.146431853529111811e-13 1.856619818009584005e-14 2.559927367740827409e-14
3.381000000000000000e+03 2.363156127929687500e+01 1.274114322662353516e+01 -3.727852309612020298e-14 2.127782406649222913e-13 5.264991459301426868e-14 1.520727886336354501e-14
3.382000000000000000e+03 2.292774581909179688e+01 1.204165172576904297e+01 1.044142596278059554e-13 3.878810792522224826e-13 1.476886104731511828e-13 1.334601916827549140e-13
3.383000000000000000e+03 1.328154850006103516e+01 -1.260196876525878906e+01 9.810225142002984566e-14 3.851759406217625248e-13 1.449834582901640689e-13 1.213072052069731274e-14
3.384000000000000000e+03 1.260258579254150391e+01 -1.119516372680664062e+01 1.005343540621400633e-13 1.803389929793189350e-13 8.426200411243769950e-14 1.648236939728181527e-13
3.385000000000000000e+03 2.404672241210937500e+01 2.875711059570312500e+01 -1.848013793858890863e-14 1.293327830899013153e-13 3.325579422302007981e-14 -1.132947427822002251e-13
3.386000000000000000e+03 1.254777812957763672e+01 -1.660754013061523438e+01 1.018395759296844214e-14 7.299097714045729712e-14 2.495247931888489035e-14 8.668716786064400992e-14
3.387000000000000000e+03 1.195034694671630859e+01 -1.965743064880371094e+01 4.564340374299362402e-14 1.956145850498785393e-14 1.956145850498785393e-14 7.210284615460221813e-14
3.388000000000000000e+03 1.183414459228515625e+01 -1.671216773986816406e+01 -1.109116325257591962e-13 -1.390354574092728113e-13 -7.498412698050960223e-14 -4.414557505357311062e-14
3.389000000000000000e+03 2.350509643554687500e+01 1.989139556884765625e+01 -7.680382310768906623e-15 4.245935607228787378e-14 1.043369255197216378e-14 1.820226369804445188e-13
3.390000000000000000e+03 2.291177558898925781e+01 1.603834533691406250e+01 -5.474140495824279806e-14 1.595431957119447519e-13 3.144053485441833384e-14 9.106445286700352165e-15
3.391000000000000000e+03 2.350474739074707031e+01 2.290000724792480469e+01 -4.165787994506869873e-14 -2.008571667279010486e-13 -7.275451264663820861e-14 1.554488823904062733e-13
3.392000000000000000e+03 2.281819725036621094e+01 2.233236122131347656e+01 8.526123871591823056e-14 -2.379651651510800159e-13 -4.581117725292217779e-14 8.640959855196056472e-14
3.393000000000000000e+03 2.362351226806640625e+01 1.354132366180419922e+01 1.867991065919883537e-14 3.053868464532316640e-13 9.722002933601481267e-14 4.433715696558308828e-14
3.394000000000000000e+03 2.364197158813476562e+01 1.193961715698242188e+01 -2.739461083109059891e-14 1.255122985795512069e-13 2.943530632453818241e-14 -5.160529596421985221e-14
3.395000000000000000e+03 2.361904907226562500e+01 1.513613128662109375e+01 -9.419251165989576263e-15 1.332160293535111784e-13 3.713903032223457579e-14 -3.551579332277537970e-14
3.396000000000000000e+03 2.361966705322265625e+01 1.434005832672119141e+01 -3.007912251521902003e-14 1.243617974442182139e-13 2.828480010700750585e-14 2.842364405365553626e-14
3.397000000000000000e+03 2.430210494995117188e+01 2.931115341186523438e+01 7.100547092572101482e-14 -2.440747799183073941e-13 -5.192079202014955597e-14 -5.009733337261838837e-14
3.398000000000000000e+03 2.346268081665039062e+01 2.064673042297363281e+01 4.883884231277405008e-14 6.668188272601974220e-14 3.465621751163813768e-14 -9.287495360450759296e-14
3.399000000000000000e+03 2.344510078430175781e+01 2.139658164978027344e+01 6.127527142369554314e-14 -6.524106613021302126e-14 -1.189737289636588324e-15 5.107323052433616895e-14
3.400000000000000000e+03 2.347970199584960938e+01 3.060702133178710938e+01 -2.108269876155400256e-15 1.363493058693585058e-13 4.027231022621369227e-14 -5.391207499958611260e-14
3.401000000000000000e+03 2.369235420227050781e+01 2.967000389099121094e+01 5.098922518475927645e-14 1.133544213355319741e-13 4.930309429490055406e-14 -5.400146408057575342e-14
3.402000000000000000e+03 1.249762725830078125e+01 -1.345002269744873047e+01 9.159757370993948378e-14 2.908863200225958456e-13 1.147451681197605988e-13 -7.930453033632919868e-14
3.403000000000000000e+03 2.359654045104980469e+01 1.753631591796875000e+01 -1.054121491429662466e-14 3.614899178605579522e-13 1.052846164742958501e-13 -2.619389673561142370e-15
3.404000000000000000e+03 2.361710739135742188e+01 1.593382453918457031e+01 4.199245457110235835e-14 2.010005660177394127e-13 7.289790516021299460e-14 1.720489934331145832e-14
3.405000000000000000e+03 2.426311874389648438e+01 1.826049041748046875e+01 -6.060339133740627604e-14 8.840448989175242467e-14 8.340329396897255138e-15 4.074521888506113521e-14
3.406000000000000000e+03 1.261143970489501953e+01 -1.814846992492675781e+01 1.313076302420293495e-13 5.627470061123074352e-14 5.627470061123074352e-14 -3.158897907249054449e-14
3.407000000000000000e+03 4.104830265045166016e+00 -2.945579719543457031e+01 7.283246678283991637e-14 3.972215080732394155e-13 1.410161863581865793e-13 -1.106228485008541040e-13
3.408000000000000000e+03 2.791722536087036133e+00 -3.223319244384765625e+01 -4.575679773770845171e-14 3.921484718980711159e-13 1.039175052974274094e-13 1.868885363305594627e-14
3.409000000000000000e+03 2.230458831787109375e+01 -9.583681106567382812e+00 -2.117278495065923367e-15 5.023530419770438904e-13 1.500707246188462407e-13 3.654056766368152243e-14
3.410000000000000000e+03 2.450093078613281250e+01 2.650003051757812500e+01 -1.886466717971983786e-14 -2.597150738827685990e-13 -8.357392197993335214e-14 -1.378439924900611794e-15
3.411000000000000000e+03 1.258565998077392578e+01 -4.992150783538818359e+00 -1.757505003075615635e-13 1.618025375141329825e-14 -4.787107328921812177e-14 1.891636160049076781e-14
3.412000000000000000e+03 1.032598590850830078e+01 -2.575037765502929688e+01 9.345645866345661523e-14 2.688075185618837848e-13 1.086791924899757622e-13 1.167602527250150013e-13
3.413000000000000000e+03 1.256651115417480469e+01 -2.675465965270996094e+01 9.305415867109229078e-15 3.988035674130007910e-15 3.988035674130007910e-15 2.116425151723212023e-14
3.414000000000000000e+03 1.214989089965820312e+01 -8.019531250000000000e+00 4.565404925307471606e-14 1.956602231850766010e-14 1.956602231850766010e-14 -2.245631896310561898e-14
3.415000000000000000e+03 2.420220565795898438e+01 2.099553346633911133e+00 2.912047391892265240e-15 4.699896816672509414e-14 1.497330464640938413e-14 -1.304375579986097322e-13
3.416000000000000000e+03 1.185865497589111328e+01 -4.908834934234619141e+00 -7.159462977438142695e-15 2.256863993648286493e-13 6.555808006918420472e-14 3.787718311334996660e-15
3.417000000000000000e+03 2.364922142028808594e+01 7.096946716308593750e+00 -9.898390429790432377e-14 7.195569959100520108e-14 -8.108460903849968454e-15 -7.379672908999421188e-14
3.418000000000000000e+03 3.377726316452026367e+00 -2.959724044799804688e+01 -2.820126571774928675e-14 4.911741586371975998e-13 1.388918683840542623e-13 4.315346230311309372e-14
3.419000000000000000e+03 7.516823577880859375e+01 -3.489303207397460938e+01 2.980655070092437520e-14 1.729025586984581087e-13 6.081273044812249284e-14 9.832260873532394641e-14
3.420000000000000000e+03 7.599652099609375000e+01 -3.527497482299804688e+01 8.376961369580340766e-14 -5.560063179180577131e-14 8.450695248825648709e-15 7.487973186382640423e-14
3.421000000000000000e+03 1.247244453430175781e+01 -2.978680801391601562e+01 -6.190269667981406279e-15 4.309797486880435902e-14 1.107231219552159626e-14 -3.825234671118310503e-14
3.422000000000000000e+03 1.168752765655517578e+01 -2.976975440979003906e+01 -2.325252654539287228e-14 2.187893692173065174e-13 5.866105669792565092e-14 3.380248961596873936e-14
3.423000000000000000e+03 2.425905466079711914e+00 -7.347580909729003906e+00 1.111249221981414070e-13 9.337591599456809832e-14 6.135025078018649380e-14 3.536439126565135704e-14
3.424000000000000000e+03 3.664313077926635742e+00 -4.939427852630615234e+00 8.909258557678392809e-14 1.296844305120198326e-13 6.563310685952020163e-14 -5.470621920961385443e-14
3.425000000000000000e+03 2.456276178359985352e+00 -8.905864715576171875e+00 1.114043414267816556e-13 2.764994721897451324e-13 1.163711461178371098e-13 -2.712229312668013037e-14
3.426000000000000000e+03 3.126897335052490234e+00 -7.280747413635253906e+00 3.682336824784721019e-14 1.987852428237540936e-13 7.068258196622767553e-14 -2.385883272903750046e-14
3.427000000000000000e+03 3.224647283554077148e+00 -2.488370895385742188e+01 5.298422494476838496e-14 2.057113160369716809e-13 7.760866195570884085e-14 -4.740895921825048764e-14
3.428000000000000000e+03 3.218941450119018555e+00 -2.327004051208496094e+01 9.130472223282167649e-15 2.678853334634172939e-14 1.077570158618387439e-14 -3.560466401960130089e-14
3.429000000000000000e+03 3.195554971694946289e+00 -2.164829444885253906e+01 1.978029454910868595e-14 5.422821818868751864e-14 2.220255297430591412e-14 -6.641444308435251118e-15
3.430000000000000000e+03 3.207876682281494141e+00 -2.245562934875488281e+01 7.913877615294689916e-14 2.626713679464848239e-13 1.025430418745768013e-13 5.852012396802969141e-14
3.431000000000000000e+03 2.467162847518920898e+00 -1.368600368499755859e+01 1.685514588686300164e-14 2.588538649921090506e-13 8.271269953674664777e-14 -9.350680630184141084e-14
3.432000000000000000e+03 3.187808513641357422e+00 -1.119011783599853516e+01 5.753431314269724650e-14 1.619104020777681341e-13 6.583341321088689857e-14 -9.202304852374068589e-14
3.433000000000000000e+03 2.471569061279296875e+00 -1.127823734283447266e+01 5.066166399152888244e-14 1.589649906933582324e-13 6.288799505021341885e-14 -6.233015947994247075e-14
3.434000000000000000e+03 4.637910842895507812e+00 -1.583676147460937500e+01 -2.502825996854394358e-14 1.951528673903302202e-13 5.103738409000836695e-14 1.350934372235188669e-14
3.435000000000000000e+03 2.465444564819335938e+00 -1.770948410034179688e+01 -8.223864568935451702e-14 4.680153291823641037e-13 1.157329982716392980e-13 8.081164589498340822e-14
3.436000000000000000e+03 3.179102420806884766e+00 -1.601376152038574219e+01 -2.449664853831998862e-14 1.953807124768780490e-13 5.126521901216082866e-14 -3.640727855910158572e-14
3.437000000000000000e+03 2.465615272521972656e+00 -1.851485061645507812e+01 1.110083179485564855e-14 1.648858187573015721e-13 5.279599728322953434e-14 3.758405126832661813e-14
3.438000000000000000e+03 4.633495807647705078e+00 -1.667420387268066406e+01 7.033594220289332566e-14 1.673968174362508443e-13 7.131982856936960880e-14 -1.925441414380585359e-14
3.439000000000000000e+03 3.176632881164550781e+00 -1.520617771148681641e+01 1.463542828594732725e-14 1.892761256972255723e-13 6.117346483969915427e-14 3.431483147015913261e-15
3.440000000000000000e+03 2.467130661010742188e+00 -1.932138824462890625e+01 -1.165026903345457027e-15 2.237617778783410061e-14 6.363345180643298349e-15 -3.190860526107106021e-14
3.441000000000000000e+03 3.170247554779052734e+00 -1.843124198913574219e+01 1.111690932722748243e-14 2.792700695263689026e-13 8.711609856887000958e-14 8.398652866919986693e-14
3.442000000000000000e+03 3.895106077194213867e+00 -1.269626522064208984e+01 1.339070320556176585e-13 1.488906247642043934e-13 8.483929433544118437e-14 -7.419821593072917221e-14
3.443000000000000000e+03 3.188077211380004883e+00 -1.039623069763183594e+01 4.419491641681656813e-14 4.764501510337582069e-13 1.561935259949964738e-13 -9.847019745011943020e-15
3.444000000000000000e+03 3.321131706237792969e+00 -2.880548286437988281e+01 4.698913580827336622e-14 3.403948401359963016e-13 1.162151971878522261e-13 -1.164918991347976829e-13
3.445000000000000000e+03 3.183771133422851562e+00 -1.198765659332275391e+01 -2.037461309896729765e-15 -8.731976891158672698e-16 -8.731976891158672698e-16 6.907334303325480401e-15
3.446000000000000000e+03 2.501684665679931641e+00 -2.415017890930175781e+01 5.072557432146511391e-14 1.818678535677950570e-13 6.977802531745944115e-14 -2.936968837618028627e-14
3.447000000000000000e+03 3.949253797531127930e+00 -2.321107292175292969e+01 4.886651233806200631e-15 1.393471248762809256e-13 4.327013262126790105e-14 1.159499471263536474e-13
3.448000000000000000e+03 3.227912664413452148e+00 -2.567678642272949219e+01 -2.541377176789368780e-14 -5.664256702022328616e-14 -2.461690180584168164e-14 -4.382407861624505740e-14
3.449000000000000000e+03 3.185125589370727539e+00 -2.084669113159179688e+01 2.743422995016547156e-14 1.032594216837830203e-13 3.920809803128338933e-14 1.069474776750276024e-13
3.450000000000000000e+03 3.176171302795410156e+00 -2.004409599304199219e+01 4.059237009566320220e-14 2.004005278779044663e-13 7.229786702037804824e-14 7.653798520532509309e-14
3.451000000000000000e+03 3.170766592025756836e+00 -1.923834228515625000e+01 5.373410998923619508e-14 2.302890307105415896e-14 2.302890307105415896e-14 1.201830925360788949e-13
3.452000000000000000e+03 3.170723438262939453e+00 -8.826932907104492188e+00 5.996728992280903059e-14 3.459569057010641879e-13 1.217772627529201124e-13 -2.188561865643177257e-14
3.453000000000000000e+03 2.746618747711181641e+00 -3.138028526306152344e+01 2.448313836281128253e-14 4.451267913291312439e-13 1.408829785687695790e-13 2.779551491315784828e-14
3.454000000000000000e+03 3.535733938217163086e+00 -3.125563430786132812e+01 1.026408479219633081e-15 2.749455936361389075e-13 8.279159557358570232e-14 -2.192184371448699723e-15
3.455000000000000000e+03 3.235261440277099609e+00 -2.646674728393554688e+01 -3.156358798934717595e-15 4.439822465294833431e-14 1.237255943856672979e-14 6.335721742167441106e-14
3.456000000000000000e+03 7.642910766601562500e+01 -3.105480384826660156e+01 -2.734541685157996366e-14 -1.032213594112652011e-13 -3.917003237063378107e-14 -8.651100703047174406e-15
3.457000000000000000e+03 3.278104066848754883e+00 -2.802478599548339844e+01 5.456719738604690062e-14 1.606387820072413541e-13 6.456179314036011863e-14 1.132689319942314921e-13
3.458000000000000000e+03 3.250233173370361328e+00 -2.724840545654296875e+01 4.511557346784621225e-14 1.108371410602458640e-13 4.678581401961444397e-14 -1.172977595045518462e-13
3.459000000000000000e+03 3.612218141555786133e+00 -3.214564514160156250e+01 -1.863665946284613628e-14 4.723978369938763855e-13 1.361283454666059600e-13 -4.413890721021232477e-14
3.460000000000000000e+03 2.279541397094726562e+01 3.125903367996215820e+00 -6.001089517893368197e-14 2.030357896783477334e-13 4.290746699457149982e-14 5.619715305084371781e-14
3.461000000000000000e+03 3.522292852401733398e+00 -3.469869613647460938e+01 2.569861878365994196e-14 4.685231694799563140e-13 1.482665444411945810e-13 -2.165726238550027584e-15
3.462000000000000000e+03 3.670188665390014648e+00 -3.309865951538085938e+01 -7.686105034767146127e-14 2.186897716952365678e-13 4.254861640426953195e-14 4.747969493967569427e-15
3.463000000000000000e+03 2.347119522094726562e+01 2.179467916488647461e+00 2.712285216842531821e-14 3.318807088956848839e-13 1.077010727238043863e-13 6.744339922691924838e-14
3.464000000000000000e+03 1.254747772216796875e+01 -2.830952835083007812e+01 -5.927297278077994433e-15 1.347125807172472323e-13 3.863558507410241871e-14 -5.527735997342027308e-14
3.465000000000000000e+03 5.324935531616210938e+01 2.697999763488769531e+01 2.287862417961819550e-14 1.928089171611066521e-13 6.470626307984381209e-14 1.230198126526971247e-13
3.466000000000000000e+03 2.099337387084960938e+01 -2.127756309509277344e+01 3.863225792868560382e-14 3.596887870015164079e-13 1.194963182224451081e-13 2.487734072019985587e-14
3.467000000000000000e+03 2.183874511718750000e+01 -2.219859313964843750e+01 9.291652428749293952e-15 3.928652108492469708e-13 1.206470497507397543e-13 1.108024262619355937e-13
3.468000000000000000e+03 5.026385307312011719e+00 -4.072641372680664062e+00 -1.731234208453887730e-14 3.833137488516193125e-14 6.305709670780326737e-15 -7.073359367844311851e-14
3.469000000000000000e+03 5.111676216125488281e+00 -4.819989204406738281e+00 6.572797454961268326e-14 5.104460419885076261e-14 3.503177497979174937e-14 -1.089545798417870803e-13
3.470000000000000000e+03 2.421547317504882812e+01 -2.915417861938476562e+01 9.429170768834871375e-16 2.062833817607565012e-13 6.216788829603928090e-14 -7.682669469133082685e-14
3.471000000000000000e+03 3.047055721282958984e+00 -5.760272502899169922e+00 -6.511044009721925208e-15 -4.854139483488444096e-14 -1.651573131456873095e-14 2.575648129835277772e-14
3.472000000000000000e+03 3.095388412475585938e+00 -6.517987728118896484e+00 7.272227118453392092e-14 1.684195317930292646e-13 7.234254292614802906e-14 8.084058731672519316e-14
3.473000000000000000e+03 5.864418983459472656e+00 -4.771542072296142578e+00 -4.940412160858546897e-14 -2.117319449108923113e-14 -2.117319449108923113e-14 8.472024216063869795e-14
3.474000000000000000e+03 4.375178813934326172e+00 -4.876603603363037109e+00 -3.619594045062984877e-14 7.598935180099311570e-14 1.193802391332874843e-14 7.384602640752441216e-15
3.475000000000000000e+03 2.306359481811523438e+01 -7.284117698669433594e+00 1.297014287692053319e-14 4.173171682352039280e-13 1.290861948582966434e-13 -2.012399849624785242e-13
3.476000000000000000e+03 7.592150878906250000e+01 2.513662719726562500e+01 -7.587419597774799906e-14 -1.240194063981472916e-13 -5.996808274564766061e-14 -1.612782580011004607e-14
3.477000000000000000e+03 8.913165092468261719e+00 -5.394166946411132812e+00 -7.750043825010405341e-14 2.870421727998312411e-13 6.286251629916000949e-14 -6.129421108039614929e-14
3.478000000000000000e+03 6.622908592224121094e+00 -4.732610225677490234e+00 -4.446384260130623045e-14 1.639478619053572062e-13 3.584520782409436612e-14 -1.530965566994002547e-13
3.479000000000000000e+03 9.668464660644531250e+00 -4.704546928405761719e+00 -2.712218131833109280e-14 3.086328393374360157e-13 8.445320316555551821e-14 -8.745833376087863709e-14
3.480000000000000000e+03 2.271366119384765625e+01 -1.546035480499267578e+01 -7.439657749444897328e-14 5.171271397208521137e-13 1.328191707008000155e-13 6.832980904182550663e-14
3.481000000000000000e+03 2.309892845153808594e+01 -1.055058670043945312e+01 -4.730272858117058957e-15 4.326067499019203844e-13 1.283629506940858755e-13 4.211956372329912768e-14
3.482000000000000000e+03 2.416733932495117188e+01 3.254430389404296875e+01 1.615488850277482097e-14 6.923523644046351844e-15 6.923523644046351844e-15 -2.013814733459878825e-14
3.483000000000000000e+03 2.359299659729003906e+01 4.654663085937500000e+00 4.918299179924347231e-14 2.955841138258669121e-13 1.034301293158408630e-13 -4.636430670813818100e-14
3.484000000000000000e+03 7.281320190429687500e+01 2.681334686279296875e+01 -4.012927685460854210e-14 -8.582468503243179114e-14 -3.778618721085938437e-14 1.173620560815120256e-14
3.485000000000000000e+03 7.307106018066406250e+01 2.524951362609863281e+01 8.019733694405312141e-14 -3.425613674559561950e-14 1.378236022894384002e-14 1.699403015227932134e-13
3.486000000000000000e+03 2.317378234863281250e+01 -3.370143651962280273e+00 -8.582207617095424790e-14 5.122305032391472057e-13 1.279225206665679515e-13 -2.040118664010503319e-14
3.487000000000000000e+03 2.321030235290527344e+01 -2.574387788772583008e+00 3.642531358461452429e-14 4.273693757824575945e-13 1.391384159580774660e-13 -5.857195560813807655e-14
3.488000000000000000e+03 2.351864814758300781e+01 2.999417781829833984e+00 3.331184069907400236e-14 1.972803024457084331e-13 6.917764158818201503e-14 -1.803187726088020804e-13
3.489000000000000000e+03 2.363516044616699219e+01 6.282327175140380859e+00 5.386305889699440075e-14 3.890917536081284211e-13 1.328864454456027411e-13 -6.833913318050888197e-14
3.490000000000000000e+03 2.284431076049804688e+01 -1.471883201599121094e+01 5.915585946439372300e-14 7.116167464321643266e-13 2.312317817689674149e-13 4.539434895144654758e-14
3.491000000000000000e+03 1.224164485931396484e+01 -3.619783401489257812e+01 -9.253818008094286118e-14 1.204691050691805709e-13 8.379276818844955121e-15 -6.338589456913665265e-14
3.492000000000000000e+03 1.166884040832519531e+01 -3.444062805175781250e+01 -8.527065772229169838e-14 7.211393212181588241e-14 -3.947017680142744789e-15 1.380679035320854856e-14
3.493000000000000000e+03 2.448717880249023438e+01 3.209869384765625000e+01 -9.185281523013330562e-14 1.436383022072884597e-13 1.553564643195972511e-14 6.171084964649159454e-14
3.494000000000000000e+03 5.993963623046875000e+01 2.647223091125488281e+01 1.162847352046900151e-13 3.243420072449043623e-13 1.321880159586147352e-13 9.221149641384582263e-14
3.495000000000000000e+03 6.129595184326171875e+01 2.651215934753417969e+01 6.228589014998717199e-14 2.554486841239295147e-13 9.532037838081222625e-14 1.696006108177581378e-14
3.496000000000000000e+03 6.187128067016601562e+01 2.658111000061035156e+01 3.116430046965976142e-14 5.910707714289545334e-14 2.708141362257974333e-14 1.014965496089030583e-13
3.497000000000000000e+03 1.177271270751953125e+01 -1.594564723968505859e+01 5.055034692160072229e-14 6.741537937702407612e-14 3.538971755077426062e-14 6.838601814820530200e-14
3.498000000000000000e+03 2.380238151550292969e+01 -3.098629379272460938e+01 -4.332756145509174261e-14 2.330612645148194551e-13 5.692011261198420824e-14 -1.860750967099932679e-14
3.499000000000000000e+03 7.475356292724609375e+01 2.542168998718261719e+01 -4.039223653901774513e-14 -1.088128542890524908e-13 -4.476152724842107078e-14 -1.105926263652960706e-13
3.500000000000000000e+03 2.163557624816894531e+01 -2.655639839172363281e+01 7.215102538864204273e-14 5.799332368494614087e-13 1.956252813819364667e-13 -1.924716692990914579e-14
3.501000000000000000e+03 2.205101585388183594e+01 -2.909450531005859375e+01 2.257092082680323131e-14 4.900581893410582701e-13 1.537887384713693129e-13 -4.413011839635161415e-14
3.502000000000000000e+03 7.482668304443359375e+01 -3.812363815307617188e+01 1.923935389800367213e-14 1.454982781392416546e-13 4.942129266049220815e-14 2.622914431764551690e-14
3.503000000000000000e+03 1.119367027282714844e+01 -3.526808929443359375e+01 -8.424745547453565964e-14 1.240222659813772221e-13 1.193244450730518436e-14 9.602899259195801784e-14
3.504000000000000000e+03 1.623430061340332031e+01 -3.980432128906250000e+01 -1.244253994541616448e-13 -3.044969604151098741e-14 -4.646252864870178967e-14 -4.724842614595506363e-14
3.505000000000000000e+03 7.667576599121093750e+01 -4.177416610717773438e+01 1.731823235165408370e-14 1.103617319601381264e-13 3.830398861591130522e-14 -3.101877343305789458e-14
3.506000000000000000e+03 2.190141105651855469e+01 -2.815007591247558594e+01 -5.445109288590085916e-14 2.969204472135639206e-13 7.274081104168342304e-14 -4.613184698609371082e-14
3.507000000000000000e+03 1.297951030731201172e+01 -4.135109710693359375e+01 -7.397250536720842429e-14 -8.827027752125998078e-15 -2.483985951228385308e-14 4.272078770926023006e-14
3.508000000000000000e+03 3.671425104141235352e+00 -3.553330230712890625e+01 2.796221099717749459e-14 4.237423400447332122e-13 1.355113666678259277e-13 3.146538002482719698e-14
3.509000000000000000e+03 7.686883544921875000e+01 -3.614896774291992188e+01 -7.757440116705829891e-14 -5.612164514579368046e-14 -4.010881253860287821e-14 3.618873050618282017e-14
3.510000000000000000e+03 3.670099496841430664e+00 -4.077547836303710938e+01 -8.967934224000592702e-14 2.360716873719970188e-13 4.391770286197096973e-14 -2.028758596935107544e-14
3.511000000000000000e+03 2.248798179626464844e+01 -3.304117202758789062e+01 -1.194840345506440263e-14 2.922604107509496618e-13 8.409360718625996656e-14 -1.964011398446988826e-14
3.512000000000000000e+03 1.105539321899414062e+01 -3.645550537109375000e+01 -7.215492174019941252e-14 1.292047794709122455e-13 1.711495630277431318e-14 5.590662074993549280e-14
3.513000000000000000e+03 2.662187767028808594e+01 3.095340538024902344e+01 1.347473022918210805e-13 1.950016889499042727e-13 9.892469330675945915e-14 4.137981596914405702e-14
3.514000000000000000e+03 1.181730365753173828e+01 -1.273102188110351562e+01 3.243696408477755866e-14 1.511543982427726585e-13 5.507740937589142294e-14 -5.012871424924826569e-14
3.515000000000000000e+03 1.245931529998779297e+01 -1.424007892608642578e+01 -8.037732805721287122e-14 -1.157195067308554315e-14 -2.758478328027634541e-14 7.125491874055561725e-14
3.516000000000000000e+03 5.838735198974609375e+01 2.629649353027343750e+01 1.199997539487115961e-13 1.200548856291824840e-13 7.201639458387365522e-14 1.184188245509018578e-13
3.517000000000000000e+03 5.770478439331054688e+01 2.644935035705566406e+01 2.382188345781237337e-14 -3.554157022942622257e-14 -3.515905650319328495e-15 6.754880400687557351e-14
3.518000000000000000e+03 5.468984985351562500e+01 2.614311981201171875e+01 -7.465569673147532531e-15 8.830236482336786819e-14 2.425103947680234268e-14 7.499918383817999468e-14
3.519000000000000000e+03 5.401572799682617188e+01 2.689282608032226562e+01 2.901990442654572844e-14 3.326937521048317636e-13 1.085140956041605320e-13 2.966704437451159193e-14
3.520000000000000000e+03 2.332372856140136719e+01 -2.203813046216964722e-01 3.698180067843344354e-14 2.446040874189148173e-13 8.447576812327037277e-14 -1.056594319415876670e-13
3.521000000000000000e+03 2.415268707275390625e+01 1.281954765319824219e+00 -3.844558203150612308e-14 3.495309239525540290e-13 9.332559546123761485e-14 9.032191498632019533e-14
3.522000000000000000e+03 2.727442550659179688e+01 3.091006278991699219e+01 -1.982080644090996463e-14 4.032639023057726924e-13 1.150329289288654078e-13 1.330746188970329674e-14
3.523000000000000000e+03 6.654259490966796875e+01 2.637392234802246094e+01 9.299858653348883064e-14 1.999848583175006800e-13 8.789503684342864220e-14 -1.371390387317969473e-13
3.524000000000000000e+03 8.914647102355957031e+00 -4.692606449127197266e+00 -3.445842515405889150e-14 1.224849486159557133e-13 2.640795805500858323e-14 1.275554284456891993e-14
3.525000000000000000e+03 2.324794960021972656e+01 -1.780096530914306641e+00 -4.021404452383796346e-14 3.030220388847149060e-13 7.884240271283440848e-14 -1.124532934761342251e-13
3.526000000000000000e+03 2.406073379516601562e+01 -2.976249754428863525e-01 -3.290272378555017530e-14 3.976573844516329004e-13 1.094263975221984597e-13 -7.279270366816401050e-14
3.527000000000000000e+03 2.855323982238769531e+01 2.944977760314941406e+01 -4.950868274372632882e-14 3.447895723270033574e-13 8.858427094074125541e-14 -7.669041725451297697e-14
3.528000000000000000e+03 2.865344238281250000e+01 3.138263320922851562e+01 -4.771301016499689129e-14 2.530251568433772996e-14 -6.723147835977980047e-15 2.633160946975839599e-15
3.529000000000000000e+03 7.680564880371093750e+01 2.367030143737792969e+01 -1.939824711451321182e-14 -8.313534356643812601e-15 -8.313534356643812601e-15 3.223430298181749476e-14
3.530000000000000000e+03 7.407908630371093750e+01 2.575950813293457031e+01 1.258200866356608966e-14 -2.919888723168506672e-13 -8.382206197589739394e-14 9.978689153190140049e-14
3.531000000000000000e+03 2.461165809631347656e+01 -5.028919219970703125e+00 3.188588106116212184e-14 3.796729640750950985e-13 1.234676559125694184e-13 -3.345500959595071322e-14
3.532000000000000000e+03 3.059934806823730469e+01 3.044232177734375000e+01 2.497447676452508453e-14 1.937071380034294243e-13 6.560448392216658431e-14 7.272964227699916465e-16
3.533000000000000000e+03 2.992439651489257812e+01 3.056248664855957031e+01 4.445849274121137229e-14 2.935593391636959204e-13 1.014053478774062933e-13 -8.502123023624783005e-14
3.534000000000000000e+03 2.383661270141601562e+01 -5.782588481903076172e+00 3.412368789769935906e-14 3.806320222118214636e-13 1.244267140492957835e-13 -3.549924568711781969e-14
3.535000000000000000e+03 6.804493713378906250e+01 2.631872940063476562e+01 6.843927280366507437e-14 1.894594371795385590e-13 7.736961570546652123e-14 -1.374472231993259519e-13
3.536000000000000000e+03 6.712887573242187500e+01 2.567693138122558594e+01 1.752240388376569147e-13 2.580998023811453823e-13 1.299971550761461203e-13 -6.680531236709363885e-14
3.537000000000000000e+03 2.319724845886230469e+01 -1.693282699584960938e+01 5.191541166686859665e-14 4.797589734338580936e-13 1.595023077375148923e-13 -1.539518465238243899e-14
3.538000000000000000e+03 2.858213996887207031e+01 3.073761367797851562e+01 1.079732616792068722e-13 1.835271030200397169e-13 8.745010737689490332e-14 -1.052887635476056072e-13
3.539000000000000000e+03 2.349766159057617188e+01 -2.535998153686523438e+01 -3.925175072125308695e-14 3.034344693911283919e-13 7.925481289045716027e-14 -4.908948274999838657e-14
3.540000000000000000e+03 2.181815338134765625e+01 -2.056755638122558594e+01 -1.160458685254325134e-14 3.839096737994623920e-13 1.116915262534823317e-13 1.202469791490926032e-13
3.541000000000000000e+03 5.931157684326171875e+01 2.682982444763183594e+01 7.519293076640315432e-14 5.510101449006550578e-14 3.908818188287470352e-14 2.052250107050304639e-13
3.542000000000000000e+03 8.148015022277832031e+00 -4.694276809692382812e+00 -3.648268820832974157e-14 5.333759692596751201e-13 1.490679731345687098e-13 -1.052037282159648535e-13
3.543000000000000000e+03 9.581837654113769531e+00 -6.979580402374267578e+00 -3.141626143124886736e-15 1.359064363869524894e-13 3.982944413193946487e-14 -8.398130078184941338e-15
3.544000000000000000e+03 2.481832885742187500e+01 -1.162557506561279297e+01 7.917800563686603482e-15 5.066538009447507651e-13 1.543714700340259594e-13 5.320356666755872779e-15
3.545000000000000000e+03 2.306584548950195312e+01 -8.076719284057617188e+00 9.945635894709203839e-14 3.628807866175309815e-13 1.387011436693869060e-13 -1.986133019117250487e-14
3.546000000000000000e+03 3.128105735778808594e+01 3.030318450927734375e+01 -3.780000062416320750e-14 -1.992037990724421226e-13 -7.110113821491570452e-14 -3.697264933447130808e-14
3.547000000000000000e+03 3.212911605834960938e+01 3.077414512634277344e+01 -9.640036571735219328e-14 -1.785672846567332162e-13 -8.249029578985198063e-14 -1.617813413616608909e-13
3.548000000000000000e+03 2.792061233520507812e+01 3.081819152832031250e+01 -3.924619079698730972e-14 7.468210213657303087e-14 1.063077424890866360e-14 1.450923528458630818e-13
3.549000000000000000e+03 3.197785758972167969e+01 3.015509033203125000e+01 -3.011019380130667590e-15 4.446051206775762654e-14 1.243484770040896928e-14 -1.711921891137807572e-13
3.550000000000000000e+03 7.614713287353515625e+01 2.288604736328125000e+01 -2.211077695447091068e-14 3.627490086197289465e-14 4.249237341657184641e-15 9.446429234541767195e-14
3.551000000000000000e+03 3.268949890136718750e+01 3.000743103027343750e+01 -3.952152817385473985e-15 4.405716853080228479e-14 1.203150501048657478e-14 -1.834390285341842147e-14
3.552000000000000000e+03 2.390082740783691406e+01 -1.241271877288818359e+01 2.038062745640927681e-14 5.577459609613921732e-13 1.734379648362857629e-13 5.329835219545532576e-14
3.553000000000000000e+03 3.952061080932617188e+01 2.838300323486328125e+01 -1.408200406326567955e-13 -1.460050003533434892e-14 -4.662616524971595344e-14 1.945756652587532498e-13
3.554000000000000000e+03 4.034129714965820312e+01 2.833098220825195312e+01 -1.679261113843311115e-13 1.953356232190298081e-14 -4.451776471872843921e-14 -4.844569027624007207e-14
3.555000000000000000e+03 6.729241943359375000e+01 2.634107017517089844e+01 -5.800151618761198447e-14 -2.485779289384312113e-14 -2.485779289384312113e-14 -2.175826047654851048e-15
3.556000000000000000e+03 6.788315582275390625e+01 2.565107345581054688e+01 -1.829057365905929072e-14 3.791213084572073178e-14 5.886467325405021767e-15 -9.061555759221073814e-14
3.557000000000000000e+03 3.651664733886718750e+01 2.985780334472656250e+01 -9.282213940618039283e-14 1.889738230264823016e-13 2.884550711896964603e-14 4.853861317868565783e-14
3.558000000000000000e+03 3.341106414794921875e+01 2.986030769348144531e+01 8.637978468628310785e-15 -1.335508580894290143e-13 -3.747386244628420071e-14 1.355678807060667346e-13
3.559000000000000000e+03 2.326639366149902344e+01 -1.756972503662109375e+01 3.597864346537417782e-15 4.590514166707970745e-13 1.387947916320353414e-13 4.610643938580787082e-14
3.560000000000000000e+03 3.577422332763671875e+01 3.002750205993652344e+01 2.014403421358220564e-14 -3.711779012404922695e-14 -5.092127027249990570e-15 5.159003581864211874e-14
3.561000000000000000e+03 7.108268737792968750e+01 2.624161911010742188e+01 1.098433545726820726e-13 2.420024799315318581e-14 4.021308229440988258e-14 6.078090233809646525e-14
3.562000000000000000e+03 3.688393783569335938e+01 2.835953140258789062e+01 -1.723633171954452870e-13 -2.568737865644987739e-13 -1.287711392594995119e-13 1.071062743297811551e-14
3.563000000000000000e+03 7.125497436523437500e+01 2.693094444274902344e+01 -2.224550601506117969e-14 -7.816020915337937303e-14 -3.012171471993875527e-14 -1.426973909044240707e-13
3.564000000000000000e+03 3.413895416259765625e+01 2.970998954772949219e+01 -5.042295655446546454e-14 6.989205628095060407e-14 5.840731357901552193e-15 -9.087645051622864067e-14
3.565000000000000000e+03 4.407085418701171875e+01 2.706747627258300781e+01 4.964905982000888951e-14 -7.022372727804107595e-14 -6.172400237409655932e-15 1.563226680262666535e-13
3.566000000000000000e+03 4.409891510009765625e+01 2.775271034240722656e+01 2.026025018326410576e-13 2.698334448675981934e-13 1.417307840100717753e-13 1.412658645659828349e-13
3.567000000000000000e+03 2.326872825622558594e+01 -1.636501502990722656e+01 -8.074575350795060169e-14 4.457796436672933904e-13 1.095101656925501210e-13 4.049332822720665137e-14
3.568000000000000000e+03 2.382162666320800781e+01 -6.555610656738281250e+00 3.387816015134464953e-14 1.975230011020193133e-13 6.942034702075647323e-14 -1.035526644901224591e-13
3.569000000000000000e+03 4.262460327148437500e+01 2.801666259765625000e+01 -7.325628818832807809e-14 -1.228974468850049795e-13 -5.884612323250534849e-14 1.415027356356166055e-13
3.570000000000000000e+03 3.786067199707031250e+01 2.879416656494140625e+01 -1.341814165204194276e-13 -1.947591664764464214e-13 -9.868217760956518592e-14 2.904267267216792403e-14
3.571000000000000000e+03 5.754994583129882812e+01 2.575784683227539062e+01 1.077836414955027355e-13 9.194393564646713424e-14 5.991827043208552972e-14 5.713908756950838996e-14
3.572000000000000000e+03 5.627353668212890625e+01 2.665885162353515625e+01 -8.408461339042602040e-15 -3.603626288161115160e-15 -3.603626288161115160e-15 1.328694844578669210e-14
3.573000000000000000e+03 3.486998748779296875e+01 2.955324172973632812e+01 -8.165831970026807274e-14 -1.722492726794269680e-13 -7.617227703628215441e-14 1.779361841246565601e-13
3.574000000000000000e+03 3.560273742675781250e+01 2.938649749755859375e+01 -4.210883689805509922e-14 7.345525283950632423e-14 9.403924951841956953e-15 1.371505583798796057e-14
3.575000000000000000e+03 6.248860168457031250e+01 2.659148406982421875e+01 3.598031635544500506e-14 -1.218327061415155899e-13 -2.575571896870024885e-14 1.898677748227509121e-13
3.576000000000000000e+03 6.376306915283203125e+01 2.597484397888183594e+01 4.662962792040432902e-14 -1.172687164388563907e-13 -2.119172757197515522e-14 1.976352973420344994e-13
3.577000000000000000e+03 4.483546829223632812e+01 2.762369537353515625e+01 1.479721971038919226e-13 2.921713977525886019e-13 1.320430716806805793e-13 7.299895280268864362e-14
3.578000000000000000e+03 4.939875030517578125e+01 2.751181030273437500e+01 -2.762057889262731214e-14 1.711663986546027583e-13 4.306374796147170725e-14 -3.187097666942223517e-14
3.579000000000000000e+03 5.161866760253906250e+01 2.651218986511230469e+01 6.188361048641358164e-14 1.637743895577595254e-13 6.769740069087828993e-14 4.322719821523747508e-14
3.580000000000000000e+03 5.699811172485351562e+01 2.656580924987792969e+01 8.169256016012788058e-14 1.951394232833914000e-13 8.304959503305578417e-14 1.347570601113734501e-13
3.581000000000000000e+03 4.556932830810546875e+01 2.749639129638671875e+01 -1.397245492050502857e-13 3.061256489186175989e-13 4.992032381543297370e-14 -5.128657779495879310e-14
3.582000000000000000e+03 4.111741256713867188e+01 2.824783706665039062e+01 -1.580427954304963745e-13 1.152711688037419413e-13 -1.283148697158679324e-14 1.457807399102284407e-13
3.583000000000000000e+03 4.187654113769531250e+01 2.813877105712890625e+01 -1.138416753443741158e-13 -3.038342968943196810e-15 -3.506400627750067001e-14 -1.870391049072633871e-14
3.584000000000000000e+03 4.931209564208984375e+01 2.684210586547851562e+01 4.108511287800355183e-14 2.463626633426863055e-13 8.623433049451470489e-14 -1.222472779472197346e-13
3.585000000000000000e+03 5.902929306030273438e+01 2.609006500244140625e+01 1.115839462929174575e-13 4.782169126839319606e-14 4.782169126839319606e-14 -9.191923616572519884e-15
3.586000000000000000e+03 7.443518066406250000e+01 -3.164566230773925781e+01 -2.998978425620621446e-14 5.733558820184307334e-15 -7.276866826125272247e-15 3.465939557925623582e-14
3.587000000000000000e+03 6.437259674072265625e+01 2.601686859130859375e+01 3.810814104597895491e-14 -1.209207836942380321e-13 -2.484379313329090205e-14 4.253111331544746909e-14
3.588000000000000000e+03 5.392790222167968750e+01 2.622456359863281250e+01 -6.541154336930921076e-14 6.346837524940848740e-14 -5.829506794921893425e-16 1.676612407935929028e-13
3.589000000000000000e+03 6.248728179931640625e+01 2.594891166687011719e+01 1.648402348322121347e-14 1.900683793297150426e-13 6.196571847218862450e-14 9.780494285554358624e-14
3.590000000000000000e+03 1.169852447509765625e+01 -2.903836250305175781e+01 -7.578001946654047694e-14 -1.011035737552221092e-13 -5.306507932178149145e-14 -1.014897428521389228e-14
3.591000000000000000e+03 6.580307006835937500e+01 2.642871093750000000e+01 -1.102915976321054703e-13 -1.387697194567966141e-13 -7.471839580429698313e-14 1.062981083363445656e-13
3.592000000000000000e+03 5.008011245727539062e+01 2.673205184936523438e+01 -1.187304513603285039e-13 4.061741855397940637e-14 -2.343391187478380266e-14 8.539601182222175679e-14
3.593000000000000000e+03 5.084860229492187500e+01 2.662064743041992188e+01 5.731408457641112841e-14 -1.584406163126356182e-13 -3.033796223137277814e-14 1.371502026260417589e-14
3.594000000000000000e+03 1.189604568481445312e+01 -2.107703018188476562e+01 8.641640869685648929e-14 2.200394001120736798e-13 9.193673925454726170e-14 1.610736690511524460e-13
3.595000000000000000e+03 1.066522693634033203e+01 -2.240301513671875000e+01 5.512423335721564066e-14 2.523794161938403002e-13 9.225109689819585568e-14 3.468990401195044121e-15
3.596000000000000000e+03 4.778525161743164062e+01 2.707188415527343750e+01 1.871623482010888878e-14 5.377219259054474843e-14 2.174652907022903842e-14 -1.073833133958396191e-13
3.597000000000000000e+03 4.854405975341796875e+01 2.695289993286132812e+01 -6.025437988181961413e-14 2.029314352192460036e-13 4.280311931173334805e-14 1.378814326168792403e-13
3.598000000000000000e+03 7.653814697265625000e+01 -2.809844589233398438e+01 -3.705026465749411413e-14 2.987226351697236382e-14 -2.153399791585109378e-15 -1.490205901114993042e-14
3.599000000000000000e+03 7.557279205322265625e+01 -2.951555061340332031e+01 1.001334736969953371e-14 5.004238465126410740e-14 1.801671943688250288e-14 5.921128930046204442e-14
3.600000000000000000e+03 1.244723510742187500e+01 -6.533940792083740234e+00 -4.788478505856827439e-14 -2.052204977134874930e-14 -2.052204977134874930e-14 -1.218471505943651174e-15
3.601000000000000000e+03 4.033435821533203125e+00 -2.868767166137695312e+01 2.198912438852035356e-14 1.924277116772607488e-13 6.432505081973433070e-14 -4.386287272522930436e-14
3.602000000000000000e+03 2.307840156555175781e+01 -8.881901741027832031e+00 7.026704115483187185e-14 4.876239386233938156e-13 1.673672864795777704e-13 -3.236442079504291136e-14
3.603000000000000000e+03 2.385924720764160156e+01 -5.014155387878417969e+00 -1.517372280612511865e-14 2.680026610791391706e-13 7.584868334537669954e-14 3.991831821689717508e-14
3.604000000000000000e+03 7.664801025390625000e+01 -2.255893707275390625e+01 -5.588609205942583757e-14 -2.395118134314484781e-14 -2.395118134314484781e-14 -3.634224082831255878e-15
3.605000000000000000e+03 7.500662231445312500e+01 -2.414719963073730469e+01 5.593958388411084115e-14 1.098632543412283915e-15 1.711146483296573095e-14 6.727996930194421465e-14
3.606000000000000000e+03 1.193505954742431641e+01 -1.893721389770507812e+01 7.146707000065671833e-14 -1.512220456820721759e-14 1.690345895210849242e-14 -4.740094628656946196e-14
3.607000000000000000e+03 7.630267333984375000e+01 -3.181537055969238281e+01 -5.029942865756968640e-14 -2.155689702806364016e-14 -2.155689702806364016e-14 5.134954622425767778e-14
3.608000000000000000e+03 7.589406585693359375e+01 -2.253138542175292969e+01 -1.119153885911121707e-14 -1.420492141881307679e-13 -4.597222870938132144e-14 1.323507411521776533e-13
3.609000000000000000e+03 7.674929046630859375e+01 -1.536632728576660156e+01 -6.674822234644869900e-14 -2.573611354410310081e-13 -9.723280259285940752e-14 -3.025842922575738836e-14
3.610000000000000000e+03 7.603068542480468750e+01 -1.613777732849121094e+01 -1.194478001752263818e-13 -1.198183398202004590e-13 -7.177983522236447422e-14 1.333752715475949868e-13
3.611000000000000000e+03 2.373301887512207031e+01 2.671443748474121094e+01 -2.738094649558549254e-14 -1.173469196027445913e-14 -1.173469196027445913e-14 -1.490974329404742144e-14
3.612000000000000000e+03 2.585997581481933594e+01 2.835897636413574219e+01 1.595863334058825189e-13 1.827715225260345688e-13 1.027073594900805575e-13 7.393131246091755315e-14
3.613000000000000000e+03 2.213206481933593750e+01 -2.565797233581542969e+01 4.592826769941882326e-14 3.885505740937322816e-13 1.303436525379453315e-13 -6.119513533062170829e-14
3.614000000000000000e+03 7.679551696777343750e+01 -8.189056396484375000e+00 5.551984178929665614e-14 2.379421766768915342e-14 2.379421766768915342e-14 5.531185454316425720e-14
3.615000000000000000e+03 7.608149719238281250e+01 -8.973551750183105469e+00 6.731210234383125379e-14 5.172351804673402942e-14 3.571068543954322716e-14 1.024283485313208855e-14
3.616000000000000000e+03 7.617309570312500000e+01 2.136389923095703125e+01 -1.024850438346124049e-13 -1.354240612878865324e-13 -7.137273085912332338e-14 -8.168660382444278834e-15
3.617000000000000000e+03 7.603469085693359375e+01 -1.534682178497314453e+01 2.136108943808640026e-13 4.579657779304330267e-14 7.782224300742490719e-14 5.810763925150758125e-14
3.618000000000000000e+03 2.556776046752929688e+01 2.991966056823730469e+01 -7.344586263225306305e-15 -4.889862928632304762e-14 -1.687296407194144310e-14 4.540856216430147474e-14
3.619000000000000000e+03 2.360790634155273438e+01 2.442029571533203125e+01 -8.109925423815771139e-15 4.227526531966341317e-14 1.024960264638065041e-14 8.476949204432385199e-14
3.620000000000000000e+03 2.404923629760742188e+01 3.020316886901855469e+01 6.479724119464250198e-14 -2.581731757631683388e-13 -5.801278511394225568e-14 -2.314989495130585773e-14
3.621000000000000000e+03 7.657613372802734375e+01 -2.575959587097167969e+01 8.812861464896348807e-14 -5.373249046224104486e-14 1.031883657839037516e-14 6.897547176433135863e-14
3.622000000000000000e+03 7.539508819580078125e+01 -2.599342584609985352e+00 -2.047523934255168765e-13 -2.250038669921947121e-13 -1.289268713490498985e-13 -2.603141768982297766e-13
3.623000000000000000e+03 7.656953430175781250e+01 -2.732564163208007812e+01 -5.337504255849973012e-14 -2.058788117200935353e-13 -7.777615763883069522e-14 9.885940400718509768e-14
3.624000000000000000e+03 7.563027191162109375e+01 -3.026424980163574219e+01 1.275167715560424075e-13 -1.397637566661127928e-14 3.406211876682933848e-14 1.012919945402729338e-13
3.625000000000000000e+03 7.605053710937500000e+01 2.438132667541503906e+01 1.147151628246370625e-14 -2.695893367484630820e-13 -7.743534546217345493e-14 2.351476116959922563e-14
3.626000000000000000e+03 7.679922485351562500e+01 -7.394593715667724609e+00 -7.365002298352976706e-14 -3.975718951103324184e-13 -1.413665733952795822e-13 -3.287087873486520262e-14
3.627000000000000000e+03 7.609127044677734375e+01 -8.176941871643066406e+00 -3.528794145996397291e-14 -3.582555259395991953e-13 -1.180630436080007395e-13 -2.626619862095610353e-14
3.628000000000000000e+03 7.680123901367187500e+01 -4.997027397155761719e+00 8.040030636700598587e-14 -1.485465260997118064e-13 -2.044386524218538836e-14 -7.837426454354590177e-14
3.629000000000000000e+03 7.544016265869140625e+01 4.588251590728759766e+00 -1.290856663097375567e-13 -4.899564369671705055e-13 -1.857126377593359967e-13 1.079650285189595604e-13
3.630000000000000000e+03 7.669930267333984375e+01 2.518277549743652344e+01 -3.932508683382636427e-14 -1.769819235825434434e-13 -6.489210888473498362e-14 9.402809070637244138e-14
3.631000000000000000e+03 7.524408721923828125e+01 2.492092514038085938e+01 2.851985683206825772e-14 -1.250300454532296546e-13 -2.895305658634841905e-14 2.208702784469579461e-14
3.632000000000000000e+03 7.682163238525390625e+01 2.190592527389526367e+00 -3.304566364471794859e-13 -5.012237166653922549e-14 -1.141736987071706455e-13 -6.426005289949382471e-15
3.633000000000000000e+03 7.600333404541015625e+01 -1.852134132385253906e+01 1.436433979574991415e-13 8.443692658044107957e-14 6.842410074951385535e-14 -3.449013340892288261e-15
3.634000000000000000e+03 2.442997360229492188e+01 2.724687194824218750e+01 1.145262812536629315e-13 -8.817015314469683895e-14 7.906839110316185582e-15 3.372658868763117601e-14
3.635000000000000000e+03 7.539528656005859375e+01 1.179747295379638672e+01 7.704810232747952292e-14 -3.329869745823804683e-13 -7.678165964359121021e-14 9.535749536456090969e-15
3.636000000000000000e+03 7.684717559814453125e+01 1.977163887023925781e+01 9.754035009161207692e-14 -1.869517317646882115e-13 -2.682341755124145050e-14 -2.375030917376938500e-14
3.637000000000000000e+03 7.546811676025390625e+01 1.901524162292480469e+01 -1.359144069669861524e-14 -2.345796354472767797e-13 -7.445132970415949125e-14 -4.188803912562842624e-14
3.638000000000000000e+03 7.682791900634765625e+01 9.379203796386718750e+00 -3.292682695509724367e-14 -3.572436129469641619e-13 -1.170511306153657061e-13 1.952358427378432515e-15
3.639000000000000000e+03 7.613615417480468750e+01 1.739785385131835938e+01 1.743043507923189295e-13 -4.514340561524027295e-13 -8.313890618701427759e-14 -9.466144773422058289e-14
3.640000000000000000e+03 7.683105468750000000e+01 1.737089157104492188e+01 4.379365658091147195e-14 -7.273318774515813434e-14 -8.681859857493767069e-15 -1.741919732371408069e-13
3.641000000000000000e+03 7.604216766357421875e+01 -1.137791538238525391e+01 -6.507709410415174478e-14 -1.422675589531421925e-13 -6.220339591718818117e-14 1.817452675715366256e-14
3.642000000000000000e+03 7.681586456298828125e+01 -1.005885362625122070e+00 -4.498523949181265635e-13 -6.960543252887418930e-13 -3.437720214830713994e-13 -2.753797352910564156e-13
3.643000000000000000e+03 7.683477020263671875e+01 6.179098606109619141e+00 -1.015925421587494937e-13 -5.010491262343041985e-13 -1.807925011955424655e-13 1.076386362311963774e-13
3.644000000000000000e+03 7.614691162109375000e+01 1.820215797424316406e+01 1.545640107873322289e-13 -4.813565250062247503e-14 3.192850714719974725e-14 -4.742354512560220670e-14
3.645000000000000000e+03 7.617145538330078125e+01 2.057987213134765625e+01 1.007062272115333279e-13 1.346617045303033500e-13 7.061038087780371897e-14 3.232968566794190701e-14
3.646000000000000000e+03 7.681163787841796875e+01 1.338211727142333984e+01 4.965129598698964086e-14 -3.447284504295294871e-13 -8.852314904326738509e-14 -4.076143109567158251e-14
3.647000000000000000e+03 7.681108093261718750e+01 1.417489814758300781e+01 1.786615424831036747e-14 7.656922886261751521e-15 7.656922886261751521e-15 1.935913452114079725e-14
3.648000000000000000e+03 7.610236358642578125e+01 1.260455322265625000e+01 9.370622496267938528e-14 -2.343458814588889050e-13 -4.219189694886285591e-14 -2.399507289640567115e-14
3.649000000000000000e+03 7.683580780029296875e+01 6.975334644317626953e+00 2.108994131676950046e-14 -2.197161994444557509e-13 -5.958788014881130635e-14 -2.193801374285667127e-13
3.650000000000000000e+03 7.614138793945312500e+01 5.392408847808837891e+00 -1.078724579822200325e-13 -6.409933890096086717e-13 -2.246597547751749691e-13 7.809499439270436993e-14
3.651000000000000000e+03 7.681871795654296875e+01 -2.101764678955078125e-01 -5.333224096723543362e-13 -9.131390576403580761e-14 -1.873909014071806212e-13 -2.313034746376230189e-13
3.652000000000000000e+03 7.611112213134765625e+01 -1.792675495147705078e+00 -2.485084078622523673e-13 -3.123828778116288785e-13 -1.682673911231752362e-13 -3.077099935532706665e-13
3.653000000000000000e+03 7.603331756591796875e+01 -1.297149085998535156e+01 -1.825353832928672260e-13 -5.535397240943353003e-14 -7.136680162849254327e-14 1.626226856356414313e-14
3.654000000000000000e+03 7.676425933837890625e+01 -1.138670635223388672e+01 1.528682372744019635e-13 -7.173789015081644127e-14 2.433910379826247777e-14 -6.382434592768979065e-14
3.655000000000000000e+03 7.603664398193359375e+01 -1.217328262329101562e+01 7.238594489436533941e-14 -1.472840031630385377e-14 1.729726320401185624e-14 9.400438733637647704e-14
3.656000000000000000e+03 7.597724914550781250e+01 -2.011474418640136719e+01 4.329481177321910235e-14 -1.415733985122083483e-13 -2.948357703813631048e-14 1.998215435890064728e-14
3.657000000000000000e+03 7.672297668457031250e+01 -1.855377197265625000e+01 -1.246344014457648544e-14 4.040947535356026465e-14 8.383810139178660137e-15 1.081653823041713036e-13
3.658000000000000000e+03 7.599190521240234375e+01 -1.931544303894042969e+01 9.523809760031594351e-16 6.903458788778613076e-14 2.099609006621372398e-14 8.053369033927601506e-14
3.659000000000000000e+03 7.612427520751953125e+01 1.659548377990722656e+01 -5.756040853373625699e-14 -1.793271663840445215e-15 -1.780610300048182659e-14 -6.277935121626679327e-14
3.660000000000000000e+03 7.614588928222656250e+01 6.187446117401123047e+00 1.833862583815702718e-14 -3.123972434904143114e-13 -8.821758021347950174e-14 -1.662577546338375734e-13
3.661000000000000000e+03 7.611998748779296875e+01 1.099592304229736328e+01 6.927469123514662375e-14 -8.468821753896890736e-14 -4.624058314663158711e-15 -3.325443897030447293e-14
3.662000000000000000e+03 7.612693023681640625e+01 1.018849277496337891e+01 -6.517819595673601807e-14 -3.024391989018410110e-13 -1.102852211680785399e-13 -1.018057911735502363e-13
3.663000000000000000e+03 7.613471984863281250e+01 9.386762619018554688e+00 3.913971197925386614e-14 -1.662296331399887306e-13 -3.812697567059410153e-14 -4.212660426115670542e-14
3.664000000000000000e+03 7.611731719970703125e+01 -9.969620704650878906e-01 -3.526144762462657400e-13 -5.961859695161053629e-14 -1.236699273803737453e-13 -2.941433175588509252e-13
3.665000000000000000e+03 7.614669036865234375e+01 7.784524440765380859e+00 1.518426328412075116e-14 -1.307453087852697426e-13 -3.466831314212492909e-14 -1.186395003505841261e-13
3.666000000000000000e+03 7.614218139648437500e+01 8.587743759155273438e+00 -5.177754858437348673e-14 -3.424470180080768644e-13 -1.182673750599327889e-13 6.735242111212055849e-14
3.667000000000000000e+03 1.163083171844482422e+01 -2.255745887756347656e+01 3.932053996096550319e-14 1.541045123541057160e-13 5.802751671096090247e-14 1.065087417134041869e-13
3.668000000000000000e+03 1.069478225708007812e+01 -2.416964340209960938e+01 4.619020416802774309e-14 2.485505562217077413e-13 8.842222337353614070e-14 8.953256837090570186e-14
3.669000000000000000e+03 7.613160705566406250e+01 3.798250436782836914e+00 -1.247591981980156195e-13 -5.567286540629490244e-13 -2.044463638098056868e-13 -8.161364379449809192e-14
3.670000000000000000e+03 7.612808227539062500e+01 2.996704101562500000e+00 -1.480171237314142907e-13 -6.343591017060612458e-14 -6.343591017060612458e-14 5.681378964831305944e-14
3.671000000000000000e+03 7.612670135498046875e+01 2.198841333389282227e+00 -3.113745155811087351e-13 -2.706990718821106201e-13 -1.746220762389658065e-13 -9.605457976322867575e-14
3.672000000000000000e+03 7.610046386718750000e+01 -3.390269041061401367e+00 -1.696253543442133305e-13 -4.615796677168160222e-13 -1.893614930657816497e-13 -2.631767687891889418e-13
3.673000000000000000e+03 7.609729766845703125e+01 -4.192725658416748047e+00 -5.903285672792524252e-14 -7.105074314268586266e-14 -3.902508131643604716e-14 -1.619216371227805151e-13
3.674000000000000000e+03 7.609723663330078125e+01 -4.989934444427490234e+00 -1.817465042396396169e-13 -4.438989594738457223e-13 -1.876936377587928861e-13 -2.018072530916500962e-13
3.675000000000000000e+03 7.612668609619140625e+01 1.401915788650512695e+00 -3.919218736440216455e-13 -2.137174714544193277e-13 -1.816918062400377232e-13 -1.083913910232894851e-13
3.676000000000000000e+03 7.612538909912109375e+01 5.995458364486694336e-01 -5.482348516133717098e-13 -1.663313584088221830e-13 -2.143698630066581678e-13 -1.061205905593907983e-13
3.677000000000000000e+03 7.609720611572265625e+01 1.340094947814941406e+01 -1.625845860936739329e-14 -1.899717091535108038e-13 -6.186904829598438571e-14 1.338661576337149550e-13
3.678000000000000000e+03 7.609886932373046875e+01 -5.785338401794433594e+00 8.835004261390291824e-15 -8.771546585861073053e-14 -2.366413881797931051e-14 -7.116112170010846505e-14
3.679000000000000000e+03 7.609889221191406250e+01 -6.585236072540283203e+00 -1.463566545517255846e-13 -2.914790262452393588e-13 -1.313507001733313362e-13 -7.985720239375368457e-14
3.680000000000000000e+03 7.611241149902343750e+01 1.579302501678466797e+01 1.206401786194716275e-13 -1.999272871821416997e-13 -2.378613189117466387e-14 -1.377628784974497395e-15
3.681000000000000000e+03 7.610214233398437500e+01 1.498975563049316406e+01 -4.855927061820329571e-14 -8.943753805048734740e-14 -4.139904361704672964e-14 1.274548229544120170e-13
3.682000000000000000e+03 7.563140869140625000e+01 -2.876396751403808594e+01 -2.685834961350269147e-15 2.172440287558086158e-14 5.711570268390059324e-15 -2.133831678789287895e-14
3.683000000000000000e+03 7.603255462646484375e+01 -1.376956844329833984e+01 7.435237592712945487e-14 -1.388564319136729314e-14 1.814002032894841687e-14 4.941549556700119972e-14
3.684000000000000000e+03 7.606732177734375000e+01 -9.775403022766113281e+00 -9.821969762036433793e-14 -3.623508014905657548e-13 -1.381711449898945232e-13 -1.967609289475064083e-13
3.685000000000000000e+03 7.605254364013671875e+01 -1.057882976531982422e+01 1.004118527691763574e-13 -7.134372167474575810e-14 8.720440514175305941e-15 -3.109287865154727881e-14
3.686000000000000000e+03 2.448949241638183594e+01 2.789076995849609375e+01 -6.174446669010222322e-15 -4.839714173583524459e-14 -1.637147652145364007e-14 -7.323858858786225223e-14
3.687000000000000000e+03 2.436192512512207031e+01 1.106491088867187500e+01 -6.881076790180365443e-14 2.907662988421017003e-13 6.658666267022120278e-14 8.436082236419617519e-15
3.688000000000000000e+03 2.434786415100097656e+01 1.186728286743164062e+01 2.234168830028780001e-14 3.984580677560134454e-13 1.262399337625605411e-13 6.699765491469025086e-15
3.689000000000000000e+03 2.366170501708984375e+01 8.725583076477050781e+00 -2.320038692410486547e-13 2.208264089165537514e-13 -3.353238690271534081e-15 4.653553950062332134e-14
3.690000000000000000e+03 2.437094116210937500e+01 1.026392841339111328e+01 -3.437838054054336012e-14 4.656513889755853342e-13 1.293818974483149087e-13 3.528247301525649915e-14
3.691000000000000000e+03 1.042073631286621094e+01 -2.489144325256347656e+01 4.135017998038552356e-14 1.549743542045636802e-13 5.889735856141886661e-14 5.146708729228226253e-14
3.692000000000000000e+03 1.163897991180419922e+01 -2.517290687561035156e+01 -5.127784996747028479e-14 1.152766304721858370e-13 1.919963313497512897e-14 4.329058338474640888e-14
3.693000000000000000e+03 2.433365440368652344e+01 1.266886520385742188e+01 -1.199954035874944980e-13 8.582625034931831709e-14 -1.025074529382649646e-14 6.527620020983218238e-15
3.694000000000000000e+03 7.595502471923828125e+01 -2.091987991333007812e+01 8.805247655140069352e-14 2.207405672095472116e-13 9.263791312828437152e-14 2.704627361372995142e-14
3.695000000000000000e+03 2.437447547912597656e+01 9.459670066833496094e+00 -1.327460412642658683e-13 3.091164206114188628e-13 5.291111583702497179e-14 -6.076661797447396873e-14
3.696000000000000000e+03 7.505070495605468750e+01 -2.659339332580566406e+01 -3.549674524585752500e-14 -2.897185800727203331e-13 -9.756459556269428401e-14 -4.534793493406880094e-14
3.697000000000000000e+03 7.602297210693359375e+01 -1.693242835998535156e+01 9.084548976794060149e-14 -1.440700179598450315e-13 -1.596735710231861338e-14 -8.183629466325512049e-16
3.698000000000000000e+03 7.601375579833984375e+01 -1.772739791870117188e+01 -6.120237915638662707e-14 -9.485601459033668470e-14 -4.681752015689606694e-14 5.573383958122277160e-14
3.699000000000000000e+03 7.476847839355468750e+01 -3.313344192504882812e+01 3.999998235740785668e-14 1.315202287355266009e-13 5.145606231144080056e-14 1.248888162618021561e-14
3.700000000000000000e+03 2.432063293457031250e+01 1.426063060760498047e+01 -1.509362059436917397e-14 2.680370031829526489e-13 7.588301189666302182e-14 3.921171655603405970e-14
3.701000000000000000e+03 2.411690711975097656e+01 1.984182357788085938e+01 1.109469368590007554e-13 4.754868916136134604e-14 4.754868916136134604e-14 8.303919685659529037e-15
3.702000000000000000e+03 2.358232879638671875e+01 1.832964515686035156e+01 -2.398415294764966871e-14 2.871022376001869381e-13 7.893542725923366477e-14 1.323536820505705203e-13
3.703000000000000000e+03 2.431921768188476562e+01 1.505579566955566406e+01 -5.833812030458726539e-14 2.074889874715060700e-14 -1.127676562019805026e-14 9.369341104825332223e-14
3.704000000000000000e+03 2.432430648803710938e+01 1.346648502349853516e+01 -6.440982187709554108e-14 4.102221221134044749e-14 -7.016283069133117528e-15 -7.781175843360379346e-15
3.705000000000000000e+03 2.360872268676757812e+01 1.673633384704589844e+01 -3.309242189628545938e-14 4.433270157228053066e-13 1.230703771315164174e-13 5.235670566799272008e-14
3.706000000000000000e+03 2.346433067321777344e+01 2.215006446838378906e+01 1.583306341666323308e-14 9.828749413746257213e-14 3.423616709683115211e-14 6.165066287339149298e-14
3.707000000000000000e+03 1.112870216369628906e+01 -1.683729934692382812e+01 3.354395483167599279e-14 -2.143787670169997051e-13 -5.425044094509168247e-14 2.425934615950947615e-13
3.708000000000000000e+03 1.187821006774902344e+01 -1.746453475952148438e+01 6.527941300580111794e-14 -6.352500448413012091e-14 5.263220271057070763e-16 -4.591719528473231504e-14
3.709000000000000000e+03 2.557526588439941406e+01 2.693122863769531250e+01 8.862101184186135794e-14 -5.352146406189389749e-14 1.052986551983636429e-14 2.799477602586763342e-14
3.710000000000000000e+03 2.406100654602050781e+01 2.055764961242675781e+01 8.995478380192586942e-14 -9.870079878187762445e-14 -2.623802926974574089e-15 1.150171402347285876e-13
3.711000000000000000e+03 2.471017456054687500e+01 1.985670661926269531e+01 7.966214087039638625e-14 3.414091993597830055e-14 3.414091993597830055e-14 1.254140156526153960e-13
3.712000000000000000e+03 2.404534149169921875e+01 2.125395774841308594e+01 1.063938095068571454e-13 2.743521013669203423e-13 1.142237752950123197e-13 9.259460602775715365e-14
3.713000000000000000e+03 2.431433105468750000e+01 1.585695743560791016e+01 -3.197829913197114404e-14 3.294271322742958752e-13 8.923464994269741934e-14 6.768108344818238309e-14
3.714000000000000000e+03 2.420091438293457031e+01 1.906919479370117188e+01 8.588422128422840141e-14 1.969358378629826323e-13 8.484601638891059450e-14 1.136988249318855726e-14
3.715000000000000000e+03 1.258529376983642578e+01 -1.192050647735595703e+01 1.412858325206814078e-14 9.755700614748688548e-14 3.350567571872367645e-14 4.235301277982599089e-14
3.716000000000000000e+03 1.188291358947753906e+01 -1.129658126831054688e+01 7.813921628881462245e-14 1.249901332607550319e-13 6.093880960825540094e-14 -2.523119212204712886e-14
3.717000000000000000e+03 2.418270301818847656e+01 2.265427780151367188e+01 -5.167539217576988184e-15 -1.394675119750082848e-13 -4.339051294373168222e-14 3.293342703582224917e-14
3.718000000000000000e+03 1.191050910949707031e+01 -1.006967735290527344e+01 6.495079132732076155e-14 1.650889033767352632e-13 6.901190773359044961e-14 1.158012894559787287e-13
3.719000000000000000e+03 1.178668785095214844e+01 -2.601352882385253906e+01 4.212033960547881262e-14 1.553044260034497359e-13 5.922743036030492236e-14 7.085397400090689968e-14
3.720000000000000000e+03 7.581250762939453125e+01 -2.415683555603027344e+01 6.555572870572262678e-14 7.384626357674964336e-14 4.182059836236803885e-14 -9.120554653315945948e-14
3.721000000000000000e+03 7.578691101074218750e+01 -2.496932220458984375e+01 1.077705362017428170e-13 6.906284490690653421e-14 5.305001568784752097e-14 -1.045688560446974210e-17
3.722000000000000000e+03 2.437089347839355469e+01 7.834688663482666016e+00 -1.916718330276581672e-13 1.237341934641478236e-13 -2.038129322430581869e-14 4.565740011541405408e-14
3.723000000000000000e+03 2.437454414367675781e+01 8.649935722351074219e+00 -6.040349833811783919e-14 2.943694279219227772e-13 7.018977819751512359e-14 4.650091957000314358e-14
3.724000000000000000e+03 4.184222698211669922e+00 -3.024703025817871094e+01 3.393095063274932655e-14 2.890475402431147423e-13 9.689354218056153711e-14 -2.438069481003855843e-14
3.725000000000000000e+03 3.794823408126831055e+00 -6.448856830596923828e+00 1.276692239340210255e-13 1.462172803624525730e-13 8.216594993368936395e-14 -1.513593124533724188e-13
3.726000000000000000e+03 2.361688423156738281e+01 5.471407413482666016e+00 -6.233369245436546843e-15 2.260832986751212803e-13 6.595497937947683575e-14 -2.740571373896320828e-14
3.727000000000000000e+03 2.309431266784667969e+01 -9.706809043884277344e+00 9.805536645233342563e-14 4.537822754276804593e-13 1.655512884982460187e-13 -2.801470671111652710e-14
3.728000000000000000e+03 3.920992136001586914e+00 -2.156587600708007812e+01 1.048317791081665451e-13 2.279317143014103486e-13 9.982904666762035251e-14 -6.066269719624123313e-14
3.729000000000000000e+03 8.041673660278320312e+00 -2.393210601806640625e+01 8.958147266514837614e-14 8.414300614774383735e-14 5.211734432149402185e-14 8.993312008726689344e-14
3.730000000000000000e+03 3.937443494796752930e+00 -2.238167762756347656e+01 -1.624784359247240240e-14 -6.963361721138089724e-15 -6.963361721138089724e-15 -1.100020614419432163e-13
3.731000000000000000e+03 7.590885925292968750e+01 -3.442156600952148438e+01 -6.275711829546726239e-14 -1.183978045812827951e-13 -5.434647754065137504e-14 5.868611532063722214e-14
3.732000000000000000e+03 3.151213645935058594e+00 -8.050973892211914062e+00 1.010473985301602040e-13 8.905697631168135731e-14 5.703131109729975279e-14 1.248664664504559041e-13
3.733000000000000000e+03 3.834799051284790039e+00 -7.204418182373046875e+00 1.062528090143254056e-13 9.128786458310542140e-14 5.926220614498739492e-14 9.648525197119423025e-15
3.734000000000000000e+03 4.615772724151611328e+00 -1.260727310180664062e+01 2.199471819410402096e-14 2.381810569086761920e-13 7.805273083676816936e-14 3.675395559188561478e-14
3.735000000000000000e+03 3.223644018173217773e+00 -2.408264923095703125e+01 4.462012695633822690e-14 8.774933362397374648e-14 3.971083919053312872e-14 6.559665733773395457e-14
3.736000000000000000e+03 3.898067712783813477e+00 -1.511120891571044922e+01 -4.977036171431928335e-14 1.159226929942427931e-13 1.984569904516387401e-14 2.968027164101591509e-14
3.737000000000000000e+03 3.176431894302368164e+00 -1.359292030334472656e+01 4.105720483645741714e-14 2.234752096916259312e-13 7.935972300317228889e-14 -9.379993729983181205e-15
3.738000000000000000e+03 4.608425140380859375e+00 -1.749855232238769531e+01 -4.203353905717598094e-14 5.061205157774230357e-14 2.573553756169896789e-15 -4.110108114312518990e-14
3.739000000000000000e+03 3.900967836380004883e+00 -1.674211502075195312e+01 -2.156314982528027141e-14 1.737624394414563622e-13 4.565978874832531120e-14 -3.443308870454062087e-14
3.740000000000000000e+03 3.902667999267578125e+00 -1.592531585693359375e+01 3.513058645528664703e-14 1.980597624925625744e-13 6.995710163503615631e-14 7.643809016293242036e-16
3.741000000000000000e+03 3.178718090057373047e+00 -1.682116508483886719e+01 -4.874816912983637174e-14 2.307381445198347647e-13 5.459699261699951789e-14 8.535105131338149853e-14
3.742000000000000000e+03 3.941697597503662109e+00 -2.484491539001464844e+01 3.659232476489054919e-14 3.855789860031204330e-14 2.254506599312124104e-14 3.926801714197215853e-14
3.743000000000000000e+03 3.949744224548339844e+00 -2.403802490234375000e+01 -9.243274988999811842e-15 1.561669223841891108e-13 4.407709413385349495e-14 -6.965050958944798976e-14
3.744000000000000000e+03 3.867853641510009766e+00 -7.969532012939453125e+00 -8.736425719955889097e-15 1.792596155065009911e-13 5.115695464897457301e-14 -6.862657550522552330e-14
3.745000000000000000e+03 3.182873249053955078e+00 -9.608037948608398438e+00 3.701116561664885563e-14 3.361185570323332872e-13 1.119389208604527897e-13 7.917008249067741810e-14
3.746000000000000000e+03 3.868482351303100586e+00 -1.916049766540527344e+01 -4.168022467421726718e-14 1.651408366607973188e-13 3.703818596766626781e-14 -6.023517256270767561e-15
3.747000000000000000e+03 3.901453256607055664e+00 -2.076314353942871094e+01 5.983228642354385118e-14 2.543971435418901361e-13 9.426883102250926960e-14 -1.674485711493280821e-14
3.748000000000000000e+03 3.879697322845458984e+00 -1.996233940124511719e+01 4.489594460088675021e-14 2.479958512852098451e-13 8.786754554209255663e-14 2.504782981775730694e-14
3.749000000000000000e+03 3.905690431594848633e+00 -1.189870262145996094e+01 -3.804671760477586206e-14 1.666980626886110928e-13 3.859540183108467470e-14 -3.810506123418273827e-14
3.750000000000000000e+03 3.914700269699096680e+00 -1.110382175445556641e+01 -5.800689654089294378e-14 3.182720200670813293e-13 7.807953773548287346e-14 7.235209068152947953e-14
3.751000000000000000e+03 3.917798519134521484e+00 -1.030981636047363281e+01 4.438834147251977114e-14 4.307821189607902168e-13 1.425511320313557762e-13 4.249054382540577712e-14
3.752000000000000000e+03 3.982654333114624023e+00 -2.793152618408203125e+01 1.035692189020435972e-13 3.646434554045036025e-13 1.404637989038323709e-13 -2.185924374452016816e-13
3.753000000000000000e+03 3.939240455627441406e+00 -2.641267967224121094e+01 5.884700838193522923e-15 1.397748561858536132e-13 4.369786731897237764e-14 -1.451837172076857196e-14
3.754000000000000000e+03 4.898197650909423828e+00 -3.007032775878906250e+01 -2.343584310990354247e-14 1.272089123491651486e-13 3.113192009415212402e-14 -1.086045316178729792e-13
3.755000000000000000e+03 4.533063411712646484e+00 -3.300448989868164062e+01 -4.075970992472276178e-14 1.655353507263104818e-13 3.743269325691585270e-14 -3.471445272082776534e-14
3.756000000000000000e+03 3.573895454406738281e+00 -3.395862960815429688e+01 -1.563920298602514136e-14 3.135541143135106568e-13 8.937447814163015924e-14 3.735554210794814201e-14
3.757000000000000000e+03 5.580439090728759766e+00 -3.129640960693359375e+01 6.730979841421472210e-14 1.889753815671052495e-13 7.688555331676963367e-14 1.171300063234140265e-13
3.758000000000000000e+03 2.325917053222656250e+01 -2.649976730346679688e+01 5.127726127957194305e-15 5.283335075857709118e-13 1.600383643966460379e-13 -7.818261825703193280e-14
3.759000000000000000e+03 2.415422058105468750e+01 -2.721534919738769531e+01 2.918540111191206265e-14 4.013911056831298563e-13 1.291729445846226398e-13 -1.687955568233697606e-14
3.760000000000000000e+03 1.257000732421875000e+01 -2.754322052001953125e+01 -4.491492830330061359e-14 7.225264223725824664e-14 8.201314349593879366e-15 5.987026060463515598e-14
3.761000000000000000e+03 3.953483104705810547e+00 -2.717809486389160156e+01 -1.158153705316938842e-13 -4.963516170341034095e-14 -4.963516170341034095e-14 2.347328027210628804e-14
3.762000000000000000e+03 4.442144393920898438e+00 -3.201643371582031250e+01 -3.667140376084621067e-14 3.045403285020092943e-13 8.036067877760164069e-14 4.107758444916835561e-14
3.763000000000000000e+03 2.431146621704101562e+01 4.581759452819824219e+00 -7.753679290420020798e-14 2.870265873936017620e-13 6.284693766919410840e-14 1.296484129770366853e-14
3.764000000000000000e+03 2.530178833007812500e+01 3.094607734680175781e+01 6.347515151298652181e-14 1.644564882495244684e-13 6.837949260637965487e-14 1.747463380899103805e-15
3.765000000000000000e+03 2.974737882614135742e+00 -5.003630638122558594e+00 8.166682391105850591e-14 1.212459393138982239e-14 2.813742653858062465e-14 1.089679900674080104e-13
3.766000000000000000e+03 4.886611938476562500e+00 -3.396896362304687500e+01 4.944795048140819549e-14 3.643241036545979972e-13 1.241316077704723853e-13 2.770421661990509626e-14
3.767000000000000000e+03 6.078110122680664062e+01 2.637118339538574219e+01 3.531047423042683181e-15 5.047737401675522761e-13 1.524914363618817825e-13 3.702599208135759490e-14
3.768000000000000000e+03 2.271132469177246094e+01 -2.315939140319824219e+01 -2.921467118243738226e-14 5.364908278911173500e-13 1.521828453185380958e-13 4.296990009904771979e-14
3.769000000000000000e+03 6.191339492797851562e+01 2.599413299560546875e+01 1.304085962480772132e-13 5.588939887605191836e-14 5.588939887605191836e-14 6.785171654134086738e-14
3.770000000000000000e+03 2.410379791259765625e+01 4.823411405086517334e-01 -5.284478976912317105e-14 6.885412921243949658e-14 4.802802595324550186e-15 -9.632925560736430026e-14
3.771000000000000000e+03 7.382814407348632812e+00 -4.706714630126953125e+00 3.456792618534813843e-14 6.056577629828460707e-14 2.854011108390300255e-14 2.356230512892860951e-14
3.772000000000000000e+03 1.146238994598388672e+01 -7.128156185150146484e+00 1.283893323822610580e-14 9.700430020874450943e-14 3.295296977998130039e-14 1.896950444760150262e-14
3.773000000000000000e+03 2.385187721252441406e+01 -8.929440498352050781e+00 1.149638245928966129e-13 3.695268375146498752e-13 1.453472081190329557e-13 -1.490154570918389432e-15
3.774000000000000000e+03 2.392930412292480469e+01 -1.064506912231445312e+01 4.951760369472681111e-14 4.787313124046677082e-13 1.584746738133788191e-13 -4.951664485343051925e-14
3.775000000000000000e+03 4.499900817871093750e+00 -6.371570110321044922e+00 6.879998686645100170e-14 -1.626523995514311122e-14 1.576042356517259879e-14 1.418412997868318329e-14
3.776000000000000000e+03 5.171712875366210938e+00 -5.559351921081542969e+00 2.290212764983860783e-14 5.556614738645715423e-14 2.354048217207554972e-14 1.551143484219540819e-14
3.777000000000000000e+03 5.906524658203125000e+00 -5.498558521270751953e+00 4.887066025840471062e-14 2.954502690676735766e-13 1.032962777813839494e-13 -9.002371195504163537e-14
3.778000000000000000e+03 2.356017684936523438e+01 3.827217102050781250e+00 2.335804101611586685e-15 2.297558031414542734e-13 6.962748384580982886e-14 6.643383082148221486e-14
3.779000000000000000e+03 2.294828414916992188e+01 -1.392054653167724609e+01 1.763174635048721239e-14 6.480697597489870621e-13 1.997104467476445988e-13 -5.215297730351911576e-14
3.780000000000000000e+03 6.648533344268798828e+00 -5.450961589813232422e+00 1.610153050929548357e-14 1.441535015271264153e-13 4.807650927211339076e-14 -6.588081317461524922e-14
3.781000000000000000e+03 1.170918083190917969e+01 -3.045476531982421875e+01 -1.377154277117445536e-13 -2.420246891354088659e-13 -1.139220418304096039e-13 8.182210876721274229e-14
3.782000000000000000e+03 7.396111965179443359e+00 -5.419653892517089844e+00 1.643714190365658245e-14 2.815501738001602305e-13 8.939619606639775951e-14 -1.242635551748638711e-13
3.783000000000000000e+03 6.998689270019531250e+01 2.489119338989257812e+01 -1.188786482447801163e-13 1.549312707207345374e-13 1.081578911447857866e-14 -4.909692647553885736e-14
3.784000000000000000e+03 2.436227607727050781e+01 7.019943237304687500e+00 3.581151962971616809e-14 4.271063212303582990e-13 1.388753614059781705e-13 1.383748767424999165e-14
3.785000000000000000e+03 2.260091018676757812e+01 -1.904508781433105469e+01 6.319117185895825606e-14 5.303423715810606787e-13 1.780600677753901850e-13 1.694684122680977911e-15
3.786000000000000000e+03 1.106338882446289062e+01 -1.611189079284667969e+01 -4.888189191528530264e-14 2.993072640861821343e-13 7.512760758551090268e-14 3.182216724286965337e-14
3.787000000000000000e+03 2.393360137939453125e+01 -1.152936744689941406e+01 1.208377626069458491e-14 4.398127641160737289e-13 1.355689649082392201e-13 -3.174799426174448880e-14
3.788000000000000000e+03 2.391760063171386719e+01 -3.443634271621704102e+00 -3.728350195578416376e-15 4.101606749552788589e-13 1.219297015783715743e-13 -4.993503508366088639e-14
3.789000000000000000e+03 2.394991874694824219e+01 -2.650145292282104492e+00 -1.865005783000580480e-14 4.495166175053078028e-13 1.292599653614917576e-13 -1.335914343557342843e-13
3.790000000000000000e+03 6.492811584472656250e+01 2.591435623168945312e+01 3.950759532890535386e-14 -2.575738559072726641e-13 -6.541988494977377111e-14 8.629419878322663884e-14
3.791000000000000000e+03 2.389096641540527344e+01 -9.770909309387207031e+00 9.038400588948572456e-15 3.927566551067268596e-13 1.205385211132739554e-13 1.010732016948324118e-15
3.792000000000000000e+03 1.167079734802246094e+01 -1.514753246307373047e+01 -1.137971281876121177e-13 6.560717409880706397e-14 -1.445698893714694733e-14 1.792161415404831641e-15
3.793000000000000000e+03 1.178345584869384766e+01 -2.829674339294433594e+01 5.001232345196605228e-15 4.789433281394972486e-14 1.586866929363401485e-14 5.229536015382077463e-14
3.794000000000000000e+03 1.183394050598144531e+01 -2.755601882934570312e+01 -5.647382789273486248e-14 -6.995401843510815065e-14 -3.792835322072654614e-14 3.924329733243948903e-14
3.795000000000000000e+03 1.174315643310546875e+01 -1.349662017822265625e+01 -8.573736101776755630e-15 -3.674458147825835144e-15 -3.674458147825835144e-15 7.386303482910527851e-14
3.796000000000000000e+03 2.424588203430175781e+01 2.922225475311279297e+00 1.611382773362372151e-14 2.356606663284077641e-13 7.553234703276331952e-14 1.352265332045868296e-13
3.797000000000000000e+03 2.428260612487792969e+01 3.751035928726196289e+00 -1.140979722676202165e-14 2.238648312948357533e-13 6.373651199919130872e-14 -5.743559653489244132e-14
3.798000000000000000e+03 2.349264335632324219e+01 -1.575729846954345703e+01 -1.048563430636369198e-14 4.987666096106790903e-13 1.464842922524814406e-13 7.743599598347694624e-14
3.799000000000000000e+03 2.367201995849609375e+01 -1.500761699676513672e+01 -5.775475854941786169e-14 5.700102933062223265e-13 1.536766590717886238e-13 1.234722773243296379e-13
3.800000000000000000e+03 2.398557853698730469e+01 -1.855008840560913086e+00 9.511883874947432704e-14 5.440256535191312359e-13 1.917433497134607423e-13 -9.344527782855285847e-14
3.801000000000000000e+03 2.278549575805664062e+01 -2.795997238159179688e+01 -5.828076368032217725e-16 4.115087719365473351e-13 1.232777850071128944e-13 3.863705891143064119e-14
3.802000000000000000e+03 1.162104988098144531e+01 -3.107586860656738281e+01 3.823025270378692386e-14 1.536372347702916197e-13 5.756024590341038416e-14 1.178655968398639731e-13
3.803000000000000000e+03 1.064333915710449219e+01 -3.263890075683593750e+01 4.644071585624409693e-14 -3.728552297639631252e-14 2.746558753338929938e-15 3.697302541709988899e-14
3.804000000000000000e+03 2.378597640991210938e+01 -1.416521072387695312e+01 -8.558218966402825201e-14 6.038351784733164695e-13 1.554759061295554745e-13 1.059137180086169860e-13
3.805000000000000000e+03 1.264705467224121094e+01 -1.964549636840820312e+01 6.228238004545375017e-14 -1.563113516660913360e-13 -2.820868911449902344e-14 6.000272978132215052e-14
3.806000000000000000e+03 1.166841506958007812e+01 -6.392637729644775391e+00 -1.919574355968133722e-14 1.290261029528866343e-13 3.294910730974182078e-14 -1.579897881086572003e-14
3.807000000000000000e+03 1.214549732208251953e+01 -9.549263000488281250e+00 1.004996053825119029e-13 3.004203331415100653e-13 1.202759815572065905e-13 3.791370632700262477e-14
3.808000000000000000e+03 5.238980865478515625e+01 2.641034889221191406e+01 -7.082053059905045814e-15 -1.860389555081998214e-13 -5.793630142693698137e-14 1.108291992793324077e-13
3.809000000000000000e+03 5.247985076904296875e+01 2.707380485534667969e+01 1.229414383881535788e-13 1.441910826849301941e-13 8.013975903243056309e-14 3.622467180820071464e-14
3.810000000000000000e+03 7.260176086425781250e+01 2.609974098205566406e+01 1.062477606979597700e-13 -4.596714312356600662e-14 1.808418730519720241e-14 1.725244296382766329e-13
3.811000000000000000e+03 7.539134979248046875e+01 2.429078865051269531e+01 -9.800823076288461833e-14 4.949836927056056046e-14 -1.455295777007085956e-14 -7.265357342437980814e-15
3.812000000000000000e+03 2.516530990600585938e+01 -2.762482643127441406e+01 4.119705675231268016e-15 3.448976943886544744e-13 1.047052256095831746e-13 -2.779355996111558535e-14
3.813000000000000000e+03 2.292725563049316406e+01 -2.881066703796386719e+01 -7.036017666254721845e-15 2.714902684174819170e-13 7.933627035492871182e-14 -7.800522075875667566e-15
3.814000000000000000e+03 7.465768432617187500e+01 -3.580012893676757812e+01 -1.885761520691747219e-15 -9.231008427264264515e-14 -2.825875214981354161e-14 3.313669800250433617e-14
3.815000000000000000e+03 5.936500072479248047e+00 -2.962091827392578125e+01 6.318335205078920436e-14 3.015842783837818786e-13 1.094302870974922515e-13 -6.914492578762726493e-14
3.816000000000000000e+03 1.148958683013916016e+01 -3.164251327514648438e+01 -6.637039821812823481e-14 -2.844445395910367991e-14 -2.844445395910367991e-14 1.449149367128629851e-13
3.817000000000000000e+03 2.263075065612792969e+01 -2.713832283020019531e+01 3.714855436069350314e-14 4.276793491835712002e-13 1.394483758066639156e-13 -5.632399115249736576e-14
3.818000000000000000e+03 2.177364540100097656e+01 -2.731515502929687500e+01 7.603691439504733918e-14 5.815986255965077678e-13 1.972906701289828257e-13 -1.736699392084514564e-15
3.819000000000000000e+03 3.733211040496826172e+00 -3.651960754394531250e+01 3.208573679100087950e-14 2.653812499614494058e-13 8.924009805861415900e-14 8.616206841971854602e-14
3.820000000000000000e+03 2.257309150695800781e+01 -3.821647644042968750e+01 -3.521480863529803662e-14 2.365381653567089071e-13 6.039700667761008224e-14 -1.106519999867668080e-13
3.821000000000000000e+03 7.839842987060546875e+01 -4.099077224731445312e+01 1.093679306494977580e-15 2.063479866577094812e-13 6.223249996925583893e-14 4.201475525453766957e-14
3.822000000000000000e+03 6.952395439147949219e+00 -4.162018585205078125e+01 -9.442147991213165059e-14 2.340393503996729407e-13 4.188535911338331363e-14 -3.823946334005536712e-15
3.823000000000000000e+03 5.866117954254150391e+00 -4.001637649536132812e+01 9.896756672641768282e-15 3.702490516867967818e-13 1.140437435242711017e-13 4.093953501942484974e-14
3.824000000000000000e+03 2.418176078796386719e+01 -3.264502716064453125e+01 1.486962442553366875e-14 4.066935048278874643e-13 1.264689308139166357e-13 -3.332083618897384303e-14
3.825000000000000000e+03 2.508508300781250000e+01 -3.629775238037109375e+01 -5.190546750006783117e-14 3.666378724058450000e-13 9.441971808360136165e-14 -5.510570027632971657e-14
3.826000000000000000e+03 2.623836326599121094e+01 -3.058926391601562500e+01 3.557482050777069013e-15 3.560944941694010879e-13 1.078955921460754419e-13 -4.010313741785627439e-14
3.827000000000000000e+03 7.326982879638671875e+01 -3.670253372192382812e+01 -4.125172425872847271e-14 -2.911704894120042963e-14 -2.111063094353913400e-14 2.976304708875339433e-14
3.828000000000000000e+03 7.592590332031250000e+01 -3.760715103149414062e+01 -2.632403572466052166e-14 8.593903448031112169e-14 1.788450098194789561e-14 -5.515047401440510526e-16
3.829000000000000000e+03 7.808576107025146484e+00 -3.877481460571289062e+01 -5.445536532008680985e-14 1.441176008826899890e-13 2.689867304047320606e-14 -3.370551111977170000e-14
3.830000000000000000e+03 2.594809341430664062e+01 3.090566635131835938e+01 8.383583134348795984e-15 9.509486432893524133e-14 3.104353390017203229e-14 1.142929880511983631e-13
3.831000000000000000e+03 2.668189430236816406e+01 3.037798309326171875e+01 4.958098547610395590e-14 6.699994020958194296e-14 3.497427838333212746e-14 -1.293512687369421932e-13
3.832000000000000000e+03 5.819522094726562500e+01 2.560044860839843750e+01 1.131626530762736005e-13 -6.587909200366642848e-14 1.418506764415579380e-14 7.383606530006470159e-14
3.833000000000000000e+03 2.722968292236328125e+01 3.029860115051269531e+01 4.841899179774261652e-14 -2.499995212744670486e-14 7.025712239901952400e-15 4.846381000504773606e-14
3.834000000000000000e+03 5.459857177734375000e+01 2.547639465332031250e+01 -1.390363112184836436e-13 -5.958698568201900581e-14 -5.958698568201900581e-14 1.199137902689606516e-13
3.835000000000000000e+03 2.489291763305664062e+01 1.251788616180419922e+00 -5.776307302482810990e-14 1.811236707491281628e-13 3.700817728441094245e-14 -1.136643066452190654e-13
3.836000000000000000e+03 2.264432525634765625e+01 -1.981989479064941406e+01 9.038071093132090533e-15 4.156319927985097085e-13 1.274010194216024239e-13 1.052292747296540432e-13
3.837000000000000000e+03 2.919960403442382812e+01 3.005552482604980469e+01 3.532648484719583259e-14 1.981437203982944206e-13 7.004105954076800256e-14 -7.975461653944582174e-14
3.838000000000000000e+03 7.431326293945312500e+01 2.478725242614746094e+01 1.039105528509963461e-13 1.017217790577097658e-13 6.168970092786454917e-14 6.676683674249755951e-14
3.839000000000000000e+03 7.372415161132812500e+01 2.505869102478027344e+01 -1.202783608727554278e-16 -1.601798663326825523e-13 -4.809004485861051448e-14 -7.430240775950502918e-14
3.840000000000000000e+03 1.027800464630126953e+01 -6.019260406494140625e+00 3.007716078691317907e-14 4.703997066000942251e-13 1.501430544562781799e-13 -5.191363967394294066e-14
3.841000000000000000e+03 9.651664733886718750e+00 -5.381105899810791016e+00 -4.301248552750387699e-14 2.103208151258209591e-13 5.019249921830830352e-14 -7.155384683203702689e-14
3.842000000000000000e+03 2.537210845947265625e+01 -4.998765945434570312e+00 -2.824854370873323278e-14 1.708972725703375439e-13 4.279461848907470389e-14 -2.810319285498439484e-14
3.843000000000000000e+03 6.923831176757812500e+01 2.493244361877441406e+01 1.175922152620717531e-13 -6.398070820975293449e-14 1.608344974400339328e-14 6.925101242910612978e-15
3.844000000000000000e+03 6.863875579833984375e+01 2.563098716735839844e+01 1.832335959394207348e-13 1.014041552550165592e-13 8.539132264782575699e-14 -1.220802566025483427e-13
3.845000000000000000e+03 5.616662597656250000e+01 2.597983360290527344e+01 5.823812298296621170e-14 2.079629871087895765e-13 7.986033302752673646e-14 1.018262690420830563e-13
3.846000000000000000e+03 6.245100402832031250e+01 2.528291320800781250e+01 1.288289136827658332e-13 1.924652386249559033e-13 9.638824298181108974e-14 5.583091972137348147e-14
3.847000000000000000e+03 2.979568099975585938e+01 2.948516082763671875e+01 9.705394311571718946e-14 1.788473882879948462e-13 8.277039942111361071e-14 -1.039229466370805710e-14
3.848000000000000000e+03 3.047519302368164062e+01 2.987533950805664062e+01 8.375859887935731274e-15 -8.791224177665327155e-14 -2.386091473602185153e-14 1.802524905866135368e-14
3.849000000000000000e+03 2.402210044860839844e+01 -1.745726585388183594e+01 3.248896851960718368e-14 6.544371164776685568e-13 2.060778305813804057e-13 6.766426476198170170e-14
3.850000000000000000e+03 2.382587242126464844e+01 -1.679147148132324219e+01 -8.874578995938728343e-14 4.137567025108701557e-13 9.750327715357665070e-14 4.504044503355654483e-14
3.851000000000000000e+03 2.925241470336914062e+01 3.065909767150878906e+01 -5.289649943648715158e-14 1.603338636987569621e-13 3.223120961749412205e-14 -4.390991354698801918e-14
3.852000000000000000e+03 7.144659423828125000e+01 2.475729370117187500e+01 -1.356695382122644067e-13 -5.814408199703025026e-14 -5.814408199703025026e-14 -1.652502834819779415e-15
3.853000000000000000e+03 2.463773918151855469e+01 -4.252893924713134766e+00 6.844923391112478495e-14 3.495920187449735872e-13 1.254123757968295116e-13 6.490736903031271710e-14
3.854000000000000000e+03 2.479532814025878906e+01 -1.066416263580322266e+01 -4.362072972253182301e-14 4.845658379756812018e-13 1.322835341700107081e-13 4.773476535921417074e-14
3.855000000000000000e+03 2.785251808166503906e+01 3.014297485351562500e+01 -1.941336199394049118e-15 2.736736889625418501e-13 8.151970445251580100e-14 2.619933384009984906e-14
3.856000000000000000e+03 3.180541419982910156e+01 2.954635429382324219e+01 -2.103758112810202863e-14 1.385936822934346474e-14 -2.153463530814390264e-15 -1.659755774659210648e-13
3.857000000000000000e+03 3.251453018188476562e+01 2.938704872131347656e+01 -5.083657290700510645e-14 -1.819154229381128585e-13 -6.982560146404082069e-14 -2.491059523370905970e-14
3.858000000000000000e+03 3.962171936035156250e+01 2.756530189514160156e+01 -1.044376987235223764e-13 2.386740809059550300e-14 -2.417108803691100927e-14 2.390364416007904197e-14
3.859000000000000000e+03 2.345368576049804688e+01 -1.901987457275390625e+01 7.987177813671003657e-14 5.603666944527241345e-13 1.920715377110721045e-13 3.314451781067338787e-14
3.860000000000000000e+03 2.435941123962402344e+01 -1.890035247802734375e+01 -3.542452044051104532e-14 5.795803832524260013e-13 1.632467625705194547e-13 -2.924646541114551967e-14
3.861000000000000000e+03 3.323390197753906250e+01 2.923321914672851562e+01 -7.813455421947293478e-14 -7.923718782889069279e-14 -4.721152261450908827e-14 -7.761378481097383486e-14
3.862000000000000000e+03 3.709193420410156250e+01 2.901360130310058594e+01 -1.408142943611426223e-13 1.226548159913298797e-13 -5.447842325097696642e-15 6.645680913127532952e-14
3.863000000000000000e+03 3.734512710571289062e+01 2.746107101440429688e+01 -1.153883168484790001e-13 -1.409540344686488478e-13 -7.690270403988563874e-14 7.882920932764797550e-14
3.864000000000000000e+03 3.634173583984375000e+01 2.920806694030761719e+01 -3.815051979839598206e-14 -1.536030688493311702e-13 -5.752607998244993470e-14 2.555053031942557812e-14
3.865000000000000000e+03 3.395961380004882812e+01 2.907828140258789062e+01 -8.413454937079845042e-14 -3.563143161598725239e-13 -1.321346596592012923e-13 -1.719670853471150923e-14
3.866000000000000000e+03 2.402241134643554688e+01 -1.071683764457702637e+00 8.648525087612810892e-16 2.748763402223713959e-13 8.272235571234534679e-14 -4.999888781535670457e-14
3.867000000000000000e+03 2.484747314453125000e+01 4.523113667964935303e-01 -1.304882986602820538e-13 2.872085707282534539e-13 4.701607484412784199e-14 4.746212535876727194e-16
3.868000000000000000e+03 7.015375518798828125e+01 2.558536720275878906e+01 1.075401500163532253e-13 -1.140396913186514372e-13 -1.949861586008163651e-15 -1.454675139025973785e-13
3.869000000000000000e+03 5.739328002929687500e+01 2.508455276489257812e+01 1.472699593567730614e-14 -8.519032511757410053e-14 -2.113899977100857502e-14 7.533393125893489417e-14
3.870000000000000000e+03 3.704862213134765625e+01 2.682763671875000000e+01 -1.357500944336800797e-13 1.477006586697929280e-13 3.585169016723970328e-15 -1.287799755072052688e-13
3.871000000000000000e+03 2.442490959167480469e+01 -2.429536628723144531e+01 4.426415288992513464e-14 4.764798581732843097e-13 1.562231924769411084e-13 -4.768968287762950786e-14
3.872000000000000000e+03 2.361142349243164062e+01 -2.327070236206054688e+01 2.401119532152370950e-14 3.076716670064733039e-13 9.950486344178360865e-14 -4.654938001898145661e-14
3.873000000000000000e+03 4.331769180297851562e+01 2.651968574523925781e+01 1.471866113147632382e-14 -8.519390298474330270e-14 -2.114257086191419915e-14 9.811225318507102444e-14
3.874000000000000000e+03 3.468756484985351562e+01 2.891713333129882812e+01 -1.442571377022888734e-13 -1.304509072378584600e-13 -8.241241619254963124e-14 -3.207798474546760814e-14
3.875000000000000000e+03 7.474694061279296875e+01 -3.039575576782226562e+01 4.921188578714021100e-14 1.583436479808339459e-13 6.226665911395271036e-14 1.585712063467291291e-15
3.876000000000000000e+03 4.038784027099609375e+01 2.758441352844238281e+01 -2.063458453584188224e-13 9.456986653196344794e-14 -3.353279432556297013e-14 1.057314297421042826e-13
3.877000000000000000e+03 4.113423919677734375e+01 2.753427886962890625e+01 -1.970180474927113456e-13 9.856748934850695365e-14 -2.953517150901946442e-14 -1.645088247212694171e-14
3.878000000000000000e+03 6.250113677978515625e+01 2.455260276794433594e+01 -5.629248152685950579e-14 2.275048639061028055e-13 5.136371539139934772e-14 2.070570819835693133e-13
3.879000000000000000e+03 6.312147521972656250e+01 2.594675254821777344e+01 -8.320701102410531236e-15 -4.931696530644479048e-14 -1.729130009206318597e-14 7.189921265781870630e-14
3.880000000000000000e+03 7.184357452392578125e+01 2.618505668640136719e+01 3.079502459784298762e-14 1.962016568093569169e-13 6.809900950435765488e-14 -2.529735318793080445e-13
3.881000000000000000e+03 4.260928344726562500e+01 2.733461570739746094e+01 -1.148246536915309424e-13 -1.407124606720919213e-13 -7.666113701959229032e-14 1.197266434214624975e-13
3.882000000000000000e+03 2.381674385070800781e+01 -7.334985733032226562e+00 -1.934899384269626876e-15 2.736764536780816881e-13 8.152246239179206100e-14 8.191869085199046663e-14
3.883000000000000000e+03 2.458889389038085938e+01 -5.793309688568115234e+00 6.018380848478617484e-17 1.830295897481404310e-13 5.492693227874580197e-14 9.288881106352467332e-14
3.884000000000000000e+03 4.994441604614257812e+01 2.537983512878417969e+01 -1.202845603068963820e-13 3.995136944249903788e-14 -2.409995759813238214e-14 1.532895717911569866e-13
3.885000000000000000e+03 5.533967208862304688e+01 2.539442443847656250e+01 -1.823977201101476681e-14 -9.931894309799307874e-14 -3.526761266922986970e-14 5.109134686501204392e-14
3.886000000000000000e+03 7.374270629882812500e+01 -3.240156173706054688e+01 1.986589061656052202e-14 2.795084635612418364e-15 6.798292787410118929e-15 4.591056132268941936e-14
3.887000000000000000e+03 7.506585693359375000e+01 -3.112967681884765625e+01 5.044314643179621804e-14 -2.528872022813238862e-13 -6.073321777129783716e-14 8.563180546594661990e-14
3.888000000000000000e+03 4.187472534179687500e+01 2.744566535949707031e+01 -2.774024601334950518e-14 3.083679687466978070e-13 8.418831224602657537e-14 8.203106840716858916e-14
3.889000000000000000e+03 6.383029937744140625e+01 2.536653709411621094e+01 -5.724470474297623911e-16 -4.599628444508334357e-14 -1.397061923070173906e-14 1.520170437013107501e-13
3.890000000000000000e+03 5.316004562377929688e+01 2.631447601318359375e+01 -2.660084947995501603e-14 8.010153412958687102e-14 1.605020539488955650e-14 -1.097129758733089017e-14
3.891000000000000000e+03 4.847061157226562500e+00 -2.931744575500488281e+01 5.423301578330076700e-14 3.892503181758544262e-13 1.330449964608015900e-13 3.173051827797673807e-14
3.892000000000000000e+03 5.000341033935546875e+01 2.606064033508300781e+01 8.382414228881585050e-15 -1.336603896139043623e-13 -3.758339058262775978e-14 5.483296921984098793e-14
3.893000000000000000e+03 5.076665115356445312e+01 2.595626640319824219e+01 -8.863631264502055962e-14 5.351490802688214921e-14 -1.053642070781516532e-14 4.837624712709237551e-14
3.894000000000000000e+03 2.493812751770019531e+01 2.070253849029541016e+00 1.502824320336829805e-14 4.181992209126295101e-13 1.299682339831950695e-13 7.498088792651930179e-14
3.895000000000000000e+03 2.466545677185058594e+01 -3.463961362838745117e+00 4.013831639022164000e-14 5.204625792842865195e-13 1.681802619260888698e-13 -9.510244019161548379e-14
3.896000000000000000e+03 8.151818275451660156e+00 -5.403538703918457031e+00 -4.801306989249583268e-14 1.166758204808326926e-13 2.059882483768787909e-14 -3.556914623405703357e-14
3.897000000000000000e+03 1.054333877563476562e+01 -7.927445411682128906e+00 2.924945035525164383e-14 3.785430627810393300e-13 1.223377546185136500e-13 -7.612401140488170986e-15
3.898000000000000000e+03 7.454201507568359375e+01 -2.948701667785644531e+01 3.019026679042594030e-14 -7.856321387715581306e-14 -1.451188344839260402e-14 -4.478397362152330974e-14
3.899000000000000000e+03 4.704034805297851562e+01 2.720743370056152344e+01 -6.466637121615992356e-14 2.010405866304312839e-13 4.091226394665505028e-14 7.813389014564228741e-14
3.900000000000000000e+03 4.846435165405273438e+01 2.624787712097167969e+01 -2.556446909360559488e-14 -5.670715158838553205e-14 -2.468148637400392753e-14 -3.576668109362031445e-14
3.901000000000000000e+03 6.397436141967773438e+01 2.474527168273925781e+01 -4.079095188794928939e-14 3.485257601184427179e-13 9.232043840338988172e-14 2.593790796295153411e-13
3.902000000000000000e+03 4.334309101104736328e+00 -3.109052848815917969e+01 2.855437173060297595e-14 4.239961246682577567e-13 1.357651512913504721e-13 -1.469978584927970899e-14
3.903000000000000000e+03 1.034541511535644531e+01 -1.627193260192871094e+01 1.309445173819367980e-13 1.933719297967512185e-13 9.729493415360640496e-14 7.339553362859310703e-14
3.904000000000000000e+03 1.117457675933837891e+01 -1.755838966369628906e+01 -3.516002254426962847e-14 3.068236921585816568e-14 -1.343295998523438839e-15 1.764690281923220194e-13
3.905000000000000000e+03 1.179431056976318359e+01 -5.653618335723876953e+00 -8.299615064221582683e-14 -3.556977981470157979e-14 -3.556977981470157979e-14 1.281856802507527066e-14
3.906000000000000000e+03 7.513972473144531250e+01 -2.249348831176757812e+01 7.876521429441701860e-14 -5.774538020062586208e-14 6.305950228137346958e-15 -9.301215261317205552e-14
3.907000000000000000e+03 7.496446990966796875e+01 -2.498846054077148438e+01 -6.866246259713479350e-14 -2.353060509028420677e-13 -9.119055066186126934e-14 -7.187333410721419291e-14
3.908000000000000000e+03 2.382612228393554688e+01 -8.122539520263671875e+00 -3.812017907822533302e-14 3.039194330228811580e-13 7.973977652220992640e-14 -2.617110900823144126e-14
3.909000000000000000e+03 2.457350730895996094e+01 -6.560643196105957031e+00 3.025328265356987123e-14 4.704751670712992162e-13 1.502185420325374832e-13 1.305492037173214270e-13
3.910000000000000000e+03 2.463782882690429688e+01 2.845814514160156250e+01 2.934660164616992306e-14 -3.991814203404414618e-13 -1.109504469635341772e-13 1.375367240886646303e-13
3.911000000000000000e+03 2.517303085327148438e+01 2.945296287536621094e+01 -4.190173310728668651e-15 -1.047354206400868959e-13 -3.267767729586007475e-14 -7.730753835482814806e-14
3.912000000000000000e+03 2.599622917175292969e+01 2.942158126831054688e+01 -2.942582294366072326e-14 -1.261106697585459568e-14 -1.261106697585459568e-14 9.302209339184103198e-14
3.913000000000000000e+03 4.551478195190429688e+01 2.683007049560546875e+01 -1.785460749517339685e-13 -3.076879706966420547e-14 -6.279446228404580999e-14 -5.911976569644532276e-15
3.914000000000000000e+03 4.923834609985351562e+01 2.615645408630371094e+01 -1.229806729542703980e-13 2.217996836542668326e-13 2.964570592050436160e-14 2.139218808333825245e-14
3.915000000000000000e+03 7.531465911865234375e+01 -1.534446620941162109e+01 -8.135180219357926457e-14 5.663684107749984709e-14 -7.414487657197467441e-15 -1.655461732662775499e-15
3.916000000000000000e+03 2.428912162780761719e+01 -1.621366882324218750e+01 -4.401903849564868521e-14 3.013913446071880831e-13 7.721168810651685144e-14 4.391542942554053919e-14
3.917000000000000000e+03 2.443022155761718750e+01 2.491491127014160156e+01 1.160140912373833211e-13 -4.178157386042213872e-14 2.226975318020928130e-14 6.586229195219058669e-15
3.918000000000000000e+03 2.501642417907714844e+01 2.714051818847656250e+01 4.443284797170030109e-14 -2.097120898160789726e-13 -4.958377390856631706e-14 -2.653542804324088289e-14
3.919000000000000000e+03 7.592688751220703125e+01 -2.172514724731445312e+01 3.029954420501711210e-14 2.188647890309300403e-13 7.474930234247639804e-14 -3.051112414139529015e-15
3.920000000000000000e+03 2.486550140380859375e+01 2.897252273559570312e+01 5.512593419937372730e-14 -4.500102412019132969e-14 3.037472854348129830e-15 -6.952866559405135316e-14
3.921000000000000000e+03 2.434585762023925781e+01 2.414132118225097656e+01 9.042025889962820862e-15 -8.762674423958352610e-14 -2.357541550488621157e-14 1.354327891153750407e-13
3.922000000000000000e+03 2.537118911743164062e+01 2.533732223510742188e+01 4.138882839970284278e-14 -1.195147767644316739e-13 -2.343778450941864933e-14 -2.667272191959543792e-14
3.923000000000000000e+03 7.527214813232421875e+01 -1.928592300415039062e+01 2.056008222830682519e-13 2.024920080787376286e-13 1.224278518190471954e-13 -1.019104505645129777e-13
3.924000000000000000e+03 7.538256072998046875e+01 -8.176844596862792969e+00 -2.598781107844561067e-14 -3.401310605236941564e-14 -1.800027513924450789e-14 -1.406386129516185024e-13
3.925000000000000000e+03 2.519503402709960938e+01 2.818863677978515625e+01 1.043164696740454464e-14 -2.700349980514632486e-13 -7.788099998891004350e-14 -1.012946643881226794e-13
3.926000000000000000e+03 7.603427886962890625e+01 -1.455987644195556641e+01 -4.459735193445245327e-14 -1.911315107106046490e-14 -1.911315107106046490e-14 -7.407623302192918591e-15
3.927000000000000000e+03 7.610803222656250000e+01 2.363518714904785156e+01 -1.419598505181295447e-14 -5.183494353687943812e-14 -1.980927832249783360e-14 1.097094098646009611e-14
3.928000000000000000e+03 7.529942321777343750e+01 -1.218170738220214844e+01 -1.921633425300273146e-13 -1.967330920567278429e-13 -1.166689357970374097e-13 -7.641818764152902288e-14
3.929000000000000000e+03 7.616690063476562500e+01 2.213194656372070312e+01 2.542995517938392847e-14 -8.060334355259463068e-14 -1.655201651196321067e-14 1.327194537470845030e-15
3.930000000000000000e+03 7.469032287597656250e+01 -1.820818066596984863e+00 -2.506271557477235401e-13 -1.760380713812861875e-13 -1.279995667834502027e-13 -5.152047069675001756e-14
3.931000000000000000e+03 7.549399566650390625e+01 2.210417938232421875e+01 4.090292625544451888e-14 6.328077439225060496e-14 3.125510917786900045e-14 -3.621157329070437414e-15
3.932000000000000000e+03 2.426388359069824219e+01 2.338524436950683594e+01 -1.679991764463612675e-14 -9.870186265525937586e-14 -3.465053222649616682e-14 1.753618273812526662e-13
3.933000000000000000e+03 7.540435791015625000e+01 -1.800923347473144531e+00 -2.697051566455388460e-13 -1.613388649025424004e-13 -1.293131996881607959e-13 -2.805928232818555301e-13
3.934000000000000000e+03 7.475237274169921875e+01 5.360047340393066406e+00 -1.257430168018561223e-13 -5.800257735048830465e-13 -2.117306438682853287e-13 1.590269935050972472e-13
3.935000000000000000e+03 7.547998809814453125e+01 1.980410575866699219e+01 6.489702167582905856e-14 -1.094398348528737019e-13 -1.336284429192657192e-14 -4.055167524474531660e-14
3.936000000000000000e+03 7.609642028808593750e+01 -7.383512020111083984e+00 7.309267530423643744e-14 3.132542985315005246e-14 3.132542985315005246e-14 -3.328660250537761323e-14
3.937000000000000000e+03 7.421030426025390625e+01 2.276693534851074219e+01 -3.590598752025754570e-14 2.591174074351859646e-13 6.696342970142349360e-14 -2.158895756393039433e-13
3.938000000000000000e+03 7.547919464111328125e+01 2.283767509460449219e+01 -2.394688858016816302e-14 -1.017648489890117525e-13 -3.771352194838033245e-14 -5.005162408665275731e-14
3.939000000000000000e+03 7.544844818115234375e+01 5.383773326873779297e+00 -1.995062440447205321e-14 -4.431842805067975899e-13 -1.389404677464359250e-13 -1.136406642615953033e-13
3.940000000000000000e+03 7.575984954833984375e+01 -2.803063011169433594e+01 8.156013164102235424e-14 3.495434261588555025e-14 3.495434261588555025e-14 1.163393925467104406e-13
3.941000000000000000e+03 7.503846740722656250e+01 -2.789288711547851562e+01 -4.522596896592775972e-14 1.407457592313143824e-13 2.865593775724234460e-14 -1.161137243348370554e-14
3.942000000000000000e+03 7.464006805419921875e+01 1.258652782440185547e+01 3.411504816163736520e-14 -3.971378076655235345e-13 -1.089068275123526719e-13 -4.275514336560086448e-14
3.943000000000000000e+03 7.478982543945312500e+01 1.980733299255371094e+01 -2.750756775680464339e-14 3.396198930806851313e-14 1.936326634785750372e-15 -2.365122453014899782e-15
3.944000000000000000e+03 7.616463470458984375e+01 1.979292106628417969e+01 9.178176610651761491e-14 -2.351706611565529403e-13 -4.301666648213152422e-14 -6.201792280679380154e-14
3.945000000000000000e+03 7.537953948974609375e+01 1.260455417633056641e+01 -2.782583191640597420e-14 -1.949291558245649925e-13 -6.682649496703857439e-14 1.482705830942870895e-13
3.946000000000000000e+03 4.631517887115478516e+00 -2.562878036499023438e+01 6.701337076399360715e-14 2.117238133945986700e-13 8.362115253707225193e-14 1.069547062541994706e-14
3.947000000000000000e+03 7.545448303222656250e+01 1.821711540222167969e+01 2.160662328307833002e-13 -2.047813551760493955e-13 3.385462999958639869e-15 4.250785040258407699e-14
3.948000000000000000e+03 7.543860626220703125e+01 1.741454124450683594e+01 2.405767371340544747e-14 -1.955688351063314401e-13 -5.145334841787779778e-14 1.344358245601931512e-13
3.949000000000000000e+03 7.548945617675781250e+01 2.058400535583496094e+01 3.831689909209335526e-15 -4.410879688300332890e-14 -1.208313166862172439e-14 -1.052926158534497197e-14
3.950000000000000000e+03 7.579093933105468750e+01 -2.576485252380371094e+01 1.524889698019393780e-13 -2.614948086895624996e-14 3.790184786574106457e-14 -1.243322732638087180e-14
3.951000000000000000e+03 7.614785003662109375e+01 6.983118057250976562e+00 -5.941093835426167202e-14 -4.829713018406067704e-13 -1.627146768018450373e-13 6.866164944550542937e-14
3.952000000000000000e+03 7.545589447021484375e+01 6.177898883819580078e+00 -5.480317060075658164e-14 -5.267475366478591159e-13 -1.744652057371343101e-13 1.088650925049755580e-13
3.953000000000000000e+03 7.612216949462890625e+01 -2.014423459768295288e-01 -3.708628727467494501e-13 -4.334469252704337139e-13 -2.412929339841440868e-13 -1.102443467461758364e-13
3.954000000000000000e+03 7.541410064697265625e+01 -1.004712581634521484e+00 -2.738572172852893338e-13 -2.088692717047702097e-13 -1.448179548285341567e-13 -1.786309544293124274e-13
3.955000000000000000e+03 2.506204223632812500e+01 1.101521968841552734e+01 1.765559879828189349e-14 4.193252190788643308e-13 1.310942457019570462e-13 7.021807587421699526e-14
3.956000000000000000e+03 7.543896484375000000e+01 9.372169494628906250e+00 -3.426257758412654120e-14 -2.891896520428732797e-13 -9.703566753284723068e-14 -3.236387191769309057e-14
3.957000000000000000e+03 7.541137695312500000e+01 1.098637199401855469e+01 -1.101361789447455677e-14 -2.792258069726771819e-13 -8.707182923891471082e-14 3.324289560529929133e-14
3.958000000000000000e+03 7.542562866210937500e+01 1.017645740509033203e+01 1.027729537215159306e-13 -1.847091950961735063e-13 -2.458087241239727272e-14 1.864426412464658539e-14
3.959000000000000000e+03 7.532554626464843750e+01 -1.057896327972412109e+01 -8.439815280024756672e-14 -3.106763435921366945e-13 -1.185223523058470674e-13 -5.880297876230400345e-14
3.960000000000000000e+03 7.542919921875000000e+01 2.187696456909179688e+00 -2.297499755547771638e-13 -2.814680725906487657e-13 -1.533654117331223476e-13 -3.378653829150604637e-14
3.961000000000000000e+03 7.545922088623046875e+01 6.972584724426269531e+00 2.596907470965234555e-14 -1.261232465037467887e-13 -3.004625086060197514e-14 -1.438541939648846357e-13
3.962000000000000000e+03 7.536820983886718750e+01 -8.971862792968750000e+00 -5.759771186473333637e-14 -2.991904141970425091e-13 -1.070364432395436161e-13 -1.444204727595738147e-13
3.963000000000000000e+03 7.534752655029296875e+01 -9.773420333862304688e+00 6.250914770609267146e-14 4.966510940029346399e-14 3.365227679310266173e-14 -3.141799022549421339e-14
3.964000000000000000e+03 2.507393074035644531e+01 1.021233940124511719e+01 -1.424174092459068452e-13 3.507225163502242227e-13 6.249152942078978201e-14 -4.517848429890468365e-14
3.965000000000000000e+03 7.538757324218750000e+01 -5.001268863677978516e+00 -1.090888515045858320e-13 -1.001415183924118848e-15 -3.302707838660247364e-14 -8.931563984498208653e-14
3.966000000000000000e+03 7.543399810791015625e+01 3.788898229598999023e+00 -1.675640691738838894e-13 -3.234433933792940641e-13 -1.473022414764588173e-13 7.088607316147604864e-14
3.967000000000000000e+03 7.543042755126953125e+01 2.987104415893554688e+00 -1.987402077760144770e-13 -3.825555323910823091e-13 -1.743887288263926139e-13 -5.407578613949963475e-14
3.968000000000000000e+03 7.609685516357421875e+01 1.419329643249511719e+01 1.757655842702862681e-13 -2.449285349190311045e-13 -2.074888519462345093e-14 3.932485982899650012e-14
3.969000000000000000e+03 7.537017822265625000e+01 1.340356349945068359e+01 1.368533921169284850e-13 -2.616051906351168910e-13 -3.742554091070923739e-14 1.993039386955983150e-14
3.970000000000000000e+03 7.542052459716796875e+01 1.661039161682128906e+01 2.185628387258928274e-13 -1.808359099400233538e-13 1.131807965220037876e-14 1.327420026111733597e-13
3.971000000000000000e+03 7.540127563476562500e+01 1.580387496948242188e+01 -8.483645508100198795e-14 -8.210942911918497900e-14 -5.008376729293516350e-14 1.435785355625301962e-13
3.972000000000000000e+03 7.542189025878906250e+01 -2.090459764003753662e-01 -3.701352375637401160e-13 4.724988304262434102e-14 -9.686560364582930127e-14 -3.384716552173872017e-13
3.973000000000000000e+03 7.538865661621093750e+01 -3.401386976242065430e+00 -8.932705784911107449e-14 3.034339679476236173e-14 -1.769509763867825602e-14 -1.967970599849044877e-13
3.974000000000000000e+03 7.538609313964843750e+01 -4.203834533691406250e+00 -1.972362296273968973e-13 -3.590355009824852672e-13 -1.668815232487227962e-13 -1.829179033718472680e-13
3.975000000000000000e+03 7.507549285888671875e+01 -2.331338882446289062e+01 1.292009424116611835e-14 -1.088401897363262816e-13 -2.877603008850405930e-14 -9.181186626933124373e-15
3.976000000000000000e+03 7.529937744140625000e+01 -1.770612335205078125e+01 2.476534873441932350e-13 1.747636323851109452e-13 1.267251413398021165e-13 3.155593716425110148e-15
3.977000000000000000e+03 7.539071655273437500e+01 -5.796420574188232422e+00 -2.020865706763366743e-13 -4.526161075709550508e-13 -1.964107994084293707e-13 -1.112935833985986833e-13
3.978000000000000000e+03 2.504481887817382812e+01 1.181624221801757812e+01 -5.836971124538806177e-14 2.952410451534381863e-13 7.106140220529411078e-14 4.789024672701217011e-14
3.979000000000000000e+03 7.531455993652343750e+01 -1.612906837463378906e+01 2.140849075706746651e-13 -2.285059619820672960e-13 -4.326320727989114989e-15 -3.009853651037008859e-14
3.980000000000000000e+03 7.530874633789062500e+01 -1.691736221313476562e+01 -6.927433886944056596e-14 -2.126927919812032775e-13 -8.459013789994043742e-14 1.150053309013779682e-14
3.981000000000000000e+03 7.529636383056640625e+01 -1.298219013214111328e+01 1.331807792303782434e-13 7.995295099811131068e-14 6.394011839092050842e-14 3.505927644552320199e-14
3.982000000000000000e+03 7.538964843750000000e+01 -7.385840892791748047e+00 -1.029506815626406169e-13 -3.186274215392220777e-13 -1.264734302529324506e-13 -1.377296985228398940e-13
3.983000000000000000e+03 7.538294219970703125e+01 1.499653530120849609e+01 1.332697380186306790e-13 -1.716391379068607503e-13 -1.151081861121630578e-14 -3.498047527637423992e-14
3.984000000000000000e+03 2.502945709228515625e+01 1.261295795440673828e+01 2.218412661957134407e-14 2.382622365463410441e-13 7.813390369816944347e-14 -3.447072407245302395e-14
3.985000000000000000e+03 7.582762908935546875e+01 -2.729455184936523438e+01 -8.464985711085365461e-14 -1.277804088668094140e-13 -6.372907843804620498e-14 1.106695098518524489e-13
3.986000000000000000e+03 7.530826568603515625e+01 -1.456373500823974609e+01 1.012222261304734916e-13 8.913190145806368370e-14 5.710624301994565721e-14 1.039820492080081871e-13
3.987000000000000000e+03 2.502012252807617188e+01 1.340485382080078125e+01 -1.098092360855666694e-13 9.019174296298615445e-14 -5.885246327411554693e-15 1.074514012922717088e-13
3.988000000000000000e+03 9.986124038696289062e+00 -2.404736900329589844e+01 5.437143451940927574e-14 1.148039454300364692e-13 5.075261161314147118e-14 -1.408412333969970981e-14
3.989000000000000000e+03 2.427867698669433594e+01 1.745832252502441406e+01 2.076536210302991521e-15 4.583994316943729164e-13 1.381427931030840273e-13 1.498526644569050936e-13
3.990000000000000000e+03 2.493048095703125000e+01 1.814392089843750000e+01 7.287939240811780461e-16 2.290670908164371689e-13 6.893876474452914627e-14 -1.352322828642327918e-14
3.991000000000000000e+03 7.439106750488281250e+01 -2.243293952941894531e+01 -7.731974240553218802e-14 -2.161408259402503029e-13 -8.803817185898746289e-14 1.074988063381977429e-14
3.992000000000000000e+03 7.525473022460937500e+01 -2.008083343505859375e+01 1.876629616135751244e-14 -1.063346730546116392e-13 -2.627051340678941693e-14 1.960032715287145927e-14
3.993000000000000000e+03 2.501596260070800781e+01 1.419626331329345703e+01 1.661698224495172099e-14 2.358763141405151309e-13 7.574798806860710831e-14 2.499619299522679028e-14
3.994000000000000000e+03 2.430056762695312500e+01 1.666101837158203125e+01 2.497418623222417630e-15 3.670779229626025542e-13 1.108726012475497180e-13 9.688627124974230620e-14
3.995000000000000000e+03 2.473991966247558594e+01 1.915305328369140625e+01 5.151322009472152075e-14 6.782804027639921518e-14 3.580237845014939968e-14 5.655232413002281300e-14
3.996000000000000000e+03 2.501377105712890625e+01 1.499225711822509766e+01 -3.881308929852902989e-14 3.951243629160550164e-13 1.068933827628841537e-13 5.557262549443775512e-14
3.997000000000000000e+03 7.458465576171875000e+01 -1.536417770385742188e+01 1.955572476956130012e-13 -7.691646154901494309e-15 5.635968173276287296e-14 -4.806271279946851271e-14
3.998000000000000000e+03 2.410149765014648438e+01 2.195077323913574219e+01 -1.686811734941725399e-14 -9.873108868007143823e-14 -3.467976163944001822e-14 1.618543352729234774e-13
3.999000000000000000e+03 2.460494232177734375e+01 2.110797309875488281e+01 1.221524373621815651e-13 1.896038935664950964e-13 9.352689792335028285e-14 6.764235032557033844e-14
4.000000000000000000e+03 7.518843078613281250e+01 -2.168534088134765625e+01 1.807938632245216504e-14 7.748308423908070730e-15 7.748308423908070730e-15 7.643505037344296149e-15
4.001000000000000000e+03 2.434983062744140625e+01 6.208869934082031250e+00 -4.906962829771474577e-14 7.047205700938530271e-14 6.420729121720935434e-15 7.069817414872073269e-14
4.002000000000000000e+03 2.507518768310546875e+01 6.978100776672363281e+00 -2.843586165688673228e-14 2.394434206031553769e-13 6.330226870032013009e-14 1.295360167871337231e-13
4.003000000000000000e+03 1.187944507598876953e+01 -1.065531253814697266e+01 -3.703892542742922081e-15 4.416356603337279196e-14 1.213790251305708195e-14 -1.083010363247399743e-13
4.004000000000000000e+03 1.109925270080566406e+01 -1.276570796966552734e+01 8.630411923310488120e-14 -8.763469787895824398e-15 2.326219457945283287e-14 1.590696704131117079e-13
4.005000000000000000e+03 1.159418010711669922e+01 -9.341547966003417969e+00 -5.451105265417109658e-14 1.024532292771135333e-13 1.438265332569590993e-14 7.650174574770976510e-14
4.006000000000000000e+03 9.578257560729980469e+00 -1.114606285095214844e+01 5.794703502844458787e-14 1.620872896622091441e-13 6.601029401906433058e-14 -4.563057288790861588e-14
4.007000000000000000e+03 7.428263092041015625e+01 -2.676976585388183594e+01 -5.722343172226418417e-14 2.957323242628456805e-13 7.155266776217444891e-14 -4.402405970696000870e-14
4.008000000000000000e+03 2.500956344604492188e+01 1.579631137847900391e+01 -6.527889123350560929e-14 -5.101194091433874228e-15 -2.111402585159172923e-14 2.627480955789789074e-14
4.009000000000000000e+03 2.499609565734863281e+01 1.660496520996093750e+01 7.980960591838157092e-14 4.688381302110633531e-13 1.645943174507016882e-13 -5.205051681008744657e-14
4.010000000000000000e+03 2.623458099365234375e+01 2.800240135192871094e+01 2.759029238256528738e-14 -4.456850741327983423e-13 -1.254284355415094532e-13 -3.433171580141322621e-14
4.011000000000000000e+03 1.123405075073242188e+01 -8.540003776550292969e+00 -3.523425185308578546e-15 2.272447095948149087e-13 6.711638352290688614e-14 9.702260289666878035e-14
4.012000000000000000e+03 1.066069889068603516e+01 -9.794309616088867188e+00 6.754811282799061400e-14 -4.825553476771327066e-14 5.787774011006266081e-15 3.973247918826958158e-14
4.013000000000000000e+03 5.247160434722900391e+00 -7.021261692047119141e+00 6.287184213190927934e-15 2.694507519938969115e-15 2.694507519938969115e-15 -1.312084935058827062e-13
4.014000000000000000e+03 2.486830139160156250e+01 2.236166954040527344e+01 1.382308032144355381e-13 -3.226012393418159485e-14 3.179120310644982517e-14 9.210363185021067101e-14
4.015000000000000000e+03 2.497480964660644531e+01 2.308395004272460938e+01 1.869330733229260938e-14 -3.773953263612461750e-14 -5.713866998226539359e-15 -2.796886528801112437e-14
4.016000000000000000e+03 2.508040237426757812e+01 7.787231445312500000e+00 -5.152366909315884980e-14 2.066731659942921961e-13 4.654485008677954061e-14 -3.519264686526607511e-14
4.017000000000000000e+03 2.508093070983886719e+01 8.599973678588867188e+00 -1.399912222819002516e-13 1.458830343852024480e-13 1.767540602847872486e-15 2.648173293064853828e-14
4.018000000000000000e+03 1.195459842681884766e+01 -2.036783981323242188e+01 3.879239797769350184e-14 1.081272116114362358e-13 4.407588118267302679e-14 -1.915513341205817704e-14
4.019000000000000000e+03 1.108232307434082031e+01 -2.615100097656250000e+01 1.069346400436790162e-14 2.790886011877491413e-13 8.693462345398667024e-14 2.009945080381006499e-13
4.020000000000000000e+03 1.089615154266357422e+01 -2.542496490478515625e+01 2.079192632680523095e-14 1.919146265516591399e-13 6.381196569413272179e-14 1.620752279130402429e-13
4.021000000000000000e+03 5.296657562255859375e+00 -7.760555267333984375e+00 1.910698975340213712e-14 5.393965778048050164e-14 2.191399426016479163e-14 -1.822583967428514917e-13
4.022000000000000000e+03 5.047158718109130859e+00 -3.077260208129882812e+01 -4.791887305249757645e-14 3.912218856164106917e-13 1.029909054632398291e-13 -7.809646314783490889e-15
4.023000000000000000e+03 4.675761699676513672e+00 -2.231762313842773438e+01 6.488046726390792052e-14 5.068138969480454059e-14 3.466855708761373833e-14 2.255761563326776076e-14
4.024000000000000000e+03 4.683680057525634766e+00 -2.317258644104003906e+01 -6.561777217504310977e-14 -5.099737702984365184e-14 -3.498454442265284958e-14 -4.600802770986407719e-14
4.025000000000000000e+03 4.177011013031005859e+00 -3.441920471191406250e+01 -1.169416990407781340e-14 4.067467391545565025e-13 1.185157793301763740e-13 3.617663826382781778e-14
4.026000000000000000e+03 6.279505252838134766e+00 -3.173620605468750000e+01 -3.196600698984058964e-14 -1.369971776537907970e-14 -1.369971776537907970e-14 -9.778779213242758117e-14
4.027000000000000000e+03 7.520883941650390625e+01 -3.225589370727539062e+01 4.575831223261814240e-14 -2.614024312763349456e-14 5.885420816198689078e-15 9.528362392716496765e-14
4.028000000000000000e+03 3.872991561889648438e+00 -1.835724067687988281e+01 -2.588113574906840408e-14 5.753450965434100950e-14 9.496011832768602723e-15 -4.290435330145739301e-14
4.029000000000000000e+03 3.935652256011962891e+00 -2.563358116149902344e+01 1.653545193564670557e-14 -3.866432659606865163e-14 -6.638662228719994368e-15 3.423577407354362612e-14
4.030000000000000000e+03 4.677620410919189453e+00 -2.402488136291503906e+01 4.785014141102557350e-14 2.492619554771841051e-13 8.913362940527608247e-14 1.494234017117637703e-13
4.031000000000000000e+03 3.896784543991088867e+00 -8.742714881896972656e+00 8.654934543573036820e-14 3.115982678044554310e-13 1.194442900706929600e-13 4.149810581429401457e-14
4.032000000000000000e+03 4.637642860412597656e+00 -8.648017883300781250e+00 3.616920131455092502e-14 2.900067881152212923e-13 9.785279682893166520e-14 -1.278915937995978025e-13
4.033000000000000000e+03 1.038878631591796875e+01 -1.279460430145263672e+01 8.874712318924626170e-15 -1.334494038711386832e-13 -3.737240483986208062e-14 -2.100981199995924364e-13
4.034000000000000000e+03 1.042099189758300781e+01 -2.629825401306152344e+01 -9.940534723487659541e-14 -4.260229118807114246e-14 -4.260229118807114246e-14 3.357166297344657546e-14
4.035000000000000000e+03 3.890473604202270508e+00 -1.349740123748779297e+01 -8.018859556403745703e-14 1.715127334860760966e-13 2.739724171542477077e-14 1.807887132642023442e-14
4.036000000000000000e+03 4.606987953186035156e+00 -1.339982604980468750e+01 1.002817383440827298e-14 5.004873739836851465e-14 1.802307387805280464e-14 -7.333961590154716714e-14
4.037000000000000000e+03 3.888195037841796875e+00 -1.755238723754882812e+01 7.372123473747133060e-14 1.688476561258894781e-13 7.277066725900824262e-14 9.616409773517686777e-14
4.038000000000000000e+03 5.386757850646972656e+00 -1.488852882385253906e+01 -5.547290769368929536e-15 8.912448822570931406e-14 2.507315949101199953e-14 -1.347054029600521993e-14
4.039000000000000000e+03 3.892744541168212891e+00 -1.430228137969970703e+01 -2.269661712804398046e-14 2.876540422958734355e-13 7.948723195492016225e-14 -4.684920173022221954e-15
4.040000000000000000e+03 4.623067378997802734e+00 -2.067100906372070312e+01 7.141773880180862788e-14 1.678604493902599581e-13 7.178345374711514459e-14 -8.585398051394552837e-15
4.041000000000000000e+03 5.378342628479003906e+00 -1.662574768066406250e+01 9.487826953399284419e-15 1.413190582350704050e-13 4.524206598005738045e-14 1.770324101343315887e-14
4.042000000000000000e+03 4.657903194427490234e+00 -2.148166084289550781e+01 3.962846354234675350e-14 1.771119465280787675e-13 6.502212505400672971e-14 3.089782390445355853e-14
4.043000000000000000e+03 4.660729408264160156e+00 -9.430689811706542969e+00 8.468005214135737591e-14 4.022990436874235298e-13 1.460937219723706937e-13 -3.505349629269113865e-14
4.044000000000000000e+03 4.573986530303955078e+00 -1.987552452087402344e+01 5.412084829229356353e-14 4.349531802436135131e-13 1.467222068667062285e-13 -8.741399666828755799e-14
4.045000000000000000e+03 5.382873535156250000e+00 -1.174122142791748047e+01 -2.381428260766018691e-15 2.734850919946379966e-13 8.133109393208479143e-14 -1.649915555741732209e-13
4.046000000000000000e+03 4.652416706085205078e+00 -1.101991271972656250e+01 -4.063913986687879565e-14 3.028398658146830291e-13 7.866021609027537553e-14 -1.520185751368793858e-13
4.047000000000000000e+03 2.385420227050781250e+01 -1.329363346099853516e+01 5.600723809967393663e-14 4.815126162377447727e-13 1.612559505414015715e-13 -6.659305268677528922e-14
4.048000000000000000e+03 4.677208900451660156e+00 -2.785489845275878906e+01 -2.059074583743696757e-14 3.114320325063590911e-13 8.725238955821501552e-14 4.834613341175159063e-14
4.049000000000000000e+03 4.650174140930175781e+00 -2.713096046447753906e+01 -1.311033953518532871e-14 1.316341241737462031e-13 3.555713869499675661e-14 -8.390832381124577188e-14
4.050000000000000000e+03 1.066614532470703125e+01 -2.329579734802246094e+01 -1.433582087404221966e-14 6.248250343770384019e-14 1.444400392206553890e-14 7.890161370397927310e-14
4.051000000000000000e+03 4.729592800140380859e+00 -2.857750701904296875e+01 -8.305151271564836790e-14 1.016593425651017568e-13 5.582348192506364146e-15 1.708555917730690543e-14
4.052000000000000000e+03 7.558127593994140625e+01 -3.158288192749023438e+01 5.220654366710347771e-14 -6.912766664429401131e-14 -5.076336639047275903e-15 4.993964294289394978e-14
4.053000000000000000e+03 1.184267997741699219e+01 -2.679859924316406250e+01 -4.764976390889130720e-14 1.168315254653287671e-13 2.075452643405216457e-14 1.915205597195421272e-13
4.054000000000000000e+03 6.058064460754394531e+00 -3.064406394958496094e+01 6.063054382556345989e-14 1.174864106825643240e-13 5.343508703006469296e-14 -8.664658481807516188e-14
4.055000000000000000e+03 1.165207195281982422e+01 -1.431308269500732422e+01 -1.497674868237292012e-14 3.933234421211843912e-14 7.306678150703887348e-15 -8.188240396053009240e-14
4.056000000000000000e+03 5.821882247924804688e+00 -3.236454010009765625e+01 -8.646796928642175306e-15 8.779613050024365206e-14 2.374479837741454852e-14 9.709450582949530340e-14
4.057000000000000000e+03 2.456970214843750000e+01 -7.332556247711181641e+00 3.460153984082697809e-14 1.978330287132415433e-13 6.973036785571512519e-14 -9.370921329491729845e-14
4.058000000000000000e+03 4.548541069030761719e+00 -3.534464645385742188e+01 5.517121658073394219e-14 3.896523945515206755e-13 1.334470863889949954e-13 7.545704919188420123e-14
4.059000000000000000e+03 6.241516590118408203e+00 -3.437284088134765625e+01 1.408816707498990184e-14 4.177963313853338967e-13 1.295653444558994560e-13 -4.638956523062530424e-14
4.060000000000000000e+03 1.089843273162841797e+01 -2.895803260803222656e+01 -6.323207338591527171e-14 -1.186013635391669485e-13 -5.455002972227195046e-14 8.046886860188853796e-14
4.061000000000000000e+03 6.637014007568359375e+01 2.571082115173339844e+01 -2.205661190799942939e-13 -1.631547544636569036e-13 -1.151162634183480749e-13 -4.593020486376919384e-15
4.062000000000000000e+03 6.559010314941406250e+01 2.575979995727539062e+01 3.903889811787165931e-14 -6.144518030368412501e-15 9.868314153305916131e-15 -4.759499814665363315e-14
4.063000000000000000e+03 2.568302345275878906e+01 2.084439992904663086e+00 6.173293433652535592e-15 4.144042422583871232e-13 1.261732553289526826e-13 -1.400067534780211065e-13
4.064000000000000000e+03 3.740156412124633789e+00 -5.696531295776367188e+00 -1.060586893916054541e-14 -9.604726817482797663e-14 -3.199594113419655661e-14 -3.307603011469019416e-14
4.065000000000000000e+03 2.433328437805175781e+01 5.400291442871093750e+00 3.255712079054326469e-14 2.884587371482921769e-13 9.630475941452970590e-14 -7.909063418835675374e-15
4.066000000000000000e+03 5.212919235229492188e+00 -6.291192531585693359e+00 -2.026698443400795635e-14 2.200688904111652855e-13 5.994057111552084094e-14 -1.965244780062144758e-13
4.067000000000000000e+03 5.930982112884521484e+00 -6.216656684875488281e+00 7.846562890536853963e-14 2.166319153142776122e-13 8.852926123301477213e-14 9.694144697592645132e-15
4.068000000000000000e+03 6.655803203582763672e+00 -6.157561779022216797e+00 1.064267014902649244e-13 4.116190352974891109e-13 1.554137135824362748e-13 -1.622760492604388705e-13
4.069000000000000000e+03 1.132432937622070312e+01 -7.856121540069580078e+00 5.554465985465120714e-14 2.525596105949073911e-13 9.243127774673579045e-14 4.674246626150575790e-14
4.070000000000000000e+03 1.112216472625732422e+01 -1.070748615264892578e+01 8.957021051508168297e-14 3.838723162583566884e-14 3.838723162583566884e-14 5.893306269421152987e-14
4.071000000000000000e+03 2.467811584472656250e+01 -9.751038551330566406e+00 4.949463554932906351e-14 4.329705268358435832e-13 1.447395534589362986e-13 2.023529015518759494e-14
4.072000000000000000e+03 7.391346931457519531e+00 -6.118111610412597656e+00 -1.246306389254131508e-13 1.295906605766269926e-13 1.488007765913573408e-15 -2.341359155437917200e-14
4.073000000000000000e+03 9.661473274230957031e+00 -6.019725322723388672e+00 8.702270810423753944e-14 1.745482962811281680e-13 7.847130063798335442e-14 -8.766557222988566322e-14
4.074000000000000000e+03 1.119284820556640625e+01 -3.212994384765625000e+01 6.813493047758481524e-14 1.607346661368705409e-13 6.866087695145753345e-14 -7.880496385656576841e-15
4.075000000000000000e+03 2.480602455139160156e+01 -3.270710706710815430e-01 9.968524757823088445e-14 4.544807997823585577e-13 1.662498128529241170e-13 -6.844003852144939226e-14
4.076000000000000000e+03 2.497725486755371094e+01 2.894064664840698242e+00 1.440146931558621696e-14 1.434249041146890002e-13 4.734791185967597571e-14 -5.477334148848607420e-14
4.077000000000000000e+03 5.307236099243164062e+01 2.565200042724609375e+01 -2.804329407308635974e-14 7.948334237962637050e-14 1.543201533899495048e-14 9.658150032499073639e-15
4.078000000000000000e+03 2.353075981140136719e+01 -1.981939125061035156e+01 -2.074763158586151457e-14 4.028667048398826278e-13 1.146357179104481872e-13 -4.687706996121983327e-14
4.079000000000000000e+03 2.398975944519042969e+01 3.184469032287597656e+01 2.767125348572974791e-14 1.185910839473190703e-14 1.185910839473190703e-14 -1.065015859790657826e-13
4.080000000000000000e+03 2.443402481079101562e+01 3.071566963195800781e+01 4.810685338041582881e-14 7.780590543593826625e-14 3.777382730609304962e-14 2.548234564947926464e-16
4.081000000000000000e+03 6.545314788818359375e+01 2.509811019897460938e+01 -5.860417674145163014e-14 6.638582099403184111e-14 2.334492471092763401e-15 2.676472833239209453e-14
4.082000000000000000e+03 2.506660652160644531e+01 6.172366142272949219e+00 -1.391409163993377607e-15 2.281584209756770676e-13 6.803010168003262303e-14 5.143198963507983335e-14
4.083000000000000000e+03 2.469581222534179688e+01 -2.673480510711669922e+00 -5.016212122868797529e-14 3.902604964450134828e-13 1.020295095155790421e-13 -1.300507790379708956e-14
4.084000000000000000e+03 2.473086929321289062e+01 -1.881618976593017578e+00 2.528754691809385197e-14 5.598488794951450576e-13 1.755409375801472716e-13 -1.354032175011204986e-13
4.085000000000000000e+03 2.473970222473144531e+01 -1.256561374664306641e+01 -4.060562446722183749e-14 4.401070707957949191e-13 1.198504322045060300e-13 -3.101816018120408247e-14
4.086000000000000000e+03 2.500907897949218750e+01 3.722461938858032227e+00 -2.318523655399709615e-14 2.188182089950946319e-13 5.868988969945018730e-14 1.506199814394273973e-13
4.087000000000000000e+03 2.503402900695800781e+01 4.551054477691650391e+00 -4.261809004660332967e-14 2.104898422445114492e-13 5.036152633699879366e-14 4.413260867321654179e-14
4.088000000000000000e+03 1.100789546966552734e+01 -1.349438095092773438e+01 1.254537787672913018e-13 -3.773599203840509453e-14 2.631533669629222000e-14 -9.018124653070377916e-14
4.089000000000000000e+03 1.114273929595947266e+01 -1.206379127502441406e+01 -2.087518966552032867e-14 1.283063417881549761e-13 3.222934275687837358e-14 6.218927418389155748e-14
4.090000000000000000e+03 2.452618408203125000e+01 -1.533192348480224609e+01 -6.451471843728351363e-14 5.671131424710151858e-13 1.507795353416357953e-13 -3.955178334369771620e-14
4.091000000000000000e+03 2.463886070251464844e+01 -1.439994049072265625e+01 -6.685830105420797337e-15 4.546441348396434989e-13 1.343874962483546098e-13 -1.151193940521211267e-13
4.092000000000000000e+03 4.848773956298828125e+00 -3.647459793090820312e+01 1.780868645097095221e-14 2.592625007909188373e-13 8.312136244061074652e-14 7.732445868498249997e-14
4.093000000000000000e+03 7.164807128906250000e+01 2.547983360290527344e+01 1.434929920111210899e-13 -1.901332281721568318e-13 -1.399206949305800696e-14 2.850931974220441423e-14
4.094000000000000000e+03 1.083927536010742188e+01 -3.158923912048339844e+01 -3.183065451300114146e-14 7.786019008346189985e-14 1.380885965469869081e-14 1.279706439964332573e-14
4.095000000000000000e+03 7.341343688964843750e+01 2.436572647094726562e+01 6.950864851144183953e-14 7.554037012883971225e-14 4.351470830258989675e-14 9.863807090993575999e-14
4.096000000000000000e+03 8.652240753173828125e+00 -3.530091857910156250e+01 -2.422943336038377998e-14 1.268687981276564458e-13 3.079181264890699932e-14 5.153840407830928561e-14
4.097000000000000000e+03 1.083319091796875000e+01 -3.395293045043945312e+01 -2.103749303667551418e-14 1.453933815790536821e-13 3.730676656271345037e-14 8.732346578688501837e-14
4.098000000000000000e+03 2.490264892578125000e+01 -3.012265777587890625e+01 6.875959355926233862e-15 3.232034865435773341e-13 9.902383004290610247e-14 -7.462951833120748391e-14
4.099000000000000000e+03 1.066141796112060547e+01 -6.862365245819091797e+00 -7.160125357202895557e-14 1.980684903200510827e-13 3.794017102440663813e-14 5.902769999134235834e-14
4.100000000000000000e+03 4.630291748046875000e+01 2.735619544982910156e+01 -1.110393244366236765e-13 4.391361677503341499e-14 -2.013771195966389954e-14 -6.072868445096413215e-14
4.101000000000000000e+03 4.480088424682617188e+01 2.693741035461425781e+01 1.027020130181174884e-13 4.401514892035489346e-14 4.401514892035489346e-14 5.330223838261732849e-14
4.102000000000000000e+03 1.109900093078613281e+01 -2.756610488891601562e+01 -3.852721229069891451e-14 -6.226261368459662382e-14 -3.023694847021501930e-14 1.506533477612856387e-13
4.103000000000000000e+03 2.501747703552246094e+01 3.036379814147949219e+01 -3.543564028904259977e-14 -1.066886040775559541e-13 -4.263727364879274506e-14 -8.814846910124712887e-14
4.104000000000000000e+03 2.519071006774902344e+01 -2.887038803100585938e+01 7.809902118733561688e-15 3.236037468806046702e-13 9.942409037993343857e-14 -3.023743297306084876e-14
4.105000000000000000e+03 2.362072944641113281e+01 -2.821947288513183594e+01 -3.659372406331941330e-14 3.274490867257590088e-13 8.725661117042413095e-14 -4.838322329044596193e-14
4.106000000000000000e+03 9.727972984313964844e+00 -3.603655624389648438e+01 -2.204709532343043787e-14 2.078682549439686555e-13 5.574634856378782310e-14 -1.168899622683598413e-14
4.107000000000000000e+03 7.446707153320312500e+01 -3.683667373657226562e+01 3.437210572047010027e-14 8.335732549092506050e-14 3.531882766935265372e-14 1.592892382936989676e-14
4.108000000000000000e+03 2.474419784545898438e+01 -2.245157432556152344e+01 5.499321430093434548e-14 4.353270673627951393e-13 1.470960804333606986e-13 -1.461067628916266209e-14
4.109000000000000000e+03 2.366654968261718750e+01 -2.237162590026855469e+01 -1.343703103733712937e-15 4.569335903571725144e-13 1.366769788709379374e-13 -4.720219508769392391e-14
4.110000000000000000e+03 7.419530487060546875e+01 -3.415649414062500000e+01 1.280720084292311794e-14 -5.948936852297973671e-15 2.057479027780953831e-15 7.211660874592920600e-14
4.111000000000000000e+03 7.169998931884765625e+01 -3.617056274414062500e+01 -7.844613528912042916e-15 1.338908638907204685e-13 3.781387502383923294e-14 1.465642623270976136e-14
4.112000000000000000e+03 7.450926971435546875e+01 -4.048834228515625000e+01 2.036408829108118934e-14 1.231048412080743004e-13 4.304067817212028912e-14 3.721463987123828365e-14
4.113000000000000000e+03 2.462912750244140625e+01 -3.447821807861328125e+01 -2.635067152271988039e-14 2.860880206779353729e-13 7.792120356071852161e-14 -2.458578181535955864e-14
4.114000000000000000e+03 2.650505256652832031e+01 -3.382334136962890625e+01 6.028755731533061782e-15 3.171215189317483363e-13 9.694508244133606678e-14 -5.112398135040385760e-14
4.115000000000000000e+03 2.769851875305175781e+01 -3.547708129882812500e+01 -4.330351588378508754e-14 2.902602474780940911e-13 7.408702422167720569e-14 -1.504814339543109059e-14
4.116000000000000000e+03 9.029950141906738281e+00 -3.738456344604492188e+01 -3.250981569450500652e-14 2.376974485296390327e-13 6.155628985054020785e-14 -5.459141744614069008e-15
4.117000000000000000e+03 2.112242889404296875e+01 -4.027026748657226562e+01 -1.880057524591971507e-13 2.625582314497859615e-13 2.236574064785803312e-14 4.704523988256770206e-14
4.118000000000000000e+03 7.798233985900878906e+00 -3.635889053344726562e+01 2.019580444380191485e-15 1.838693314357847663e-13 5.576667396639013730e-14 -4.817353520215547635e-14
4.119000000000000000e+03 2.693398666381835938e+01 2.989641952514648438e+01 -3.787497998065415816e-14 4.095655360540108314e-14 9.244720874240774933e-16 -4.568223173329576114e-14
4.120000000000000000e+03 5.801225662231445312e+01 2.493084907531738281e+01 7.043588531440575506e-14 3.018680750786935374e-14 3.018680750786935374e-14 1.550634214130333643e-13
4.121000000000000000e+03 2.722324371337890625e+01 2.935830879211425781e+01 9.416001778197319316e-14 -1.426495098259816796e-13 -1.454684727438936703e-14 -2.612462214602023075e-14
4.122000000000000000e+03 2.560382270812988281e+01 4.675020277500152588e-01 -4.677567672930170450e-14 2.087080237366673030e-13 4.857970444102285845e-14 -1.586537026971104880e-13
4.123000000000000000e+03 5.723930740356445312e+01 2.443061828613281250e+01 6.946943427411575445e-14 2.977261517292557891e-14 2.977261517292557891e-14 -6.721948860841141585e-15
4.124000000000000000e+03 2.853637695312500000e+01 3.009316635131835938e+01 2.912385230983277618e-14 3.327382857090666057e-13 1.085586427609225302e-13 -1.261944785864790863e-13
4.125000000000000000e+03 6.981586456298828125e+01 2.418935966491699219e+01 9.081146614851529075e-14 -1.669600736961193710e-13 -2.284458023140215066e-14 -7.137157211805147949e-14
4.126000000000000000e+03 7.072554779052734375e+01 2.483606719970703125e+01 2.223428689426820704e-13 -1.334649486197866941e-13 2.666337575805543397e-14 -1.763789038867341619e-13
4.127000000000000000e+03 2.556525802612304688e+01 -3.144279122352600098e-01 -5.983053814754071831e-14 4.547433122333716105e-13 1.184738342586283411e-13 -9.456674945071755212e-14
4.128000000000000000e+03 2.636826705932617188e+01 -1.580723381042480469e+01 -6.522528421233977913e-14 5.210576978567638129e-13 1.367497288367117148e-13 -1.105688891139822161e-13
4.129000000000000000e+03 2.521351814270019531e+01 -1.676227569580078125e+01 -3.078894628941349076e-14 6.044425485303428491e-13 1.720960749124547662e-13 -2.146170068918762386e-14
4.130000000000000000e+03 2.611978530883789062e+01 -5.701014995574951172e+00 -3.104382866763767679e-14 1.239483504982680229e-13 2.787135485512320932e-14 -3.472997714068504216e-14
4.131000000000000000e+03 2.534992218017578125e+01 -5.762259960174560547e+00 -8.396759578876283880e-14 2.385195719319804786e-13 4.636559758634979656e-14 -3.569275883424753715e-14
4.132000000000000000e+03 6.178823089599609375e+01 2.546286582946777344e+01 3.369307328797421786e-14 2.889455710287924806e-13 9.679159329503000952e-14 1.901585849504658365e-13
4.133000000000000000e+03 5.962384033203125000e+01 2.581647872924804688e+01 1.094998522193843526e-13 9.267945840028130045e-14 6.065379318589969593e-14 1.900774053128009844e-13
4.134000000000000000e+03 2.984527587890625000e+01 2.999458885192871094e+01 -1.047344380818680809e-13 -4.488618678133438067e-14 -4.488618678133438067e-14 -7.070070169503533952e-14
4.135000000000000000e+03 3.031137275695800781e+01 2.935727310180664062e+01 -2.176380684828713163e-14 2.194273950907599247e-13 5.929907579511548010e-14 -3.556251227201413789e-14
4.136000000000000000e+03 3.111981201171875000e+01 2.971281623840332031e+01 -2.924625873510638963e-14 1.034136426665555053e-14 -5.671468340535251729e-15 5.373028478844639466e-14
4.137000000000000000e+03 2.786639595031738281e+01 2.943815231323242188e+01 2.293168909969778291e-14 1.928316583016745356e-13 6.472900422041169555e-14 -4.389014718613089283e-14
4.138000000000000000e+03 8.932918548583984375e+00 -6.098000526428222656e+00 1.762469056603658407e-14 2.820591254049792385e-13 8.990514767121676742e-14 3.815454828709312352e-14
4.139000000000000000e+03 3.090023040771484375e+01 2.913406753540039062e+01 -1.667558951336343010e-15 -4.646561862489337336e-14 -1.443995341051176884e-14 1.417371808028894398e-13
4.140000000000000000e+03 2.564411354064941406e+01 1.268005728721618652e+00 -5.846020146920913318e-14 2.952022578207175174e-13 7.102262164883701989e-14 -4.568329560667751255e-14
4.141000000000000000e+03 6.449479675292968750e+01 2.551924514770507812e+01 -7.919527663866055001e-14 -1.940691531088223343e-13 -8.197933163475029650e-14 -6.703625420609662933e-15
4.142000000000000000e+03 6.773076629638671875e+01 2.498929405212402344e+01 1.863495658780897624e-13 7.986410063007612359e-14 7.986410063007612359e-14 -1.237240968314165523e-13
4.143000000000000000e+03 1.114395999908447266e+01 -1.138381862640380859e+01 6.924999853066826638e-14 3.499352229426738736e-13 1.257555664420026420e-13 3.268358619770012075e-14
4.144000000000000000e+03 8.982114791870117188e+00 -1.287266254425048828e+01 3.185973400111332884e-15 -1.816383821779884999e-13 -5.353572132046208187e-14 -1.627017070333566795e-13
4.145000000000000000e+03 3.160110282897949219e+01 2.894437599182128906e+01 -3.077871751954244783e-14 7.831102167557210669e-14 1.425969124680889766e-14 -1.407194402235772968e-13
4.146000000000000000e+03 7.298316955566406250e+01 -2.855940628051757812e+01 2.903801060282623636e-14 3.532033538799876637e-14 1.930750447487385862e-14 2.815746733811266139e-15
4.147000000000000000e+03 5.687145614624023438e+01 2.588037872314453125e+01 -3.562704940633133754e-14 7.623316176453079351e-14 1.218183387686642624e-14 5.374146562335015143e-14
4.148000000000000000e+03 3.303523635864257812e+01 2.859666442871093750e+01 -2.102563593066666958e-13 -4.103665107377252319e-13 -1.861868677895811564e-13 4.995675385546143391e-15
4.149000000000000000e+03 2.539752006530761719e+01 -4.223802089691162109e+00 1.420873459173502620e-14 3.034706275335807835e-13 9.530381041636393213e-14 -4.728725413625720075e-14
4.150000000000000000e+03 3.981410598754882812e+01 2.676917648315429688e+01 -1.512265790024058809e-13 7.244145604559659724e-14 -2.363553451535053279e-14 7.921785514890256064e-14
4.151000000000000000e+03 3.896773910522460938e+01 2.731879425048828125e+01 -8.606510686418045175e-14 8.865903176273181446e-15 -2.315976119107547582e-14 1.384696394005069386e-13
4.152000000000000000e+03 5.383893585205078125e+01 2.556072807312011719e+01 1.191293733852991782e-14 9.660744155603334660e-14 3.255611451540192658e-14 1.254002056274433619e-13
4.153000000000000000e+03 2.606628799438476562e+01 -1.111984539031982422e+01 -1.053562957904242980e-13 5.796336717892036638e-13 1.422832256745346080e-13 -1.476707482423594842e-13
4.154000000000000000e+03 2.461424827575683594e+01 -8.909893989562988281e+00 5.593167598451527500e-14 4.814801985927874561e-13 1.612235600014985670e-13 4.603201568293031898e-14
4.155000000000000000e+03 7.359446716308593750e+01 2.282039070129394531e+01 1.023229013997171977e-13 -3.679058739516211096e-13 -7.967488702218666896e-14 1.545094076554204277e-13
4.156000000000000000e+03 3.614633560180664062e+01 2.856390571594238281e+01 -8.940067517662284025e-14 -1.526919460011558205e-13 -7.262778296520180921e-14 1.868782533505797955e-14
4.157000000000000000e+03 3.664712142944335938e+01 2.771504402160644531e+01 -9.020135170473980724e-14 9.859512295137817794e-14 2.518130484606916596e-15 -8.225024665260011192e-14
4.158000000000000000e+03 6.848524475097656250e+01 2.496403121948242188e+01 6.913739566472617420e-15 -1.991244354734161837e-14 -3.899610940150816107e-15 -5.696665876650172655e-14
4.159000000000000000e+03 3.541500473022460938e+01 2.874658012390136719e+01 -1.010951779646489246e-13 -4.332650435797356925e-14 -4.332650435797356925e-14 1.058347880904600413e-13
4.160000000000000000e+03 2.555407333374023438e+01 -1.271795749664306641e+01 -5.776982218335183217e-14 5.700038423032960377e-13 1.536702080688623351e-13 -9.785611719808490205e-14
4.161000000000000000e+03 5.563286781311035156e+00 -2.906308174133300781e+01 4.671964041764314901e-14 2.030264926447186702e-13 7.492383856345583015e-14 -2.733140523256648302e-14
4.162000000000000000e+03 4.333901214599609375e+01 2.720632553100585938e+01 -7.777930860139448122e-14 1.241695836456295846e-14 -1.960870600278569881e-14 3.327860651435553263e-14
4.163000000000000000e+03 6.315201950073242188e+01 2.529097747802734375e+01 7.488663010014884325e-14 1.693471209616992379e-13 7.327012531855442434e-14 1.304026737937100111e-13
4.164000000000000000e+03 6.325824737548828125e+01 2.460239982604980469e+01 9.123005627852120991e-14 8.484954682223475042e-14 5.282388160785314590e-14 9.417022283492171297e-14
4.165000000000000000e+03 3.376263046264648438e+01 2.843716049194335938e+01 -3.042277733444724575e-14 -1.502911835780940120e-13 -5.421418793494919841e-14 1.918942130576303112e-14
4.166000000000000000e+03 4.328599548339843750e+01 2.582751655578613281e+01 -1.317695410250896426e-13 1.265311369135629915e-13 -1.571523732205189726e-15 7.132794653313609401e-14
4.167000000000000000e+03 9.743109703063964844e+00 -1.710156440734863281e+01 1.421006460286880491e-13 1.066512262076595163e-13 7.462556099327791181e-14 1.127080471053504285e-13
4.168000000000000000e+03 1.030654144287109375e+01 -2.112783432006835938e+01 6.443559200748280591e-14 4.393737977614886603e-13 1.511428108320542196e-13 4.899936860880589606e-14
4.169000000000000000e+03 5.523657226562500000e+01 2.472743606567382812e+01 -1.634940148759547740e-13 -2.431791442205396420e-14 -5.634357794236967421e-14 6.125469191120905266e-14
4.170000000000000000e+03 5.660790252685546875e+01 2.454059028625488281e+01 -2.996467142338601897e-14 -3.330986474061464753e-13 -1.089189909054752436e-13 1.090146175370884651e-13
4.171000000000000000e+03 3.639699554443359375e+01 2.708355522155761719e+01 -1.196153229634025483e-13 -2.571429668588726125e-13 -1.130274937229461263e-13 1.381587037699652520e-13
4.172000000000000000e+03 3.448948669433593750e+01 2.827202987670898438e+01 -5.904091370531952543e-14 -2.540580051023366703e-13 -9.392967225416506971e-14 6.758212776532821538e-16
4.173000000000000000e+03 3.521213150024414062e+01 2.810161781311035156e+01 -1.702293769270321611e-13 -1.644573420587353008e-13 -1.004060184062356698e-13 6.816666371992075035e-14
4.174000000000000000e+03 4.260340118408203125e+01 2.664437103271484375e+01 -1.207517294704932298e-13 3.142568399516071365e-13 5.805153178908145639e-14 1.417863358188845013e-13
4.175000000000000000e+03 4.469142532348632812e+01 2.548083686828613281e+01 -1.345852818296702780e-13 2.168262856587499510e-13 2.467230114872390190e-14 6.312746142879757660e-14
4.176000000000000000e+03 6.142473602294921875e+01 2.592351722717285156e+01 9.014799540532636435e-14 3.588914918289248801e-13 1.347118488807808045e-13 1.036809747350384350e-14
4.177000000000000000e+03 5.605322647094726562e+01 2.530618858337402344e+01 -1.321267856409236163e-13 -1.938786181295351629e-13 -9.780162248639034939e-14 1.397142628369388295e-13
4.178000000000000000e+03 1.095752906799316406e+01 -1.539700794219970703e+01 -8.515943213192184169e-14 -1.362142651006436472e-14 -2.963425742318927247e-14 6.493374224815842699e-14
4.179000000000000000e+03 4.189146423339843750e+01 2.673798942565917969e+01 -1.008720830388692979e-13 9.402195141157074221e-14 -2.055037878826966938e-15 8.884262276591739504e-14
4.180000000000000000e+03 2.533520317077636719e+01 -6.523897647857666016e+00 1.058017876868350138e-13 4.113512102558308792e-13 1.551459020933051991e-13 -1.726492619659111827e-13
4.181000000000000000e+03 4.917544174194335938e+01 2.474222183227539062e+01 -2.273632942074305108e-14 2.647615471047110036e-13 7.260756937094853258e-14 1.771673221540384646e-13
4.182000000000000000e+03 4.769481658935546875e+01 2.634941673278808594e+01 -2.970330754904944304e-14 2.160247620976857297e-13 5.589643602577770709e-14 -6.703035885678373940e-15
4.183000000000000000e+03 4.918822097778320312e+01 2.545834541320800781e+01 1.322339302265536018e-14 -8.583472745505443813e-14 -2.178340041442301811e-14 -1.343450836146196925e-14
4.184000000000000000e+03 7.468522644042968750e+01 -2.858969497680664062e+01 3.479790918305483705e-14 -7.658850902656291759e-14 -1.253717944483265581e-14 3.683242303005335866e-15
4.185000000000000000e+03 6.468910980224609375e+01 2.497743225097656250e+01 1.117123361589304753e-13 1.393786073968644734e-13 7.532728374436484242e-14 -2.091348741319748461e-14
4.186000000000000000e+03 5.212201595306396484e+00 -3.201914215087890625e+01 -5.175465497787509750e-14 1.608232319018354506e-13 3.272057104430903252e-14 1.021518600366781368e-14
4.187000000000000000e+03 7.430242919921875000e+01 -2.325688552856445312e+01 6.493610716414716100e-14 1.193316550174988722e-13 5.528033136499924116e-14 -4.310106145686415369e-14
4.188000000000000000e+03 7.445345306396484375e+01 -2.163244247436523438e+01 2.259140276109419809e-13 1.654467171987097918e-13 1.174082261534009630e-13 -9.404755891163213422e-14
4.189000000000000000e+03 7.371191406250000000e+01 -2.156346702575683594e+01 4.092124927215952390e-14 1.753767825949693882e-14 1.753767825949693882e-14 -2.558847739546257077e-14
4.190000000000000000e+03 2.572681427001953125e+01 2.798000717163085938e+01 5.103038082160046840e-15 -2.265677337583149598e-13 -6.643940768640693717e-14 -1.927503939607149580e-15
4.191000000000000000e+03 2.516796684265136719e+01 2.654591751098632812e+01 1.431810306236802784e-15 6.136329656988186772e-16 6.136329656988186772e-16 8.241689530277471198e-14
4.192000000000000000e+03 2.519969367980957031e+01 2.459053993225097656e+01 -1.391904339454342471e-14 -5.171625389217837654e-14 -1.969058867779677202e-14 8.594127742355545108e-14
4.193000000000000000e+03 2.571991348266601562e+01 2.595891761779785156e+01 1.953603226997717435e-14 -1.060047842148421904e-13 -2.594062626108586261e-14 1.157271893196870280e-14
4.194000000000000000e+03 2.642837715148925781e+01 2.968932151794433594e+01 1.104465572276079610e-13 -4.416765889657392474e-14 1.988366983812338978e-14 -6.771256766283182543e-15
4.195000000000000000e+03 2.636488533020019531e+01 2.901683807373046875e+01 -8.304556315622685370e-14 1.474128436505794948e-13 1.931018448711897123e-14 -1.821663784715935736e-14
4.196000000000000000e+03 2.508215141296386719e+01 2.768038368225097656e+01 1.064052817210947577e-13 -4.589963459766983889e-14 1.815169413702747564e-14 1.465710555313345931e-13
4.197000000000000000e+03 7.459666442871093750e+01 -1.691794204711914062e+01 1.714919303568915310e-13 -1.095072518992115662e-13 1.859540387611716833e-14 -2.857951166847748359e-14
4.198000000000000000e+03 4.632239341735839844e+00 -2.638986968994140625e+01 -1.224988873901357300e-14 -5.100090068690422973e-14 -1.897523716658851972e-14 2.565668387650727605e-14
4.199000000000000000e+03 7.456568145751953125e+01 -1.459111118316650391e+01 -1.350511363981329871e-13 -1.493809551967109628e-13 -8.532962476794775375e-14 -6.757947337582975722e-14
4.200000000000000000e+03 2.507786941528320312e+01 2.383435821533203125e+01 5.220460904385194889e-14 -2.521322994136765416e-13 -5.997830135112333649e-14 -2.570912538033768430e-14
4.201000000000000000e+03 2.593013572692871094e+01 2.423647689819335938e+01 2.378775819443339212e-14 -3.100618991159348470e-13 -8.588223583900003733e-14 3.828685271587187709e-16
4.202000000000000000e+03 2.538526725769042969e+01 2.864920616149902344e+01 2.618209756665617130e-15 -4.563874235127829415e-13 -1.361307578164397403e-13 4.529202059515465006e-14
4.203000000000000000e+03 7.466846466064453125e+01 -8.182423591613769531e+00 -1.132600076550992207e-13 -3.230457080224263811e-13 -1.308917167361367540e-13 -3.821434203690569908e-14
4.204000000000000000e+03 4.622397232055664062e+01 2.668844604492187500e+01 -1.422991227888886767e-13 2.592713099335702820e-13 3.509165682103083939e-14 -3.238794459405405779e-14
4.205000000000000000e+03 4.759413146972656250e+01 2.555119514465332031e+01 9.863099649076029207e-14 2.710251727905399477e-13 1.108968534948955031e-13 -2.450663505676811682e-14
4.206000000000000000e+03 7.541829681396484375e+01 2.357785987854003906e+01 1.678932295653186996e-14 -2.215593160326267963e-13 -6.143099673698235175e-14 4.513337810039749765e-14
4.207000000000000000e+03 7.467735290527343750e+01 -7.396375179290771484e+00 -1.949329268152461686e-14 8.314762723823920787e-14 1.909630019760778785e-14 -5.337922690125916636e-14
4.208000000000000000e+03 7.399144744873046875e+01 -1.049251914024353027e+00 -2.825071719527588732e-13 1.617834623321608156e-14 -7.989864602179694297e-14 7.602814590997736266e-14
4.209000000000000000e+03 7.549467468261718750e+01 2.135392570495605469e+01 -6.860752149907703781e-15 -1.859441149231616519e-13 -5.784146084189881187e-14 1.424376702740051681e-14
4.210000000000000000e+03 7.406591796875000000e+01 6.109021186828613281e+00 1.113237191367960968e-14 -3.612365669179024019e-13 -1.050312587553767218e-13 1.851514547148574996e-13
4.211000000000000000e+03 7.522691345214843750e+01 -2.088150405883789062e+01 9.616381313210659032e-14 2.928432778388778690e-13 1.167021259360426222e-13 4.460754682300560603e-14
4.212000000000000000e+03 7.470458984375000000e+01 -1.023703813552856445e+00 -3.752680403836666789e-13 -6.932725471172143661e-14 -1.333785783642210676e-13 -1.850659111634483933e-13
4.213000000000000000e+03 7.409491729736328125e+01 1.980514907836914062e+01 1.168974042998344176e-13 -1.329049039875893068e-13 -4.802252447425308518e-15 8.046328496070023761e-14
4.214000000000000000e+03 7.462194061279296875e+01 -9.775298118591308594e+00 -4.660504702427500923e-14 -1.572264318521962578e-13 -6.114944298531502231e-14 -5.437441607538361088e-14
4.215000000000000000e+03 7.466879272460937500e+01 1.177064132690429688e+01 2.063621117791378939e-14 -1.741597046699822071e-13 -4.605704720058757806e-14 5.843304898105194933e-14
4.216000000000000000e+03 7.467737579345703125e+01 -2.622525691986083984e+00 -2.253962126533629040e-13 8.640541759733291749e-14 -4.169723987206171156e-14 -8.946507000940490117e-14
4.217000000000000000e+03 7.476280975341796875e+01 6.152418136596679688e+00 -1.915830639747859165e-14 -2.827163958669942634e-13 -9.056241135696821432e-14 -7.649692782430578264e-14
4.218000000000000000e+03 7.474139404296875000e+01 4.563032150268554688e+00 -9.717520435244611510e-14 -2.932767418674375737e-13 -1.171355764120751708e-13 5.156072509053533093e-14
4.219000000000000000e+03 2.648045158386230469e+01 9.353123664855957031e+00 -2.470171690891614924e-14 1.724173511212165333e-13 4.431469026369011521e-14 -3.009346066543366720e-15
4.220000000000000000e+03 2.575386619567871094e+01 1.097526931762695312e+01 -1.110900650982959981e-13 3.183975706786551507e-13 6.219224896360231458e-14 -5.397540934711821115e-14
4.221000000000000000e+03 7.477542114257812500e+01 1.901983070373535156e+01 1.614366734910277490e-13 -1.824430770304072413e-13 -6.301919198341363743e-15 -3.256866415554844629e-14
4.222000000000000000e+03 7.480213165283203125e+01 2.058160972595214844e+01 8.903163986216308667e-14 -1.448473773649899821e-13 -1.674472158966124752e-14 7.887940111197047632e-14
4.223000000000000000e+03 7.530001831054687500e+01 -1.377813720703125000e+01 -1.273988645697846089e-13 -1.461014062552681847e-13 -8.205008260276855370e-14 5.388920849814203551e-14
4.224000000000000000e+03 7.497839355468750000e+01 -2.581419754028320312e+01 -1.331069247336412464e-14 4.060539610713925773e-13 1.178229741419581367e-13 1.151322503181945525e-14
4.225000000000000000e+03 7.481391143798828125e+01 2.134024429321289062e+01 4.074610911668869948e-15 -1.812575290598486544e-13 -5.315487836671760336e-14 2.822620575584824237e-14
4.226000000000000000e+03 7.475894927978515625e+01 1.822343826293945312e+01 -2.952532220990879142e-14 -1.041556096470323822e-13 -4.010427921826917319e-14 -1.704762057159938532e-14
4.227000000000000000e+03 7.483618164062500000e+01 2.278034973144531250e+01 1.095876116089834762e-13 -1.817886254940406787e-13 -2.166030281026444515e-14 1.052438030387653489e-13
4.228000000000000000e+03 7.474012756347656250e+01 1.742269515991210938e+01 1.547568903538174001e-13 -7.092846546642023187e-14 2.514853017672458169e-14 -2.031806390885917968e-14
4.229000000000000000e+03 7.539196777343750000e+01 -6.592484474182128906e+00 -2.786193923688153051e-14 -1.194083098051594918e-14 -1.194083098051594918e-14 -6.298139229110946702e-14
4.230000000000000000e+03 7.545047760009765625e+01 8.572106361389160156e+00 1.616164274349622676e-14 -3.882453101958054098e-14 -6.798866652231883717e-15 -1.099009257080410529e-13
4.231000000000000000e+03 7.542896270751953125e+01 1.389924049377441406e+00 -3.406528802530478517e-13 -3.747488430683176830e-13 -2.146205169964096604e-13 -2.076888059318951485e-13
4.232000000000000000e+03 2.573648834228515625e+01 1.177122306823730469e+01 4.380689739994295118e-14 2.932800757891179666e-13 1.011260912790919175e-13 -4.086338675746668814e-14
4.233000000000000000e+03 7.466981506347656250e+01 -3.426733732223510742e+00 -1.630842948749725019e-13 -1.385196888832943007e-13 -9.048119783798547200e-14 -9.350117522680806426e-14
4.234000000000000000e+03 7.545750427246093750e+01 7.771259784698486328e+00 3.825742890886663083e-14 -3.496115614891326384e-13 -9.340623299781622424e-14 8.270974508582662477e-14
4.235000000000000000e+03 7.476784515380859375e+01 6.944124698638916016e+00 -3.509765042616561082e-14 -5.183023064556091519e-13 -1.660199755448843462e-13 1.246512252141632193e-13
4.236000000000000000e+03 7.537118530273437500e+01 1.419700145721435547e+01 -2.774205019352715684e-14 -1.948932416276014101e-13 -6.679058754633857009e-14 8.365933000607089776e-14
4.237000000000000000e+03 7.462086486816406250e+01 1.339059925079345703e+01 -1.156362349218108612e-14 -1.422086867751762296e-13 -4.613169113203141602e-14 1.040280532614394626e-13
4.238000000000000000e+03 7.469655609130859375e+01 1.095309638977050781e+01 1.196058904045019244e-13 -4.062498221938520837e-13 -8.599318360256319460e-14 9.154496279951962467e-14
4.239000000000000000e+03 7.453873443603515625e+01 -1.301203823089599609e+01 -9.481505207700746674e-14 -1.092614497141819463e-13 -6.122295189260953951e-14 -4.610367128213624377e-14
4.240000000000000000e+03 7.530861663818359375e+01 -1.138208961486816406e+01 1.014141773488484721e-13 1.807160649423822374e-13 8.463906929923742384e-14 -3.603959510922565002e-14
4.241000000000000000e+03 2.572294425964355469e+01 1.256034946441650391e+01 -7.819440217939413462e-14 3.324956954729729741e-13 7.629039408671087208e-14 -2.776658439696525925e-16
4.242000000000000000e+03 7.476607513427734375e+01 7.739071369171142578e+00 -7.881386786690730561e-14 -2.167811692958473979e-13 -8.867850843832097985e-14 -2.233432927804205465e-14
4.243000000000000000e+03 7.472105407714843750e+01 1.014069938659667969e+01 -2.707093751908810214e-14 -4.691112949484210759e-13 -1.488546699096593429e-13 1.521689776951256484e-14
4.244000000000000000e+03 7.474129486083984375e+01 9.334780693054199219e+00 3.916405231802616571e-14 -1.662191976940785576e-13 -3.811654361281571757e-14 4.648735687845170772e-14
4.245000000000000000e+03 2.742461776733398438e+01 2.557281875610351562e+01 5.460261839807694414e-16 -1.484565779769769778e-13 -4.437316264210497407e-14 1.337989337108890647e-14
4.246000000000000000e+03 7.542693328857421875e+01 5.897350907325744629e-01 -5.022364902435016987e-13 -5.126253696703664264e-13 -3.044585796582038872e-13 -2.031271337113796371e-13
4.247000000000000000e+03 7.471663665771484375e+01 -2.286583781242370605e-01 -2.548450274593438980e-13 3.254147168743615204e-13 2.117090072586806648e-14 1.676960911171747337e-14
4.248000000000000000e+03 2.527207183837890625e+01 1.975422477722167969e+01 3.262547296125489771e-15 1.844020270681812068e-13 5.629937298691836678e-14 -1.175090840604964271e-14
4.249000000000000000e+03 7.473464965820312500e+01 3.762624263763427734e+00 -5.869651688522950495e-14 -2.767858641936071784e-13 -1.006447122907719316e-13 1.968146105075715968e-14
4.250000000000000000e+03 7.472487640380859375e+01 5.673812627792358398e-01 -4.798374696711460441e-13 -7.317805215956152409e-13 -3.634854190640718352e-13 -7.118744748410912870e-14
4.251000000000000000e+03 7.473195648193359375e+01 2.960878849029541016e+00 -2.047777366512987252e-13 -4.308940086249907209e-13 -1.907015262933922650e-13 9.764038129455102077e-14
4.252000000000000000e+03 7.473070526123046875e+01 2.160718202590942383e+00 -2.235145797830143111e-13 -3.245467046150696255e-13 -1.644183920956887590e-13 -3.279805804184032954e-15
4.253000000000000000e+03 7.466838836669921875e+01 -4.229224681854248047e+00 -1.449433970198907295e-13 -6.211859775477265866e-14 -6.211859775477265866e-14 -1.444133305777625664e-13
4.254000000000000000e+03 7.471721649169921875e+01 1.661805725097656250e+01 2.202681566060727542e-14 -1.049373058608672749e-13 -2.487314790711094709e-14 6.730033790322683881e-15
4.255000000000000000e+03 7.468766021728515625e+01 1.580795383453369141e+01 1.410325442584639544e-13 -3.513160086194427878e-13 -6.308504201879908124e-14 2.169911047177584817e-14
4.256000000000000000e+03 7.467602539062500000e+01 -5.820468425750732422e+00 -9.151027510626366657e-14 -3.921868933125585710e-14 -3.921868933125585710e-14 -1.533880037958915143e-13
4.257000000000000000e+03 2.571095275878906250e+01 1.413450241088867188e+01 -4.883915063276685065e-14 3.450765335370059583e-13 8.887121182195312219e-14 -1.169743775718832049e-14
4.258000000000000000e+03 6.063694000244140625e+00 -1.646983909606933594e+01 1.705674348701822856e-16 6.869952198264306364e-14 2.066102754920244589e-14 -3.120430752982447653e-14
4.259000000000000000e+03 7.467898559570312500e+01 -6.609908580780029297e+00 -7.585252548682544504e-14 -3.527648550875894795e-13 -1.285852121394454040e-13 -8.998349483070600119e-14
4.260000000000000000e+03 7.462590026855468750e+01 1.418826198577880859e+01 8.450882951326760262e-14 -2.154121472126499515e-13 -3.927099530981470465e-14 3.456815657830979160e-14
4.261000000000000000e+03 7.453873443603515625e+01 -2.004690742492675781e+01 1.712580679482864077e-13 3.707774918256662167e-13 1.626106611559222093e-13 -5.462440599130445607e-14
4.262000000000000000e+03 7.528641510009765625e+01 -1.849523353576660156e+01 -9.626686654860133752e-14 -2.013855526566618592e-13 -8.929572440632624342e-14 4.842124151725052394e-14
4.263000000000000000e+03 2.496221351623535156e+01 1.739646530151367188e+01 -2.626854829035178696e-14 1.717458505056876361e-13 4.364318964816121804e-14 -1.219286715863077131e-13
4.264000000000000000e+03 2.656364822387695312e+01 1.819524574279785156e+01 6.749018932692557593e-14 1.433017387478946469e-13 6.323757571194063565e-14 3.487463342741713157e-14
4.265000000000000000e+03 7.454693603515625000e+01 -1.380981063842773438e+01 1.098655536121637133e-13 9.283618660057765815e-14 6.081052138619605363e-14 7.130183758956992746e-14
4.266000000000000000e+03 2.474073982238769531e+01 2.169870758056640625e+01 1.156379272936394753e-13 4.955910830914227183e-14 4.955910830914227183e-14 -2.524968285128569023e-14
4.267000000000000000e+03 2.463443183898925781e+01 2.052656173706054688e+01 4.568632798462868294e-14 -3.295619485792797114e-15 1.271721290963976833e-14 1.468151704267332824e-14
4.268000000000000000e+03 7.464961242675781250e+01 -8.973919868469238281e+00 -3.730309382785415573e-14 5.263938089128221420e-14 4.600886034325122817e-15 -7.280682709552652870e-15
4.269000000000000000e+03 7.394918823242187500e+01 -8.191260337829589844e+00 -1.165972869740950629e-14 1.322558192519765474e-13 3.617882699696352289e-14 9.656742094334147541e-14
4.270000000000000000e+03 7.459033966064453125e+01 -1.058432388305664062e+01 4.995958548660410503e-14 -2.433969672132555578e-14 7.685966798990154225e-15 1.234643355434161816e-13
4.271000000000000000e+03 7.514055633544921875e+01 -2.728351974487304688e+01 1.826836784331407199e-14 1.450821477929145620e-13 4.900515553790153744e-14 -1.956165332256572242e-14
4.272000000000000000e+03 2.507865905761718750e+01 9.408387184143066406e+00 -3.526551541565246806e-14 6.482749450101299438e-13 1.839028332829145684e-13 6.282369677918734491e-15
4.273000000000000000e+03 2.577859878540039062e+01 9.373233795166015625e+00 -7.736998162369973508e-14 4.243509298292036380e-13 1.040942844616511709e-13 -6.500080015252665544e-14
4.274000000000000000e+03 7.455666351318359375e+01 -1.926180648803710938e+01 3.183366656216157775e-14 -5.498342260006408577e-14 -6.944926472557573505e-15 7.290636871342195957e-14
4.275000000000000000e+03 7.349506378173828125e+01 -2.708068466186523438e+01 8.188415901279680331e-14 -2.165370069666036623e-13 -4.039585506376841550e-14 -5.220335882322180154e-14
4.276000000000000000e+03 5.415784358978271484e+00 -2.226782608032226562e+01 -4.355097825339132589e-14 1.414636094897170349e-13 2.937379140377678610e-14 -4.317578670347092806e-14
4.277000000000000000e+03 7.411174011230468750e+01 -2.501349067687988281e+01 5.565184763896150258e-15 9.388697501735987494e-14 2.983564797672845492e-14 1.164404672942404018e-13
4.278000000000000000e+03 7.261059761047363281e+00 -2.955371856689453125e+01 8.318838646366108480e-14 2.415314313570365856e-13 9.741594466858294332e-14 -5.919692362167661148e-14
4.279000000000000000e+03 2.644371795654296875e+01 1.734916496276855469e+01 -8.041962549446696196e-14 1.128539603889762433e-14 -2.074026748141808568e-14 -1.186046839083201854e-13
4.280000000000000000e+03 2.555433082580566406e+01 2.202384567260742188e+01 4.479433452853412434e-14 2.022013605813485770e-13 7.409871327634931504e-14 1.430719793668860235e-14
4.281000000000000000e+03 2.557091903686523438e+01 2.034357261657714844e+01 2.661860498459536067e-14 -1.258448775959611354e-13 -2.976788195281632188e-14 5.308039028933606018e-14
4.282000000000000000e+03 2.507931518554687500e+01 2.079370307922363281e+01 9.711481429143867250e-14 2.703753833235150728e-13 1.102470572516070502e-13 -1.717103327201433688e-14
4.283000000000000000e+03 7.450499725341796875e+01 -2.083743095397949219e+01 2.659241980806394123e-14 -5.722967266101955386e-14 -9.191175686480094337e-15 -7.367352984188196841e-14
4.284000000000000000e+03 7.459561920166015625e+01 -1.613992118835449219e+01 -1.376892171242247165e-13 -1.962625076562876658e-13 -1.001855187894064303e-13 -7.638896839298053854e-14
4.285000000000000000e+03 7.384711456298828125e+01 -1.541765594482421875e+01 -1.367748315051365432e-14 6.276464672430245861e-14 1.472614890273005184e-14 7.317653156601461317e-14
4.286000000000000000e+03 7.458838653564453125e+01 -1.769539451599121094e+01 -6.307973620441748031e-14 -1.185360674633290090e-13 -5.448474042269758899e-14 -1.408834156377703622e-14
4.287000000000000000e+03 2.579564666748046875e+01 6.965782165527343750e+00 -4.544403590413248484e-14 2.550296670893181794e-13 6.287568935555570837e-14 6.543314694462893169e-15
4.288000000000000000e+03 2.579350852966308594e+01 7.767864227294921875e+00 -4.083028809801977910e-14 2.112560479198069552e-13 5.112772862416251063e-14 1.571262922290400654e-13
4.289000000000000000e+03 2.570965003967285156e+01 1.493051052093505859e+01 -5.814116820369169547e-14 -2.491764254783021548e-14 -2.491764254783021548e-14 -3.403883213704342325e-14
4.290000000000000000e+03 2.570944023132324219e+01 1.573791503906250000e+01 -1.220698652023514269e-14 2.692741320718672338e-13 7.712014078557760666e-14 -1.007318685929126101e-13
4.291000000000000000e+03 4.637876987457275391e+00 -1.181416797637939453e+01 -1.401335204289071851e-14 1.083716517674866708e-13 2.830748873153265954e-14 2.411332886023773853e-14
4.292000000000000000e+03 2.557253456115722656e+01 1.807916831970214844e+01 3.704889585225135118e-14 2.217573726644855858e-13 7.764187919976836549e-14 -8.331473667433711427e-14
4.293000000000000000e+03 5.377945423126220703e+00 -1.574870109558105469e+01 8.555006339840479090e-14 2.425435882951604283e-13 9.842809483044320795e-14 1.408672881304546404e-14
4.294000000000000000e+03 5.372747898101806641e+00 -2.489365577697753906e+01 -5.927665313893576426e-14 1.118485661619032789e-13 1.577157390689025440e-14 -1.135008055694764623e-14
4.295000000000000000e+03 5.407467842102050781e+00 -2.139292716979980469e+01 9.523247668967796398e-14 1.780667627238052830e-13 8.198977385692404751e-14 3.545376340598205278e-14
4.296000000000000000e+03 5.975220680236816406e+00 -7.624060153961181641e+00 1.113342342038033117e-13 2.307184662504041528e-13 1.026158121691413128e-13 -6.878259897410976542e-14
4.297000000000000000e+03 4.587553501129150391e+00 -7.875715255737304688e+00 3.595130378293565077e-14 1.540770210527696304e-14 1.540770210527696304e-14 -9.314221621628884784e-14
4.298000000000000000e+03 4.656227588653564453e+00 -2.484490013122558594e+01 -6.034951354025753362e-15 -4.833735815041803607e-14 -1.631169293603643156e-14 2.427991144184245276e-14
4.299000000000000000e+03 2.618570518493652344e+01 2.648564338684082031e+01 3.184678879658044137e-14 -1.693551711628299428e-13 -4.125251369343531371e-14 -7.642648178814853699e-14
4.300000000000000000e+03 1.126601314544677734e+01 -1.000955486297607422e+01 1.622361506204914039e-13 2.296580894206590173e-13 1.175682679465869795e-13 8.874233745309427490e-15
4.301000000000000000e+03 5.333699226379394531e+00 -1.252934646606445312e+01 -1.357322271206906975e-14 2.686886086886164371e-13 7.653461062606323195e-14 -1.233374296791267533e-13
4.302000000000000000e+03 2.568096542358398438e+01 2.276697731018066406e+01 1.573615641004694199e-13 -1.613140773303739506e-13 -1.185755811268019485e-15 9.872479353120744427e-14
4.303000000000000000e+03 2.613496398925781250e+01 2.489592933654785156e+01 -7.433845748174017221e-15 -1.861897273728110869e-13 -5.808707329154824683e-14 1.513462715341164916e-14
4.304000000000000000e+03 6.074194431304931641e+00 -1.177164745330810547e+01 -2.498301485663340787e-14 -1.022089043175439249e-13 -3.815757727691250489e-14 -1.949634708233241587e-13
4.305000000000000000e+03 4.568711757659912109e+00 -1.830238723754882812e+01 -3.227635308545098725e-14 1.005446472065150976e-13 2.048048925275876980e-14 -9.605339222303662522e-15
4.306000000000000000e+03 4.615463256835937500e+00 -1.419791412353515625e+01 -3.528929671267957979e-14 1.678798159515659805e-13 3.977715509403956240e-14 4.824575323123837800e-14
4.307000000000000000e+03 5.343286991119384766e+00 -1.407619190216064453e+01 7.423875831571655204e-14 1.919449300023801097e-13 7.985510852830807194e-14 -1.150503168212066440e-13
4.308000000000000000e+03 4.656804561614990234e+00 -1.022358894348144531e+01 1.097960782757640211e-14 3.478376712096747925e-13 1.076451821018127586e-13 -1.134738597573584085e-13
4.309000000000000000e+03 5.325456619262695312e+00 -1.329730892181396484e+01 -6.975012066404509548e-14 1.585803903014597338e-14 -1.616762449016973663e-14 -3.583649693726480290e-14
4.310000000000000000e+03 4.632571220397949219e+00 -1.500842380523681641e+01 -1.784292691083076005e-15 2.279900443782900687e-13 6.786172508264562420e-14 -1.778188632851982615e-14
4.311000000000000000e+03 5.402612686157226562e+00 -8.533469200134277344e+00 3.825585003945294882e-14 1.078972591069156384e-13 4.384593545441600737e-14 -1.016158796105122442e-13
4.312000000000000000e+03 6.061302661895751953e+00 -2.401540565490722656e+01 6.145663811836163393e-14 2.550933097568430785e-13 9.496498368493505593e-14 5.198410942702270943e-14
4.313000000000000000e+03 5.352254867553710938e+00 -2.710365867614746094e+01 6.472893645777591520e-14 2.774097276761824937e-14 2.774097276761824937e-14 5.066990731617156130e-14
4.314000000000000000e+03 5.340346813201904297e+00 -1.748185729980468750e+01 1.290850937154652128e-14 5.128316594624725278e-14 1.925750242593154277e-14 6.973999692625951208e-14
4.315000000000000000e+03 4.552870750427246094e+00 -1.908958435058593750e+01 -5.783707659936382361e-14 2.497183774867461903e-13 5.756438620045656318e-14 -4.133408635438769185e-14
4.316000000000000000e+03 5.247450828552246094e+00 -1.977032852172851562e+01 3.651064707185271152e-14 3.359040747375613423e-13 1.117244114606265326e-13 4.564809291738962382e-14
4.317000000000000000e+03 8.762710571289062500e+00 -1.095664787292480469e+01 4.861174261521980511e-14 3.868411938435373232e-13 1.306358856810116431e-13 -8.325555278824656180e-14
4.318000000000000000e+03 5.360730648040771484e+00 -2.055276107788085938e+01 -7.284793699258856892e-14 1.289077758382869976e-13 1.681795097608317080e-14 3.386751125313176847e-14
4.319000000000000000e+03 9.813658714294433594e+00 -1.913422966003417969e+01 6.059988123287285422e-14 -2.485343202941747709e-13 -5.638032900788514379e-14 1.197076156733353769e-13
4.320000000000000000e+03 5.393527984619140625e+00 -1.014336299896240234e+01 2.909493799314530338e-14 4.242277915674635969e-13 1.359968181905563123e-13 -1.216249865577945233e-13
4.321000000000000000e+03 5.418467044830322266e+00 -2.315664100646972656e+01 2.102787751865828336e-14 5.476289587818053417e-14 2.273723235786482416e-14 5.566978356161961239e-14
4.322000000000000000e+03 5.368994235992431641e+00 -2.780472755432128906e+01 1.243073704951594416e-13 2.362783905161813802e-13 1.081757228823913841e-13 -1.317761275532874921e-13
4.323000000000000000e+03 5.300784111022949219e+00 -2.566649627685546875e+01 2.719475848938363027e-14 1.031567951718936893e-13 3.910546474313048027e-14 4.916360152101492687e-14
4.324000000000000000e+03 1.042524909973144531e+01 -2.691864204406738281e+01 1.201130750985929599e-14 1.881514963362335147e-13 6.004884225497067463e-14 1.518657703931947101e-13
4.325000000000000000e+03 1.112927722930908203e+01 -2.686190605163574219e+01 -3.090826951475909856e-14 -1.324640097860162874e-14 -1.324640097860162874e-14 2.829543714675912536e-14
4.326000000000000000e+03 7.178202056884765625e+01 -3.235307693481445312e+01 4.740057698020445909e-14 4.319000669258943326e-14 2.717717577946452551e-14 5.587260729490554911e-14
4.327000000000000000e+03 2.718113136291503906e+01 1.394185662269592285e+00 -1.506227461549672353e-13 1.184511879857505501e-13 -9.651466942545237210e-15 -7.888256562706141839e-14
4.328000000000000000e+03 2.458149337768554688e+01 -8.111381530761718750e+00 -1.683082926501322518e-14 1.757905886828892150e-13 4.768792443723100793e-14 1.194917645733206690e-13
4.329000000000000000e+03 2.533179855346679688e+01 -7.288463115692138672e+00 4.960280504482522668e-14 3.872659300446085195e-13 1.310606218820828395e-13 4.996851321386816536e-14
4.330000000000000000e+03 6.483023071289062500e+01 2.440679550170898438e+01 -2.607829622006899856e-14 3.319557085809665686e-13 9.176321947310453475e-14 4.515912451386223936e-14
4.331000000000000000e+03 1.058614635467529297e+01 -8.514377593994140625e+00 8.624953642998381409e-15 1.409492504265627555e-13 4.487226155968151997e-14 6.541207869413187548e-14
4.332000000000000000e+03 1.050295352935791016e+01 -9.035583496093750000e+00 -7.827749272338799247e-14 1.220345100471330324e-14 -1.982221420966830128e-14 -1.284363427108336717e-14
4.333000000000000000e+03 6.380277156829833984e+00 -3.295918655395507812e+01 -5.034770614743139250e-14 2.128960256784356853e-13 4.876449653692764563e-14 -9.066363518229689222e-14
4.334000000000000000e+03 7.027533054351806641e+00 -3.367219161987304688e+01 -9.061274713689174837e-15 2.706222832632443343e-13 7.846830552948186321e-14 3.067562852766391596e-15
4.335000000000000000e+03 1.191129493713378906e+01 -8.702390670776367188e+00 8.005159306701675748e-14 1.944361419916815215e-13 8.234632051760948368e-14 8.586982172412507830e-14
4.336000000000000000e+03 5.230314254760742188e+01 2.574858665466308594e+01 7.137066409873202288e-14 1.678402696773245717e-13 7.176328081044333618e-14 3.669465312118244671e-14
4.337000000000000000e+03 5.153347778320312500e+01 2.585008239746093750e+01 4.315617619667609650e-14 -1.187573395742061444e-13 -2.268034901325901437e-14 6.105613595342785672e-16
4.338000000000000000e+03 2.579252243041992188e+01 6.166929721832275391e+00 -1.603619208181018135e-14 3.591349494267565001e-13 1.029296209354400859e-13 8.499925650753015899e-15
4.339000000000000000e+03 2.476798820495605469e+01 -1.100255489349365234e+00 -2.236922957656777358e-15 3.650489199119588690e-13 1.088435981969060329e-13 -1.439091630150296508e-13
4.340000000000000000e+03 5.406521320343017578e+00 -3.493814849853515625e+01 4.110576015312582265e-14 2.234960263733376529e-13 7.938053290862043254e-14 7.413801560510191457e-14
4.341000000000000000e+03 1.000299263000488281e+01 -3.334798431396484375e+01 -3.258315943037480913e-15 2.216394521257006311e-13 6.551433928778799265e-14 4.745511573761226898e-14
4.342000000000000000e+03 9.126453399658203125e+00 -8.151017189025878906e+00 9.357544307562332131e-14 5.154150083076444733e-14 4.353508452716904620e-14 -1.819341660831697016e-13
4.343000000000000000e+03 2.566410064697265625e+01 -1.183253288269042969e+01 1.922070858525223684e-15 5.040841875858514953e-13 1.518018702276538456e-13 -7.734437412363834308e-14
4.344000000000000000e+03 2.268100357055664062e+01 -2.062481880187988281e+01 -4.356184399203870405e-14 4.159646531300825734e-13 1.117208403697209085e-13 -2.436654427762172809e-14
4.345000000000000000e+03 7.838852405548095703e+00 -3.058624267578125000e+01 -2.797884503019567454e-14 1.710128620744516548e-13 4.291020460505702572e-14 -6.066523151881941800e-14
4.346000000000000000e+03 7.237319946289062500e+01 2.538358497619628906e+01 -6.609004386511421747e-14 -7.407525385184215994e-14 -4.204958863746055542e-14 -2.738845628969584917e-14
4.347000000000000000e+03 7.279901885986328125e+01 2.452509880065917969e+01 -3.579063179723687704e-14 -4.042219033453808841e-13 -1.320037557994008237e-13 3.672424845235951196e-14
4.348000000000000000e+03 2.272360610961914062e+01 -2.229111289978027344e+01 4.200502792817140119e-14 4.983871388503091637e-13 1.621176473230387383e-13 -3.364246137530987890e-14
4.349000000000000000e+03 6.654010772705078125e+00 -6.851853847503662109e+00 -5.004367552947572295e-14 2.430365885755167432e-14 -7.722005509796982942e-15 -9.057641789378401143e-14
4.350000000000000000e+03 2.542070960998535156e+01 -1.563172912597656250e+01 6.457840599755461722e-16 2.061560286630709227e-13 6.204054875088085841e-14 7.480646012575711823e-15
4.351000000000000000e+03 2.534202957153320312e+01 -8.057114601135253906e+00 5.475965513012433922e-15 1.395996897723614238e-13 4.352269751734839931e-14 -1.496915520140737477e-13
4.352000000000000000e+03 7.374132156372070312e+00 -6.805963993072509766e+00 -1.401964753056789137e-13 1.686705381484868149e-13 8.542219699875317623e-15 -1.022583168315549518e-13
4.353000000000000000e+03 1.065658664703369141e+01 -2.955904769897460938e+01 5.539320358741856021e-14 2.067437340031938464e-13 7.864107992193100638e-14 1.533435752237421318e-14
4.354000000000000000e+03 1.102069473266601562e+01 -2.826312446594238281e+01 4.149439919811682975e-14 -9.659405843546672865e-14 -1.652989709357861187e-14 -2.385261720127054841e-14
4.355000000000000000e+03 1.124422836303710938e+01 -2.095362472534179688e+01 6.136347804669081696e-14 3.465552768800589378e-13 1.223756203793877062e-13 5.216395823864732051e-14
4.356000000000000000e+03 9.631706237792968750e+00 -7.795141220092773438e+00 1.151527468214522121e-13 3.924833006339889518e-13 1.522908183023904960e-13 -1.537228325318093503e-13
4.357000000000000000e+03 8.140856742858886719e+00 -6.095972061157226562e+00 1.322555380370380590e-14 2.344228327080810637e-13 7.429452018870019714e-14 -8.742746110401711235e-14
4.358000000000000000e+03 1.019100189208984375e+01 -7.395267486572265625e+00 -5.891789064006031085e-14 2.764197833300674478e-13 6.525057322801300352e-14 -9.875462941974152975e-14
4.359000000000000000e+03 2.469425582885742188e+01 -1.347844028472900391e+01 -6.228670753678127239e-15 6.835947823427557246e-13 2.032098447846131251e-13 4.027999450911118329e-14
4.360000000000000000e+03 2.561136436462402344e+01 -1.046184539794921875e+01 1.649209740127444146e-13 5.739408514421340257e-13 2.216585476364635321e-13 -1.239118942002181978e-13
4.361000000000000000e+03 2.544169425964355469e+01 -9.632175445556640625e+00 -1.312192271073903127e-13 1.725179379777688760e-13 1.238961359992674788e-14 -7.562374527590384754e-14
4.362000000000000000e+03 2.505319786071777344e+01 5.367063522338867188e+00 -1.467178971630705986e-14 3.368442135463778353e-13 9.665172443851580142e-14 1.305890345946331133e-13
4.363000000000000000e+03 2.545652580261230469e+01 -2.652783393859863281e+00 4.607843308843985464e-14 5.001328669783366987e-13 1.638633890035934293e-13 6.497400680633910741e-14
4.364000000000000000e+03 2.447806739807128906e+01 -1.979639434814453125e+01 -1.272541981186571525e-14 3.605538448098882798e-13 1.043485230948354436e-13 5.246625074499522423e-14
4.365000000000000000e+03 2.571702957153320312e+01 2.906863451004028320e+00 -4.065971599123349711e-14 3.485820031061404034e-13 9.237668139108756726e-14 3.225732194919207763e-14
4.366000000000000000e+03 2.574471855163574219e+01 3.732530832290649414e+00 -1.072105051220725858e-13 1.828073825128895269e-13 2.267906321724508234e-14 -8.268626533252873556e-14
4.367000000000000000e+03 6.622171783447265625e+01 2.505782699584960938e+01 1.525972544939163678e-13 3.856554561375985513e-13 1.614758131894544757e-13 -1.238721446380694480e-13
4.368000000000000000e+03 6.697422027587890625e+01 2.501502990722656250e+01 -5.252844668024621300e-14 2.323875717780230638e-14 -8.786907189546350888e-15 -7.989508848341847491e-14
4.369000000000000000e+03 2.550146102905273438e+01 -1.459121894836425781e+01 -6.379511651474593925e-15 5.691527978080035410e-13 1.688319758519699065e-13 3.281284681358291599e-14
4.370000000000000000e+03 1.053734302520751953e+01 -1.902022933959960938e+01 1.185661676261426378e-13 9.656502214603485124e-14 6.453935693165324672e-14 1.245856851928364706e-13
4.371000000000000000e+03 7.360578155517578125e+01 -3.529550552368164062e+01 1.013541836992603445e-14 1.415966004386995380e-13 4.551960479555472450e-14 4.745762126107024720e-15
4.372000000000000000e+03 5.860280227661132812e+01 2.473625946044921875e+01 6.090930575663663915e-14 -2.026507623818438186e-13 -4.252243630993579604e-14 8.990123099086866354e-14
4.373000000000000000e+03 6.042061614990234375e+01 2.604677963256835938e+01 -2.989927370359440895e-14 3.293697440980535018e-14 9.113106777314033610e-16 1.510472519630767785e-13
4.374000000000000000e+03 2.647037315368652344e+01 -2.897679519653320312e+01 3.292937483020258460e-14 3.343692239320822379e-13 1.101895809839381624e-13 -3.224144177549695400e-14
4.375000000000000000e+03 2.600539588928222656e+01 -3.227322387695312500e+01 -9.568974403812140900e-15 2.360915011666991914e-13 6.795675540306397866e-14 -3.538411696892701519e-14
4.376000000000000000e+03 5.961592197418212891e+00 -3.602662658691406250e+01 -9.975327448829077182e-14 3.690071252032689486e-13 8.077615860262524206e-14 -4.335468345006282531e-14
4.377000000000000000e+03 4.694846343994140625e+01 2.649955177307128906e+01 -2.218031158317691071e-14 2.192488947555873424e-13 5.912057545994289787e-14 -1.448218308513007924e-14
4.378000000000000000e+03 4.404179382324218750e+01 2.636819076538085938e+01 -8.531979071543013132e-15 4.209438651597494085e-14 1.006872214862628359e-14 1.572251443621164313e-13
4.379000000000000000e+03 9.991217613220214844e+00 -6.503074169158935547e+00 -6.604706880150232329e-14 2.004488561897430077e-13 4.032053689409856312e-14 -9.444163252001272491e-14
4.380000000000000000e+03 1.032009506225585938e+01 -1.558111000061035156e+01 -8.266408662183782896e-14 1.032348255410606500e-14 -2.170218181324259227e-14 4.747781283246689521e-14
4.381000000000000000e+03 1.049485969543457031e+01 -1.834518432617187500e+01 7.709682366260559028e-14 -2.414642108223424843e-13 -4.931021275978927920e-14 2.338437603277565557e-13
4.382000000000000000e+03 1.101263046264648438e+01 -2.992016410827636719e+01 1.961767269356533283e-14 -8.309432514893438926e-14 -1.904299472017118022e-14 1.258836395176933867e-14
4.383000000000000000e+03 6.724723339080810547e+00 -3.104305458068847656e+01 3.327629919660721192e-14 1.515141229710761928e-13 5.543712393979959019e-14 6.050897765697352271e-14
4.384000000000000000e+03 7.301238250732421875e+01 -3.337355804443359375e+01 2.383181237802008828e-14 7.884005812563640858e-14 3.080156030406400181e-14 -2.073545294614589224e-14
4.385000000000000000e+03 2.635536003112792969e+01 -2.751968765258789062e+01 8.266954151401814666e-14 3.785619278988405778e-13 1.383694320147149659e-13 -2.769911409343083636e-14
4.386000000000000000e+03 1.026422119140625000e+01 -3.488359069824218750e+01 -2.931874442660062363e-14 3.318577170333646131e-14 1.160107865383396084e-15 7.188916345893248128e-14
4.387000000000000000e+03 2.452596092224121094e+01 -2.342113304138183594e+01 1.431793831445978687e-14 3.721438576135410736e-13 1.159385358984882375e-13 1.022611759912684087e-15
4.388000000000000000e+03 2.457801818847656250e+01 -2.538060379028320312e+01 5.606667270751687637e-14 3.900361750155262319e-13 1.338308533004733958e-13 6.388440649288075132e-15
4.389000000000000000e+03 6.630248546600341797e+00 -3.733846664428710938e+01 2.156061380863619203e-14 1.922440613817688604e-13 6.414140052424244232e-14 5.763352441774324819e-14
4.390000000000000000e+03 5.226403713226318359e+00 -3.777245712280273438e+01 -3.800931262982511216e-14 3.039669481830903353e-13 7.978728490615552560e-14 -4.480825975018698504e-14
4.391000000000000000e+03 2.357072830200195312e+01 -2.065154647827148438e+01 1.888462497002304369e-14 4.198519515993121010e-13 1.316209782224048164e-13 2.141940494599942763e-14
4.392000000000000000e+03 2.979055023193359375e+01 -2.860830497741699219e+01 2.954208668600084853e-14 3.214797948247055670e-13 1.053065647920251036e-13 -2.710425471303540279e-14
4.393000000000000000e+03 1.084825801849365234e+01 -3.817964935302734375e+01 -8.147237902768680873e-14 1.709625415411211713e-13 2.684704638233805646e-14 1.267886772811756615e-15
4.394000000000000000e+03 2.670927047729492188e+01 2.922503471374511719e+01 1.217710912708664175e-14 -1.777850327892849247e-13 -4.968237870802208467e-14 3.296559734715896750e-14
4.395000000000000000e+03 2.565814781188964844e+01 2.906116294860839844e+01 -4.366026583237786474e-14 -1.871154225758109996e-14 -1.871154225758109996e-14 2.488378325279667208e-14
4.396000000000000000e+03 5.939823913574218750e+01 2.516247367858886719e+01 9.622528739528651842e-14 -5.026248785667403185e-14 1.378883918395738817e-14 2.458330000882410354e-14
4.397000000000000000e+03 5.673888015747070312e+01 2.520527648925781250e+01 9.197326331523286713e-14 -2.920931115794715704e-14 1.882918496955935522e-14 1.287303190477054327e-13
4.398000000000000000e+03 2.731490325927734375e+01 2.871620750427246094e+01 1.103008133505715971e-13 1.387736767947261862e-13 7.472234636596297719e-14 -6.374109952963363801e-14
4.399000000000000000e+03 2.637377548217773438e+01 5.159144997596740723e-01 -5.100767356235047512e-14 3.441471554347513839e-13 8.794184727222570386e-14 1.079016772307685168e-13
4.400000000000000000e+03 2.614324378967285156e+01 -4.938080787658691406e+00 1.381307279657833370e-14 4.176784243990760981e-13 1.294474510221688135e-13 4.117428173042690653e-14
4.401000000000000000e+03 7.379422187805175781e+00 -9.276659965515136719e+00 2.891464194812454203e-14 4.241505150576196925e-13 1.359195552332395640e-13 8.572459284312064498e-14
4.402000000000000000e+03 9.966874122619628906e+00 -9.082241058349609375e+00 2.592222192920792118e-14 1.110952319992742493e-14 1.110952319992742493e-14 -2.214446726643147685e-15
4.403000000000000000e+03 1.006953430175781250e+01 -1.030910968780517578e+01 1.050614334570897090e-13 2.737810791877265393e-13 1.136527531158185167e-13 6.080562214762913475e-14
4.404000000000000000e+03 1.056130027770996094e+01 -1.495439147949218750e+01 -1.743302733886367001e-14 4.971738827379799941e-14 9.685308449886888271e-15 9.469768719183591088e-14
4.405000000000000000e+03 2.930824279785156250e+01 2.891536903381347656e+01 6.998047296811679696e-14 4.417501791881967010e-13 1.535191922587622604e-13 1.668179042981204202e-14
4.406000000000000000e+03 5.375125503540039062e+01 2.489958381652832031e+01 -7.184638490696435009e-14 -1.222932074617516518e-13 -5.824187703298844276e-14 5.321363196007095064e-14
4.407000000000000000e+03 5.648639297485351562e+01 2.388149642944335938e+01 1.421065312136055719e-14 -1.540380372084051985e-13 -4.194821573433316075e-14 1.613829648259082483e-13
4.408000000000000000e+03 2.610600471496582031e+01 -6.458821773529052734e+00 5.111417609700644182e-14 3.421627130933968530e-13 1.179830701452527775e-13 9.418019071864500158e-14
4.409000000000000000e+03 2.542520523071289062e+01 -3.439442157745361328e+00 -6.164564843834374752e-14 3.624635043063956230e-13 9.024535676041556265e-14 1.444063645788043471e-13
4.410000000000000000e+03 2.834205818176269531e+01 2.741726112365722656e+01 -9.018687760573712575e-14 -1.577604624085175711e-14 -3.178887884804255937e-14 -3.611644725556297994e-15
4.411000000000000000e+03 2.920559883117675781e+01 2.947137641906738281e+01 -8.223250639455281785e-14 5.625939641993975282e-14 -7.791932314757561706e-15 -6.849544125246340154e-14
4.412000000000000000e+03 2.865011405944824219e+01 2.882005882263183594e+01 -6.774068068635119566e-14 1.082211238483642146e-13 1.214413413445003184e-14 -8.952352883529260397e-14
4.413000000000000000e+03 2.991890716552734375e+01 2.903824996948242188e+01 3.135045798267552253e-14 5.918686087026323039e-14 2.716119565588162588e-14 -8.814665983887179368e-14
4.414000000000000000e+03 2.796791267395019531e+01 2.874095344543457031e+01 -7.397513116934491262e-15 -3.170362582893436129e-15 -3.170362582893436129e-15 -9.025470800415325012e-14
4.415000000000000000e+03 6.908080291748046875e+01 2.425366020202636719e+01 -1.489718992695593380e-13 7.340774445556072503e-14 -2.266924610538640500e-14 2.921779842807864513e-14
4.416000000000000000e+03 7.053977966308593750e+01 2.411122131347656250e+01 -9.125117111583036511e-14 -1.992359592193834739e-13 -8.714613774531143608e-14 -2.429791089197160664e-14
4.417000000000000000e+03 5.500606536865234375e+00 -3.021415901184082031e+01 4.320586992562561179e-14 1.557696436031361098e-13 5.969265473625487428e-14 8.667138594277076780e-14
4.418000000000000000e+03 5.968044281005859375e+00 -2.852830505371093750e+01 7.963681797340527169e-14 2.628848202491929076e-13 1.027564874010213070e-13 -9.633902020318024784e-14
4.419000000000000000e+03 3.207832717895507812e+01 2.811585998535156250e+01 -4.476869293539660535e-16 -9.169376277142968212e-14 -2.764243573079826211e-14 3.512348154292507796e-14
4.420000000000000000e+03 3.231303024291992188e+01 2.876115798950195312e+01 -2.590945036642922084e-14 -4.228625912969241618e-13 -1.346316179200168772e-13 -3.308617418126651166e-14
4.421000000000000000e+03 6.565733909606933594e+00 -2.941641044616699219e+01 8.903445878781154899e-14 2.211614138353246162e-13 9.305875975406177614e-14 3.446111533069937116e-14
4.422000000000000000e+03 6.420711517333984375e+00 -3.003476715087890625e+01 2.173776227922495641e-14 3.753237683753324339e-13 1.191184602128067538e-13 -9.927217671490927431e-15
4.423000000000000000e+03 3.282127380371093750e+01 2.794818115234375000e+01 1.336990515857488376e-14 2.860543426479525420e-14 1.259260165760445194e-14 7.279443161537640927e-14
4.424000000000000000e+03 3.929246139526367188e+01 2.593914031982421875e+01 -1.634600251378473534e-13 1.587004453632717693e-13 -1.427873826493556830e-15 1.173509802786937284e-13
4.425000000000000000e+03 3.800071716308593750e+01 2.714390754699707031e+01 -1.123683597884471419e-13 3.636006697550070443e-13 7.536969637809975975e-14 2.863967811278685105e-14
4.426000000000000000e+03 2.637442207336425781e+01 -1.208447456359863281e+01 -2.381084153631196632e-14 5.388067379416550118e-13 1.544987689216029136e-13 -1.471747935110831462e-13
4.427000000000000000e+03 2.634130096435546875e+01 -2.681367397308349609e-01 1.863394048708544998e-14 3.282426142958011495e-13 1.040629645713934959e-13 -5.203106215735490980e-14
4.428000000000000000e+03 2.552822685241699219e+01 -1.088814020156860352e+00 1.208831076687441608e-13 5.093165472702665397e-13 1.890598951264504946e-13 -8.730445159128505384e-14
4.429000000000000000e+03 2.610352134704589844e+01 -7.219735622406005859e+00 -3.156559757501453678e-14 3.067285195366281636e-13 8.254887658848408805e-14 -9.002128605268069905e-14
4.430000000000000000e+03 5.069866180419921875e+01 2.528658103942871094e+01 -1.561320754487390688e-14 -1.439442234027824008e-13 -4.786722775963758725e-14 1.980092488357201169e-14
4.431000000000000000e+03 6.942356872558593750e+01 2.276377868652343750e+01 9.355646276134124695e-14 2.230994252186424553e-13 9.499676436111603728e-14 -1.704347790286095399e-13
4.432000000000000000e+03 6.834237670898437500e+01 2.430667877197265625e+01 2.016796831535300205e-13 1.780772760967466034e-14 6.584622712531296163e-14 -2.070297736413498346e-13
4.433000000000000000e+03 3.593267059326171875e+01 2.792160797119140625e+01 -9.329112460841615384e-14 -1.772347595291670630e-13 -8.115776388602224944e-14 1.369436112902064351e-13
4.434000000000000000e+03 1.046653461456298828e+01 -1.765795516967773438e+01 -3.240245130382520856e-15 -9.289057289205496226e-14 -2.883924585142354224e-14 1.610290676842818236e-13
4.435000000000000000e+03 1.042815113067626953e+01 -1.697110748291015625e+01 -1.012141962581335208e-13 1.853772262647504498e-13 2.524891205130368882e-14 -3.692830207748486193e-14
4.436000000000000000e+03 6.044895172119140625e+00 -1.578496551513671875e+01 -2.401399900057912123e-14 3.545923523882131556e-14 3.433570447956184671e-15 -1.100634408374330520e-13
4.437000000000000000e+03 3.500211715698242188e+01 2.744524192810058594e+01 1.141112516266507958e-15 -2.282657027806445083e-13 -6.813737670873648566e-14 3.119409104193116879e-15
4.438000000000000000e+03 3.571232604980468750e+01 2.728035545349121094e+01 -6.164385950475914644e-14 1.108340510840542803e-13 1.475705713497536126e-14 7.540670155349940562e-14
4.439000000000000000e+03 3.355096817016601562e+01 2.778511619567871094e+01 4.101045804101051797e-16 -2.514544562154386043e-13 -7.531330431260335745e-14 9.387227730165911832e-14
4.440000000000000000e+03 3.427489471435546875e+01 2.760617446899414062e+01 -5.672922187885919010e-14 -1.844408415059561879e-13 -7.235102003188415010e-14 -3.801903656805959153e-14
4.441000000000000000e+03 5.378009796142578125e+00 -2.846803665161132812e+01 -4.475662800985415191e-14 2.095733254905279841e-13 4.944500958301532856e-14 2.359707752547929305e-14
4.442000000000000000e+03 6.060330867767333984e+00 -2.781989097595214844e+01 3.646142090509008060e-14 1.986301205979257301e-13 7.052745974039931198e-14 6.932011930617376638e-14
4.443000000000000000e+03 4.479281234741210938e+01 2.620129585266113281e+01 -8.155893224236904215e-14 -8.070477744209422766e-14 -4.867911222771262314e-14 1.380953863630920986e-13
4.444000000000000000e+03 6.345920944213867188e+01 2.384207916259765625e+01 -7.087977123634847665e-14 3.356305576344975616e-13 7.942522914318114746e-14 2.087288539709061808e-13
4.445000000000000000e+03 6.263673400878906250e+01 2.377466392517089844e+01 -3.144584066879993478e-14 -1.278541617195927405e-13 -4.779000207177051818e-14 8.266442543501673068e-14
4.446000000000000000e+03 8.864435195922851562e+00 -6.766130447387695312e+00 3.484571233446608074e-14 1.493387695678059096e-14 1.493387695678059096e-14 -5.539166876371813542e-14
4.447000000000000000e+03 4.118267822265625000e+01 2.679622077941894531e+01 -1.527968696663981052e-13 1.403948978557709171e-13 -3.720593067847461494e-15 3.802623295997946407e-14
4.448000000000000000e+03 4.192084884643554688e+01 2.601408576965332031e+01 -7.292059209067225378e-14 3.805068510710080121e-13 9.227587769410072749e-14 1.525589821572276295e-13
4.449000000000000000e+03 4.048526763916015625e+01 2.681471824645996094e+01 -1.328454761560099451e-13 1.718209721637137255e-13 1.169264863290454468e-14 4.430140878707716778e-14
4.450000000000000000e+03 4.259904098510742188e+01 2.522056198120117188e+01 4.061525014963443536e-14 5.206669513938000371e-13 1.683846611406566995e-13 8.844432076906411089e-14
4.451000000000000000e+03 7.067179203033447266e+00 -3.030899429321289062e+01 1.219907421606825082e-13 2.124100591596733700e-13 1.003202376856013323e-13 -4.089552318748551629e-14
4.452000000000000000e+03 7.364920043945312500e+01 -2.234896659851074219e+01 9.834907004459617075e-14 8.790055272198116221e-14 5.587488411946776867e-14 -5.128111273838310835e-14
4.453000000000000000e+03 7.419212341308593750e+01 -2.411643981933593750e+01 -2.353075484570928133e-14 -1.473374509420102840e-13 -5.126046207512904851e-14 -4.183371043239153542e-14
4.454000000000000000e+03 1.085974407196044922e+01 -1.426503944396972656e+01 -4.663934169424344134e-14 7.151360937891065861e-14 7.462280644213344083e-15 6.994703210735919718e-14
4.455000000000000000e+03 7.391189575195312500e+01 -2.801301956176757812e+01 2.422539375437920582e-16 1.373566652128691001e-13 4.127967634598786462e-14 -1.186804154300682979e-13
4.456000000000000000e+03 7.454254150390625000e+01 -2.748592376708984375e+01 2.178555865437262207e-14 -1.736671245179677303e-13 -4.556447043670489028e-14 3.395124893029732860e-14
4.457000000000000000e+03 2.660048103332519531e+01 2.833226394653320312e+01 -1.049633673705883952e-13 1.380194922110181133e-13 9.916838976788220489e-15 -3.268667617389170443e-14
4.458000000000000000e+03 2.271081924438476562e+01 -2.145280838012695312e+01 -1.752866582893815306e-14 3.127443508159355456e-13 8.856470786779147009e-14 -1.637469058797199652e-15
4.459000000000000000e+03 2.668093681335449219e+01 2.694780540466308594e+01 2.898752405103809104e-14 -9.623528238406411917e-14 -2.017432580584191393e-14 2.196875155207299313e-14
4.460000000000000000e+03 3.917755126953125000e+01 2.664430618286132812e+01 -1.187905839233199812e-13 3.608482870148810306e-13 7.261731363797374605e-14 7.814893345078552378e-14
4.461000000000000000e+03 2.611438560485839844e+01 2.869071197509765625e+01 2.622421627995839138e-14 -8.026294472801565050e-14 -1.621161938145012499e-14 7.028806112445093457e-14
4.462000000000000000e+03 2.643381500244140625e+01 2.547550392150878906e+01 1.581661742495934359e-14 -1.190365622912026300e-13 -3.096598295165321757e-14 -3.317915807008429974e-14
4.463000000000000000e+03 7.388090515136718750e+01 -1.617957115173339844e+01 1.331783533280173071e-13 -2.174292646969777643e-13 -2.527527341068813715e-14 1.051931657151125923e-14
4.464000000000000000e+03 1.077944278717041016e+01 -2.060996437072753906e+01 1.009070959927770017e-13 -1.397579019743813711e-13 -1.165524111685495301e-14 6.238239091960195992e-14
4.465000000000000000e+03 1.124458026885986328e+01 -1.968664169311523438e+01 1.849676824466212066e-13 2.622756612585819269e-13 1.341730004010555088e-13 8.887383423595782150e-14
4.466000000000000000e+03 7.413542938232421875e+01 -2.591786384582519531e+01 5.813430384868714662e-14 -1.809645640803159150e-13 -3.684908077999406173e-14 -7.177446164534709294e-14
4.467000000000000000e+03 5.145843124389648438e+01 2.518679618835449219e+01 4.647331815438391495e-15 4.774266309441436984e-14 1.571699788003276532e-14 9.257617459082490008e-14
4.468000000000000000e+03 2.579137992858886719e+01 2.351607894897460938e+01 4.352555879464422434e-15 -2.268893623327827846e-13 -6.676104303713834009e-14 1.346101642695288203e-13
4.469000000000000000e+03 2.682219505310058594e+01 2.599759292602539062e+01 2.153937022231905418e-15 -3.765222183517435983e-13 -1.123104837212271501e-13 -3.625469404398319606e-14
4.470000000000000000e+03 7.380236053466796875e+01 -1.465128135681152344e+01 1.199979514625998389e-13 2.855222026691695003e-14 4.456505287410775229e-14 4.143634017178023099e-14
4.471000000000000000e+03 7.393141174316406250e+01 -8.976444244384765625e+00 -1.120685372301734317e-13 -2.767841294701312016e-13 -1.166557898456960229e-13 -3.287000798499542520e-14
4.472000000000000000e+03 4.679705429077148438e+01 2.574203109741210938e+01 2.063961286222996266e-14 2.376003040149843315e-13 7.747197116681273088e-14 3.207955345048592311e-14
4.473000000000000000e+03 4.842566680908203125e+01 2.476787757873535156e+01 5.706710840371661403e-15 1.168231093459648484e-13 3.675894631001083712e-14 -1.034940769152267737e-13
4.474000000000000000e+03 7.395632171630859375e+01 -2.652340173721313477e+00 -1.747595124168555003e-13 -7.489693679705103357e-14 -7.489693679705103357e-14 -1.271398571411072945e-14
4.475000000000000000e+03 6.066088199615478516e+00 -2.216241836547851562e+01 4.250922937222220699e-14 1.097201417720426730e-13 4.566881134327946401e-14 2.443146257676519217e-14
4.476000000000000000e+03 5.407244682312011719e+00 -2.404890632629394531e+01 9.297552013226920153e-15 -1.889081000460389459e-14 -2.877977185654855517e-15 -1.125736737985980063e-13
4.477000000000000000e+03 6.957417011260986328e+00 -2.488300132751464844e+01 -5.177867344412744044e-14 6.846136384644594015e-16 -1.532821822757251401e-14 -8.229933390595939313e-14
4.478000000000000000e+03 7.397214508056640625e+01 -1.847675800323486328e+00 -2.573849607837713771e-13 1.641978518212780513e-13 -2.795613099468210322e-14 -3.546835270146556085e-14
4.479000000000000000e+03 7.404301452636718750e+01 4.522740840911865234e+00 -6.709247686500358077e-14 -2.575086682516519732e-13 -9.738034217974395057e-14 5.941876493869430176e-14
4.480000000000000000e+03 7.405434417724609375e+01 5.319889545440673828e+00 -8.934266358413128772e-14 -3.585463631723684319e-13 -1.343667066716972003e-13 -1.492397005942950466e-14
4.481000000000000000e+03 7.395595550537109375e+01 -7.412972927093505859e+00 -7.225470899764954713e-14 -1.224681976923908122e-13 -5.841687403989118121e-14 6.287209115959577210e-14
4.482000000000000000e+03 2.642714881896972656e+01 1.172140026092529297e+01 -1.510990768269215856e-13 3.012508320056339617e-13 4.504553061937185965e-14 -5.676297783587316848e-14
4.483000000000000000e+03 2.644136619567871094e+01 1.093655395507812500e+01 4.349213910971030592e-15 2.763696389795899933e-13 8.421565446956394418e-14 -3.976902696587771013e-15
4.484000000000000000e+03 6.490256786346435547e+00 -8.727346420288085938e+00 1.012386043595416008e-13 1.348898748775029244e-13 7.083854444873971534e-14 -1.222181129087798745e-13
4.485000000000000000e+03 7.407957458496093750e+01 1.901757240295410156e+01 -7.428513506364461949e-14 -7.758743192191885907e-14 -4.556177009566904357e-14 9.763214813430370898e-14
4.486000000000000000e+03 7.393244171142578125e+01 1.171330451965332031e+01 7.034308438470457392e-14 -3.358605440203360493e-13 -7.965524263407394723e-14 6.481992812510176116e-14
4.487000000000000000e+03 7.387525939941406250e+01 1.254044246673583984e+01 -3.131747451970944007e-14 -1.735500984459750762e-13 -6.146027019563946037e-14 1.022652353966681249e-13
4.488000000000000000e+03 7.383095550537109375e+01 1.336182689666748047e+01 1.416785085246990289e-14 -3.141847134020825383e-13 -9.000505690141130666e-14 -4.666991958363932158e-14
4.489000000000000000e+03 7.411105346679687500e+01 2.057844352722167969e+01 -3.693962521392375742e-14 -6.158221583498976748e-14 -2.955655400873995198e-14 9.228195261439843533e-15
4.490000000000000000e+03 7.482744598388671875e+01 2.207568359375000000e+01 7.781191598173198276e-14 2.163517574729073578e-13 8.824910339164451778e-14 -3.326948905171128734e-14
4.491000000000000000e+03 7.483484649658203125e+01 2.443263816833496094e+01 -1.150096185821569694e-13 -3.695464886790261749e-13 -1.453668321783549433e-13 -1.072411609384996134e-13
4.492000000000000000e+03 7.467135620117187500e+01 -5.027179718017578125e+00 -1.676042795219559456e-13 -3.005851589767821741e-13 -1.404568329048741515e-13 -1.551146228606289923e-13
4.493000000000000000e+03 4.542067527770996094e+00 -7.117470264434814453e+00 6.679226128344234459e-14 1.201271477039786428e-13 5.607582405147901183e-14 -1.396721686875920798e-13
4.494000000000000000e+03 7.406309509277343750e+01 1.822193336486816406e+01 1.558495086456668233e-13 -2.534639978370861746e-13 -2.928434472454673199e-14 2.155887569702842621e-14
4.495000000000000000e+03 7.454433441162109375e+01 -1.220417022705078125e+01 7.912972984107022323e-14 1.025391658518101656e-13 5.450066803023775885e-14 6.500784746664781122e-14
4.496000000000000000e+03 7.413212585449218750e+01 2.133529472351074219e+01 4.547028037297021208e-14 -1.177655791894521853e-13 -2.168859032257094976e-14 -2.551302370052115770e-14
4.497000000000000000e+03 2.641380500793457031e+01 1.328043079376220703e+01 -1.142895999194093459e-13 2.255244331127864710e-13 3.337044860276042191e-14 4.935280835264080346e-14
4.498000000000000000e+03 2.571481513977050781e+01 1.334599876403808594e+01 -6.375564816753567787e-14 -7.307479952091758268e-14 -4.104913430653597817e-14 -7.462843412903499840e-14
4.499000000000000000e+03 2.678744316101074219e+01 1.953527069091796875e+01 8.667333750668124170e-14 1.286476079744719447e-13 6.459628432197231374e-14 1.804262848067311742e-14
4.500000000000000000e+03 7.404418182373046875e+01 1.742342948913574219e+01 1.120277305709065085e-14 4.801188574043557117e-15 4.801188574043557117e-15 4.307138819865594104e-14
4.501000000000000000e+03 7.407276153564453125e+01 6.896540641784667969e+00 -1.233864627223774102e-13 -4.188874995567776205e-13 -1.626821913942519404e-13 -4.776556686530812612e-14
4.502000000000000000e+03 2.578691291809082031e+01 8.572448730468750000e+00 -1.195875402827326073e-13 1.775029369365313525e-13 1.737462102901869698e-14 1.468326735155553453e-13
4.503000000000000000e+03 2.650121879577636719e+01 8.564414978027343750e+00 -4.262629610179632933e-14 2.562372785740868464e-13 6.408329406406079731e-14 3.583832991656266120e-14
4.504000000000000000e+03 7.376866912841796875e+01 -1.386742687225341797e+01 -9.646566856945371082e-14 -1.557197974082560887e-13 -7.565564114856565547e-14 -9.261585639033786954e-14
4.505000000000000000e+03 7.338711547851562500e+01 -2.402986145019531250e+01 5.820912057485222446e-15 2.537015126517598584e-14 9.357318657985183585e-15 3.672802283117247713e-14
4.506000000000000000e+03 7.475692749023437500e+01 8.535640716552734375e+00 -7.160027948413961313e-15 -2.318233224742755061e-13 -7.169500995489463957e-14 1.453588768449143309e-13
4.507000000000000000e+03 2.568838500976562500e+01 1.739196395874023438e+01 -6.332657176964275048e-15 1.574143240886879958e-13 4.532449922648416896e-14 3.037945668139287181e-14
4.508000000000000000e+03 7.400923919677734375e+01 -2.551383376121520996e-01 -1.971742810257665068e-13 5.274958326585178769e-14 -4.332740898916123684e-14 4.852409842210150814e-14
4.509000000000000000e+03 7.379561614990234375e+01 -2.078456115722656250e+01 1.728594887671561220e-13 1.198335864132510364e-13 8.780792119886943192e-14 -7.219427150279705829e-14
4.510000000000000000e+03 7.407240295410156250e+01 7.687063217163085938e+00 -7.623663290554864164e-15 -4.150258153638730629e-13 -1.267948419869657783e-13 1.356080368440301664e-13
4.511000000000000000e+03 7.395699310302734375e+01 -6.634261608123779297e+00 -1.355959886473884213e-13 3.338933404935240379e-14 -3.066199637941080525e-14 4.926735628079000062e-14
4.512000000000000000e+03 7.472896575927734375e+01 1.363724112510681152e+00 -2.715354796480745625e-13 -4.823799237656245520e-13 -2.261746291556260280e-13 -1.631971433804692978e-14
4.513000000000000000e+03 7.465330505371093750e+01 1.499442005157470703e+01 -1.830518497739942740e-14 -9.934697650041540706e-14 -3.529564945978398705e-14 9.717012215476258929e-14
4.514000000000000000e+03 7.394770050048828125e+01 -3.459125280380249023e+00 -1.843588487166619716e-13 1.039928641246787300e-13 -2.410979503878179359e-14 -4.995136672591689656e-15
4.515000000000000000e+03 7.404393005371093750e+01 9.273820877075195312e+00 4.657638681747171272e-14 -9.441606567753280110e-14 -1.435190433564468432e-14 2.416763722468389525e-15
4.516000000000000000e+03 7.397930145263671875e+01 1.089083003997802734e+01 3.313498021968730445e-14 -3.746823543700900094e-13 -1.024642136003735271e-13 3.162527612834628576e-14
4.517000000000000000e+03 7.401639556884765625e+01 1.007804584503173828e+01 7.762035101038095020e-14 -3.784926744850730662e-13 -9.026169433190220359e-14 5.918099940226823064e-14
4.518000000000000000e+03 2.641164970397949219e+01 1.406626605987548828e+01 8.463768016520392679e-14 1.735261375779631465e-13 7.744914193481833298e-14 -6.694449004472288745e-14
4.519000000000000000e+03 7.402262878417968750e+01 5.374951958656311035e-01 -4.044002546027547496e-13 -5.393220050241287478e-13 -2.831166833090759116e-13 1.040795054307874778e-13
4.520000000000000000e+03 7.456230163574218750e+01 -1.139469146728515625e+01 -1.429313752857735986e-13 -3.128865168258027074e-13 -1.367453649229674606e-13 -4.209436618718420675e-14
4.521000000000000000e+03 7.375976562500000000e+01 -1.305842685699462891e+01 8.004396299422789074e-14 8.005550297110128333e-14 4.802983775671967881e-14 -8.868003817982372111e-15
4.522000000000000000e+03 7.384814453125000000e+01 1.417637252807617188e+01 -3.949275869980124753e-14 -2.685556855022697142e-13 -9.241453359943446744e-14 1.070436735127813788e-13
4.523000000000000000e+03 7.377336883544921875e+01 -1.223464584350585938e+01 -1.091715761303464760e-13 -3.212935017864182452e-13 -1.291395240526557742e-13 -6.289662123374825664e-14
4.524000000000000000e+03 7.397807312011718750e+01 1.581498622894287109e+01 3.342613254871291961e-14 -7.717641087832960434e-14 -1.312508299066523706e-14 8.148310585293083719e-14
4.525000000000000000e+03 7.391542816162109375e+01 1.499566268920898438e+01 1.016276567566108679e-13 -2.995773930574568977e-13 -5.938492427838559795e-14 1.162045855590890242e-13
4.526000000000000000e+03 7.403471374511718750e+01 2.122877836227416992e+00 -1.667021962093936938e-13 -2.544475860479650242e-13 -1.263449387429657622e-13 8.217821497076560622e-14
4.527000000000000000e+03 7.403724670410156250e+01 3.721666812896728516e+00 -1.690480166873647994e-13 -1.639510467492388823e-13 -9.989971632047567329e-14 1.691860085188678919e-13
4.528000000000000000e+03 7.403584289550781250e+01 2.920750856399536133e+00 -1.924787775995848160e-13 -4.713739706722896994e-13 -1.991558231263096390e-13 1.840842516465904417e-15
4.529000000000000000e+03 7.416382598876953125e+01 2.206946372985839844e+01 8.906696452419538002e-14 -1.448322391921566532e-13 -1.672958172276202415e-14 3.306204390666513115e-14
4.530000000000000000e+03 7.394586181640625000e+01 -4.263096809387207031e+00 -2.071433167138633791e-13 -3.861568725373187849e-13 -1.779900554201019336e-13 -3.800642255340908049e-14
4.531000000000000000e+03 2.536163902282714844e+01 2.135877227783203125e+01 1.698241970226471720e-13 -1.872010067848015741e-14 4.533122805621715712e-14 4.496349378436438615e-14
4.532000000000000000e+03 7.395350646972656250e+01 -5.851678848266601562e+00 -1.166232231229399896e-13 -2.787361270614741038e-13 -1.186078009895660812e-13 -5.319666334903860525e-15
4.533000000000000000e+03 2.570569801330566406e+01 1.655920028686523438e+01 -2.084419842404618833e-14 1.511950964818223331e-13 3.910526823148671727e-14 -3.954135128591933224e-14
4.534000000000000000e+03 2.725349617004394531e+01 1.803768730163574219e+01 -8.042040476477843591e-14 1.027869602583317277e-13 6.709967579802229506e-15 2.888380656071269648e-14
4.535000000000000000e+03 7.321977996826171875e+01 -8.981466293334960938e+00 1.846088996189550191e-14 7.911810346683621070e-15 7.911810346683621070e-15 -7.093947011847095974e-14
4.536000000000000000e+03 7.289438629150390625e+01 -2.227855491638183594e+01 6.824122294806986289e-14 7.499718484042447453e-14 4.297152301417465903e-14 -1.654423905544152168e-14
4.537000000000000000e+03 2.628733062744140625e+01 2.164073753356933594e+01 1.150432559545583322e-13 4.930424964784060893e-14 4.930424964784060893e-14 5.073779023063041543e-15
4.538000000000000000e+03 7.457323455810546875e+01 -1.847659873962402344e+01 1.457863913140525214e-13 -6.146539474497034888e-15 4.189195580597653013e-14 -1.007863768571343188e-13
4.539000000000000000e+03 7.383388519287109375e+01 -2.001857757568359375e+01 1.637977913840262673e-14 7.019905405532050544e-15 7.019905405532050544e-15 -8.093288002665802172e-14
4.540000000000000000e+03 9.826732635498046875e+00 -2.583128929138183594e+01 4.681688742328446798e-15 2.307611838160000817e-13 7.063286452035563712e-14 2.190612193595301016e-14
4.541000000000000000e+03 2.706508255004882812e+01 2.508501052856445312e+01 1.366896369313017057e-13 -1.701734727525133772e-13 -1.004514752763830190e-14 -2.231729375140687616e-14
4.542000000000000000e+03 7.384295654296875000e+01 -1.925129127502441406e+01 2.078341296805896743e-13 3.178265213944070355e-13 1.576981953224990129e-13 -9.263319684883405958e-14
4.543000000000000000e+03 2.641266441345214844e+01 1.486044311523437500e+01 1.953284403796370916e-14 1.456240591437771292e-13 4.954707366502768273e-14 1.165512168520939015e-14
4.544000000000000000e+03 2.717967796325683594e+01 1.722758865356445312e+01 -3.770686088128312463e-14 1.210927652638485452e-13 2.501576962070373167e-14 7.483338222095264891e-14
4.545000000000000000e+03 2.645982742309570312e+01 1.014492797851562500e+01 -5.666492191376722165e-14 3.417226354315849868e-13 8.551731371653215064e-14 -4.081744707853940390e-14
4.546000000000000000e+03 7.318724822998046875e+01 -1.625701141357421875e+01 -4.463784010933120883e-14 -1.563833426903443735e-13 -6.030635382346313800e-14 -6.335336850396208752e-14
4.547000000000000000e+03 7.311424255371093750e+01 -1.552312088012695312e+01 8.668651733934051862e-14 -8.599585006228115114e-15 2.342607851408759490e-14 -3.075505819525974072e-14
4.548000000000000000e+03 2.641607284545898438e+01 1.566872406005859375e+01 -6.532896104508370549e-14 1.092547208844489581e-13 1.317772778240298634e-14 -8.707131424288278021e-14
4.549000000000000000e+03 2.653073501586914062e+01 6.977165699005126953e+00 -9.819236217309054715e-14 2.781742121805291790e-13 5.399455229172615833e-14 8.120811830067062309e-14
4.550000000000000000e+03 2.651901817321777344e+01 7.772044181823730469e+00 -1.460207009560537950e-13 2.576763401176268564e-13 3.349669378135099185e-14 -2.077072339806956131e-14
4.551000000000000000e+03 7.493349552154541016e+00 -3.145985412597656250e+01 4.007724192659281592e-14 8.580238434899647992e-14 3.776388991555586216e-14 -6.683251906535944697e-14
4.552000000000000000e+03 5.947056770324707031e+00 -6.926003932952880859e+00 -4.299573799207076497e-14 2.103279979652136755e-13 5.019967866956923097e-14 -7.892264044986191385e-14
4.553000000000000000e+03 5.436150550842285156e+00 -9.342280387878417969e+00 4.733649385554698774e-14 4.091701207454417899e-13 1.369519867519888856e-13 -1.267347771866100814e-13
4.554000000000000000e+03 6.624763488769531250e+00 -2.215509986877441406e+01 -3.585464715925856805e-14 3.048903631733962394e-13 8.071071344898858579e-14 -4.556306097388065912e-14
4.555000000000000000e+03 1.013280391693115234e+01 -1.413805198669433594e+01 8.123092720387428689e-14 5.768873063711349447e-14 4.167589802992269221e-14 1.043989706831080153e-14
4.556000000000000000e+03 1.032408237457275391e+01 -1.086884689331054688e+01 1.197190133486736308e-13 2.800628923649989277e-13 1.199345662930909051e-13 5.051923031925038832e-14
4.557000000000000000e+03 7.540487766265869141e+00 -1.294027614593505859e+01 8.686223940644610675e-14 3.722667451535287275e-14 3.722667451535287275e-14 -1.309524862679045665e-13
4.558000000000000000e+03 6.092526912689208984e+00 -1.392326831817626953e+01 -4.824954455071028825e-14 2.507257334421249956e-14 -6.953091870169104960e-15 -6.218363633259463286e-14
4.559000000000000000e+03 6.421922302246093750e+01 2.407125091552734375e+01 -3.745600360362429104e-14 1.212002774617776391e-13 2.512328012456693099e-14 1.374031368284872601e-13
4.560000000000000000e+03 6.058002948760986328e+00 -1.245739173889160156e+01 -1.819622604719642323e-14 1.294544576787085011e-13 3.337747219995905457e-14 -1.129318941963872169e-13
4.561000000000000000e+03 5.245912551879882812e+00 -1.828302955627441406e+01 -9.592589174161822441e-14 4.639851667481188768e-15 -2.738581185283452124e-14 1.939764063892297774e-14
4.562000000000000000e+03 6.457646369934082031e+00 -1.703077888488769531e+01 5.104110764684449686e-14 -2.959505673839034345e-14 6.433814510206593493e-15 -6.257195689319747234e-14
4.563000000000000000e+03 6.115312576293945312e+00 -1.467730331420898438e+01 8.398880549376208648e-15 3.599520295949299939e-15 3.599520295949299939e-15 -1.121995427339275708e-13
4.564000000000000000e+03 9.775129318237304688e+00 -1.842961311340332031e+01 8.557436307959562227e-14 8.242567734037184457e-14 5.040001212599024005e-14 8.892618087209813726e-14
4.565000000000000000e+03 2.640338897705078125e+01 2.246834373474121094e+01 -3.576098987924771280e-15 4.421833518374225502e-14 1.219267081639359776e-14 -3.371152844182899455e-14
4.566000000000000000e+03 5.216633319854736328e+00 -1.902805137634277344e+01 1.882795135077497406e-13 5.382007231373442391e-13 2.179440709935281939e-13 -9.773386323874179438e-15
4.567000000000000000e+03 7.051999568939208984e+00 -1.645362091064453125e+01 1.015194940373782828e-13 1.078456239784510162e-13 6.280953269424335850e-14 -1.192425878090291880e-14
4.568000000000000000e+03 7.636591434478759766e+00 -1.062652301788330078e+01 1.600299211722278070e-13 1.711443453047880453e-14 5.314330789665810961e-14 2.965848934174432350e-14
4.569000000000000000e+03 5.405972003936767578e+00 -1.093545055389404297e+01 1.968022268858827389e-14 5.418533121650213891e-14 2.215966600212053439e-14 -2.425126817569810134e-14
4.570000000000000000e+03 5.877729415893554688e+00 -1.898704528808593750e+01 -3.385142609746340930e-15 3.188058541117588796e-13 9.462621793987838203e-14 1.130595386734066510e-13
4.571000000000000000e+03 5.884023189544677734e+00 -1.961618423461914062e+01 4.161006662926208799e-14 3.609650013787490952e-13 1.207725190471506393e-13 2.029025751126671551e-14
4.572000000000000000e+03 5.311017990112304688e+00 -2.639282035827636719e+01 -3.029602054795653421e-14 3.276694101597352193e-14 7.412761192292726363e-16 -3.418723908566595471e-14
4.573000000000000000e+03 7.013364791870117188e+00 -2.289205360412597656e+01 1.552895995387409966e-15 1.836693232400155029e-13 5.556666577062087387e-14 6.027969600254715066e-14
4.574000000000000000e+03 6.746181011199951172e+00 -1.082437324523925781e+01 8.009765133055665731e-14 1.601426781981662995e-13 7.207209547048509801e-14 -1.011631913221816559e-13
4.575000000000000000e+03 7.242544174194335938e+00 -8.147329330444335938e+00 7.842650953573254702e-14 3.081170572589303491e-13 1.159630659726407220e-13 -1.849280684097440175e-13
4.576000000000000000e+03 6.474958896636962891e+00 -1.807554054260253906e+01 -1.252707518880485926e-14 -5.111969536369075084e-14 -1.909403184337504084e-14 -4.843941206803502320e-14
4.577000000000000000e+03 9.509175300598144531e+00 -2.517313575744628906e+01 2.545070071032808079e-14 3.378291637862358698e-14 1.777008546549867923e-14 -7.210428102841486692e-15
4.578000000000000000e+03 7.081276702880859375e+01 2.244166946411132812e+01 7.572882479520842702e-14 7.820615899670202431e-14 4.618049378232041979e-14 -1.917895367260086248e-13
4.579000000000000000e+03 6.089079380035400391e+00 -2.707163047790527344e+01 5.634265298239127251e-14 1.613997021969459933e-13 6.532270655380117974e-14 -7.487460900856141022e-14
4.580000000000000000e+03 1.092985725402832031e+01 -2.159675025939941406e+01 -4.241132083384908241e-15 1.583106882347903865e-13 4.622086676071834876e-14 4.573617756764049302e-14
4.581000000000000000e+03 6.985569477081298828e+00 -3.225617599487304688e+01 5.776347960064279197e-14 -2.099517018843300581e-14 1.103049333188270420e-14 3.634771181411887431e-14
4.582000000000000000e+03 8.745232582092285156e+00 -3.082842826843261719e+01 9.552416095539445484e-14 8.668987158981164565e-14 5.466420976356183015e-14 9.945865610044499205e-14
4.583000000000000000e+03 1.001904296875000000e+01 -2.538513374328613281e+01 1.924441746096235833e-14 4.200061522532938518e-13 1.317751653238594112e-13 2.012742389748654881e-14
4.584000000000000000e+03 9.779748916625976562e+00 -2.462911796569824219e+01 -4.377758328370437435e-14 3.701212513557150530e-13 9.790309703347141457e-14 5.001593011825546109e-14
4.585000000000000000e+03 1.042414569854736328e+01 -1.214527797698974609e+01 3.162900307331420469e-14 1.508081311739351005e-13 5.473114230705386496e-14 1.029109048954375549e-13
4.586000000000000000e+03 1.040271663665771484e+01 -1.150782299041748047e+01 7.555218793251980425e-14 1.696323610007530180e-13 7.355536535760820449e-14 3.438300872856715762e-14
4.587000000000000000e+03 2.552877235412597656e+01 -1.362585353851318359e+01 -9.058936055721805714e-14 4.415609588040436684e-13 1.052914808293003990e-13 -3.805365988681155831e-14
4.588000000000000000e+03 7.775413036346435547e+00 -3.447207641601562500e+01 -4.078072989434182449e-14 2.341527579469149245e-13 5.801161282034325573e-14 -8.446010140187795723e-14
4.589000000000000000e+03 6.682943725585937500e+01 2.434181976318359375e+01 1.782284714778314960e-13 1.221345751313898664e-13 9.010891669327183995e-14 -1.899150460374712801e-13
4.590000000000000000e+03 2.614125061035156250e+01 -8.735878944396972656e+00 -1.843742206705887426e-14 2.208529854223068023e-13 6.072467290292593578e-14 5.451427476750245193e-14
4.591000000000000000e+03 2.537266349792480469e+01 -8.834305763244628906e+00 6.500541478802329687e-14 5.311199071690586582e-13 1.788375898108610085e-13 -1.962514758991826258e-13
4.592000000000000000e+03 5.880537033081054688e+01 2.540072822570800781e+01 4.045618075027186678e-14 1.088402642752256400e-13 4.478893384646243092e-14 1.200254630927266586e-13
4.593000000000000000e+03 6.929753780364990234e+00 -3.532214355468750000e+01 1.420778506780115413e-14 2.348438013066028729e-13 7.471547523469485030e-14 8.483331767096535803e-14
4.594000000000000000e+03 7.398053741455078125e+01 2.416431427001953125e+01 -7.278974244098040947e-15 -3.348139365581814797e-13 -1.026278739183102140e-13 -4.280292957635316309e-14
4.595000000000000000e+03 9.470762252807617188e+00 -8.508690834045410156e+00 -3.890984756615978313e-14 2.978621310104762054e-13 7.768568096753677987e-14 -3.287804802173076302e-14
4.596000000000000000e+03 8.103107452392578125e+00 -6.766211032867431641e+00 -4.896095735871380805e-14 2.077714763475471682e-13 4.764315366377093464e-14 -7.132745186589489750e-14
4.597000000000000000e+03 2.653352928161621094e+01 6.184195995330810547e+00 -7.570581260409742219e-14 3.793131986892100960e-13 9.108221175977565531e-14 4.249943767135194728e-14
4.598000000000000000e+03 2.578300857543945312e+01 5.365157127380371094e+00 -7.038042837328312151e-14 1.070898063152206370e-13 1.101281321317466519e-14 3.236281143244312819e-14
4.599000000000000000e+03 2.549156761169433594e+01 -1.867085099220275879e+00 -7.291853210654453132e-14 1.060020466043566645e-13 9.925054349343639948e-15 1.651835542263932477e-14
4.600000000000000000e+03 2.663017463684082031e+01 -1.062806606292724609e+01 -9.060111059826236879e-14 4.987446003065776345e-13 1.224430442019891485e-13 -3.829731738441873035e-14
4.601000000000000000e+03 2.629037094116210938e+01 -1.014556312561035156e+01 -1.715323304403437721e-13 3.382446774925773614e-13 5.001370411567007679e-14 -7.135374376857767098e-14
4.602000000000000000e+03 7.359694004058837891e+00 -7.498927593231201172e+00 6.767767498760263178e-14 4.865142034897462775e-13 1.662575648984573884e-13 -1.280473665467296573e-13
4.603000000000000000e+03 2.627231025695800781e+01 -1.820101976394653320e+00 -4.783680911243579081e-14 1.853777819183638487e-13 4.126229184177841736e-14 1.968152203712936199e-15
4.604000000000000000e+03 1.092923164367675781e+01 -6.210147857666015625e+00 -1.409727860840351635e-14 2.227130562219500898e-13 6.258473015004206719e-14 5.266321301028616120e-14
4.605000000000000000e+03 7.213998413085937500e+01 2.465303802490234375e+01 1.442457535794777757e-13 -7.543323740167098834e-14 2.064375315927614168e-14 -7.939948611784819477e-14
4.606000000000000000e+03 5.298931503295898438e+01 2.499131774902343750e+01 -7.808003917898764801e-14 -7.921382327207363017e-14 -4.718815805769202565e-14 5.619168121800445503e-14
4.607000000000000000e+03 1.123704147338867188e+01 -1.897494125366210938e+01 4.114263319138569686e-14 -7.386933675423285051e-14 -9.818011407667324997e-15 2.133287714230561183e-14
4.608000000000000000e+03 2.446009063720703125e+01 -2.065787696838378906e+01 -1.789543660081342226e-15 4.338670536122718469e-13 1.296232544044373380e-13 -4.150348616757497389e-14
4.609000000000000000e+03 2.643971252441406250e+01 2.131932973861694336e+00 -5.093025136283964305e-14 3.670558052382838499e-13 9.483767124483094557e-14 7.294462749758354181e-14
4.610000000000000000e+03 2.651350021362304688e+01 4.583308219909667969e+00 4.188661356917819725e-15 3.220517927858546070e-13 9.787213628518337538e-14 -1.156267058011542503e-13
4.611000000000000000e+03 8.786354064941406250e+00 -2.977437210083007812e+01 2.213795120078692713e-16 9.159677411083727572e-14 2.754544707020585570e-14 6.661102333778423645e-14
4.612000000000000000e+03 1.027370357513427734e+01 -2.822570037841796875e+01 -5.579909499947924290e-14 -2.391389834093850253e-14 -2.391389834093850253e-14 1.164281209420012231e-13
4.613000000000000000e+03 2.478715705871582031e+01 -1.769651603698730469e+01 -2.795948397460380937e-15 6.393150440466011108e-13 1.909557174927314915e-13 -6.128630318080058315e-14
4.614000000000000000e+03 2.617199707031250000e+01 -4.164482593536376953e+00 -2.867597516864259233e-14 2.850914762510953215e-13 7.692464558135131414e-14 7.924835511126729348e-14
4.615000000000000000e+03 2.623731803894042969e+01 -2.600714921951293945e+00 8.478726110149135270e-15 4.382677489152275729e-13 1.340239497073930641e-13 -2.974688908825157130e-14
4.616000000000000000e+03 6.607259368896484375e+01 2.439565467834472656e+01 -4.579748581236275928e-14 -6.537844132173051270e-14 -3.335277949548069720e-14 1.482941577152750712e-14
4.617000000000000000e+03 7.427714538574218750e+01 2.339504241943359375e+01 3.327836595699851241e-14 -3.974963804290188030e-13 -1.092654070521115184e-13 1.184844594399186990e-13
4.618000000000000000e+03 7.451139831542968750e+01 2.390736770629882812e+01 1.392719896657276801e-13 -3.181390358943624042e-14 3.223742345119517960e-14 1.053749779491089389e-13
4.619000000000000000e+03 2.634411811828613281e+01 -1.282594299316406250e+01 -5.185979209542009027e-14 4.581593351232760014e-13 1.218898571485327320e-13 -1.444945373204817307e-13
4.620000000000000000e+03 5.222375106811523438e+01 2.508769798278808594e+01 -4.797598679006503941e-14 -6.631208847003924878e-14 -3.428642325565764426e-14 -4.543813039042422786e-14
4.621000000000000000e+03 2.646877670288085938e+01 2.949908733367919922e+00 -1.247973485619599532e-13 2.438965912912594014e-13 3.572977078591076106e-14 -1.883904951526307880e-13
4.622000000000000000e+03 2.649358940124511719e+01 3.769429922103881836e+00 -2.006114356936389981e-14 3.574099566652777504e-13 1.012046417264884923e-13 -8.291957886378403808e-15
4.623000000000000000e+03 4.397863769531250000e+01 2.567687225341796875e+01 -2.590775799460060674e-14 8.039857164353000907e-14 1.634724460289858905e-14 9.966748021512927824e-14
4.624000000000000000e+03 4.611022186279296875e+01 2.605852317810058594e+01 -4.323797840355718056e-15 1.582752619288044227e-13 4.618544045473238491e-14 -1.740309150044180853e-14
4.625000000000000000e+03 2.637970733642578125e+01 -1.469989490509033203e+01 -3.714428192650755245e-14 3.729640836620806699e-13 1.007459428923641875e-13 -6.610398941555781227e-14
4.626000000000000000e+03 2.636424064636230469e+01 -1.370741081237792969e+01 -2.824733583975044815e-14 3.996525332894407256e-13 1.114215599125334411e-13 -6.284269572819425886e-14
4.627000000000000000e+03 6.124047470092773438e+01 2.446255111694335938e+01 -7.066855510062114432e-14 -3.028652361455191899e-14 -3.028652361455191899e-14 2.451519889867803670e-13
4.628000000000000000e+03 7.340121459960937500e+01 -2.972215270996093750e+01 -2.329986382868312611e-14 1.272671882159362444e-13 3.119019934905500890e-14 1.527697612239541786e-14
4.629000000000000000e+03 7.098298645019531250e+01 -3.367784881591796875e+01 1.625905576759520757e-15 1.379496695911100468e-13 4.187267055983344421e-14 2.727224506339845367e-14
4.630000000000000000e+03 7.726240158081054688e+00 -2.662858963012695312e+01 9.957512651882424737e-14 8.842600452861268390e-14 5.640033931423107938e-14 1.617308615861363236e-14
4.631000000000000000e+03 9.731863975524902344e+00 -2.693350219726562500e+01 -2.488096602121410428e-14 8.083862897655114121e-14 1.678729854778793218e-14 -1.602818423232683920e-14
4.632000000000000000e+03 7.374040222167968750e+01 2.351707649230957031e+01 6.606334538661676192e-14 7.406380874265885983e-14 4.203814691640904433e-14 -7.054706177686467100e-15
4.633000000000000000e+03 1.046346378326416016e+01 -3.007981872558593750e+01 -8.974495002396845611e-14 -3.846211950276831604e-14 -3.846211950276831604e-14 7.215447450680326225e-14
4.634000000000000000e+03 1.107637691497802734e+01 -3.047624015808105469e+01 -3.160293139919771732e-14 7.795778183151275131e-14 1.390645563791427855e-14 4.760489149147756338e-14
4.635000000000000000e+03 1.003330707550048828e+01 -3.186764907836914062e+01 8.510701603907985108e-15 2.552776512312199264e-13 7.913650610464825763e-14 5.110553297281265894e-14
4.636000000000000000e+03 1.029391574859619141e+01 -1.346096801757812500e+01 1.032041290670521541e-14 1.874268291566713596e-13 5.932417507540851953e-14 1.829655540573280059e-13
4.637000000000000000e+03 9.556385993957519531e+00 -2.820665168762207031e+01 -8.708919680246521300e-14 -1.745767836932102246e-13 -7.849979482632898908e-14 -1.053240153648044367e-14
4.638000000000000000e+03 2.493668746948242188e+01 -2.651205635070800781e+01 5.727501264062018205e-14 4.363049635122684400e-13 1.480739901353611554e-13 -7.305996289181347636e-15
4.639000000000000000e+03 2.717941665649414062e+01 -2.586050987243652344e+01 5.996955997110767211e-14 3.116446716574378106e-13 1.114842674556845714e-13 -3.370340497234835218e-15
4.640000000000000000e+03 7.730497837066650391e+00 -3.285489273071289062e+01 -2.948075472435605915e-14 3.311633871858413181e-14 1.090676151180487458e-15 -9.150350561894921020e-14
4.641000000000000000e+03 2.531549263000488281e+01 -1.861924743652343750e+01 -1.797182499661213045e-14 4.269317917856424449e-13 1.226879925778079361e-13 1.368619488437616480e-14
4.642000000000000000e+03 2.801367378234863281e+01 -2.891909980773925781e+01 3.150339147536818096e-14 2.994448764469248569e-13 9.928448579769877380e-14 -6.093618041798712359e-14
4.643000000000000000e+03 7.219865417480468750e+01 -3.025843429565429688e+01 4.415111803717994277e-14 -1.068931998037675468e-13 -1.882262554641581792e-14 2.636015151546555052e-14
4.644000000000000000e+03 7.285811614990234375e+01 -3.144223022460937500e+01 -8.120876712790821988e-15 1.309130348613532502e-13 3.683764922333791769e-14 -1.336866425530715621e-14
4.645000000000000000e+03 9.351934432983398438e+00 -3.426693725585937500e+01 4.902002266019174492e-14 1.353859515815236669e-13 5.532179193370144465e-14 -2.092897286953918773e-14
4.646000000000000000e+03 7.162846374511718750e+01 -4.087921905517578125e+01 6.443630351515849952e-14 1.076797207172699999e-13 5.163480659210219204e-14 1.132944937545137323e-14
4.647000000000000000e+03 6.019908905029296875e+01 2.551703643798828125e+01 7.586815155063639238e-14 2.612696571677869395e-13 1.011413446484060730e-13 5.127132357861169040e-15
4.648000000000000000e+03 5.582630157470703125e+01 2.397462463378906250e+01 -7.061580866492972453e-14 -1.217658108674732342e-13 -5.771448721497360324e-14 4.917119432435411441e-14
4.649000000000000000e+03 5.710250091552734375e+01 2.378977966308593750e+01 -3.125840921823150320e-14 -2.879021619630467432e-13 -9.574817067675711613e-14 -3.023954039103361746e-14
4.650000000000000000e+03 2.766992187500000000e+01 -5.560510158538818359e+00 1.095224527524829919e-14 5.537051936746473224e-13 1.693972382071223803e-13 -1.412152865346363861e-13
4.651000000000000000e+03 9.755845069885253906e+00 -1.775182342529296875e+01 4.188563694019001304e-14 1.094528859365249962e-13 4.540155550776178717e-14 -1.015640699932604876e-14
4.652000000000000000e+03 2.710389518737792969e+01 -9.709241986274719238e-01 -6.182871999857442440e-16 4.801199585471871423e-13 1.438505076774981850e-13 -8.512166801500145596e-14
4.653000000000000000e+03 6.963052368164062500e+01 2.347587394714355469e+01 -3.665827813829555804e-14 7.164783191379846955e-15 -8.848048568778008049e-15 1.247801504049989019e-13
4.654000000000000000e+03 6.541349792480468750e+01 2.450809288024902344e+01 1.162098168345712668e-13 2.328079948873268412e-13 1.047053408060640012e-13 -1.072097936143968921e-13
4.655000000000000000e+03 9.627037048339843750e+00 -2.140075874328613281e+01 2.389141808651837340e-14 1.474920310667524048e-13 5.141503203547580225e-14 2.787312515398297080e-14
4.656000000000000000e+03 2.638477516174316406e+01 2.747831344604492188e+01 -6.018430654015916037e-14 1.995767510672499800e-14 -1.206798841359071200e-14 6.984539492995225918e-14
4.657000000000000000e+03 3.011584472656250000e+01 2.858170318603515625e+01 -6.841402444557331819e-14 1.994344495321112576e-13 3.930612684833502402e-14 5.415678281804787997e-14
4.658000000000000000e+03 2.949931907653808594e+01 2.838686561584472656e+01 -9.423394681760954850e-14 -1.318878816922164354e-13 -6.783654448718964836e-14 -3.791033852400434168e-14
4.659000000000000000e+03 3.135519981384277344e+01 2.834305000305175781e+01 -2.304939618618002950e-14 8.162358457316706839e-14 1.757225753253564837e-14 -4.251103844930908496e-17
4.660000000000000000e+03 2.712987709045410156e+01 -1.943298876285552979e-01 -4.714671104151697822e-14 2.085490119355451477e-13 4.842068925176891414e-14 3.194197158292930161e-14
4.661000000000000000e+03 9.715768814086914062e+00 -1.224435710906982422e+01 1.307176751823985184e-13 5.602186127647533487e-14 5.602186127647533487e-14 -7.645048331374193484e-14
4.662000000000000000e+03 2.932265090942382812e+01 2.719298744201660156e+01 -8.444078227441698115e-14 3.243751635025916846e-14 -1.560098147131323831e-14 -1.434174366722260063e-13
4.663000000000000000e+03 3.765678405761718750e+01 2.650081062316894531e+01 -9.395513745269132300e-14 -4.520250276515702659e-13 -1.637940542746629813e-13 7.812920774750986563e-14
4.664000000000000000e+03 4.058321762084960938e+01 2.603120613098144531e+01 -8.958844544037017354e-14 5.310684821047649551e-14 -1.094447967718787176e-14 6.707668817086676061e-14
4.665000000000000000e+03 3.066622924804687500e+01 2.714074516296386719e+01 -6.453845568859736814e-14 8.671803374124195662e-14 6.653872822870313467e-15 6.184953943314322466e-14
4.666000000000000000e+03 5.441261672973632812e+01 2.415070152282714844e+01 -1.036802073231882226e-13 -4.443437601913714785e-14 -4.443437601913714785e-14 2.690586816184365772e-15
4.667000000000000000e+03 5.366800689697265625e+01 2.423867416381835938e+01 -4.351012754841114549e-14 -6.439814637495058780e-14 -3.237248116056898328e-14 1.307916448756163419e-13
4.668000000000000000e+03 6.891085052490234375e+01 2.357108879089355469e+01 1.062223903671236092e-13 6.839935383492687371e-14 5.238652461586786047e-14 -1.265876373992766424e-13
4.669000000000000000e+03 6.760092926025390625e+01 2.434242630004882812e+01 -5.201924774180660682e-14 -6.804491459221420624e-14 -3.601924937783260172e-14 -5.119018544556125372e-14
4.670000000000000000e+03 2.692411041259765625e+01 -4.867764949798583984e+00 5.757726110125482855e-14 3.449326056986085076e-13 1.207529627504644321e-13 2.832539500803761545e-14
4.671000000000000000e+03 2.620359039306640625e+01 -3.383693218231201172e+00 5.028091929360628543e-14 3.646810772198888495e-13 1.244885948882903937e-13 -4.268316928200677207e-14
4.672000000000000000e+03 6.819730377197265625e+01 2.365314483642578125e+01 -3.213905920909643221e-14 1.463544319372719893e-13 3.426461385133174053e-14 1.751789495798086738e-14
4.673000000000000000e+03 9.695590019226074219e+00 -1.647929000854492188e+01 4.703690169023493073e-14 1.116605722814578705e-13 4.760924185269466147e-14 6.711220934454281695e-14
4.674000000000000000e+03 3.834007263183593750e+01 2.500952720642089844e+01 -1.572401199046238873e-13 2.071170654687620738e-13 1.496308434686781375e-14 4.045637387378384076e-14
4.675000000000000000e+03 4.067269897460937500e+01 2.524229812622070312e+01 -1.086138150989748863e-13 3.194588148701382746e-13 6.325349993134901649e-14 6.958318063453663993e-14
4.676000000000000000e+03 3.615143585205078125e+01 2.647465896606445312e+01 -8.811927018148937862e-14 1.909893413126056982e-13 3.086102201696125369e-14 8.041986266369219316e-14
4.677000000000000000e+03 6.920605659484863281e+00 -1.550359630584716797e+01 6.092115744163462132e-14 -1.964188089519786073e-14 1.238378431918374378e-14 -5.081312364689331840e-14
4.678000000000000000e+03 5.450505447387695312e+01 2.481294822692871094e+01 -3.106094550943579169e-14 7.819006537070419260e-14 1.413873494194098357e-14 1.812005677882116972e-13
4.679000000000000000e+03 5.139914321899414062e+01 2.452226257324218750e+01 3.846770992022019442e-14 -2.926478842786052470e-14 2.760877210037553445e-15 -1.129879677774954516e-13
4.680000000000000000e+03 5.065339279174804688e+01 2.460895156860351562e+01 -5.657320518623852601e-14 1.130071852610027572e-13 1.693019470005562715e-14 2.154282069573298930e-13
4.681000000000000000e+03 2.713732528686523438e+01 -1.279147720336914062e+01 -3.703833843359677358e-14 4.187604310621623194e-13 1.145166318543278106e-13 1.970502381328387981e-14
4.682000000000000000e+03 2.766273689270019531e+01 -1.028838825225830078e+01 -5.417402163259039949e-14 4.342920608638861646e-13 1.140354087200701194e-13 -6.716922482628839841e-14
4.683000000000000000e+03 5.593781280517578125e+01 2.463822364807128906e+01 3.313777881654503266e-14 -7.729998959720221774e-14 -1.324866425063669223e-14 1.165050450861390696e-13
4.684000000000000000e+03 3.262047958374023438e+01 2.728463935852050781e+01 -2.247543310859335952e-14 -1.926361224398667749e-13 -6.453346835860393482e-14 -2.051300345947207338e-14
4.685000000000000000e+03 7.350498962402343750e+01 2.209535789489746094e+01 1.320975748627046045e-14 9.716322391844015027e-14 3.311189348967694124e-14 -1.071463406822521780e-13
4.686000000000000000e+03 7.124142456054687500e+01 2.401396751403808594e+01 1.354605446909906696e-13 -1.020737991743250750e-13 1.001602399381285730e-14 -1.689776519663704901e-13
4.687000000000000000e+03 3.550849914550781250e+01 2.664234542846679688e+01 -4.295259691000120894e-14 -2.242875210643063832e-13 -8.017203437585274095e-14 9.698222991827085138e-14
4.688000000000000000e+03 3.403378295898437500e+01 2.689815139770507812e+01 6.555345865742398526e-14 -1.320339779349588571e-13 -1.994415646088681937e-14 9.961621100489786995e-14
4.689000000000000000e+03 3.673953628540039062e+01 2.622716903686523438e+01 -4.037164686213588760e-14 -1.202417749786646728e-13 -4.818402485817427361e-14 -5.409257094438242597e-14
4.690000000000000000e+03 9.246788978576660156e+00 -7.455558300018310547e+00 6.457425468908012389e-14 2.106784798699967709e-13 8.257581901247035283e-14 -9.968895419440806926e-14
4.691000000000000000e+03 7.291624450683593750e+01 -2.147560310363769531e+01 1.085109378653331680e-13 1.837575366392743548e-13 8.768054099612954122e-14 -1.765201754298090231e-14
4.692000000000000000e+03 7.259345245361328125e+01 -2.381218528747558594e+01 4.348888735022579666e-14 -9.573928021894273499e-14 -1.567511718298872370e-14 -1.571233784357015106e-13
4.693000000000000000e+03 4.260057449340820312e+01 2.594087409973144531e+01 -7.986418872150263804e-14 -7.997845685421903217e-14 -4.795279502796921667e-14 8.609511215930398809e-14
4.694000000000000000e+03 4.388866043090820312e+01 2.498307418823242188e+01 -1.023838403380744611e-13 4.136306911133730280e-13 9.337405929834771690e-14 -2.758538552070184321e-15
4.695000000000000000e+03 6.472649383544921875e+01 2.351589584350585938e+01 3.921945504904017499e-14 2.913140377796413771e-13 9.916004649335175003e-14 4.260382601177156725e-14
4.696000000000000000e+03 5.432607269287109375e+01 2.348842620849609375e+01 -1.409212525995242118e-15 1.823998444687793818e-13 5.429719038751654181e-14 2.410391493606195423e-13
4.697000000000000000e+03 6.146257400512695312e+01 2.498805427551269531e+01 7.274919327972945160e-14 3.117822569131262211e-14 3.117822569131262211e-14 -1.935587683242565721e-14
4.698000000000000000e+03 4.548905563354492188e+01 2.615671730041503906e+01 1.524325404669932965e-14 1.437856723875835518e-13 4.770867674443873829e-14 -6.910023209416539178e-15
4.699000000000000000e+03 4.124729156494140625e+01 2.604219055175781250e+01 -1.485680881704171119e-13 9.645628344439813318e-14 -1.563354141780569362e-14 -5.944534822071093072e-14
4.700000000000000000e+03 4.195582580566406250e+01 2.527387428283691406e+01 -1.641047900054291159e-14 -7.033062368301751591e-15 -7.033062368301751591e-15 9.045714210228344987e-14
4.701000000000000000e+03 9.296505928039550781e+00 -2.572083663940429688e+01 7.254464498736290512e-15 3.004902099715267560e-13 9.232340640683706079e-14 -3.827052742636297133e-14
4.702000000000000000e+03 8.002432823181152344e+00 -2.970496940612792969e+01 8.226320964482489173e-14 1.953839786359226616e-13 8.329415716185062379e-14 -4.745694871691012728e-14
4.703000000000000000e+03 4.131885147094726562e+01 2.528079986572265625e+01 -7.303070637381531283e-15 2.027493841219585313e-13 5.863389065724131100e-14 3.072268459601568136e-14
4.704000000000000000e+03 2.721873664855957031e+01 -1.369198608398437500e+01 -5.322343382533657741e-14 3.660730301790343644e-13 9.385487585679072597e-14 -6.363867630565164801e-14
4.705000000000000000e+03 7.285583496093750000e+01 -2.301044273376464844e+01 3.471136274463618165e-14 1.063781969955733542e-13 4.232686656681014514e-14 -3.650935280550930695e-14
4.706000000000000000e+03 4.918450164794921875e+01 2.400161933898925781e+01 -1.053407950874895443e-14 4.123634214040633461e-14 9.210678620090624602e-15 -2.332261005144869309e-14
4.707000000000000000e+03 4.841136169433593750e+01 2.551518630981445312e+01 -1.079656248301544275e-13 3.654875610058921920e-13 7.725658085272132936e-14 3.609678677382426037e-14
4.708000000000000000e+03 6.511149597167968750e+01 2.257810211181640625e+01 -4.253120140687398354e-15 4.392818235359439993e-14 1.190251883327868992e-14 -8.959606196063188421e-14
4.709000000000000000e+03 6.356933975219726562e+01 2.305518150329589844e+01 -6.795137504978301934e-14 1.662893049170569015e-14 -1.539673302861001986e-14 1.330027396811289675e-13
4.710000000000000000e+03 2.680668640136718750e+01 2.453364181518554688e+01 6.581267784433811330e-14 -2.005493075210237897e-13 -4.042098822537934510e-14 -9.485064101331930342e-14
4.711000000000000000e+03 7.250300598144531250e+01 -1.701297569274902344e+01 -1.147608483936801704e-13 -1.178096384552365650e-13 -6.977114740992773623e-14 -1.070498534651645461e-13
4.712000000000000000e+03 6.649290561676025391e+00 -7.521360397338867188e+00 3.072115316044704558e-14 5.621775831313180483e-13 1.778696276637931062e-13 -1.999270432366528905e-13
4.713000000000000000e+03 6.205513954162597656e+00 -9.385512351989746094e+00 -1.290183814005394641e-14 1.317234895378133208e-13 3.564649389466850726e-14 -1.270647405652788886e-13
4.714000000000000000e+03 6.397987842559814453e+00 -2.082430267333984375e+01 -1.192031076033576650e-14 9.068234444603584521e-14 2.362861086803967614e-14 -8.807711504577042660e-14
4.715000000000000000e+03 6.127887725830078125e+00 -2.326365280151367188e+01 -1.494542201585166707e-14 8.509671781250713329e-14 2.104538907780981877e-14 -5.712710713550242514e-14
4.716000000000000000e+03 2.662428855895996094e+01 2.391496849060058594e+01 8.496458744899904048e-14 -3.295942078290758914e-13 -7.338888611402305528e-14 4.201415216707922451e-14
4.717000000000000000e+03 2.904783821105957031e+01 2.767755699157714844e+01 -8.057056676566767828e-14 -5.377906778757102213e-13 -1.855083740700397277e-13 -1.080298502563470375e-13
4.718000000000000000e+03 5.001207351684570312e+01 2.327647399902343750e+01 -1.319298945264002487e-13 -5.654138385247607645e-14 -5.654138385247607645e-14 1.771326412370460845e-13
4.719000000000000000e+03 7.245864105224609375e+01 -6.695302486419677734e+00 -3.957712318134777585e-14 2.575440674525836249e-13 6.539008294255757581e-14 -1.000489703020454590e-13
4.720000000000000000e+03 7.251420593261718750e+01 -9.000709533691406250e+00 -1.888302746588452208e-13 -2.181801018064782882e-13 -1.221031197158606307e-13 1.494244723614090997e-13
4.721000000000000000e+03 7.312137603759765625e+01 -2.070558357238769531e+01 -2.390051013817420106e-14 -1.024307625752205603e-14 -1.024307625752205603e-14 -4.032707598845136632e-14
4.722000000000000000e+03 9.195001602172851562e+00 -2.441196441650390625e+01 1.063342597025333791e-13 -2.305459866254206541e-14 2.498389915903034136e-14 9.533164730714249746e-14
4.723000000000000000e+03 7.254975128173828125e+01 -1.892287850379943848e+00 -1.557413730314885503e-13 2.535103474799599299e-13 2.933069097928869828e-14 -1.438157081758931893e-14
4.724000000000000000e+03 6.364693641662597656e+00 -2.456075096130371094e+01 -9.744059671547983248e-14 -1.904508451985864603e-13 -8.636742986371445663e-14 -3.436314411188814977e-14
4.725000000000000000e+03 9.658842086791992188e+00 -2.220936584472656250e+01 -1.602103019205432938e-14 8.463574215382060895e-14 2.058441341912329442e-14 5.969890922753740004e-14
4.726000000000000000e+03 1.021742057800292969e+01 -9.468217849731445312e+00 -5.926232663542414184e-16 1.118375547335889730e-14 3.177339805038206615e-15 -1.409103766964814666e-14
4.727000000000000000e+03 6.351712226867675781e+00 -1.127746963500976562e+01 4.410755936786739037e-15 3.678979050656533412e-13 1.116926036793912391e-13 -1.864034100684808237e-13
4.728000000000000000e+03 7.265183258056640625e+01 5.189150810241699219e+00 -6.959228115652194013e-14 -2.982526335279511720e-14 -2.982526335279511720e-14 5.429360913221555063e-14
4.729000000000000000e+03 7.296440887451171875e+01 -1.311838054656982422e+01 -1.440553168560124858e-14 -1.434266388381649771e-13 -4.734965335941553055e-14 1.199457522101923454e-14
4.730000000000000000e+03 7.328152465820312500e+01 -1.074480295181274414e+00 -2.748999216196229556e-13 6.518954619822922569e-14 -6.291311465929719238e-14 9.270544367703716787e-15
4.731000000000000000e+03 2.712812614440917969e+01 1.089511013031005859e+01 -5.385112589683348217e-14 3.429285392979319891e-13 8.672322435914273098e-14 4.148121513029281657e-15
4.732000000000000000e+03 7.268182373046875000e+01 1.819494056701660156e+01 8.215031709361483858e-14 -3.079248282137486692e-13 -6.773235265841379138e-14 -8.377582075324088717e-14
4.733000000000000000e+03 7.336608123779296875e+01 6.048391342163085938e+00 -6.881498273774919183e-14 -3.497487672740606790e-13 -1.255691243259166034e-13 4.749704386850135684e-14
4.734000000000000000e+03 2.712141799926757812e+01 1.166017913818359375e+01 1.501926296006150796e-14 9.793872662736471946e-14 3.388739619860151042e-14 -7.841797144362422367e-14
4.735000000000000000e+03 2.641864776611328125e+01 1.250031089782714844e+01 5.804657156414233521e-14 1.621299530176964487e-13 6.605295737455163518e-14 -1.659025157920226978e-13
4.736000000000000000e+03 7.308965301513671875e+01 1.244362735748291016e+01 8.838822685916514210e-14 -2.823759834898881271e-13 -5.819632698921689551e-14 -1.750407307434757170e-14
4.737000000000000000e+03 7.264776611328125000e+01 9.079967498779296875e+00 7.543752677651588412e-14 3.233036668243149947e-14 3.233036668243149947e-14 4.038920754919836376e-14
4.738000000000000000e+03 7.334545135498046875e+01 4.466713905334472656e+00 -1.305221664256450698e-13 -1.703154490270003540e-13 -9.025128599104634275e-14 1.480495142713172951e-13
4.739000000000000000e+03 7.323732757568359375e+01 -2.681276082992553711e+00 -2.163070476858194868e-13 2.046781391292287755e-13 -3.488673117548629111e-15 -5.539635454998234620e-14
4.740000000000000000e+03 2.649775505065917969e+01 2.322405815124511719e+01 5.938444316367155751e-14 -6.605141916271942137e-14 -2.000094239670369492e-15 -7.441393150547231938e-14
4.741000000000000000e+03 3.039451789855957031e+01 2.812453269958496094e+01 -3.797221597486716282e-14 -1.249323046273800863e-13 -4.887135821355324816e-14 6.660091315252580912e-14
4.742000000000000000e+03 7.340038299560546875e+01 1.980222702026367188e+01 -3.553449919838254367e-14 1.220237696693618479e-13 2.594678249654650687e-14 1.598905469829547954e-14
4.743000000000000000e+03 7.328115844726562500e+01 1.583339500427246094e+01 5.942448410515416279e-14 -2.490380677285658484e-13 -5.688406966601264325e-14 -1.933636246387033901e-15
4.744000000000000000e+03 2.783837890625000000e+01 1.011698246002197266e+01 -1.069549315649634402e-13 1.829169140373648750e-13 2.278859474172043043e-14 -9.360161300556169017e-14
4.745000000000000000e+03 7.336743927001953125e+01 8.400310516357421875e+00 5.749398082188078574e-14 -1.583635159856447427e-13 -3.026086190438190271e-14 8.623956176999694745e-14
4.746000000000000000e+03 2.712045669555664062e+01 1.242697334289550781e+01 -1.154443023381607203e-13 4.537843083067538696e-13 1.015020045010833760e-13 1.513870815815152038e-14
4.747000000000000000e+03 7.296150970458984375e+01 1.331182289123535156e+01 -1.712565263483224048e-14 -1.903433601057116786e-13 -6.224070602444883860e-14 1.490298363231515322e-13
4.748000000000000000e+03 7.368712902069091797e+00 -2.173423957824707031e+01 -1.413181828265194177e-15 2.739000432711025113e-13 8.174605876107646218e-14 2.533816560702176895e-14
4.749000000000000000e+03 9.896073341369628906e+00 -2.343022155761718750e+01 6.500197922238923343e-14 1.651108313656737825e-13 6.903384249879254697e-14 -5.062264965397834937e-14
4.750000000000000000e+03 2.733287811279296875e+01 1.881899070739746094e+01 3.888894956928512503e-14 -5.195973181880073066e-14 -3.921234420744797514e-15 4.224564965969561381e-14
4.751000000000000000e+03 2.652182006835937500e+01 2.026270675659179688e+01 -6.296425512052061801e-14 -2.698468076593740772e-14 -2.698468076593740772e-14 3.478316403350903419e-14
4.752000000000000000e+03 2.731691169738769531e+01 1.960870170593261719e+01 -7.784717288112849576e-15 -4.908725674741300227e-14 -1.706159153303139775e-14 -8.413048361265162978e-14
4.753000000000000000e+03 7.335075378417968750e+01 1.741654014587402344e+01 1.498974691116830571e-13 -3.017658280375645763e-13 -4.556050293437995113e-14 9.152520321492607636e-14
4.754000000000000000e+03 7.401868438720703125e+01 1.662239646911621094e+01 1.419358472984702524e-13 -1.221741485106855873e-13 5.928510652774936218e-15 -3.649636609636200402e-14
4.755000000000000000e+03 7.394850921630859375e+01 -5.061399459838867188e+00 -1.172648810736712233e-13 -5.025637566692664482e-14 -5.025637566692664482e-14 -2.689477330078404727e-14
4.756000000000000000e+03 7.177539825439453125e+01 -2.894843482971191406e+01 2.165250502495202206e-14 3.215511895377637375e-14 1.614228804065146600e-14 7.573924668859144393e-14
4.757000000000000000e+03 7.337496948242187500e+01 6.833041191101074219e+00 -1.391805406006103168e-14 -4.177234187892342465e-13 -1.294924454123269619e-13 2.168009966430767266e-13
4.758000000000000000e+03 7.406266784667968750e+01 8.478319168090820312e+00 1.358804494161307275e-14 -2.000558193496898562e-13 -5.594033266123621395e-14 4.937571551166634876e-14
4.759000000000000000e+03 4.764371871948242188e+01 2.470901489257812500e+01 -9.467198482408442639e-14 2.796829337136513827e-13 5.550328398924372908e-14 4.310203046255581261e-14
4.760000000000000000e+03 4.849495697021484375e+01 2.404004478454589844e+01 -8.726113093823067990e-14 5.410427016344990236e-14 -9.947059418280359416e-15 1.183397320024190402e-13
4.761000000000000000e+03 7.332513427734375000e+01 1.662461090087890625e+01 2.098269678125173898e-14 8.992584576831587351e-15 8.992584576831587351e-15 9.965581148924790300e-14
4.762000000000000000e+03 7.321292877197265625e+01 -2.501429176330566406e+01 2.254217930483699839e-14 -5.896548711543242449e-14 -1.092699352902475399e-14 -1.499387636619275987e-13
4.763000000000000000e+03 7.330535125732421875e+01 -2.813733220100402832e-01 -1.654340726908731796e-13 -1.166512633016258960e-13 -8.462560486350786948e-14 1.126267658237319058e-13
4.764000000000000000e+03 7.403077697753906250e+01 1.329320788383483887e+00 -2.994435482992635622e-13 -5.858424639501591535e-13 -2.655858118063431084e-13 1.007404541188659797e-13
4.765000000000000000e+03 7.337681579589843750e+01 7.617990493774414062e+00 -1.862796551667551814e-14 -3.282400664206958085e-13 -1.040604031437609989e-13 5.401116769001949869e-14
4.766000000000000000e+03 2.642305374145507812e+01 1.649524497985839844e+01 1.898067003591220880e-14 2.826402577694314688e-13 9.048628003566899780e-14 -7.447800785386621270e-14
4.767000000000000000e+03 2.714502716064453125e+01 1.640375137329101562e+01 -8.632080917029757994e-14 5.450726472283097535e-14 -9.544062317800444672e-15 -4.557133479170943913e-14
4.768000000000000000e+03 7.326296997070312500e+01 1.079175949096679688e+01 9.573806726776226683e-14 -2.792260509181659911e-13 -5.504639102936297046e-14 7.055074975831701622e-14
4.769000000000000000e+03 7.245326232910156250e+01 1.144784736633300781e+01 7.858174018177815912e-14 -1.722013780484574208e-13 -2.808589305406967301e-14 1.065897722732703223e-13
4.770000000000000000e+03 7.380751037597656250e+01 -1.140931701660156250e+01 8.413194728558448521e-14 3.605654932069789209e-14 3.605654932069789209e-14 4.017519620474509223e-14
4.771000000000000000e+03 7.319059753417968750e+01 1.502826690673828125e+01 -7.308960057463790433e-15 -1.861362084430717712e-13 -5.803354758554535309e-14 -5.934519504502758225e-14
4.772000000000000000e+03 7.331317138671875000e+01 9.985325813293457031e+00 -2.110928585521889417e-14 -1.462996797275614713e-13 -5.022269086068023580e-14 2.303117650748458950e-14
4.773000000000000000e+03 7.322050476074218750e+01 -6.663124561309814453e+00 -9.218895856118528020e-14 -1.767623997476694409e-13 -8.068540410452462730e-14 -9.471036219285862423e-15
4.774000000000000000e+03 7.332376861572265625e+01 5.062882304191589355e-01 -2.597787436553478102e-13 -5.230923116536501105e-13 -2.348613111716885138e-13 6.741172019469193755e-14
4.775000000000000000e+03 7.334216308593750000e+01 3.667098760604858398e+00 -1.471909752285074924e-13 -3.375875425558338971e-13 -1.454335512695442700e-13 5.649401014676909069e-15
4.776000000000000000e+03 7.264568328857421875e+01 4.395913124084472656e+00 -4.126801100823827839e-14 -4.294448368961922835e-13 -1.412138499667578428e-13 1.157006890468992300e-13
4.777000000000000000e+03 7.322515869140625000e+01 -3.490134477615356445e+00 -1.981642931345173331e-13 -1.535539815959718890e-13 -1.055154837743994822e-13 -9.581247741811266261e-14
4.778000000000000000e+03 7.321878814697265625e+01 -4.296092033386230469e+00 -2.705219403521808008e-13 -1.845643998960380672e-13 -1.365259088507292384e-13 -6.903874851362304388e-14
4.779000000000000000e+03 7.334258270263671875e+01 2.869900703430175781e+00 -2.210957247361991507e-13 -1.862572054055211535e-13 -1.222058749767579444e-13 2.186362121079157839e-13
4.780000000000000000e+03 7.299330139160156250e+01 -1.226543521881103516e+01 5.208061019663749736e-14 -1.835590056689651028e-13 -3.944351898051146055e-14 4.046312642043935204e-14
4.781000000000000000e+03 7.321723175048828125e+01 -5.885219097137451172e+00 -1.230764215586280241e-13 1.302567537338206183e-13 2.154101981898383193e-15 -7.474813343700918711e-15
4.782000000000000000e+03 7.386579132080078125e+01 -1.847011566162109375e+01 -6.529018726489019264e-14 -2.109853090848101687e-13 -8.288264822728375059e-14 -2.930735352752594780e-14
4.783000000000000000e+03 7.169804382324218750e+01 2.312545204162597656e+01 8.433736971595259813e-14 -1.011082629296181090e-13 -5.031268133506242718e-15 -1.199870958883478278e-13
4.784000000000000000e+03 2.789647483825683594e+01 1.712889289855957031e+01 6.588775884478273448e-14 1.197395047697336068e-13 5.568818111723397579e-14 3.895012228873583060e-14
4.785000000000000000e+03 7.319094848632812500e+01 -9.770436286926269531e+00 -1.474710924122962785e-13 -3.377075908413823546e-13 -1.455535995550927275e-13 -4.326245172650219906e-14
4.786000000000000000e+03 7.313270568847656250e+01 -1.058152770996093750e+01 -8.275317924129593078e-15 1.337062784708548113e-13 3.762928960397357581e-14 7.024839965372869921e-14
4.787000000000000000e+03 7.345063018798828125e+01 2.134579277038574219e+01 -9.253291788875804384e-16 -6.902299370080411389e-14 -2.098449587923170712e-14 1.197296249774368326e-13
4.788000000000000000e+03 7.305316162109375000e+01 -1.141603565216064453e+01 -1.007352296196473151e-13 -2.261760386184502591e-13 -9.807337776092384107e-14 -1.706563357425569527e-14
4.789000000000000000e+03 2.729222106933593750e+01 6.218800067901611328e+00 -1.305973422937797834e-13 2.185354084109289441e-13 2.638141881870521149e-14 -4.029892061328463337e-14
4.790000000000000000e+03 2.715076065063476562e+01 1.012412643432617188e+01 5.781394158847546691e-15 4.822869059954888737e-14 1.620302538516728286e-14 4.946397295663845783e-14
4.791000000000000000e+03 2.712167167663574219e+01 1.320077323913574219e+01 -2.593746344006081506e-14 3.463489261015806342e-14 2.609228878084116597e-15 -5.028701454269472737e-14
4.792000000000000000e+03 9.361328125000000000e+00 -9.378667831420898438e+00 1.861729628967190298e-14 2.596090660153538288e-13 8.346790733625500391e-14 6.115052041122392978e-14
4.793000000000000000e+03 9.910313606262207031e+00 -8.176035881042480469e+00 -8.994264073759403177e-14 2.359588490308955899e-13 4.380486113273775184e-14 -1.632469523058996397e-13
4.794000000000000000e+03 7.523845672607421875e+00 -2.049342155456542969e+01 -2.960510254914477946e-14 3.075687491152501174e-13 8.338909261457888578e-14 -3.217118547471989332e-14
4.795000000000000000e+03 6.058201789855957031e+00 -1.317706108093261719e+01 6.498593895946707874e-15 2.772908042503879900e-13 8.513681974036194089e-14 -1.311431161148818303e-13
4.796000000000000000e+03 7.789057731628417969e+00 -2.454381942749023438e+01 7.928485206689858678e-14 2.169830206353098867e-13 8.888035977778346863e-14 8.177895582668192470e-15
4.797000000000000000e+03 7.313552093505859375e+01 -2.002341461181640625e+01 1.451115703293703874e-13 3.931519687713422306e-14 5.532802948432502532e-14 -6.040423695084784494e-14
4.798000000000000000e+03 6.624543666839599609e+00 -2.407440757751464844e+01 1.045621431100670837e-14 2.789869301290243131e-13 8.683294561899826403e-14 -5.995300555918653407e-14
4.799000000000000000e+03 7.317854309082031250e+01 -1.771595954895019531e+01 -1.155887587251172577e-13 -2.325418232539816499e-13 -1.044391759489823879e-13 -1.256168021164516535e-13
4.800000000000000000e+03 7.319403076171875000e+01 -1.698244094848632812e+01 1.446645266686003017e-13 -2.125066073631332042e-13 -2.035262624123894415e-14 -1.772207394398241098e-14
4.801000000000000000e+03 8.270732879638671875e+00 -1.290664577484130859e+01 9.802560679676459304e-15 4.201097494649407363e-15 4.201097494649407363e-15 -1.796030196039768295e-14
4.802000000000000000e+03 2.888402175903320312e+01 2.597424888610839844e+01 1.399965806123245823e-14 -2.227548928732808742e-13 -6.262656680137285159e-14 -1.138395204925563009e-13
4.803000000000000000e+03 6.704882144927978516e+00 -1.468153858184814453e+01 9.052382053589130839e-14 -6.955027340453581036e-15 2.507063702689507623e-14 1.102621920363085900e-14
4.804000000000000000e+03 7.191329956054687500e+01 2.390333747863769531e+01 -1.007273623776332172e-13 -3.634255168940420111e-13 -1.392458603933707795e-13 1.403042585541511289e-13
4.805000000000000000e+03 7.045072078704833984e+00 -1.419415855407714844e+01 3.087289741888175898e-14 5.898219060515227929e-14 2.695652708483656929e-14 -1.403453091589068613e-13
4.806000000000000000e+03 7.317517852783203125e+01 -1.847200012207031250e+01 4.938340318269562879e-14 2.116431589173611155e-14 2.116431589173611155e-14 -1.123817632378044939e-13
4.807000000000000000e+03 7.909799575805664062e+00 -1.181007480621337891e+01 1.093239404168985796e-13 2.841861674370699253e-13 1.180530282904324046e-13 -2.101842192046149416e-13
4.808000000000000000e+03 1.102042388916015625e+01 -9.170179367065429688e+00 1.187594402159153351e-13 9.664784841574916574e-14 6.462218320136756122e-14 6.580621328888466848e-14
4.809000000000000000e+03 9.961997032165527344e+00 -8.609716415405273438e+00 1.638177813615814687e-15 1.379549279716466015e-13 4.187792894036999891e-14 -6.784491994897209888e-14
4.810000000000000000e+03 6.005739212036132812e+00 -1.763387489318847656e+01 -8.787657152517849846e-14 5.384051087993849127e-14 -1.021081785475882325e-14 3.649612215087319478e-14
4.811000000000000000e+03 7.780971527099609375e+00 -1.512238216400146484e+01 8.621975475155835289e-14 1.055777440841544623e-13 5.753924626258205555e-14 -6.506435472862504010e-14
4.812000000000000000e+03 6.451092720031738281e+00 -2.605219650268554688e+01 8.367425133846972951e-14 3.586039343077274122e-14 3.586039343077274122e-14 -1.379531796956434686e-13
4.813000000000000000e+03 9.056474685668945312e+00 -2.688729095458984375e+01 3.205963589424771186e-16 1.831411948092706576e-13 5.503853733987602859e-14 5.856445428435719247e-14
4.814000000000000000e+03 6.966905117034912109e+00 -1.752069282531738281e+01 2.288641349460114605e-14 9.808462805252927269e-15 9.808462805252927269e-15 1.186437609263088153e-14
4.815000000000000000e+03 9.993173599243164062e+00 -1.974750709533691406e+01 7.426298345800802503e-14 -3.679943109675780366e-14 1.123906503074870861e-14 7.381969384726017047e-14
4.816000000000000000e+03 6.946814060211181641e+00 -1.864231109619140625e+01 -7.420212583481369806e-14 2.427047820531547107e-13 5.055079754312866158e-14 -2.106093043832604067e-14
4.817000000000000000e+03 6.744893074035644531e+00 -9.759813308715820312e+00 -1.077140035287771705e-14 1.326365368448448323e-13 3.655954120170001875e-14 -3.091130595846841578e-13
4.818000000000000000e+03 6.143619537353515625e+00 -1.077212810516357422e+01 7.135589184413190789e-14 5.795924721066492147e-13 1.952845166391242726e-13 -3.266773245143295146e-13
4.819000000000000000e+03 9.371896743774414062e+00 -1.066331672668457031e+01 9.111296244389277543e-14 1.534257882416026342e-13 7.336162520564862288e-14 1.480443846397887231e-14
4.820000000000000000e+03 6.074216842651367188e+00 -2.511006355285644531e+01 -6.467337787269961114e-14 -7.346811418777743352e-14 -4.144244558526403999e-14 -5.505850360050870695e-14
4.821000000000000000e+03 7.196621894836425781e+00 -2.430928802490234375e+01 9.744018844559925591e-15 4.176008378751734987e-15 4.176008378751734987e-15 -6.382467796460511433e-14
4.822000000000000000e+03 8.353779792785644531e+00 -1.797239685058593750e+01 5.321973059729118161e-14 1.371858220555396968e-13 5.712166579584926351e-14 -9.506592290719345639e-14
4.823000000000000000e+03 8.242264747619628906e+00 -1.984753417968750000e+01 -1.633365988849052458e-14 3.875080865998331570e-14 6.725144716151132060e-15 -2.046642206838394928e-13
4.824000000000000000e+03 8.032182693481445312e+00 -8.885783195495605469e+00 5.631135003279254259e-14 1.270730753694798709e-13 5.501532524898947174e-14 3.247412511423949932e-14
4.825000000000000000e+03 5.919798374176025391e+00 -2.576002883911132812e+01 2.978707614291757795e-15 2.757822724526459712e-13 8.362829471888350019e-14 -3.386236764555956673e-15
4.826000000000000000e+03 2.760888671875000000e+01 2.477634811401367188e+01 -3.381365351021355103e-14 -3.736704142724006639e-14 -2.135420882004926413e-14 -1.892022068259845841e-14
4.827000000000000000e+03 2.716023445129394531e+01 2.047747039794921875e+01 4.527376534107542538e-14 1.109049375773440982e-13 4.685361053671267817e-14 -5.267074143912135742e-14
4.828000000000000000e+03 9.733677864074707031e+00 -3.087560462951660156e+01 -1.601891938594977166e-14 3.888569696276766852e-14 6.860033018935484880e-15 2.417863171233925607e-14
4.829000000000000000e+03 2.796317481994628906e+01 1.485773563385009766e+00 -4.226036632775856524e-16 2.056981565331031381e-13 6.158266306838591775e-14 -1.160046180209012290e-13
4.830000000000000000e+03 7.039008140563964844e+00 -2.640869903564453125e+01 -9.576033406987968788e-14 -1.782929950596215396e-13 -8.221599941647672605e-14 -7.961056672830396641e-14
4.831000000000000000e+03 7.309789180755615234e+00 -2.575726699829101562e+01 6.478762567662527116e-14 1.650189723366099481e-13 6.894197669346513457e-14 3.388662031642182548e-14
4.832000000000000000e+03 2.460484123229980469e+01 -2.147193336486816406e+01 -3.614817118053649525e-14 4.877683543527688848e-13 1.354860640996255472e-13 -6.807168845664396742e-15
4.833000000000000000e+03 7.034220886230468750e+01 2.336485290527343750e+01 1.111800674311394510e-13 1.391504912597735233e-13 7.509916760727389229e-14 -1.376493726943858742e-13
4.834000000000000000e+03 5.215529251098632812e+01 2.442713737487792969e+01 -1.098409557753754484e-13 9.017814977824861744e-14 -5.898842053247933467e-15 1.087186303439999224e-13
4.835000000000000000e+03 2.618930816650390625e+01 -9.476352691650390625e+00 1.199612867944449893e-14 4.626506968329058278e-13 1.423940446890897826e-13 -1.032226604538721837e-13
4.836000000000000000e+03 1.092981910705566406e+01 -3.100100898742675781e+01 -2.989990050797537713e-14 1.244385996156116558e-13 2.836161074873042032e-14 5.738463225652204458e-14
4.837000000000000000e+03 8.368775367736816406e+00 -3.191872406005859375e+01 -6.497217890923893263e-15 1.802192699544222232e-13 5.211661587315938315e-14 2.177616505898757188e-14
4.838000000000000000e+03 6.092074966430664062e+01 2.584315299987792969e+01 6.213799819739657115e-15 2.314178037567116153e-13 7.128947768480359271e-14 2.595130395841895032e-14
4.839000000000000000e+03 6.577123260498046875e+01 2.375679969787597656e+01 9.841410184615456691e-14 1.679925865300316290e-13 7.992200380235042756e-14 -1.224620719501162691e-13
4.840000000000000000e+03 6.681485748291015625e+01 2.373525047302246094e+01 -1.045016869804897552e-13 -1.820392794837921713e-13 -8.596229061691093576e-14 -1.177179073281477660e-15
4.841000000000000000e+03 2.692692375183105469e+01 -8.652885437011718750e+00 -1.729484238384860345e-14 3.585955046358363374e-13 1.023902032495742354e-13 -5.722429230773859454e-14
4.842000000000000000e+03 9.903169631958007812e+00 -1.480503273010253906e+01 -8.968677071895334724e-15 -1.639720396138036329e-13 -5.188221475159980611e-14 1.028120392098340330e-13
4.843000000000000000e+03 2.775020217895507812e+01 -1.170670413970947266e+01 -3.587438641506138226e-14 6.708895049743757166e-13 1.905045267586516489e-13 -2.837680143760647894e-14
4.844000000000000000e+03 8.083459854125976562e+00 -7.428231716156005859e+00 1.740855994514928229e-14 2.362155610002858452e-13 7.608723492837782265e-14 -4.659933124594693721e-14
4.845000000000000000e+03 7.771265506744384766e+00 -9.755064964294433594e+00 1.077202088921487555e-13 1.605431824806824448e-13 8.047901266846485546e-14 -3.367632575254110583e-14
4.846000000000000000e+03 2.720760345458984375e+01 2.201876640319824219e+00 -2.541011597369333824e-14 4.008684931309375310e-13 1.126375129777666684e-13 -1.470578623067805846e-13
4.847000000000000000e+03 2.700271224975585938e+01 -3.311029672622680664e+00 2.484202579904645596e-15 1.840684587172888853e-13 5.596579785976246724e-14 -1.712307257247490389e-14
4.848000000000000000e+03 7.169380664825439453e+00 -1.025300884246826172e+01 4.832667875901905385e-14 1.722614564013402738e-13 6.617644122573415610e-14 -5.728882944205579419e-14
4.849000000000000000e+03 1.015943908691406250e+01 -2.887349128723144531e+01 1.101270055779268037e-14 -1.782840639442256903e-13 -5.018140986296285022e-14 7.790855227661833138e-14
4.850000000000000000e+03 6.062536239624023438e+01 2.466856575012207031e+01 1.457342547420831247e-13 2.454613389716447935e-13 1.173586781141183755e-13 -3.244381827538674046e-14
4.851000000000000000e+03 6.188125610351562500e+01 2.373290634155273438e+01 1.174132270359215524e-13 9.607090378218816062e-14 6.404523856780655611e-14 1.963088708516885772e-13
4.852000000000000000e+03 4.324647521972656250e+01 2.512245368957519531e+01 2.067043300304875764e-14 1.003606580978443075e-13 3.630932766908109843e-14 1.396107486345207760e-13
4.853000000000000000e+03 4.536102294921875000e+01 2.512412834167480469e+01 -1.391941846073246891e-13 1.233491390625895967e-13 -4.753514595156769704e-15 -1.663273333082568306e-13
4.854000000000000000e+03 2.703953933715820312e+01 -2.527185916900634766e+00 1.199687999766871349e-13 5.546756630392390974e-13 2.023933321285142917e-13 -1.866504014877683887e-14
4.855000000000000000e+03 9.683412551879882812e+00 -1.283114337921142578e+01 -9.548662723143572229e-14 2.335828470749479191e-13 4.142886934118544806e-14 1.240356152206259499e-13
4.856000000000000000e+03 9.594801902770996094e+00 -1.343600845336914062e+01 3.555572923217252546e-14 1.524910162335399444e-13 5.641402397852691986e-14 -1.017714829510546481e-13
4.857000000000000000e+03 2.723328018188476562e+01 3.012141227722167969e+00 -1.202624832401591459e-13 8.571178570495815996e-14 -1.036520909115370634e-14 4.146936768045957067e-14
4.858000000000000000e+03 2.725679016113281250e+01 3.822560548782348633e+00 -4.317116190357891958e-14 4.161320810505686474e-13 1.118882750664705605e-13 -6.273214098791862758e-14
4.859000000000000000e+03 2.652734947204589844e+01 5.387696266174316406e+00 -1.221576144275551834e-13 1.535260091799217630e-13 9.410517409270437172e-15 -4.058302562818909276e-15
4.860000000000000000e+03 7.316426086425781250e+01 2.365055656433105469e+01 1.384407589651373560e-14 -4.058253570433240087e-13 -1.175943836664167241e-13 1.066987278153415375e-13
4.861000000000000000e+03 7.255520629882812500e+01 2.378088569641113281e+01 3.748911581559835615e-14 -2.968418493323222995e-14 2.341480069391137751e-15 -6.411085990429624126e-14
4.862000000000000000e+03 7.495411872863769531e+00 -1.578585624694824219e+01 1.157693190444175624e-13 -1.677015866669365196e-13 -1.557968198082158168e-14 -2.049926966726529215e-14
4.863000000000000000e+03 7.571449279785156250e+00 -2.730536460876464844e+01 4.996056465669113100e-14 2.044154640478898499e-13 7.631280996662700988e-14 -2.788509372952767407e-14
4.864000000000000000e+03 9.784057617187500000e+00 -2.635080146789550781e+01 -1.788111454422477292e-14 3.808761235546929969e-14 6.061949682186536931e-15 6.499535203660991578e-14
4.865000000000000000e+03 2.735794830322265625e+01 -1.583323669433593750e+01 -9.292890790918179739e-15 2.476475513372988768e-13 7.150639943446363000e-14 -5.947210768558058858e-14
4.866000000000000000e+03 8.268491744995117188e+00 -2.743278884887695312e+01 1.200615263674889577e-13 1.429568404842998519e-13 7.890551005553664288e-14 9.452750133207357686e-14
4.867000000000000000e+03 9.653717994689941406e+00 -2.755430984497070312e+01 -1.071409857399596363e-14 2.699139468789052421e-13 7.775994881635203693e-14 9.085911683399602867e-14
4.868000000000000000e+03 7.301873016357421875e+01 -1.476115036010742188e+01 -1.318974904339700882e-13 -1.709048619855449425e-13 -9.084070572585450920e-14 -4.517416781900547573e-14
4.869000000000000000e+03 3.859013748168945312e+01 2.676591491699218750e+01 -7.053307726290550250e-14 -1.217303574564329582e-13 -5.767903380393332724e-14 -1.804953010512734546e-14
4.870000000000000000e+03 1.058105945587158203e+01 -1.966099357604980469e+01 -7.831115211864598386e-15 2.253985572405609039e-13 6.527023116865288133e-14 4.072955555180050868e-14
4.871000000000000000e+03 8.971035957336425781e+00 -1.993989562988281250e+01 8.243001414906178659e-14 -1.019256971575635551e-13 -5.848706173099951430e-15 4.184536729981164910e-15
4.872000000000000000e+03 2.630805206298828125e+01 -1.042489528656005859e+00 -3.428795130309449102e-14 3.284372827958709218e-13 8.824480046427246593e-14 2.505649327074182392e-14
4.873000000000000000e+03 6.894443988800048828e+00 -2.105241584777832031e+01 -5.198411620328628746e-14 3.437286805012262914e-13 8.752337233870061128e-14 -1.034806260320243754e-13
4.874000000000000000e+03 2.551810646057128906e+01 -1.982262992858886719e+01 -2.376119693527339177e-14 5.159525150871813182e-13 1.476573990031107564e-13 -1.687417871718780576e-14
4.875000000000000000e+03 2.760804557800292969e+01 -1.829759216308593750e+01 5.561387938710082857e-14 3.669666296095969171e-13 1.267741608305256173e-13 -6.121698200439729121e-14
4.876000000000000000e+03 2.520245170593261719e+01 -2.402184867858886719e+01 5.372669675688182545e-14 4.119087883280858620e-13 1.396906407821058016e-13 6.881262459802403586e-14
4.877000000000000000e+03 2.584894561767578125e+01 -2.262502479553222656e+01 -4.446096946554914386e-14 3.240774077047092749e-13 8.388493214937439713e-14 -3.942792679801840339e-14
4.878000000000000000e+03 9.217156410217285156e+00 -3.258275985717773438e+01 -1.980963577040157492e-14 6.013658131577906407e-14 1.209808349420665730e-14 2.656959904639901587e-14
4.879000000000000000e+03 2.858016586303710938e+01 -1.695019531250000000e+01 4.209575193308591479e-14 4.755505342811383596e-13 1.552938821373223144e-13 -6.053286398608609398e-14
4.880000000000000000e+03 2.728392982482910156e+01 7.008648395538330078e+00 -6.439982688831794033e-14 5.214114730256458330e-13 1.371034904530665788e-13 -4.393265807568769166e-14
4.881000000000000000e+03 6.627418994903564453e+00 -2.868808746337890625e+01 7.972150093933996762e-14 1.942946807132264753e-13 8.220485246289085945e-14 3.523934548571409919e-14
4.882000000000000000e+03 2.611500549316406250e+01 -7.980469226837158203e+00 -5.766470200646578448e-14 3.870451051671275344e-13 9.881411823769309377e-14 -1.230155774879608532e-14
4.883000000000000000e+03 7.042269134521484375e+01 -2.922484970092773438e+01 3.319150442232347842e-14 -2.008828081092803308e-14 3.930966829308749425e-15 5.781294632476244311e-14
4.884000000000000000e+03 7.364092350006103516e+00 -2.878835296630859375e+01 -1.207952584936526283e-14 4.057400980949851799e-14 8.548345442149860723e-15 -1.130437364267426747e-13
4.885000000000000000e+03 9.466891288757324219e+00 -2.889091873168945312e+01 2.812385537669971625e-14 1.035549751960025688e-13 3.950365154350293784e-14 3.503153103430294013e-14
4.886000000000000000e+03 7.261006164550781250e+01 -2.743776130676269531e+01 -2.667981158536395642e-14 1.258186399033869862e-13 2.974164764837396169e-14 1.001854578030342280e-13
4.887000000000000000e+03 2.701403236389160156e+01 -1.204574298858642578e+01 -4.120243710559363948e-14 4.856022268323600954e-13 1.333199501317439140e-13 -7.503464402548384871e-14
4.888000000000000000e+03 3.005079078674316406e+01 -3.085360717773437500e+01 2.148805527230849416e-14 2.722771281441632718e-13 8.812955654960083485e-14 -5.196553568855531713e-14
4.889000000000000000e+03 2.833872032165527344e+01 -2.530001068115234375e+01 6.451200793185229987e-14 4.108121991457797106e-13 1.425972648337950344e-13 -4.713119000979149043e-14
4.890000000000000000e+03 2.630430603027343750e+01 -2.160294342041015625e+01 6.130127194704446114e-14 4.265927888713605398e-13 1.463682148573897113e-13 -5.231156220003585489e-14
4.891000000000000000e+03 2.603577995300292969e+01 -2.623283386230468750e+01 2.582451498467624312e-14 3.313242963407653230e-13 1.071446398400940914e-13 -3.467942621439290551e-14
4.892000000000000000e+03 2.767413139343261719e+01 -2.726971244812011719e+01 5.855441863799812352e-14 3.453514058927853458e-13 1.211717493921141142e-13 -6.893920520166171850e-14
4.893000000000000000e+03 7.016290283203125000e+01 -3.506580352783203125e+01 1.870129654705111194e-14 -1.486063232376561710e-14 1.152199224634001089e-15 3.038403404743983405e-14
4.894000000000000000e+03 2.562092018127441406e+01 -2.507921600341796875e+01 3.339034371262553091e-14 4.489441587582354565e-13 1.447003459978737916e-13 -2.163649779631481029e-14
4.895000000000000000e+03 8.514420509338378906e+00 -3.354494476318359375e+01 2.323336835419187452e-14 1.243345297595802035e-13 4.427037011175798120e-14 1.797289225812567087e-14
4.896000000000000000e+03 6.517036437988281250e+01 -3.424232101440429688e+01 2.839142122627608816e-14 1.036696499045336450e-13 3.961832286390222502e-14 1.001851088254599592e-14
4.897000000000000000e+03 8.936915397644042969e+00 -1.137909126281738281e+01 1.580920859717629967e-13 6.775375209879322402e-14 6.775375209879322402e-14 2.120684202788596096e-14
4.898000000000000000e+03 6.801071643829345703e+00 -1.303512191772460938e+01 1.129022327966402658e-14 9.634056519127603968e-14 3.228923476251283065e-14 -1.343088373807407865e-13
4.899000000000000000e+03 5.291378784179687500e+01 2.433143997192382812e+01 -6.063740818056800874e-14 -1.632403115675931660e-13 -6.716331592444835241e-14 -4.091673628061655299e-14
4.900000000000000000e+03 5.572624969482421875e+01 2.331858253479003906e+01 1.301360498447709860e-14 5.577259218559260309e-15 5.577259218559260309e-15 2.384983486744540748e-13
4.901000000000000000e+03 7.261013793945312500e+01 -3.024158179759979248e-01 -1.729958814004547984e-13 -1.198920384628751612e-13 -8.786637324849355668e-14 -6.751627116543743035e-14
4.902000000000000000e+03 9.010979652404785156e+00 -1.533761405944824219e+01 -4.967794364351026115e-14 -2.129054751779952542e-14 -2.129054751779952542e-14 -6.455047000392122314e-14
4.903000000000000000e+03 2.772049140930175781e+01 -8.585386276245117188e+00 -7.895079582502864679e-14 3.321715461284541204e-13 7.596622441340128429e-14 -4.972911798605157696e-14
4.904000000000000000e+03 2.763607978820800781e+01 -6.305426597595214844e+00 1.929045200757973505e-14 3.742749382987242690e-13 1.180696165836714329e-13 -2.345670553139441589e-14
4.905000000000000000e+03 7.271379089355468750e+01 1.979747009277343750e+01 8.159088910140305240e-14 -3.996664923924114765e-13 -9.542267963204981163e-14 -1.498264911388349357e-14
4.906000000000000000e+03 7.276472473144531250e+01 2.136937713623046875e+01 1.040589394708281434e-13 6.747216446580800442e-14 5.145933185861720216e-14 -5.388573905119008189e-14
4.907000000000000000e+03 2.806481552124023438e+01 2.805942153930664062e+01 3.787910333704139210e-14 -6.641573480959707398e-15 9.371258279198147606e-15 -2.138315295229648028e-13
4.908000000000000000e+03 6.749965667724609375e+01 2.371799850463867188e+01 1.637407386328310066e-13 -2.132729519518320599e-14 4.272403353951410854e-14 -2.029077182967228832e-13
4.909000000000000000e+03 6.871749877929687500e+01 2.288780593872070312e+01 6.565374397024710540e-15 2.813731854187984972e-15 2.813731854187984972e-15 3.503998781124832707e-14
4.910000000000000000e+03 2.696216011047363281e+01 -4.095093250274658203e+00 5.561639338088827933e-14 2.525903477264973551e-13 9.246202165458933253e-14 -5.237630262226039557e-14
4.911000000000000000e+03 6.738101482391357422e+00 -2.159493064880371094e+01 7.297246438836210713e-14 2.142777058219969000e-13 8.617505174073405994e-14 -6.929570612256800294e-15
4.912000000000000000e+03 2.881282234191894531e+01 2.822603416442871094e+01 1.923353478165603508e-14 1.226203112571905285e-13 4.255615499750009523e-14 -3.029775865956430003e-14
4.913000000000000000e+03 2.831923103332519531e+01 2.646176910400390625e+01 2.683733769069662767e-14 -1.715020811997314265e-13 -4.339942373033679746e-14 -6.063633075465910127e-14
4.914000000000000000e+03 2.977345657348632812e+01 2.785756874084472656e+01 -1.347594860137343864e-13 2.625025847732831430e-13 3.832292488448012235e-14 2.208128665537930496e-14
4.915000000000000000e+03 2.785817527770996094e+01 2.602131271362304688e+01 1.325460737260780730e-13 -3.092021267931538420e-13 -5.299681863062816189e-14 -6.322124491671757274e-14
4.916000000000000000e+03 3.101157951354980469e+01 2.774938774108886719e+01 -5.721330120821502274e-14 -1.388973571575524701e-13 -5.883320089786203688e-14 -1.293816484206284159e-14
4.917000000000000000e+03 5.563988494873046875e+01 2.268004035949707031e+01 -4.416955625037577438e-14 -2.476845497364349447e-13 -8.755623044079050010e-14 -1.086404627554955066e-14
4.918000000000000000e+03 5.766146087646484375e+01 2.370491218566894531e+01 7.374274259806801179e-14 -1.056488135365608871e-13 -9.571820434514915349e-15 6.475291765457857895e-14
4.919000000000000000e+03 3.727776718139648438e+01 2.588649940490722656e+01 -8.862776777664865824e-14 3.280242559782625689e-13 7.181894781573688880e-14 5.177968988366414560e-14
4.920000000000000000e+03 3.877207946777343750e+01 2.561864089965820312e+01 -5.112890430589329960e-14 -6.766333641387151099e-14 -3.563767119948990647e-14 5.172967428219467367e-14
4.921000000000000000e+03 6.538428497314453125e+01 2.317474555969238281e+01 4.780462186044012740e-14 4.336316733206252438e-14 2.735033641893761663e-14 -5.066693168942785694e-15
4.922000000000000000e+03 6.518414306640625000e+01 2.401016998291015625e+01 -7.656580854357650234e-14 7.012571540164838635e-14 -1.932026672029013917e-15 -6.144092713949772435e-16
4.923000000000000000e+03 3.447983551025390625e+01 2.482804870605468750e+01 3.502544552609339161e-15 -2.137438345078696705e-14 -5.361551690629112049e-15 -5.514184825438674109e-14
4.924000000000000000e+03 3.182072830200195312e+01 2.742837905883789062e+01 -1.583943208798704871e-13 -9.075875359414176113e-14 -7.474592098695095888e-14 1.326592847616762938e-14
4.925000000000000000e+03 9.057995796203613281e+00 -1.716259956359863281e+01 1.783635224109417217e-14 9.914604673279953095e-14 3.509471969216811094e-14 -8.837906535080763959e-14
4.926000000000000000e+03 6.763206958770751953e+00 -1.990013504028320312e+01 -1.972657063739613470e-14 3.575533424025889584e-13 1.013480342400632783e-13 -4.993105064067700216e-14
4.927000000000000000e+03 9.370035171508789062e+00 -1.608187484741210938e+01 -6.916968625474140264e-14 -2.964415076801320270e-14 -2.964415076801320270e-14 4.712441035808166701e-14
4.928000000000000000e+03 6.838405132293701172e+00 -1.232351589202880859e+01 2.086685824945113538e-14 1.461957860543830479e-13 5.011879379937002332e-14 -1.835050530583567929e-13
4.929000000000000000e+03 6.895351409912109375e+01 2.144343566894531250e+01 -7.000300404451376135e-14 1.301270289438827277e-13 1.803720916387658441e-14 -1.787175415253125510e-13
4.930000000000000000e+03 7.103228759765625000e+01 2.324429702758789062e+01 1.322678454257616640e-14 -2.917125362881384243e-13 -8.354572594718515099e-14 5.090201128437818467e-14
4.931000000000000000e+03 4.641847991943359375e+01 2.508605766296386719e+01 2.220557222324640208e-15 8.673469657338034322e-14 2.668657599048072926e-14 -1.078683380139645875e-13
4.932000000000000000e+03 5.513367080688476562e+01 2.406385040283203125e+01 -1.835508877051986176e-14 8.363543012443117042e-14 1.958410308379975040e-14 1.478367938050756392e-13
4.933000000000000000e+03 5.503834152221679688e+01 2.340448951721191406e+01 1.739979654227698930e-14 -1.297957916276612500e-13 -3.371879937264822547e-14 2.685412080151352437e-14
4.934000000000000000e+03 5.063671112060546875e+01 2.393038177490234375e+01 -1.246407762157258903e-13 -9.916842195513420055e-14 -6.714275674075259603e-14 1.431005582585263836e-14
4.935000000000000000e+03 7.603637218475341797e+00 -1.901543235778808594e+01 1.162099659123699835e-13 1.413061697817449835e-13 7.725483935298177451e-14 -4.441304434139349555e-14
4.936000000000000000e+03 3.481023788452148438e+01 2.677658843994140625e+01 5.748823455036661256e-14 7.038876317748410383e-14 3.836309796310249931e-14 -8.356083023870058968e-14
4.937000000000000000e+03 3.593849182128906250e+01 2.589802742004394531e+01 6.055716366727692535e-15 -2.028016765479902228e-14 -4.267335047608220022e-15 1.417130589986175318e-14
4.938000000000000000e+03 7.182823944091796875e+01 -2.340724182128906250e+01 2.354083284371571300e-14 5.583987794182364295e-14 2.381421272744203843e-14 1.088872441106121525e-13
4.939000000000000000e+03 3.331527709960937500e+01 2.712685775756835938e+01 -3.501849350317880194e-14 1.451203930245489881e-13 3.303057155047695037e-14 3.212654006213601365e-14
4.940000000000000000e+03 7.221083068847656250e+01 -1.494615459442138672e+01 6.287597395862598582e-14 -6.455505075809997440e-14 -5.037246174410608349e-16 3.506999988263544143e-14
4.941000000000000000e+03 2.771701431274414062e+01 -4.808887004852294922e+00 7.969479568457893404e-14 1.714077556107251876e-13 7.533076674384395210e-14 -1.648240463385242105e-13
4.942000000000000000e+03 2.888139724731445312e+01 -1.243955039978027344e+01 -7.971053525080481345e-15 6.828480923065649577e-13 2.024631005383137339e-13 2.009775910960780870e-14
4.943000000000000000e+03 3.535063552856445312e+01 2.599027252197265625e+01 2.168039104364152814e-14 -8.221030057880759911e-14 -1.815897353817617910e-14 -1.741746056735903048e-14
4.944000000000000000e+03 7.267564392089843750e+01 7.529598712921142578e+00 -2.878382956788237690e-14 -2.410906760688669159e-13 -8.096234999695889334e-14 1.143147398572838536e-13
4.945000000000000000e+03 4.991357803344726562e+01 2.467940521240234375e+01 -9.515376700008730537e-15 4.167293002647551314e-14 9.647265659126855880e-15 -9.944422943528735681e-14
4.946000000000000000e+03 6.844794750213623047e+00 -2.713988113403320312e+01 9.798485265354039964e-14 1.334954011483063807e-13 6.944407749580674971e-14 1.437824706030429306e-14
4.947000000000000000e+03 6.754889488220214844e+00 -2.791175651550292969e+01 -2.203814557330974894e-14 3.630603101685038470e-14 4.280365378952306551e-15 -9.133474955080184143e-14
4.948000000000000000e+03 4.320796585083007812e+01 2.440759468078613281e+01 -6.268770225137387797e-14 4.763942604117665791e-13 1.241119701586232416e-13 1.056225893965138940e-13
4.949000000000000000e+03 6.438853454589843750e+01 2.288106155395507812e+01 -1.089221757493569198e-13 -4.668093101195362749e-14 -4.668093101195362749e-14 2.442814559574374433e-13
4.950000000000000000e+03 7.012603759765625000e+01 2.260964965820312500e+01 1.956073725643326690e-15 -1.364145341825606650e-13 -4.033753515128406242e-14 1.242993202940287367e-13
4.951000000000000000e+03 4.578985595703125000e+01 2.558317184448242188e+01 1.036806477803207949e-13 1.187798503218123747e-13 6.673815281877173988e-14 -6.506446314884228865e-14
4.952000000000000000e+03 4.139607620239257812e+01 2.451981925964355469e+01 -5.715776972819303081e-14 -4.737165927538519727e-14 -3.135883005632618403e-14 5.628479724396201478e-14
4.953000000000000000e+03 2.852661895751953125e+01 -8.493033409118652344e+00 -3.191380943149899063e-14 5.582095116002383506e-13 1.578887167492590282e-13 -9.365933321871938722e-14
4.954000000000000000e+03 7.310959625244140625e+01 -1.927085113525390625e+01 1.274481178416015520e-14 9.696396111166447063e-14 3.291263068290126159e-14 -2.994728014291299367e-14
4.955000000000000000e+03 7.229111480712890625e+01 -2.478013992309570312e+01 6.630089408260833594e-14 1.199165685370276457e-13 5.586523810826443670e-14 1.085172668955150521e-13
4.956000000000000000e+03 7.198083496093750000e+01 -1.870213127136230469e+01 8.983102212393664909e-14 -7.251937799454630934e-15 2.477372656789402633e-14 -2.482620364710821925e-14
4.957000000000000000e+03 4.857058334350585938e+01 2.339702033996582031e+01 1.793351369640781845e-14 7.685791463170072585e-15 7.685791463170072585e-15 -6.039792570835785315e-15
4.958000000000000000e+03 2.721578025817871094e+01 2.299707221984863281e+01 1.033124391700175615e-14 -8.707422125995775697e-14 -2.302289252526044244e-14 -3.100007094558251963e-14
4.959000000000000000e+03 2.794916343688964844e+01 2.515450477600097656e+01 -1.391294306325729924e-13 -4.520842521952422866e-13 -1.773641048483445837e-13 -1.121860105355622361e-13
4.960000000000000000e+03 7.322646331787109375e+01 -8.206257820129394531e+00 -1.031369813771915167e-13 -2.729562994900625039e-13 -1.128279869706816374e-13 -1.152938015240925762e-13
4.961000000000000000e+03 7.162654113769531250e+01 -1.124280261993408203e+01 -8.783157713502035002e-14 -3.578987421096885280e-13 -1.337190991615444524e-13 -4.506518178374815942e-14
4.962000000000000000e+03 7.264426422119140625e+01 1.252222299575805664e+00 -1.325398395635862814e-13 -4.685613333964278038e-13 -1.803303464669933631e-13 3.175744714943584679e-14
4.963000000000000000e+03 7.181117248535156250e+01 -2.700652122497558594e+00 -2.249233785334148195e-13 2.238609010619604933e-13 -3.187436331890359468e-16 -6.564639511239672709e-14
4.964000000000000000e+03 7.252255249023437500e+01 -2.700480937957763672e+00 -2.004744840185951338e-13 -8.591763503993168904e-14 -8.591763503993168904e-14 -1.221362420922300629e-13
4.965000000000000000e+03 7.267253112792968750e+01 6.752294540405273438e+00 -1.096301733205171103e-13 -5.502447998108339622e-13 -1.979624960051634686e-13 -8.307727945790384372e-15
4.966000000000000000e+03 7.194153594970703125e+01 4.314135551452636719e+00 -1.795797261979273363e-13 -1.227136881692958426e-13 -9.068802973117781607e-14 6.715212831328101761e-14
4.967000000000000000e+03 2.783453750610351562e+01 1.233411502838134766e+01 1.669698958901757319e-14 1.444086956134751909e-13 4.833170674659395538e-14 -4.539436589210549267e-14
4.968000000000000000e+03 7.264955139160156250e+01 2.028160810470581055e+00 -2.929356789690279461e-13 -2.170457688360424853e-13 -1.529944384072792762e-13 1.685561819243439063e-13
4.969000000000000000e+03 8.774502754211425781e+00 -2.203060531616210938e+01 6.089344252360046061e-14 3.463538321164111311e-13 1.221741756157398995e-13 7.847260168059033703e-14
4.970000000000000000e+03 2.723074340820312500e+01 8.577229499816894531e+00 -6.433755980229938221e-14 4.070607783138169289e-13 1.028169655534552640e-13 -4.063030700730482780e-15
4.971000000000000000e+03 2.865309715270996094e+01 9.444886207580566406e+00 -1.405185511135428889e-13 1.227815592252934351e-13 -5.321094855969404902e-15 -9.022290022291795664e-14
4.972000000000000000e+03 7.200498199462890625e+01 1.817738723754882812e+01 8.369699925530119100e-14 2.188739369867603868e-13 9.077128290549754674e-14 9.756193249110811649e-14
4.973000000000000000e+03 7.243598175048828125e+01 -1.915250778198242188e+01 3.449811034170364998e-14 2.892905912651316802e-13 9.713661353136920917e-14 -1.696145021580931084e-14
4.974000000000000000e+03 7.172156524658203125e+01 1.122893905639648438e+01 1.058109576655219888e-14 -1.327180959532700544e-13 -3.664110031012524082e-14 1.239894688656595356e-13
4.975000000000000000e+03 7.253018188476562500e+01 1.511719608306884766e+01 2.736914055036666210e-14 -3.314024944224558400e-13 -9.121000531459380611e-14 8.620986818299800070e-14
4.976000000000000000e+03 7.207379150390625000e+01 1.306409931182861328e+01 -2.570130218403684358e-14 -4.227733885631829169e-13 -1.345424016337484763e-13 1.245846552007726094e-14
4.977000000000000000e+03 7.250692749023437500e+01 -9.766436576843261719e+00 1.095352107627345362e-13 9.269461012564178537e-14 6.066894491126018085e-14 6.765290096796133801e-14
4.978000000000000000e+03 6.711194515228271484e+00 -2.545634651184082031e+01 1.491208822005860024e-13 2.926636797490056452e-13 1.325353672296247787e-13 -7.511702983806559097e-14
4.979000000000000000e+03 8.724346160888671875e+00 -2.556448173522949219e+01 4.857897599268821975e-14 -1.621842308889565043e-13 -3.408157680769366427e-14 8.607610473996760159e-14
4.980000000000000000e+03 2.796801185607910156e+01 1.877478408813476562e+01 -5.370009314607446238e-15 -7.092785560269820877e-14 -2.288935947519169650e-14 -1.095793784487361644e-13
4.981000000000000000e+03 7.265634155273437500e+01 1.740202331542968750e+01 5.561124680870076220e-14 1.610862322438261218e-13 6.500924337694488631e-14 -1.369410193693878369e-14
4.982000000000000000e+03 2.726275062561035156e+01 7.796776294708251953e+00 -4.448603486452429312e-14 3.240666741032016684e-13 8.387419177160321260e-14 6.338441734367664115e-14
4.983000000000000000e+03 2.791161155700683594e+01 9.372397422790527344e+00 -1.721235323324729616e-14 3.837422458789763180e-14 6.348561914614869045e-15 -9.904823136805060435e-14
4.984000000000000000e+03 7.262928771972656250e+01 1.662022972106933594e+01 9.506889768690421350e-14 -5.311430548854412237e-13 -1.308222464819347453e-13 -2.888517197782367041e-14
4.985000000000000000e+03 7.334684753417968750e+01 9.188310623168945312e+00 6.338133414374863550e-14 -2.473422671105812709e-13 -5.518827921242343282e-14 1.126694698368006786e-13
4.986000000000000000e+03 7.259221649169921875e+01 1.585305309295654297e+01 -1.690710966411115845e-14 -1.216232789393728586e-13 -4.155911590341884732e-14 -6.387314180171521638e-14
4.987000000000000000e+03 7.334180450439453125e+01 2.077797651290893555e+00 -1.498978756874977392e-13 -4.302495317486110249e-13 -1.740442235860853448e-13 6.985162909244405083e-14
4.988000000000000000e+03 7.254839324951171875e+01 1.065162181854248047e+01 -2.144520387550689910e-14 -2.608210143088124378e-13 -8.467986918224076898e-14 1.350384224335947000e-14
4.989000000000000000e+03 7.261009979248046875e+01 9.862733840942382812e+00 -4.047940978181736871e-14 -3.376049711057566016e-13 -1.134253146050853700e-13 -2.948696601695827493e-15
4.990000000000000000e+03 7.223880004882812500e+01 1.443932056427001953e+01 1.125353472518006437e-13 -2.611585704908204325e-14 2.592584723022216958e-14 9.749849819368824194e-15
4.991000000000000000e+03 2.713213920593261719e+01 1.558411312103271484e+01 4.673485651750762526e-14 1.344065917591175108e-13 5.434243549942707752e-14 3.590388433744951327e-16
4.992000000000000000e+03 2.786949729919433594e+01 1.630703544616699219e+01 -3.450211850161005733e-14 3.096432615520838816e-14 -1.061337365107321851e-15 2.500837332900830712e-14
4.993000000000000000e+03 2.715113830566406250e+01 2.224956321716308594e+01 1.330769397673084442e-13 1.027839244922487683e-13 7.075825927786716374e-14 -5.306268391260665629e-14
4.994000000000000000e+03 9.078387260437011719e+00 -1.021112346649169922e+01 5.165120176182924627e-14 2.966419156754523945e-13 1.044879379416899234e-13 -6.872788064571713762e-14
4.995000000000000000e+03 7.247146606445312500e+01 -7.470729827880859375e+00 -1.305057814203133826e-13 -2.846857949032055579e-13 -1.245574688312975353e-13 2.621133460289654799e-14
4.996000000000000000e+03 7.264590454101562500e+01 3.600635528564453125e+00 -1.281051951801046029e-13 -1.464041155018261375e-13 -8.235279184932650653e-14 1.811186698666075734e-13
4.997000000000000000e+03 7.264887237548828125e+01 2.810455560684204102e+00 -1.181325409672570603e-13 -2.336320427485244489e-13 -1.055293751147344528e-13 6.547607372736283238e-14
4.998000000000000000e+03 7.250262451171875000e+01 -3.509597778320312500e+00 -2.172890366984939203e-13 2.271327657205057804e-13 2.953121501812283958e-15 -1.543573076431478674e-13
4.999000000000000000e+03 7.248715209960937500e+01 -4.317524433135986328e+00 -1.720324593499841792e-13 -1.194791471705383690e-13 -8.745348195615676445e-14 -2.855280302558466099e-14
5.000000000000000000e+03 6.832447052001953125e+00 -1.369545936584472656e+01 6.324845161498338086e-14 2.710647732748899807e-14 2.710647732748899807e-14 -1.572840843027181745e-13
5.001000000000000000e+03 7.238201141357421875e+01 -2.638976478576660156e+01 4.266356893960730756e-14 -7.321750763187098721e-14 -9.166182285305461697e-15 -6.883512348716900459e-15
5.002000000000000000e+03 2.712669181823730469e+01 1.477678012847900391e+01 5.602670842251599760e-16 1.374929629784776841e-13 4.141596733533287056e-14 1.013625354441202719e-14
5.003000000000000000e+03 2.860754394531250000e+01 1.704483222961425781e+01 -4.635504016769521896e-14 -2.486211919932451719e-13 -8.849286592133714935e-14 -6.598130516347749941e-14
5.004000000000000000e+03 2.781767272949218750e+01 1.084564304351806641e+01 9.378053177501021603e-15 -4.173178187565074193e-14 -9.706119202367979176e-15 -5.926827090088973571e-14
5.005000000000000000e+03 7.220783233642578125e+01 -1.229051017761230469e+01 -1.343195286306010303e-14 -2.345113036053558808e-13 -7.438297753344785823e-14 -6.238101533809561894e-14
5.006000000000000000e+03 7.739286422729492188e+00 -1.138437747955322266e+01 -2.244193803772713547e-14 1.733858282643163662e-13 4.528316401865815910e-14 8.278116520987321286e-16
5.007000000000000000e+03 6.726767539978027344e+00 -1.168930435180664062e+01 2.786267954367743077e-14 1.491939980845929936e-13 5.311700244144818006e-14 -5.917010994669832935e-14
5.008000000000000000e+03 7.184707641601562500e+01 -9.782365798950195312e+00 -1.685903613978315119e-13 -2.552568074444538926e-13 -1.271541465869274745e-13 -9.115365390667887202e-14
5.009000000000000000e+03 7.244488525390625000e+01 -1.055662536621093750e+01 -2.012362173599291371e-13 -4.065007336816195416e-13 -1.823210907334754660e-13 -2.393470655232075167e-14
5.010000000000000000e+03 4.990900421142578125e+01 2.394974899291992188e+01 -8.446969659110445394e-14 5.530059916936114206e-14 -8.750728718303225212e-15 1.295231283338083017e-13
5.011000000000000000e+03 5.065226364135742188e+01 2.326108741760253906e+01 -6.490371662424415655e-14 6.368602205927137438e-14 -3.653091635852227011e-16 6.782115559260393223e-14
5.012000000000000000e+03 6.560595989227294922e+00 -1.605955696105957031e+01 4.913987104596465039e-14 -2.469100533026517136e-14 7.334659884116433159e-15 -4.481164110571242420e-14
5.013000000000000000e+03 7.297813415527343750e+01 2.290661048889160156e+01 3.544661444790722649e-14 -3.055954266224271410e-14 1.466120963952114321e-15 -9.135870364255019305e-14
5.014000000000000000e+03 2.793577575683593750e+01 1.795026588439941406e+01 -2.780257916793794915e-14 -1.034172882963604878e-13 -3.936596125572906779e-14 -6.207020168029833695e-14
5.015000000000000000e+03 7.174341583251953125e+01 -1.602875900268554688e+01 -3.147812956474926871e-14 -1.349062598828346116e-14 -1.349062598828346116e-14 5.650204764240558675e-14
5.016000000000000000e+03 7.424989223480224609e+00 -2.370500755310058594e+01 3.139375491880737334e-14 4.709639796207643059e-13 1.507073139244211046e-13 -7.735724902443660844e-14
5.017000000000000000e+03 9.687149047851562500e+00 -9.847448348999023438e+00 1.043147908547439884e-13 3.192120233506262617e-13 1.270580456168637906e-13 6.717102053613657753e-14
5.018000000000000000e+03 8.998277664184570312e+00 -8.929650306701660156e+00 8.156497666948064884e-14 5.496546143582414778e-13 1.893658705320530600e-13 -3.231041736245776619e-14
5.019000000000000000e+03 6.914219856262207031e+00 -2.053180694580078125e+01 -5.406704137135218136e-14 2.513341097742927133e-13 5.918011848800308616e-14 6.376471967864253462e-17
5.020000000000000000e+03 7.527027606964111328e+00 -1.694745445251464844e+01 8.101453400277333627e-14 1.262224103449477441e-13 6.217108669244811314e-14 -1.227790249027152503e-13
5.021000000000000000e+03 8.425397872924804688e+00 -1.852623558044433594e+01 1.091878391629337586e-13 1.382966820489411885e-13 7.424535839644155755e-14 -1.102423748534746284e-13
5.022000000000000000e+03 7.983656406402587891e+00 -1.747607040405273438e+01 4.192225586856571096e-14 4.656102502794030873e-14 2.654498426895180591e-14 2.267394375011187735e-14
5.023000000000000000e+03 7.434588909149169922e+00 -1.800523567199707031e+01 -4.612127601491197715e-14 -3.549315043802937775e-14 -2.448432759706922757e-14 -1.148530462359229065e-13
5.024000000000000000e+03 7.711046218872070312e+00 -8.404359817504882812e+00 4.258605864866996105e-14 3.156323401427851838e-13 1.074655162493047544e-13 4.193958955079832296e-14
5.025000000000000000e+03 7.229995250701904297e+00 -1.121241950988769531e+01 -3.882260656072437921e-14 2.121164843164186076e-13 5.198816502077416302e-14 -6.967747234222498864e-14
5.026000000000000000e+03 7.244222259521484375e+01 -1.774689292907714844e+01 5.952143210816510099e-14 -1.346191360425061379e-13 -2.252930948623641655e-14 4.343873622348476404e-14
5.027000000000000000e+03 2.708600807189941406e+01 2.139636230468750000e+01 1.492376507745626912e-14 7.502232477829898216e-14 2.698382526266068088e-14 -1.210034947674715200e-13
5.028000000000000000e+03 8.629958152770996094e+00 -2.416959571838378906e+01 9.753494940954038350e-14 3.620573350675282409e-13 1.378776785668570093e-13 9.823592677163373033e-14
5.029000000000000000e+03 7.923442363739013672e+00 -2.598913955688476562e+01 -8.365299928182311912e-15 -3.585128782658975749e-15 -3.585128782658975749e-15 -1.000228749110064486e-13
5.030000000000000000e+03 8.138401985168457031e+00 -2.537231063842773438e+01 5.062426240470992156e-14 1.360734848366781935e-13 5.600932518885597122e-14 7.240615848861861603e-14
5.031000000000000000e+03 8.944481849670410156e+00 -2.497952270507812500e+01 6.918852426748833828e-14 2.126560239750288628e-13 8.455336311750244471e-14 1.186502068470374205e-13
5.032000000000000000e+03 9.461338043212890625e+00 -2.386695098876953125e+01 8.315864544281709181e-15 3.238205873151017711e-13 9.964093759069411749e-14 1.358040199392340774e-13
5.033000000000000000e+03 5.980410385131835938e+01 2.425728416442871094e+01 7.461601323789646134e-14 2.149820848684064201e-13 8.687943078714358003e-14 3.975871688084373079e-14
5.034000000000000000e+03 6.115719223022460938e+01 2.380454635620117188e+01 8.751576259470247865e-14 8.325770086380079871e-14 5.123203903755098321e-14 6.911771908936145681e-14
5.035000000000000000e+03 2.715467071533203125e+01 5.927251577377319336e-01 4.621007894910211800e-14 4.086873797281426191e-13 1.364692457346897148e-13 -1.445053928947337418e-13
5.036000000000000000e+03 2.875167083740234375e+01 1.584244847297668457e+00 -7.238370025705511551e-15 2.714035322436830766e-13 7.924954773365702754e-14 3.395883834550472713e-14
5.037000000000000000e+03 8.166487693786621094e+00 -2.812706756591796875e+01 -1.009948469120466527e-14 1.854712469218956772e-14 2.534291873240528646e-15 2.665154270778229140e-14
5.038000000000000000e+03 4.450712966918945312e+01 2.481219291687011719e+01 9.138271194440716894e-14 8.491497164708067258e-14 5.288930643269906806e-14 1.342383100294206044e-13
5.039000000000000000e+03 5.783387374877929688e+01 2.429164695739746094e+01 -7.642762697669322480e-14 -1.700075491625416269e-13 -7.393055351939681330e-14 1.378390403119350571e-13
5.040000000000000000e+03 5.895813751220703125e+01 2.385134887695312500e+01 8.615470262120922262e-14 -8.827506325741196758e-15 2.319815719457451325e-14 -1.953390621727956605e-14
5.041000000000000000e+03 6.272800445556640625e+01 2.300547599792480469e+01 -7.421582743976848362e-14 1.054460609540425198e-13 9.369072087161284257e-15 1.904424561842768537e-13
5.042000000000000000e+03 7.217147827148437500e+01 -1.317870521545410156e+01 5.628134473766900625e-14 -1.588832147444985132e-13 -3.078056066323567319e-14 -1.039502803902884673e-14
5.043000000000000000e+03 7.296257019042968750e+01 -1.395759391784667969e+01 4.223881240974537710e-14 -7.339955195289488143e-14 -9.348221524131672400e-15 4.390574614488752803e-14
5.044000000000000000e+03 2.774770927429199219e+01 2.699609947204589844e+01 6.621627887930942036e-14 -2.003763366169308835e-13 -4.024801732128643894e-14 -5.119423765118091829e-14
5.045000000000000000e+03 9.245562553405761719e+00 -1.469989395141601562e+01 9.358740318083855203e-14 -5.642061897705424184e-15 2.638360246964323308e-14 -8.734777902060300581e-14
5.046000000000000000e+03 3.278552627563476562e+01 2.666593742370605469e+01 -4.746069937880056933e-14 -1.461554130759851189e-13 -5.808483034830391745e-14 -3.518273319165141078e-14
5.047000000000000000e+03 3.993397140502929688e+01 2.598976135253906250e+01 -1.584000942564389725e-13 1.608689852335143389e-13 7.406704906719858116e-16 9.339293119241254271e-14
5.048000000000000000e+03 8.258829116821289062e+00 -8.022224426269531250e+00 1.937276666939390796e-14 3.514347287573299505e-13 1.112422464257314947e-13 -5.172384669551756409e-14
5.049000000000000000e+03 4.259950256347656250e+01 2.449590873718261719e+01 -6.861783412520985892e-14 -1.209095350966984950e-13 -5.685821144419886397e-14 1.016493272475334220e-13
5.050000000000000000e+03 4.505456924438476562e+01 2.459713363647460938e+01 -2.193522327751523671e-13 2.719994910728440463e-13 1.579417782812068266e-14 -9.172061710398943246e-14
5.051000000000000000e+03 2.789217948913574219e+01 -1.656365752220153809e+00 3.028961020261171366e-14 4.704907253724743832e-13 1.502341138862398062e-13 1.212898664425428319e-14
5.052000000000000000e+03 2.992631530761718750e+01 2.732189369201660156e+01 -1.103719912231952704e-13 -2.760570363882081102e-13 -1.159287103163000876e-13 4.618996699880251189e-14
5.053000000000000000e+03 3.207639312744140625e+01 2.627319145202636719e+01 -4.014152495102583929e-14 7.429838943520325478e-14 1.024705900644004575e-14 1.026934817022727431e-13
5.054000000000000000e+03 7.234632110595703125e+01 2.300998115539550781e+01 -3.175988321619215016e-14 -2.881170779386876823e-13 -9.596308665239805524e-14 9.377076209699658493e-14
5.055000000000000000e+03 8.603096961975097656e+00 -8.504479408264160156e+00 8.095402196902148906e-14 2.977625470409334119e-13 1.136149686701073969e-13 9.754294540056246410e-14
5.056000000000000000e+03 2.694981193542480469e+01 -9.399496078491210938e+00 2.310905779885283340e-14 5.131643265703089707e-13 1.608820092121113210e-13 7.750159699117589729e-14
5.057000000000000000e+03 8.834587097167968750e+00 -7.768910408020019531e+00 1.081189530402005064e-14 1.418865160996221619e-13 4.580952384460913740e-14 -4.092797132562893403e-14
5.058000000000000000e+03 9.158496856689453125e+00 -1.658638763427734375e+01 1.443989648989771335e-13 6.188527067099020007e-14 6.188527067099020007e-14 -1.604815862447581121e-13
5.059000000000000000e+03 2.791164016723632812e+01 -8.796737194061279297e-01 -4.114871827607877175e-14 2.568705339579813174e-13 6.471654267169169028e-14 5.301144519556134915e-14
5.060000000000000000e+03 2.707288742065429688e+01 -1.747805595397949219e+00 -1.544094577676444202e-13 2.083302199371375729e-13 1.617622865084794581e-14 -3.201647321283800085e-14
5.061000000000000000e+03 9.955712318420410156e+00 -2.055831909179687500e+01 1.367995479265374237e-14 -8.563906284423869475e-14 -2.158773072140959121e-14 -1.990491427147347489e-15
5.062000000000000000e+03 9.069766044616699219e+00 -1.849480819702148438e+01 -4.395640549139691322e-14 1.641653393086306423e-13 3.606267845110422421e-14 2.091097850160771737e-14
5.063000000000000000e+03 6.629162597656250000e+01 2.345401382446289062e+01 1.178122811980319984e-13 -1.782637622585458992e-13 -1.813544465696734914e-14 -1.026577640169529237e-13
5.064000000000000000e+03 6.802446746826171875e+01 2.299485206604003906e+01 1.328569958040926036e-13 1.026896598896147317e-13 7.066399467523312716e-14 -1.995656108899276915e-13
5.065000000000000000e+03 8.861680030822753906e+00 -2.818402290344238281e+01 -9.824082601020064920e-14 -1.922773599409913214e-14 -3.524056860128993440e-14 2.919371897545409988e-14
5.066000000000000000e+03 9.160588264465332031e+00 -2.629235649108886719e+01 -6.000083920378387892e-14 2.030400993819833633e-13 4.291177669820712970e-14 -7.461289615665056552e-14
5.067000000000000000e+03 8.370692253112792969e+00 -2.476908874511718750e+01 -9.305753833255183544e-16 -9.190071663736643082e-14 -2.784938790266911629e-14 2.239325905424843083e-14
5.068000000000000000e+03 7.256195831298828125e+01 -2.038374900817871094e+01 5.717017113757378102e-15 1.854539471209809554e-13 5.735128626345453728e-14 3.081624711421556253e-16
5.069000000000000000e+03 7.213342285156250000e+01 -2.115961456298828125e+01 2.621727230385680063e-14 -1.260168727180988046e-13 -2.993988046308578010e-14 -1.247463537904034553e-14
5.070000000000000000e+03 2.728588104248046875e+01 -1.470783138275146484e+01 -4.051227804830262458e-14 5.087735246121771748e-13 1.404783678705251448e-13 -7.589323050213869770e-14
5.071000000000000000e+03 2.796983909606933594e+01 -1.262261390686035156e+01 2.049227148105507712e-14 3.519145153237090984e-13 1.117220397683742206e-13 -1.098776085850690365e-13
5.072000000000000000e+03 2.810116386413574219e+01 -1.358880805969238281e+01 8.775733130906172158e-15 5.298969271184950092e-13 1.616017974818972913e-13 -2.376294394072710377e-15
5.073000000000000000e+03 2.798604965209960938e+01 2.284427881240844727e+00 -4.498565555439634767e-14 2.781015977400269623e-13 6.993478062281011098e-14 -2.277473220050566655e-14
5.074000000000000000e+03 2.792720222473144531e+01 -9.671448916196823120e-02 -7.835146241660581601e-15 2.025213493000305176e-13 5.840586261157687531e-14 -9.567601702217820581e-14
5.075000000000000000e+03 6.597486877441406250e+01 2.291313934326171875e+01 6.916696897304661085e-14 3.498996340063620369e-13 1.257199775056908053e-13 -6.345458555302718739e-14
5.076000000000000000e+03 6.676701354980468750e+01 2.321208763122558594e+01 1.726767329384565341e-13 1.655062127929249338e-13 1.014548823641617248e-13 -5.526690758685115501e-14
5.077000000000000000e+03 5.359191894531250000e+01 2.357598495483398438e+01 -1.186143739652367746e-13 -9.658567619742070010e-14 -6.456001098303909558e-14 -1.486575484021743221e-13
5.078000000000000000e+03 2.712353897094726562e+01 1.398317146301269531e+01 -4.083950381648590588e-14 1.655011441477685641e-13 3.739849345463751307e-14 4.299170611524183450e-14
5.079000000000000000e+03 2.801011657714843750e+01 3.083669662475585938e+00 -1.334243452484271120e-13 3.545766924430843181e-13 6.634569873738629942e-14 -1.667235414396645021e-13
5.080000000000000000e+03 2.727546501159667969e+01 4.627836704254150391e+00 -1.268252267528496846e-13 3.345293876980126591e-13 6.231125370455975476e-14 9.095436399484888024e-14
5.081000000000000000e+03 8.393692970275878906e+00 -2.678439140319824219e+01 -5.028745499982729961e-14 1.157010820701867559e-13 1.962408642704194239e-14 2.774830468480968260e-14
5.082000000000000000e+03 7.025743865966796875e+01 -1.575022506713867188e+01 -1.770651225467545498e-14 -7.588505494013179919e-15 -7.588505494013179919e-15 -9.748015654224839732e-14
5.083000000000000000e+03 2.783039474487304688e+01 1.157803440093994141e+01 -1.212630256625102376e-13 4.055396155607654540e-13 8.528297696947656492e-14 3.718175466409408270e-14
5.084000000000000000e+03 5.135960006713867188e+01 2.385693740844726562e+01 -7.576656180707450061e-14 1.505324050089448806e-13 2.242975431581382961e-14 9.515030771753071881e-14
5.085000000000000000e+03 5.210069274902343750e+01 2.376481246948242188e+01 -5.534586122193062285e-15 -2.371965420437530461e-15 -2.371965420437530461e-15 -8.553581969236376259e-14
5.086000000000000000e+03 9.477391242980957031e+00 -2.961433792114257812e+01 8.078130856294454820e-14 -1.483832317000083334e-13 -2.028057931281138787e-14 -5.548497791318766914e-14
5.087000000000000000e+03 2.804567718505859375e+01 2.410732269287109375e+01 -1.282791960762613703e-13 -1.007277418483935871e-13 -6.870208341027556065e-14 -9.221050707936342961e-14
5.088000000000000000e+03 2.640116500854492188e+01 -1.838615417480468750e+01 3.629155014158412518e-14 6.560667807631315185e-13 2.077075084193705234e-13 -5.141203692697431105e-14
5.089000000000000000e+03 7.460896015167236328e+00 -2.802982711791992188e+01 4.672352321667336272e-14 1.115262667373412286e-13 4.747493630857801961e-14 -3.454541204961011913e-14
5.090000000000000000e+03 8.084133148193359375e+00 -2.888342666625976562e+01 -1.864978339133089441e-14 1.063846073409181747e-13 2.632044769309595245e-14 6.976744757001412944e-14
5.091000000000000000e+03 4.079134750366210938e+01 2.447573661804199219e+01 -1.516792605144728912e-13 1.408738712705207008e-13 -3.241618806064730518e-15 1.303610810878680359e-14
5.092000000000000000e+03 9.473214149475097656e+00 -2.072005462646484375e+01 7.688818928330148905e-14 2.617068345887874070e-13 1.015785017406158064e-13 1.874367089489681337e-13
5.093000000000000000e+03 8.843306541442871094e+00 -2.135214042663574219e+01 5.477027184108522462e-14 1.607258163366376280e-13 6.464882746975639249e-14 -1.876855265712899790e-14
5.094000000000000000e+03 2.795902442932128906e+01 1.961589813232421875e+01 3.429447345678834913e-14 -5.392879204183312347e-14 -5.890295914326611204e-15 -1.060308220076407876e-14
5.095000000000000000e+03 2.799705505371093750e+01 2.351102066040039062e+01 3.525184769201557267e-14 6.085888357935248516e-14 2.883321836497088064e-14 -7.330154685276576987e-14
5.096000000000000000e+03 7.155798339843750000e+01 -2.767426490783691406e+01 6.007765831583626592e-15 2.545023145407530191e-14 9.437398846884499648e-15 5.270521568007460744e-14
5.097000000000000000e+03 2.534285354614257812e+01 -2.093012809753417969e+01 -2.918476753126751644e-14 3.763753089573718125e-13 1.041571614113917521e-13 1.440650916162238004e-14
5.098000000000000000e+03 2.363005828857421875e+01 -2.150182914733886719e+01 8.488311134980264933e-15 4.840228153175918369e-13 1.477533373428485675e-13 -5.185487591619422632e-14
5.099000000000000000e+03 2.661080551147460938e+01 -2.467411994934082031e+01 1.009244432275367698e-13 4.550118962165505820e-13 1.667808957345889853e-13 -3.018363621651483364e-14
5.100000000000000000e+03 9.857639312744140625e+00 -3.004151916503906250e+01 1.596643044827431718e-14 -3.890819415784674273e-14 -6.882528943465138216e-15 1.509097446344195154e-14
5.101000000000000000e+03 7.341884613037109375e+01 2.058131599426269531e+01 9.745550449535150817e-14 -4.973525389272148711e-14 1.431607653604172192e-14 -1.273169802007076412e-14
5.102000000000000000e+03 2.664149093627929688e+01 -1.971484756469726562e+01 -9.148373417589440032e-15 3.620868524716741588e-13 1.058815443091484787e-13 -2.815012356245996661e-14
5.103000000000000000e+03 8.956885337829589844e+00 -2.751424980163574219e+01 -4.921163506538782373e-14 2.076640454647810108e-13 4.753572278100477722e-14 -6.272954567896824041e-14
5.104000000000000000e+03 2.803358459472656250e+01 3.883419990539550781e+00 -2.787248649114074106e-14 5.141905781366751249e-13 1.458954213950230949e-13 6.032233902924372115e-14
5.105000000000000000e+03 2.728791046142578125e+01 5.426204681396484375e+00 -1.658003568423202512e-13 2.034483963676142482e-13 1.129441185758819910e-14 2.476110238884814824e-14
5.106000000000000000e+03 6.946450805664062500e+01 -3.339315032958984375e+01 4.332275708421491622e-14 3.000463104970568784e-14 2.199821644017618122e-14 7.494047429053990461e-14
5.107000000000000000e+03 2.906535148620605469e+01 -2.679491615295410156e+01 2.162332643398500592e-14 3.123671839851821508e-13 1.001971536339699154e-13 -5.860651455238605201e-15
5.108000000000000000e+03 2.756970977783203125e+01 -2.409578514099121094e+01 3.065582320329121591e-14 3.505514563524603222e-13 1.143621872548572505e-13 2.389262934363294705e-14
5.109000000000000000e+03 7.085113525390625000e+01 -3.090978431701660156e+01 5.444632239634192294e-14 6.336621629970604075e-14 3.534376093118803130e-14 9.169662235465961264e-14
5.110000000000000000e+03 5.425365829467773438e+01 2.282502555847167969e+01 -5.274987125705385416e-14 -1.598599318241092360e-13 -6.378294295722800045e-14 -4.610115051208521497e-14
5.111000000000000000e+03 2.763557052612304688e+01 -7.054115772247314453e+00 -4.405948262481418354e-14 1.183702116359930390e-13 2.229321768691411992e-14 -1.013915920623428835e-13
5.112000000000000000e+03 2.837669944763183594e+01 -6.255111217498779297e+00 5.691837788850823143e-14 3.904011716768934770e-13 1.341958635143677969e-13 -6.547261105667445680e-14
5.113000000000000000e+03 5.638447189331054688e+01 2.322930335998535156e+01 -3.991742036197308552e-14 -1.710746683745469066e-14 -1.710746683745469066e-14 5.609255803438496779e-14
5.114000000000000000e+03 5.764841461181640625e+01 2.315732765197753906e+01 1.218890490791010514e-14 -3.607837769856181431e-13 -1.045784620468288850e-13 2.066781567124174185e-14
5.115000000000000000e+03 7.204238891601562500e+01 1.978079032897949219e+01 -3.012010874547076111e-14 3.284233033641094368e-14 8.166670278534704855e-16 2.792954093640189622e-14
5.116000000000000000e+03 8.787258148193359375e+00 -2.892013549804687500e+01 4.402110271494114394e-15 4.763756663445084527e-14 1.561190311413513526e-14 -6.599870660834589176e-14
5.117000000000000000e+03 2.973467636108398438e+01 2.684334945678710938e+01 8.761605468378917683e-15 -1.220601310997215805e-13 -3.398955853643574609e-14 2.010917203153911315e-14
5.118000000000000000e+03 3.032907867431640625e+01 2.654602241516113281e+01 -4.166705839408514633e-15 1.697803274922429773e-13 4.968408632644374934e-14 -2.783775136403973671e-14
5.119000000000000000e+03 7.204531860351562500e+01 1.897819709777832031e+01 1.264587664185495841e-13 -1.974336086328978834e-13 -2.129244995379905858e-14 7.610561215520145195e-14
5.120000000000000000e+03 6.919440460205078125e+01 2.207857894897460938e+01 1.896267736204663296e-14 -3.578807172485709565e-13 -1.016754158623088544e-13 7.320808862549751939e-14
5.121000000000000000e+03 2.945628547668457031e+01 2.552304840087890625e+01 5.953437477159914670e-14 -6.598716663147249917e-14 -1.935836837984000573e-15 -6.067386447861783383e-14
5.122000000000000000e+03 3.144269371032714844e+01 2.676495170593261719e+01 -6.655809394297620973e-14 5.153926127565190696e-14 -4.505649884900585558e-15 -7.151959959591364102e-15
5.123000000000000000e+03 4.691546249389648438e+01 2.442980194091796875e+01 6.860840834257281307e-14 2.940360357538834846e-14 2.940360357538834846e-14 -8.381162652998722096e-14
5.124000000000000000e+03 7.222774028778076172e+00 -1.494050312042236328e+01 8.922959485006820568e-14 -7.509695007501798053e-15 2.451596935984685921e-14 -4.328890625951084536e-14
5.125000000000000000e+03 7.532999515533447266e+00 -1.350057983398437500e+01 5.021948229987603651e-15 -1.351005895697254822e-13 -3.902359053844887959e-14 -4.258841678839511702e-14
5.126000000000000000e+03 2.846175384521484375e+01 -5.528834819793701172e+00 1.319154119570680947e-14 2.344082501888611336e-13 7.427993766948026710e-14 5.264395825732917644e-14
5.127000000000000000e+03 2.776574325561523438e+01 -4.032514572143554688e+00 -6.896837871043105112e-15 2.486744263199142102e-13 7.253328119334254143e-14 -3.609279216644500909e-14
5.128000000000000000e+03 6.574205017089843750e+01 2.238614463806152344e+01 -2.315636458895698607e-14 -3.301807883094448615e-13 -1.060011453613007859e-13 -1.271197146976215872e-14
5.129000000000000000e+03 7.482998371124267578e+00 -2.113667678833007812e+01 5.028750920993592388e-14 1.588046371920476263e-13 6.272764154890281274e-14 6.166054690085300341e-15
5.130000000000000000e+03 9.568597793579101562e+00 -2.015078353881835938e+01 1.673129272931547784e-13 2.547093395574573371e-13 1.266066786999309191e-13 1.643184015503312834e-13
5.131000000000000000e+03 5.629050064086914062e+01 2.257978630065917969e+01 5.858439005180376968e-14 2.510759646251557037e-14 2.510759646251557037e-14 2.499670663600600529e-13
5.132000000000000000e+03 3.682618713378906250e+01 2.529891777038574219e+01 -5.965736395554047111e-14 6.593445407709896955e-14 1.883128095258733599e-15 -2.829162549849648101e-14
5.133000000000000000e+03 3.930757141113281250e+01 2.522684097290039062e+01 -9.283384201337965824e-14 1.432178621573257371e-13 1.511520638199700256e-14 2.451183922719604724e-14
5.134000000000000000e+03 3.057892227172851562e+01 -1.007712364196777344e+01 3.598648275530101637e-14 5.186832408889119339e-13 1.664009099781871281e-13 1.254952685586301856e-15
5.135000000000000000e+03 2.794348526000976562e+01 6.918356418609619141e-01 -2.060935345722225004e-14 1.741712107655377095e-13 4.606856007240665851e-14 5.116112205107506417e-14
5.136000000000000000e+03 2.951109123229980469e+01 1.418625414371490479e-01 -4.268489045295559281e-14 2.104612193071578319e-13 5.033289662338159831e-14 -1.415220022470348518e-14
5.137000000000000000e+03 7.272577667236328125e+01 2.058808898925781250e+01 -1.492746999956755943e-14 -6.397486961164751060e-15 -6.397486961164751060e-15 6.702562224854269335e-14
5.138000000000000000e+03 8.016225814819335938e+00 -1.091669178009033203e+01 -1.780241501902948137e-14 2.668760937067637951e-13 7.472210242047416795e-14 -2.999486645388974027e-14
5.139000000000000000e+03 7.230413818359375000e+01 -1.140097522735595703e+01 7.161942751094524384e-14 7.644498776398014894e-14 4.441932593773033344e-14 6.601055829334387393e-14
5.140000000000000000e+03 7.139714813232421875e+01 -1.320172119140625000e+01 -2.838795008525824004e-14 -2.409209984288729345e-13 -8.079268590949206796e-14 -6.907185733746531997e-14
5.141000000000000000e+03 3.675264358520507812e+01 2.425265312194824219e+01 -1.616036270730633606e-13 -6.925869925310246256e-14 -6.925869925310246256e-14 -8.492020292256291514e-15
5.142000000000000000e+03 3.640496826171875000e+01 2.568489646911621094e+01 -5.999626522586870569e-14 2.688090364449252645e-13 6.264383272096968325e-14 1.366370802309904708e-13
5.143000000000000000e+03 7.163198089599609375e+01 -2.200169563293457031e+01 4.699521750483465210e-14 1.974257346146202075e-13 7.332628699108917347e-14 1.009612383387654966e-13
5.144000000000000000e+03 7.284696960449218750e+01 2.214542579650878906e+01 8.821293847292854817e-14 -2.367001451612782414e-13 -4.454616403938398139e-14 1.945224986947199919e-13
5.145000000000000000e+03 7.217585086822509766e+00 -2.231636810302734375e+01 6.351508403425187854e-14 1.187226451046866083e-13 5.467131806405518823e-14 -8.079184904094018072e-15
5.146000000000000000e+03 9.345813751220703125e+00 -2.295055198669433594e+01 8.785229894904197923e-14 3.464698959589757044e-13 1.302966523737680848e-13 7.246812741903974064e-14
5.147000000000000000e+03 3.468264007568359375e+01 2.609841918945312500e+01 -2.794620207447438831e-14 -1.949807367429209903e-13 -6.687808266165815030e-14 1.922356520386685197e-14
5.148000000000000000e+03 3.526897048950195312e+01 2.528170776367187500e+01 -1.120677986174434260e-13 -2.310328577753706369e-13 -1.029301969178442189e-13 5.098836798741665510e-14
5.149000000000000000e+03 7.227072906494140625e+01 -2.261451530456542969e+01 8.635427035984591382e-14 -8.741975479826299272e-15 2.328368888752235799e-14 -1.030028723447186378e-13
5.150000000000000000e+03 7.094431304931640625e+01 -2.527179336547851562e+01 3.914169064821865218e-14 1.883410690860926051e-13 6.824482792029337719e-14 1.268540394255834869e-13
5.151000000000000000e+03 2.708603096008300781e+01 2.743250083923339844e+01 6.929484638412653982e-15 -4.278117099400409462e-14 -1.075550577962249010e-14 -9.543896299342782830e-14
5.152000000000000000e+03 3.392664337158203125e+01 2.616666412353515625e+01 5.003408372838101525e-14 -7.005871848365236021e-14 -6.007390172471519310e-15 1.581789136251201405e-14
5.153000000000000000e+03 5.352775192260742188e+01 2.290923690795898438e+01 -9.368168133599974468e-14 1.886054517858531954e-13 2.847713249020875081e-14 5.824808409042592228e-14
5.154000000000000000e+03 6.358078002929687500e+01 2.234287834167480469e+01 -7.563748076217652327e-14 -2.154198586006017546e-13 -8.731720451933891458e-14 2.160374066055223419e-13
5.155000000000000000e+03 6.188684844970703125e+01 2.291583061218261719e+01 3.084078131765366493e-14 -1.240353712751371407e-13 -2.795837563199232711e-14 2.051014557030803737e-14
5.156000000000000000e+03 9.448056221008300781e+00 -1.406115150451660156e+01 6.779192956779186985e-14 2.349329498302354935e-13 9.081746314178185120e-14 -2.943336831315486457e-14
5.157000000000000000e+03 9.025862693786621094e+00 -1.233918094635009766e+01 1.269019086455646164e-14 1.884424419892199998e-13 6.033979468422073777e-14 1.533965283354726816e-13
5.158000000000000000e+03 4.260075378417968750e+01 2.379095649719238281e+01 6.208612589970671780e-14 3.011140327965206032e-13 1.089600482864945541e-13 1.041970041471646999e-14
5.159000000000000000e+03 4.090492630004882812e+01 2.375909805297851562e+01 3.939994421757291032e-14 6.263663632904981071e-14 3.061097450279999521e-14 5.644782398125415546e-14
5.160000000000000000e+03 2.933320236206054688e+01 2.641434860229492188e+01 3.916148072599830166e-14 5.681557180563408249e-14 2.879311643711607305e-14 -1.239566853024690052e-13
5.161000000000000000e+03 7.254674530029296875e+01 -1.637267684936523438e+01 9.387256190472939577e-14 -5.127079926521733999e-14 1.278052862244702728e-14 -1.497547338956753404e-13
5.162000000000000000e+03 7.106903076171875000e+01 -1.639097976684570312e+01 -1.223740753912919144e-13 -6.695082669820129687e-15 -3.872074576661936607e-14 -4.936892993072589456e-15
5.163000000000000000e+03 6.736423492431640625e+01 2.310086059570312500e+01 1.166687680845138533e-14 1.193774625592863847e-13 3.931330291146416245e-14 -9.655952659627306534e-14
5.164000000000000000e+03 6.850655364990234375e+01 2.221815490722656250e+01 -3.982641175398829447e-14 9.730890680910431190e-14 1.724475054941387864e-14 -2.348671658634199355e-13
5.165000000000000000e+03 7.140260314941406250e+01 -2.430973434448242188e+01 1.661761074339858368e-14 9.862373233620463919e-14 3.457240190744143016e-14 -3.484215818421940170e-14
5.166000000000000000e+03 7.184726715087890625e+01 -2.568861770629882812e+01 -1.478351336204990207e-14 1.766680063960274216e-13 4.856534892663279257e-14 -7.335880458593426606e-15
5.167000000000000000e+03 4.629406356811523438e+01 2.399893951416015625e+01 -2.231587243012138344e-14 2.649417415057780945e-13 7.278776377201562342e-14 4.427428086287545431e-15
5.168000000000000000e+03 7.249350738525390625e+01 -8.238615036010742188e+00 -2.709934107490838059e-15 3.190952547766495728e-13 9.491559149971476317e-14 1.617413817353412220e-14
5.169000000000000000e+03 7.083948516845703125e+01 -1.239435768127441406e+01 -3.779908244044838384e-14 -1.992034060491545966e-13 -7.110074519162817852e-14 -1.694493307333785198e-14
5.170000000000000000e+03 7.258195495605468750e+01 -1.091610789299011230e+00 -2.750109981321940955e-13 -1.636128027764777171e-13 -1.315871375620961126e-13 1.193866088210508367e-14
5.171000000000000000e+03 7.116529083251953125e+01 -1.869439601898193359e+00 -1.496789617163457597e-13 2.103575695794682177e-13 1.820358168131037957e-14 2.787173263181768473e-14
5.172000000000000000e+03 7.266237640380859375e+01 5.971827983856201172e+00 9.419310458295884064e-15 -2.704688415507833232e-13 -7.831486381702085220e-14 2.028118477196208524e-13
5.173000000000000000e+03 7.123537445068359375e+01 5.010302543640136719e+00 -2.216152066546184241e-13 -2.779817391898586898e-13 -1.498790783323322717e-13 4.385890522290436522e-14
5.174000000000000000e+03 6.045864868164062500e+01 2.400843811035156250e+01 -3.008088773188109799e-14 -1.958956000885914150e-13 -6.779294600732857501e-14 1.516713051810322788e-13
5.175000000000000000e+03 4.784209060668945312e+01 2.392433547973632812e+01 5.501666596979607729e-17 2.357857160258724030e-17 2.357857160258724030e-17 -6.506714654921919028e-14
5.176000000000000000e+03 5.004796600341796875e+01 2.267643547058105469e+01 -3.990100825158708620e-14 1.201524096145975551e-13 2.407542244178221408e-14 1.902591311494367110e-13
5.177000000000000000e+03 2.796380043029785156e+01 2.285363388061523438e+01 9.595500256994946020e-14 -2.333821070427122280e-13 -4.122813608521333495e-14 -8.196902493784810617e-14
5.178000000000000000e+03 2.900850296020507812e+01 2.505149459838867188e+01 1.224127678563224908e-13 -2.220430734894626723e-13 -2.988909236756841226e-14 -1.212130574948858119e-13
5.179000000000000000e+03 7.100826263427734375e+01 1.097752475738525391e+01 -5.598919629789742003e-14 -1.154972656142866372e-13 -5.144593857365521716e-14 -2.166683004615598679e-14
5.180000000000000000e+03 7.230361175537109375e+01 1.224897766113281250e+01 1.084209689902911316e-15 -4.341693562830151176e-13 -1.299255435226534527e-13 1.436699744632521925e-13
5.181000000000000000e+03 7.270317840576171875e+01 1.899591255187988281e+01 1.825174397469125909e-14 1.908259655977392888e-13 6.272331151647644876e-14 -3.473161022020734845e-14
5.182000000000000000e+03 7.134506225585937500e+01 1.818154907226562500e+01 6.858367498051298750e-14 -2.679881598750821770e-13 -5.982134953412890366e-14 2.279600797407480006e-14
5.183000000000000000e+03 8.938062667846679688e+00 -2.356639099121093750e+01 6.126808689023693216e-15 8.268993806738803021e-14 2.664502394222022230e-14 6.111682882871394273e-14
5.184000000000000000e+03 2.798143005371093750e+01 8.614404678344726562e+00 -7.867100390189160630e-14 3.322914317836767051e-13 7.608613039741460304e-14 5.170035677782430783e-14
5.185000000000000000e+03 2.926780700683593750e+01 1.144201755523681641e+01 -1.342400583054237373e-13 1.254723457294951161e-13 -2.630312798690697014e-15 6.139319365654639232e-15
5.186000000000000000e+03 7.183419036865234375e+01 1.047425651550292969e+01 1.580366798526171984e-14 -1.762307883174454859e-13 -4.812813762431443487e-14 6.258297509777535628e-14
5.187000000000000000e+03 7.194483947753906250e+01 3.525717020034790039e+00 -8.690747774209306442e-14 -2.660008172929162473e-13 -1.058724844447446467e-13 5.247594080191181343e-14
5.188000000000000000e+03 7.177763366699218750e+01 -3.508459806442260742e+00 -1.590780729799484705e-13 4.501042025667522165e-16 -4.758839128966504961e-14 1.770875790842521558e-13
5.189000000000000000e+03 7.147718811035156250e+01 -1.239933586120605469e+01 -5.435437866398336315e-14 -6.904568063126337307e-14 -3.702001880501355757e-14 -6.532283530280916239e-14
5.190000000000000000e+03 7.195668792724609375e+01 1.738389778137207031e+01 1.395849039652341528e-13 -3.519364433126476177e-13 -6.370545638321317705e-14 5.333030227822575797e-14
5.191000000000000000e+03 2.864999008178710938e+01 1.872556495666503906e+01 -2.334970409433251640e-15 -1.382535443550034215e-13 -4.217655548812218602e-14 9.117814332324988835e-14
5.192000000000000000e+03 7.192559814453125000e+01 1.660309219360351562e+01 7.970223432792172130e-15 2.629128434872198689e-14 1.027845258856413188e-14 9.223360397376915987e-15
5.193000000000000000e+03 7.168901824951171875e+01 -1.798265457153320312e+01 -2.292545493720599126e-14 -1.013270955856071520e-13 -3.727576515684394298e-14 4.510248426771229155e-15
5.194000000000000000e+03 7.253665161132812500e+01 -1.847781753540039062e+01 -4.885394660428948876e-14 -1.124393004918455841e-13 -4.838797683934595306e-14 9.232859024847425711e-14
5.195000000000000000e+03 7.190382385253906250e+01 9.714365959167480469e+00 8.055532017261710087e-14 -2.399819980323375512e-13 -4.782799996978434609e-14 1.182835296723028229e-13
5.196000000000000000e+03 6.969139099121093750e+01 1.645121955871582031e+01 -2.025458641275899516e-15 -4.661900273911397108e-14 -1.459333752473236656e-14 7.426482660170125039e-14
5.197000000000000000e+03 7.301151275634765625e+01 1.418974685668945312e+01 -1.518466477773774970e-14 -3.267643588437257884e-13 -1.025847091193181349e-13 1.137174681270546397e-14
5.198000000000000000e+03 7.123340606689453125e+01 8.809146881103515625e+00 1.140167062325947445e-13 -1.798904449880345258e-13 -1.976211891612650318e-14 1.675281820819746192e-13
5.199000000000000000e+03 7.266790008544921875e+01 8.302401542663574219e+00 6.510064162008541433e-14 -3.381073090773234480e-13 -8.190200091479776789e-14 1.118818037347535377e-13
5.200000000000000000e+03 8.424965858459472656e+00 -1.193163967132568359e+01 1.269645467320140719e-14 -4.030961016907898264e-14 -8.283946648763272635e-15 -2.170779425355109926e-14
5.201000000000000000e+03 8.386855125427246094e+00 -1.156382656097412109e+01 1.206916782226646889e-13 7.837402059805709253e-13 2.713295625504652531e-13 1.877806483712666369e-14
5.202000000000000000e+03 2.726769638061523438e+01 2.806261062622070312e+01 3.640967396827642089e-14 -3.014680383583642764e-14 1.878861802061650502e-15 5.356151516777186983e-14
5.203000000000000000e+03 7.195037078857421875e+01 2.745389461517333984e+00 -1.510457340800352988e-13 -1.104848295642966993e-13 -7.845917112617867284e-14 2.505584715400965834e-13
5.204000000000000000e+03 2.802717590332031250e+01 7.839190959930419922e+00 -1.611509726660506625e-13 4.799467030400239587e-13 9.563871369118112642e-14 -8.923677768946092215e-14
5.205000000000000000e+03 2.941166687011718750e+01 9.618932723999023438e+00 -3.805217927321975779e-14 3.039485709562667060e-13 7.976891445559547433e-14 -6.353298014636146740e-14
5.206000000000000000e+03 7.175122833251953125e+01 -4.316287994384765625e+00 -2.267864850991410663e-13 1.086850675104979180e-13 -3.543042595421930230e-14 -4.693017892701267790e-14
5.207000000000000000e+03 7.247296905517578125e+01 -5.121547222137451172e+00 -2.499942798345894390e-13 -1.563850503087660382e-14 -7.968983545963981285e-14 -4.120012978784531876e-14
5.208000000000000000e+03 7.125167083740234375e+01 1.175967574119567871e+00 -1.766690228355641268e-13 -2.587190986620691024e-13 -1.306164378045426844e-13 1.599515333551571050e-14
5.209000000000000000e+03 2.785639381408691406e+01 1.548887538909912109e+01 2.205713266385540133e-14 3.068342292484455003e-13 9.866740535496507092e-14 -5.792777688735581409e-14
5.210000000000000000e+03 2.935799217224121094e+01 1.865997505187988281e+01 -3.052184757850752959e-15 6.731834328258662348e-14 1.927984715508011121e-14 -2.535084399617627132e-14
5.211000000000000000e+03 7.173983001708984375e+01 -8.306772232055664062e+00 -9.363565017751415698e-14 -4.012956484581060856e-14 -4.012956484581060856e-14 -4.697768392282648808e-14
5.212000000000000000e+03 7.181291961669921875e+01 -1.050162315368652344e+01 4.019241807862866667e-14 -1.657784695109632001e-13 -3.767581542970036002e-14 -6.064820954471139558e-14
5.213000000000000000e+03 7.549921512603759766e+00 -2.514635658264160156e+01 -1.746107259974725989e-14 -1.904871117612561005e-13 -6.238445767999326041e-14 -6.805669173831283003e-14
5.214000000000000000e+03 2.784722328186035156e+01 1.388272762298583984e+01 5.385703818680531718e-14 2.518363393256423111e-13 9.170801325373428847e-14 -5.350359166670683175e-14
5.215000000000000000e+03 3.005196952819824219e+01 1.773193740844726562e+01 2.739518342536294282e-14 3.461626804971383586e-14 1.860343544252303360e-14 -8.234491783104883056e-15
5.216000000000000000e+03 2.792940902709960938e+01 2.212323760986328125e+01 1.150366287687790146e-13 1.865542632482550256e-13 9.047726760511021205e-14 -8.809498405282570332e-14
5.217000000000000000e+03 7.490489959716796875e+00 -1.976660537719726562e+01 -6.550600448358701033e-14 2.464316999160193200e-13 5.427770524159790388e-14 6.026048614233637038e-15
5.218000000000000000e+03 8.385878562927246094e+00 -9.336837768554687500e+00 1.061891189129554602e-13 2.285134158720031339e-13 1.004107617907402938e-13 6.724541035769623920e-14
5.219000000000000000e+03 8.501482963562011719e+00 -1.055787086486816406e+01 -7.010140216793039891e-14 3.359641395379170392e-13 7.975881782286420307e-14 -1.042821766981429088e-13
5.220000000000000000e+03 7.899421215057373047e+00 -1.838392448425292969e+01 1.037258590109134404e-13 1.130803621313819507e-13 6.504187108607312195e-14 -1.574703028021061380e-14
5.221000000000000000e+03 8.327771186828613281e+00 -1.915430259704589844e+01 -1.042882211252545155e-14 1.785342978056353447e-13 5.043164372437250464e-14 -5.819003184035290155e-14
5.222000000000000000e+03 8.864257812500000000e+00 -2.065383338928222656e+01 1.607148794472226805e-14 9.838968019221933092e-14 3.433834976345612189e-14 -1.117891518828510733e-13
5.223000000000000000e+03 7.199884033203125000e+01 -1.984087753295898438e+01 8.340691418778911626e-14 -5.575607589015409149e-14 8.295251997510275782e-15 2.467193861862247706e-14
5.224000000000000000e+03 6.103733825683593750e+01 2.301824378967285156e+01 -5.984839614316768072e-15 -2.313196834601016771e-13 -7.119135738819365455e-14 2.009773776437753789e-13
5.225000000000000000e+03 8.648806571960449219e+00 -1.650036430358886719e+01 1.106946430134633785e-13 1.689611559997227126e-15 3.371527571558764758e-14 1.421431060962680126e-14
5.226000000000000000e+03 8.456625938415527344e+00 -1.700008964538574219e+01 1.142549190024169659e-13 1.404682983428481857e-13 7.641696791408497669e-14 -5.745352652831992035e-14
5.227000000000000000e+03 2.789724731445312500e+01 2.132208824157714844e+01 2.058472343318198949e-14 -5.980439532265666158e-14 -1.176590258328193833e-14 -3.111988545003753492e-14
5.228000000000000000e+03 7.263088989257812500e+01 4.773548245429992676e-01 -3.893524229154482486e-13 -4.413710065834242080e-13 -2.492170424021888930e-13 8.308588870077973643e-14
5.229000000000000000e+03 2.805421066284179688e+01 7.053896427154541016e+00 -1.286333371633766043e-13 2.651280616491197284e-13 4.094841870097565284e-14 -3.731347506365570443e-14
5.230000000000000000e+03 2.881309127807617188e+01 7.891799449920654297e+00 -5.173378069792296252e-14 4.124623819573569605e-13 1.082185827495224517e-13 8.809996460655555861e-15
5.231000000000000000e+03 7.471722602844238281e+00 -1.442944145202636719e+01 -5.824411997623277215e-14 -2.496176449405269199e-14 -2.496176449405269199e-14 6.901230753314155364e-14
5.232000000000000000e+03 8.376749992370605469e+00 -1.523976421356201172e+01 1.482260901476337156e-13 -5.085190081521862027e-14 2.921225883260360201e-14 -1.102614432591832172e-13
5.233000000000000000e+03 7.149403381347656250e+01 2.230576324462890625e+01 -5.833963564652990333e-15 -1.855040643664040978e-13 -5.740141028514125776e-14 1.578158583632680023e-14
5.234000000000000000e+03 7.056066894531250000e+01 2.159788131713867188e+01 4.106716933204891673e-14 -2.569054723729896628e-13 -6.475149463922719173e-14 2.224490123353684012e-13
5.235000000000000000e+03 7.245960235595703125e+01 -5.913963317871093750e+00 -1.113152064556761911e-13 -2.307103076290561994e-13 -1.026076535477933593e-13 -9.321840682989437216e-15
5.236000000000000000e+03 4.589677810668945312e+01 2.460278320312500000e+01 -9.240194330170647952e-15 1.418710662186642435e-13 3.978926088892172086e-14 -5.920355080745592913e-14
5.237000000000000000e+03 2.870102691650390625e+01 -2.347826957702636719e+00 -1.453409773446729530e-14 4.055296409007785874e-13 1.172986675238713028e-13 -6.453947890439765134e-14
5.238000000000000000e+03 2.786243057250976562e+01 -2.439052581787109375e+00 -3.358491734500521075e-14 3.287385825796046435e-13 8.854610024800618762e-14 7.158892924264640550e-15
5.239000000000000000e+03 8.782617568969726562e+00 -1.594766998291015625e+01 1.302465080232906303e-13 -3.568196763449951736e-14 2.836936110019779717e-14 -6.801690829484619005e-14
5.240000000000000000e+03 2.785134696960449219e+01 1.467929458618164062e+01 -1.607172511394749925e-14 1.303649706631618277e-13 3.428797163188522512e-14 -4.493252287168097991e-14
5.241000000000000000e+03 2.858244323730468750e+01 1.539091300964355469e+01 -4.622080238621435744e-14 7.169298385208480728e-14 7.641653423321598249e-15 -2.725505537676687490e-14
5.242000000000000000e+03 2.858066749572753906e+01 1.457431983947753906e+01 5.666445011641560101e-15 2.083077498471128108e-13 6.419225638239559051e-14 8.041454329678343615e-14
5.243000000000000000e+03 5.284783172607421875e+01 2.366969871520996094e+01 -5.944523980049368217e-14 -2.547653182708754793e-14 -2.547653182708754793e-14 1.694146125469364605e-13
5.244000000000000000e+03 2.857513618469238281e+01 1.145737934112548828e+01 5.737257050735314334e-14 1.618410944538919982e-13 6.576409881074718466e-14 -6.331069159594762685e-14
5.245000000000000000e+03 2.855838012695312500e+01 1.222589588165283203e+01 -1.099027824042614343e-13 9.015165458765850293e-14 -5.925337243838047982e-15 -3.085561117049419322e-14
5.246000000000000000e+03 7.240295410156250000e+01 -1.571231746673583984e+01 -8.819623498320869337e-14 -1.521757573468354718e-13 -7.211159431088146055e-14 7.494323222981616461e-14
5.247000000000000000e+03 2.869068527221679688e+01 -1.141782760620117188e+01 -1.000427331749383520e-15 4.342052704799787000e-13 1.299614441670898790e-13 -7.499687990856346298e-14
5.248000000000000000e+03 2.725283241271972656e+01 -1.103202533721923828e+01 -8.119368147111762080e-15 6.213066628020513793e-13 1.839561895823280113e-13 -7.297575087619745382e-14
5.249000000000000000e+03 4.203395462036132812e+01 2.379361724853515625e+01 -3.456937291762204878e-14 7.668645314031982685e-14 1.263512355858956507e-14 4.234462545958227880e-15
5.250000000000000000e+03 4.440986251831054688e+01 2.412614250183105469e+01 -3.655685102505953910e-14 4.418422550576950325e-13 1.215856300189332995e-13 1.932585222495092347e-13
5.251000000000000000e+03 2.767134475708007812e+01 -7.809391498565673828e+00 -4.157757444540541303e-14 3.481886274529083503e-13 9.198331929038267019e-14 2.619975058030989817e-14
5.252000000000000000e+03 2.806532287597656250e+01 6.264440059661865234e+00 -6.042808262237894801e-14 3.401098304899041747e-13 8.390452910364207262e-14 2.527036570179174574e-14
5.253000000000000000e+03 8.743659019470214844e+00 -9.770989418029785156e+00 -1.406821182578553778e-14 6.259719169876207245e-14 1.455869387718966568e-14 -1.298081515324275848e-13
5.254000000000000000e+03 3.998650360107421875e+01 2.516273307800292969e+01 -1.257101383709754994e-13 1.291280179571002718e-13 1.025367263969220732e-15 1.143761192527736892e-13
5.255000000000000000e+03 3.825315475463867188e+01 2.610786056518554688e+01 -1.547105678159979569e-13 3.797672083489384010e-13 6.751699622564028003e-14 3.747170844149933303e-15
5.256000000000000000e+03 8.134865760803222656e+00 -1.591337871551513672e+01 4.282775780610308114e-14 1.098566496018221761e-13 4.580532256119075607e-14 -7.488881883328454836e-14
5.257000000000000000e+03 2.791165351867675781e+01 2.047430610656738281e+01 -2.403537091238776811e-15 9.047181271292989435e-14 2.642048228416668532e-14 -4.850193326393775761e-14
5.258000000000000000e+03 2.863157272338867188e+01 -3.169522523880004883e+00 -8.222222002644136163e-14 2.850185365499413592e-13 6.083890037806086171e-14 -1.825000247495170425e-14
5.259000000000000000e+03 3.003762435913085938e+01 -3.903749942779541016e+00 -6.520408128360410949e-14 2.465610994453054650e-13 5.440710138275225982e-14 -7.368002150238972536e-14
5.260000000000000000e+03 6.654201507568359375e+01 2.267481040954589844e+01 7.831522634712227704e-15 -3.626512339125614881e-13 -1.064459121975086520e-13 3.734990425665121738e-14
5.261000000000000000e+03 7.153412628173828125e+01 -2.656990432739257812e+01 -4.317265268156608715e-14 1.416257519246122420e-13 2.953593045054020427e-14 1.726127243526984212e-13
5.262000000000000000e+03 2.859163284301757812e+01 -1.037517833709716797e+01 3.011294962300056777e-14 4.932905212778893045e-13 1.570210433031460351e-13 -1.827918784218229842e-14
5.263000000000000000e+03 2.774353408813476562e+01 -9.406593322753906250e+00 7.870177830293124954e-15 6.438862030361258704e-13 1.955269171398377193e-13 -1.352730048202049895e-13
5.264000000000000000e+03 2.951854133605957031e+01 2.118604469299316406e+01 1.890367474100679290e-14 -3.121550598301353618e-13 -8.797541688199128629e-14 7.580320106424093263e-14
5.265000000000000000e+03 2.872742271423339844e+01 1.764786988496780396e-02 6.821122442920990459e-14 3.494900224255970134e-13 1.253103794774529378e-13 8.720354963847633256e-15
5.266000000000000000e+03 8.133009910583496094e+00 -2.123820114135742188e+01 3.466204848644703629e-14 4.723646604073983291e-13 1.521080082635822839e-13 1.043872985690948510e-14
5.267000000000000000e+03 5.133599090576171875e+01 2.318689346313476562e+01 -1.571059498857788062e-13 6.992172276289523869e-14 -2.615526779805189134e-14 -7.224312158693110830e-14
5.268000000000000000e+03 5.205854034423828125e+01 2.309517478942871094e+01 -9.452862619182753057e-14 -8.626321770614786555e-14 -5.423755249176626103e-14 1.096023161009478109e-13
5.269000000000000000e+03 2.781763648986816406e+01 -3.235148668289184570e+00 8.438182878128808184e-14 4.479221897904506200e-13 1.596912028610161793e-13 -5.874910746685862994e-14
5.270000000000000000e+03 2.853093147277832031e+01 -4.776827335357666016e+00 -5.509117535535019983e-14 4.110235101491971355e-13 1.067796973888354706e-13 5.142860065625786889e-15
5.271000000000000000e+03 7.195380401611328125e+01 1.975821018218994141e+00 -1.013326453454775622e-13 -2.721830193955915300e-13 -1.120547000999470855e-13 3.989689167146343030e-14
5.272000000000000000e+03 7.195202636718750000e+01 1.214221239089965820e+00 -2.604871071447412145e-13 -3.403920754204564636e-13 -1.802637493485484410e-13 1.538544140179676223e-13
5.273000000000000000e+03 6.987450408935546875e+01 2.187591552734375000e+01 -7.126108514041162856e-15 4.269690138014765879e-14 1.067123785983194878e-14 -1.393309296063294234e-13
5.274000000000000000e+03 8.906820297241210938e+00 -1.342620658874511719e+01 -4.997695135608871270e-15 3.181147836470166190e-13 9.393512037008180937e-14 1.505032196417142865e-14
5.275000000000000000e+03 8.607754707336425781e+00 -1.461376285552978516e+01 4.644006194680881661e-14 -2.972590977621397679e-15 1.304024162956940458e-14 -1.313213318469841351e-13
5.276000000000000000e+03 8.315416336059570312e+00 -2.330978012084960938e+01 9.178654337234012917e-14 2.909673099248805128e-13 1.148261580220452660e-13 1.253084685711239321e-13
5.277000000000000000e+03 8.032126426696777344e+00 -2.187477302551269531e+01 -6.073200482011736900e-14 1.112248449808631023e-13 1.514785103178418330e-14 -2.269379777887904452e-15
5.278000000000000000e+03 7.125495910644531250e+01 -1.408213043212890625e+01 1.016882297767349175e-13 -7.079670102114535291e-14 9.267457779643922117e-15 -8.555110694299580820e-15
5.279000000000000000e+03 5.864801788330078125e+01 2.318129920959472656e+01 -1.759477166827366768e-14 -2.019821484545991641e-13 -6.587307468160913393e-14 1.758090607774029368e-13
5.280000000000000000e+03 5.839402770996093750e+01 2.409308433532714844e+01 6.528973325523046434e-14 -1.550224792284948805e-13 -2.691982514723204045e-14 1.557467262797151974e-13
5.281000000000000000e+03 6.781798553466796875e+01 2.233534812927246094e+01 2.314291201168869327e-14 -2.874627890326469926e-13 -7.929595836290298516e-14 -1.825012275363021436e-14
5.282000000000000000e+03 2.806309509277343750e+01 5.472876071929931641e+00 -6.875032363068758756e-14 3.365431577081329229e-13 8.033785632187082082e-14 6.257700520956310797e-14
5.283000000000000000e+03 7.194335174560546875e+01 8.951864242553710938e+00 8.770177102991952300e-14 -2.369192082102289376e-13 -4.476523386459825560e-14 2.780269097628698671e-14
5.284000000000000000e+03 7.196212768554687500e+01 8.187670707702636719e+00 1.062583774089206554e-14 -4.119701948286300097e-14 -9.171354268481396455e-15 7.715359689292825701e-15
5.285000000000000000e+03 2.877609252929687500e+01 2.370858669281005859e+00 -7.575672267235919466e-14 3.564159059034344157e-13 8.419775158119077729e-14 -2.642871544441399712e-14
5.286000000000000000e+03 2.821893882751464844e+01 -1.462624645233154297e+01 2.691391116319431093e-14 2.860402344671830743e-13 9.388624318089344722e-14 -2.286993616267820814e-15
5.287000000000000000e+03 2.837240028381347656e+01 -1.575205230712890625e+01 -1.004629864541362050e-14 4.303284616667679696e-13 1.260846489064063047e-13 2.344664786217871832e-14
5.288000000000000000e+03 2.866406059265136719e+01 1.957823371887207031e+01 6.820998437297512429e-14 1.436102213710210851e-13 6.354606511133065183e-14 -5.334743097848513443e-15
5.289000000000000000e+03 3.077858924865722656e+01 -2.380646133422851562e+01 2.880152916834820276e-14 2.525360020926015192e-13 8.440125632896630647e-14 -2.166801419821624830e-14
5.290000000000000000e+03 2.805229949951171875e+01 4.680327415466308594e+00 -1.302943348916243971e-13 3.559180944759376963e-13 6.768712787529398978e-14 -6.707555653484922886e-14
5.291000000000000000e+03 2.843996047973632812e+01 -7.705405712127685547e+00 -5.480874746568130396e-14 2.510162216973199634e-13 5.886224396355749233e-14 -1.699176823549697346e-13
5.292000000000000000e+03 9.022495269775390625e+00 -1.183749103546142578e+01 6.371070798748615371e-14 1.645574410243100250e-13 6.848044538116521140e-14 1.116241295359352015e-13
5.293000000000000000e+03 3.315459060668945312e+01 2.604447174072265625e+01 -5.723512755319987155e-14 -7.028028875012692911e-14 -3.825462353574532459e-14 6.690860972907719528e-14
5.294000000000000000e+03 3.095584869384765625e+01 2.617099380493164062e+01 -6.200157168278000452e-14 7.064866676701961334e-14 2.594127762942230117e-15 8.345843411977291182e-14
5.295000000000000000e+03 2.689610099792480469e+01 -7.897317409515380859e+00 6.045188170709795208e-15 2.313455416819154564e-13 7.121721561000743383e-14 -4.702152296004458165e-14
5.296000000000000000e+03 2.873411750793457031e+01 -1.549385309219360352e+00 -1.993517452351413477e-14 3.117130034993587095e-13 8.753334699868747792e-14 -2.485267342670991614e-14
5.297000000000000000e+03 2.873128509521484375e+01 -7.680652141571044922e-01 5.704178720079139397e-14 2.989521607696388195e-13 1.067981898121399265e-13 -1.226790479098849307e-13
5.298000000000000000e+03 2.784093093872070312e+01 1.310248470306396484e+01 -4.114521155967713895e-14 1.653701318677508469e-13 3.726747778648800691e-14 1.483291401759966738e-14
5.299000000000000000e+03 2.915853309631347656e+01 -1.448765659332275391e+01 2.370899598880000375e-14 4.219195251422419579e-13 1.336885653178618294e-13 1.053512305333997173e-14
5.300000000000000000e+03 2.705594635009765625e+01 -2.084639549255371094e+01 -4.778291071193610517e-14 4.141556347002361971e-13 1.099118151636109542e-13 -2.502094838014324446e-14
5.301000000000000000e+03 7.142835998535156250e+01 -2.056792640686035156e+01 7.363453922125395845e-15 9.465766657914403970e-14 3.060633615038083066e-14 -5.447962603776206753e-15
5.302000000000000000e+03 7.107568359375000000e+01 -2.284783744812011719e+01 5.127664379255339466e-14 -6.952619225784537060e-14 -5.474864370181003331e-15 -4.594590631351244681e-14
5.303000000000000000e+03 6.736859130859375000e+01 -3.164743804931640625e+01 2.672453661904487798e-14 9.151753248455574141e-14 3.547262174751972252e-14 -2.854928953291945015e-14
5.304000000000000000e+03 6.762440490722656250e+01 -3.393308258056640625e+01 3.619298938784161479e-14 -1.880192914338260635e-14 5.217318496854176160e-15 -4.483028599494738586e-14
5.305000000000000000e+03 3.040194511413574219e+01 -2.600952720642089844e+01 4.600286419701761498e-14 2.713457442678895992e-13 9.520457881252719634e-14 -3.070680442232055773e-14
5.306000000000000000e+03 2.909156799316406250e+01 -2.208250427246093750e+01 6.251612048131446886e-14 4.156756861460608743e-13 1.434575386000808139e-13 -4.398711551793256513e-14
5.307000000000000000e+03 7.033659362792968750e+01 -2.768171501159667969e+01 2.132172171839027269e-14 1.235152523879415321e-13 4.345109274011930978e-14 4.842910198300104385e-14
5.308000000000000000e+03 2.950406074523925781e+01 -2.449222183227539062e+01 2.458518889229648063e-14 3.765440921305734934e-13 1.203387839680478133e-13 -1.547527161754533309e-14
5.309000000000000000e+03 6.870584869384765625e+01 -3.645814514160156250e+01 6.162007481960024569e-14 9.503502992154119755e-14 4.699653209996879077e-14 1.248021393803096235e-14
5.310000000000000000e+03 3.149494934082031250e+01 -2.760182952880859375e+01 3.540355468100060687e-14 3.468673373703545781e-13 1.146812679542197344e-13 -1.946998402888207302e-14
5.311000000000000000e+03 2.881066894531250000e+01 2.686657905578613281e+01 1.070998707606999126e-14 -2.257463083111220514e-14 -3.559393380622548342e-15 -8.837543327352981315e-14
5.312000000000000000e+03 7.143697357177734375e+01 1.896013069152832031e+01 2.062309571975850381e-14 1.918422696091728885e-13 6.373960875164647044e-14 -4.820156182831422664e-15
5.313000000000000000e+03 3.013686752319335938e+01 -3.178060054779052734e+00 -1.937744059719685719e-14 3.119520158682831390e-13 8.777237292013906345e-14 -1.100738830596068030e-13
5.314000000000000000e+03 7.217636871337890625e+01 2.221341896057128906e+01 4.855982965994848355e-14 -2.493959255962536342e-14 7.086071384206820215e-15 -1.371360300707683000e-13
5.315000000000000000e+03 6.955907440185546875e+01 2.121551322937011719e+01 7.841209642310206784e-14 -4.925307123954114630e-13 -1.242355827588137451e-13 1.565763577821011054e-13
5.316000000000000000e+03 2.990613746643066406e+01 2.601567268371582031e+01 -9.077929244904678341e-14 -3.890540911351617059e-14 -3.890540911351617059e-14 1.920694472337582809e-14
5.317000000000000000e+03 7.079306030273437500e+01 1.834519004821777344e+01 2.748597519291323676e-14 -1.254731453285973242e-13 -2.939614968545251061e-14 3.835675876852524813e-14
5.318000000000000000e+03 5.491498947143554688e+01 2.210465049743652344e+01 -7.717680390161713033e-14 -2.160795685175048719e-13 -8.797690765997845386e-14 1.034986915507234151e-13
5.319000000000000000e+03 5.495890808105468750e+01 2.275258064270019531e+01 -4.517173768147980314e-15 -1.935931493915856241e-15 -1.935931493915856241e-15 2.886474154313589668e-13
5.320000000000000000e+03 7.205886840820312500e+01 2.139704322814941406e+01 1.198995973848964586e-14 -1.321142902108857209e-13 -3.603730134400448537e-14 1.097928714090257163e-13
5.321000000000000000e+03 3.048300743103027344e+01 2.561074256896972656e+01 3.011816056969207622e-14 -4.428090381349003568e-14 -4.248823142545977288e-15 1.804418193909838181e-14
5.322000000000000000e+03 3.151267814636230469e+01 2.574232482910156250e+01 -4.098031118550567176e-14 2.818795883014792170e-14 -3.837705960717209194e-15 -2.206149318946786647e-14
5.323000000000000000e+03 5.419711685180664062e+01 2.148934364318847656e+01 2.165875612810275880e-14 -2.194724165859723852e-13 -5.934409729032794067e-14 7.666160458177917469e-14
5.324000000000000000e+03 5.614241409301757812e+01 2.192758178710937500e+01 -1.868929409018851850e-14 -1.910134919159978129e-13 -6.291083783473497282e-14 -3.540106779226746825e-14
5.325000000000000000e+03 5.812485504150390625e+01 2.348110389709472656e+01 -3.856586409814802274e-14 1.664755708502899112e-13 3.837290999276349313e-14 1.439080381552756971e-13
5.326000000000000000e+03 5.701818084716796875e+01 2.315678787231445312e+01 -2.402677903368729412e-14 -1.017990894488715603e-13 -3.774775902010835127e-14 1.696799439235979756e-13
5.327000000000000000e+03 6.495507812500000000e+01 2.191738510131835938e+01 -1.492322162111731076e-13 -2.012095053289045254e-13 -1.051325164620232899e-13 1.573523212769489810e-13
5.328000000000000000e+03 5.279333877563476562e+01 2.300134849548339844e+01 8.238392878046757462e-14 8.105834932306890672e-14 4.903268410868730220e-14 2.108450505931402236e-14
5.329000000000000000e+03 5.348194122314453125e+01 2.223525810241699219e+01 -5.933459696879153644e-14 -2.084329074353991063e-13 -8.033025335413626622e-14 -6.527964339876277111e-14
5.330000000000000000e+03 5.064448928833007812e+01 2.258504486083984375e+01 -1.414661709173495319e-13 3.087353777578988323e-14 -3.317778926484153679e-14 -5.057792970249511133e-15
5.331000000000000000e+03 5.131372833251953125e+01 2.250101661682128906e+01 -3.057693055458395037e-14 1.241484535617273788e-13 2.807145453045077621e-14 -2.033954805253333775e-14
5.332000000000000000e+03 8.340846061706542969e+00 -1.238649940490722656e+01 1.476921612352660729e-13 6.329664440155036154e-14 6.329664440155036154e-14 -2.311824234650650123e-13
5.333000000000000000e+03 5.420725631713867188e+01 2.215748786926269531e+01 -4.801288354524743673e-14 -2.057694936479208953e-14 -2.057694936479208953e-14 1.442373781176953251e-13
5.334000000000000000e+03 4.569622039794921875e+01 2.362291908264160156e+01 5.860981798088034378e-15 2.770175310928130186e-13 8.486356013531412557e-14 -1.172928534897213493e-13
5.335000000000000000e+03 7.125284576416015625e+01 -1.046209526062011719e+01 -5.920014234687617782e-14 -3.913790678263667777e-13 -1.351737732163682537e-13 -1.096944597330819227e-13
5.336000000000000000e+03 6.715150451660156250e+01 2.247714614868164062e+01 8.518127541756563559e-15 4.940157373348012804e-14 1.737591021316441803e-14 -2.472459086425016217e-13
5.337000000000000000e+03 6.287003326416015625e+01 2.223765563964843750e+01 -1.059303943932825287e-13 -1.369006362265945409e-13 -7.284931257409490990e-14 9.347844763876733687e-14
5.338000000000000000e+03 6.350595474243164062e+01 2.078229522705078125e+01 -1.239725553117687618e-13 -3.161990526183433570e-13 -1.320514742475173420e-13 1.642001557508945830e-13
5.339000000000000000e+03 2.842259788513183594e+01 2.552418136596679688e+01 -1.959206349943804631e-14 -8.396598642616305563e-15 -8.396598642616305563e-15 -2.970973144692141965e-14
5.340000000000000000e+03 3.623871612548828125e+01 2.475473213195800781e+01 -1.086044231976557306e-13 1.764911188115864116e-13 2.036600936180556209e-14 3.923294320169225247e-14
5.341000000000000000e+03 4.039964294433593750e+01 2.368265533447265625e+01 2.024529313783863540e-16 2.288415225544515597e-13 6.871318970627995903e-14 6.587264100074013973e-14
5.342000000000000000e+03 3.029244232177734375e+01 9.910109639167785645e-01 -6.357203852962525770e-14 4.302643311082654520e-13 1.100076857407129849e-13 -1.356100832756307328e-13
5.343000000000000000e+03 2.873394012451171875e+01 8.005666136741638184e-01 1.949234400462369204e-14 2.371086183297621552e-13 7.698028548159055462e-14 -6.895980504293894309e-14
5.344000000000000000e+03 3.840226745605468750e+01 2.268726348876953125e+01 -7.174774283805890329e-14 -3.074903409693886813e-14 -3.074903409693886813e-14 -1.518944204356026395e-14
5.345000000000000000e+03 3.591800308227539062e+01 2.531500434875488281e+01 -1.005936328159207083e-15 -1.376839587436881618e-13 -4.160696987680692627e-14 -5.745116838859476438e-14
5.346000000000000000e+03 2.956068992614746094e+01 -2.280754089355468750e+00 -3.590413082403716427e-14 3.506201134550329668e-13 9.441479173998013064e-14 -9.247127803063692753e-14
5.347000000000000000e+03 2.857140731811523438e+01 -3.987288951873779297e+00 -8.424762488112511050e-15 2.480195953127872777e-13 7.187845018621560889e-14 -7.044387198806541586e-15
5.348000000000000000e+03 6.919877624511718750e+01 2.067535018920898438e+01 8.208800257375123421e-14 -2.701212293936255254e-14 1.652276338209683615e-14 5.492575829108090751e-15
5.349000000000000000e+03 6.386416244506835938e+01 2.007004737854003906e+01 -1.535573663396291172e-14 1.077963402134479720e-13 2.773218225969164424e-14 2.154613293336993252e-13
5.350000000000000000e+03 3.460945510864257812e+01 2.542931938171386719e+01 -3.796551170908964504e-15 -9.312898894978452469e-14 -2.907766190915310467e-14 -7.694767810125305307e-14
5.351000000000000000e+03 3.197605705261230469e+01 2.530465698242187500e+01 -1.365063390015158751e-13 9.590673524448312115e-14 -1.217988231295595233e-14 1.335027195129706579e-13
5.352000000000000000e+03 4.722216415405273438e+01 2.367024612426757812e+01 5.231982331237042608e-15 3.224989177617876290e-13 9.831926803737997544e-14 -1.441239434653990292e-14
5.353000000000000000e+03 2.863049316406250000e+01 1.788099288940429688e+01 4.394760312500904653e-14 -4.040787615535584854e-15 1.197204414462227015e-14 -7.413312314279857373e-14
5.354000000000000000e+03 2.867602920532226562e+01 2.042776107788085938e+01 -3.396081193227182965e-15 -2.302102193769972605e-13 -7.008188652882565983e-14 5.231680025178167548e-14
5.355000000000000000e+03 2.858122253417968750e+01 1.376877117156982422e+01 -8.079205232884752175e-15 3.167941169807120261e-13 9.261447403256795052e-14 4.756781516531034815e-14
5.356000000000000000e+03 2.850997543334960938e+01 1.076162052154541016e+01 -1.130297705475083458e-13 4.090681515311195282e-13 8.881151293983063910e-14 6.464699110232674517e-14
5.357000000000000000e+03 4.381517791748046875e+01 2.427076339721679688e+01 6.069609062315378667e-14 1.175145050713588546e-13 5.346318141885922359e-14 7.122748842559173399e-14
5.358000000000000000e+03 4.543541336059570312e+01 2.421420097351074219e+01 -7.299725873679413501e-14 2.432211604428552443e-13 5.106716576843382815e-14 -3.307603307930550955e-15
5.359000000000000000e+03 2.858966255187988281e+01 1.621450424194335938e+01 1.013241208058963949e-13 2.035529405620961629e-13 9.146311908802412516e-14 -9.115742828549183718e-14
5.360000000000000000e+03 2.931893539428710938e+01 1.696500205993652344e+01 1.641715023203548646e-15 7.035921528015208481e-16 7.035921528015208481e-16 -4.704685263329927425e-14
5.361000000000000000e+03 2.876463508605957031e+01 8.682429313659667969e+00 -9.729927096229634698e-14 3.243079090865796932e-13 6.810259414779043508e-14 -8.690713892891416270e-14
5.362000000000000000e+03 2.904752159118652344e+01 1.036152839660644531e+01 -1.481045375315709345e-13 2.567832827881505464e-13 3.260361951121573676e-14 -4.789500366404395026e-14
5.363000000000000000e+03 6.026196670532226562e+01 2.331118774414062500e+01 1.095961954408709513e-14 1.877007799406041344e-13 5.959811908307771633e-14 3.152940893937604405e-14
5.364000000000000000e+03 6.207830810546875000e+01 2.204612159729003906e+01 -1.331574011210340247e-13 1.212304391403590622e-16 -3.991085077443418117e-14 1.064154122351439191e-13
5.365000000000000000e+03 4.182564544677734375e+01 2.226087760925292969e+01 -4.983624732508851185e-14 2.988982488166119778e-13 7.471859909220432416e-14 2.905043827022835146e-14
5.366000000000000000e+03 6.901789093017578125e+01 -2.399321174621582031e+01 -7.657975748215188616e-15 9.679821370454574914e-14 2.674207020105304200e-14 4.978012292200344191e-14
5.367000000000000000e+03 2.862716865539550781e+01 2.405222702026367188e+01 7.419429247411749029e-14 -1.054552902250358026e-13 -9.378298817055725350e-15 -1.731066597574285049e-13
5.368000000000000000e+03 2.870811080932617188e+01 2.347341156005859375e+01 -2.248562799714651228e-14 -2.383914463402470041e-13 -7.826312026833898150e-14 2.369523509153891039e-14
5.369000000000000000e+03 4.805289840698242188e+01 2.322057914733886719e+01 -2.376211003679053191e-14 1.041936109331779992e-13 2.412944959128988237e-14 -1.956941553249436083e-14
5.370000000000000000e+03 2.989709854125976562e+01 -1.231053733825683594e+01 1.196228463100400610e-14 3.940097488726312935e-13 1.217916148791783892e-13 -8.358456749001444419e-14
5.371000000000000000e+03 7.185294342041015625e+01 -1.892913937568664551e+00 -1.548314021481214664e-13 -8.923179035946748883e-14 -7.321895775227668657e-14 1.053383522444696629e-13
5.372000000000000000e+03 7.194496917724609375e+01 5.103044986724853516e+00 6.625500522565788697e-14 -1.546087883370558802e-13 -2.650613764392482918e-14 9.409924825020538064e-14
5.373000000000000000e+03 2.954757499694824219e+01 1.676722168922424316e+00 -1.887400554855672707e-13 2.622435146641677317e-13 2.205104080289874841e-14 -8.869805795874360910e-14
5.374000000000000000e+03 4.750940704345703125e+01 2.295123291015625000e+01 5.200211395934954683e-14 6.803756912249561695e-14 3.601190390811401243e-14 2.030646125154769027e-14
5.375000000000000000e+03 7.154086303710937500e+01 1.196116161346435547e+01 3.227217213082334002e-14 -1.691728625675265052e-13 -4.107020848626366516e-14 8.413962818035018720e-15
5.376000000000000000e+03 6.962600708007812500e+01 1.049055767059326172e+01 2.559197818263357280e-15 -4.106617389892930348e-13 -1.224307656123857502e-13 -1.576657641250145403e-14
5.377000000000000000e+03 7.123272705078125000e+01 4.227231502532958984e+00 -3.131333422266326105e-14 -1.506728498478632217e-13 -5.459585420471840811e-14 5.459519013088776074e-14
5.378000000000000000e+03 7.109912109375000000e+01 -2.673620700836181641e+00 -1.712655489432765576e-13 4.097784801369505625e-14 -3.908631163412716603e-14 1.250971982252879755e-13
5.379000000000000000e+03 6.969175720214843750e+01 1.887681198120117188e+01 -3.591319068844099627e-14 2.591143174589943809e-13 6.696033972523190991e-14 -5.942957307910126663e-14
5.380000000000000000e+03 6.423278808593750000e+01 2.217841720581054688e+01 -2.834785323960111597e-14 -1.036509745221125822e-13 -3.959965086961295122e-14 2.086071048431996366e-14
5.381000000000000000e+03 2.849507904052734375e+01 1.013895702362060547e+01 -3.495289249547985089e-14 -1.497981155351019167e-14 -1.497981155351019167e-14 -4.432051107410364676e-14
5.382000000000000000e+03 7.189456939697265625e+01 1.506019496917724609e+01 1.154416189377838187e-13 3.724031598096840326e-15 3.574969638896197122e-14 -3.255160957067195458e-15
5.383000000000000000e+03 7.189871978759765625e+01 1.583284473419189453e+01 -6.015346098835194777e-14 -6.662933551247751662e-13 -2.179340421234327030e-13 1.235999963402484303e-13
5.384000000000000000e+03 7.112344360351562500e+01 1.027298736572265625e+01 1.105356854224498475e-13 -4.412946109878454481e-14 1.992186763591276971e-14 1.136236355112237029e-13
5.385000000000000000e+03 7.022466278076171875e+01 -1.105670547485351562e+01 8.960654484038710343e-14 -9.885004598718383217e-14 -2.773050132280781808e-15 -1.654117279617246111e-14
5.386000000000000000e+03 7.123915100097656250e+01 1.737436103820800781e+01 5.876720686687555983e-14 2.081897344406377637e-13 8.008708713563850168e-14 8.808458248823342052e-14
5.387000000000000000e+03 8.246541976928710938e+00 -1.121721744537353516e+01 9.582621968064891638e-14 4.985778500124493640e-13 1.783212249736876309e-13 -1.286251378844471827e-13
5.388000000000000000e+03 3.008446502685546875e+01 1.000985240936279297e+01 -2.111540244953760692e-13 2.297620644090003772e-13 5.582408755362092828e-15 -3.684706145344780748e-14
5.389000000000000000e+03 7.123729705810546875e+01 3.448385953903198242e+00 -1.959308231066700379e-13 -1.297213069384114958e-13 -9.769564172402989133e-14 8.863362246838007996e-14
5.390000000000000000e+03 2.813136863708496094e+01 2.466584396362304688e+01 1.320084449737968235e-13 -1.264287475708988917e-13 1.673910745528684602e-15 -6.642466931312471234e-14
5.391000000000000000e+03 2.868943023681640625e+01 2.456760025024414062e+01 -1.055320178575298862e-13 4.627389102321646797e-14 -1.777743771148084656e-14 -1.578058023881181993e-13
5.392000000000000000e+03 6.972380828857421875e+01 1.333135509490966797e+01 -8.170676320858744068e-15 -2.093809880251290556e-13 -6.526550133667541331e-14 -2.483317981046180567e-14
5.393000000000000000e+03 7.119374084472656250e+01 9.547819137573242188e+00 4.294866667712594899e-14 -4.391029098486931570e-13 -1.188462712574042679e-13 1.279094018202808769e-13
5.394000000000000000e+03 7.104042053222656250e+01 -3.482879877090454102e+00 -2.010128310548156549e-13 1.426063856845710687e-13 -1.752193022294158686e-14 -6.831645302631320082e-14
5.395000000000000000e+03 7.199949645996093750e+01 -1.670221710205078125e+01 3.880071922936732809e-14 1.662887966972885490e-14 1.662887966972885490e-14 3.812801243892154079e-14
5.396000000000000000e+03 7.056041717529296875e+01 -1.762713241577148438e+01 3.221736909913598679e-14 -7.769445622887033442e-14 -1.364312580010712539e-14 -5.349532123700984076e-14
5.397000000000000000e+03 7.119657897949218750e+01 -9.865349769592285156e+00 -7.192919762415150853e-14 -7.657774832000099896e-14 -4.455208310561939444e-14 -1.148198018868090697e-13
5.398000000000000000e+03 7.124357604980468750e+01 2.679145097732543945e+00 -8.640217176707903901e-14 -1.742823414882174737e-13 -7.820535262133623822e-14 2.579585308380705211e-14
5.399000000000000000e+03 7.211806488037109375e+01 -1.407795524597167969e+01 -4.573162730664784292e-14 -1.568521110521456374e-13 -6.077512218526440191e-14 -5.292917457946043347e-14
5.400000000000000000e+03 7.080347442626953125e+01 -6.755156993865966797e+00 -1.173518476404317168e-13 2.013365738235198266e-13 2.519541853255279074e-14 -6.004057521340547265e-14
5.401000000000000000e+03 7.171609497070312500e+01 -5.124088287353515625e+00 -1.748817155542217727e-13 -1.893266766235177090e-13 -1.092625203638272757e-13 -3.643348914662142279e-14
5.402000000000000000e+03 3.003089332580566406e+01 1.603933334350585938e+01 8.676197103428193169e-14 2.659384485629440187e-13 1.058101224910359961e-13 -7.138794357085601061e-14
5.403000000000000000e+03 7.121485900878906250e+01 -1.184335803985595703e+01 7.309906532079052388e-14 3.132817085176736738e-14 3.132817085176736738e-14 -6.829403714639706302e-14
5.404000000000000000e+03 9.066715240478515625e+00 -1.920795059204101562e+01 1.157337030030514136e-13 9.535110873613861227e-14 6.332544352175700775e-14 4.658740502204959666e-14
5.405000000000000000e+03 8.159051895141601562e+00 -1.016799259185791016e+01 -1.254813175024724337e-13 1.406638342046559464e-13 4.554754925951759112e-15 1.813294760383884346e-14
5.406000000000000000e+03 7.623638153076171875e+00 -1.230922889709472656e+01 -7.010007402026910417e-14 2.902137623099487751e-13 6.603410580927754348e-14 5.061638076313572029e-15
5.407000000000000000e+03 8.190169334411621094e+00 -2.055651855468750000e+01 -3.072870191807297591e-14 -1.046713442916930026e-13 -4.062001386292979355e-14 -6.195004497453263093e-14
5.408000000000000000e+03 7.085918426513671875e+01 -2.134346389770507812e+01 6.139567885121363644e-14 1.006577294931053357e-13 4.861602182566933383e-14 -2.791640853758766555e-14
5.409000000000000000e+03 7.142148590087890625e+01 -1.921940422058105469e+01 9.849408208516610697e-14 9.940043444378252047e-14 5.936835631393730384e-14 3.320965464431724357e-14
5.410000000000000000e+03 7.167280578613281250e+01 -5.927006244659423828e+00 -1.086175420439428052e-13 1.593288896000258359e-13 1.521340629970398262e-14 -2.996541003611602472e-14
5.411000000000000000e+03 7.196775054931640625e+01 7.423597812652587891e+00 -3.822612595926790091e-14 -5.196430850722133510e-13 -1.673607541614885452e-13 5.986879693170230055e-14
5.412000000000000000e+03 4.495856094360351562e+01 2.405280685424804688e+01 3.807254533340354019e-14 4.280753540270715307e-13 1.398443670976370901e-13 -9.239801306883121956e-14
5.413000000000000000e+03 7.194261169433593750e+01 4.526721239089965820e-01 -1.726106237109892305e-13 -5.314854459315121460e-13 -2.112288344452775690e-13 -1.140104652938393748e-14
5.414000000000000000e+03 4.146043395996093750e+01 2.374305725097656250e+01 4.997388933198438840e-15 2.308964922471262726e-13 7.076815939895467200e-14 8.896968448426911813e-14
5.415000000000000000e+03 4.374228668212890625e+01 2.355278778076171875e+01 -1.535286248176628843e-13 1.629567655944338944e-13 2.828443969448844915e-15 1.851259217536954660e-13
5.416000000000000000e+03 7.101350402832031250e+01 -4.286711215972900391e+00 -2.300111327530746097e-13 -1.672026232746315344e-13 -1.191641322293227057e-13 8.411823212810254358e-14
5.417000000000000000e+03 8.583566665649414062e+00 -2.267901039123535156e+01 -4.673505980541496629e-14 2.544763716156445144e-13 6.232239388188204332e-14 6.023171328015108905e-14
5.418000000000000000e+03 7.049129486083984375e+01 -1.817038416862487793e+00 -1.138613942713861960e-13 8.845510180441676362e-14 -7.621888756530366404e-15 2.050093899979774092e-13
5.419000000000000000e+03 7.180641937255859375e+01 -9.058213233947753906e+00 -2.600314915105449154e-15 9.038747533643767818e-14 2.633614829580625816e-14 -6.008199851265799696e-14
5.420000000000000000e+03 6.899894714355468750e+01 1.983148002624511719e+01 -6.272838016163281849e-14 -2.327628649718971321e-13 -8.864737150717991176e-14 1.216205481051509107e-14
5.421000000000000000e+03 4.013311004638671875e+01 2.434221267700195312e+01 -1.332066781097734909e-13 8.016426877779231353e-14 -1.591272347722071101e-14 5.974524531788399928e-14
5.422000000000000000e+03 7.052583312988281250e+01 4.919371128082275391e+00 -1.745492720630834049e-13 -2.578106185566891861e-13 -1.297079712516899241e-13 1.238477636417156802e-13
5.423000000000000000e+03 7.030094146728515625e+01 -1.669312667846679688e+01 6.831547046809438584e-14 5.215353295713251458e-14 3.614070034994171232e-14 -8.127275707894149326e-14
5.424000000000000000e+03 2.948520278930664062e+01 -9.257689476013183594e+00 -4.168554404112602418e-14 4.396442519934151694e-13 1.193876134021262803e-13 -6.076747178368480107e-14
5.425000000000000000e+03 2.939212226867675781e+01 -4.768887519836425781e+00 3.995654989600444518e-14 3.373808665167038479e-13 1.132012303448233503e-13 -1.688111591702581848e-14
5.426000000000000000e+03 2.882497978210449219e+01 3.945215225219726562e+00 -1.653683564866934019e-13 2.493844974277292792e-13 2.520484262112394208e-14 -1.363850303309419032e-13
5.427000000000000000e+03 2.884197998046875000e+01 4.733108520507812500e+00 8.990723645446469653e-15 4.613626646519930485e-13 1.411060125081770034e-13 5.916403163826883249e-15
5.428000000000000000e+03 3.780311965942382812e+01 2.547777366638183594e+01 -2.494758008031797147e-14 -1.069181991341728102e-14 -1.069181991341728102e-14 4.552608629166711440e-14
5.429000000000000000e+03 3.949156188964843750e+01 2.393979072570800781e+01 -7.365751075478349508e-15 2.255979962301896125e-13 6.546967015828158987e-14 6.404174879206386839e-14
5.430000000000000000e+03 6.830055999755859375e+01 2.157109832763671875e+01 -3.903212100726067765e-15 -4.591822798730160748e-13 -1.389256548342543418e-13 3.044860845120671289e-14
5.431000000000000000e+03 2.907719802856445312e+01 -6.277583122253417969e+00 2.825729525314426421e-14 3.781178657940448273e-13 1.219125440789919912e-13 1.550984411432046461e-14
5.432000000000000000e+03 2.858847427368164062e+01 -9.380698204040527344e+00 -1.118170395956064739e-14 4.527173178437565726e-13 1.324606928049948396e-13 -1.373367108106976833e-14
5.433000000000000000e+03 4.158821868896484375e+01 2.296605491638183594e+01 9.790048308979618780e-15 9.569763330299213555e-14 3.164630287422892652e-14 3.705537734836374109e-14
5.434000000000000000e+03 2.857686233520507812e+01 1.298408126831054688e+01 1.715431114756964248e-14 1.903556386953150770e-13 6.225298461405223693e-14 -2.003568175896943554e-14
5.435000000000000000e+03 2.930570220947265625e+01 1.529579448699951172e+01 1.093349925027943537e-13 2.298616483785431708e-13 1.017589942972803307e-13 -1.082319861988798038e-13
5.436000000000000000e+03 6.625776672363281250e+01 2.212108802795410156e+01 -1.541592781163433901e-13 2.999393268476868712e-13 4.373401529702940216e-14 -2.971308230926075766e-14
5.437000000000000000e+03 6.686235046386718750e+01 2.182999801635742188e+01 -1.047337011632039697e-14 -5.077490077692869974e-13 -1.554667175161436599e-13 3.131543486437245172e-14
5.438000000000000000e+03 2.958424377441406250e+01 2.450497627258300781e+00 -6.106192076494112997e-14 3.398381836355879315e-13 8.363288224932582948e-14 4.538195855349411167e-14
5.439000000000000000e+03 2.880171012878417969e+01 3.157645463943481445e+00 -4.808433246841423148e-14 3.225245320381125991e-13 8.233206325904129930e-14 1.969971630483638436e-13
5.440000000000000000e+03 2.939423370361328125e+01 1.951024627685546875e+01 3.506872933321455998e-14 -9.934791840105275385e-14 -1.928375705916463706e-14 4.561348992742839115e-14
5.441000000000000000e+03 8.010427474975585938e+00 -1.452973079681396484e+01 1.805017046203546971e-13 1.231088256510581846e-13 9.108316043667658013e-14 -1.094254556215611129e-13
5.442000000000000000e+03 8.787753105163574219e+00 -1.400689125061035156e+01 9.597971560321855167e-14 4.113416625004494287e-14 4.113416625004494287e-14 -3.576019282124434651e-14
5.443000000000000000e+03 2.937549972534179688e+01 -1.559237194061279297e+01 -3.042155083073962152e-14 3.072188228640804208e-13 8.303918669219992332e-14 -6.428289568401537868e-14
5.444000000000000000e+03 2.934697532653808594e+01 1.283414173126220703e+01 -1.035438011373623901e-13 1.615033519246356075e-13 1.738786523618196522e-14 6.456679402288070801e-14
5.445000000000000000e+03 2.884892845153808594e+01 5.520283222198486328e+00 -4.944750663614383424e-14 4.363177028877951447e-13 1.160610642965062556e-13 -8.632530352711571126e-15
5.446000000000000000e+03 5.202623367309570312e+01 2.241221427917480469e+01 -4.268582218919757254e-14 2.562117727179791249e-13 6.405778143168949779e-14 7.220538457506503471e-14
5.447000000000000000e+03 2.930741500854492188e+01 1.612627220153808594e+01 3.668641657280334589e-14 1.572274923374462202e-14 1.572274923374462202e-14 -6.192580627971400187e-14
5.448000000000000000e+03 2.954498100280761719e+01 -6.345970034599304199e-01 2.135369212995143900e-14 4.666610522487124602e-13 1.464044272099507271e-13 1.546629815050212103e-14
5.449000000000000000e+03 2.926615524291992188e+01 1.210800838470458984e+01 3.702525008049580013e-14 6.161891607852840180e-14 2.959324747601500827e-14 1.322416424615383522e-15
5.450000000000000000e+03 5.930231094360351562e+01 2.292940330505371094e+01 -1.103960698287868684e-15 1.596551937963625045e-13 4.756536893415867773e-14 -3.827179797578385279e-14
5.451000000000000000e+03 6.134064483642578125e+01 2.163404655456542969e+01 -3.209232331919872894e-14 -2.882595421041522776e-13 -9.610555759412622856e-14 1.554080215210307259e-13
5.452000000000000000e+03 3.397968292236328125e+01 2.488543510437011719e+01 1.543448528706914402e-13 1.576496908278074427e-13 9.359836039904423366e-14 1.013926694882517909e-13
5.453000000000000000e+03 5.695166015625000000e+01 2.249972915649414062e+01 -9.839705276699223235e-14 -4.217016547156809958e-14 -4.217016547156809958e-14 3.277173861058677029e-14
5.454000000000000000e+03 5.961082077026367188e+01 2.199197769165039062e+01 -4.080686594296230318e-14 5.113776765865336860e-14 3.099270895872145888e-15 7.277823973355669607e-15
5.455000000000000000e+03 6.971145629882812500e+01 -2.306833457946777344e+01 2.235461402306290063e-14 7.820697214833138844e-14 3.016847771489077068e-14 -6.520087780499759372e-15
5.456000000000000000e+03 3.249728393554687500e+01 2.572386360168457031e+01 -1.026646215956938946e-13 1.161291928505198134e-13 4.039371799964249291e-15 5.198104655588543788e-14
5.457000000000000000e+03 7.189405822753906250e+01 -1.095038890838623047e+00 -1.027343967817569148e-13 -4.402902670816270791e-14 -4.402902670816270791e-14 4.665468061388526946e-15
5.458000000000000000e+03 7.121465301513671875e+01 -1.081998109817504883e+00 -2.006111341499097755e-13 -2.003535683713086879e-13 -1.202894121116182546e-13 5.969300032569735404e-14
5.459000000000000000e+03 7.077939605712890625e+01 -1.985871696472167969e+01 7.394519702498894564e-14 -1.406015061322651860e-14 1.796551290708919141e-14 -4.731324110707896269e-14
5.460000000000000000e+03 2.782436370849609375e+01 -1.952349472045898438e+01 -2.713202553524408228e-14 4.230060041392896819e-13 1.187621913789280170e-13 -3.397450167876535365e-14
5.461000000000000000e+03 2.882673835754394531e+01 -1.818627738952636719e+01 -1.443345666780632836e-14 3.369463453910259698e-13 9.675386983569109201e-14 2.391298862755315141e-14
5.462000000000000000e+03 7.202289581298828125e+01 2.058394432067871094e+01 1.165622367507376800e-13 -1.787995072095524551e-13 -1.867118113764443255e-14 -1.308301747103210455e-13
5.463000000000000000e+03 7.013389587402343750e+01 2.085128974914550781e+01 1.057130745381372819e-14 1.401749809976093886e-13 4.522388526487751415e-14 -1.025464571114201306e-13
5.464000000000000000e+03 9.026618003845214844e+00 -1.781373786926269531e+01 1.237540750214857765e-13 1.902903019618956693e-13 9.421331309501443374e-14 2.448668573679438354e-14
5.465000000000000000e+03 8.111171722412109375e+00 -1.655365562438964844e+01 1.661765309504594640e-14 9.862375266499537330e-14 3.457242223623216426e-14 -1.574688459054368606e-14
5.466000000000000000e+03 2.788025093078613281e+01 -2.156830406188964844e+01 1.724101852224827619e-14 2.475814963199401975e-13 7.944675055630498473e-14 -1.350725853899398341e-15
5.467000000000000000e+03 2.875908851623535156e+01 2.279906845092773438e+01 8.049592622235562933e-14 2.175020553203330098e-13 8.939939446280659174e-14 -3.919315298196203445e-14
5.468000000000000000e+03 2.870515632629394531e+01 2.125727462768554688e+01 7.504043095457949009e-14 7.791113403304156249e-14 4.588546881865995797e-14 -6.757636476491333394e-15
5.469000000000000000e+03 7.873818874359130859e+00 -2.248682785034179688e+01 9.150400706245398474e-14 5.424764370348666986e-13 1.901941332291962050e-13 -3.276041547414787480e-14
5.470000000000000000e+03 7.322418975830078125e+01 -7.435893058776855469e+00 -7.790231811412653973e-14 5.811518800913351157e-14 -5.936139455014382074e-15 -5.570018188003067472e-14
5.471000000000000000e+03 7.195447540283203125e+01 5.883480072021484375e+00 5.161010711136025664e-15 -1.350409855552930916e-13 -3.896399330028006702e-14 3.335431770731291101e-14
5.472000000000000000e+03 7.064286041259765625e+01 -1.312003993988037109e+01 6.231830101868091054e-14 1.182097361619380282e-13 5.415841250943839724e-14 -1.006010731533293900e-13
5.473000000000000000e+03 2.883705520629882812e+01 7.099319458007812500e+00 -1.109369689752774668e-13 2.269612720418728857e-13 3.480729091997862568e-14 -4.394876525421267943e-14
5.474000000000000000e+03 2.959336662292480469e+01 8.781272888183593750e+00 -4.182171305772662551e-14 3.709594751603179086e-13 9.874132761433784822e-14 6.554809185667018201e-14
5.475000000000000000e+03 6.886975860595703125e+01 -2.932798385620117188e+01 1.354935247658249631e-14 1.430597177179415702e-13 4.698271868666496764e-14 2.948915051492924377e-14
5.476000000000000000e+03 6.921713256835937500e+01 -3.139348411560058594e+01 7.404156396339806739e-15 -1.970226417994172530e-14 -3.689432419783870293e-15 3.884520539975712394e-14
5.477000000000000000e+03 7.054373931884765625e+01 -2.636352348327636719e+01 -1.546559680722179447e-14 4.809624175165262694e-15 -3.196792128430138435e-15 -2.933543775192511138e-14
5.478000000000000000e+03 7.097320556640625000e+01 -1.846593093872070312e+01 8.888699373982636431e-15 3.809442588849701328e-15 3.809442588849701328e-15 -1.320889690079605008e-14
5.479000000000000000e+03 2.937851715087890625e+01 -8.331628799438476562e+00 -2.391023915860636395e-14 4.472622359280586934e-13 1.270055973367698043e-13 -3.362969489472886209e-14
5.480000000000000000e+03 3.030090522766113281e+01 -8.091082572937011719e+00 -4.175783660910828421e-14 4.167377976992819866e-13 1.124939917151838997e-13 -3.315412655242704065e-14
5.481000000000000000e+03 3.059407424926757812e+01 -2.076518821716308594e+01 2.705847597036809687e-14 2.289134864736502850e-13 7.679159364599660864e-14 -5.424467434478677519e-14
5.482000000000000000e+03 3.102055931091308594e+01 -1.223150730133056641e+01 1.915185878268409192e-14 4.199664704537808824e-13 1.317354970768735978e-13 3.894016795753969806e-14
5.483000000000000000e+03 6.821804809570312500e+01 -2.507719230651855469e+01 2.642120395623774598e-14 1.028252732526019342e-13 3.877394282383872515e-14 -5.350916514349976505e-14
5.484000000000000000e+03 2.999237060546875000e+01 -1.333196449279785156e+01 -3.293231911672724055e-14 4.662711189373780485e-13 1.300016409626347791e-13 -5.106642037944024437e-14
5.485000000000000000e+03 2.901634597778320312e+01 -1.344869041442871094e+01 -1.397612748595773377e-14 1.998895027364305799e-13 5.577401265984514855e-14 7.517704551051034717e-15
5.486000000000000000e+03 2.920505714416503906e+01 -2.073735618591308594e+01 1.365188920297941838e-14 3.261074407474168213e-13 1.019278045755363238e-13 4.419990713494179047e-14
5.487000000000000000e+03 2.802096557617187500e+01 -2.063679695129394531e+01 3.652366427418611561e-14 2.444077384054776925e-13 8.427942588609682595e-14 -2.298691564785876329e-14
5.488000000000000000e+03 3.299528503417968750e+01 -2.889362525939941406e+01 1.255806134808131608e-14 2.999037650164293467e-13 9.373854773994660938e-14 -6.118501159283612489e-14
5.489000000000000000e+03 3.239998245239257812e+01 -3.371275329589843750e+01 -3.399855995556621754e-15 2.730486193050496446e-13 8.089462801876001752e-14 -8.055755633959785222e-14
5.490000000000000000e+03 3.060820198059082031e+01 -2.229220962524414062e+01 5.043268388083173293e-14 4.333725490014012083e-13 1.451415620719667676e-13 5.106283912413925319e-14
5.491000000000000000e+03 7.130392456054687500e+01 2.142616081237792969e+01 -3.434639657645503774e-14 -1.062217805034015861e-13 -4.217045346277016604e-14 -1.490561282258343057e-13
5.492000000000000000e+03 7.039739227294921875e+01 -1.396633625030517578e+01 -1.329188766430872137e-13 -3.772218811187028065e-13 -1.530422246180315748e-13 -1.225575698327215080e-14
5.493000000000000000e+03 7.067485809326171875e+01 -1.149302768707275391e+01 -9.860263782768621810e-14 -2.938885029432625196e-13 -1.177473374879001167e-13 -6.002099858792853126e-14
5.494000000000000000e+03 7.139700317382812500e+01 1.972602462768554688e+01 2.762744324763186099e-14 -3.084162970585363484e-13 -8.423666088665585083e-14 1.071504199929261547e-13
5.495000000000000000e+03 3.002315902709960938e+01 2.507766532897949219e+01 1.480971209110847758e-14 -4.512279696482039693e-14 -9.093925292706986352e-15 1.620202249815773377e-14
5.496000000000000000e+03 3.102384757995605469e+01 2.519851493835449219e+01 -4.867323043092688928e-14 -2.085995493093101283e-14 -2.085995493093101283e-14 1.238132860126306412e-13
5.497000000000000000e+03 6.760365295410156250e+01 2.167760276794433594e+01 -4.792681822154282179e-14 2.521088366010375975e-14 -6.814780707244897512e-15 -2.732026573287055227e-13
5.498000000000000000e+03 5.493946456909179688e+01 2.146089172363281250e+01 -5.806381715494843276e-14 -2.488449476047236569e-14 -2.488449476047236569e-14 1.359072766436361657e-13
5.499000000000000000e+03 2.931597900390625000e+01 -5.578546047210693359e+00 -3.294653910584574574e-14 3.518876542148857700e-13 9.568233249983293387e-14 -1.054935896667788531e-13
5.500000000000000000e+03 3.064266395568847656e+01 -4.016742229461669922e+00 -6.984766497825090070e-14 5.190766978573069235e-13 1.347687017322005132e-13 -1.407376141624935850e-13
5.501000000000000000e+03 5.586405181884765625e+01 2.089623832702636719e+01 -5.785523698575295581e-14 -7.054605380765743838e-14 -3.852038859327583387e-14 7.301679470468960820e-14
5.502000000000000000e+03 5.556831741333007812e+01 2.208268928527832031e+01 -2.530835131782783846e-15 -4.683559245185868469e-14 -1.480992893154297468e-14 1.667247747196357044e-13
5.503000000000000000e+03 7.055516815185546875e+01 2.026988220214843750e+01 1.219719041479355726e-13 -3.594848756779261967e-13 -7.125388874849175602e-14 -6.286232656377982453e-14
5.504000000000000000e+03 6.497966003417968750e+01 2.120232009887695312e+01 -6.958153315545423032e-15 -2.585754079928968829e-14 -9.844708192098886035e-15 -6.833596188915436187e-14
5.505000000000000000e+03 6.419964599609375000e+01 2.105525779724121094e+01 -5.612694418391170337e-14 -6.980535398846965389e-14 -3.777968877408804937e-14 1.734270821569794396e-13
5.506000000000000000e+03 3.042212867736816406e+01 2.507549524307250977e+00 -1.379412128141646599e-13 2.153880237143121490e-13 2.323404259241788894e-14 -1.537857162578135095e-13
5.507000000000000000e+03 4.661383056640625000e+01 2.332242774963378906e+01 2.725131487927179991e-14 2.404338663927751973e-13 8.030556064965790886e-14 -8.327229693554788481e-14
5.508000000000000000e+03 6.286021423339843750e+01 2.049181556701660156e+01 -2.936768471974355622e-15 -1.041982526737289527e-13 -3.214050594137034256e-14 1.088939187302365164e-13
5.509000000000000000e+03 5.059711456298828125e+01 2.187749862670898438e+01 -4.827990559967167139e-14 2.995652499931250601e-13 7.538560704498098453e-14 1.063158282656011255e-13
5.510000000000000000e+03 4.989186096191406250e+01 2.200065994262695312e+01 -9.887664959799119524e-14 2.625071485868029492e-14 -2.178778126882621735e-14 1.241641033424608492e-14
5.511000000000000000e+03 7.192409515380859375e+01 -3.148014247417449951e-01 -2.041719115823681374e-13 -4.175130090288727003e-14 -7.377696272913708553e-14 1.355801999532516011e-13
5.512000000000000000e+03 6.581645965576171875e+01 2.120480155944824219e+01 -6.318627262039133718e-14 -1.643326723614266238e-13 -6.825568349454538830e-14 1.920992932866877334e-13
5.513000000000000000e+03 4.784608840942382812e+01 2.224470138549804688e+01 -6.152163603860213992e-14 -7.211736768744994586e-14 -4.009170247306834134e-14 -1.122219340498882383e-15
5.514000000000000000e+03 2.959974098205566406e+01 1.072466945648193359e+01 8.078872348936481235e-15 1.864661718217405784e-13 5.836351096421416029e-14 -3.992857070369074113e-14
5.515000000000000000e+03 3.017480659484863281e+01 1.107540225982666016e+01 -1.255885586498584061e-13 3.350593999300321979e-13 6.284125238405213754e-14 1.520983351473246398e-14
5.516000000000000000e+03 3.672996520996093750e+01 2.311083030700683594e+01 -9.160315057486420609e-14 -3.925849310351323118e-14 -3.925849310351323118e-14 -9.689278705068905991e-16
5.517000000000000000e+03 3.731108093261718750e+01 2.486121559143066406e+01 -1.638279626976074654e-13 1.399564329446906230e-13 -7.161459434094821080e-15 8.385127444818230025e-14
5.518000000000000000e+03 2.933610916137695312e+01 1.781015396118164062e+01 -2.356543745676755591e-14 -1.473523180643004915e-13 -5.127532580928746697e-14 7.023857407154054933e-14
5.519000000000000000e+03 3.003672599792480469e+01 1.688396835327148438e+01 -1.729116287272573077e-14 -7.603692117131091721e-14 -2.799842504380440494e-14 2.276244514057279567e-14
5.520000000000000000e+03 3.285160064697265625e+01 2.469530105590820312e+01 2.078276786776633855e-13 -2.432895253190610861e-15 6.161843496381436136e-14 7.034441253236586866e-14
5.521000000000000000e+03 3.333369827270507812e+01 2.538542938232421875e+01 1.314036363444029409e-13 -3.518605694893643665e-14 2.886527347982677238e-14 1.061861441332447031e-13
5.522000000000000000e+03 6.246748352050781250e+01 2.123453712463378906e+01 -5.413665392708932877e-14 -4.349599565071915475e-13 -1.467289831302842629e-13 5.320258326230696555e-14
5.523000000000000000e+03 4.598657226562500000e+01 2.294313240051269531e+01 -1.231669795450848759e-13 2.217198457167904313e-13 2.956585781863259321e-14 -3.562734078566519302e-14
5.524000000000000000e+03 3.099382209777832031e+01 -2.506462097167968750e+00 -5.258826075884952267e-14 2.519678801542191149e-13 5.981388209166590975e-14 2.551893937862478173e-14
5.525000000000000000e+03 2.941282844543457031e+01 -3.138585090637207031e+00 -2.674516525944230921e-14 2.172925332505001861e-13 5.716420717859216349e-14 -1.378560487335159235e-13
5.526000000000000000e+03 6.070445632934570312e+01 2.224072074890136719e+01 4.212102400810019409e-14 6.614130460501615322e-15 1.462054591706406920e-14 8.577694625552453878e-14
5.527000000000000000e+03 4.835760498046875000e+01 2.255382156372070312e+01 -5.152944246972733511e-14 -4.927440952414178718e-15 -1.693706583132375404e-14 -2.778740541972083561e-14
5.528000000000000000e+03 2.957425689697265625e+01 2.458549118041992188e+01 9.369070731908568650e-14 4.015315979558932435e-14 4.015315979558932435e-14 -1.287387216145421953e-13
5.529000000000000000e+03 2.944715499877929688e+01 2.035406684875488281e+01 1.092370687178281785e-13 9.256683689961436867e-14 6.054117168523276415e-14 9.936173350842247148e-15
5.530000000000000000e+03 2.945285224914550781e+01 2.360464859008789062e+01 2.021802186389851097e-13 8.664866513099361844e-14 8.664866513099361844e-14 -2.072534987596422185e-13
5.531000000000000000e+03 7.052199554443359375e+01 4.144583225250244141e+00 -2.263140168974261957e-13 -2.342445627658701346e-13 -1.381675806752524771e-13 8.399531070679699951e-14
5.532000000000000000e+03 7.038883972167968750e+01 -2.606223583221435547e+00 -8.469134139647838122e-14 1.467075023747418938e-13 1.860484998754494829e-14 4.516999279360845929e-15
5.533000000000000000e+03 6.969982147216796875e+01 9.864031791687011719e+00 7.086583923843203792e-14 7.612202426558745127e-14 4.409635566307405774e-14 -4.772027431955254417e-14
5.534000000000000000e+03 6.937042236328125000e+01 1.936233901977539062e+01 4.876492344153306180e-14 -2.993573813316052767e-13 -7.517773838346120119e-14 2.353820873564511917e-14
5.535000000000000000e+03 7.041678619384765625e+01 1.006437778472900391e+01 2.923994664558345058e-14 -1.247214408573588118e-13 -2.864444860234578727e-14 -8.663179901094789082e-14
5.536000000000000000e+03 7.118941497802734375e+01 1.580064773559570312e+01 1.135326506201614349e-13 -2.258488399553212900e-13 -3.369485883342702992e-14 -9.450405546009357782e-14
5.537000000000000000e+03 7.121042633056640625e+01 1.657934379577636719e+01 3.809376096763341865e-15 -5.931297662221945988e-13 -1.767961048827065840e-13 1.220303561975596973e-13
5.538000000000000000e+03 7.048143005371093750e+01 9.373336791992187500e+00 4.537565662836653968e-14 -1.635570883373391182e-13 -3.545442747981270015e-14 1.184456356847812981e-15
5.539000000000000000e+03 7.051194763183593750e+01 1.731559181213378906e+01 1.938426903800444245e-13 -8.426458248072914159e-15 5.562487048662440037e-14 -1.856649870738552588e-13
5.540000000000000000e+03 7.045634460449218750e+01 1.655838966369628906e+01 9.957317495491377346e-14 -9.457862824076984642e-14 1.498363908364059704e-15 -1.927864877286633583e-13
5.541000000000000000e+03 7.026031494140625000e+01 -3.446040391921997070e+00 -1.490363957462950695e-13 -1.553746416466453284e-13 -9.132331121788211936e-14 8.004998031628518529e-14
5.542000000000000000e+03 7.052507019042968750e+01 3.377435684204101562e+00 -3.902120868180120050e-14 -1.997271705661551877e-13 -7.162451648489234768e-14 1.226487359888344883e-14
5.543000000000000000e+03 7.027764129638671875e+01 -4.257581710815429688e+00 -2.201652895368264029e-13 -9.435654975452692494e-14 -9.435654975452692494e-14 -9.110783281236420339e-14
5.544000000000000000e+03 7.075378417968750000e+01 -1.063033294677734375e+01 -4.977051079211800011e-14 -1.128321137152006604e-13 -4.878079006270102935e-14 -1.557397738332841342e-13
5.545000000000000000e+03 7.109058380126953125e+01 -1.098300170898437500e+01 -2.149620203519518602e-14 -2.837183613046967423e-13 -9.156436324214353717e-14 -8.033902183920624274e-14
5.546000000000000000e+03 7.082246398925781250e+01 1.164068508148193359e+01 3.872440156081971563e-14 -2.915477578867113617e-14 2.870887943402810651e-15 1.304147626479332245e-13
5.547000000000000000e+03 7.116889190673828125e+01 1.499575996398925781e+01 -2.963114711820695468e-14 -4.244576153229762117e-13 -1.362266283935417710e-13 8.704889158670306437e-14
5.548000000000000000e+03 6.984980773925781250e+01 -1.818849754333496094e+01 -7.964375517324328441e-15 3.168433397593428680e-13 9.266369003493521439e-14 -9.648941259703114337e-14
5.549000000000000000e+03 6.944528961181640625e+01 -1.676752090454101562e+01 4.916280869817629684e-15 -1.580213417800083175e-13 -4.593152030593627977e-14 1.508871288547278255e-14
5.550000000000000000e+03 4.316373825073242188e+01 2.370298767089843750e+01 1.103367457587435454e-15 1.377257140798560098e-13 4.164872521297477426e-14 3.467186051610803010e-14
5.551000000000000000e+03 4.437246704101562500e+01 2.335936164855957031e+01 -3.015796095381766129e-14 7.857705778364573734e-14 1.452572904894842282e-14 -7.465078224631535586e-14
5.552000000000000000e+03 6.923049163818359375e+01 -1.772501945495605469e+01 1.016716550360230453e-13 2.037018828355413591e-13 9.161206136146932133e-14 1.010596838960271804e-13
5.553000000000000000e+03 7.025958251953125000e+01 -1.903772163391113281e+01 2.113176102744133977e-14 -1.281963765828106339e-13 -3.211938432779760932e-14 9.084328070601416227e-14
5.554000000000000000e+03 7.053038024902343750e+01 1.872859954833984375e+00 -2.203487907545195745e-13 -1.859370947140948083e-13 -1.218857642853315992e-13 1.664462093002062881e-14
5.555000000000000000e+03 7.124866485595703125e+01 1.923223376274108887e+00 -2.549529597856148300e-13 -4.295221947211991242e-13 -2.053425517730550487e-13 1.350016696740133360e-13
5.556000000000000000e+03 4.211423110961914062e+01 2.309250068664550781e+01 1.643656930938423855e-14 3.501763495058346498e-13 1.099838807267633500e-13 9.579996165928403307e-14
5.557000000000000000e+03 7.054445648193359375e+01 6.445375442504882812e+00 -1.026320480966742832e-13 -8.973611377626269925e-14 -5.771044856188109473e-14 6.572489134968467761e-14
5.558000000000000000e+03 2.934663963317871094e+01 -3.952317476272583008e+00 -5.198331406308523764e-15 2.951533060926297969e-13 8.698649575167652359e-14 -1.248039893002664269e-13
5.559000000000000000e+03 7.025073242187500000e+01 -1.486052799224853516e+01 1.345299468612920490e-13 5.765569635217057676e-14 5.765569635217057676e-14 2.916033910106870242e-14
5.560000000000000000e+03 7.096962738037109375e+01 -8.431305885314941406e+00 -4.234522346484304034e-14 7.335394769901470990e-14 9.302616423218553615e-15 -4.579682851479568995e-14
5.561000000000000000e+03 7.124064636230468750e+01 -3.178666234016418457e-01 -2.826021412868050253e-14 -1.951153133375807536e-13 -6.701265925631791354e-14 2.219805184122420477e-14
5.562000000000000000e+03 8.154514312744140625e+00 -1.397177410125732422e+01 -6.548501161902225975e-14 -2.806500522159038197e-14 -2.806500522159038197e-14 -1.471453167645186966e-13
5.563000000000000000e+03 3.894018554687500000e+01 2.452550506591796875e+01 -1.270577474612663571e-13 2.561083737120418979e-14 -3.043407336583182909e-14 4.822681018640598283e-14
5.564000000000000000e+03 4.073106002807617188e+01 2.323646163940429688e+01 -6.456751908308355770e-14 2.504902582827883001e-14 -1.185554831525459721e-14 4.406172556805851293e-14
5.565000000000000000e+03 6.743201446533203125e+01 2.101061630249023438e+01 -8.584124622061650722e-14 -4.485476389187031954e-13 -1.603166655417959108e-13 -3.535620553924909149e-14
5.566000000000000000e+03 2.960905838012695312e+01 7.934213161468505859e+00 -3.292495331821791715e-14 1.917685709664981863e-13 4.765308766617633307e-14 -4.135656322067603197e-14
5.567000000000000000e+03 7.168392944335937500e+01 -7.525975227355957031e+00 -1.000542761164270600e-13 2.316252929474710287e-13 3.947130166118140160e-14 -6.372449768386745372e-14
5.568000000000000000e+03 2.975118827819824219e+01 -1.127740859985351562e+01 9.696090332272488260e-15 4.616649402176820072e-13 1.414083151789202741e-13 -5.563308585917981983e-15
5.569000000000000000e+03 5.997866439819335938e+01 2.262569427490234375e+01 -2.587863530780810939e-14 -2.855965247280933816e-13 -9.344255377059448864e-14 1.207163438220887342e-13
5.570000000000000000e+03 2.884789276123046875e+01 6.309682846069335938e+00 -7.433218943793049038e-14 2.426490540614889557e-13 5.049505599893575059e-14 -3.163361432067905710e-14
5.571000000000000000e+03 3.043430900573730469e+01 8.735693931579589844e+00 -8.987356350667954907e-14 3.732412870525309012e-13 8.501032045188719466e-14 1.177155779875428167e-15
5.572000000000000000e+03 2.961651039123535156e+01 3.227456569671630859e+00 -1.137288370032726870e-13 2.028892868597906296e-13 2.674813834508717181e-14 -1.596136824056834658e-13
5.573000000000000000e+03 2.963718605041503906e+01 4.003604412078857422e+00 6.454820503782026514e-15 2.772720475528039907e-13 8.511805626651436363e-14 1.021178855451637668e-13
5.574000000000000000e+03 5.275326538085937500e+01 2.232289886474609375e+01 -1.049138125550422296e-13 4.653883615285403508e-14 -1.751249258184327945e-14 7.912758854177956436e-14
5.575000000000000000e+03 5.346089553833007812e+01 2.155582237243652344e+01 -7.842796643240182441e-14 1.213896384533999159e-14 -1.988670052200866567e-14 5.173113795512752910e-14
5.576000000000000000e+03 3.008192062377929688e+01 1.857765769958496094e+01 -3.287585590046326889e-14 -3.343462930561341695e-13 -1.101666433317265159e-13 4.017065610814780918e-14
5.577000000000000000e+03 4.032172393798828125e+01 2.289395713806152344e+01 -5.974404591923068719e-15 8.751172394160997015e-14 2.446119512727971262e-14 4.629403007857038621e-14
5.578000000000000000e+03 3.839454650878906250e+01 2.387624549865722656e+01 -6.777593758574770866e-14 2.104307938836924574e-13 4.279645485650435122e-14 5.041729837437780581e-15
5.579000000000000000e+03 2.836791038513183594e+01 -6.973323822021484375e+00 -3.870998167192565842e-14 3.036666512863661627e-13 7.948700156195850908e-14 2.042919463153894388e-14
5.580000000000000000e+03 2.923002052307128906e+01 -7.535220146179199219e+00 -7.305218035309410385e-14 4.719523383212020917e-13 1.196700480680587542e-13 5.116546902416037323e-14
5.581000000000000000e+03 3.784012985229492188e+01 2.438327980041503906e+01 -4.140367519320231615e-14 -1.774443222565813549e-14 -1.774443222565813549e-14 -6.896000155458270608e-15
5.582000000000000000e+03 2.961457824707031250e+01 -1.429656386375427246e+00 -9.496099924195117170e-14 1.194307510960640473e-13 7.340923692761378710e-15 -7.339528968310429780e-14
5.583000000000000000e+03 2.930805587768554688e+01 1.447281265258789062e+01 -3.265759922687835881e-14 7.750578472206712255e-14 1.345445514033686077e-14 -1.139850204241038556e-13
5.584000000000000000e+03 7.102538299560546875e+01 -1.490574359893798828e+01 3.001876294739767859e-14 -3.288576279781435519e-14 -8.600999657129148202e-16 -1.786853102276036304e-14
5.585000000000000000e+03 2.932147979736328125e+01 1.365575313568115234e+01 -2.006872832589008844e-15 1.821437017055296814e-13 5.404105101239863040e-14 1.428766366285902367e-14
5.586000000000000000e+03 5.200744247436523438e+01 2.171585083007812500e+01 -1.111954088918801209e-13 -1.904225144875996457e-15 -3.392989014749936416e-14 6.289050904400086961e-14
5.587000000000000000e+03 3.003494834899902344e+01 1.438172245025634766e+01 6.816652141838561163e-14 1.893425466328174656e-13 7.725271838248184975e-14 6.015896331437731170e-14
5.588000000000000000e+03 3.056682395935058594e+01 2.463543891906738281e+01 -2.404236952211445677e-14 -1.475567172788683212e-13 -5.147972841198708571e-14 2.038155919265125654e-14
5.589000000000000000e+03 3.008749389648437500e+01 2.403472900390625000e+01 6.105801086085660412e-14 -7.891648760253305861e-14 -5.357543530722704700e-15 1.607721558151160163e-14
5.590000000000000000e+03 2.951799774169921875e+01 9.088824391365051270e-01 1.496046870912669247e-14 3.266682714261892606e-13 1.024886217017816070e-13 4.179688482797670745e-14
5.591000000000000000e+03 3.022099304199218750e+01 2.025051116943359375e+01 -1.434014243613911110e-14 -1.891495721986422018e-13 -6.104691134111578377e-14 -2.517869810217399085e-14
5.592000000000000000e+03 3.035920715332031250e+01 1.739236235618591309e+00 -4.841313032974761676e-14 1.622553138938900852e-13 3.415265303636366712e-14 -4.413628479620762546e-14
5.593000000000000000e+03 2.964569473266601562e+01 4.781309127807617188e+00 -1.171276752887431827e-13 2.700590673396924268e-13 4.587941761528477325e-14 -3.512959712080425401e-14
5.594000000000000000e+03 6.018618011474609375e+01 2.158481788635253906e+01 -4.840891549380207937e-14 -5.240071072366847549e-13 -1.717248034310142613e-13 2.086000643053420589e-13
5.595000000000000000e+03 6.181671142578125000e+01 2.087272644042968750e+01 -4.791085673268476175e-14 -2.053322382998892803e-14 -2.053322382998892803e-14 1.353088377020056354e-13
5.596000000000000000e+03 5.273169326782226562e+01 2.163457107543945312e+01 -1.316955035692360387e-13 1.265628633796353486e-13 -1.539793772121925228e-15 9.171057468136678548e-14
5.597000000000000000e+03 3.034499549865722656e+01 1.202605247497558594e+01 -1.239928705499757089e-13 2.556791041906369966e-13 3.950587076982474410e-14 -3.503841571809822308e-14
5.598000000000000000e+03 3.010804748535156250e+01 1.277259159088134766e+01 5.424518934081870580e-14 1.147498301891022865e-13 5.069850653660265549e-14 2.563767984530267857e-14
5.599000000000000000e+03 5.824256515502929688e+01 2.187707519531250000e+01 3.375921639675941166e-14 1.974720300473853385e-13 6.936937596612249846e-14 -6.679498957656545069e-15
5.600000000000000000e+03 5.767028045654296875e+01 2.252330207824707031e+01 -1.981126884992388121e-14 -2.829962284477127721e-13 -9.084225071395030104e-14 1.139412186563354412e-13
5.601000000000000000e+03 3.396259307861328125e+01 2.547753715515136719e+01 -1.295059437293744065e-13 -3.300082375336937934e-13 -1.378542597999313224e-13 2.432252397535292210e-14
5.602000000000000000e+03 3.189441871643066406e+01 -1.089180469512939453e+01 -4.381516782963994217e-14 3.243541774142905121e-13 8.416170863521921230e-14 -1.893197411177455908e-14
5.603000000000000000e+03 6.992178344726562500e+01 1.980870819091796875e+01 -1.108871363329246018e-13 8.972979152234439315e-14 -6.347203273767473147e-15 -6.539193963877795723e-14
5.604000000000000000e+03 6.957498168945312500e+01 2.028988265991210938e+01 1.781351962096798525e-14 -4.956260553877489539e-13 -1.433437651346056163e-13 1.202877993608866825e-13
5.605000000000000000e+03 7.004615783691406250e+01 -2.058113861083984375e+01 6.150958784196039475e-14 1.836301428840073080e-13 7.354192125066938424e-14 7.676654857581219349e-14
5.606000000000000000e+03 2.874671173095703125e+01 2.205298614501953125e+01 6.187576357319021780e-14 -2.479875029284817067e-13 -5.583352180658744668e-14 -3.258744457005496864e-14
5.607000000000000000e+03 7.054383087158203125e+01 -1.055775403976440430e+00 -1.609106185969377822e-13 -1.147126420545860337e-13 -8.268697684020442917e-14 1.959558275192729848e-13
5.608000000000000000e+03 7.125059509277343750e+01 4.305062294006347656e-01 -2.106922898951688050e-13 -2.733004794697180273e-13 -1.451978321647187653e-13 1.999651529430157559e-13
5.609000000000000000e+03 3.083342552185058594e+01 -1.821949243545532227e+00 -6.151040776985333691e-14 2.481440888272429257e-13 5.599010431721687664e-14 2.469643650552296593e-14
5.610000000000000000e+03 3.031989288330078125e+01 -4.508568346500396729e-01 -3.397129311796115436e-14 3.971994174539750233e-13 1.089684373008041607e-13 -5.289547283255507937e-14
5.611000000000000000e+03 6.816218566894531250e+01 -2.294161796569824219e+01 2.897440859288280546e-14 1.325138458165009414e-13 4.844647632281512406e-14 -3.063235022625690473e-14
5.612000000000000000e+03 6.982114410400390625e+01 4.838161468505859375e+00 -1.564816527223344966e-13 -1.128145089824249270e-13 -8.078885054430690049e-14 1.462859273006298505e-14
5.613000000000000000e+03 7.125221252441406250e+01 8.061708450317382812e+00 -1.315654010026036727e-14 -3.716461003961529785e-13 -1.154407922336272985e-13 1.388628253183588068e-13
5.614000000000000000e+03 6.942308807373046875e+01 -2.591073417663574219e+01 5.441462303532387801e-14 2.332055345545275965e-14 2.332055345545275965e-14 7.134942051241488503e-14
5.615000000000000000e+03 7.125702667236328125e+01 7.310049057006835938e+00 2.571680966323517531e-14 -1.262313550128707496e-13 -3.015436275785772502e-14 1.513677421252634936e-13
5.616000000000000000e+03 3.082345962524414062e+01 -1.112308597564697266e+01 -2.104165705064421632e-14 2.654878270350047309e-13 7.333385607750583790e-14 -1.312945283364012200e-14
5.617000000000000000e+03 6.894546508789062500e+01 -1.566457462310791016e+01 5.147353829520855129e-14 -3.512859762192649393e-14 4.903481354951669952e-15 -4.327230441374466108e-14
5.618000000000000000e+03 6.957048034667968750e+01 -1.583318328857421875e+01 1.128080037693900139e-13 1.169727156932406920e-13 6.893421109540470715e-14 1.326262098191519079e-13
5.619000000000000000e+03 7.165814208984375000e+01 -6.727707862854003906e+00 -1.290289489835894088e-13 -2.840528647799628326e-13 -1.239245522605819660e-13 -1.487876221696864815e-14
5.620000000000000000e+03 7.023979949951171875e+01 -4.982602596282958984e+00 -1.724164431018970767e-13 -7.389275552115853740e-14 -7.389275552115853740e-14 -3.277864362317278735e-14
5.621000000000000000e+03 3.074955749511718750e+01 -1.647646713256835938e+01 2.032974618726771099e-14 2.717806990744364715e-13 8.763313425613761254e-14 -3.375025140004567215e-14
5.622000000000000000e+03 6.914054870605468750e+01 -1.860794067382812500e+01 3.884813274562283480e-14 1.664919999013348556e-14 1.664919999013348556e-14 6.795807677446169537e-14
5.623000000000000000e+03 6.941255187988281250e+01 -1.961314582824707031e+01 5.640273811153770356e-15 1.625455819205187669e-13 5.045575705831494007e-14 -3.032827217445618895e-14
5.624000000000000000e+03 6.894117736816406250e+01 -2.742434501647949219e+01 4.284830936650231223e-15 -2.103911764586834793e-14 -5.026286309226966550e-15 4.900057012504157629e-16
5.625000000000000000e+03 2.964033889770507812e+01 -6.571854114532470703e+00 -1.589934374478588208e-13 2.978675520213386330e-13 4.166223369441758584e-14 -1.031149280273768037e-14
5.626000000000000000e+03 3.125980377197265625e+01 -1.769986343383789062e+01 8.347015705576291134e-14 3.560295775643235183e-13 1.318499210636522867e-13 -3.737770726611189254e-14
5.627000000000000000e+03 2.968724250793457031e+01 -1.676775360107421875e+01 3.393160115405281785e-14 4.606138604215659349e-13 1.483636347457406579e-13 1.276311531911737338e-14
5.628000000000000000e+03 3.033051872253417969e+01 -1.537067604064941406e+01 -4.015057803916609325e-14 3.030492523592442922e-13 7.886960263483663858e-14 1.171822055758215200e-14
5.629000000000000000e+03 7.030159759521484375e+01 -2.218251228332519531e+01 -1.878855279907956644e-14 1.292006052925481763e-13 3.312361642566694075e-14 1.327207522485926439e-13
5.630000000000000000e+03 3.156065368652343750e+01 -2.502242851257324219e+01 4.170826146477138452e-14 3.095372807897234235e-13 1.053736565777112222e-13 -4.056709463251713388e-14
5.631000000000000000e+03 3.231000137329101562e+01 -2.225605201721191406e+01 2.351950624816974422e-14 2.045213228375059034e-13 6.841224906451587318e-14 -9.384477244779587668e-14
5.632000000000000000e+03 6.873934173583984375e+01 2.087234878540039062e+01 -2.240474820914498816e-14 -1.697303593246185516e-13 -5.764053107428293576e-14 -3.791244255384532136e-14
5.633000000000000000e+03 6.813548278808593750e+01 2.093247795104980469e+01 -2.578003559055002530e-14 -1.025504822119854831e-13 -3.849915517135406307e-14 -2.197055878156925490e-13
5.634000000000000000e+03 6.954374694824218750e+01 1.798913002014160156e+01 8.831229204950968859e-14 -1.051235921228910186e-13 -5.043390022014399010e-15 -1.501407911842431164e-13
5.635000000000000000e+03 5.500623321533203125e+01 2.081036186218261719e+01 -5.079550536159042895e-14 -2.505242378565003536e-13 -9.039592533711948708e-14 1.879537243074450026e-13
5.636000000000000000e+03 5.505765533447265625e+01 2.013155174255371094e+01 2.660131365401011139e-14 5.715150846064692702e-14 2.512584663439711152e-14 2.634771470010760508e-13
5.637000000000000000e+03 5.760182189941406250e+01 2.181225395202636719e+01 -4.031725379439500545e-14 -1.727882329675013012e-14 -1.727882329675013012e-14 1.321625507600884819e-13
5.638000000000000000e+03 6.449983215332031250e+01 2.032346916198730469e+01 -1.720875639254007550e-13 -2.224423987021162397e-13 -1.183589901435078140e-13 6.974942948516013597e-14
5.639000000000000000e+03 6.572726440429687500e+01 2.184831237792968750e+01 -2.556274453452498513e-14 -1.939592556661137723e-13 -6.585660158485093230e-14 -1.629127334337038269e-13
5.640000000000000000e+03 4.987577438354492188e+01 2.116869354248046875e+01 -1.424048867108146377e-13 9.909765743458878728e-14 -1.299216742761503951e-14 8.166852475321659255e-14
5.641000000000000000e+03 5.059975051879882812e+01 2.111831092834472656e+01 -6.174532049931305555e-14 -7.221322471202482052e-14 -4.018756288577500502e-14 6.064579719487761533e-14
5.642000000000000000e+03 7.128250885009765625e+01 2.054018402099609375e+01 -2.381797185966195302e-14 2.642979964658648262e-13 7.214400517957519909e-14 1.684741755825225340e-13
5.643000000000000000e+03 3.161941909790039062e+01 -3.458653926849365234e+00 -5.418201762361248008e-14 3.885376720878797041e-13 1.003066987109724195e-13 -3.246479081116075693e-14
5.644000000000000000e+03 3.133978080749511719e+01 -4.335436820983886719e+00 -7.088830255219322196e-14 2.441250055839477850e-13 5.197100752139457991e-14 5.011580885526389917e-14
5.645000000000000000e+03 4.693596267700195312e+01 2.261952209472656250e+01 -1.292691404223764162e-13 1.276027352357933520e-13 -4.999195866233169076e-16 -4.212282988234374026e-14
5.646000000000000000e+03 6.265162658691406250e+01 1.944179534912109375e+01 -9.894702787151266055e-14 -1.796587103261929053e-13 -8.358172145931166974e-14 6.158485857778520089e-14
5.647000000000000000e+03 6.324871444702148438e+01 1.977779579162597656e+01 -8.836250416262292351e-14 -3.352508158235845137e-13 -1.270839987063676624e-13 4.153380994708667784e-14
5.648000000000000000e+03 4.918992233276367188e+01 2.105831336975097656e+01 -1.127766025639694025e-13 -1.169592580337747156e-13 -6.892076021220230886e-14 -3.653865336922072771e-14
5.649000000000000000e+03 6.513795471191406250e+01 2.051868057250976562e+01 -3.306061411505016590e-14 -1.514216811833446474e-13 -5.534468892833162290e-14 1.153462904617680307e-13
5.650000000000000000e+03 7.090441131591796875e+01 1.893386650085449219e+01 2.478913884058908668e-13 -3.101367768284721271e-14 6.506331796029760084e-14 5.179086817746906060e-15
5.651000000000000000e+03 3.147476005554199219e+01 1.872528493404388428e-01 1.025593455647455521e-13 3.184596954631385701e-13 1.263057177293760991e-13 -1.122157583326698072e-13
5.652000000000000000e+03 3.063352584838867188e+01 1.052069473266601562e+01 1.840709828754717031e-14 9.939065629543941682e-14 3.533932586667620779e-14 6.000106959674553209e-14
5.653000000000000000e+03 3.560398483276367188e+01 2.412562179565429688e+01 -1.119046736243294038e-13 -1.980794407619931863e-13 -9.299523228301770361e-14 -1.134503986387853589e-14
5.654000000000000000e+03 3.616373825073242188e+01 2.361441040039062500e+01 -6.888902696986637375e-14 1.241707203638447998e-13 1.658450869581988563e-14 1.192199042667017178e-14
5.655000000000000000e+03 3.076818656921386719e+01 1.680012893676757812e+01 5.495728316331181806e-14 6.930407311402098092e-14 3.727840789963937640e-14 -6.992920375788538867e-14
5.656000000000000000e+03 3.078282165527343750e+01 1.764563369750976562e+01 1.160893276683737634e-15 -2.511326921156992187e-13 -7.499154021286397187e-14 -7.406988705108835669e-14
5.657000000000000000e+03 3.076721191406250000e+01 1.595245075225830078e+01 -6.310231556169243819e-15 -2.557985968225720552e-14 -9.567027075066403263e-15 -6.430960432690820128e-15
5.658000000000000000e+03 3.446572113037109375e+01 2.391139221191406250e+01 -8.952937675076044766e-14 7.381217050062265778e-15 -2.464444731728639149e-14 6.385607324079509498e-15
5.659000000000000000e+03 3.068938064575195312e+01 9.480033874511718750e+00 -4.468874340132940326e-14 3.239798024041312674e-13 8.378732007253281155e-14 8.060709421448507273e-15
5.660000000000000000e+03 7.037917327880859375e+01 1.790933418273925781e+01 -1.796136922191122337e-14 -9.919962664891104898e-14 -3.514829960827962896e-14 -1.733304526383566690e-13
5.661000000000000000e+03 4.358766555786132812e+01 2.283902549743652344e+01 4.336260236108670577e-15 2.534886092264015955e-13 7.734746409982992676e-14 -2.538016912384316245e-15
5.662000000000000000e+03 7.031755828857421875e+01 1.072081089019775391e+01 1.533172596041368352e-13 1.995644860301737378e-14 5.198211381739897829e-14 -6.652153769503860864e-15
5.663000000000000000e+03 6.664687347412109375e+01 2.112709045410156250e+01 -3.189407356382796543e-14 -5.941983558833963119e-14 -2.739417376208981569e-14 -1.746684665394210301e-13
5.664000000000000000e+03 6.981529998779296875e+01 4.075117588043212891e+00 -9.995701640529153220e-14 -1.343406180569217678e-13 -7.028929440442213683e-14 1.013634028058582603e-13
5.665000000000000000e+03 6.980364227294921875e+01 2.573541641235351562e+00 -1.481760271123191974e-13 -1.550059044877830083e-13 -9.095458083528337734e-14 1.134845459250209687e-13
5.666000000000000000e+03 4.531135940551757812e+01 2.256155586242675781e+01 -1.398251496141297845e-13 8.701361944071350080e-15 -3.933713503046810944e-14 -4.358777336462005270e-14
5.667000000000000000e+03 4.633588409423828125e+01 2.223946380615234375e+01 -1.381380632711065592e-13 7.805081993043916366e-14 -1.802617232457386087e-14 -4.277560429347473936e-14
5.668000000000000000e+03 6.943232727050781250e+01 1.707709121704101562e+01 3.689667386723438636e-14 -7.568904135174178704e-14 -1.163770922891268350e-14 -1.555655832017471818e-13
5.669000000000000000e+03 6.993630218505859375e+01 1.749977684020996094e+01 1.548429760063127492e-13 -1.280802585301374363e-13 8.028817783951435610e-15 8.808771312200647241e-14
5.670000000000000000e+03 7.087875366210937500e+01 1.324542427062988281e+01 -8.499616695485504893e-16 -2.062435373309176589e-13 -6.212805064246401665e-14 1.047214412083254109e-13
5.671000000000000000e+03 7.052808380126953125e+01 2.619308233261108398e+00 -2.084918202709465374e-13 -1.808555339993453415e-13 -1.168042035705821324e-13 7.129250667462297408e-14
5.672000000000000000e+03 6.981029510498046875e+01 3.317944765090942383e+00 -1.738060243687902795e-13 -1.659902006427224630e-13 -1.019388702139592540e-13 1.556160663654035381e-13
5.673000000000000000e+03 7.161569976806640625e+01 1.379654121398925781e+01 6.733760819993897528e-14 -2.542250264470080623e-13 -5.606622547412072610e-14 -3.643361450749761643e-14
5.674000000000000000e+03 4.880160903930664062e+01 2.186684226989746094e+01 -4.790209841201015228e-14 3.665921326266932678e-14 -3.372865714208837101e-15 9.304342506958468428e-14
5.675000000000000000e+03 6.947266387939453125e+01 -3.245751380920410156e+00 -1.493100890322118790e-13 -6.399003912469988786e-14 -6.399003912469988786e-14 8.095300552948478390e-14
5.676000000000000000e+03 6.969268798828125000e+01 -2.457684040069580078e+00 -1.535012893703890935e-13 -6.578626396891093520e-14 -6.578626396891093520e-14 1.545926743822673144e-13
5.677000000000000000e+03 7.126792144775390625e+01 1.264298820495605469e+01 -4.148873085363380397e-14 -4.524149067527960533e-13 -1.481710939924343884e-13 7.458839996381597115e-14
5.678000000000000000e+03 6.910581970214843750e+01 -4.015248775482177734e+00 1.221376701897791336e-14 -1.205806423676750172e-13 -3.251005963999381576e-14 -5.185012575542602420e-14
5.679000000000000000e+03 7.015805816650390625e+01 1.132456111907958984e+01 -1.341088122443125780e-14 -5.090079833319771652e-13 -1.567256524212523594e-13 -1.120789455710292926e-13
5.680000000000000000e+03 6.836598205566406250e+01 -1.145703220367431641e+01 -9.851560349828994423e-14 3.529976349880880118e-15 -2.849568928801719803e-14 -1.909914876940940406e-15
5.681000000000000000e+03 7.017708587646484375e+01 -1.214325428009033203e+01 3.208249434887879004e-14 1.224081464445622713e-13 4.634719325447185512e-14 -4.008323214359579834e-14
5.682000000000000000e+03 6.771329498291015625e+01 -1.610729980468750000e+01 1.391413297514160208e-13 5.963200040096788834e-14 5.963200040096788834e-14 -5.607287298869077785e-14
5.683000000000000000e+03 4.414958190917968750e+01 2.260470199584960938e+01 -1.953658622952467866e-14 2.203819266834161628e-13 6.025360061150814017e-14 1.703429064470185494e-13
5.684000000000000000e+03 4.260409164428710938e+01 2.314873504638671875e+01 -5.984870531019342854e-14 1.116034009456499942e-13 1.552640869063696971e-14 -5.440824657129694764e-14
5.685000000000000000e+03 6.852301025390625000e+01 -1.659295463562011719e+01 1.052797409526514544e-14 2.218289977705054095e-13 6.970709139032457702e-14 1.039522539770555698e-13
5.686000000000000000e+03 4.306788635253906250e+01 2.301578330993652344e+01 -2.699009500053625721e-14 1.256856625069316391e-13 2.960867025191861457e-14 1.347642971608747908e-13
5.687000000000000000e+03 3.013595962524414062e+01 1.941797065734863281e+01 1.827997388875735041e-14 7.834274644757856926e-15 7.834274644757856926e-15 -7.137290704197635227e-14
5.688000000000000000e+03 3.033563423156738281e+01 2.108008193969726562e+01 3.882511377824825194e-14 -5.198708759486525555e-14 -3.948592314391690533e-15 -3.673820332016552656e-15
5.689000000000000000e+03 3.171451759338378906e+01 -2.599405050277709961e+00 -1.103186010424639374e-13 1.814753452763009922e-13 2.134702428659065315e-14 -1.453560308142115565e-13
5.690000000000000000e+03 7.124478912353515625e+01 5.787320137023925781e+00 -5.625102095815730230e-14 -1.613604269732477059e-13 -6.528343133010289234e-14 1.482273776377135421e-13
5.691000000000000000e+03 6.982946777343750000e+01 5.593606472015380859e+00 -7.458545906542310422e-14 -7.771614704858362255e-14 -4.569048183420201803e-14 4.181827410396077305e-14
5.692000000000000000e+03 3.893645477294921875e+01 2.332096290588378906e+01 -2.564324315770024482e-14 1.262628917435629217e-13 3.018589271228631910e-14 5.848742172000209738e-15
5.693000000000000000e+03 4.057374191284179688e+01 2.245988464355468750e+01 -8.064224608179612619e-14 5.694093606995950796e-14 -7.110394358803701076e-15 3.689151713065150218e-14
5.694000000000000000e+03 3.992028427124023438e+01 2.332337951660156250e+01 -1.255267591260267324e-13 2.207085154828231088e-13 2.855452758466527075e-14 -1.369539874438103003e-14
5.695000000000000000e+03 7.084636688232421875e+01 -5.904094696044921875e+00 -1.546465998878213122e-13 -2.035299554760394702e-13 -1.074529666091582347e-13 -5.431143070542578111e-14
5.696000000000000000e+03 7.095508575439453125e+01 -5.086495876312255859e+00 -1.394923944148668271e-13 3.171944586329022986e-14 -3.233188456547297918e-14 2.263065359024360457e-14
5.697000000000000000e+03 7.055076599121093750e+01 -3.184885978698730469e-01 -1.488488829805637015e-13 -1.804143077608569984e-14 -5.006709429640140985e-14 8.481156586487986759e-14
5.698000000000000000e+03 7.054124450683593750e+01 4.076409637928009033e-01 -2.518234644248440457e-13 -2.451771695822363428e-13 -1.491001874916186853e-13 -5.413269997729154570e-14
5.699000000000000000e+03 3.099613952636718750e+01 -2.128204405307769775e-01 1.263784541426227204e-13 5.574226518735569957e-13 2.051403209628321900e-13 -2.010426940484040526e-14
5.700000000000000000e+03 6.654526519775390625e+01 2.036349868774414062e+01 -1.008198177178919186e-13 -8.895944555000270815e-14 -5.693378033562110363e-14 -7.903118094578897440e-15
5.701000000000000000e+03 5.901421356201171875e+01 2.230064773559570312e+01 -1.081277062786774323e-13 -1.835932935626699569e-13 -8.751629791952514337e-14 9.787084201883997081e-14
5.702000000000000000e+03 5.965294265747070312e+01 2.101000785827636719e+01 -9.544769759717991464e-14 4.844792983135261244e-15 -2.718087053718044876e-14 1.421252167604220018e-13
5.703000000000000000e+03 7.036767578125000000e+01 -9.413612365722656250e+00 -3.741824626296748335e-14 -1.075382865438692659e-13 -4.348695950323784587e-14 -1.413228258376197921e-13
5.704000000000000000e+03 3.008206367492675781e+01 -7.210732936859130859e+00 -1.448419394134686095e-14 2.682981874863044069e-13 7.614419620001477984e-14 -1.473464769250962259e-13
5.705000000000000000e+03 2.905450439453125000e+01 -6.878098487854003906e+00 -6.834516405509333259e-14 2.452148998178388384e-13 5.306092208407636734e-14 -1.174524073919297473e-13
5.706000000000000000e+03 3.005046272277832031e+01 1.357580089569091797e+01 -7.146710388197460850e-14 -7.637970524066936551e-14 -4.435404341441955001e-14 -1.141264156339890160e-14
5.707000000000000000e+03 2.979224205017089844e+01 1.171465969085693359e+01 -6.551316021792541466e-14 2.235531502753004829e-13 4.741199498433344706e-14 3.010382538409274444e-14
5.708000000000000000e+03 3.003204536437988281e+01 1.520405673980712891e+01 -4.971974641352315538e-14 -2.130846395869984838e-14 -2.130846395869984838e-14 -4.620345853958637838e-14
5.709000000000000000e+03 3.278446960449218750e+01 2.521784591674804688e+01 -1.100963938072130333e-13 -1.386860732591893575e-13 -7.463473605416257040e-14 7.481194889925532610e-14
5.710000000000000000e+03 3.153364753723144531e+01 2.480515480041503906e+01 -1.519819291034493758e-13 -1.366529265233677043e-14 -4.969416601851607551e-14 -5.151637105728530674e-14
5.711000000000000000e+03 5.129478454589843750e+01 2.179464912414550781e+01 -1.224632273030563240e-14 8.625347343912265208e-14 2.220214470442533755e-14 -5.237125769402654896e-14
5.712000000000000000e+03 4.454547882080078125e+01 2.075917243957519531e+01 -2.297253641654617429e-13 2.675538555898387960e-13 1.134854403918132693e-14 1.869015975786061240e-14
5.713000000000000000e+03 3.784640502929687500e+01 2.323885345458984375e+01 -8.407006644658987504e-14 -1.780113430521323287e-14 -3.056136208901341633e-14 -1.475019277997081241e-14
5.714000000000000000e+03 7.055216217041015625e+01 -1.008748340606689453e+01 -1.169625191106216447e-14 -3.710202717971400332e-13 -1.148149500820871971e-13 -4.106890744365668255e-14
5.715000000000000000e+03 7.108828735351562500e+01 -9.186311721801757812e+00 -8.429934132475266906e-14 -2.191320855240291854e-13 -9.102942466650276732e-14 -5.128666249825351853e-14
5.716000000000000000e+03 2.964401626586914062e+01 5.562307357788085938e+00 -3.310778707394865239e-14 4.433204291946074571e-13 1.230637906033185680e-13 -5.252711853258491825e-14
5.717000000000000000e+03 3.729257583618164062e+01 2.375341033935546875e+01 -8.319462062615287645e-14 1.473489570375657864e-13 1.924630126223705190e-14 1.046487657814509920e-13
5.718000000000000000e+03 6.072002792358398438e+01 2.105440521240234375e+01 -5.680297134351072752e-14 6.715776616457794224e-14 3.106439335704759032e-15 8.477021032826312363e-14
5.719000000000000000e+03 6.224459075927734375e+01 2.014453315734863281e+01 -4.854760866858549850e-14 -4.325646557525736347e-13 -1.443336823756663501e-13 6.356024783099947784e-14
5.720000000000000000e+03 7.125338745117187500e+01 6.553331375122070312e+00 4.541910603042889627e-14 -2.550403735857714738e-13 -6.288637552321826862e-14 5.022369713582157391e-14
5.721000000000000000e+03 7.052042388916015625e+01 8.658493995666503906e+00 4.825742873338333128e-14 -3.453258458265690001e-13 -8.912052411151616393e-14 3.023375685006976510e-14
5.722000000000000000e+03 7.053408813476562500e+01 1.137294411659240723e+00 -1.889643498100002095e-13 -2.182375645216200200e-13 -1.221605688784752064e-13 1.301035153092669483e-13
5.723000000000000000e+03 3.342080688476562500e+01 2.474494552612304688e+01 -1.317665323640609953e-13 -1.022223213194284330e-13 -7.019665610504682851e-14 -3.814737900022756312e-14
5.724000000000000000e+03 3.106287384033203125e+01 9.931586384773254395e-01 5.657172457264672549e-14 5.046299749594806983e-13 1.683605105372645849e-13 -1.049962525777325961e-13
5.725000000000000000e+03 3.216907882690429688e+01 2.493262290954589844e+00 -7.133600351053037691e-14 3.354350217726898009e-13 7.922970683390054281e-14 -2.060429057188992163e-13
5.726000000000000000e+03 3.088319778442382812e+01 1.930404281616210938e+01 -4.976349735931473450e-14 -3.873348039876156612e-13 -1.311294958250899811e-13 -7.753474477853374708e-15
5.727000000000000000e+03 6.742612457275390625e+01 -1.805504417419433594e+01 6.519145032829465336e-14 5.081466863498911024e-14 3.480183602779830798e-14 -7.228263397985462690e-14
5.728000000000000000e+03 3.077804374694824219e+01 1.429078865051269531e+01 -8.234756057384426398e-14 -5.816728392352144006e-14 -4.215445470446242682e-14 -3.295131637166826000e-14
5.729000000000000000e+03 3.079445075988769531e+01 1.280422687530517578e+01 -1.526081236206955349e-13 2.609841833476397172e-14 -3.795291039993334281e-14 -8.411457294577040500e-14
5.730000000000000000e+03 5.346259307861328125e+01 2.086972999572753906e+01 6.020351724740288790e-14 3.003071966448112029e-13 1.081532121347851538e-13 1.813393998763984660e-13
5.731000000000000000e+03 3.101751136779785156e+01 1.219538879394531250e+01 7.390638258721396459e-14 1.918024793894426705e-13 7.971265791537063272e-14 -8.614951200330844827e-14
5.732000000000000000e+03 6.872077941894531250e+01 2.033343887329101562e+01 -1.013761896152300113e-14 -1.873484955497092819e-13 -5.924583469218286380e-14 1.251546490819684457e-14
5.733000000000000000e+03 5.873458862304687500e+01 2.175287628173828125e+01 1.975534265254846877e-14 -6.015985100490603421e-14 -1.212135148926773293e-14 9.366488297858979739e-14
5.734000000000000000e+03 5.273083877563476562e+01 2.093630027770996094e+01 -1.706070587538174865e-13 1.098864854903562616e-13 -1.821617367310426200e-14 2.040100241043900538e-15
5.735000000000000000e+03 3.151300239562988281e+01 -9.822398185729980469e+00 1.414087708826458969e-14 4.178189098955759073e-13 1.295879365186686227e-13 -1.271280071501752068e-14
5.736000000000000000e+03 6.976184082031250000e+01 9.196720123291015625e+00 -1.416897401815796209e-14 -9.757431272466518535e-14 -3.352298568403376533e-14 -3.010539747724284843e-14
5.737000000000000000e+03 3.163186645507812500e+01 -1.367253541946411133e+00 1.984358146279573826e-14 3.287610255645750934e-13 1.045813826164310179e-13 -6.802177365209521875e-14
5.738000000000000000e+03 3.049374961853027344e+01 -1.172558903694152832e+00 -5.376197737320086156e-14 4.802195967268385601e-13 1.279372793686409104e-13 5.001935806059299924e-15
5.739000000000000000e+03 3.093016052246093750e+01 3.400579094886779785e-01 -8.937577240797356382e-14 4.192055773691305554e-13 9.894894555410524428e-14 -2.232733041420548181e-13
5.740000000000000000e+03 3.025680160522460938e+01 2.641566693782806396e-01 1.885440961072858829e-14 4.198389953833508992e-13 1.316080220064436146e-13 5.968834503261924440e-14
5.741000000000000000e+03 2.962414550781250000e+01 7.133349418640136719e+00 -8.714723550001107766e-14 2.829078388656008913e-13 5.872817558866608167e-14 -2.560594999109853248e-14
5.742000000000000000e+03 3.227343750000000000e+01 -1.218349647521972656e+01 1.794044750811404215e-14 2.936321975496869463e-13 9.347179334793370709e-14 -6.332488109188003089e-14
5.743000000000000000e+03 6.990073394775390625e+01 -1.292577934265136719e+01 -1.102359340149437067e-14 -1.877281967030408616e-13 -5.962553584551444352e-14 9.746179964421550213e-14
5.744000000000000000e+03 6.963323211669921875e+01 -1.369822978973388672e+01 2.241849047168124193e-14 -8.189397104245779713e-14 -1.784264569589227162e-14 1.056019184044691001e-14
5.745000000000000000e+03 3.119902992248535156e+01 -8.078700065612792969e+00 -3.974691940595437289e-14 1.430939242964834879e-13 3.100410282241145010e-14 -6.953968379862923710e-14
5.746000000000000000e+03 6.827295684814453125e+01 -1.991639518737792969e+01 -1.488799148796193100e-14 2.793264446512063598e-14 3.913395977850906218e-15 2.940947181964692625e-14
5.747000000000000000e+03 3.038177680969238281e+01 -1.933873367309570312e+01 3.694836320580763278e-14 3.132161684963469250e-13 1.050493649316572298e-13 -9.323392235590570280e-16
5.748000000000000000e+03 2.906878280639648438e+01 -1.944801139831542969e+01 5.635444706914884139e-14 2.757821369273744105e-13 9.964097147201200766e-14 1.662580324606442728e-14
5.749000000000000000e+03 6.751218414306640625e+01 -2.165989494323730469e+01 1.199423979597212184e-14 7.376681188629718999e-14 2.572831575879067773e-14 4.160286007294684840e-14
5.750000000000000000e+03 2.963647651672363281e+01 6.346765995025634766e+00 -8.410145409948333040e-14 5.129679233467632216e-13 1.286599407741839673e-13 -3.099174969390869339e-14
5.751000000000000000e+03 3.177067184448242188e+01 -1.908702850341796875e+01 -8.245161857141445477e-15 1.680324174073433152e-13 4.793617624154408730e-14 -5.430444437767682764e-14
5.752000000000000000e+03 6.644354248046875000e+01 -2.224300956726074219e+01 8.294954688945789523e-15 1.408078298056891775e-13 4.473083416254436395e-14 -2.476718408540943411e-14
5.753000000000000000e+03 6.948167419433593750e+01 -2.146212005615234375e+01 8.002109310465202463e-14 3.429475467172683756e-14 3.429475467172683756e-14 3.185934182485875010e-14
5.754000000000000000e+03 6.527873992919921875e+01 -2.290192222595214844e+01 3.491747635388925408e-15 -2.709787994307436693e-14 -7.081839607602337730e-15 3.362254932478582481e-14
5.755000000000000000e+03 6.900914001464843750e+01 -1.441689491271972656e+01 -3.715748208795756347e-14 -1.445991763826537380e-13 -5.452699720237021153e-14 2.121068247526881195e-14
5.756000000000000000e+03 6.949320220947265625e+01 -1.506774234771728516e+01 -2.150655108374473906e-14 -1.693454133432775732e-13 -5.725559186920553545e-14 -6.062362187231849775e-15
5.757000000000000000e+03 3.076678276062011719e+01 -5.143680572509765625e+00 -8.939164241727332039e-14 2.733676457943035043e-13 5.519279898022998176e-14 -7.995251054097873844e-14
5.758000000000000000e+03 3.015454101562500000e+01 -5.919425010681152344e+00 9.433241947992554444e-14 2.691829235641068907e-13 1.090546042684624461e-13 -8.507174728122207652e-14
5.759000000000000000e+03 6.727046966552734375e+01 -2.958622169494628906e+01 1.107552075632579555e-14 -4.100429577044012452e-14 -8.978633097157361770e-15 4.744429319764520078e-15
5.760000000000000000e+03 3.099470901489257812e+01 -1.425049209594726562e+01 -3.793167358987978299e-14 4.183775721700033756e-13 1.141337729621688668e-13 4.789026027953932618e-14
5.761000000000000000e+03 3.575637054443359375e+01 -3.244077301025390625e+01 -2.676495194909016967e-14 2.287217995295548478e-13 6.058705376591963510e-14 -6.370493715201651017e-15
5.762000000000000000e+03 3.182468795776367188e+01 -1.451400566101074219e+01 -7.598357842442463039e-14 3.791941532906711876e-13 9.096317313750032496e-14 -6.171030754540535179e-14
5.763000000000000000e+03 3.009176254272460938e+01 -1.433830928802490234e+01 1.359269176436170984e-14 3.489575436336350700e-13 1.087650748545637702e-13 -8.468249159624546829e-14
5.764000000000000000e+03 6.744577789306640625e+01 -2.661594200134277344e+01 1.429323713965195697e-14 1.090653107649157405e-13 3.700756403255713034e-14 3.914801967840053631e-14
5.765000000000000000e+03 3.748061370849609375e+01 -2.613629531860351562e+01 3.827529791592190755e-14 1.994074935555978367e-13 7.130483947433499670e-14 -5.397110980787794832e-14
5.766000000000000000e+03 6.652845001220703125e+01 -2.812140274047851562e+01 1.399989268935884767e-14 2.887542771079845694e-14 1.286259595064060193e-14 -1.945711082214970217e-14
5.767000000000000000e+03 5.348326110839843750e+01 2.017563629150390625e+01 -4.587760835290943806e-14 -1.111637298596528101e-13 -4.711240281902139004e-14 2.745247876679429710e-13
5.768000000000000000e+03 6.806633758544921875e+01 2.026852989196777344e+01 1.866209925038397194e-14 -3.775290559229586840e-14 -5.727242071980158389e-15 -1.785348941168302117e-13
5.769000000000000000e+03 5.424628067016601562e+01 2.013747787475585938e+01 -1.040046751520952439e-13 -9.032438154626259985e-14 -5.829871633188099533e-14 -3.318782872284886838e-15
5.770000000000000000e+03 7.020774078369140625e+01 1.926507949829101562e+01 1.693159908068217478e-13 -2.476926541476742738e-13 -2.351299934106893669e-14 -4.702752672957472013e-14
5.771000000000000000e+03 5.680566787719726562e+01 2.097947120666503906e+01 -3.384531560178191678e-14 -3.347617864336849269e-13 -1.105821299330136953e-13 7.221137479206801713e-14
5.772000000000000000e+03 7.002528381347656250e+01 -7.759830951690673828e+00 -1.579602774807748605e-14 3.898122195042721949e-14 6.955558853627983110e-15 -1.090102603996077890e-13
5.773000000000000000e+03 6.984357452392578125e+01 -1.731917977333068848e+00 -9.660555097849507500e-14 -4.140237753872712256e-14 -4.140237753872712256e-14 3.410866830947864581e-14
5.774000000000000000e+03 7.045114135742187500e+01 1.874243545532226562e+01 4.269638977224751719e-14 1.555512988381246853e-13 5.947430997124344976e-14 -1.873495119892459870e-13
5.775000000000000000e+03 6.546511840820312500e+01 1.995664215087890625e+01 -5.335036679468031784e-14 -3.088078837781838004e-13 -1.086474728001669832e-13 1.646955683810846782e-13
5.776000000000000000e+03 6.341564178466796875e+01 1.807811737060546875e+01 5.499501594001315538e-15 -1.806468657387233501e-13 -5.254420826932872102e-14 2.313123379903830878e-13
5.777000000000000000e+03 4.961876296997070312e+01 1.941649436950683594e+01 -7.621854536399297331e-14 8.171227908713996069e-14 1.648121874537461767e-15 -6.463725361156510973e-14
5.778000000000000000e+03 5.203871154785156250e+01 2.027780342102050781e+01 -1.865097431965473396e-13 1.488219947666860610e-13 -1.130632114082659456e-14 1.177248267402938864e-13
5.779000000000000000e+03 4.572581100463867188e+01 2.182011604309082031e+01 -5.257801843645132367e-14 2.920043493028628978e-13 7.182789248365989421e-14 -2.464591099021924692e-14
5.780000000000000000e+03 4.504814529418945312e+01 2.334942054748535156e+01 -1.147213698820745420e-13 2.710903333411063265e-13 4.691069378109403998e-14 -2.392561111253313499e-14
5.781000000000000000e+03 5.682586669921875000e+01 2.176892089843750000e+01 9.290222806540918143e-14 1.313171441160929098e-13 6.726580691106612275e-14 1.488714343857514000e-13
5.782000000000000000e+03 3.151633262634277344e+01 1.671445655822753906e+01 5.559295428517185833e-14 -1.820537129252133846e-13 -3.793822962489153128e-14 -6.346418074225368411e-14
5.783000000000000000e+03 3.153050994873046875e+01 1.755329895019531250e+01 3.353750721688149306e-14 -7.712867887768593000e-14 -1.307735183705450999e-14 -2.096185807668338869e-14
5.784000000000000000e+03 3.117512893676757812e+01 1.007202911376953125e+01 -1.637200168188093774e-14 3.218183640581184779e-13 9.163390803524490424e-14 -1.065491011392749598e-13
5.785000000000000000e+03 3.108806228637695312e+01 1.099707984924316406e+01 -5.741326197013923993e-14 6.689621594299297036e-14 2.844884667196814071e-15 -9.016771433233844446e-14
5.786000000000000000e+03 3.243592453002929688e+01 -2.611535072326660156e+00 -7.754638809342670469e-14 1.040186816889110411e-13 7.941687739832122006e-15 -2.706800170289291874e-14
5.787000000000000000e+03 3.084703636169433594e+01 -3.291485786437988281e+00 -1.266934013212026033e-13 3.345859017362534660e-13 6.236774741400982758e-14 -2.288122118263447718e-14
5.788000000000000000e+03 3.495833206176757812e+01 2.338707542419433594e+01 1.721961061153937100e-14 6.456852197009310679e-14 2.453643875805020663e-14 3.295975620795470185e-14
5.789000000000000000e+03 3.502433013916015625e+01 2.455213356018066406e+01 4.910640985641631651e-14 1.582984503027684564e-13 6.222146143588722089e-14 -3.526717390616319198e-15
5.790000000000000000e+03 3.558151626586914062e+01 2.292153930664062500e+01 -1.039686660874415691e-13 2.227991012168639706e-13 3.564913324933215166e-14 -5.777184828616166445e-14
5.791000000000000000e+03 2.962296676635742188e+01 2.283831405639648438e+01 5.170437510212608223e-14 -4.124749858076121045e-13 -1.082311865997775957e-13 -9.331056570862153454e-14
5.792000000000000000e+03 3.262466812133789062e+01 2.413552665710449219e+01 -2.041626281012662303e-13 -1.904379025351524146e-13 -1.183801591909255935e-13 8.034237608967736977e-14
5.793000000000000000e+03 3.119613456726074219e+01 1.735574245452880859e+00 -1.540860267070648382e-13 2.084688216323626886e-13 1.631484220453432304e-14 -2.082356639551696809e-13
5.794000000000000000e+03 6.920436096191406250e+01 1.846682929992675781e+01 1.498512278890265503e-13 -4.047252713090115916e-13 -7.646221302599551239e-14 -8.957242127107401669e-15
5.795000000000000000e+03 4.823059844970703125e+01 2.153415489196777344e+01 -3.304931808366558255e-14 3.158695635781250122e-14 -4.387091212668993174e-16 -2.049091114614178671e-14
5.796000000000000000e+03 4.767030334472656250e+01 2.121104240417480469e+01 -9.329215460048001507e-14 1.887723918153616509e-13 2.864406913158541734e-14 9.390673460195342326e-14
5.797000000000000000e+03 6.887574768066406250e+01 1.033685111999511719e+01 2.590278760526611851e-14 -3.464975295618469286e-14 -2.624089859385456483e-15 8.870364159993190944e-14
5.798000000000000000e+03 6.896295166015625000e+01 9.677345275878906250e+00 2.007417771235624898e-14 -2.659024801558718121e-13 -7.374848886958218497e-14 9.179903880237802460e-14
5.799000000000000000e+03 3.111999320983886719e+01 2.425252723693847656e+01 7.313753416912302519e-14 -1.440629062712198843e-14 1.761937458725961608e-14 2.042370289342542063e-15
5.800000000000000000e+03 3.156508255004882812e+01 1.837450218200683594e+01 1.910128752760122117e-14 -2.663194372063554249e-13 -7.416543914380221980e-14 -3.175050274981778241e-15
5.801000000000000000e+03 3.081826210021972656e+01 1.848115730285644531e+01 5.560679141539820458e-14 -2.191946609300405441e-14 1.010619742731165560e-14 -1.345984006759573526e-13
5.802000000000000000e+03 6.909867858886718750e+01 3.280625581741333008e+00 -1.628845577297463598e-13 -2.405672164837273364e-14 -5.608238686275433815e-14 5.233752206580330468e-14
5.803000000000000000e+03 6.911570739746093750e+01 4.020609378814697266e+00 -1.746392337383453897e-13 -1.205963361941217449e-13 -8.857067097974014036e-14 1.215405001035035903e-13
5.804000000000000000e+03 6.954880523681640625e+01 1.104796504974365234e+01 3.871506386960918422e-14 1.659217095586074803e-14 1.659217095586074803e-14 9.420402961391252661e-14
5.805000000000000000e+03 6.933270263671875000e+01 1.147375106811523438e+01 8.712083687117695013e-15 -2.478964570510472365e-13 -7.175531870073914575e-14 -5.036400983760014327e-14
5.806000000000000000e+03 7.046407318115234375e+01 1.579334926605224609e+01 4.193285055666996775e-14 -3.480363783628370733e-13 -9.183105664778423716e-14 1.052423275073712319e-14
5.807000000000000000e+03 5.200990676879882812e+01 2.100482177734375000e+01 -1.393322848590450302e-13 -1.969666834147898449e-13 -1.008896877716450313e-13 9.623277516654024644e-14
5.808000000000000000e+03 7.096807861328125000e+01 1.426029491424560547e+01 4.875911618364668632e-14 -7.060513604979432034e-14 -6.553804350481690424e-15 1.792922432156292267e-14
5.809000000000000000e+03 4.672101211547851562e+01 2.153565216064453125e+01 -8.050643176024218760e-16 2.284097119342048954e-13 6.828139263856045083e-14 -6.021500301416765621e-14
5.810000000000000000e+03 4.729308319091796875e+01 2.191088104248046875e+01 -1.063295230942923331e-13 4.593210306460399073e-14 -1.811922736415921831e-14 5.511609845279021036e-14
5.811000000000000000e+03 6.833476257324218750e+01 -1.763184928894042969e+01 3.676783337969342924e-14 -1.214952075577480084e-13 -2.541821022053730034e-14 4.572494252262811198e-14
5.812000000000000000e+03 3.161304092407226562e+01 -5.687911987304687500e+00 -1.428858116894748953e-13 2.590198563447165814e-13 3.484021678470429484e-14 7.886975848889893337e-14
5.813000000000000000e+03 7.054648590087890625e+01 1.224240970611572266e+01 1.345998541844948410e-14 -1.772352338676175254e-13 -4.913257301009110734e-14 1.059966052647035029e-13
5.814000000000000000e+03 6.872781372070312500e+01 -2.856575727462768555e+00 -7.694349037036182781e-14 -2.617305244062562153e-13 -1.016022051106117707e-13 -3.691017218428183089e-14
5.815000000000000000e+03 6.967801666259765625e+01 -4.589445590972900391e+00 -2.148433205428554316e-13 -4.632475704576498321e-14 -7.835041887201479871e-14 1.609860519630884612e-13
5.816000000000000000e+03 3.125914573669433594e+01 1.157215213775634766e+01 -1.186714029995095121e-13 1.321446207666610029e-13 4.041966685398162840e-15 4.118082760104328777e-14
5.817000000000000000e+03 4.226374435424804688e+01 2.247506904602050781e+01 -1.019534798382334961e-13 4.780754920630583826e-14 -1.624377952839147626e-14 1.870440244746210401e-13
5.818000000000000000e+03 4.274789047241210938e+01 2.259093475341796875e+01 3.802880455200732812e-14 1.629805909371742634e-14 1.629805909371742634e-14 -1.057126679623225998e-14
5.819000000000000000e+03 3.077298355102539062e+01 1.511275005340576172e+01 3.548145799522547938e-14 1.295837081301959293e-13 4.951955187050549601e-14 2.338011173010599852e-14
5.820000000000000000e+03 3.151633262634277344e+01 1.586832904815673828e+01 3.831585724156823247e-14 -2.932986766326396710e-14 2.695796704084690160e-15 -2.245660017804410741e-14
5.821000000000000000e+03 4.465924835205078125e+01 2.204102134704589844e+01 -1.146038694716314255e-13 2.711406945320182782e-13 4.696104819574241362e-14 -2.670763661768126018e-14
5.822000000000000000e+03 3.048204612731933594e+01 2.192341232299804688e+01 8.910335983587300279e-14 -4.193223459431072442e-13 -9.906569379929119901e-14 -2.133617887673400909e-14
5.823000000000000000e+03 3.129152870178222656e+01 2.523928403854370117e+00 -6.593866213678092891e-14 1.318688946016707830e-13 1.977906973946695623e-14 6.486258978652317125e-15
5.824000000000000000e+03 3.047014808654785156e+01 4.829102039337158203e+00 -8.248665693631057616e-14 1.934033174496446739e-13 3.327499815400022931e-14 -2.156834086669751939e-15
5.825000000000000000e+03 5.917885589599609375e+01 2.142601013183593750e+01 -6.603928287465116176e-14 -9.496311343618751843e-14 -4.830071889325160406e-14 7.546248375527378482e-14
5.826000000000000000e+03 3.947531509399414062e+01 2.274504280090332031e+01 -1.192948412715453058e-14 1.321402161953352805e-13 3.606321716405867794e-14 3.951048201718959652e-14
5.827000000000000000e+03 4.004577255249023438e+01 2.242024612426757812e+01 -1.998589485639572227e-14 -5.431633333212448900e-14 -2.229066811774288448e-14 6.828125711328889014e-14
5.828000000000000000e+03 6.012845993041992188e+01 2.050842094421386719e+01 -2.932900368965776772e-14 -1.955733616504015671e-13 -6.747071434540230506e-14 1.813322983521686860e-13
5.829000000000000000e+03 7.053593444824218750e+01 5.688325405120849609e+00 -1.643154742044655725e-13 -2.076737626267519121e-13 -1.115967737598706766e-13 5.405363114573125127e-14
5.830000000000000000e+03 3.135540771484375000e+01 3.329864978790283203e+00 -9.166673225601690289e-14 2.809709116844555377e-13 5.679124840752072800e-14 -1.699157443435864168e-13
5.831000000000000000e+03 3.729530715942382812e+01 2.259840965270996094e+01 4.667550661295941095e-14 -6.434952668377819096e-14 -5.302205597729160377e-15 6.498036294157530368e-14
5.832000000000000000e+03 3.205505752563476562e+01 2.444439888000488281e+01 6.906294655086020473e-14 4.103614420925688622e-14 3.302972790566148509e-14 9.751150353756038447e-14
5.833000000000000000e+03 2.959443092346191406e+01 2.200700950622558594e+01 6.854646651720600059e-14 -1.637389056535331483e-14 1.565177295496239518e-14 6.339348737247584020e-15
5.834000000000000000e+03 6.916869354248046875e+01 -5.338304519653320312e+00 -9.357845851291554662e-14 -1.316069513567982852e-13 -6.755562092803507612e-14 -6.293243378675816846e-14
5.835000000000000000e+03 3.897694015502929688e+01 2.208906936645507812e+01 -2.661429019876204727e-14 -1.140612449190272701e-14 -1.140612449190272701e-14 -1.484549415093228825e-14
5.836000000000000000e+03 3.040622138977050781e+01 7.923399448394775391e+00 -1.157713112659095045e-13 2.248894159003617110e-13 3.273543139033566196e-14 2.868506891436431450e-14
5.837000000000000000e+03 3.122704315185546875e+01 8.576543807983398438e+00 -1.120309357435789188e-13 3.637452752197622985e-13 7.551430184285501390e-14 -1.034500921883417524e-13
5.838000000000000000e+03 6.979743194580078125e+01 1.838378906250000000e+00 -2.694672555838412142e-13 -2.527388021089649328e-13 -1.566618200183472753e-13 1.696195945201720012e-13
5.839000000000000000e+03 6.979953765869140625e+01 3.788867890834808350e-01 -2.057818298357647069e-13 -2.254450559612333760e-13 -1.293680603180885624e-13 1.911044835833236588e-13
5.840000000000000000e+03 6.363069534301757812e+01 1.907940673828125000e+01 -3.305214378557762289e-14 -1.742935223231212305e-13 -6.220370084904919272e-14 1.508275519453497471e-13
5.841000000000000000e+03 3.163089752197265625e+01 1.917375183105468750e+01 4.304716729152920432e-15 9.334677806118255039e-14 2.929544763241934136e-14 -4.393185170032190556e-14
5.842000000000000000e+03 3.317332077026367188e+01 2.380039787292480469e+01 6.286210294708174939e-14 1.184427989714409435e-13 5.439146854267773445e-14 1.615214221020158571e-15
5.843000000000000000e+03 6.964411163330078125e+01 -9.741519927978515625e+00 -7.744958239195090521e-14 -1.704455261826443024e-13 -7.436853053949948889e-14 4.062890770887596370e-14
5.844000000000000000e+03 3.618263626098632812e+01 2.244714927673339844e+01 -9.370834593317931005e-14 5.134117753873880530e-14 -1.271015119595850923e-14 9.134646571052826292e-14
5.845000000000000000e+03 3.377741622924804688e+01 2.361428642272949219e+01 -2.390449220946583297e-13 -1.481987818054142370e-13 -1.161731165910326324e-13 4.995978877451144606e-14
5.846000000000000000e+03 3.048144340515136719e+01 4.061425209045410156e+00 -4.630172791399503329e-14 3.461639883160089193e-13 8.995868015348323921e-14 -1.917670124258752384e-13
5.847000000000000000e+03 3.046623802185058594e+01 3.286904573440551758e+00 -3.790796683175202964e-14 2.582594240459895607e-13 6.610543275969993360e-14 2.628477574755528484e-14
5.848000000000000000e+03 7.054709625244140625e+01 7.192110061645507812e+00 -5.592345298866333025e-14 -2.984728891992916022e-13 -1.063189046892655532e-13 4.065201815580885003e-14
5.849000000000000000e+03 6.850375366210937500e+01 1.934811592102050781e+01 -3.048316739545468834e-14 -4.705737210487781486e-13 -1.503170553524349473e-13 6.943051141612352484e-14
5.850000000000000000e+03 3.169347572326660156e+01 2.393273735046386719e+01 -4.381469010305769074e-14 -6.452867076399068647e-14 -3.250300893774087096e-14 -2.626708631148482603e-14
5.851000000000000000e+03 5.832330703735351562e+01 2.139024162292480469e+01 -3.131691208983246322e-14 -1.342153351077592788e-14 -1.342153351077592788e-14 8.771104773475785210e-14
5.852000000000000000e+03 3.127714920043945312e+01 -7.549341320991516113e-01 2.635982286668201585e-14 1.485499142315008236e-13 5.247292197648779910e-14 -3.874744085698503260e-14
5.853000000000000000e+03 3.078293609619140625e+01 1.350695323944091797e+01 4.068312459376381696e-14 1.546884771967335648e-13 5.861148155358875123e-14 -5.366070611402713741e-15
5.854000000000000000e+03 6.903910827636718750e+01 9.018681526184082031e+00 1.085168332146460579e-13 9.225816454110774556e-14 6.023249932672614104e-14 3.867202443149329871e-14
5.855000000000000000e+03 3.043216514587402344e+01 6.373434066772460938e+00 -4.527633693310328944e-14 4.381053354297892444e-13 1.178486968385003553e-13 -1.706759326968246282e-13
5.856000000000000000e+03 5.067853927612304688e+01 2.032574653625488281e+01 -1.214918058734318351e-13 1.538113576391927917e-13 9.695864174475571362e-15 1.173798336090089989e-13
5.857000000000000000e+03 6.907302093505859375e+01 2.557521581649780273e+00 -2.251394193688097123e-13 -2.794921141312939339e-13 -1.513894668262946719e-13 9.631988403483587868e-14
5.858000000000000000e+03 3.152800750732421875e+01 1.502322196960449219e+01 -9.257005562481393501e-14 1.204554441218072536e-13 8.365616718504585020e-15 -2.423873928785878935e-15
5.859000000000000000e+03 6.795468139648437500e+01 1.961717224121093750e+01 1.362891055437312482e-13 -7.884322941699092868e-14 1.723375944989030684e-14 -1.817672125011340900e-13
5.860000000000000000e+03 3.182983207702636719e+01 8.277534246444702148e-01 -1.171503622192024419e-13 4.988040687957384645e-13 1.144961133282135224e-13 -1.511179554972499894e-13
5.861000000000000000e+03 3.143762397766113281e+01 1.262613582611083984e+01 -7.257948175841757998e-14 6.039640359015163718e-14 -3.654924297512730097e-15 -1.722069989590954003e-14
5.862000000000000000e+03 3.222225570678710938e+01 1.232341098785400391e+01 -4.304391044984701153e-14 5.017903139444696015e-14 2.140536113973395133e-15 -3.307250984576140529e-14
5.863000000000000000e+03 6.423332214355468750e+01 1.937096786499023438e+01 -1.697661108912562611e-13 -3.472626103773884809e-13 -1.551086190910988538e-13 6.509953878318808923e-15
5.864000000000000000e+03 6.657550811767578125e+01 1.959893608093261719e+01 1.513320854263158766e-13 4.198113482279525188e-14 5.799396742998605414e-14 -1.140234689436456228e-13
5.865000000000000000e+03 6.983957672119140625e+01 7.069605827331542969e+00 1.556538575873782360e-14 -8.483102051761240436e-14 -2.077969008884919533e-14 1.160364529071908346e-13
5.866000000000000000e+03 3.120125770568847656e+01 -8.919900894165039062e+00 4.277265323068650538e-14 3.385877732700603993e-13 1.144081303219163237e-13 -6.286074091810256448e-14
5.867000000000000000e+03 6.681099700927734375e+01 -1.696073722839355469e+01 -6.673031437587784859e-15 6.004768351389883074e-14 1.601239553819001904e-14 5.125009100372286686e-14
5.868000000000000000e+03 3.437332534790039062e+01 -1.314658546447753906e+01 1.152021051253546147e-14 3.637962327218691172e-13 1.125949377137058782e-13 6.448974705896550960e-15
5.869000000000000000e+03 3.239379501342773438e+01 -9.405375480651855469e+00 3.088765273282292889e-14 3.792451650028866306e-13 1.230398432878337944e-13 -1.454169392593827187e-14
5.870000000000000000e+03 6.822059631347656250e+01 -1.866361618041992188e+01 1.296265341160091067e-13 2.156825472344678363e-13 1.035927257603957985e-13 1.262903508576470116e-14
5.871000000000000000e+03 3.280937194824218750e+01 -1.466745495796203613e+00 -2.266630012479585454e-14 5.850482316487048973e-13 1.687145703092168825e-13 9.196059678453962632e-15
5.872000000000000000e+03 3.236356735229492188e+01 -8.155081868171691895e-01 -1.576798723057840079e-13 3.441814433284562380e-13 5.595046995154895342e-14 -1.215018787892405833e-14
5.873000000000000000e+03 3.004801177978515625e+01 -1.800941085815429688e+01 -8.503371380782446393e-15 2.251104440657500372e-13 6.498211799384201459e-14 1.739687258454306745e-14
5.874000000000000000e+03 3.053930473327636719e+01 2.279962539672851562e+01 1.087411681966604649e-13 -2.202306499871683337e-14 2.601543112878967889e-14 -1.589288088339833177e-14
5.875000000000000000e+03 5.837649917602539062e+01 2.249798393249511719e+01 -2.546638945457712494e-14 -2.396689075499780497e-13 -7.954058825433360513e-14 4.485423331043215944e-14
5.876000000000000000e+03 6.605240631103515625e+01 -2.432644271850585938e+01 4.520844216018317374e-14 1.737845029556664422e-13 6.569788116306263248e-14 -5.731192210129678818e-15
5.877000000000000000e+03 6.698956298828125000e+01 -2.023780250549316406e+01 3.757811187330047098e-14 1.076068013449067717e-13 4.355547430427535172e-14 -3.040077480660936804e-14
5.878000000000000000e+03 6.914326477050781250e+01 -1.310116958618164062e+01 6.652749657182254264e-15 -7.721298237286025601e-14 -2.116806994175834261e-14 -2.710093942607984946e-14
5.879000000000000000e+03 6.719446563720703125e+01 -2.374883842468261719e+01 5.089184011274755504e-14 -1.064686109864291727e-15 1.494814607381003690e-14 1.059657783476211299e-14
5.880000000000000000e+03 3.217089462280273438e+01 -2.063767623901367188e+01 5.030302007726604463e-14 3.646905639888980977e-13 1.244980681047724858e-13 -4.576192736923702375e-14
5.881000000000000000e+03 3.119154930114746094e+01 -1.508164024353027344e+01 -2.823322935304687503e-14 1.709038455460082373e-13 4.280118130035003021e-14 3.125705735364768534e-14
5.882000000000000000e+03 3.374480438232421875e+01 -2.430318069458007812e+01 2.981211401332194144e-14 2.415313771469279613e-13 8.140304429875636072e-14 -1.008730181632430667e-13
5.883000000000000000e+03 6.515684509277343750e+01 -2.721262359619140625e+01 5.061260045509212435e-14 1.883168032862196639e-14 2.083328355748786942e-14 1.044810058240495942e-14
5.884000000000000000e+03 6.306464767456054688e+01 -3.102026367187500000e+01 2.142678937923359062e-14 1.235602874356811487e-13 4.349612101159534838e-14 3.365464975590439466e-15
5.885000000000000000e+03 3.552129364013671875e+01 -2.509458541870117188e+01 3.995710554961784400e-14 2.458792175939750191e-13 8.575089829833057453e-14 1.811864460549150735e-14
5.886000000000000000e+03 5.865719604492187500e+01 2.096483039855957031e+01 -1.190035297003256068e-14 2.922810105922268864e-13 8.411420025127361311e-14 2.793057474011402010e-15
5.887000000000000000e+03 6.868874359130859375e+01 1.806860351562500000e+01 6.872981188083687742e-14 1.781462211905213144e-13 7.406281263191288877e-14 -6.389028490153469617e-15
5.888000000000000000e+03 3.099065017700195312e+01 2.011428070068359375e+01 2.944550121309133517e-14 1.498723427263357055e-13 5.379535385945447001e-14 -2.412073192819674111e-14
5.889000000000000000e+03 7.077975463867187500e+01 1.956709289550781250e+01 -6.958457654483371502e-14 1.592898820387388809e-14 -1.609667531644182192e-14 -3.786087518801647955e-14
5.890000000000000000e+03 6.984258270263671875e+01 -3.346279561519622803e-01 -2.275669615855319128e-13 2.227279368967674533e-13 -1.451709121871056028e-15 6.117605337238596341e-14
5.891000000000000000e+03 6.927713012695312500e+01 -1.048887252807617188e+00 -1.700635753098048153e-13 -7.288439329063839400e-14 -7.288439329063839400e-14 1.154193775466548152e-14
5.892000000000000000e+03 6.795353698730468750e+01 1.844048309326171875e+01 -4.421455877205021645e-13 -2.809928667784483691e-13 -2.169415363496851601e-13 1.380621284614511057e-13
5.893000000000000000e+03 3.292316436767578125e+01 2.121553230285644531e+01 7.009821732404872274e-14 3.004209362289685104e-14 3.004209362289685104e-14 1.580563479576524433e-13
5.894000000000000000e+03 3.071458435058593750e+01 2.360527038574218750e+01 -5.675083138340954181e-14 -1.958878480430581437e-13 -7.579160010099533773e-14 2.467351918210205358e-14
5.895000000000000000e+03 3.327571487426757812e+01 -5.293986797332763672e+00 -9.089986250689074954e-14 3.499259801191534347e-13 7.770783934943695237e-14 -8.603291961218478834e-14
5.896000000000000000e+03 6.587525177001953125e+01 1.933683967590332031e+01 -6.366954218624959472e-14 -2.728694616723099930e-14 -2.728694616723099930e-14 1.637921501445975536e-14
5.897000000000000000e+03 4.885385131835937500e+01 2.001967048645019531e+01 -1.344585250431795664e-13 3.387681845115619872e-14 -3.017451197760701032e-14 -1.187973788216228552e-14
5.898000000000000000e+03 5.142318725585937500e+01 1.955508613586425781e+01 -1.715910535405110182e-13 1.094647715028408685e-13 -1.863788427248786600e-14 1.423533057924586398e-14
5.899000000000000000e+03 5.591628265380859375e+01 2.016037178039550781e+01 1.658523036789094629e-14 -2.673977304770008834e-13 -7.524375274323841234e-14 -1.700055433885225287e-14
5.900000000000000000e+03 5.757884597778320312e+01 2.006303024291992188e+01 -4.800935650005506983e-14 4.805098308721493516e-14 1.248797548621511072e-17 2.989036630512108272e-14
5.901000000000000000e+03 3.229453659057617188e+01 1.745756530761718750e+01 6.148572184163855758e-14 -1.337772937131526119e-13 -2.168747393314646860e-14 -5.284360392299701503e-14
5.902000000000000000e+03 3.232656097412109375e+01 1.826241302490234375e+01 5.663653508684765147e-16 9.174462540584640835e-14 2.769329667114909382e-14 1.182198463471964556e-14
5.903000000000000000e+03 4.512668228149414062e+01 2.133164215087890625e+01 -6.955977542013810910e-14 6.169056828960253758e-14 -2.360763409710092339e-15 -3.750424382403631796e-14
5.904000000000000000e+03 4.614793014526367188e+01 2.111073112487792969e+01 -2.324646822694093062e-13 4.334398711800489801e-14 -5.673621159473993258e-14 -8.313677505211898577e-15
5.905000000000000000e+03 6.119658660888671875e+01 2.041226768493652344e+01 -1.759612522692338005e-14 -3.277978474595932834e-13 -1.036181909589220518e-13 1.069938476466920918e-13
5.906000000000000000e+03 3.315170669555664062e+01 9.468866348266601562e+00 -9.038414819102086328e-14 1.671432089955793288e-13 2.302771722492800294e-14 -4.711586210157797661e-14
5.907000000000000000e+03 3.205810546875000000e+01 1.140469169616699219e+01 -8.418177992793735021e-14 1.469258877973347865e-13 1.882323202200605200e-14 -1.302801996058006173e-13
5.908000000000000000e+03 7.040390014648437500e+01 1.506009960174560547e+01 3.815084251794888595e-15 -2.728706475184361491e-13 -8.071666978467367803e-14 -3.705944649464235074e-14
5.909000000000000000e+03 4.858374786376953125e+01 2.079188919067382812e+01 -3.000624718856904904e-14 -1.285981937663950234e-14 -1.285981937663950234e-14 9.342889959948474932e-14
5.910000000000000000e+03 3.785466384887695312e+01 2.205500602722167969e+01 -1.582862801333823066e-13 1.609177607787490305e-13 7.894446065385789506e-16 -1.431141446670003425e-14
5.911000000000000000e+03 4.293192672729492188e+01 2.189628601074218750e+01 -1.036467596861670448e-13 -4.442004083353781607e-14 -4.442004083353781607e-14 1.695231073030843694e-14
5.912000000000000000e+03 3.227626037597656250e+01 1.663021087646484375e+01 1.937683242754072860e-14 -1.060730144128094188e-13 -2.600885476498719651e-14 -7.071390185648535054e-14
5.913000000000000000e+03 6.905330657958984375e+01 1.760386848449707031e+01 -3.822706108364166966e-14 -3.823906252406472639e-13 -1.261853035255944278e-13 5.498678701493057985e-14
5.914000000000000000e+03 6.808841705322265625e+01 1.010248279571533203e+01 -5.642972458123722557e-14 -6.993511943598901270e-14 -3.790945422160740819e-14 6.933569793613966747e-14
5.915000000000000000e+03 6.822954559326171875e+01 9.461828231811523438e+00 1.392766110774878996e-14 -3.978195268865281076e-14 -7.756286627238258985e-15 1.453602049925756257e-13
5.916000000000000000e+03 6.843081665039062500e+01 3.978847026824951172e+00 -9.310956817836987809e-14 -3.990410161591045890e-14 -3.990410161591045890e-14 9.186343363516008553e-14
5.917000000000000000e+03 6.839748382568359375e+01 3.279870510101318359e+00 -1.854755227442134169e-13 -1.709914084239635979e-13 -1.069400847714639669e-13 1.075389031838548670e-13
5.918000000000000000e+03 6.975355529785156250e+01 1.577312946319580078e+01 5.057755023173474140e-14 -2.528296040409105938e-13 -6.067561275462096670e-14 -1.677232300528047615e-13
5.919000000000000000e+03 6.841928100585937500e+01 1.124264717102050781e+01 -4.446466591733096163e-14 -1.591685632037695419e-13 -6.108996771989061436e-14 1.490762672811882239e-13
5.920000000000000000e+03 6.989796447753906250e+01 1.185625743865966797e+01 6.946862789874996835e-14 -1.989824727514563629e-13 -3.885415684394370739e-14 -5.552232528989800575e-14
5.921000000000000000e+03 7.041339874267578125e+01 1.377379512786865234e+01 3.283707873213796702e-15 -2.387851743591851150e-13 -7.065044214807705836e-14 -5.720009427050143369e-14
5.922000000000000000e+03 3.840455627441406250e+01 2.146963500976562500e+01 -3.251011723823422905e-14 -1.969367052247206207e-13 -6.883404436719420261e-14 7.620664624514994490e-14
5.923000000000000000e+03 4.711840057373046875e+01 2.085178756713867188e+01 -1.680982691367946535e-13 1.945977897593355321e-14 -4.459154806469786680e-14 4.882430722739916629e-14
5.924000000000000000e+03 4.345402145385742188e+01 2.068413162231445312e+01 -8.200102923072716266e-14 4.888781521668545196e-15 -2.313367427036593788e-14 -5.848746830681419637e-15
5.925000000000000000e+03 5.592596435546875000e+01 1.942522811889648438e+01 -1.566552368782812149e-14 1.305390528744815315e-13 3.446205723133671794e-14 2.045108467340142622e-13
5.926000000000000000e+03 5.767478179931640625e+01 2.112949943542480469e+01 -6.248848010217966653e-14 2.019739627281968986e-13 4.184564343255245400e-14 7.877686269150765974e-14
5.927000000000000000e+03 5.134949874877929688e+01 2.031310653686523438e+01 -6.014238857366543956e-14 -9.440173388006525834e-14 -4.636323605849285157e-14 -1.035158626026301543e-13
5.928000000000000000e+03 5.351327514648437500e+01 1.947374725341796875e+01 -2.225081182944278063e-14 -5.528700937275539407e-14 -2.326134585243968406e-14 2.705869619893438299e-14
5.929000000000000000e+03 6.163534545898437500e+01 1.972724914550781250e+01 -7.489207821606558291e-14 -1.693494519963700817e-13 -7.327245635322526818e-14 1.512371499735876146e-13
5.930000000000000000e+03 6.895256042480468750e+01 1.097573471069335938e+01 2.011550275578689179e-14 -8.288096771391639805e-14 -1.882963897921908353e-14 -6.545410508084284484e-14
5.931000000000000000e+03 6.989752960205078125e+01 -1.046382331848144531e+01 -3.340858880230938854e-14 -1.058198667580612096e-13 -4.176853632929800053e-14 -3.300970743492018245e-14
5.932000000000000000e+03 6.876204681396484375e+01 -1.230911731719970703e+01 -1.616343337114672235e-14 -1.441800373752979980e-13 -4.810303834402139544e-14 9.697873336626458562e-14
5.933000000000000000e+03 3.437821578979492188e+01 2.258391571044921875e+01 -1.850708984934418266e-13 4.649900866367413788e-14 -4.157156728774348553e-14 -7.485829854212908141e-14
5.934000000000000000e+03 3.676159667968750000e+01 2.195248985290527344e+01 4.800146215298665975e-14 6.346357087853166101e-14 3.343950889301595952e-14 3.294816540910447400e-14
5.935000000000000000e+03 6.687702941894531250e+01 -1.448855781555175781e+01 -4.181174856213512592e-14 5.070710222695139213e-14 2.668606311203116678e-15 4.734410614064396214e-15
5.936000000000000000e+03 6.485028076171875000e+01 1.964798736572265625e+01 -8.698308729109677229e-14 3.134795754141522783e-14 -1.669054028015717894e-14 7.104943532381530202e-14
5.937000000000000000e+03 6.460832214355468750e+01 1.868343925476074219e+01 -7.643333936688950780e-14 -1.585722520089025145e-13 -7.050167605748489108e-14 2.599393173852247024e-14
5.938000000000000000e+03 6.304373550415039062e+01 1.875749397277832031e+01 -3.790241368374983044e-14 -2.449986285894822924e-13 -8.487031607010142586e-14 -2.430813119151317703e-14
5.939000000000000000e+03 4.129231262207031250e+01 2.196227836608886719e+01 -4.867027259187507726e-14 1.163941583089481147e-13 2.031716605393509012e-14 3.071891021720271620e-14
5.940000000000000000e+03 3.323330307006835938e+01 -2.267933368682861328e+00 -3.149143137015295024e-14 1.695074609104826879e-13 4.140481021735163691e-14 -9.952732421444595093e-16
5.941000000000000000e+03 3.209002685546875000e+01 -1.947513937950134277e+00 -8.521358125417391460e-14 2.722987850825586698e-13 5.612556521427357337e-14 -1.250825614959594212e-13
5.942000000000000000e+03 4.504657363891601562e+01 2.008821105957031250e+01 2.026183277962275570e-14 1.001855391181971644e-13 3.613421207756574438e-14 -1.784545411833218798e-13
5.943000000000000000e+03 4.226839447021484375e+01 2.189386558532714844e+01 7.479765775936925154e-14 2.608108770184996983e-13 1.006825577228552537e-13 1.415080617787889405e-13
5.944000000000000000e+03 6.911930847167968750e+01 4.764750480651855469e+00 -5.210533000617016686e-14 -6.808180457113302553e-14 -3.605613935675142101e-14 8.790616346822377469e-14
5.945000000000000000e+03 6.579573059082031250e+01 2.048514175415039062e+01 6.760737125298052486e-14 -6.252730809248180366e-14 1.524018736391379546e-15 5.378194363383353993e-14
5.946000000000000000e+03 5.681394195556640625e+01 2.018475532531738281e+01 -8.684714189119424610e-14 5.428169307271357713e-14 -9.769634814950790141e-15 1.297634688503940259e-13
5.947000000000000000e+03 6.839612579345703125e+01 -3.549459695816040039e+00 -1.198931226650476467e-13 1.773719788666222597e-13 1.724365448878013157e-14 1.256601295457696055e-13
5.948000000000000000e+03 6.838813018798828125e+01 -5.969768524169921875e+00 -1.610955970400909654e-13 7.393074325477699826e-14 -2.614945715203372684e-14 7.596144714757877003e-14
5.949000000000000000e+03 3.356670761108398438e+01 2.286374282836914062e+01 2.422647552133196797e-14 -2.393043581220069549e-14 8.881168245229920837e-17 2.138571302467626167e-13
5.950000000000000000e+03 6.888409423828125000e+01 1.892109107971191406e+01 1.147342718879271195e-13 3.420879988582183930e-15 3.544654329713965712e-14 9.456040686800851192e-14
5.951000000000000000e+03 6.728575897216796875e+01 1.967404747009277344e+01 -8.679035680241031780e-14 8.555082742212321428e-15 -2.347058162513633583e-14 5.482077194540052600e-14
5.952000000000000000e+03 6.901926422119140625e+01 -2.193255186080932617e+00 -1.340129043977608680e-13 -1.168315424059877122e-14 -4.370881776091448123e-14 4.375192157353435807e-14
5.953000000000000000e+03 3.506478118896484375e+01 2.219075393676757812e+01 -1.636432078711523574e-14 1.188018325208595183e-13 3.073125318131010586e-14 1.048141743753908117e-13
5.954000000000000000e+03 7.019654846191406250e+01 -8.633608818054199219e+00 -8.724864228445636249e-14 -2.203960755217670986e-13 -9.229341466424068052e-14 8.937017521425810740e-15
5.955000000000000000e+03 6.942632293701171875e+01 -8.924865722656250000e+00 -1.100438303306382204e-13 -2.301654418272736091e-13 -1.020627809697471911e-13 -7.912843557472681866e-14
5.956000000000000000e+03 3.569168853759765625e+01 2.177807044982910156e+01 -9.654533032407708326e-14 5.012532611745924849e-14 -1.392600177020511878e-14 -9.888229422555169790e-14
5.957000000000000000e+03 5.018899536132812500e+01 1.949520683288574219e+01 -3.455842586381173420e-14 1.681930419591970427e-13 4.009038448980241365e-14 1.107539014384532894e-13
5.958000000000000000e+03 6.909460449218750000e+01 8.346138954162597656e+00 -1.329291409883420413e-14 -5.696963185214658915e-15 -5.696963185214658915e-15 -3.422341416877729137e-14
5.959000000000000000e+03 6.865127563476562500e+01 -9.285719871520996094e+00 -5.430188972630790867e-14 -1.605250898569290929e-13 -6.444809421378427938e-14 5.201338627381160706e-14
5.960000000000000000e+03 6.903635406494140625e+01 1.101708054542541504e+00 -3.167998632522261993e-13 -2.730242247561687208e-13 -1.769472291130239072e-13 1.270213047157436881e-13
5.961000000000000000e+03 6.979253387451171875e+01 1.107505440711975098e+00 -1.165412167811186173e-13 8.730661321936644681e-14 -8.770379882679524980e-15 5.580023002362856366e-14
5.962000000000000000e+03 3.192599105834960938e+01 -2.478792071342468262e-01 -2.370717825609519602e-13 2.644053866910495154e-13 8.200081069622677105e-15 7.913357875878254677e-14
5.963000000000000000e+03 3.249541473388671875e+01 3.756489753723144531e-01 -9.109902366971275867e-14 1.439613537971076718e-13 1.585869971584483173e-14 -1.131239335061887119e-13
5.964000000000000000e+03 4.009385681152343750e+01 2.178832435607910156e+01 -9.992446831726033846e-15 8.721942303590787815e-14 2.316809260714466912e-14 1.211613817088397216e-13
5.965000000000000000e+03 6.912880706787109375e+01 6.228498935699462891e+00 -1.204795676201450561e-13 -3.261398041822655136e-13 -1.339858128959758865e-13 1.045792887509854052e-13
5.966000000000000000e+03 6.983043670654296875e+01 7.793886661529541016e+00 -2.972735989661967615e-14 -3.329969492423673350e-13 -1.088172927416961033e-13 7.513153104212258460e-14
5.967000000000000000e+03 3.132260513305664062e+01 2.282406997680664062e+01 7.384785599869048145e-15 -2.713407840429504780e-13 -7.918679953292442897e-14 1.929970397905600432e-13
5.968000000000000000e+03 3.041633415222167969e+01 7.144804000854492188e+00 -6.869475149308412742e-14 4.280688759190909298e-13 1.078122373278020407e-13 -1.149750325328546818e-13
5.969000000000000000e+03 6.832688140869140625e+01 2.581661701202392578e+00 -6.628070759340937146e-14 1.088468304746327553e-13 1.276983567852088899e-14 1.364042749195035209e-13
5.970000000000000000e+03 6.983747863769531250e+01 6.336179733276367188e+00 -1.077491028800454942e-13 -1.376800827209215261e-13 -7.362875906842189511e-14 1.080892171015541969e-13
5.971000000000000000e+03 3.227226257324218750e+01 3.343076229095458984e+00 -9.269356658105076807e-14 2.576553608055892619e-13 4.948853352397704353e-14 6.154382152555662455e-14
5.972000000000000000e+03 3.282268905639648438e+01 2.318265724182128906e+01 -3.475588957260744571e-13 9.695753721379249401e-14 -7.518040823131094674e-14 1.458716434861277722e-14
5.973000000000000000e+03 3.154214859008789062e+01 1.418809700012207031e+01 1.208259359094198109e-15 2.063971010161230746e-13 6.228160755140585425e-14 -6.941821927399297043e-14
5.974000000000000000e+03 3.227231979370117188e+01 1.579335498809814453e+01 -1.464220285545946715e-14 1.660024487391397602e-14 5.874125314209697763e-16 -1.366012066916083567e-13
5.975000000000000000e+03 6.835297393798828125e+01 -1.518902492523193359e+01 -6.921218697990283442e-14 -1.211642683971239642e-13 -5.711293796836075520e-14 1.619644766611208486e-13
5.976000000000000000e+03 6.712365722656250000e+01 -1.536624526977539062e+01 -1.874991285009171976e-14 -1.452885256764471777e-13 -4.921153003330236420e-14 -2.257615210228547387e-14
5.977000000000000000e+03 3.153467559814453125e+01 1.337891006469726562e+01 -4.536520424179742161e-14 7.205966780308298292e-14 8.008339915418615645e-15 -7.478348859222758160e-14
5.978000000000000000e+03 3.228854370117187500e+01 1.494842243194580078e+01 4.560548716014273252e-14 -3.330265674434339761e-15 1.268256672099822568e-14 -1.101144661021756510e-13
5.979000000000000000e+03 3.233227920532226562e+01 1.321560668945312500e+01 -5.600028565324287333e-14 4.462630013245781624e-14 -3.412195995048696029e-15 -1.879996063881318735e-14
5.980000000000000000e+03 6.912153625488281250e+01 5.501183986663818359e+00 -1.285042764472693611e-13 -1.008242087366904849e-13 -6.879854352230888037e-14 5.081166675022404100e-14
5.981000000000000000e+03 6.919968414306640625e+01 -8.020724296569824219e+00 -6.456060051797038457e-14 -2.766882927743470610e-14 -2.766882927743470610e-14 4.791269310011440907e-14
5.982000000000000000e+03 6.995539855957031250e+01 -5.792330265045166016e+00 -1.768436742530243855e-13 -7.163720165031042808e-15 -5.520221798660344958e-14 -3.399390974468579144e-16
5.983000000000000000e+03 3.121339988708496094e+01 7.874772548675537109e+00 -1.382352077857612604e-13 3.982658387108317655e-13 7.800918656701572029e-14 -1.316197856000150823e-13
5.984000000000000000e+03 3.304116439819335938e+01 -2.525629997253417969e-01 -2.068467603146342815e-13 2.659212368534558113e-13 1.772234499452553236e-14 -5.336229979484123642e-14
5.985000000000000000e+03 6.890694427490234375e+01 -6.999031066894531250e+00 -9.248743264300696154e-14 -5.107520919330095499e-14 -4.306879288970555386e-14 -5.924010874945942473e-14
5.986000000000000000e+03 6.986506652832031250e+01 -6.774860858917236328e+00 -7.431177255576987273e-14 -3.184790010380723901e-14 -3.184790010380723901e-14 1.539837796659358771e-14
5.987000000000000000e+03 3.114221572875976562e+01 2.091308593750000000e+01 3.073794474159341483e-14 -4.443360826847375655e-13 -1.240794440934486764e-13 1.974857824743169593e-14
5.988000000000000000e+03 3.240586471557617188e+01 2.212397193908691406e+01 1.745532463416719221e-14 1.447336987672048769e-13 4.865670651219185239e-14 7.537452785403089828e-14
5.989000000000000000e+03 3.325300979614257812e+01 -8.783020019531250000e+00 -1.474084492436491395e-14 3.368146148270689810e-13 9.662213249547052518e-14 -2.552556825846999389e-14
5.990000000000000000e+03 3.392972183227539062e+01 -9.831415176391601562e+00 2.403133098874583873e-14 4.220576796040709233e-13 1.338267062271636387e-13 3.048441083982125765e-14
5.991000000000000000e+03 6.733049011230468750e+01 2.033097839355468750e+01 1.158238273086392711e-13 1.411406798726422274e-13 7.708934944387901833e-14 -5.975354624076709142e-14
5.992000000000000000e+03 6.448034667968750000e+01 -2.154270553588867188e+01 7.221378714190179737e-14 7.098084598387843780e-14 4.295839061536042836e-14 -7.065978661555116780e-14
5.993000000000000000e+03 6.575296783447265625e+01 -2.084441566467285156e+01 -3.245941723414337565e-14 2.612090197731588986e-14 -1.901554449993303648e-15 8.641755388540117711e-14
5.994000000000000000e+03 6.925256347656250000e+01 -1.603223323822021484e+00 -1.151480711995833683e-13 1.794055626714446960e-13 1.927724845799793502e-14 2.688349759819019802e-14
5.995000000000000000e+03 6.918505096435546875e+01 -1.094437122344970703e+01 -3.840381991907469705e-14 -1.079606781577424623e-13 -4.390935111711104233e-14 1.993637900436513039e-14
5.996000000000000000e+03 6.958386993408203125e+01 -1.166236591339111328e+01 -6.356341234609041990e-14 -2.559962062210346945e-13 -9.586788692539024992e-14 1.324679569595504924e-14
5.997000000000000000e+03 6.770548248291015625e+01 -1.461336040496826172e+01 -2.479031867278131719e-15 -1.154398164516720615e-13 -3.537565341571805022e-14 2.819376481748487630e-15
5.998000000000000000e+03 3.246936035156250000e+01 -6.306739807128906250e+00 -3.380481387437600516e-14 3.415117852140908683e-13 9.231209682292532137e-14 -9.237157717054741285e-15
5.999000000000000000e+03 3.089378738403320312e+01 -6.567617893218994141e+00 -1.655760489653601564e-13 2.950464308634770383e-13 3.884111253655599116e-14 -1.388098789828918350e-14
6.000000000000000000e+03 3.174626731872558594e+01 -1.601698493957519531e+01 1.233241092389982321e-14 3.484174483214114160e-13 1.082249524372858041e-13 -2.795104032666910487e-14
6.001000000000000000e+03 3.263473510742187500e+01 -1.529556465148925781e+01 1.638867721951353315e-15 2.980835521991520576e-13 8.991672152940805018e-14 -3.712008050113860258e-14
6.002000000000000000e+03 3.352115249633789062e+01 -1.179164886474609375e+01 -4.973158115786219247e-14 3.218185808985529750e-13 8.162609856695451915e-14 -6.634652374747692510e-15
6.003000000000000000e+03 3.546774291992187500e+01 -1.219485473632812500e+01 -7.755910036389909723e-14 2.241094679625299513e-13 4.396511299009468743e-14 -5.636996810087432919e-14
6.004000000000000000e+03 3.421752166748046875e+01 -2.233348464965820312e+01 6.001022432883945656e-14 3.688507832499965389e-13 1.286583009183980830e-13 -1.951861049631804790e-14
6.005000000000000000e+03 6.832814788818359375e+01 -1.377072429656982422e+01 4.775373550910087805e-14 -8.533318230632622181e-14 -1.127383319213465587e-14 1.065015520977478924e-13
6.006000000000000000e+03 3.395443344116210938e+01 -2.033530998229980469e+01 3.483574826239105478e-15 2.474043105799017539e-13 7.526636513479831314e-14 -3.339145163172053954e-14
6.007000000000000000e+03 6.270145416259765625e+01 -2.485198974609375000e+01 4.495918323369580902e-15 7.055324342331373288e-14 2.251474898987311513e-14 -7.287819809166217605e-15
6.008000000000000000e+03 6.403024291992187500e+01 -2.373949813842773438e+01 1.958950376587144382e-14 6.844362316488217246e-14 2.640993841803926379e-14 -8.630421410079497369e-14
6.009000000000000000e+03 6.842281341552734375e+01 1.851988601684570312e+01 4.367175498727442207e-14 -3.930420713286336687e-13 -1.048110979517263841e-13 -5.113303443854411157e-14
6.010000000000000000e+03 3.174435615539550781e+01 1.995632362365722656e+01 1.491325678671263227e-14 -4.968690389683949604e-13 -1.445867351627244668e-13 -1.414110494012740110e-14
6.011000000000000000e+03 3.320142745971679688e+01 2.200919342041015625e+01 -7.105612349596682198e-14 -7.577151017355236023e-15 -2.358998277751309103e-14 1.593413037149007949e-13
6.012000000000000000e+03 6.375135040283203125e+01 1.739592552185058594e+01 -2.558141415712200661e-13 -3.841403107066043709e-13 -1.919863329728418999e-13 1.003142745736526620e-13
6.013000000000000000e+03 6.556155395507812500e+01 1.651111984252929688e+01 9.944483379329522275e-16 -4.532475672450013426e-14 -1.329909235715147700e-14 -4.485337187792480182e-15
6.014000000000000000e+03 4.802527236938476562e+01 2.051990318298339844e+01 -1.989272462032953825e-13 -1.310054902016119516e-13 -9.897981821096676902e-14 -6.912933360513420777e-14
6.015000000000000000e+03 5.508420562744140625e+01 1.942917251586914062e+01 1.485674952473540339e-14 6.367178428246097685e-15 6.367178428246097685e-15 1.224714638514354248e-13
6.016000000000000000e+03 5.839841461181640625e+01 1.925219917297363281e+01 -1.313256686556740771e-13 6.953268391835312756e-14 -1.853789542119628486e-14 1.219764171394785435e-13
6.017000000000000000e+03 5.427719879150390625e+01 1.944346046447753906e+01 -2.897496763462799330e-14 7.908405104829069332e-14 1.503272570172516781e-14 1.902603779819350693e-13
6.018000000000000000e+03 3.302861785888671875e+01 1.573174762725830078e+01 2.040095455307748551e-14 -1.413220855308238919e-14 1.880623842350176260e-15 -3.026528341636657016e-14
6.019000000000000000e+03 3.627325820922851562e+01 2.132017135620117188e+01 -2.540219452157061603e-14 -3.948099849436156883e-14 -1.946495773537306601e-14 1.671758976910797667e-13
6.020000000000000000e+03 4.558843612670898438e+01 2.062775421142578125e+01 8.658078729873244783e-14 4.031136318846662014e-13 1.469083237221405214e-13 -9.319711750379808257e-14
6.021000000000000000e+03 6.205346298217773438e+01 1.904615402221679688e+01 -9.124867067457007042e-14 -4.966160403914454680e-13 -1.763594153526837349e-13 8.246850332618502200e-14
6.022000000000000000e+03 3.237808227539062500e+01 1.903796005249023438e+01 8.815355807519423270e-14 -3.282274896754949767e-13 -7.202218151296929660e-14 -8.248158659708831192e-15
6.023000000000000000e+03 7.026460266113281250e+01 1.436312294006347656e+01 -6.909617480634804368e-15 -2.774669599983625723e-13 -8.531297548833652322e-14 -6.992074020467642370e-14
6.024000000000000000e+03 4.750321960449218750e+01 2.020982551574707031e+01 -5.201464327070533245e-14 6.349104185107701248e-14 3.442918303562083129e-15 2.235594386479008988e-14
6.025000000000000000e+03 6.822324371337890625e+01 1.764971733093261719e+01 -1.453141535052993039e-13 -1.309039140105772159e-13 -8.286542296526838713e-14 9.870693130041574559e-14
6.026000000000000000e+03 6.899246215820312500e+01 1.628761291503906250e+01 -6.590250484136148459e-15 -3.230810259081950964e-13 -9.890138296005102081e-14 -1.811785178265287732e-13
6.027000000000000000e+03 6.879989624023437500e+01 1.681673622131347656e+01 3.630782672669856381e-14 -1.445678293873417508e-13 -3.247800113700613500e-14 1.075146170551911917e-13
6.028000000000000000e+03 6.908186340332031250e+01 1.572941780090332031e+01 2.210036861361504984e-14 -3.627936303153903030e-14 -4.253698240673899414e-15 1.099404313247009934e-13
6.029000000000000000e+03 4.606603622436523438e+01 1.992412567138671875e+01 -2.457449391549126894e-13 3.193358934488327305e-14 -6.414339952199796246e-14 -1.148555399009196232e-13
6.030000000000000000e+03 4.658071517944335938e+01 2.042401885986328125e+01 -2.882566283108137228e-14 7.914804608152165022e-14 1.509671395869254668e-14 -9.209106865753699522e-14
6.031000000000000000e+03 7.017881011962890625e+01 1.279055404663085938e+01 4.856730387867505550e-14 -2.765666114092762973e-13 -6.839979429205944594e-14 -4.419153506129112896e-14
6.032000000000000000e+03 5.909399795532226562e+01 2.051593780517578125e+01 -1.410008855550273776e-13 -6.042894998411693641e-14 -6.042894998411693641e-14 8.413214379722824821e-14
6.033000000000000000e+03 6.895376586914062500e+01 1.183609867095947266e+01 3.927702279626736626e-14 -2.004839978926586941e-13 -4.836209151247786164e-14 -4.618253682578919717e-14
6.034000000000000000e+03 3.311282730102539062e+01 1.815423774719238281e+01 3.909151580455509645e-14 -3.263785997107554460e-13 -8.618613093168414618e-14 -9.476032697235126090e-14
6.035000000000000000e+03 4.942784118652343750e+01 2.019812774658203125e+01 -3.394297172433675958e-14 9.983038159154522528e-14 1.976622363778889752e-14 -8.111026227834022828e-14
6.036000000000000000e+03 4.400494384765625000e+01 2.012014961242675781e+01 -9.035718670879328528e-16 4.536370329941488699e-14 1.333803977909917698e-14 -6.498213154636917066e-14
6.037000000000000000e+03 3.528767013549804688e+01 2.113083267211914062e+01 -8.598766094774709656e-14 1.004009904186607682e-13 4.323999857713638206e-15 4.046394126613461067e-15
6.038000000000000000e+03 4.048513793945312500e+01 2.128920364379882812e+01 4.961911381719166098e-15 -3.592335338974215336e-15 4.108728922328240335e-16 1.264712754011146356e-13
6.039000000000000000e+03 3.171604156494140625e+01 1.063679122924804688e+01 -1.964199473642597171e-13 4.735399694436905060e-14 -4.471978546478037886e-14 -2.105968191176178783e-14
6.040000000000000000e+03 3.301793670654296875e+01 1.116603660583496094e+01 -1.123394996818682934e-13 -4.814550179973314803e-14 -4.814550179973314803e-14 8.483097647189914714e-15
6.041000000000000000e+03 4.212078857421875000e+01 2.119410896301269531e+01 -4.383954882599370995e-14 -6.453932305033535655e-14 -3.251366122408554105e-14 1.555456745393549167e-13
6.042000000000000000e+03 4.145892715454101562e+01 2.123106575012207031e+01 2.900601308621075791e-14 -1.019462224599414213e-13 -2.188206281211919901e-14 4.450479833837187038e-14
6.043000000000000000e+03 3.247163391113281250e+01 1.979092979431152344e+01 3.199326112195144400e-14 -3.203954977845299701e-14 -1.388690499252601623e-17 9.715202953100923744e-14
6.044000000000000000e+03 3.893816375732421875e+01 2.084682464599609375e+01 -6.069596187414580402e-14 -2.601255460490080329e-14 -2.601255460490080329e-14 -3.734860321404423478e-14
6.045000000000000000e+03 6.246133804321289062e+01 1.839048385620117188e+01 1.555249730541240216e-14 -2.220893824747549594e-13 -6.196106995537409290e-14 6.010361479347192670e-14
6.046000000000000000e+03 6.058283615112304688e+01 1.991629219055175781e+01 -2.734347884019664582e-14 -1.171863390966041210e-14 -1.171863390966041210e-14 1.404094668224636910e-13
6.047000000000000000e+03 3.304113006591796875e+01 1.490627861022949219e+01 -2.839902588807653727e-14 1.022063632187021620e-13 2.214220018274815072e-14 -6.757386940585072277e-14
6.048000000000000000e+03 6.716303253173828125e+01 1.832753562927246094e+01 -1.125045084762570091e-13 -3.427379365560090374e-13 -1.365727328320534562e-13 -5.424962440533052932e-14
6.049000000000000000e+03 4.905965805053710938e+01 1.926923751831054688e+01 -5.237384622671335810e-14 2.063088063017012863e-13 4.618049039418863078e-14 -1.729015490351849815e-14
6.050000000000000000e+03 4.926402282714843750e+01 1.861569786071777344e+01 -8.252925252916210042e-14 1.933850621955654492e-13 3.325674289992100463e-14 6.851662385240833708e-14
6.051000000000000000e+03 6.841477203369140625e+01 4.688211917877197266e+00 -1.500355964684577104e-13 -1.100519144130868154e-13 -7.802625597496878895e-14 1.302594100291432078e-13
6.052000000000000000e+03 3.310966873168945312e+01 9.183292388916015625e-01 -1.290695252498946788e-13 4.822581136515458056e-13 1.059565846520116317e-13 -8.708915614488374479e-14
6.053000000000000000e+03 3.390594482421875000e+01 2.209867954254150391e+00 -1.689886430658940619e-13 2.707084231258483076e-13 3.051593062985448468e-14 -1.421100514825343608e-13
6.054000000000000000e+03 3.397636032104492188e+01 2.173714447021484375e+01 -5.061395909593952025e-14 1.841875718784635740e-13 4.007208519000993174e-14 1.051900875973822702e-13
6.055000000000000000e+03 6.736260223388671875e+01 9.755072593688964844e+00 1.236841236525697274e-14 9.680264538092578364e-14 3.275131834029436362e-14 8.220828125226134486e-14
6.056000000000000000e+03 6.833124542236328125e+01 8.829610824584960938e+00 -4.816181565429726585e-14 -6.639172989587188711e-14 -3.436606129335849358e-14 1.829618948749958673e-13
6.057000000000000000e+03 3.302347183227539062e+01 1.025308609008789062e+01 1.755830859396026455e-14 1.447778393481521930e-13 4.870084370500737947e-14 -1.268869720665727341e-13
6.058000000000000000e+03 3.191026115417480469e+01 9.155402183532714844e+00 -1.265984523159471853e-13 1.744982603508679619e-13 1.436994613742120092e-14 -8.412654660351279179e-14
6.059000000000000000e+03 6.802264404296875000e+01 -2.410785436630249023e+00 -1.822364958589672845e-13 1.964043348529759259e-13 4.250351613499297673e-15 8.640072842293691768e-14
6.060000000000000000e+03 3.224794769287109375e+01 1.005096340179443359e+01 -1.580962872551813780e-13 3.897539300849739430e-13 6.949729149368505388e-14 1.529057777746242741e-14
6.061000000000000000e+03 3.313417434692382812e+01 1.892649078369140625e+01 4.548639093962698887e-14 1.109960647699415048e-13 4.694473772931008482e-14 -3.360813282402355662e-14
6.062000000000000000e+03 3.438939285278320312e+01 2.067196464538574219e+01 8.702516449978457691e-15 2.324843876438942303e-13 7.235607512451336376e-14 -1.081134303853844084e-14
6.063000000000000000e+03 3.185248947143554688e+01 2.313705825805664062e+01 2.258154736334630486e-13 -2.377757550315467983e-13 -3.588085774677840512e-15 -1.469661388029883109e-13
6.064000000000000000e+03 6.777816772460937500e+01 3.930577278137207031e+00 -2.357954055533934001e-13 -1.925570705489654255e-13 -1.285057401202022165e-13 9.373190022537655763e-14
6.065000000000000000e+03 6.829728698730468750e+01 1.865612268447875977e+00 -2.536969928839533095e-13 -2.459801297111791074e-13 -1.499031476205614499e-13 1.460219884461336215e-13
6.066000000000000000e+03 6.843059539794921875e+01 7.515650272369384766e+00 -1.111199280918843957e-13 -9.337377469527743945e-14 -6.134810948089583493e-14 7.811290405734111486e-14
6.067000000000000000e+03 6.371676254272460938e+01 -2.019676971435546875e+01 4.515277515488962112e-14 3.078892596062275666e-14 2.278250965702735553e-14 -3.522207151930426862e-15
6.068000000000000000e+03 3.731863403320312500e+01 2.142300796508789062e+01 3.178729320236529932e-14 -3.212782416408405117e-14 -1.021583673672954180e-16 1.008028702826832546e-13
6.069000000000000000e+03 3.131392288208007812e+01 4.886833190917968750e+00 -5.623584890400608327e-14 3.647819893370929378e-13 9.256384179111287747e-14 -1.222348773848719317e-13
6.070000000000000000e+03 3.136873245239257812e+01 4.125888824462890625e+00 -4.841442798422281035e-14 2.995075975426031434e-13 7.532795459445906783e-14 -1.687130558143071918e-14
6.071000000000000000e+03 6.909681701660156250e+01 -4.165202677249908447e-01 -1.676730857023273069e-13 -2.319882025196562392e-13 -1.198983945981113575e-13 2.263775240396795341e-13
6.072000000000000000e+03 6.905323791503906250e+01 1.835952997207641602e+00 -8.975508731428119558e-14 -8.421741629809423313e-14 -5.219175108371262861e-14 1.290077934886987854e-13
6.073000000000000000e+03 6.523079681396484375e+01 1.898471641540527344e+01 -8.500047454090831067e-14 -1.508061525049703144e-13 -7.074198946901630314e-14 1.466880409457457790e-13
6.074000000000000000e+03 3.288491058349609375e+01 1.602114081382751465e+00 -7.948944779311017950e-14 2.633142727297144159e-13 5.514744544810219751e-14 -9.484372922446970833e-14
6.075000000000000000e+03 4.093914413452148438e+01 2.088000297546386719e+01 -2.391388817654313548e-14 3.550213915166564038e-14 3.476475419591693559e-15 2.939974449328065786e-14
6.076000000000000000e+03 3.307378005981445312e+01 1.735826492309570312e+01 2.481880396728100568e-14 5.638757960991364060e-14 2.436191439553203608e-14 -3.906874353552640140e-16
6.077000000000000000e+03 3.321679687500000000e+01 1.310950756072998047e+01 -9.378783828121323163e-14 1.199335363010270439e-13 7.843708050691428069e-15 -7.212394066312063923e-14
6.078000000000000000e+03 3.407476425170898438e+01 -1.728433251380920410e+00 -1.308908222693444534e-13 3.327869934916655170e-13 6.056885272194903469e-14 -5.879940767139837932e-14
6.079000000000000000e+03 3.355999755859375000e+01 -9.322016239166259766e-01 -1.944432401277795125e-14 1.289195665369127775e-13 3.284257089376796390e-14 -5.884204392183137178e-14
6.080000000000000000e+03 3.950459671020507812e+01 2.141669273376464844e+01 -1.171496439352631702e-13 -1.874598295602963871e-13 -9.138284069341515159e-14 3.560307837392404084e-14
6.081000000000000000e+03 3.135395240783691406e+01 2.169432640075683594e+01 -1.975144799505699350e-14 3.728604136056003215e-14 5.260378687277269399e-15 1.335528232058666442e-13
6.082000000000000000e+03 6.862248992919921875e+01 -4.670867919921875000e+00 -2.292764773609984319e-13 -9.826134453631493737e-14 -9.826134453631493737e-14 1.540200665573962513e-13
6.083000000000000000e+03 6.840489959716796875e+01 5.406069755554199219e+00 -5.900249229083207037e-14 -1.167886859269884336e-13 -5.273735211009343560e-14 9.279782617246240539e-14
6.084000000000000000e+03 5.209043884277343750e+01 1.954251670837402344e+01 -1.340104649428727757e-13 -1.168210900194185942e-14 -4.370777421632346393e-14 -1.902764648316693230e-13
6.085000000000000000e+03 5.275152969360351562e+01 2.022744750976562500e+01 -6.359978055271373054e-14 1.099958001743971125e-13 1.391880537828524625e-14 -6.028055658802156103e-14
6.086000000000000000e+03 3.232083511352539062e+01 1.409056854248046875e+01 -1.005725586361930213e-13 1.627767473762198325e-13 1.866125560556850665e-14 -1.299714052745495896e-13
6.087000000000000000e+03 3.309769821166992188e+01 1.404552078247070312e+01 -1.312007279078222788e-14 -1.200002553922163706e-13 -3.993609913252593735e-14 -2.424788004390908414e-14
6.088000000000000000e+03 6.912530517578125000e+01 7.654023647308349609e+00 -1.214090134850354108e-13 -1.435343407714742558e-13 -7.948300356644746878e-14 1.271153457016796495e-13
6.089000000000000000e+03 6.841651916503906250e+01 6.123926162719726562e+00 -1.268450541000790133e-13 -3.288678736886735399e-13 -1.367138824023839128e-13 1.166283459782049836e-13
6.090000000000000000e+03 6.606986236572265625e+01 -1.011210441589355469e+01 8.055758513871805887e-15 7.207889206285386652e-14 2.404039424128145974e-14 6.265425461435270016e-14
6.091000000000000000e+03 3.319374084472656250e+01 1.212963867187500000e+01 -5.781178588962470472e-15 1.118997269519174387e-13 3.183556391596342738e-14 -5.250676263679650291e-14
6.092000000000000000e+03 6.843164062500000000e+01 6.828032016754150391e+00 -8.873693338289079247e-14 -8.378106558125028580e-14 -5.175540036686868128e-14 1.267820755063847615e-13
6.093000000000000000e+03 5.090276718139648438e+01 1.876930809020996094e+01 -1.228312969999562076e-13 -2.976650975944176991e-14 -4.577934236663257217e-14 5.439247481781907256e-14
6.094000000000000000e+03 5.151232147216796875e+01 1.880141067504882812e+01 -1.394254720357701594e-13 2.376273819642421570e-13 2.946057501142067270e-14 -1.444030306571239541e-13
6.095000000000000000e+03 6.816222381591796875e+01 1.887250709533691406e+01 9.376541562503351579e-14 -5.131671861535389012e-14 1.273460927231047715e-14 -1.684151001166492301e-13
6.096000000000000000e+03 6.731494903564453125e+01 1.910193634033203125e+01 -3.872427281181173297e-14 -2.911018052043773396e-13 -9.894782747061486861e-14 -5.247473123886313429e-14
6.097000000000000000e+03 3.124212265014648438e+01 6.391381740570068359e+00 -5.256057972213325213e-14 4.349835379044431072e-13 1.147268857606270620e-13 2.799547736914795998e-14
6.098000000000000000e+03 3.203276062011718750e+01 5.670075893402099609e+00 -3.164563880039827914e-14 4.439470709452497665e-13 1.236904323539608774e-13 -1.593532348092375822e-16
6.099000000000000000e+03 3.369869613647460938e+01 3.384820222854614258e-01 -1.129534223857746322e-13 2.661291597250842189e-13 4.595272323467194941e-14 -5.856686663419097272e-14
6.100000000000000000e+03 5.678252410888671875e+01 1.941267967224121094e+01 -6.973568722262388220e-14 -2.586414697865191403e-13 -9.851314371461111774e-14 -2.225852829959226731e-14
6.101000000000000000e+03 5.853979492187500000e+01 2.009335708618164062e+01 -2.638152554485656553e-14 2.460427152815858332e-13 6.589835692101878029e-14 6.296380788712446774e-14
6.102000000000000000e+03 6.900770568847656250e+01 3.328681588172912598e-01 -1.443213224709000153e-13 4.642839389855379917e-13 9.598878224388596170e-14 5.507441087925814271e-14
6.103000000000000000e+03 6.879203796386718750e+01 -1.292324542999267578e+00 -1.261348745720466957e-13 2.204478868330847496e-13 2.829390232305870057e-14 1.315634341921001482e-13
6.104000000000000000e+03 3.044937705993652344e+01 5.599546432495117188e+00 -9.401199708037460967e-14 3.714676949286704888e-13 8.323670799923604813e-14 -4.143914554490153723e-14
6.105000000000000000e+03 3.253566741943359375e+01 -7.895634174346923828e+00 -1.374225982574833749e-13 3.528631380145252905e-13 6.463215786135442786e-14 -6.891880864829183495e-14
6.106000000000000000e+03 3.187652206420898438e+01 -8.565155029296875000e+00 4.089627111757794184e-15 3.220093462708017995e-13 9.782968977013056788e-14 8.290961775632432751e-15
6.107000000000000000e+03 3.228280639648437500e+01 2.270491027832031250e+01 -1.170221959698874992e-13 -1.645297396588030203e-13 -8.446558339911258706e-14 1.422354394637823094e-13
6.108000000000000000e+03 6.828360748291015625e+01 1.140664815902709961e+00 -1.707754353512044854e-13 1.098143182832501952e-13 -1.828833579801264486e-14 4.821633069478255262e-14
6.109000000000000000e+03 6.754388427734375000e+01 4.464874565601348877e-01 -2.707278845548444224e-13 4.410208838206107484e-14 -6.798773648014275195e-14 2.003167868126071172e-14
6.110000000000000000e+03 6.806610107421875000e+01 -4.246485710144042969e+00 -1.731830282479529526e-13 -3.029760416075472085e-13 -1.428477155356391859e-13 1.142662184219333382e-14
6.111000000000000000e+03 6.797640228271484375e+01 -5.040835857391357422e+00 -1.026067455284739027e-13 -8.972527175453784420e-14 -5.769960654015623969e-14 -6.636765383137913088e-14
6.112000000000000000e+03 3.569966125488281250e+01 -1.014438438415527344e+01 -2.464897047322472945e-14 2.753795726607305427e-13 7.521918201150445960e-14 -8.934844034883156205e-15
6.113000000000000000e+03 6.778947448730468750e+01 -1.293211364746093750e+01 -5.225395718335898443e-14 9.198281784687789564e-14 1.191865819905567336e-14 -5.683035845979430081e-15
6.114000000000000000e+03 3.556874847412109375e+01 -1.940075683593750000e+01 -1.264886073892813531e-14 2.462092758403339188e-13 7.006812393749867196e-14 -6.657424855534624375e-14
6.115000000000000000e+03 6.506878662109375000e+01 -1.950955581665039062e+01 5.896838057998024518e-14 2.311514423879862390e-13 8.703594214700544063e-14 -3.953434124124785565e-14
6.116000000000000000e+03 3.255814361572265625e+01 -3.577982664108276367e+00 -6.074561833364564012e-14 1.112190106179224147e-13 1.514201836290939018e-14 -9.357519235387093404e-14
6.117000000000000000e+03 6.312224578857421875e+01 -2.238917541503906250e+01 1.852257598331224359e-14 1.365711539626397741e-14 9.653907244466276849e-15 -6.986890178830446052e-15
6.118000000000000000e+03 3.650205230712890625e+01 -1.556878852844238281e+01 -5.807848776559487725e-14 2.853578376198206978e-13 6.818380766677317739e-14 -3.409573581043996715e-14
6.119000000000000000e+03 6.442543792724609375e+01 -1.822132110595703125e+01 -5.382805610748206404e-14 -1.163143017367468737e-14 -1.963784563023714125e-14 -3.335758894855520712e-15
6.120000000000000000e+03 3.342640686035156250e+01 -1.424281501770019531e+01 -1.710848158292550131e-14 3.586753832308942069e-13 1.024700682921049488e-13 -5.807441523118447857e-14
6.121000000000000000e+03 3.242613983154296875e+01 -1.718901062011718750e+01 -1.712980479033968106e-14 3.243530390020094023e-13 9.216696958587455857e-14 -6.111689659134972308e-14
6.122000000000000000e+03 3.630352020263671875e+01 -2.287945556640625000e+01 8.086286428323798126e-15 1.521561332875134842e-13 4.807272811703684756e-14 -4.831998719873574488e-14
6.123000000000000000e+03 3.641944503784179688e+01 -1.336580085754394531e+01 3.524127333270204998e-14 3.770005683502442029e-13 1.236725430181148666e-13 -1.500994220950992164e-14
6.124000000000000000e+03 3.464324951171875000e+01 -1.100024318695068359e+01 -8.481071883193261329e-14 2.438771027572089745e-13 4.771991856571469737e-14 -7.786665463891534467e-15
6.125000000000000000e+03 6.120625686645507812e+01 -2.621016311645507812e+01 1.753084439767849112e-14 1.895095612012252795e-14 1.094453981652712682e-14 -2.494302643119353236e-14
6.126000000000000000e+03 3.316746902465820312e+01 -1.860637855529785156e+01 7.562887829556420860e-15 2.720280598000890393e-13 8.387728174779479628e-14 -2.075448916460248538e-14
6.127000000000000000e+03 3.443476104736328125e+01 -1.779874610900878906e+01 -2.660119168126570677e-14 2.173542379066417674e-13 5.722591183473374477e-14 -5.097560489496742731e-14
6.128000000000000000e+03 3.349567031860351562e+01 -1.642942237854003906e+01 4.155513146043496309e-14 3.380659738694974381e-13 1.138863309213533626e-13 -4.296450280510781539e-14
6.129000000000000000e+03 3.999217224121093750e+01 2.076431465148925781e+01 -1.043677744596606394e-13 1.021902793335832237e-15 -3.100376062110075936e-14 1.284796430350973115e-14
6.130000000000000000e+03 4.452027893066406250e+01 1.950114822387695312e+01 8.178719068099513101e-14 1.265535527934791293e-13 6.250222236471592030e-14 2.043012297964913460e-14
6.131000000000000000e+03 6.435169982910156250e+01 1.769301414489746094e+01 -1.202592052226532718e-14 -4.054747802708508209e-13 -1.252502062568799923e-13 8.110663697732597988e-14
6.132000000000000000e+03 5.591465759277343750e+01 1.869846916198730469e+01 -9.774290108028899776e-15 8.731291514449401880e-14 2.326158810386259879e-14 -9.121913802383110198e-15
6.133000000000000000e+03 4.975749588012695312e+01 1.870650100708007812e+01 -2.392627518636378237e-14 -3.312959309014276710e-14 -1.711676048295196484e-14 -5.170907444091744909e-14
6.134000000000000000e+03 4.849326324462890625e+01 1.905674743652343750e+01 -2.056928032848764909e-13 1.863516394147446409e-13 -5.802347636380249946e-15 8.864236215432984983e-15
6.135000000000000000e+03 3.166576004028320312e+01 9.656646728515625000e+00 -9.340830653447110277e-14 1.429716669490085912e-13 1.486900778554806762e-14 -1.589999020033122656e-13
6.136000000000000000e+03 6.970540618896484375e+01 1.510849189758300781e+01 2.206447474544220161e-14 -4.023023233989952985e-13 -1.140713635746151700e-13 -9.979867545426360231e-14
6.137000000000000000e+03 6.856887054443359375e+01 1.322038650512695312e+01 3.748230228257064256e-14 -3.956947074688910160e-13 -1.074637205394565753e-13 1.510163657536880977e-13
6.138000000000000000e+03 5.282999038696289062e+01 1.879058837890625000e+01 -2.085199282122682241e-14 2.198181822113051687e-13 5.968985613939714607e-14 -4.121078885045356688e-14
6.139000000000000000e+03 3.461725234985351562e+01 1.712433624267578125e+01 2.295939385333657656e-14 1.470925838813544329e-13 5.101559501447319733e-14 -1.007076434506211371e-14
6.140000000000000000e+03 6.400201416015625000e+01 1.838839912414550781e+01 -1.024793043393618097e-13 -1.697348045535257421e-13 -8.166423537837169677e-14 1.630916538972182472e-14
6.141000000000000000e+03 5.954228591918945312e+01 2.001847076416015625e+01 -1.480666717706968782e-13 1.652975987424115667e-13 5.169281140833016652e-15 2.074507828974531121e-13
6.142000000000000000e+03 4.281438446044921875e+01 2.102997207641601562e+01 -2.927953357740632756e-14 6.751579005072338990e-14 1.147087677258852925e-14 1.549781455240355904e-14
6.143000000000000000e+03 4.301495742797851562e+01 1.992113113403320312e+01 -6.697797833932553346e-14 2.276496929875561348e-14 -1.326390322039074435e-14 1.647105540879875013e-14
6.144000000000000000e+03 6.855812072753906250e+01 1.728786659240722656e+01 -1.507596165148481632e-14 -9.796302630855555083e-14 -3.391169587979234179e-14 1.862340441366114319e-13
6.145000000000000000e+03 5.354438018798828125e+01 1.876418113708496094e+01 -5.470152664708606560e-14 2.510621918694333488e-13 5.890819380688014362e-14 2.543829675984848881e-13
6.146000000000000000e+03 5.429937362670898438e+01 1.873822402954101562e+01 -2.657488283792398820e-14 -1.028911317583168505e-13 -3.883980471768543052e-14 -2.617816309861617508e-14
6.147000000000000000e+03 3.304273986816406250e+01 1.654718589782714844e+01 -2.806538469235075189e-14 -5.777897013918217861e-14 -2.575330661886646860e-14 -1.234063307271882071e-13
6.148000000000000000e+03 3.381080245971679688e+01 1.646120643615722656e+01 6.073445105126903942e-14 7.177999785269034705e-14 3.975433602644053155e-14 -4.213625027236003739e-14
6.149000000000000000e+03 6.891080474853515625e+01 1.470489978790283203e+01 1.890584179009904831e-13 -1.477297152880155395e-13 1.239861078389248306e-14 -4.348022389724127967e-14
6.150000000000000000e+03 6.953833770751953125e+01 1.233120441436767578e+01 -1.346824653078405529e-14 -4.008531584464604391e-14 -1.606606862792573504e-14 2.392008506958524794e-14
6.151000000000000000e+03 5.896469497680664062e+01 1.959924697875976562e+01 -3.782612312025653012e-14 -2.907168863280906734e-13 -9.856290181806462436e-14 6.193385648084470674e-14
6.152000000000000000e+03 6.910124969482421875e+01 1.278445148468017578e+01 1.343596729101032006e-13 5.758272276969872427e-14 5.758272276969872427e-14 1.007387465004443150e-14
6.153000000000000000e+03 6.780387115478515625e+01 1.067975330352783203e+01 -3.249175356393775582e-14 -2.312420545845517150e-13 -7.912014142810730455e-14 2.831188822066069838e-14
6.154000000000000000e+03 3.215960693359375000e+01 2.143061637878417969e+01 -8.122128458080274394e-14 -2.635638560698205790e-13 -1.034355435504397125e-13 -1.172191785639691702e-14
6.155000000000000000e+03 3.192123794555664062e+01 2.071222496032714844e+01 1.113867502465330783e-13 2.764919369846463582e-13 1.163635973602111795e-13 7.815666516752806103e-14
6.156000000000000000e+03 5.752546310424804688e+01 1.946837234497070312e+01 -1.520739778678933951e-13 1.635801818436130595e-13 3.451863183243325355e-15 1.568517586864395796e-13
6.157000000000000000e+03 6.767697906494140625e+01 5.308684825897216797e+00 -1.894631234669250097e-13 -3.557041813873063063e-13 -1.635501901010166792e-13 6.474723236943660809e-14
6.158000000000000000e+03 3.385280990600585938e+01 1.725015449523925781e+01 1.501981014334543424e-14 -8.506483549237248143e-14 -2.101350675767516690e-14 -1.681255503739598200e-13
6.159000000000000000e+03 4.138879013061523438e+01 2.059084129333496094e+01 -4.638761959594546111e-15 -4.773899035955507519e-14 -1.571332514517347068e-14 3.859973186351103869e-14
6.160000000000000000e+03 4.192904663085937500e+01 2.044281578063964844e+01 6.784895182580102935e-14 -1.081747199953818350e-13 -1.209773028146765225e-14 7.086038434625172022e-14
6.161000000000000000e+03 3.466410446166992188e+01 2.144304275512695312e+01 -1.379638590870424508e-13 -1.277537917034748949e-13 -7.971529388190248810e-14 -5.686371377022422791e-14
6.162000000000000000e+03 3.500146102905273438e+01 2.053330612182617188e+01 -5.185344951271105007e-14 -1.594757583368161535e-13 -6.339876269367133999e-14 -5.494958532788717098e-14
6.163000000000000000e+03 4.165726089477539062e+01 1.975278091430664062e+01 6.877359077871571594e-15 1.287625469572825643e-13 4.069197100586494087e-14 -5.731417520893648462e-15
6.164000000000000000e+03 6.772343444824218750e+01 8.023524284362792969e+00 -8.873750936529492539e-14 -8.378130952673909504e-14 -5.175564770048927954e-14 8.668108955221451306e-14
6.165000000000000000e+03 3.416560363769531250e+01 1.182845211029052734e+01 -4.546205737711826733e-14 7.201815641240394417e-14 7.966831065838418657e-15 -1.823890126114498939e-14
6.166000000000000000e+03 3.430310821533203125e+01 -3.118684589862823486e-01 -2.127789725013887190e-13 3.806156778640712446e-13 5.035100957592568427e-14 -3.466541967757710840e-14
6.167000000000000000e+03 4.793823242187500000e+01 1.902385711669921875e+01 -9.017665222399787184e-14 2.358585603299406808e-13 4.370457243178284268e-14 -3.356230410641236270e-15
6.168000000000000000e+03 4.831235122680664062e+01 1.981689834594726562e+01 -8.656589984765150625e-14 5.440222586110786407e-14 -9.649102873589450458e-15 3.702774374549251679e-14
6.169000000000000000e+03 3.271576690673828125e+01 8.628287315368652344e+00 -1.449086754453168813e-13 1.437755486497979684e-13 -3.399349152216808462e-16 6.044874345002837490e-14
6.170000000000000000e+03 3.633076095581054688e+01 2.023935699462890625e+01 2.537597684014984570e-16 -2.286459866926437989e-13 -6.851766739699935438e-14 1.475369441417476168e-13
6.171000000000000000e+03 3.681428909301757812e+01 2.080911254882812500e+01 1.356588232454816398e-14 2.345686850053346761e-13 7.444037248595380962e-14 -3.770863626234056964e-14
6.172000000000000000e+03 3.378358459472656250e+01 1.567872333526611328e+01 3.588769838486043084e-14 1.538044289096842515e-14 1.538044289096842515e-14 -7.384706995211542946e-14
6.173000000000000000e+03 6.772862243652343750e+01 3.346436738967895508e+00 -5.509777797717404710e-15 4.338961508880759266e-14 1.136395156849188265e-14 9.009227418992418746e-14
6.174000000000000000e+03 6.751942443847656250e+01 1.898346185684204102e+00 -1.377213230610574435e-13 7.822942190956541642e-14 -1.784756865138171361e-14 -3.975161535661395074e-14
6.175000000000000000e+03 6.840135192871093750e+01 -1.796265363693237305e+00 -1.530102271014160964e-13 -1.113267599850767398e-13 -7.930109477069513524e-14 -1.738911613443847037e-13
6.176000000000000000e+03 6.284612655639648438e+01 1.774705696105957031e+01 -1.459681442557425601e-13 -4.743163327380894856e-13 -1.860853458086550449e-13 -1.950792941085317117e-14
6.177000000000000000e+03 6.101223754882812500e+01 1.925633239746093750e+01 -1.075920358665702348e-13 -4.121184730282445585e-13 -1.559131513131917224e-13 8.546057606159326858e-14
6.178000000000000000e+03 6.690820312500000000e+01 -2.632015943527221680e+00 -2.001053402839181317e-13 1.429953161088959313e-13 -1.713300826894619683e-14 -1.519464113179051085e-14
6.179000000000000000e+03 6.840221405029296875e+01 -8.392667770385742188e+00 -1.108135867680486164e-13 -9.324248458845302290e-14 -6.121681937407141838e-14 -4.482954399408559110e-14
6.180000000000000000e+03 6.769494628906250000e+01 4.582542896270751953e+00 -2.803865910879898421e-14 7.948532782485473458e-14 1.543400078422331456e-14 7.575477110844872075e-14
6.181000000000000000e+03 3.360617065429687500e+01 1.464478850364685059e+00 -1.133632643595013090e-13 3.631742801456228076e-13 7.494330676871552299e-14 7.291482379630145200e-15
6.182000000000000000e+03 6.604061126708984375e+01 1.748533439636230469e+01 -4.073171717988190166e-14 -5.176966101356865468e-14 -2.775041379684834580e-14 7.887740211421495617e-16
6.183000000000000000e+03 6.770185089111328125e+01 6.031192302703857422e+00 -1.024267950728956211e-13 1.853749816274402260e-15 -3.017191328052483412e-14 3.165745321594658213e-14
6.184000000000000000e+03 5.278748321533203125e+01 1.951118278503417969e+01 -2.829192229884119891e-13 -2.127529923068305351e-13 -1.487016618780673261e-13 1.755799553058295936e-13
6.185000000000000000e+03 3.331763458251953125e+01 -7.082659244537353516e+00 -4.148021309031621473e-14 3.109683463422413530e-13 8.084644200845661488e-14 -4.826983607199471227e-14
6.186000000000000000e+03 4.876805496215820312e+01 1.830852699279785156e+01 -2.026398932550646514e-13 1.419090675048098604e-13 -1.821924670863690060e-14 8.711820598684277828e-14
6.187000000000000000e+03 3.207333755493164062e+01 6.382176876068115234e+00 -9.672694096423198329e-14 2.330512898548325884e-13 4.089730534480653934e-14 -3.454825130404931555e-14
6.188000000000000000e+03 3.578047561645507812e+01 1.295813798904418945e+00 -1.246833582560502585e-13 2.553831712076570781e-13 3.920994795124019272e-14 -3.854425544063061829e-15
6.189000000000000000e+03 5.805506134033203125e+01 1.971535491943359375e+01 1.778509997152170896e-14 -3.240722035342813445e-13 -9.188612734188292275e-14 7.463062963843428155e-14
6.190000000000000000e+03 6.839851379394531250e+01 8.183926582336425781e+00 9.521133982951218017e-15 1.870842754802745644e-13 5.898162139901172440e-14 1.709461158782080159e-13
6.191000000000000000e+03 6.775166320800781250e+01 7.388521671295166016e+00 -4.121942858651556074e-14 -2.006692609388821547e-13 -7.256660685761931462e-14 3.082169258315434202e-14
6.192000000000000000e+03 6.763933563232421875e+01 -8.795266151428222656e+00 -1.871461868124552758e-14 -5.377149802352799990e-14 -2.174583619727818440e-14 1.067850574133256958e-13
6.193000000000000000e+03 6.888960266113281250e+01 -1.014036655426025391e+01 -1.188351717376634475e-13 -9.668030671828795053e-14 -6.465464150390634601e-14 -2.209885750683714817e-14
6.194000000000000000e+03 6.752960205078125000e+01 9.204432487487792969e+00 -1.013304701648690131e-13 2.323605344863467065e-15 -2.970205732841929569e-14 8.232191919246498180e-14
6.195000000000000000e+03 6.623665618896484375e+01 -1.592782211303710938e+01 -3.278799147877868581e-14 6.601216426781186808e-14 9.967251836709954682e-15 1.188776182527162550e-14
6.196000000000000000e+03 6.228567504882812500e+01 -2.097517585754394531e+01 4.716277417432870878e-14 8.883903812248461485e-14 4.080054368904399709e-14 -5.591953292018343735e-14
6.197000000000000000e+03 6.622563171386718750e+01 1.859693717956542969e+01 -1.343728324139717434e-13 -1.033393070551044679e-13 -7.131364184072286339e-14 -1.673591583514159181e-14
6.198000000000000000e+03 6.497846221923828125e+01 1.797704505920410156e+01 -1.282415878134032794e-13 -1.807757909295590326e-13 -9.270521497814140921e-14 1.068902724579018360e-13
6.199000000000000000e+03 3.171850585937500000e+01 2.231656837463378906e+01 1.345710110185749375e-13 -6.814181516138009820e-14 1.992876079003752521e-14 2.710881344435752544e-14
6.200000000000000000e+03 6.840814971923828125e+01 -7.393733263015747070e-01 -1.507055249908365036e-13 -2.933428239898505652e-13 -1.332144979179425426e-13 -1.994917225118728044e-13
6.201000000000000000e+03 3.504055786132812500e+01 4.166086614131927490e-01 -7.122340911491775728e-14 2.413006589246230460e-13 5.102317426528522881e-14 -2.012325988351784667e-14
6.202000000000000000e+03 3.413640213012695312e+01 -8.013897895812988281e+00 -2.753221472150384902e-14 1.483288047509495611e-13 3.623897650061394526e-14 -4.275100984481826349e-14
6.203000000000000000e+03 6.676316833496093750e+01 -7.265923976898193359e+00 -9.550865686432791213e-14 5.056961522708486312e-14 -1.348171266057950415e-14 -2.154228570972350348e-14
6.204000000000000000e+03 6.743434143066406250e+01 -1.194045066833496094e+01 4.206578221334616313e-15 -1.125745547128631507e-13 -3.251039167690913945e-14 -6.349119092887572924e-14
6.205000000000000000e+03 6.587310028076171875e+01 -1.487281990051269531e+01 -4.553371297632419212e-14 3.361025464155642864e-15 -1.265180671951868577e-14 4.394649520591403791e-14
6.206000000000000000e+03 3.203958511352539062e+01 7.857631206512451172e+00 -7.415855446000693685e-14 2.427234574355757735e-13 5.056946953741793538e-14 5.047693288199629758e-14
6.207000000000000000e+03 3.288591766357421875e+01 7.902416706085205078e+00 -4.484307958058271482e-14 2.781626925324465205e-13 6.999588896775682523e-14 1.682926225406080473e-14
6.208000000000000000e+03 3.232419967651367188e+01 4.226133346557617188e+00 -8.208121953390962178e-14 3.537054004722206546e-13 8.148725292624059424e-14 -8.930401177668217949e-14
6.209000000000000000e+03 3.552323532104492188e+01 -1.671399497985839844e+01 4.401594851945710152e-15 3.678939748327780812e-13 1.116886734465159792e-13 -7.615631893555588339e-14
6.210000000000000000e+03 3.543745040893554688e+01 -1.438109302520751953e+01 -1.799256375129270474e-15 2.966100672366356328e-13 8.844324334315520342e-14 -4.217969967442239398e-14
6.211000000000000000e+03 6.625699615478515625e+01 -9.155797958374023438e+00 -1.460132741711722693e-13 -1.540790200505251506e-13 -9.002768962176194156e-14 6.561587482124126014e-14
6.212000000000000000e+03 3.672662353515625000e+01 -1.796208572387695312e+01 -2.596231708079915074e-14 1.947525663957214159e-13 5.063707293100419560e-14 -1.415272030293309932e-14
6.213000000000000000e+03 3.595035934448242188e+01 -6.307569980621337891e+00 -6.612792995477900782e-14 1.687817095287480473e-13 3.079613590506978527e-14 -9.673693298839426864e-16
6.214000000000000000e+03 3.361977767944335938e+01 -3.289051771163940430e+00 -1.042671333929996724e-13 2.984461907207941467e-13 5.825372194172284690e-14 -2.807775814964424271e-14
6.215000000000000000e+03 3.651520919799804688e+01 -1.126923942565917969e+01 2.819008996504321352e-14 3.094626334701477965e-13 1.012958163529309452e-13 -1.161726693576364822e-14
6.216000000000000000e+03 6.256581878662109375e+01 -2.771009445190429688e+01 1.705091891789599357e-14 1.216849022803515035e-13 4.162074940879285923e-14 1.285982361180423861e-14
6.217000000000000000e+03 6.385925674438476562e+01 -2.616732788085937500e+01 1.767941736475868442e-14 -1.529858223881398055e-14 7.142506330746177263e-16 -5.312725154010995710e-14
6.218000000000000000e+03 6.166795730590820312e+01 -2.340262603759765625e+01 9.295911310408088574e-15 -1.889151304195011566e-14 -2.878680434759313400e-15 -7.272334183417925035e-14
6.219000000000000000e+03 3.720278167724609375e+01 -2.077655410766601562e+01 -1.071390714454988416e-14 2.184441999031686010e-13 6.231908706525596253e-14 -3.890146617514670183e-15
6.220000000000000000e+03 6.151891708374023438e+01 -1.948600196838378906e+01 -8.902836142114073890e-16 5.337318501524640144e-15 1.334110455606057986e-15 -3.042551833306456066e-14
6.221000000000000000e+03 6.143159103393554688e+01 1.857583427429199219e+01 -8.554950774479139208e-14 5.483782441269464958e-14 -9.213505169035612202e-15 2.563662986326126214e-13
6.222000000000000000e+03 5.996637725830078125e+01 1.944581031799316406e+01 -1.627356696664097879e-13 -2.069967054750890267e-13 -1.109197098319442132e-13 1.668867138666235705e-13
6.223000000000000000e+03 6.792712402343750000e+01 -1.781989783048629761e-01 -2.073944314895381780e-13 3.686261636649118545e-13 4.836952168549117637e-14 1.592459616863578509e-13
6.224000000000000000e+03 6.679496765136718750e+01 1.890483093261718750e+01 -2.736959456002639041e-14 -1.261072003115940032e-13 -4.604303727563999193e-14 -7.265237402572649605e-14
6.225000000000000000e+03 6.405120849609375000e+01 1.671730041503906250e+01 -1.050665258191686019e-14 8.699904539182304331e-14 2.294771835119162329e-14 7.067009331245335813e-14
6.226000000000000000e+03 6.734211730957031250e+01 1.732281494140625000e+01 -1.150113804106872584e-13 -1.407924883449485076e-13 -7.674115791618529858e-14 -6.164354779663455686e-14
6.227000000000000000e+03 3.265793609619140625e+01 2.050446128845214844e+01 -9.294391563894124908e-14 -3.143388056358470406e-13 -1.221848143495574135e-13 2.283235246377558758e-14
6.228000000000000000e+03 6.909699249267578125e+01 1.518331146240234375e+01 -8.084372472676182309e-14 -4.006549053029578866e-13 -1.444495835879050505e-13 -9.837265144184773047e-14
6.229000000000000000e+03 6.793312835693359375e+01 1.365850162506103516e+01 -3.130090994339293498e-14 -2.421694301254356807e-13 -8.204109727726408008e-14 -1.254661657771119487e-13
6.230000000000000000e+03 4.399854660034179688e+01 1.888258743286132812e+01 -3.852490158481880478e-14 7.499122850473938229e-14 1.093989807597617325e-14 -6.403464049157051030e-14
6.231000000000000000e+03 4.782863235473632812e+01 1.962811279296875000e+01 -2.635745625662738734e-13 1.501074384149120311e-13 -3.404013656778219488e-14 -3.058529924010282286e-14
6.232000000000000000e+03 3.946945571899414062e+01 2.021021270751953125e+01 -1.123541160824061136e-13 -5.092183863160751334e-14 -4.898278709183044588e-14 3.354939617132915441e-14
6.233000000000000000e+03 3.839075469970703125e+01 2.025706672668457031e+01 -5.751974417600447254e-14 -1.161532214811675234e-13 -5.210188766427252538e-14 1.072700142688148839e-13
6.234000000000000000e+03 6.802749633789062500e+01 1.714934158325195312e+01 1.098029544892298315e-13 -4.444349009364960412e-14 1.960783864104771040e-14 -8.667034917444332853e-14
6.235000000000000000e+03 6.844178771972656250e+01 1.424566936492919922e+01 8.669906697948703833e-14 -2.545055637591386866e-13 -5.034194632339006326e-14 6.261441696077743591e-14
6.236000000000000000e+03 6.734754180908203125e+01 -3.933849811553955078e+00 -1.119302133617550155e-13 1.350337078482102826e-13 6.931048261233285421e-15 -3.745253754480412645e-14
6.237000000000000000e+03 6.711496734619140625e+01 -4.882674217224121094e+00 -1.127642900930481140e-13 -1.855804057518742334e-13 -8.950341010872941983e-14 4.210154225031334518e-14
6.238000000000000000e+03 6.819389343261718750e+01 1.665150070190429688e+01 1.525563428025639851e-14 -4.509713457702402284e-13 -1.307147207314784954e-13 1.470943186048304097e-13
6.239000000000000000e+03 5.509199142456054688e+01 1.871759033203125000e+01 -7.879334934079301744e-14 1.034842648855657798e-13 7.407274324618649819e-15 2.639377702940565174e-13
6.240000000000000000e+03 6.852629089355468750e+01 1.223375511169433594e+01 6.384293999494791705e-14 -2.928953737532657975e-13 -6.871573080512172194e-14 1.544767325124471458e-13
6.241000000000000000e+03 4.555853652954101562e+01 1.939078521728515625e+01 2.127250741008890333e-13 2.284207436913099354e-13 1.323437480481651218e-13 -3.721787553709679508e-14
6.242000000000000000e+03 6.804184722900390625e+01 -7.471118450164794922e+00 -8.529796606451117702e-14 -1.280581679108730442e-13 -6.400684425837341318e-14 5.621100712172900915e-14
6.243000000000000000e+03 6.561746215820312500e+01 1.826969337463378906e+01 -1.624291792647752919e-13 -1.954276177733652031e-13 -1.073570350456840017e-13 7.439304706112481735e-14
6.244000000000000000e+03 3.392839431762695312e+01 1.806228256225585938e+01 2.343206703702468280e-14 5.579326402467034429e-14 2.376759881028873977e-14 -3.203241098477353777e-14
6.245000000000000000e+03 3.314553451538085938e+01 1.964229774475097656e+01 -8.648980918393375794e-14 -3.573237083824565286e-13 -1.331440518817852969e-13 -6.339942676750198736e-14
6.246000000000000000e+03 4.053532791137695312e+01 2.022371673583984375e+01 2.843369537012412941e-15 1.218586914182714573e-15 1.218586914182714573e-15 6.474365450226740593e-14
6.247000000000000000e+03 4.261653518676757812e+01 1.930021667480468750e+01 6.910626720391457867e-14 -2.042312818157070858e-14 1.460494187610975048e-14 -3.846820797559317995e-14
6.248000000000000000e+03 5.031419754028320312e+01 1.870923805236816406e+01 -7.644616683384272693e-14 1.298830411034261265e-14 -1.903736025700604462e-14 -2.937024402979368509e-14
6.249000000000000000e+03 5.160812377929687500e+01 1.805813789367675781e+01 -1.060289077131799929e-13 -9.119190591457687622e-14 -5.916624070019527171e-14 -3.511761668679828918e-14
6.250000000000000000e+03 4.660426330566406250e+01 1.922904586791992188e+01 -2.719191245868085582e-13 1.579689206049686434e-13 -3.418506390505740566e-14 4.501975371272101678e-14
6.251000000000000000e+03 6.694622039794921875e+01 5.223968029022216797e+00 -1.121544738048700640e-13 -2.315254235278250104e-15 -3.434091796735219693e-14 2.684633021598115295e-15
6.252000000000000000e+03 6.618655395507812500e+01 4.356288433074951172e+00 -7.648598415862725708e-14 -9.904231738401287483e-15 -2.591706349855914249e-14 -1.614270361619121264e-16
6.253000000000000000e+03 3.334497070312500000e+01 2.024324226379394531e+01 5.419619356701772805e-14 -9.115043518147930568e-14 -1.108627214552529439e-14 9.651363773932261636e-14
6.254000000000000000e+03 6.804517364501953125e+01 1.263778781890869141e+01 3.676732854805686568e-14 -5.626457348531337110e-14 -5.849173735286835804e-15 -7.618134367694956444e-14
6.255000000000000000e+03 6.712700653076171875e+01 1.026681423187255859e+01 -1.047107821457171628e-13 -1.592534155762936887e-13 -7.918925931660325546e-14 1.153843188529679598e-13
6.256000000000000000e+03 4.351192855834960938e+01 1.945447158813476562e+01 7.598169462314993683e-14 3.256358195786492049e-14 3.256358195786492049e-14 2.510444888808357339e-14
6.257000000000000000e+03 4.248535919189453125e+01 2.023505973815917969e+01 6.327508487194389783e-15 -1.688542697591416397e-13 -4.875802859334241179e-14 7.635083158156336092e-14
6.258000000000000000e+03 6.552378082275390625e+01 1.431582641601562500e+01 -1.675426019708686765e-13 -3.005587044437735278e-13 -1.404303919243926613e-13 1.319122762410973593e-13
6.259000000000000000e+03 3.377283477783203125e+01 1.489685344696044922e+01 7.220268719864450339e-16 -9.119245479192669701e-14 -2.714112944536117150e-14 -1.988826753296108613e-14
6.260000000000000000e+03 3.625392532348632812e+01 1.916427803039550781e+01 -3.824514354299965446e-14 -1.639077532012388205e-14 -1.639077532012388205e-14 4.811029572231347029e-14
6.261000000000000000e+03 3.733371353149414062e+01 2.025365257263183594e+01 -2.692655228289913411e-14 -1.487928026231918888e-13 -5.271580359191528620e-14 7.042553795992209653e-14
6.262000000000000000e+03 4.301761245727539062e+01 1.883463287353515625e+01 5.106680323833240331e-14 6.763671925053699185e-14 3.561105742428717635e-14 -5.256331987371761980e-15
6.263000000000000000e+03 4.214207077026367188e+01 1.892770004272460938e+01 8.276926100883250093e-14 4.701065383326541447e-13 1.658627391248196359e-13 2.337603851806924204e-13
6.264000000000000000e+03 6.718849945068359375e+01 3.684469699859619141e+00 -1.399993537981938929e-13 -1.972525739751471163e-13 -1.011755783320023028e-13 4.967060156192346088e-14
6.265000000000000000e+03 6.752131652832031250e+01 2.660963296890258789e+00 -1.316953680439644780e-13 -1.021918213570637002e-13 -7.016615614268209566e-14 1.385013557021839287e-14
6.266000000000000000e+03 6.672285461425781250e+01 3.018309593200683594e+00 -1.229561564326450696e-13 -6.944544884214835442e-15 -3.897021052211291359e-14 5.145403620863096827e-14
6.267000000000000000e+03 3.468877029418945312e+01 1.786551666259765625e+01 -4.316449406021813373e-14 -1.100009636872435748e-13 -4.594963664661215474e-14 -7.817420891393159210e-14
6.268000000000000000e+03 3.544991302490234375e+01 2.024100875854492188e+01 -7.225979119533307293e-14 -2.139722725174805773e-13 -8.586961843621773727e-14 1.762270342674232548e-14
6.269000000000000000e+03 3.378008651733398438e+01 8.051417350769042969e+00 -5.371778258214492119e-14 2.286083106671499277e-13 5.246715876431468084e-14 -2.704593649461694421e-14
6.270000000000000000e+03 3.375574111938476562e+01 1.970545578002929688e+01 -4.776956147268737740e-14 -2.047266944458971810e-14 -2.047266944458971810e-14 2.343489782113440667e-14
6.271000000000000000e+03 5.934111404418945312e+01 1.904387664794921875e+01 -1.230531925270825222e-13 -3.272427630523350173e-13 -1.350887853185725462e-13 1.692561563994277041e-13
6.272000000000000000e+03 6.187390518188476562e+01 1.794139099121093750e+01 -5.368935615643506687e-14 -3.890173231289872913e-13 -1.328120014139344551e-13 2.213721827376557982e-13
6.273000000000000000e+03 3.216800689697265625e+01 5.004763126373291016e+00 -8.494620344591183314e-14 3.296020682948264113e-13 7.339676013230073126e-14 4.770282882897089460e-14
6.274000000000000000e+03 3.478079605102539062e+01 1.068474292755126953e+01 2.728181314757063824e-15 -9.033267569288211396e-14 -2.628134865225069394e-14 8.033732777331173414e-14
6.275000000000000000e+03 6.773548126220703125e+01 6.724514484405517578e+00 -5.453719209092336428e-14 -2.337308305070968234e-14 -2.337308305070968234e-14 -4.024501289542252794e-15
6.276000000000000000e+03 6.704472351074218750e+01 6.653352260589599609e+00 -3.091248096257284694e-14 7.825368770943835761e-14 1.420236236287283210e-14 7.191452701350506405e-14
6.277000000000000000e+03 5.508846664428710938e+01 1.727124786376953125e+01 -1.493748159019092636e-13 1.189860113649104933e-13 -9.116638481187610416e-15 1.509353894039305866e-13
6.278000000000000000e+03 6.785634613037109375e+01 -9.663119316101074219e+00 -1.535788775883575874e-13 -2.030723679491419631e-13 -1.069953723059971495e-13 -4.650780425379842653e-14
6.279000000000000000e+03 6.692883300781250000e+01 -9.126601219177246094e+00 -1.087809855214449950e-13 -1.381223152345512073e-13 -7.407099158205157630e-14 -5.824468918237332704e-14
6.280000000000000000e+03 6.466105651855468750e+01 1.699401092529296875e+01 -1.112686111732477320e-14 -2.335234056908414013e-13 -7.339507961893337873e-14 3.050903578166383467e-14
6.281000000000000000e+03 6.709290313720703125e+01 7.286781787872314453e+00 -1.332565649622349802e-13 -1.943628092672400332e-13 -9.828581362409521960e-14 1.936425568233989675e-14
6.282000000000000000e+03 6.764726257324218750e+01 8.627155303955078125e+00 3.787613872172600205e-14 1.534854735711979612e-13 5.740848470431672568e-14 -2.915319850744423026e-16
6.283000000000000000e+03 3.430902099609375000e+01 1.017666220664978027e+00 -1.601713282405742289e-13 2.973627474898293821e-13 4.115742238664475694e-14 -1.124354041402882143e-13
6.284000000000000000e+03 3.333258056640625000e+01 4.200778484344482422e+00 -1.542202102784370754e-13 1.855358450425850791e-13 9.394688057552148808e-15 9.197755269007776291e-14
6.285000000000000000e+03 3.295836639404296875e+01 7.115171909332275391e+00 -6.448413715975584437e-14 3.383715291467581654e-13 8.216622098423248532e-14 1.518897448137337958e-13
6.286000000000000000e+03 5.287836456298828125e+01 1.806765556335449219e+01 -8.132008928003406356e-14 -3.485146538224383195e-14 -3.485146538224383195e-14 9.715272070989419695e-14
6.287000000000000000e+03 5.357699966430664062e+01 1.804840278625488281e+01 -7.379227030855986524e-14 -3.162525918768734068e-14 -3.162525918768734068e-14 6.794196959593670759e-14
6.288000000000000000e+03 5.222198104858398438e+01 1.807267761230468750e+01 -9.397523585046377304e-14 3.257324965311170217e-13 6.952717481606418559e-14 2.448145784944393000e-14
6.289000000000000000e+03 3.491823959350585938e+01 -9.044245719909667969e+00 -1.304620203101264364e-13 3.100952925428474005e-13 5.388998099218993143e-14 -5.312097333190490822e-14
6.290000000000000000e+03 3.417377090454101562e+01 -6.194347858428955078e+00 -5.813456134670311193e-14 2.038399288771530760e-13 4.371160958150863141e-14 4.493805399682655050e-15
6.291000000000000000e+03 4.702746963500976562e+01 1.979762840270996094e+01 -1.648637959006729603e-13 -2.490496585274160762e-14 -5.693062937305731763e-14 -7.319175783027445648e-14
6.292000000000000000e+03 6.637897491455078125e+01 9.114644527435302734e-01 -1.874347539969258708e-14 2.607539021943355850e-13 7.260313091830492005e-14 -1.745929247530531025e-13
6.293000000000000000e+03 6.753037261962890625e+01 1.180263996124267578e+00 -8.598529603175836256e-14 -1.283527456411373557e-13 -6.430140843611056867e-14 -7.463961496393875517e-14
6.294000000000000000e+03 5.782087326049804688e+01 1.896971321105957031e+01 -2.189515658623103489e-13 -2.310892362883398832e-13 -1.350122406451950696e-13 1.093230120687883888e-13
6.295000000000000000e+03 3.395270919799804688e+01 1.097099399566650391e+01 -1.733986726719285304e-14 1.298214736666220004e-13 3.374448141160897585e-14 -6.815378881912248499e-14
6.296000000000000000e+03 3.403998947143554688e+01 1.327121829986572266e+01 5.150398404746465986e-14 6.782408293846964309e-14 3.579842111221982759e-14 -3.700541595700289343e-14
6.297000000000000000e+03 3.382542037963867188e+01 1.409926033020019531e+01 -7.560748901958014301e-14 5.909868812858584675e-14 -4.952639759078520526e-15 -4.221495657381890698e-14
6.298000000000000000e+03 3.207702255249023438e+01 7.128707885742187500e+00 -2.726260074626101620e-14 4.458255054191895272e-13 1.255688803804277942e-13 -4.773937321844723414e-14
6.299000000000000000e+03 5.809381103515625000e+01 1.851391983032226562e+01 -2.023263419867818436e-13 9.629250792998061970e-14 -3.181014953941400936e-14 1.897833019209871352e-13
6.300000000000000000e+03 3.680839157104492188e+01 1.968237304687500000e+01 -9.573876522291080438e-14 1.419728999077149445e-13 1.387023905018852643e-14 -6.255414209625081989e-14
6.301000000000000000e+03 3.489695358276367188e+01 -1.072712182998657227e+00 -5.390825318692810120e-14 1.599002641449256967e-13 3.179760328739927866e-14 -2.392043743529130573e-14
6.302000000000000000e+03 3.445643615722656250e+01 1.419880199432373047e+01 1.034789870232714383e-15 -4.530746708798077949e-14 -1.328180356766506948e-14 -8.976233791630969239e-14
6.303000000000000000e+03 3.448909759521484375e+01 1.487819290161132812e+01 -3.334102945443638555e-14 -6.003995857341987152e-14 -2.801429674717005602e-14 -1.081719281747876849e-13
6.304000000000000000e+03 3.422657012939453125e+01 -4.344096183776855469e+00 -5.774641019268972331e-14 3.412591390028474336e-13 8.505381728779459749e-14 -4.935087372938927464e-14
6.305000000000000000e+03 6.665038299560546875e+01 -8.498671531677246094e+00 8.459765955251205560e-14 -5.524575548009232062e-14 8.805571560539099396e-15 -2.426766334542515557e-14
6.306000000000000000e+03 6.615090179443359375e+01 -1.123768424987792969e+01 -6.723513754211193905e-14 -2.232565938760713853e-13 -8.714752010308135510e-14 6.926767102607978011e-14
6.307000000000000000e+03 6.673201751708984375e+01 -1.343777942657470703e+01 -2.981429597019406852e-14 -1.042794526401845390e-13 -4.022812559955311895e-14 -5.466655773889161907e-14
6.308000000000000000e+03 6.716346740722656250e+01 -1.094128990173339844e+01 -2.151131310297420274e-14 3.653181611927049099e-14 4.506150481372412850e-15 -1.261201649978846775e-14
6.309000000000000000e+03 3.272958755493164062e+01 5.485839843750000000e+00 -1.008283625862638200e-14 3.159354288601035066e-13 9.175577913569585298e-14 -1.059671674816546269e-14
6.310000000000000000e+03 3.507467269897460938e+01 -5.317105770111083984e+00 -1.290212647006919178e-13 3.092830353802755727e-13 5.407853052624873869e-14 -5.324829932453617465e-14
6.311000000000000000e+03 3.598587799072265625e+01 -4.498668193817138672e+00 -3.709060714270594195e-14 2.486017034591947450e-13 6.345332516800167300e-14 -9.780794474030865548e-15
6.312000000000000000e+03 6.477983093261718750e+01 -1.528919315338134766e+01 1.213910529984218306e-14 2.225194854765799590e-13 7.039757909639912659e-14 3.141136981597847377e-14
6.313000000000000000e+03 6.515518951416015625e+01 -1.645458984375000000e+01 -4.159449138742797591e-14 -7.501489799341745646e-14 -3.498281647544045081e-14 3.857076333671494162e-14
6.314000000000000000e+03 3.739718627929687500e+01 -1.240101242065429688e+01 -3.829516592073270442e-14 1.408566731135596495e-13 3.076845148022172571e-14 -7.110037927339496466e-14
6.315000000000000000e+03 6.302396392822265625e+01 -1.882287025451660156e+01 4.018312104499960347e-14 1.887873944629234191e-13 6.869115329712419116e-14 -3.396405945659160264e-14
6.316000000000000000e+03 3.523435592651367188e+01 -3.561737775802612305e+00 -1.154758797264343606e-13 3.851443632334888845e-13 8.090054369686364155e-14 -3.765769231276090701e-14
6.317000000000000000e+03 5.913845443725585938e+01 -2.281753349304199219e+01 -6.939432299224326892e-16 1.312365743421500808e-13 3.916278854486886229e-14 -5.982426332746745845e-14
6.318000000000000000e+03 3.819884872436523438e+01 -1.895021057128906250e+01 4.202106056779703058e-14 2.582015005449245226e-13 9.006676833381646596e-14 1.756588784477229603e-14
6.319000000000000000e+03 3.920991897583007812e+01 -2.168012237548828125e+01 2.345851818190154009e-14 1.473064969699858229e-13 5.122950471497279834e-14 -1.983297830436200893e-14
6.320000000000000000e+03 3.755584716796875000e+01 -1.036457347869873047e+01 1.420835003877697275e-14 2.348440452520916821e-13 7.471571918018365954e-14 -3.991703411494913756e-14
6.321000000000000000e+03 3.758279037475585938e+01 -1.665285301208496094e+01 2.312852939224431525e-14 2.386669692173298829e-13 7.853864992168543835e-14 -4.863610328278283879e-14
6.322000000000000000e+03 6.668216705322265625e+01 1.786383819580078125e+01 -3.811518158383653265e-14 -1.535879306764978414e-13 -5.751093503335302781e-14 3.590918930479816695e-14
6.323000000000000000e+03 6.194038391113281250e+01 1.687057113647460938e+01 -6.727290165903232477e-14 -2.575859989716045018e-13 -9.745766612343290114e-14 2.350076513599197447e-13
6.324000000000000000e+03 4.718023681640625000e+01 1.877692985534667969e+01 7.843913032664663609e-15 -3.168949748878074901e-13 -9.271531838713625850e-14 1.100463104431077810e-13
6.325000000000000000e+03 4.746265792846679688e+01 1.930623054504394531e+01 -1.332162597464728315e-13 2.059752650558632769e-13 2.182770023756441802e-14 7.437847978849793790e-15
6.326000000000000000e+03 4.970341491699218750e+01 1.738001441955566406e+01 -8.482989565785845065e-14 -3.635567053569127571e-14 -3.635567053569127571e-14 1.071295491011058088e-13
6.327000000000000000e+03 6.729598236083984375e+01 1.466916084289550781e+01 -1.043679099849322001e-14 -5.534842874820034009e-13 -1.691763320144784588e-13 3.503481074587470878e-14
6.328000000000000000e+03 6.912346649169921875e+01 1.380664157867431641e+01 5.164530302438456733e-14 -4.182191702326032434e-13 -1.099721645670369286e-13 4.345237345393555828e-14
6.329000000000000000e+03 6.708866119384765625e+01 1.246613693237304688e+01 2.950572525564111592e-14 -3.310563899839441548e-14 -1.079973360496337340e-15 1.018122896103215713e-13
6.330000000000000000e+03 6.855735778808593750e+01 1.511694240570068359e+01 -7.843344165337287621e-14 -2.166181323941598902e-13 -8.851547153663347212e-14 4.084003575317678159e-14
6.331000000000000000e+03 6.749990844726562500e+01 1.301475334167480469e+01 2.792658817954776773e-14 -2.568182754132675161e-13 -6.866751091350042913e-14 7.799960493031637965e-14
6.332000000000000000e+03 6.036326599121093750e+01 1.878693389892578125e+01 -7.348467537596214960e-14 -1.687462832227620835e-13 -7.266928757961726992e-14 2.744920447623339088e-13
6.333000000000000000e+03 5.431473159790039062e+01 1.802317428588867188e+01 -1.704599731765926718e-13 1.557004715045315346e-13 -4.427849061662330818e-15 2.165336865974504255e-13
6.334000000000000000e+03 5.675407028198242188e+01 1.866512489318847656e+01 -8.379653579099893834e-14 5.558909520306416774e-14 -8.462231837567252279e-15 1.083274163188492623e-13
6.335000000000000000e+03 6.777983093261718750e+01 1.563102054595947266e+01 8.476606325495336658e-14 -2.839283170553985602e-13 -5.974868088351806272e-14 1.399389366321321382e-13
6.336000000000000000e+03 6.795066070556640625e+01 1.488054370880126953e+01 -1.260742812231319121e-14 -1.884069750256525677e-13 -6.030432094438972768e-14 -5.373354078309564019e-14
6.337000000000000000e+03 6.838493347167968750e+01 1.618581199645996094e+01 8.539137008167080323e-14 -2.379093829493056367e-13 -4.575540521554316564e-14 2.376003853301472679e-13
6.338000000000000000e+03 6.531654357910156250e+01 1.724393081665039062e+01 -8.251897293731422223e-14 -2.183690646926153556e-13 -9.026641061135251554e-14 1.608834864375713325e-13
6.339000000000000000e+03 3.390613937377929688e+01 1.889951515197753906e+01 5.329836235985069282e-15 -8.921768217869802120e-14 -2.516635344400070667e-14 -1.376165704964705042e-14
6.340000000000000000e+03 3.539611816406250000e+01 1.774841117858886719e+01 -2.436045072259918065e-14 3.531075375129942573e-14 3.285091289774899788e-15 3.147455508571185556e-14
6.341000000000000000e+03 3.458261871337890625e+01 1.637533378601074219e+01 -6.758589727370173383e-14 -2.119691818987592957e-13 -8.386652104123287765e-14 -1.888897702530603628e-13
6.342000000000000000e+03 3.784847640991210938e+01 1.966720581054687500e+01 -4.900434577440396233e-14 1.162509894120714038e-13 2.017399207486069573e-14 -5.927588064488786834e-14
6.343000000000000000e+03 6.797000122070312500e+01 1.167048168182373047e+01 4.432396027167420508e-17 1.717560216773182658e-14 5.165977712338724881e-15 -1.231534236297970181e-14
6.344000000000000000e+03 6.336423873901367188e+01 -1.197149085998535156e+01 -3.083424222330086173e-14 -1.321467451252927167e-14 -1.321467451252927167e-14 -4.895220242617098760e-14
6.345000000000000000e+03 3.892150115966796875e+01 1.964251899719238281e+01 -2.836768566902812816e-14 4.717568295644486431e-14 5.642399016818431395e-15 -8.890820344482561199e-14
6.346000000000000000e+03 5.967351531982421875e+01 1.840096664428710938e+01 -1.352214103493218356e-13 -1.494539355554463933e-13 -8.540260512668318427e-14 1.632634728365028876e-13
6.347000000000000000e+03 4.923084640502929688e+01 1.774932670593261719e+01 -3.187049894283998375e-14 1.235940603333540722e-13 2.751706807834104762e-14 1.040138027791348563e-13
6.348000000000000000e+03 5.047693252563476562e+01 1.795357513427734375e+01 -2.049462284451665506e-14 -1.002853060468565649e-13 -3.623397900622514489e-14 1.002367879996378386e-13
6.349000000000000000e+03 6.628755950927734375e+01 1.038695335388183594e+01 -7.119221119740448689e-14 -1.220128463324740564e-13 -5.796151590371084739e-14 1.398620124879942916e-13
6.350000000000000000e+03 6.612168884277343750e+01 9.245384216308593750e+00 2.213406527832272042e-14 1.924898229092170121e-13 6.438716882795417207e-14 1.236672168749425316e-13
6.351000000000000000e+03 6.752537536621093750e+01 1.208442497253417969e+01 2.694104671069254969e-14 -1.085500775637598947e-13 -2.448270976413997185e-14 8.267275346295413496e-14
6.352000000000000000e+03 6.698204040527343750e+01 1.162113475799560547e+01 1.508752703934662653e-14 -3.928486632135894108e-14 -7.259201954010283814e-15 4.955829176938111869e-14
6.353000000000000000e+03 6.769898986816406250e+01 1.793442535400390625e+01 9.275061594411423971e-14 2.831252518943703361e-14 3.631894318709832925e-14 -1.953922185724335514e-13
6.354000000000000000e+03 5.063741683959960938e+01 1.724837684631347656e+01 -1.445576920970290113e-13 -1.305797240084768940e-13 -8.254122618690448721e-14 -4.422020882062158154e-14
6.355000000000000000e+03 5.102916717529296875e+01 1.801954650878906250e+01 -1.687997072848113067e-13 2.021629662719154341e-13 1.000897752672464877e-14 -3.346700358248383411e-14
6.356000000000000000e+03 6.256313323974609375e+01 1.679340171813964844e+01 -8.779339966602170420e-14 -4.036333441960471280e-13 -1.474280224809942919e-13 -7.383033935734126252e-14
6.357000000000000000e+03 4.448907470703125000e+01 1.824859809875488281e+01 4.513843319302671131e-14 -2.640590654121033332e-14 5.619757826138323947e-15 -3.221297130407384246e-14
6.358000000000000000e+03 4.503487396240234375e+01 1.883665847778320312e+01 -7.517685746919605672e-14 1.050341928775060107e-13 8.957200622492986208e-15 -6.066275140634985741e-14
6.359000000000000000e+03 6.519532775878906250e+01 3.824093103408813477e+00 -1.015196769964948897e-13 4.799346277383279014e-14 -1.605786426679862988e-14 1.308206066261488609e-13
6.360000000000000000e+03 6.433129882812500000e+01 1.604648590087890625e+01 -1.078423645956699817e-13 -1.377200491235047730e-13 -7.366872547100514201e-14 1.123676347282442922e-13
6.361000000000000000e+03 6.594594573974609375e+01 3.484208822250366211e+00 -1.193838593521040492e-13 -1.083532000017636832e-13 -6.832111509565488849e-14 8.365256051875644139e-14
6.362000000000000000e+03 4.112154006958007812e+01 1.994392967224121094e+01 4.321779360842411058e-15 -8.964970963937918258e-14 -2.559837751655007904e-14 3.283563538799584569e-14
6.363000000000000000e+03 6.539555358886718750e+01 -3.987780094146728516e+00 -1.313526110796603419e-13 -5.629397908111025139e-14 -5.629397908111025139e-14 -1.443633827389288748e-15
6.364000000000000000e+03 6.623637390136718750e+01 -4.423012256622314453e+00 -1.473013063520850485e-13 1.656256105571699000e-13 5.497291261525455441e-15 -8.603431552248186343e-14
6.365000000000000000e+03 4.961054992675781250e+01 1.817552757263183594e+01 -1.194233649687639898e-13 5.175819557559462047e-14 -2.029954946269809518e-14 5.424004615676297769e-14
6.366000000000000000e+03 6.689714050292968750e+01 1.551901817321777344e+00 -7.849949667073155557e-14 1.210830718188001670e-14 -1.991735633843569331e-14 9.707665672771428715e-16
6.367000000000000000e+03 3.463433837890625000e+01 1.906397247314453125e+01 4.044962132712832947e-14 -7.416634716312167641e-14 -1.011501758139141463e-14 -7.486792761267346830e-14
6.368000000000000000e+03 3.438895034790039062e+01 1.986775398254394531e+01 -5.606639488071017696e-14 -2.070322537538193952e-13 -7.892959289629297714e-14 -7.326828217486119899e-14
6.369000000000000000e+03 6.731042480468750000e+01 -6.578043103218078613e-01 -2.423224042757098073e-14 -1.933890466385493334e-13 -6.528638578102291534e-14 -8.577441870920993194e-14
6.370000000000000000e+03 3.367041397094726562e+01 2.091752815246582031e+01 -1.841741277715247538e-13 -2.161846141554915612e-13 -1.201076185123467477e-13 6.356111519273746624e-14
6.371000000000000000e+03 6.784437561035156250e+01 -1.276724934577941895e+00 -2.794847415565210325e-13 5.107202434941927882e-14 -6.852381346806463158e-14 8.910204524073886412e-14
6.372000000000000000e+03 6.734476470947265625e+01 -1.885859966278076172e+00 -1.412749041015959328e-13 -1.062973358422966697e-13 -7.427167062791506513e-14 -5.095483564710075186e-14
6.373000000000000000e+03 3.379290771484375000e+01 9.349735260009765625e+00 5.635995617143778336e-14 1.614071154293003629e-13 6.533011978615554938e-14 -3.117879489745317700e-14
6.374000000000000000e+03 4.003385162353515625e+01 1.958955192565917969e+01 -1.650604125765214175e-14 9.658047880325634771e-14 2.402233041664831453e-14 -2.094294213690530565e-14
6.375000000000000000e+03 4.345250320434570312e+01 1.826281547546386719e+01 6.420717093853084423e-14 -1.823358867049981041e-14 1.379207569684884685e-14 -3.557984256611496088e-14
6.376000000000000000e+03 4.215922164916992188e+01 1.954405593872070312e+01 1.004998086704192439e-13 2.019587262995416882e-14 3.620870354307907657e-14 1.342324417851620266e-13
6.377000000000000000e+03 4.118600845336914062e+01 1.930014228820800781e+01 4.689591813836213596e-14 2.602907310262497775e-13 9.215599203887814284e-14 -3.841337783885151458e-14
6.378000000000000000e+03 6.707206726074218750e+01 7.871491432189941406e+00 4.892607569491292871e-15 -8.940506619542140654e-14 -2.535373746072409201e-14 2.712950645925894799e-14
6.379000000000000000e+03 3.480821609497070312e+01 1.828495979309082031e+00 -1.174559717065717934e-13 2.927938382198125300e-13 5.260135927634586317e-14 -1.163802093703727308e-15
6.380000000000000000e+03 3.415148925781250000e+01 3.061572074890136719e+00 -8.507783914217872945e-14 4.210475555450204910e-13 1.007909169537316019e-13 -1.615012817761125180e-14
6.381000000000000000e+03 5.748658370971679688e+01 1.853803253173828125e+01 -7.874830074052624473e-14 -1.710021149204168922e-13 -7.492512605353565669e-14 -2.380957268095697937e-14
6.382000000000000000e+03 3.455128479003906250e+01 1.561908054351806641e+01 -4.245295589133842029e-14 -1.096960182737048706e-13 -4.564469462120523957e-14 1.563796970605393910e-14
6.383000000000000000e+03 3.460606765747070312e+01 9.950291633605957031e+00 5.162929748981325007e-14 1.593796844718067818e-13 6.330269560492554626e-14 -1.382430546989846243e-13
6.384000000000000000e+03 4.772758102416992188e+01 1.843635940551757812e+01 -2.632613365586428111e-13 1.616793992523929413e-13 -3.047458525763310777e-14 -8.081765644077712474e-14
6.385000000000000000e+03 4.612412261962890625e+01 1.864686775207519531e+01 -1.324067401943865296e-13 -2.197335060216340508e-13 -1.056420711543007429e-13 -1.486913653455605028e-14
6.386000000000000000e+03 6.620174407958984375e+01 8.743730545043945312e+00 -1.157038196806722818e-13 -2.325911544528297403e-13 -1.044884868190397442e-13 1.357595405451078596e-13
6.387000000000000000e+03 6.646205902099609375e+01 7.724578380584716797e+00 -1.474331453362592859e-13 -1.743468752344028844e-14 -4.946035104375599845e-14 1.487241726256735563e-13
6.388000000000000000e+03 6.749499511718750000e+01 -6.554284572601318359e+00 -4.179307995597764114e-14 -1.780396441169659894e-13 -6.594981586663037354e-14 -3.037017320029096468e-14
6.389000000000000000e+03 6.728604125976562500e+01 -7.986934185028076172e+00 -8.872495972514840568e-14 -8.377592917345813572e-14 -5.175026734720832022e-14 3.794518545945438359e-14
6.390000000000000000e+03 5.509001922607421875e+01 1.799985694885253906e+01 -3.673178281042533896e-15 -9.307611376508512224e-14 -2.902479011258549124e-14 7.230975258669392058e-14
6.391000000000000000e+03 3.499166107177734375e+01 1.411537933349609375e+01 1.632143042679806699e-14 -3.590127056318087595e-13 -1.028073771404923453e-13 -5.862631479456106853e-14
6.392000000000000000e+03 5.996286392211914062e+01 1.764716911315917969e+01 -7.530647383891669877e-14 -3.227420162176496132e-14 -3.227420162176496132e-14 3.030889883688658859e-13
6.393000000000000000e+03 6.685151672363281250e+01 1.170254498720169067e-01 8.917746674842828153e-15 4.957284040728315855e-14 1.754717688696744854e-14 3.588947376591787586e-14
6.394000000000000000e+03 5.169798660278320312e+01 1.732490730285644531e+01 -1.025568857810667256e-13 1.848017859617037684e-13 2.467347174825700734e-14 -2.559280065162535672e-14
6.395000000000000000e+03 5.432787322998046875e+01 1.729701042175292969e+01 -1.627090118454938006e-13 -1.154833742739516667e-13 -8.345771583583364017e-14 1.414495013089475672e-13
6.396000000000000000e+03 3.660561752319335938e+01 4.770539999008178711e-01 -9.044253925427278573e-14 3.501219767668845018e-13 7.790382922090444140e-14 -7.583767191706239363e-14
6.397000000000000000e+03 3.434077835083007812e+01 3.989929199218750000e+00 -1.168607718189315636e-13 4.989282099444880547e-13 1.146202273719088005e-13 -7.147963996959397215e-14
6.398000000000000000e+03 3.514928817749023438e+01 2.750817298889160156e+00 -1.122636665161665104e-13 4.322719753761111727e-13 9.600249062510432529e-14 -6.507056856232609765e-14
6.399000000000000000e+03 3.503384780883789062e+01 1.140717697143554688e+01 -5.625133944254546992e-14 1.588960760927696225e-13 3.079342201150678249e-14 -6.681294921614608362e-14
6.400000000000000000e+03 3.538138580322265625e+01 1.211162567138671875e+01 -3.332158835423100485e-14 -1.057825769795912862e-13 -4.173124993895986623e-14 -6.604094983549135822e-14
6.401000000000000000e+03 6.544412231445312500e+01 -1.271842288970947266e+01 -7.317287915994605263e-14 -2.372390749561664736e-13 -9.312358826771283127e-14 1.007600375206064991e-13
6.402000000000000000e+03 6.355095291137695312e+01 -1.566469192504882812e+01 -2.791118065023721201e-14 -5.771288124050560908e-14 -2.568721941425579358e-14 -4.181031538238837164e-14
6.403000000000000000e+03 3.377872085571289062e+01 6.140948772430419922e+00 -7.696600789423163613e-14 2.186447908576055754e-13 4.250363217850675057e-14 -5.073631469923629844e-14
6.404000000000000000e+03 3.291186141967773438e+01 6.297079563140869141e+00 -1.498243532276760659e-13 3.017971614803494074e-13 4.559183637716478221e-14 8.647886551825523238e-14
6.405000000000000000e+03 6.077779769897460938e+01 -2.186024856567382812e+01 -3.108840292945398709e-14 1.239292414349779659e-13 2.785225256809673033e-14 -7.712486553535739114e-15
6.406000000000000000e+03 3.589443206787109375e+01 -8.195075035095214844e+00 -5.476898435100539808e-14 1.595313779082646599e-13 3.142871705073824184e-14 -2.377885079596006590e-14
6.407000000000000000e+03 3.765979003906250000e+01 -2.940032958984375000e+00 -9.359628008612577710e-14 2.343929900432834001e-13 4.223901569765271813e-14 -4.052276092805784380e-14
6.408000000000000000e+03 6.246537780761718750e+01 -1.740596389770507812e+01 -5.876723397192987197e-14 -2.310481839895182563e-15 -1.832331317653656394e-14 -2.047194269032097391e-14
6.409000000000000000e+03 6.390390014648437500e+01 -1.694339370727539062e+01 9.108556939837857136e-15 1.754697190499421300e-13 5.537348466040648010e-14 -2.525967614599739647e-14
6.410000000000000000e+03 3.673371505737304688e+01 -9.267221450805664062e+00 -6.292806309675033627e-14 2.932874754689451802e-13 6.910782574453752658e-14 -3.733934344986485077e-14
6.411000000000000000e+03 3.746136856079101562e+01 -1.453863716125488281e+01 4.747753500566019580e-15 2.636729810184812450e-13 8.052622289681302115e-14 -5.781541966096842566e-14
6.412000000000000000e+03 3.837052536010742188e+01 -1.147147655487060547e+01 -7.940748210887027536e-14 2.576305325758393439e-13 5.346691175195893153e-14 3.013349525416916808e-14
6.413000000000000000e+03 3.549095916748046875e+01 -1.917845606803894043e+00 -1.310953299041295317e-13 3.784503092851831951e-13 7.420648974855795221e-14 -1.850494753361398709e-14
6.414000000000000000e+03 3.571675872802734375e+01 -3.357484042644500732e-01 -1.588477613334582372e-13 3.665563946125827144e-13 6.231259540474820557e-14 2.162513908449213013e-14
6.415000000000000000e+03 6.006065750122070312e+01 -2.454573249816894531e+01 1.763596796269632783e-14 5.330922132223449295e-14 2.128355610785288843e-14 1.287861419070612801e-14
6.416000000000000000e+03 3.683450317382812500e+01 -5.463137149810791016e+00 -1.548983245272181342e-13 2.417190525429852022e-13 2.604621569422468919e-14 7.029692871237573984e-15
6.417000000000000000e+03 6.103613662719726562e+01 -2.962398147583007812e+01 3.438641380101511991e-14 4.905024479574977836e-14 2.503099757902946948e-14 -3.578091124713418669e-14
6.418000000000000000e+03 5.944871902465820312e+01 -2.774041938781738281e+01 4.379602149690020596e-14 9.311501629428661775e-14 4.107331201498240492e-14 3.618805965608859476e-14
6.419000000000000000e+03 4.056327056884765625e+01 -2.469836044311523438e+01 3.854506096896345713e-14 2.052419784690298621e-13 7.313611115377163796e-14 -1.500598995377803307e-14
6.420000000000000000e+03 5.589068984985351562e+01 1.797727966308593750e+01 -1.796423659784426863e-13 1.451231374112980921e-14 -4.953901329950161081e-14 1.234864397152077298e-13
6.421000000000000000e+03 5.668983078002929688e+01 1.794585037231445312e+01 -9.403953581555574148e-14 5.448290829043267794e-15 -2.657737311478891584e-14 3.457306259314028851e-14
6.422000000000000000e+03 6.282579040527343750e+01 1.609384155273437500e+01 -5.262091557303207046e-14 1.261387641473404875e-13 2.205535389466616730e-14 1.085150002353481996e-15
6.423000000000000000e+03 3.518037033081054688e+01 1.476809978485107422e+01 1.445233195000294318e-14 2.906933049308391137e-14 1.305649873292605637e-14 1.522746196443072048e-14
6.424000000000000000e+03 6.614694976806640625e+01 -3.906229138374328613e-01 -2.796038140601142530e-13 1.089245338890820758e-13 -5.120378540656236876e-14 -5.764362105047451945e-14
6.425000000000000000e+03 4.490042495727539062e+01 1.630936431884765625e+01 -2.938666291644326245e-14 7.890761069724583354e-14 1.485628535068030803e-14 -5.691864216278777477e-14
6.426000000000000000e+03 4.827468872070312500e+01 1.780136299133300781e+01 -1.177369291470442558e-13 4.104321524030056512e-14 -2.300811349439674941e-14 1.295132214364572154e-13
6.427000000000000000e+03 4.812196731567382812e+01 1.645003890991210938e+01 -3.770624762942931252e-14 -1.305371961782611501e-13 -5.047303314230713878e-14 1.259355033450537675e-13
6.428000000000000000e+03 6.642990875244140625e+01 1.120250988006591797e+01 5.614761517595649731e-14 -1.875348699031595401e-13 -3.941617675697409173e-14 1.167632478335164925e-13
6.429000000000000000e+03 6.689919281005859375e+01 1.330059719085693359e+01 -1.378620660555732180e-13 -4.365290681013211938e-13 -1.723173334708047455e-13 5.892253915687484245e-14
6.430000000000000000e+03 6.316386795043945312e+01 1.708649444580078125e+01 -9.584959101372955703e-14 -2.240821867253647848e-13 -9.597953264410194474e-14 4.872493332202729177e-14
6.431000000000000000e+03 6.231007766723632812e+01 1.739178466796875000e+01 -5.829645305984593184e-14 2.076675420167872765e-14 -1.125890931863698236e-14 1.123086947876425490e-13
6.432000000000000000e+03 6.075722503662109375e+01 1.803732681274414062e+01 -1.304025789260199186e-13 -3.761434523227857873e-13 -1.519638093746417118e-13 9.669375760149034882e-14
6.433000000000000000e+03 6.129274368286132812e+01 1.736124801635742188e+01 -5.919278332463043246e-14 -7.969758750517308421e-14 -4.166710921606198159e-14 1.506056564182234325e-13
6.434000000000000000e+03 6.491854095458984375e+01 1.630051422119140625e+01 -2.184561667846474098e-14 -7.798883067122730495e-14 -2.995033284965489817e-14 9.252776496382342231e-14
6.435000000000000000e+03 6.690692901611328125e+01 1.515612888336181641e+01 -1.198502915970367858e-14 -3.253930870410204346e-13 -1.012134305403492029e-13 -9.639506837330006489e-15
6.436000000000000000e+03 6.723324584960937500e+01 1.395392036437988281e+01 5.844458895792534192e-14 -1.122051670326973394e-13 -1.612817308361842034e-14 1.788321959050528931e-13
6.437000000000000000e+03 3.944756317138671875e+01 1.902876853942871094e+01 -9.756849869051523183e-14 -8.756601536539718178e-14 -5.554035353914736628e-14 -4.072817658216237868e-14
6.438000000000000000e+03 6.783175659179687500e+01 1.628792572021484375e+01 1.351534325671728889e-14 -1.314605569584584299e-13 -3.538356470344540539e-14 -1.412718683355129734e-13
6.439000000000000000e+03 6.630388641357421875e+01 1.665761184692382812e+01 -2.430046257872521022e-15 -9.254334359378932340e-14 -2.849201655315790338e-14 6.575087154424286151e-14
6.440000000000000000e+03 3.504302215576171875e+01 1.839220809936523438e+01 -7.990811246201545703e-14 7.441216967694203044e-14 -1.648783089631912155e-15 -1.877605906310756551e-14
6.441000000000000000e+03 6.635308074951171875e+01 1.590140914916992188e+01 -1.746198908939618905e-14 -5.323465870595359140e-14 -2.120899349157198688e-14 5.477424273154195278e-14
6.442000000000000000e+03 5.894534683227539062e+01 1.812720298767089844e+01 -6.872142964279084887e-14 8.492533255409148718e-14 4.861169518137475887e-15 1.775376585111052008e-13
6.443000000000000000e+03 6.672283935546875000e+01 1.466858100891113281e+01 -8.879332036618951124e-15 -2.783111198098597860e-13 -8.615713529983373697e-14 5.808855051700825833e-14
6.444000000000000000e+03 4.665922164916992188e+01 1.782968521118164062e+01 6.776794159472562806e-14 1.377019022896427969e-13 6.164095248768416968e-14 4.798764873968283662e-14
6.445000000000000000e+03 5.509140777587890625e+01 1.652601242065429688e+01 -2.299969025995607375e-13 3.868274448047374914e-14 -5.739424777453927540e-14 1.696439348589443008e-13
6.446000000000000000e+03 3.566182327270507812e+01 1.873528099060058594e+01 9.783714196600051122e-15 9.569491602129734376e-14 3.164358898066592374e-14 -3.829272646584461204e-14
6.447000000000000000e+03 6.739653015136718750e+01 1.116380691528320312e+01 -9.606681091898702785e-14 -9.836017634060056913e-14 -5.832809821075535250e-14 4.059798761816939272e-14
6.448000000000000000e+03 6.658922576904296875e+01 1.210446453094482422e+01 2.347696317136094973e-14 -1.271912940638622591e-13 -3.111429842071744556e-14 8.394494951588504783e-14
6.449000000000000000e+03 6.651219940185546875e+01 9.936946868896484375e+00 -7.263842169901932322e-14 -1.683836040435385262e-13 -7.230660840039371262e-14 5.103061460269391059e-14
6.450000000000000000e+03 3.729636001586914062e+01 1.908879089355468750e+01 -6.265415297039902964e-14 -2.685178129651320800e-14 -2.685178129651320800e-14 2.943492007751423445e-14
6.451000000000000000e+03 3.583128738403320312e+01 1.974490547180175781e+01 -7.980055283024131696e-14 -3.420023934734041371e-14 -3.420023934734041371e-14 -1.525864260247186688e-13
6.452000000000000000e+03 3.536813354492187500e+01 1.632464981079101562e+01 1.881188347457873888e-14 1.453150886296730726e-13 4.923808959839647004e-14 2.509173492354528634e-14
6.453000000000000000e+03 3.538180541992187500e+01 1.703505897521972656e+01 -1.286376062094307660e-13 -5.513040314520344098e-14 -5.513040314520344098e-14 -1.500031788235003938e-13
6.454000000000000000e+03 4.187446212768554688e+01 1.794418144226074219e+01 -2.370477098845909930e-14 -5.591013763073249265e-14 -2.388447241635088814e-14 1.102049292209424103e-13
6.455000000000000000e+03 4.284804153442382812e+01 1.767408561706542969e+01 2.962016279494696092e-14 1.499472068863458296e-13 5.387021124320101606e-14 4.425340150072563580e-15
6.456000000000000000e+03 6.621826934814453125e+01 5.197073459625244141e+00 -1.360830800259046902e-13 -1.040722683812861371e-13 -7.204660316690453259e-14 8.302751119005497005e-14
6.457000000000000000e+03 6.456230163574218750e+01 4.199428558349609375e+00 -5.008670141506445239e-14 -3.417223643810418654e-13 -1.175427214328977898e-13 2.865625962976230123e-15
6.458000000000000000e+03 4.054190444946289062e+01 1.893498611450195312e+01 8.101460854167269465e-14 -1.103040100529145348e-14 2.099526336205720378e-14 5.192256740120700098e-14
6.459000000000000000e+03 4.154948806762695312e+01 1.864906501770019531e+01 -1.695183300372618551e-14 3.848587708287290465e-14 6.460213562557194644e-15 -3.460760798486110790e-14
6.460000000000000000e+03 6.631600952148437500e+01 8.211983680725097656e+00 8.077687011030093567e-14 1.261205631033698871e-13 6.206922589834310000e-14 -4.128873282225990760e-14
6.461000000000000000e+03 5.820078659057617188e+01 1.795742225646972656e+01 9.497233254278543424e-15 -1.331826088215443127e-13 -3.710560979026771011e-14 7.221355674894014420e-14
6.462000000000000000e+03 6.477648162841796875e+01 3.114448070526123047e+00 -1.398013784814980398e-13 -1.056658287344053315e-13 -7.364016352002372701e-14 2.796477581294178061e-14
6.463000000000000000e+03 6.550571441650390625e+01 2.694179296493530273e+00 -1.487899769212798484e-14 -7.500313439984598873e-14 -2.696463996640537097e-14 1.744206992379537802e-13
6.464000000000000000e+03 3.608426284790039062e+01 1.802684020996093750e+01 -3.255621107715791357e-15 -2.301500190513700028e-13 -7.002168620319840220e-14 3.887868522403029742e-15
6.465000000000000000e+03 6.429541015625000000e+01 -4.523092269897460938e+00 -1.920221658546425458e-13 -1.737971068059215862e-13 -1.097457831534219552e-13 2.123036853740253860e-13
6.466000000000000000e+03 6.655124664306640625e+01 -3.510236263275146484e+00 -1.567867743187262297e-13 -6.719433088284501587e-14 -6.719433088284501587e-14 -1.059307365945932194e-14
6.467000000000000000e+03 4.725107192993164062e+01 1.811012649536132812e+01 -2.164846671067269246e-13 6.734917528186668001e-14 -4.474064958033714678e-14 -3.304970094255774149e-14
6.468000000000000000e+03 4.889949035644531250e+01 1.719839286804199219e+01 -2.002193712474092946e-13 2.856907283443552159e-14 -5.149508681338670069e-14 -3.940926242702565488e-15
6.469000000000000000e+03 6.433497619628906250e+01 -1.194416427612304688e+01 -1.121274568419844408e-13 -2.310584178415869827e-13 -1.029557637603241427e-13 -3.383111255332235667e-14
6.470000000000000000e+03 5.587815856933593750e+01 1.725173759460449219e+01 -1.666861093596594401e-13 -1.171878485093161282e-13 -8.516218329493452366e-14 2.675058161162352684e-15
6.471000000000000000e+03 6.665856933593750000e+01 -1.238266587257385254e+00 -1.879026177275394671e-13 1.482250466030426983e-13 -1.190327099853585174e-14 -1.262623225374223668e-14
6.472000000000000000e+03 4.498720169067382812e+01 1.757478713989257812e+01 -7.082727552240944413e-14 1.412115053795598429e-13 2.111526929595829855e-14 -2.188907116272478109e-14
6.473000000000000000e+03 4.556130218505859375e+01 1.812738990783691406e+01 5.274469080354844686e-14 2.260486821326328916e-14 2.260486821326328916e-14 1.003670345618712378e-14
6.474000000000000000e+03 5.292840576171875000e+01 1.734654808044433594e+01 -8.279844637606309510e-14 5.601685022955937843e-14 -8.034478505137936100e-15 8.083593202364708352e-14
6.475000000000000000e+03 5.360767364501953125e+01 1.732587242126464844e+01 -9.612859689029154553e-14 9.605487791882610926e-14 -2.211624201104659543e-17 5.416682185253873794e-14
6.476000000000000000e+03 3.651066207885742188e+01 1.246805286407470703e+01 -8.692840284402203466e-14 -1.745078826451487708e-13 -7.843088700200395724e-14 -6.037795860069222753e-14
6.477000000000000000e+03 6.426554107666015625e+01 2.365535020828247070e+00 -2.994225689872259677e-13 2.033704151263582283e-13 -2.881564751351303744e-14 3.137131193383692340e-14
6.478000000000000000e+03 6.576806640625000000e+01 1.517977714538574219e+00 -2.635343657707289733e-13 -2.144140069757372730e-14 -8.549272943227104182e-14 7.718648718227014149e-14
6.479000000000000000e+03 5.296826934814453125e+01 1.663725852966308594e+01 -7.105748552494600689e-14 -7.620415935641680627e-14 -4.417849075390341274e-14 1.516146962751013794e-13
6.480000000000000000e+03 5.228976058959960938e+01 1.734781646728515625e+01 -1.139563297241144579e-13 -2.775931611312398850e-13 -1.174648486118590185e-13 1.002502321065766588e-13
6.481000000000000000e+03 6.004058074951171875e+01 1.680419540405273438e+01 -3.351594853430797660e-14 3.138697187896576091e-14 -6.386936001136396274e-16 1.539271639837413996e-13
6.482000000000000000e+03 6.520156860351562500e+01 -1.164641094207763672e+01 -8.728335030650305471e-14 8.343798843849208752e-15 -2.368186552349944851e-14 -8.646713919413344385e-15
6.483000000000000000e+03 6.440912628173828125e+01 -1.300714874267578125e+01 -8.366622824239333678e-14 -3.585695447700688876e-14 -3.585695447700688876e-14 -6.881080855938512264e-14
6.484000000000000000e+03 3.577111816406250000e+01 1.279985904693603516e+01 -4.184046297904704670e-14 -6.493889898474131117e-15 -1.450030620206953225e-14 -3.006855154403728636e-14
6.485000000000000000e+03 3.459946060180664062e+01 8.315879821777343750e+00 -3.244287171606818378e-15 3.646171906068751412e-13 1.084118688918223050e-13 -2.058064005674986596e-13
6.486000000000000000e+03 3.389413452148437500e+01 7.093765258789062500e+00 -2.179490312184673151e-14 3.795423990284735316e-13 1.073242447062298932e-13 -7.071178088598542577e-14
6.487000000000000000e+03 3.534830474853515625e+01 3.747026205062866211e+00 -5.887824949812880959e-14 1.348947808923334213e-13 2.280496111232727802e-14 -1.376933455628096339e-14
6.488000000000000000e+03 3.504315948486328125e+01 -7.169033527374267578e+00 -6.101269798631028807e-14 2.483574056046794487e-13 5.620340754212624357e-14 -5.227694565754746614e-14
6.489000000000000000e+03 6.547651672363281250e+01 4.514359951019287109e+00 -1.497522266781514677e-13 -1.785569034209316674e-13 -9.849274038497765615e-14 1.232996723384699456e-13
6.490000000000000000e+03 5.124253082275390625e+01 1.654758834838867188e+01 -2.632572809648913575e-14 1.259703875499534886e-13 2.989339868307225312e-14 -1.312704556600402528e-13
6.491000000000000000e+03 3.610384750366210938e+01 1.348843097686767578e+01 1.445295917790038499e-15 -1.366334346011854883e-13 -4.055644234617246380e-14 -2.979315741596239020e-14
6.492000000000000000e+03 6.556799316406250000e+01 9.263436317443847656e+00 -5.140318712674139812e-14 -2.507846903233856839e-13 -9.065635747521408327e-14 9.903879880914998046e-14
6.493000000000000000e+03 3.354318237304687500e+01 5.178661346435546875e+00 -8.396888327884266534e-14 4.901492623235470525e-13 1.218541055818950225e-13 8.673674978124448764e-14
6.494000000000000000e+03 4.095323944091796875e+01 1.827366256713867188e+01 4.294148722586502154e-15 1.390931911749576644e-13 4.301620230807642886e-14 2.973179834926328868e-14
6.495000000000000000e+03 6.698458862304687500e+01 5.967497825622558594e+00 -1.983680011702002033e-13 -2.222677066270745128e-13 -1.261907109839296992e-13 -2.642076349910517374e-14
6.496000000000000000e+03 6.559986877441406250e+01 6.786261081695556641e+00 -9.837054402387496177e-14 4.934309457880169114e-14 -1.470823584996151789e-14 9.287878896969276044e-14
6.497000000000000000e+03 3.779957580566406250e+01 1.848646354675292969e+01 3.935544110652416938e-14 2.484807878119082991e-13 8.635086867552974055e-14 3.369453865497296779e-15
6.498000000000000000e+03 3.612864685058593750e+01 -2.804161548614501953e+00 -1.007661768154081983e-13 2.770711448902424268e-13 5.289148838957119514e-14 -3.724905990208290940e-14
6.499000000000000000e+03 3.695666885375976562e+01 -2.066997051239013672e+00 -1.055826297701942251e-13 2.978824055911016844e-13 5.768993681203038459e-14 -1.358902919389778224e-14
6.500000000000000000e+03 6.538235473632812500e+01 -6.120891094207763672e+00 -4.255602286036032356e-14 1.132956846828375719e-13 2.122189719149045889e-14 -8.171127620013041160e-14
6.501000000000000000e+03 6.507730865478515625e+01 -4.847660541534423828e+00 -5.374802165836189971e-14 2.514708276682431354e-13 5.931684315821708631e-14 -9.413275687359876076e-14
6.502000000000000000e+03 6.610894775390625000e+01 -6.649887561798095703e+00 -9.155964696269322523e-14 -1.164445737099686906e-13 -6.240126958993036377e-14 2.953006559441341550e-14
6.503000000000000000e+03 6.586849975585937500e+01 -5.292081832885742188e+00 -1.380213489072384947e-13 -2.879067427172254945e-13 -1.277784301978446280e-13 3.361081622440045824e-14
6.504000000000000000e+03 6.330808639526367188e+01 -1.316297817230224609e+01 -1.074066576238659476e-13 -1.375333224043484570e-13 -7.348199197558524798e-14 -3.033249717479709340e-14
6.505000000000000000e+03 6.454713439941406250e+01 -1.413580131530761719e+01 -4.941643407950675748e-14 -1.126803660686341579e-13 -4.862903902800273792e-14 -1.109397929831236126e-14
6.506000000000000000e+03 3.773801803588867188e+01 1.077152013778686523e+00 -7.513963545336191374e-14 2.079897804549771245e-13 3.985504146760548982e-14 -1.384818146520907720e-14
6.507000000000000000e+03 5.915884399414062500e+01 -1.863105773925781250e+01 -2.399474424762213648e-14 1.040939117671543790e-13 2.402975042526626220e-14 -2.786579493085743209e-14
6.508000000000000000e+03 5.998226547241210938e+01 -2.027023696899414062e+01 -3.363865311517902357e-14 1.228362843299496410e-13 2.675928868680482742e-14 -4.239521873752177816e-14
6.509000000000000000e+03 6.549065399169921875e+01 -7.472330093383789062e+00 -8.374184456766062268e-14 1.514035885595912956e-13 2.029852285876602297e-14 -1.116851091318739331e-13
6.510000000000000000e+03 6.611990356445312500e+01 -7.994458198547363281e+00 -6.037547848822266694e-14 -6.161813003195334981e-14 -3.659808458893187844e-14 1.231994107425693485e-13
6.511000000000000000e+03 6.557701110839843750e+01 -8.834410667419433594e+00 -4.650821082961310859e-14 7.156980493276329791e-14 7.518479586197772402e-15 -6.730479075543055467e-14
6.512000000000000000e+03 6.069871520996093750e+01 -1.452182292938232422e+01 1.006314528370156128e-15 1.719973311995956489e-13 5.190109342192820996e-14 -4.718236435233280623e-14
6.513000000000000000e+03 3.775805664062500000e+01 -8.382700920104980469e+00 -2.733332460922496127e-14 3.085423626661421004e-13 8.436271294173444679e-14 -3.901042002315202248e-15
6.514000000000000000e+03 3.839360046386718750e+01 -1.355971527099609375e+01 -4.732757968081008348e-14 3.342866077265388425e-13 8.608770570321319648e-14 1.882946279636605463e-14
6.515000000000000000e+03 3.853942489624023438e+01 -1.576110076904296875e+01 -5.644224372819764413e-14 1.445170887256694292e-13 2.642245417686789333e-14 1.066928544888852762e-14
6.516000000000000000e+03 5.662151718139648438e+01 -2.184266853332519531e+01 -1.412064062412173721e-14 1.312011480361641169e-13 3.512415239301930336e-14 -4.248847028875089860e-14
6.517000000000000000e+03 6.336513137817382812e+01 -1.439669322967529297e+01 -1.277768513284309460e-14 2.232785896276456850e-13 6.315027033200124040e-14 -1.677970743851463914e-14
6.518000000000000000e+03 6.207796096801757812e+01 -1.454343128204345703e+01 -7.062899527385257947e-14 -5.314504600826587544e-14 -3.713221340107507318e-14 -4.839762285054928503e-14
6.519000000000000000e+03 3.992688369750976562e+01 -1.965382575988769531e+01 -2.536373922576527079e-14 2.636355218334218709e-13 7.148153054713224375e-14 2.128719834952608192e-14
6.520000000000000000e+03 3.884889602661132812e+01 -1.723559761047363281e+01 3.244191753345310181e-14 1.854697358151177755e-13 6.537349464931854759e-14 2.958146694178459546e-14
6.521000000000000000e+03 5.771447372436523438e+01 -1.960115051269531250e+01 -8.542427222947394927e-15 1.564672870435490637e-13 4.437745540508165887e-14 -2.853402261107813864e-14
6.522000000000000000e+03 6.323158645629882812e+01 1.541189861297607422e+01 -1.714009522420928411e-13 -1.478028447245496868e-13 -9.576114044524547397e-14 6.881401966128816369e-15
6.523000000000000000e+03 3.536348724365234375e+01 1.554320812225341797e+01 -5.477207093906519275e-14 -1.836020620477399334e-13 -7.151224057366789566e-14 -6.422509415569474522e-14
6.524000000000000000e+03 6.630393218994140625e+01 1.354172325134277344e+01 -1.557113372431789128e-14 -1.782393948147192875e-13 -5.814316042518363759e-14 3.843555316141063216e-14
6.525000000000000000e+03 6.345334243774414062e+01 1.641375541687011719e+01 -1.189074880225682307e-13 -5.096035152565327186e-14 -5.096035152565327186e-14 -2.681301217500090504e-15
6.526000000000000000e+03 3.836474227905273438e+01 1.906626701354980469e+01 3.804503370327672052e-14 -8.234546670839865135e-14 -1.329012990153657925e-14 1.065472241142638443e-13
6.527000000000000000e+03 3.451796722412109375e+01 4.958718299865722656e+00 -9.096243452477031921e-14 2.583972803522210926e-13 5.023044968247708519e-14 -1.160232934033222918e-13
6.528000000000000000e+03 3.548746871948242188e+01 4.751762866973876953e+00 -6.708863472355483526e-14 3.830062623392388454e-13 9.477528896233156086e-14 -5.652018770000398484e-14
6.529000000000000000e+03 6.459113311767578125e+01 1.538488864898681641e+01 -3.119998088552990156e-14 3.237952847469013906e-14 3.538636044156693661e-16 1.724932452732905186e-13
6.530000000000000000e+03 6.657978820800781250e+01 1.412077999114990234e+01 4.785794173743683835e-15 -2.724546391448534610e-13 -8.030065463482741195e-14 -7.474506188378420620e-16
6.531000000000000000e+03 5.910979843139648438e+01 1.745892715454101562e+01 -6.101297581311698748e-14 -9.477484172893541059e-14 -4.673634390736300381e-14 3.840277976261546877e-14
6.532000000000000000e+03 6.634764099121093750e+01 1.530880165100097656e+01 -1.251195870001498012e-13 -9.937363432133139440e-14 -6.734796910694978989e-14 -6.852164506371966057e-14
6.533000000000000000e+03 6.713285064697265625e+01 1.656784820556640625e+01 -1.246507779807670691e-13 3.808013813674272774e-14 -2.597119229202048130e-14 4.276114120590037218e-15
6.534000000000000000e+03 6.706735992431640625e+01 1.576746845245361328e+01 -1.462305991085151996e-14 -1.206443934554171649e-13 -4.058023719572673160e-14 -5.182098104577689823e-14
6.535000000000000000e+03 4.886962127685546875e+01 1.572728633880615234e+01 -1.059589292392096316e-13 -2.055392938097796995e-13 -9.344946555944408373e-14 -9.088769911376817778e-14
6.536000000000000000e+03 4.954296112060546875e+01 1.685098075866699219e+01 -8.442991314763781396e-14 -8.193519783006655843e-14 -4.990953261568495392e-14 2.028551344913573362e-13
6.537000000000000000e+03 6.598857116699218750e+01 1.170835685729980469e+01 -9.323963178148667041e-14 5.726092478864144852e-14 -1.079361209785356657e-14 1.126411315025173387e-13
6.538000000000000000e+03 6.681705474853515625e+01 1.074451351165771484e+01 7.437509673890660422e-14 8.999567516448751803e-15 2.501239842957365955e-14 4.603246969259004728e-14
6.539000000000000000e+03 3.658352661132812500e+01 1.731204223632812500e+01 -9.145586170973205031e-14 3.800935667553836939e-14 -1.603395083263174647e-14 -1.433861608276815885e-14
6.540000000000000000e+03 5.013890457153320312e+01 1.663120079040527344e+01 -6.380603646350194169e-14 6.415645738191283476e-14 1.051261855260172745e-16 3.221201585090933961e-14
6.541000000000000000e+03 6.506703948974609375e+01 1.029593372344970703e+01 -8.564793297326234178e-14 -1.383078256143952661e-14 -2.984361347456443436e-14 1.688327754510721146e-13
6.542000000000000000e+03 6.591704559326171875e+01 9.682783126831054688e+00 -6.786444914060399403e-14 1.081680792570753613e-13 1.209108869612823128e-14 1.528774665453952464e-13
6.543000000000000000e+03 4.257423400878906250e+01 1.636240005493164062e+01 -5.451991939506295459e-14 6.813621796766464178e-14 4.084890080000274509e-15 3.106068462328803736e-14
6.544000000000000000e+03 4.246648406982421875e+01 1.832575607299804688e+01 3.232282470106914718e-14 5.960358752778519009e-14 2.757792400746948008e-14 7.410149832067988718e-14
6.545000000000000000e+03 4.328177642822265625e+01 1.700424003601074219e+01 1.715077902017959205e-14 1.446031743781647783e-13 4.852618889941533176e-14 -1.706113074710809141e-14
6.546000000000000000e+03 4.391110610961914062e+01 1.763487815856933594e+01 3.914710149468571265e-14 1.540301767426546786e-13 5.795318109950986507e-14 -1.487933650530688656e-14
6.547000000000000000e+03 3.671295928955078125e+01 1.853480529785156250e+01 -8.257822458604055504e-14 5.611123002867424159e-14 -7.940097011957178430e-15 3.508703879740240894e-14
6.548000000000000000e+03 3.527232360839843750e+01 1.936623573303222656e+01 -3.271889053094167998e-14 -2.313393888345866012e-13 -7.921748245440576874e-14 -4.076995732931864430e-15
6.549000000000000000e+03 3.717441558837890625e+01 1.669403266906738281e+01 1.526925457004824765e-14 -2.658171534448972029e-13 -7.516436881542173931e-14 -2.731954423020608105e-15
6.550000000000000000e+03 3.601185607910156250e+01 1.666407966613769531e+01 3.755603141843144588e-14 -3.041612101073454255e-13 -7.998155360667419389e-14 7.264066464226365261e-14
6.551000000000000000e+03 5.828797912597656250e+01 1.732555770874023438e+01 -8.903483148230834088e-14 7.593164175223078571e-15 -2.443249934509263144e-14 2.014569473697200297e-13
6.552000000000000000e+03 6.399175643920898438e+01 4.552377700805664062e+00 -1.443009123650029757e-13 -1.609229954423630621e-14 -4.811796306455201622e-14 1.011780042343632391e-13
6.553000000000000000e+03 3.580331039428710938e+01 1.102189636230468750e+01 -4.055128899772136863e-14 -2.003829231451287329e-13 -7.228026228760231486e-14 -6.029087006118732939e-14
6.554000000000000000e+03 6.213185501098632812e+01 -1.320075988769531250e+01 -5.209755424371437238e-14 2.342342560689679443e-14 -8.602238760451862837e-15 -1.581477766939790724e-14
6.555000000000000000e+03 6.087105178833007812e+01 1.661025428771972656e+01 -8.535086157800131357e-14 9.172008177916676774e-15 -2.285365534239903323e-14 2.343481040733425003e-13
6.556000000000000000e+03 6.593281555175781250e+01 1.291002178192138672e+01 -1.825366843354742086e-13 1.327189074108335240e-14 -5.077943884064690938e-14 3.896990220212011302e-14
6.557000000000000000e+03 3.582241821289062500e+01 1.451737403869628906e+01 1.798932130917061528e-14 -2.210450382846354533e-13 -6.091671221272743075e-14 -8.052354627269969756e-14
6.558000000000000000e+03 3.774853515625000000e+01 1.730358695983886719e+01 -4.016278547800192222e-14 -1.087145171520080555e-13 -4.466319011137663553e-14 -2.694063505268018410e-14
6.559000000000000000e+03 6.610695648193359375e+01 -2.066040039062500000e+00 -1.320822655892159303e-13 -2.396104690528810810e-13 -1.115078217478818190e-13 -1.141238914758061981e-14
6.560000000000000000e+03 6.543697357177734375e+01 5.962064266204833984e+00 -1.770774960040480406e-13 -3.732715091880889346e-13 -1.651047056233992394e-13 1.076003232369261708e-13
6.561000000000000000e+03 6.547910308837890625e+01 5.196006774902343750e+00 -4.053101102896410068e-14 -1.737043329812747172e-14 -1.737043329812747172e-14 8.143332403255480745e-16
6.562000000000000000e+03 5.668070220947265625e+01 1.724198532104492188e+01 -1.402307903044380799e-13 3.059086729588489373e-13 4.970336479632325721e-14 6.682660338725582294e-14
6.563000000000000000e+03 5.834602355957031250e+01 1.664221572875976562e+01 -1.089366837296774915e-13 9.056569784480356100e-14 -5.511296527791831670e-15 -8.230996925164511813e-15
6.564000000000000000e+03 6.537866973876953125e+01 9.243862628936767578e-01 -3.673539201781358954e-14 -1.574373871017758358e-14 -1.574373871017758358e-14 -5.020485573494284925e-14
6.565000000000000000e+03 3.994580459594726562e+01 1.841800308227539062e+01 -2.366626656474281332e-14 8.135920864967005617e-14 1.730788330310453066e-14 -1.730736322487491652e-14
6.566000000000000000e+03 6.553506469726562500e+01 8.623028755187988281e+00 -2.010686174917547704e-15 4.488922593554912910e-14 1.286356241523341909e-14 8.960000574603430024e-14
6.567000000000000000e+03 6.404857635498046875e+01 7.096532344818115234e+00 -1.115150994549646279e-13 2.083423731658647776e-14 -2.720425881092003451e-14 4.831497953995157746e-14
6.568000000000000000e+03 6.624594879150390625e+01 5.950757026672363281e+00 -1.802122090877739113e-13 -1.687356986990531937e-13 -1.046843750465535627e-13 8.942827489817617437e-14
6.569000000000000000e+03 5.590510940551757812e+01 1.574982452392578125e+01 -2.395724677667354641e-13 3.457893083739886630e-14 -6.149806141761415823e-14 -5.024896751676995871e-15
6.570000000000000000e+03 5.433802032470703125e+01 1.655715370178222656e+01 -6.390603378512299537e-14 1.098645439488905862e-13 1.378755423497640339e-14 1.570288766638422429e-13
6.571000000000000000e+03 6.412757110595703125e+01 7.807533264160156250e+00 -1.543381037121677180e-13 -1.576468041395232000e-13 -9.359547371075999100e-14 1.734073632299673595e-13
6.572000000000000000e+03 4.088313674926757812e+01 1.729026222229003906e+01 -5.373305628024981073e-14 1.485376085368431132e-13 2.844136398291209622e-14 3.694144125256267064e-14
6.573000000000000000e+03 5.114884185791015625e+01 1.728586006164550781e+01 -8.291663118912759312e-14 -1.727885412874941018e-13 -7.671155242061286628e-14 -5.909918279582704326e-14
6.574000000000000000e+03 3.450146102905273438e+01 9.164491653442382812e+00 -8.629191518240084124e-14 8.768699369312172448e-15 -2.325696499803648482e-14 -3.909176652630748372e-14
6.575000000000000000e+03 3.554191589355468750e+01 1.034257030487060547e+01 -8.619605138156238855e-14 3.290664182115099479e-13 7.286111004898426780e-14 -1.187020723684636958e-13
6.576000000000000000e+03 3.888028335571289062e+01 1.846557998657226562e+01 1.651431846361271077e-14 1.443304162166217375e-13 4.825341718534513491e-14 -1.073034009194638594e-13
6.577000000000000000e+03 6.507585144042968750e+01 -9.868089675903320312e+00 -1.074759923527963956e-13 3.400302297216530045e-14 -2.204189115300250745e-14 8.706804130757458959e-15
6.578000000000000000e+03 6.456449890136718750e+01 -1.093959712982177734e+01 -1.107260738650371439e-15 -4.745403090016507303e-16 -4.745403090016507303e-16 3.651429608978948305e-14
6.579000000000000000e+03 3.767014694213867188e+01 -4.632081508636474609e+00 -9.565329621040105645e-14 1.877604788227266175e-13 2.763215444488448941e-14 -1.227931296953529289e-14
6.580000000000000000e+03 5.362346267700195312e+01 1.586839866638183594e+01 -1.083114175605415230e-13 -9.217012732470192260e-14 -6.014446211032031808e-14 7.858909920402390448e-14
6.581000000000000000e+03 5.235073089599609375e+01 1.664822769165039062e+01 -7.793310945582512805e-14 5.810199462394707859e-14 -5.949333687233762311e-15 1.328662928377216668e-13
6.582000000000000000e+03 3.939508819580078125e+01 -1.062176132202148438e+01 -4.473342947149475113e-14 3.010851659136781766e-13 7.690552296553410105e-14 2.164327405989284470e-14
6.583000000000000000e+03 3.863544082641601562e+01 -9.481647491455078125e+00 -8.541685560898779062e-14 3.065249063686353859e-13 6.633241048450977395e-14 4.981747029871377852e-14
6.584000000000000000e+03 3.632790756225585938e+01 -1.188886642456054688e+00 -7.850667273386069400e-14 2.637354581686707222e-13 5.556863088705850384e-14 -8.835208226923990660e-14
6.585000000000000000e+03 3.469750595092773438e+01 5.939890384674072266e+00 -4.553798879864193183e-14 4.379932018200999311e-13 1.177365632288110420e-13 -1.364267179044739708e-13
6.586000000000000000e+03 3.487334060668945312e+01 6.922249317169189453e+00 -5.533658112896050474e-14 6.778621717759558685e-14 3.734891407513587711e-15 -1.049001922652503804e-13
6.587000000000000000e+03 6.582820892333984375e+01 4.333268404006958008e-01 5.583573002148093864e-15 1.853967554563823450e-13 5.729410137511950496e-14 9.049182471334172445e-15
6.588000000000000000e+03 6.505854034423828125e+01 1.966088652610778809e+00 -9.303538842098113548e-14 -1.771251602420559346e-13 -8.104816459891112101e-14 -4.421280321156373719e-15
6.589000000000000000e+03 4.877982711791992188e+01 1.645863533020019531e+01 -1.621898009776176486e-13 -6.950991567273093197e-14 -6.950991567273093197e-14 1.871065287298648294e-13
6.590000000000000000e+03 3.685219192504882812e+01 -3.710589170455932617e+00 -1.045417414744995166e-13 2.997582379798274799e-13 5.856494217533481095e-14 1.346056140085361702e-14
6.591000000000000000e+03 6.489113616943359375e+01 -8.330223083496093750e+00 -1.604472305884174776e-13 -2.301214706529157439e-14 -5.503781227967317891e-14 3.227346978529853361e-14
6.592000000000000000e+03 4.773050308227539062e+01 1.732268905639648438e+01 -3.042427963208249597e-13 2.956659439848352555e-13 -2.573058665412226650e-15 6.671930125349764817e-14
6.593000000000000000e+03 6.484000396728515625e+01 8.605800628662109375e+00 -1.459999249319235415e-13 -1.998242473181741086e-13 -1.037472516750292950e-13 1.907512098579464133e-13
6.594000000000000000e+03 6.562828826904296875e+01 7.948017597198486328e+00 -7.264723761793434598e-14 1.461641917254504625e-14 -1.740924434777066376e-14 1.282896721797530115e-13
6.595000000000000000e+03 6.572445678710937500e+01 -3.054728746414184570e+00 -7.577009224039865654e-14 1.962818471125393760e-13 3.615352442876314243e-14 -5.265854416468089549e-14
6.596000000000000000e+03 6.355488967895507812e+01 -4.702975749969482422e+00 -3.089507411786941585e-16 -2.975135871170764279e-13 -8.934675644733242050e-14 -1.412695373008421296e-13
6.597000000000000000e+03 3.624124526977539062e+01 2.384953498840332031e+00 -7.306000016126315555e-14 1.974433122423416287e-13 3.731499294669718414e-14 -1.553602590272009504e-14
6.598000000000000000e+03 3.637362670898437500e+01 3.542356967926025391e+00 -5.431955205732405534e-14 2.969768257265331668e-13 7.279718277838909124e-14 -3.608422696928237361e-14
6.599000000000000000e+03 6.080691909790039062e+01 -1.786523628234863281e+01 1.413240591175909944e-14 8.612090261848198702e-14 3.007599188144596813e-14 -7.120698345200460189e-14
6.600000000000000000e+03 6.215437316894531250e+01 -1.596394062042236328e+01 3.498406669607059816e-14 3.123743397195205551e-13 1.042075226023037038e-13 -1.775343787995334321e-14
6.601000000000000000e+03 3.924996948242187500e+01 -1.255619049072265625e+01 -3.647763480976642242e-15 1.128140414202380426e-13 3.274988516054760934e-14 1.399021110277173102e-14
6.602000000000000000e+03 4.004541015625000000e+01 -1.167926883697509766e+01 -3.447074778937554707e-14 2.597325024326913034e-13 6.757853147519241044e-14 8.743240777642907746e-14
6.603000000000000000e+03 5.888876342773437500e+01 -1.582009220123291016e+01 1.838472984147607875e-14 1.680074943099033047e-13 5.591766605956768887e-14 -5.397911935142718498e-14
6.604000000000000000e+03 5.549216842651367188e+01 -1.747399902343750000e+01 1.139629213345099909e-14 1.950365053921682135e-13 6.192983815654293234e-14 -7.421621368679243158e-14
6.605000000000000000e+03 3.873624801635742188e+01 -7.482131481170654297e+00 -1.069743726651688209e-13 2.286595392197998677e-13 3.650554793351024063e-14 5.239411064294346998e-14
6.606000000000000000e+03 4.182181167602539062e+01 -2.024275207519531250e+01 1.021473877027166341e-14 1.581548240081002282e-14 7.809066097214621693e-15 2.601390223431988488e-15
6.607000000000000000e+03 4.411611557006835938e+01 -1.863224411010742188e+01 8.069852295081170190e-14 1.832756629837131723e-13 7.919225442510474666e-14 -4.607627146035846166e-14
6.608000000000000000e+03 5.362953567504882812e+01 1.659900474548339844e+01 -1.106473311411615423e-13 -9.317123217692999115e-14 -6.114556696254838664e-14 1.356349521629621191e-13
6.609000000000000000e+03 5.588369369506835938e+01 1.651299476623535156e+01 -1.306199208040217941e-13 2.642766647881211739e-13 4.009702522810888736e-14 1.506974951184965328e-14
6.610000000000000000e+03 6.162100982666015625e+01 1.617744636535644531e+01 2.727047772915400757e-15 -1.246463734094413467e-13 -3.657579745802372329e-14 1.933007925817090134e-13
6.611000000000000000e+03 3.721103668212890625e+01 1.790353584289550781e+01 5.217449532851116401e-14 -1.520649925423889215e-13 -2.996714814772379054e-14 -1.841691709347174216e-14
6.612000000000000000e+03 6.656159973144531250e+01 1.267839622497558594e+01 3.513618703713389246e-14 -7.817109522081748529e-15 8.195723085109053729e-15 1.466508121536480580e-13
6.613000000000000000e+03 6.602787017822265625e+01 1.433544731140136719e+01 -9.610387708075887603e-14 -4.071949754377163222e-13 -1.509896537226634861e-13 -6.970279523921610321e-14
6.614000000000000000e+03 5.190424728393554688e+01 1.591031169891357422e+01 1.466673970587552972e-14 9.778764305462886441e-14 3.373631601399744440e-14 5.815662486091319194e-14
6.615000000000000000e+03 5.433416366577148438e+01 1.579833602905273438e+01 -1.905620436839020049e-13 -8.166944632506320523e-14 -8.166944632506320523e-14 1.420781759386632870e-13
6.616000000000000000e+03 6.376861572265625000e+01 1.575110054016113281e+01 -1.067480590141896279e-13 -9.150011748716019300e-14 -5.947445227277858848e-14 1.000175148865162233e-13
6.617000000000000000e+03 6.586115264892578125e+01 1.520481109619140625e+01 -4.033021678661978526e-14 -2.002881774277806559e-13 -7.218551657025423784e-14 7.267022270399103867e-14
6.618000000000000000e+03 3.613932418823242188e+01 1.528798675537109375e+01 7.093319529839769988e-14 -6.110195493016015722e-14 2.949370839921841916e-15 1.362051476379994019e-13
6.619000000000000000e+03 6.513574981689453125e+01 1.562008666992187500e+01 -1.057118124590458730e-14 4.122044163792047688e-14 9.194778117604766876e-15 5.930439516202423711e-14
6.620000000000000000e+03 5.917731857299804688e+01 1.673776626586914062e+01 -2.606073722707241691e-14 -1.116888750403574257e-14 -1.116888750403574257e-14 2.672559439378940915e-13
6.621000000000000000e+03 5.992425155639648438e+01 1.600373649597167969e+01 -5.032683525561104654e-14 1.306831441902378023e-15 -1.470600137704666105e-14 2.303885977394254381e-13
6.622000000000000000e+03 5.748066329956054688e+01 1.725682830810546875e+01 -9.107907434973902538e-14 -3.903389045908749189e-14 -3.903389045908749189e-14 7.305341363306530611e-14
6.623000000000000000e+03 4.945014953613281250e+01 1.621442031860351562e+01 -4.699702676720998729e-14 7.136031674424836435e-14 7.308987162518102570e-15 2.047380108060724985e-14
6.624000000000000000e+03 4.997457122802734375e+01 1.521049690246582031e+01 -1.298079482445202437e-13 8.162086729147227659e-14 -1.445612496354074794e-14 -4.434544772407081337e-14
6.625000000000000000e+03 6.541468811035156250e+01 1.108638191223144531e+01 -1.929085959983395382e-13 -2.142090893770057236e-13 -1.221353069678562941e-13 9.209292535375737665e-14
6.626000000000000000e+03 6.594792175292968750e+01 1.074537467956542969e+01 -4.735449161161024711e-14 -1.457591236294145109e-14 -1.857912051473915166e-14 1.603208939302686042e-13
6.627000000000000000e+03 6.480945587158203125e+01 -6.942332267761230469e+00 -1.228270821640106703e-13 -1.841741548765790659e-13 -9.210037246742963646e-14 -4.240576429771509420e-15
6.628000000000000000e+03 6.466650390625000000e+01 -5.650024890899658203e+00 -1.881163952908992965e-13 -1.606854704632940112e-13 -1.046405597262579923e-13 4.792630661364268019e-14
6.629000000000000000e+03 4.654386901855468750e+01 1.661641311645507812e+01 -9.559575895635996634e-14 2.106606040866779161e-13 3.451945557197445835e-14 5.947163334713012617e-14
6.630000000000000000e+03 4.712172698974609375e+01 1.699783325195312500e+01 -3.042668046226819356e-14 1.470883148353002712e-13 3.499848997309644438e-14 4.104441802708566622e-14
6.631000000000000000e+03 4.378169631958007812e+01 1.634927368164062500e+01 -3.544585338880411850e-15 4.709127442918507878e-14 1.306400683297051848e-14 1.448686548326250101e-14
6.632000000000000000e+03 6.362898254394531250e+01 4.043240547180175781e+00 -8.080404292724885362e-14 -1.833208877668329739e-13 -7.923747920822454827e-14 8.773448683047427310e-14
6.633000000000000000e+03 6.413775634765625000e+01 3.559737682342529297e+00 -1.381241177206629644e-13 9.807283565983759832e-14 -1.201538597350032544e-14 5.559296783769901440e-14
6.634000000000000000e+03 6.620080566406250000e+01 1.483529376983642578e+01 -9.560210153906900654e-14 -1.095987517863057648e-13 -6.156025396473335798e-14 -9.821089525397647124e-14
6.635000000000000000e+03 3.551853179931640625e+01 1.382264614105224609e+01 -3.240509192903827385e-14 1.233649548617807290e-13 2.728795752457002094e-14 8.985865911493966240e-15
6.636000000000000000e+03 3.642178344726562500e+01 1.417239665985107422e+01 -5.721063136036527719e-14 1.356094734119087097e-13 2.351965363190256647e-14 9.356725099647395134e-16
6.637000000000000000e+03 6.425969696044921875e+01 1.044457530975341797e+01 -1.396130932217187759e-13 -3.695870717215950230e-14 -5.297153977935030456e-14 1.015850340587050316e-13
6.638000000000000000e+03 3.891760253906250000e+01 1.497540760040283203e+01 -7.065581572509443964e-14 -2.401580233372382564e-15 -2.191721976162793600e-14 -8.106211692561829385e-14
6.639000000000000000e+03 3.659926605224609375e+01 1.603913688659667969e+01 -5.728624768563256309e-14 1.984846342189053314e-13 4.235951460472911489e-14 -6.310468640691180298e-14
6.640000000000000000e+03 4.439485931396484375e+01 1.698017883300781250e+01 3.364488050140723718e-14 5.445131311446714528e-14 2.642885944001503035e-14 -1.820594320916732456e-14
6.641000000000000000e+03 3.831841659545898438e+01 1.789200973510742188e+01 4.391375907656855371e-14 -1.027057738444032975e-13 -1.763760612441631764e-14 1.517263826513945424e-13
6.642000000000000000e+03 4.116977691650390625e+01 1.622970962524414062e+01 -9.432173331226298418e-14 9.111038068746954433e-14 -9.634057450863845948e-16 7.897545464818911398e-15
6.643000000000000000e+03 4.216408157348632812e+01 1.716073608398437500e+01 6.661244635313562368e-14 7.429914160046041660e-14 4.227347299794702307e-14 1.139723826925308214e-14
6.644000000000000000e+03 4.542034912109375000e+01 1.563032817840576172e+01 -1.190569723970996696e-13 -5.102441770965179813e-14 -5.102441770965179813e-14 5.666978388288446133e-14
6.645000000000000000e+03 6.390396881103515625e+01 1.498029828071594238e+00 -1.920850495806467051e-13 9.179732271362688739e-15 -5.487159731036757304e-14 2.332722976914301805e-14
6.646000000000000000e+03 3.644989395141601562e+01 4.601961612701416016e+00 -7.012939491277125903e-14 1.300728594928399207e-13 1.798304140689967190e-14 -6.184489769259227110e-14
6.647000000000000000e+03 5.073108291625976562e+01 1.578705596923828125e+01 -3.913668637756627378e-14 2.119818806167045322e-13 5.185355793292829862e-14 -9.673148783709284437e-14
6.648000000000000000e+03 5.070462417602539062e+01 1.654385566711425781e+01 -1.214498608018838022e-13 3.945195881679790240e-14 -2.459936822383351762e-14 8.923746886834588166e-14
6.649000000000000000e+03 5.752164459228515625e+01 1.656445503234863281e+01 -1.786583915205398887e-14 3.809416161421746994e-14 6.068496399835865418e-15 1.568854096113680985e-13
6.650000000000000000e+03 3.612522125244140625e+01 1.172967147827148438e+01 -2.536281765391865811e-14 1.149453253933285790e-13 2.687475452410863913e-14 -3.979517995515713391e-14
6.651000000000000000e+03 5.670000457763671875e+01 1.652313995361328125e+01 -1.734980702942229280e-13 1.714557993194934515e-14 -4.690574710868207486e-14 6.928087457566158014e-15
6.652000000000000000e+03 3.529821395874023438e+01 9.732898712158203125e+00 -7.066830607293465155e-15 8.847325541454231779e-14 2.442192837391089777e-14 -3.347227212741575586e-14
6.653000000000000000e+03 3.712222290039062500e+01 1.045029449462890625e+01 -2.000956434507379644e-14 -1.458283770431820225e-13 -4.975138140003720899e-14 -9.409182146532385493e-14
6.654000000000000000e+03 6.247343444824218750e+01 -1.083071422576904297e+01 -7.181446192924823002e-14 6.072427310337483175e-14 -3.327057113630140471e-15 -2.739607111589166533e-14
6.655000000000000000e+03 3.561924362182617188e+01 5.726419448852539062e+00 -8.119769640728760618e-14 1.024538323645719784e-13 6.376841803624848370e-15 -5.212780687245850697e-14
6.656000000000000000e+03 3.744162750244140625e+01 2.293798685073852539e+00 -7.727128534468566401e-14 3.100158476286585252e-13 6.982337207332364737e-14 -5.534108734423989762e-14
6.657000000000000000e+03 6.524534606933593750e+01 2.761803865432739258e-01 -2.651084917999063650e-13 1.608877690361526502e-13 -3.126621547387339883e-14 1.040923938841128993e-13
6.658000000000000000e+03 6.488083648681640625e+01 7.797991275787353516e+00 3.182905531479672534e-14 2.881467037630508488e-13 9.599273280555195575e-14 1.332810662372672580e-14
6.659000000000000000e+03 6.406857299804687500e+01 -2.353327989578247070e+00 -1.492251824495791079e-13 7.329919548930419193e-14 -2.277779676570883260e-14 1.159057862166155972e-15
6.660000000000000000e+03 5.509470367431640625e+01 1.495870971679687500e+01 -1.659340796277691821e-13 -4.823912943359084937e-14 -6.425196204078165163e-14 2.637885400294092547e-14
6.661000000000000000e+03 3.844771575927734375e+01 -3.801121473312377930e+00 -1.392677612772549867e-13 3.063214016208598567e-13 5.011609007020238760e-14 5.754758784304661590e-14
6.662000000000000000e+03 3.774133300781250000e+01 -1.383103728294372559e+00 -1.304515306541076392e-13 3.558507384159720344e-13 6.761976503906474978e-14 -1.215783489237187015e-14
6.663000000000000000e+03 5.289295196533203125e+01 1.530355930328369141e+01 -1.421148490771476092e-14 -5.184158427518591183e-14 -1.981592075487020183e-14 3.056005155963742448e-13
6.664000000000000000e+03 5.178043746948242188e+01 1.660456657409667969e+01 -5.435472764155763192e-14 -2.062986825639157029e-13 -7.819602170638928484e-14 7.935730387707493061e-14
6.665000000000000000e+03 3.717333602905273438e+01 -4.998703002929687500e-01 -1.209797507398940875e-13 2.684081797967030614e-13 4.422852668416361877e-14 -8.132968108112877126e-15
6.666000000000000000e+03 3.808593750000000000e+01 1.473921537399291992e-02 -7.309182827128918314e-14 4.261844241230938746e-13 1.059277787555414074e-13 3.370646996106799187e-14
6.667000000000000000e+03 3.841231155395507812e+01 -2.200433492660522461e+00 -1.346378656350358249e-13 3.998075470950518406e-13 7.955090172749937349e-14 5.574350592121683767e-14
6.668000000000000000e+03 3.939302825927734375e+01 1.787241744995117188e+01 -3.934379270943352824e-14 2.888932243926521648e-14 -3.136340657534019902e-15 -2.301636020717121728e-14
6.669000000000000000e+03 4.041502761840820312e+01 1.782260513305664062e+01 -6.152139886937690871e-14 -2.636631283312387830e-14 -2.636631283312387830e-14 5.248234437099305594e-14
6.670000000000000000e+03 6.492046356201171875e+01 9.424673080444335938e+00 -7.638781134597458916e-15 -1.405266148672007498e-13 -4.444961583592414722e-14 1.554670698818497176e-13
6.671000000000000000e+03 6.408248901367187500e+01 8.624294281005859375e+00 -1.328290775981511018e-13 -7.980221979108151342e-14 -6.378938718389071116e-14 1.577988363891599799e-13
6.672000000000000000e+03 6.571505737304687500e+01 1.581841564178466797e+01 -8.079051072888351892e-14 -1.261264042425741527e-13 -6.207507381381094369e-14 5.576279455549171260e-14
6.673000000000000000e+03 6.348394012451171875e+01 -9.831508636474609375e+00 -4.443098449921634163e-14 1.639619429810723616e-13 3.585928889980952161e-14 -1.227736987595429152e-14
6.674000000000000000e+03 6.491946411132812500e+01 4.856325149536132812e+00 -1.823683755007229901e-13 1.048459211702539029e-13 -2.325673799320662066e-14 1.810079457197424913e-13
6.675000000000000000e+03 6.480437469482421875e+01 6.954118251800537109e+00 -1.442712865406398093e-13 -8.470602555965198177e-14 -6.869319295246117951e-14 1.090486140514594637e-13
6.676000000000000000e+03 6.412222290039062500e+01 -6.425793647766113281e+00 -3.207783227953710237e-14 1.006297299720008975e-13 2.056556863011278075e-14 -1.267270522461311222e-13
6.677000000000000000e+03 5.928533935546875000e+01 -1.424773406982421875e+01 -7.233666790562587323e-14 -8.125954675309611519e-15 -2.413878728250041378e-14 -2.384217497909679739e-14
6.678000000000000000e+03 4.548476028442382812e+01 1.687255668640136719e+01 2.734091571849825431e-14 1.489703813865178583e-13 5.289338913150483379e-14 5.581314897014008625e-14
6.679000000000000000e+03 3.684840393066406250e+01 -7.327850818634033203e+00 -1.272157970329604315e-13 2.753861862939827043e-13 4.445111339017489283e-14 -3.464950265794877922e-15
6.680000000000000000e+03 3.979470825195312500e+01 -8.607753753662109375e+00 -6.289804424909964387e-14 2.475493768305803144e-13 5.539540248494963237e-14 3.865337276599475902e-14
6.681000000000000000e+03 6.353243255615234375e+01 -1.082007884979248047e+01 -1.408251363828674774e-13 -3.747815520926088551e-14 -5.349098442831989875e-14 -1.126348431299169228e-13
6.682000000000000000e+03 4.158899307250976562e+01 -1.417805004119873047e+01 2.442513015845151902e-14 1.362830204590381733e-13 4.821244450762054989e-14 1.980032857237714466e-14
6.683000000000000000e+03 4.093909454345703125e+01 -1.123880004882812500e+01 -8.433398836042715896e-14 1.926116059182414464e-13 3.248328662259700184e-14 3.448650175516152980e-15
6.684000000000000000e+03 3.857772064208984375e+01 -5.568728446960449219e+00 -1.193688702570694371e-13 3.320061239819871446e-13 6.379117611747531225e-14 5.338227283173749282e-14
6.685000000000000000e+03 5.668987274169921875e+01 -1.852096748352050781e+01 2.884904221097501185e-16 1.287981765511758692e-13 3.872600075902413175e-14 -1.270270492931919668e-14
6.686000000000000000e+03 3.956126022338867188e+01 -1.478867149353027344e+01 6.819055682529689966e-14 1.893528465534560778e-13 7.726301830312046204e-14 6.036280009906816457e-14
6.687000000000000000e+03 5.733314895629882812e+01 -2.927540206909179688e+01 3.993241284513948663e-14 6.572427470969907648e-14 3.169700626645156893e-14 -4.521798313930104618e-14
6.688000000000000000e+03 4.382437515258789062e+01 -2.070291709899902344e+01 -6.304251080045154831e-15 7.736233799838371228e-14 2.131742556728179888e-14 -4.964056577361382339e-14
6.689000000000000000e+03 6.358518981933593750e+01 1.478208541870117188e+01 -1.172407846803877329e-13 1.327577506477287117e-13 4.655088943169346377e-15 9.885988512189913813e-14
6.690000000000000000e+03 6.481107330322265625e+01 1.275184535980224609e+01 -1.412798643265350540e-13 -6.054851037868777541e-14 -6.054851037868777541e-14 6.846026566822982495e-14
6.691000000000000000e+03 6.181201171875000000e+01 1.505048751831054688e+01 -1.677678517484661180e-14 1.758137499517989366e-13 4.771108909427251854e-14 1.324427899166216727e-13
6.692000000000000000e+03 6.533319854736328125e+01 1.337604236602783203e+01 -1.164456714646683322e-13 -1.113831249455188299e-13 -6.834864027830886424e-14 8.255145156864374112e-14
6.693000000000000000e+03 4.146036911010742188e+01 1.698819732666015625e+01 1.153073540512486450e-13 1.409193399991293116e-13 7.686800279410252457e-14 7.953970056380488263e-14
6.694000000000000000e+03 6.545658874511718750e+01 1.224098873138427734e+01 -1.499873765768364176e-13 -4.140483054614237102e-14 -5.741766654146496229e-14 1.235056165411335671e-13
6.695000000000000000e+03 6.481550598144531250e+01 1.471942615509033203e+01 -1.695952135238182334e-13 -1.870610328962019064e-13 -1.069968766365114732e-13 1.018047476289592190e-13
6.696000000000000000e+03 6.036480331420898438e+01 1.517671012878417969e+01 -1.492049383621397302e-14 -6.394496934860943380e-15 -6.394496934860943380e-15 1.566574561046030212e-13
6.697000000000000000e+03 6.123926925659179688e+01 1.547489070892333984e+01 -5.959025861732719642e-14 -7.128963353886588750e-14 -3.926396832448428298e-14 2.889728116083761789e-13
6.698000000000000000e+03 6.225520324707031250e+01 1.564417934417724609e+01 -5.714431884499063252e-14 1.585133798309365516e-13 3.041071558527834451e-14 1.012872443795047317e-13
6.699000000000000000e+03 5.997777175903320312e+01 1.473531627655029297e+01 -1.594448314698460045e-13 3.460613753566467443e-14 -3.745160580856214672e-14 2.986148112636699548e-13
6.700000000000000000e+03 5.917739868164062500e+01 1.599670410156250000e+01 -6.370622887726107297e-14 2.014520684599438449e-13 4.132375255243118939e-14 1.933109569770760650e-13
6.701000000000000000e+03 6.407253265380859375e+01 1.511669349670410156e+01 -1.835696037452011486e-13 -7.867268441525895883e-14 -7.867268441525895883e-14 4.455152406387420660e-14
6.702000000000000000e+03 6.451878356933593750e+01 -3.643207311630249023e+00 -1.138486955534409595e-13 1.685247129562875146e-13 1.640280488204078763e-14 1.945401406969454045e-14
6.703000000000000000e+03 6.346710968017578125e+01 -5.908498764038085938e+00 -1.871058104459255578e-13 -2.631920018297123631e-13 -1.350893409721859451e-13 -7.576444761283815388e-14
6.704000000000000000e+03 6.345965194702148438e+01 1.372130680084228516e+01 -9.105503216656415932e-14 5.247831249416412547e-14 -1.157301539350024180e-14 4.878045463765391665e-14
6.705000000000000000e+03 6.574217987060546875e+01 1.019572448730468750e+01 1.862252756515414553e-14 -1.750227160467535126e-13 -4.692005518922709451e-14 5.809889109522833883e-14
6.706000000000000000e+03 3.680228424072265625e+01 1.484746170043945312e+01 -6.370542250189528688e-14 6.419957474705986766e-14 1.482467932210513868e-16 -1.052677977880951687e-13
6.707000000000000000e+03 3.830895233154296875e+01 1.672138023376464844e+01 -7.597294307873890540e-15 2.962751165279733923e-14 6.609065203477034606e-15 6.273417386699203790e-14
6.708000000000000000e+03 5.297218704223632812e+01 1.594865703582763672e+01 -3.321187048250726082e-14 -1.057355564866233055e-13 -4.168422944599188551e-14 1.122576695228999499e-13
6.709000000000000000e+03 5.509714889526367188e+01 1.575731849670410156e+01 -1.301266765781766699e-13 1.729861642384838971e-13 1.285784748393829433e-14 1.767690946960845388e-13
6.710000000000000000e+03 5.674063110351562500e+01 1.577429103851318359e+01 -5.148201201281288331e-14 2.368722893612146274e-14 -8.338434584194247268e-15 7.924707439745104498e-14
6.711000000000000000e+03 6.453479766845703125e+01 4.015872478485107422e-01 -9.213370490796998769e-14 5.201602562847525146e-14 -1.203530395325501032e-14 2.328669924261689977e-14
6.712000000000000000e+03 3.954336929321289062e+01 6.490790247917175293e-01 -3.121461761485845587e-14 1.796341260419317964e-13 4.452585218930882327e-14 -2.102835355117464028e-14
6.713000000000000000e+03 3.790063095092773438e+01 1.383384704589843750e+01 2.792613416988803943e-15 6.915702988844352889e-15 2.912494837046652324e-15 -1.469413105732383928e-13
6.714000000000000000e+03 3.674613952636718750e+01 1.319657707214355469e+01 4.790083463885284887e-14 1.120308273233616703e-13 4.797949689459846123e-14 -7.780234112129622015e-14
6.715000000000000000e+03 4.937686538696289062e+01 1.559289264678955078e+01 -1.427406641236333984e-13 -1.069255225810347709e-13 -7.489985736665316640e-14 1.509160363951517203e-13
6.716000000000000000e+03 4.378470230102539062e+01 1.506032371520996094e+01 -2.140105313016421595e-14 1.738319096956583709e-13 4.572925900252731990e-14 4.523319923916552243e-14
6.717000000000000000e+03 6.279510879516601562e+01 2.387966156005859375e+00 -2.158761315323651231e-13 -1.016444513023725526e-15 -6.506776996546836944e-14 1.422931054668313822e-13
6.718000000000000000e+03 4.698698425292968750e+01 1.586767768859863281e+01 -7.761843332778836646e-14 5.823685582167711927e-14 -5.814472489503721628e-15 -2.168525131869287331e-14
6.719000000000000000e+03 4.607035446166992188e+01 1.737913513183593750e+01 -3.234856772640209988e-14 7.763822679369980495e-14 1.358689805900249042e-14 1.450083983282630246e-14
6.720000000000000000e+03 4.187738037109375000e+01 1.559753513336181641e+01 -1.353016125109655562e-14 -5.154958830134483139e-14 -1.952392478102912138e-14 5.236916044044914731e-14
6.721000000000000000e+03 4.432603454589843750e+01 1.570165252685546875e+01 3.894863151074866303e-14 1.081941678718507938e-13 4.414284083121937374e-14 1.005884489742835119e-14
6.722000000000000000e+03 6.456159973144531250e+01 6.078597545623779297e+00 -1.410985179606596973e-13 -1.062217466220836959e-13 -7.419608140770209137e-14 6.770394656149467116e-14
6.723000000000000000e+03 6.337948226928710938e+01 5.439436912536621094e+00 -1.325139813417725021e-13 5.758566366809159121e-14 -2.247849428566473656e-14 1.473346184638346656e-13
6.724000000000000000e+03 5.136121749877929688e+01 1.576408767700195312e+01 -1.299274950865639267e-13 -9.932264293790668552e-15 -4.195792950817227307e-14 5.379149477734677942e-14
6.725000000000000000e+03 5.355628585815429688e+01 1.513942146301269531e+01 -1.336236351602571037e-13 -1.151632347834051148e-14 -4.354198615162327424e-14 3.415277839723986075e-14
6.726000000000000000e+03 5.593595886230468750e+01 1.495668792724609375e+01 -1.125489607653289148e-13 1.347685255493474843e-13 6.665870621051697004e-15 5.001700076790079053e-14
6.727000000000000000e+03 5.069904327392578125e+01 1.493152904510498047e+01 -1.663815840744625740e-13 2.019550332358916594e-14 -4.385582541110814858e-14 5.393120100353511470e-14
6.728000000000000000e+03 4.871789932250976562e+01 1.489985656738281250e+01 -3.535518433515205802e-16 -1.831553165425672813e-13 -5.505266246130444130e-14 1.097444143481791923e-13
6.729000000000000000e+03 5.429539871215820312e+01 1.501653957366943359e+01 -9.950540554286985140e-14 3.105775050115874847e-15 -2.891989016426572967e-14 1.893639325206697421e-13
6.730000000000000000e+03 3.739015579223632812e+01 1.436828327178955078e+01 5.124149531337413022e-14 -6.954125589177934108e-14 -5.489928004114973809e-15 8.753820557967292859e-14
6.731000000000000000e+03 3.649628448486328125e+01 1.067286014556884766e+01 -8.356691532339366457e-14 2.386913095561021825e-13 4.653731488168076635e-14 -8.232413503065499905e-14
6.732000000000000000e+03 3.777890014648437500e+01 1.269497203826904297e+01 3.834160704316476320e-14 -5.219430573508154758e-14 -4.155809184058561687e-15 -9.671817247916200677e-14
6.733000000000000000e+03 6.471318817138671875e+01 1.217130661010742188e+00 -2.289446572861092433e-13 8.488465464383254666e-14 -4.321800282556208239e-14 1.211792574921585763e-13
6.734000000000000000e+03 6.356351089477539062e+01 2.913047790527343750e+00 -2.685282822923601431e-13 -1.608344940519021438e-13 -1.288088288375205392e-13 8.368100049699345178e-14
6.735000000000000000e+03 3.785474777221679688e+01 1.495779991149902344e+01 -8.183330315464365512e-14 -9.336505364405250917e-15 -2.735094120046195620e-14 -1.092518545249554496e-13
6.736000000000000000e+03 3.725477218627929688e+01 1.549899482727050781e+01 -1.963028162601816035e-14 3.733797125649029880e-14 5.312306889141641536e-15 1.792620549613890835e-14
6.737000000000000000e+03 5.757555770874023438e+01 1.583060741424560547e+01 -1.101037392769316225e-13 9.006552827758168567e-14 -6.011463553914865240e-15 8.439992140504143370e-14
6.738000000000000000e+03 6.522556304931640625e+01 -1.644056916236877441e+00 -9.217068297831532142e-14 1.663775454213700655e-13 2.226206042698231774e-14 -3.515962825043268160e-15
6.739000000000000000e+03 6.533129119873046875e+01 -6.017599701881408691e-01 -1.132645070941150356e-13 8.871091253075114036e-14 -7.366077183163042413e-15 -1.959537878639359965e-14
6.740000000000000000e+03 6.306966018676757812e+01 -4.077955722808837891e+00 2.780978572425318873e-14 4.337225768965245754e-14 2.135461200773215718e-14 -4.213783930616908646e-15
6.741000000000000000e+03 6.579877471923828125e+01 1.384495067596435547e+01 -5.494134539137628115e-14 -6.357837433607071986e-14 -3.555591557942092140e-14 -5.000519143455017107e-15
6.742000000000000000e+03 6.432873535156250000e+01 1.452650451660156250e+01 -2.331103280512562131e-14 3.576050452936893609e-14 3.734841856086173334e-15 1.207830900183323730e-13
6.743000000000000000e+03 4.753673553466796875e+01 1.619650840759277344e+01 -1.930093725902720658e-13 8.783595290722586574e-15 -5.526773429100767521e-14 -4.320453161356895000e-14
6.744000000000000000e+03 3.534000015258789062e+01 8.451404571533203125e+00 -7.457305850307530126e-14 5.954201839691516951e-14 -4.509312878880986780e-15 7.379891782312991699e-14
6.745000000000000000e+03 3.679008865356445312e+01 1.137132453918457031e+01 -9.577578352732113269e-16 -9.191236503445707196e-14 -2.786103629975975743e-14 -6.794153591506771339e-14
6.746000000000000000e+03 3.916760635375976562e+01 -2.982041120529174805e+00 -1.290387203556689344e-13 2.192033853693972634e-13 2.704939916530531979e-14 -2.438814742942497539e-15
6.747000000000000000e+03 3.970982742309570312e+01 -7.477458715438842773e-01 -2.717775176186865843e-14 1.484807150278419363e-13 3.639089016563810952e-14 2.831319773359715353e-14
6.748000000000000000e+03 3.740942001342773438e+01 3.482999563217163086e+00 -7.101257922621437291e-14 1.983207841655884596e-13 3.819246148181222600e-14 -5.541105311271605008e-15
6.749000000000000000e+03 5.214177703857421875e+01 1.488326549530029297e+01 -1.532201828521179143e-13 7.158705052356939547e-14 -2.448994003737773456e-14 4.121527134881043664e-14
6.750000000000000000e+03 3.579452133178710938e+01 6.653335571289062500e+00 -1.761197660149829702e-14 4.499614927617329174e-13 1.297048541704440283e-13 -2.720992546133716578e-14
6.751000000000000000e+03 6.420482635498046875e+01 -7.752094268798828125e+00 8.200234382586130133e-15 9.501628677648435439e-14 3.096495634772114536e-14 -6.666801171447550578e-14
6.752000000000000000e+03 6.488629150390625000e+01 -2.669975519180297852e+00 -1.804261763865139256e-13 -2.145783550844271304e-13 -1.185013594412823168e-13 5.287857621932325058e-14
6.753000000000000000e+03 3.896067047119140625e+01 -1.087031438946723938e-01 -1.657227686243517573e-13 2.949835471374728790e-13 3.877823219868362092e-14 1.109595373211241104e-14
6.754000000000000000e+03 6.366155242919921875e+01 6.325774669647216797e+00 -1.771716725152555627e-13 -5.305524357519797451e-14 -6.906807618238877677e-14 6.907068504386632002e-14
6.755000000000000000e+03 3.775116348266601562e+01 -6.454843044281005859e+00 -4.303775760251815630e-14 2.145991446610845399e-13 5.146841543994355728e-14 -2.000783978599318669e-14
6.756000000000000000e+03 3.587628555297851562e+01 9.314785003662109375e+00 -7.954452526347244312e-14 3.319170838785717725e-13 7.571176893978251443e-14 1.149807381467873868e-13
6.757000000000000000e+03 6.351132965087890625e+01 7.503420829772949219e+00 -1.312190780295915959e-13 -1.934895928375202079e-13 -9.741260397063897236e-14 7.107583564671532406e-14
6.758000000000000000e+03 3.958975219726562500e+01 -6.525053977966308594e+00 -5.273951373817482857e-14 2.290275716472500722e-13 5.288641635628303639e-14 1.810818883079060027e-14
6.759000000000000000e+03 3.651184082031250000e+01 5.574820041656494141e+00 -1.245061606575505533e-14 3.377961430538201082e-13 9.760365394595807431e-14 8.761419968163468991e-15
6.760000000000000000e+03 3.609436798095703125e+01 7.546485424041748047e+00 -8.593680508959394837e-14 1.690492093097545334e-13 2.493372262130089112e-14 -7.804123151747624498e-14
6.761000000000000000e+03 4.085630035400390625e+01 -1.234774398803710938e+01 4.216167057814008620e-15 1.619352438600452082e-13 4.984542577410495945e-14 3.426459691067279545e-14
6.762000000000000000e+03 6.289519500732421875e+01 -7.951104164123535156e+00 -1.019413977602738608e-13 1.164391526991062631e-13 4.349324872287120905e-15 -6.399417942174606688e-14
6.763000000000000000e+03 6.425895690917968750e+01 -9.218627929687500000e+00 -4.248058610607785557e-14 1.419223489814228079e-13 2.983253089548255910e-14 -7.171180153604100882e-14
6.764000000000000000e+03 5.660404205322265625e+01 -1.623992919921875000e+01 4.340844632529095026e-14 1.329809878750434771e-13 5.291683161535304381e-14 -5.336136890563220395e-15
6.765000000000000000e+03 4.031817245483398438e+01 -1.349510002136230469e+01 -3.057478247902971347e-14 2.385267276663188829e-13 6.238558931601079216e-14 4.490827062433519479e-14
6.766000000000000000e+03 4.330553054809570312e+01 -1.006871891021728516e+01 -1.019136574312512825e-14 1.557605905149958558e-13 4.367076904092381806e-14 -5.452315506092146602e-14
6.767000000000000000e+03 6.114469146728515625e+01 -1.181418991088867188e+01 1.423996046133555599e-14 1.776689011840845711e-13 5.757266001828534319e-14 -1.170720235300426806e-14
6.768000000000000000e+03 5.959200286865234375e+01 -1.282890224456787109e+01 1.680793057631715243e-14 2.359581442994834743e-13 7.582982500383902980e-14 -1.076691870155379455e-14
6.769000000000000000e+03 6.228010559082031250e+01 -1.195375156402587891e+01 -1.175213762026269815e-13 4.113559604165990813e-14 -2.291573269303740640e-14 7.607894078175830854e-15
6.770000000000000000e+03 4.057582473754882812e+01 -9.936760902404785156e+00 -4.753912446532095049e-14 2.770072582772287184e-13 6.884044116001186708e-14 7.014422137747999830e-14
6.771000000000000000e+03 5.797617340087890625e+01 -1.728017807006835938e+01 -2.308106505401197328e-14 1.559552996726470964e-13 3.986227174084325253e-14 -1.921284176675461253e-14
6.772000000000000000e+03 4.226105880737304688e+01 -1.822074699401855469e+01 -1.711037216046377291e-14 2.900481504281016143e-13 8.188133331088476297e-14 -8.349363003279722251e-14
6.773000000000000000e+03 4.265054702758789062e+01 -1.635022354125976562e+01 -4.417795204094895900e-14 1.869458635204296337e-13 4.283037344384420242e-14 4.336398725995546655e-15
6.774000000000000000e+03 6.089151382446289062e+01 -1.310150909423828125e+01 -1.069635645247618561e-13 -9.159247795972880191e-14 -5.956681274534719739e-14 -9.294608404328622009e-14
6.775000000000000000e+03 5.470951843261718750e+01 -2.237380409240722656e+01 2.141454975314576598e-14 1.349927792161989548e-13 4.692219648851775338e-14 -4.466617336141686517e-15
6.776000000000000000e+03 5.262895584106445312e+01 -2.284491348266601562e+01 5.514262413656642603e-15 1.281783652742202184e-13 4.010778932280259501e-14 -7.471975105701259001e-14
6.777000000000000000e+03 3.841519546508789062e+01 -2.383982467651367188e+01 3.223895488676381538e-14 2.196959655214117402e-13 7.558047883295809788e-14 -5.769821994722158440e-15
6.778000000000000000e+03 4.606458282470703125e+01 -1.688458442687988281e+01 8.142214658578283970e-14 1.492725756370438805e-13 6.920841937735344729e-14 -4.782214866618471338e-14
6.779000000000000000e+03 6.406664276123046875e+01 1.318458843231201172e+01 -1.072268969036678510e-13 -1.717694996655749762e-13 -8.369891693789377474e-14 9.906019147326583507e-14
6.780000000000000000e+03 6.203523635864257812e+01 1.411473941802978516e+01 -1.637236624486143599e-13 2.043384043784804427e-13 1.218442495065207715e-14 -7.633536306588060288e-15
6.781000000000000000e+03 5.839149856567382812e+01 1.591481781005859375e+01 7.421006761572715438e-14 2.605590710639399399e-13 1.004307382157683393e-13 5.665048169608243034e-14
6.782000000000000000e+03 5.984004974365234375e+01 1.532423114776611328e+01 -1.667316187458495191e-13 2.004549040049864034e-14 -4.400583833419867419e-14 1.398041703020921900e-13
6.783000000000000000e+03 6.229898452758789062e+01 1.462276935577392578e+01 -3.250815889806017711e-14 -1.393206822017335408e-14 -1.393206822017335408e-14 5.161407122555340676e-14
6.784000000000000000e+03 6.439247131347656250e+01 1.390483379364013672e+01 -1.307076056547215592e-13 -1.932703942632979510e-13 -9.719339862015313747e-14 1.471096465130439235e-13
6.785000000000000000e+03 6.087668991088867188e+01 1.479106807708740234e+01 -1.417565067066139939e-13 1.680019648788236286e-13 7.873637112849711517e-15 1.876251161814918023e-13
6.786000000000000000e+03 4.597504043579101562e+01 1.615809822082519531e+01 -9.145105056259164589e-14 1.895614334989151328e-13 2.943311759140247730e-14 -2.655046796025233025e-14
6.787000000000000000e+03 6.367080307006835938e+01 -3.270412445068359375e+00 -1.445298145486689778e-13 -1.619040290018729927e-14 -4.821606642050300928e-14 -4.013256673057567780e-14
6.788000000000000000e+03 6.273654937744140625e+01 1.502688789367675781e+01 -4.123678259753890685e-14 1.653308837491068717e-13 3.722823305597582066e-14 8.764746605360515530e-14
6.789000000000000000e+03 6.491429901123046875e+01 1.159216308593750000e+01 -2.390487710123706533e-13 -5.669852879298248327e-14 -8.872419400736408779e-14 5.912285228450511743e-14
6.790000000000000000e+03 4.059926223754882812e+01 1.555231857299804688e+01 3.566686334298407868e-14 -1.791557353858497237e-13 -4.304666161285969350e-14 -7.500984120672234828e-15
6.791000000000000000e+03 3.991466140747070312e+01 1.729058265686035156e+01 4.971151325327584358e-14 6.705588504168219499e-14 3.503021982730059047e-14 5.495559248554909848e-14
6.792000000000000000e+03 6.498258972167968750e+01 1.401273918151855469e+01 -2.240315273788553996e-13 -1.417644620400546063e-13 -1.097387968256730018e-13 1.110215367447313362e-13
6.793000000000000000e+03 3.736600875854492188e+01 1.331344890594482422e+01 -2.097611194711978405e-14 -1.919935564698160846e-13 -6.389090238855324455e-14 8.979375945052103791e-14
6.794000000000000000e+03 3.888255691528320312e+01 1.614277648925781250e+01 5.841489537092639517e-14 -4.073203227613828026e-14 5.304858928436434473e-15 -1.094712699396122035e-13
6.795000000000000000e+03 6.293986129760742188e+01 6.834460735321044922e+00 -4.076199013741677035e-14 -1.032524556848248010e-13 -4.320433171379339798e-14 1.868882517274891852e-13
6.796000000000000000e+03 5.338694763183593750e+01 1.440351676940917969e+01 -1.373802330575935038e-13 7.837560624373435259e-14 -1.770138601127867195e-14 1.343030368991179890e-13
6.797000000000000000e+03 4.838826370239257812e+01 1.562159347534179688e+01 -2.218489877480606109e-13 4.217470556816538263e-14 -5.390228668684764191e-14 2.195792647100708317e-13
6.798000000000000000e+03 6.447191619873046875e+01 -4.810698330402374268e-01 -1.826554857885243077e-13 -5.540544829570406837e-14 -7.141828090289487063e-14 1.000931447643106653e-13
6.799000000000000000e+03 4.048562240600585938e+01 1.673136138916015625e+01 1.390808854802999539e-13 -3.761467320343575560e-14 3.043986029492747047e-14 -1.026249766421141307e-15
6.800000000000000000e+03 4.316572952270507812e+01 1.567967605590820312e+01 -3.189980628281498254e-14 3.404546609908631893e-14 6.436976590077812203e-16 8.612011826597282954e-15
6.801000000000000000e+03 4.330798339843750000e+01 1.438701534271240234e+01 -4.629572075633310579e-14 -1.113429213737103518e-13 -4.729159094494714277e-14 8.591001851966997838e-14
6.802000000000000000e+03 4.919464111328125000e+01 1.430642604827880859e+01 -1.176139670681572436e-13 -5.040598201420248836e-14 -5.040598201420248836e-14 -1.763735709672982488e-14
6.803000000000000000e+03 6.426794433593750000e+01 5.249336242675781250e+00 -5.568078143740676222e-14 -1.153650878169334981e-13 -5.131376077630207810e-14 -2.177271255269456335e-14
6.804000000000000000e+03 3.721443176269531250e+01 1.206510162353515625e+01 -6.562849900028713823e-14 -2.812649981356104417e-14 -2.812649981356104417e-14 6.078801741485340138e-14
6.805000000000000000e+03 6.336790084838867188e+01 4.633454799652099609e+00 -7.188747616930155071e-14 -1.680617721811633603e-13 -7.198476976175496866e-14 1.955155872271352457e-13
6.806000000000000000e+03 5.228377532958984375e+01 1.548107433319091797e+01 -9.789098107419388906e-14 -1.334551772477071685e-13 -6.940384681894395946e-14 1.352182559986262606e-14
6.807000000000000000e+03 6.304722213745117188e+01 3.609312534332275391e+00 -2.458225951355169636e-13 1.005267307656147746e-13 -4.358875931097065670e-14 1.518493311777543986e-13
6.808000000000000000e+03 3.776854705810546875e+01 1.611969375610351562e+01 -5.087805041636625503e-14 1.297451458336790209e-13 2.366012726994111415e-14 -9.628174722341870106e-14
6.809000000000000000e+03 6.348910140991210938e+01 1.141154861450195312e+01 -1.386185681214249787e-13 -1.280343832257141434e-13 -7.999588540414173665e-14 1.565656377331206550e-13
6.810000000000000000e+03 6.336278533935546875e+01 9.597856521606445312e+00 -1.359393690279417366e-13 1.476195467947638562e-13 3.504053753563109511e-15 1.978967120383479106e-13
6.811000000000000000e+03 5.419733047485351562e+01 1.419721508026123047e+01 2.033609385217443472e-14 1.002173672282231920e-13 3.616603679945998295e-14 1.808929254217689353e-13
6.812000000000000000e+03 3.837590026855468750e+01 1.325587081909179688e+01 -4.960268984834440009e-14 -2.697716419556347306e-14 -2.297395604376577249e-14 4.917691010268218643e-14
6.813000000000000000e+03 3.940776824951171875e+01 1.672479820251464844e+01 -3.272577860286875195e-14 -5.447030020501279768e-15 -1.145184224819783061e-14 5.859633745152479159e-15
6.814000000000000000e+03 3.627904129028320312e+01 9.913862228393554688e+00 1.052709572209884273e-14 -8.699028368301664482e-14 -2.293895664238522480e-14 -4.114262302699032980e-14
6.815000000000000000e+03 3.779570770263671875e+01 1.153650188446044922e+01 -1.434972746097024077e-13 1.758342142678046005e-13 9.701083591496552361e-15 -1.079532039390158904e-13
6.816000000000000000e+03 3.658458328247070312e+01 6.439202785491943359e+00 -4.299839767552514347e-14 1.645759131188237467e-13 3.647325226129732867e-14 -1.871011077190024019e-14
6.817000000000000000e+03 3.729492187500000000e+01 6.456688404083251953e+00 -1.028828748811470156e-14 1.785945252363169145e-13 5.049187115505407442e-14 -8.491771603382977651e-14
6.818000000000000000e+03 4.984909820556640625e+01 1.402461624145507812e+01 -1.656077754314325134e-13 -2.348338283406819008e-15 -5.038683568146275216e-14 8.152965200744835550e-14
6.819000000000000000e+03 5.161560821533203125e+01 1.398839569091796875e+01 -2.336183004859881951e-13 -7.724665362657950896e-14 -9.325948623377031121e-14 4.278776429846552209e-14
6.820000000000000000e+03 5.846264266967773438e+01 1.514190387725830078e+01 -1.082765265793782239e-13 -1.379061253213575977e-13 -7.385479489259438868e-14 1.046830468988922680e-13
6.821000000000000000e+03 6.358992767333984375e+01 -8.519166946411132812e+00 -1.676290941991787076e-13 -2.609009030682656743e-14 -5.811575721527406646e-14 7.533118009592221220e-14
6.822000000000000000e+03 3.827325439453125000e+01 1.093295288085937500e+01 -2.358060104058930240e-14 -1.010597126951473870e-14 -1.010597126951473870e-14 -8.155102434277347601e-14
6.823000000000000000e+03 6.434790802001953125e+01 -1.415094733238220215e+00 -9.050120814433140759e-14 1.213420911059387430e-13 9.252262855603127223e-15 -8.952126048105985695e-15
6.824000000000000000e+03 3.739052581787109375e+01 5.563006877899169922e+00 8.834508747116148059e-15 1.867900094581348425e-13 5.868735537687200243e-14 -2.356762788396915553e-14
6.825000000000000000e+03 3.983406829833984375e+01 -2.181297540664672852e+00 -1.543882074050637043e-13 2.540902601169681141e-13 2.991061716882403854e-14 4.294650843717634503e-14
6.826000000000000000e+03 3.885274505615234375e+01 1.730634117126464844e+01 6.781075995724228020e-15 2.316609089888371775e-13 7.153259646945631101e-14 -1.137193908918449070e-13
6.827000000000000000e+03 3.893864822387695312e+01 1.525758266448974609e+00 -1.417897375032006746e-13 2.938028238665818526e-13 4.560392861951978460e-14 -3.921105248220341233e-14
6.828000000000000000e+03 5.765233612060546875e+01 1.504944515228271484e+01 -1.118173343630721184e-13 -9.367266212917738089e-14 -6.164699691479577637e-14 1.028758851652662731e-13
6.829000000000000000e+03 4.030588150024414062e+01 -5.507302761077880859e+00 -8.486639938975332198e-14 3.296362748733683290e-13 7.343095993457907089e-14 5.489167368528339447e-15
6.830000000000000000e+03 3.932580947875976562e+01 -4.658241271972656250e+00 -8.738465544699466903e-14 2.370551400576043077e-13 4.490114199505110260e-14 4.886988437622502568e-14
6.831000000000000000e+03 4.075643539428710938e+01 -7.526085376739501953e+00 -1.354237224747076307e-13 2.164669539537339427e-13 2.431297113777378810e-14 5.014497389370375924e-14
6.832000000000000000e+03 3.842601776123046875e+01 3.594754219055175781e+00 -5.138219087404485852e-14 1.609828535666796290e-13 3.288019948541678894e-14 -8.048910252493254869e-14
6.833000000000000000e+03 3.740261840820312500e+01 4.561774730682373047e+00 -1.057177281371494970e-13 1.376961966757100919e-13 9.593541747414304627e-15 1.138804796177537298e-14
6.834000000000000000e+03 3.833516311645507812e+01 4.626197814941406250e+00 -2.189467174457202653e-14 1.049939418718524864e-13 2.492978052996436961e-14 -1.225563162239595716e-13
6.835000000000000000e+03 6.299811172485351562e+01 -9.186397552490234375e+00 -1.631122266334411597e-13 -9.857120612907950552e-15 -5.189080366568496472e-14 -1.777437653440946952e-13
6.836000000000000000e+03 6.371147537231445312e+01 5.649585723876953125e-01 -1.139935585162121789e-13 4.264751258305915504e-14 -2.140381445757226497e-14 3.161838466828742478e-14
6.837000000000000000e+03 6.363698196411132812e+01 -3.441672027111053467e-01 -6.929532495774173850e-14 -6.822521317833380936e-15 -2.283535434854065682e-14 -1.061159657594987898e-14
6.838000000000000000e+03 6.264387512207031250e+01 -9.897592544555664062e+00 -1.552623047490486741e-13 7.071186220114836218e-14 -2.536513174793055686e-14 -8.539080765179382637e-14
6.839000000000000000e+03 5.657616424560546875e+01 -1.410225963592529297e+01 7.214280408685599250e-15 3.233484714790929582e-13 9.916882853094888262e-14 -1.675586684918121960e-14
6.840000000000000000e+03 4.347711181640625000e+01 -8.729055404663085938e+00 -8.555732077669686575e-14 1.920873264052089247e-13 3.195900033330090206e-14 -3.247938518884194853e-15
6.841000000000000000e+03 4.204685211181640625e+01 -1.127472209930419922e+01 -4.220765853794536393e-14 1.649147940603612472e-13 3.681213997909840718e-14 -3.081806050587651558e-14
6.842000000000000000e+03 6.145156097412109375e+01 -1.065381908416748047e+01 -1.414566570432859716e-13 1.943987878387076068e-14 -3.660503364723115272e-14 3.446422563568168895e-14
6.843000000000000000e+03 5.998447036743164062e+01 -1.151885318756103516e+01 -1.318198751109472822e-13 -1.479961308668495401e-13 -8.394480043808633107e-14 -6.111098768950967708e-15
6.844000000000000000e+03 3.910756683349609375e+01 -1.481613755226135254e+00 -1.178298859308077318e-13 1.782562135009199689e-13 1.812789759340731333e-14 -3.984869888489644962e-14
6.845000000000000000e+03 4.298857498168945312e+01 -1.463429260253906250e+01 2.264994391858437400e-14 1.698354456201867091e-13 5.774561736985109328e-14 -6.651041615244115968e-14
6.846000000000000000e+03 4.320399856567382812e+01 -1.301823329925537109e+01 -2.162504760493382666e-14 5.935854428427631002e-14 1.132004985083569226e-14 2.542702783351821760e-14
6.847000000000000000e+03 4.455105209350585938e+01 -1.325047779083251953e+01 -2.836044523139499840e-14 7.934742408477815645e-14 1.529609196194905291e-14 -1.128249240995443659e-13
6.848000000000000000e+03 6.181967163085937500e+01 -9.629034996032714844e+00 1.032922374342255464e-14 4.426810175752523419e-15 4.426810175752523419e-15 -6.144458314545631072e-15
6.849000000000000000e+03 6.044779205322265625e+01 -1.032003784179687500e+01 2.329342807234988794e-14 7.860931957454075913e-14 3.057082514110014138e-14 -4.375842085733864031e-15
6.850000000000000000e+03 4.212239074707031250e+01 -8.280709266662597656e+00 -4.488854492105953664e-14 1.523281148571239973e-13 3.223187030319298041e-14 -6.922771817602368927e-14
6.851000000000000000e+03 5.432942199707031250e+01 -2.019339942932128906e+01 -8.104651796686165866e-15 2.024058411110793432e-13 5.829036119888927892e-14 -4.666428173234239696e-14
6.852000000000000000e+03 5.618764114379882812e+01 -2.002523040771484375e+01 4.304813714425381049e-15 1.276600353206092109e-13 3.958945259292800944e-14 -1.670226491021307297e-14
6.853000000000000000e+03 4.591324996948242188e+01 -2.096937370300292969e+01 4.425515740002529397e-14 1.905325533848103992e-13 7.043631221901117123e-14 -5.388053149263036246e-14
6.854000000000000000e+03 5.531365203857421875e+01 -2.455710792541503906e+01 7.762250586219876514e-15 7.767197258631841628e-14 2.563026661294830894e-14 -4.968565841959385332e-14
6.855000000000000000e+03 6.366115188598632812e+01 1.233080768585205078e+01 -9.307270530450537094e-14 5.862646641345862705e-15 -2.616301814951926819e-14 9.687868861079848570e-14
6.856000000000000000e+03 6.439286041259765625e+01 1.203767013549804688e+01 -1.435963164781589585e-13 -6.154128042671486165e-14 -6.154128042671486165e-14 2.006904435388270902e-13
6.857000000000000000e+03 6.392201232910156250e+01 1.422154331207275391e+01 -9.314917543898348917e-14 -9.889691062608951810e-14 -5.761382581952190218e-14 -1.037914278313603958e-14
6.858000000000000000e+03 6.258784484863281250e+01 1.411378574371337891e+01 -1.043764345245133673e-13 1.840219871016707254e-13 2.389366611196038631e-14 1.013966878125535653e-13
6.859000000000000000e+03 6.147482681274414062e+01 -2.115845918655395508e+00 -1.215125005823991522e-13 8.517606108274233812e-14 -1.090093032523773917e-14 1.232049401736490246e-13
6.860000000000000000e+03 6.219343566894531250e+01 -6.060455322265625000e+00 -1.156754542413346298e-13 -8.388840837258992877e-14 -5.986915607367193637e-14 1.550466535488095182e-14
6.861000000000000000e+03 6.061166381835937500e+01 1.582759666442871094e+01 -3.743631516979831209e-14 -6.179508537903014020e-14 -2.976942016464853569e-14 1.210686011079292745e-13
6.862000000000000000e+03 6.310302734375000000e+01 1.440358543395996094e+01 -1.471940516521719200e-13 -1.088341182041603628e-13 -7.680845298977875824e-14 4.456976237729448620e-14
6.863000000000000000e+03 6.041340255737304688e+01 1.412128734588623047e+01 -6.155109923263943350e-14 1.937190777798539210e-14 -1.265375658936326517e-14 1.771630531079843029e-13
6.864000000000000000e+03 4.645581054687500000e+01 1.545475482940673828e+01 -1.336500625882114379e-13 -1.030295437181617813e-13 -7.100387850378017673e-14 5.170766158996142892e-14
6.865000000000000000e+03 6.426946258544921875e+01 1.130303382873535156e+01 -1.551146770707376166e-13 -1.579796135488947817e-13 -9.392828989639515069e-14 1.254229332154840892e-13
6.866000000000000000e+03 4.692633056640625000e+01 1.478908920288085938e+01 -5.842978959827091479e-14 -1.622941825417736905e-13 -6.621719367489245500e-14 -3.214537807488294929e-14
6.867000000000000000e+03 6.194592666625976562e+01 3.860646724700927734e+00 -1.263527178935533457e-13 -9.990211511778229747e-14 -6.787644990340069295e-14 1.626259077489727867e-13
6.868000000000000000e+03 5.935987472534179688e+01 1.448458385467529297e+01 -4.836165444347707842e-14 -1.351038015186614705e-13 -5.503963509457567016e-14 1.316055554465012101e-13
6.869000000000000000e+03 5.920399093627929688e+01 1.525134754180908203e+01 -9.410617359158213180e-15 -4.978407009553764695e-14 -1.775840657522193694e-14 1.950144012203766652e-13
6.870000000000000000e+03 6.535349273681640625e+01 1.494976043701171875e+01 -7.798681812094462873e-14 -2.164267165006075744e-13 -8.832406241934473434e-14 7.963446660994369375e-14
6.871000000000000000e+03 4.259044647216796875e+01 1.492877006530761719e+01 -1.003665534471571974e-13 2.086159749722232837e-13 3.247482645751982588e-14 2.643094991732885396e-14
6.872000000000000000e+03 6.341302490234375000e+01 1.050738239288330078e+01 -1.176011057198861343e-13 -1.190268993393403529e-13 -7.098840151776794616e-14 1.354620219164506811e-13
6.873000000000000000e+03 6.415617370605468750e+01 9.524673461914062500e+00 -1.059289917067218756e-13 3.528107424622322708e-16 -3.167285227492766531e-14 8.582675856908666967e-14
6.874000000000000000e+03 4.789629364013671875e+01 1.543339443206787109e+01 -2.609203170634167429e-14 -2.399370307472337149e-13 -7.980872500411642645e-14 3.559947678983231556e-14
6.875000000000000000e+03 3.809275054931640625e+01 6.733808994293212891e+00 4.560649004715228161e-14 2.025494301362978922e-13 7.444677605503505213e-14 -2.681403412025176736e-14
6.876000000000000000e+03 3.890601348876953125e+01 1.382052707672119141e+01 -1.044376987235223764e-13 1.596905387871855320e-13 1.657585201909894668e-14 -3.951582848915266566e-14
6.877000000000000000e+03 6.304347610473632812e+01 8.066913604736328125e+00 -1.951648613768633411e-13 -2.795133373888203376e-13 -1.424034636954632504e-13 1.466647848091459649e-13
6.878000000000000000e+03 6.217905807495117188e+01 6.288904190063476562e+00 -1.572072279212161083e-13 1.041915306202595426e-13 -1.590470885147379082e-14 5.440468903291847957e-14
6.879000000000000000e+03 3.734422302246093750e+01 1.101887607574462891e+01 -9.866848955713755642e-14 1.864682453583954569e-13 2.633992775681690685e-14 3.160866750631652344e-14
6.880000000000000000e+03 3.833217620849609375e+01 1.208590030670166016e+01 -7.330067949102778146e-14 -9.503698826171524949e-14 -5.050130032582290929e-14 -2.763139042116606603e-14
6.881000000000000000e+03 6.304096984863281250e+01 1.585599064826965332e+00 -1.895205997345938975e-13 5.602973529475301084e-14 -4.004725696026001369e-14 4.263678575781512659e-14
6.882000000000000000e+03 3.620598983764648438e+01 8.501269340515136719e+00 -2.711960972630322875e-14 2.857584774276084039e-13 7.759166031039155254e-14 -1.205676048365508790e-13
6.883000000000000000e+03 6.240153884887695312e+01 5.308970451354980469e+00 -9.222001417716341187e-14 2.910355740041656314e-14 -1.893493703302405462e-14 2.157862918298475430e-13
6.884000000000000000e+03 6.236472320556640625e+01 3.140531778335571289e+00 -1.480264614226248221e-13 -1.091908613764895619e-13 -7.716519616210795740e-14 9.750116973560388201e-14
6.885000000000000000e+03 4.823046112060546875e+01 1.472845363616943359e+01 -2.605096314448746009e-13 -1.345224658663018991e-13 -1.185096264828475188e-13 2.313335070378008673e-13
6.886000000000000000e+03 4.840495681762695312e+01 1.310859584808349609e+01 -1.630605508473950693e-13 2.161880158398077345e-14 -4.243252545665064657e-14 1.596639893864867932e-13
6.887000000000000000e+03 5.304858016967773438e+01 1.366867733001708984e+01 -1.786184047891659077e-13 1.636417374219559240e-13 -4.493001565415710719e-15 1.493667928058328709e-13
6.888000000000000000e+03 5.505138397216796875e+01 1.322169494628906250e+01 -1.131936477058795298e-13 1.344922301782167096e-13 6.389574402887975013e-15 3.248316803798438623e-14
6.889000000000000000e+03 3.840179824829101562e+01 1.439999294281005859e+01 5.686153181335210083e-14 1.221663168440552741e-14 2.072344879521740429e-14 1.167341912152938810e-13
6.890000000000000000e+03 3.999365997314453125e+01 1.614150810241699219e+01 -2.969020225528952450e-14 1.301053618410919627e-14 -5.003900075463982647e-15 5.554779048842425904e-14
6.891000000000000000e+03 6.245351791381835938e+01 7.566742897033691406e+00 -1.954667845768462420e-13 5.348136552217087891e-14 -4.259562673284214562e-14 -9.322193895728442259e-15
6.892000000000000000e+03 6.097020339965820312e+01 -9.238657951354980469e+00 -1.807825807456642231e-13 -4.316503616130437648e-14 -6.718428168395879085e-14 5.043787915741371718e-16
6.893000000000000000e+03 6.329951477050781250e+01 -2.058474063873291016e+00 -1.205736763687167978e-13 8.557840850895170881e-14 -1.049858120496247396e-14 -5.106277474963526186e-14
6.894000000000000000e+03 6.291057968139648438e+01 -2.847711801528930664e+00 -9.384233299290778429e-14 5.128375548117854177e-14 -1.276757410055172001e-14 -1.370618528544783991e-15
6.895000000000000000e+03 5.597099685668945312e+01 1.413909435272216797e+01 -1.722880735646747929e-13 8.629058025847596847e-14 -2.579924629779375284e-14 6.065865854314872463e-14
6.896000000000000000e+03 5.680011749267578125e+01 1.498930072784423828e+01 -2.182861096738930584e-13 -2.049292242587504205e-15 -6.610062161255952917e-14 1.353475572720905240e-13
6.897000000000000000e+03 5.859796142578125000e+01 1.431674385070800781e+01 4.299002221374269295e-14 -5.020212828885269041e-14 -2.163631102554994072e-15 2.284594768139219800e-13
6.898000000000000000e+03 3.915936660766601562e+01 5.690618991851806641e+00 -4.872771497822607489e-14 4.774311710407409814e-14 -2.953800028142593856e-16 -3.757560804390838727e-14
6.899000000000000000e+03 3.829623794555664062e+01 5.686625480651855469e+00 -9.077326835072591082e-14 1.212254851622879270e-13 9.135667076347678273e-15 -4.848010014268933077e-14
6.900000000000000000e+03 4.489231109619140625e+01 1.504971504211425781e+01 -1.347492674082587105e-13 -5.774968312799791392e-14 -5.774968312799791392e-14 -7.509627244866017709e-15
6.901000000000000000e+03 4.000381851196289062e+01 1.496142005920410156e+01 -9.084729225405235864e-14 -3.893455382316529656e-14 -3.893455382316529656e-14 1.530095088174768247e-13
6.902000000000000000e+03 3.708142471313476562e+01 9.685941696166992188e+00 -5.783606693609069649e-14 2.954697576017240035e-13 7.129010787731634990e-14 -2.009491612822364437e-13
6.903000000000000000e+03 3.886209106445312500e+01 1.144310188293457031e+01 -1.646568352584726336e-13 1.839224302371822439e-13 5.779678493612883106e-15 9.833535827524601813e-15
6.904000000000000000e+03 4.062741851806640625e+01 -2.867112636566162109e+00 -1.089877970858466050e-13 1.820456898291369918e-13 2.191736883942665276e-14 -4.566281096188111455e-14
6.905000000000000000e+03 4.148422622680664062e+01 -3.520614624023437500e+00 -4.421101681907797787e-14 2.841524487495056261e-13 7.198243195082054680e-14 -2.526873601040122846e-14
6.906000000000000000e+03 5.881507110595703125e+01 -1.105305099487304688e+01 5.370010331046982943e-14 9.735962036572232137e-14 4.531791608641810853e-14 -1.121548193943125438e-14
6.907000000000000000e+03 5.235475158691406250e+01 1.419351196289062500e+01 -3.912152787594221082e-14 2.898457976451343510e-14 -3.041084602835222167e-15 1.599898463494273115e-13
6.908000000000000000e+03 6.242952346801757812e+01 -8.293090462684631348e-01 -1.748617526817208834e-13 -2.121935981959366391e-13 -1.161166025527918255e-13 -5.131288325016872265e-14
6.909000000000000000e+03 3.835697174072265625e+01 1.555116271972656250e+01 2.812620504609539968e-14 -1.251987608637955551e-13 -2.912176522065074158e-14 1.111041800553290437e-13
6.910000000000000000e+03 3.945596313476562500e+01 1.555735301971435547e+01 1.251622232505827936e-13 -1.529531709620890467e-13 -8.337285160484823182e-15 2.767813139326145283e-14
6.911000000000000000e+03 6.356826019287109375e+01 -1.224009871482849121e+00 -1.220128056748925882e-13 -6.540252670358568873e-15 -3.856591830825664702e-14 1.153808036662368544e-14
6.912000000000000000e+03 4.027260589599609375e+01 -4.206641763448715210e-02 -1.550872467557737333e-13 1.422727360185158108e-13 -3.844353051770787316e-15 -4.985866998126822769e-14
6.913000000000000000e+03 4.310452270507812500e+01 -6.473056674003601074e-01 -1.106181593264581042e-13 1.813469621865515524e-13 2.121864119684121336e-14 -5.260065454493374759e-14
6.914000000000000000e+03 4.262849044799804688e+01 -6.950997829437255859e+00 -1.191759364804756416e-13 2.691812430507395382e-13 4.500159332633188458e-14 -6.105191222363637316e-14
6.915000000000000000e+03 3.963774490356445312e+01 2.890866041183471680e+00 -5.978179648362391685e-14 2.488849241717022709e-13 5.673093627354443280e-14 -1.419568943731436272e-13
6.916000000000000000e+03 3.923756790161132812e+01 4.742494583129882812e+00 -3.721176334734940805e-14 2.356823232668031620e-13 5.954116458770433717e-14 -1.385415643561900903e-14
6.917000000000000000e+03 4.194683837890625000e+01 -5.171743392944335938e+00 -7.800344707176512515e-14 2.868266063028868107e-13 6.264694302595200104e-14 -4.017972952507879725e-14
6.918000000000000000e+03 6.230477905273437500e+01 -8.741971969604492188e+00 -1.521865858160331708e-13 -1.624435856011421930e-13 -9.438904871464717794e-14 4.290562723901006348e-14
6.919000000000000000e+03 6.231899642944335938e+01 -4.743072509765625000e+00 -3.557171376032675081e-13 -1.238558545004278533e-13 -1.438719071178776177e-13 7.437112584844987606e-14
6.920000000000000000e+03 6.156117630004882812e+01 -5.429461956024169922e+00 -8.972538017475509275e-14 2.446302709013803423e-13 4.647146315222942803e-14 9.109489692519373571e-14
6.921000000000000000e+03 5.750007247924804688e+01 -1.508832645416259766e+01 -5.998739509684505866e-14 1.858892542932338854e-13 3.777055775891664802e-14 -1.276369214855445355e-14
6.922000000000000000e+03 4.550206375122070312e+01 -9.179945945739746094e+00 -5.765718713015774433e-14 1.354180981759378621e-13 2.332827331373403534e-14 -1.029029631145240986e-13
6.923000000000000000e+03 4.044142532348632812e+01 -1.389825820922851562e+00 -1.146653030772298854e-13 2.024879423205908080e-13 2.634679549995324471e-14 -6.191911810756248191e-14
6.924000000000000000e+03 4.453168106079101562e+01 -1.032277011871337891e+01 -4.436375041199508429e-14 1.639907556538061639e-13 3.588810157254332389e-14 1.242494673228851376e-14
6.925000000000000000e+03 4.568050384521484375e+01 -1.039500999450683594e+01 -4.560744550031678446e-14 1.634577483132851339e-13 3.535509084389050483e-14 -4.830852514889349969e-14
6.926000000000000000e+03 5.427541732788085938e+01 -1.642675781250000000e+01 5.683144859119741710e-14 2.759865632469965524e-13 9.984540456789772755e-14 -1.250003027383197671e-14
6.927000000000000000e+03 4.433407974243164062e+01 -1.671271896362304688e+01 6.243815956884918306e-14 1.754497968350227088e-13 7.136638827641428318e-14 -3.571143082853681094e-14
6.928000000000000000e+03 4.286839294433593750e+01 -2.537356567382812500e+01 1.321983633130983937e-14 2.115449200361385618e-13 6.742942657142134144e-14 -1.810778564310770722e-14
6.929000000000000000e+03 6.144919204711914062e+01 1.439447307586669922e+01 -1.072628856395307917e-13 9.128303988343786091e-14 -4.793953218608110883e-15 2.287957963278269835e-13
6.930000000000000000e+03 5.602334976196289062e+01 1.332420063018798828e+01 -2.273871466552251919e-14 8.175673137621186637e-14 1.770540602964634086e-14 1.704904392576395145e-13
6.931000000000000000e+03 6.258099746704101562e+01 1.058685207366943359e+01 -1.376158843997832282e-13 -3.610276005016829770e-14 -5.211559265735909996e-14 1.469337211580309943e-13
6.932000000000000000e+03 4.740076446533203125e+01 1.516230964660644531e+01 -1.401586773074406378e-13 -1.431705401206285339e-14 -4.634271753237856339e-14 3.377122393581968862e-14
6.933000000000000000e+03 6.252799987792968750e+01 9.606769561767578125e+00 -1.128031384121409852e-13 -9.409515538700424786e-14 -6.206949017262264334e-14 6.905069337224522402e-15
6.934000000000000000e+03 6.132160186767578125e+01 6.007878780364990234e+00 -8.834762348780555996e-14 5.363863243542169035e-14 -1.041269714630857143e-14 1.600651712953607420e-13
6.935000000000000000e+03 6.278563308715820312e+01 1.250121974945068359e+01 -1.401132763414678073e-13 -8.292402409269122865e-14 -6.691119148550042639e-14 1.179557753555604549e-13
6.936000000000000000e+03 4.440245056152343750e+01 1.443993949890136719e+01 9.736835158134261869e-15 -4.157801829066977428e-14 -9.552354770354064273e-15 3.904105296968947425e-14
6.937000000000000000e+03 6.048786926269531250e+01 5.050916671752929688e+00 -8.325757889105639409e-14 1.473219739559980535e-13 1.921931987473521342e-14 1.552561654542469749e-13
6.938000000000000000e+03 6.193584060668945312e+01 1.971862673759460449e+00 -8.531482540829332661e-14 -1.738163378419560479e-13 -7.773934897507481234e-14 1.570207993576572258e-14
6.939000000000000000e+03 3.888171386718750000e+01 1.264909648895263672e+01 -1.042680278597919730e-13 1.383174987306529102e-13 1.021483956719238667e-14 5.192869653161333310e-14
6.940000000000000000e+03 3.769950103759765625e+01 1.054420948028564453e+01 -9.976364217156516445e-14 3.232517335402529390e-13 6.704643215399083700e-14 -1.281787854025620566e-13
6.941000000000000000e+03 3.942766189575195312e+01 1.201538085937500000e+01 7.451989193904204334e-14 -1.381385291392275491e-14 1.821181145342590235e-14 6.348326947675300702e-14
6.942000000000000000e+03 4.224910736083984375e+01 1.408343601226806641e+01 4.837683666202366450e-14 2.073293048202896893e-14 2.073293048202896893e-14 4.504438543082717183e-14
6.943000000000000000e+03 4.118056869506835938e+01 1.488903427124023438e+01 2.129890095672534733e-14 4.916017950790801949e-14 2.113772413939001005e-14 9.476806546535737619e-14
6.944000000000000000e+03 4.152658843994140625e+01 1.410026741027832031e+01 1.730430035373764497e-14 1.446689718975074923e-13 4.859198303062625679e-14 3.181770507330351772e-14
6.945000000000000000e+03 4.087768936157226562e+01 1.372414779663085938e+01 1.037020213861953363e-15 1.376972808778825774e-13 4.162029201100134190e-14 2.558590072123702319e-14
6.946000000000000000e+03 6.198400878906250000e+01 -1.411496162414550781e+00 -1.187314271422837408e-13 -3.944716122218465404e-14 -4.745357752578005517e-14 -2.228474058117799889e-14
6.947000000000000000e+03 6.264134597778320312e+01 8.712193489074707031e+00 -1.750860199010995100e-13 1.079669326490249881e-13 -2.013572651443553546e-14 4.207737809439407450e-14
6.948000000000000000e+03 3.943650436401367188e+01 1.438690567016601562e+01 7.620712058360040730e-14 -6.027142218471837065e-14 4.780709434961316270e-15 3.865928675003248854e-15
6.949000000000000000e+03 5.507393646240234375e+01 1.411997604370117188e+01 -7.900808235731734963e-14 3.476581679874926611e-14 -1.327268017579019341e-14 9.776616907535007339e-14
6.950000000000000000e+03 3.719938659667968750e+01 8.700828552246093750e+00 -3.843085721075105432e-14 1.207824801546103499e-13 2.470548620553143088e-14 -3.686747155934484710e-14
6.951000000000000000e+03 3.940089416503906250e+01 1.322226238250732422e+01 -1.753242474939983083e-15 -1.837551784995491988e-13 -5.565252780641814778e-14 2.218977463526363575e-14
6.952000000000000000e+03 6.141379547119140625e+01 5.089939117431640625e+00 -1.498127387119033149e-13 3.018021217052885286e-13 4.559681693089463750e-14 1.511388534941246475e-13
6.953000000000000000e+03 5.016652297973632812e+01 1.276151752471923828e+01 -9.250486796919324406e-14 -8.539588984947735217e-14 -5.337022802322753667e-14 8.032318571122437634e-14
6.954000000000000000e+03 4.823474884033203125e+01 1.412780666351318359e+01 -6.065768953745706571e-14 -7.174710586928256806e-14 -3.972143726676917452e-14 5.962323191589791183e-14
6.955000000000000000e+03 4.786251831054687500e+01 1.363216781616210938e+01 3.429419224184986070e-14 -7.680438723163193759e-14 -1.275305764990167581e-14 9.824588110282986286e-14
6.956000000000000000e+03 6.178280258178710938e+01 -4.083157062530517578e+00 -1.190499928456142942e-13 -5.102142598928209594e-14 -5.102142598928209594e-14 1.325841021172780021e-13
6.957000000000000000e+03 6.244522857666015625e+01 -3.571139097213745117e+00 -5.877083216788980824e-14 -2.232806631643005635e-14 -2.432967123936185388e-14 -1.370755197310823473e-14
6.958000000000000000e+03 6.266465759277343750e+01 1.154320812225341797e+01 -1.822326604937821171e-13 -2.382280299677991264e-13 -1.261382084937270887e-13 1.544929548874529601e-13
6.959000000000000000e+03 3.761566543579101562e+01 7.696125030517578125e+00 -1.696048968044712446e-14 1.071085901178589483e-13 2.704443047003672607e-14 -9.872171033127943862e-14
6.960000000000000000e+03 3.867337036132812500e+01 1.023085403442382812e+01 -3.175840937886392767e-14 2.151439969103399741e-13 5.501567422656374051e-14 -5.465121289001916016e-14
6.961000000000000000e+03 6.351609039306640625e+01 -7.188427448272705078e+00 -1.807668869192174954e-13 5.263274015297574049e-14 -3.844024233580663197e-14 -4.489325442424627055e-14
6.962000000000000000e+03 6.079182052612304688e+01 -7.751242637634277344e+00 -1.546941963631934258e-13 -2.493013120160453289e-13 -1.211986511585189108e-13 1.523318621308826504e-14
6.963000000000000000e+03 5.693199539184570312e+01 1.337947750091552734e+01 -1.194872786868320103e-13 4.029306253342142263e-14 -2.375826620127589189e-14 1.249025703827996714e-13
6.964000000000000000e+03 5.775506973266601562e+01 1.422542667388916016e+01 -1.760425437152476902e-13 -7.544680348135421322e-14 -7.544680348135421322e-14 6.179402828191196684e-14
6.965000000000000000e+03 5.969330215454101562e+01 1.365640640258789062e+01 -5.508091948042484476e-14 -4.648158350188322241e-14 -3.046875089469242015e-14 2.495138156418524877e-13
6.966000000000000000e+03 6.084672927856445312e+01 9.832912445068359375e+00 -1.397367193744364355e-13 -1.413621840705469104e-14 -4.616188277440334831e-14 8.260577687374884293e-14
6.967000000000000000e+03 6.227406692504882812e+01 1.266287684440612793e+00 -1.041596957339699370e-13 2.756167689910160590e-13 5.143712265474019441e-14 1.378285913134977281e-13
6.968000000000000000e+03 6.285666275024414062e+01 7.807367444038391113e-01 -1.626957845789894774e-13 -1.100342808811908754e-15 -4.913883766576900014e-14 6.097259605845548047e-14
6.969000000000000000e+03 5.169952392578125000e+01 1.310634517669677734e+01 -5.794881718576561092e-14 1.124176367771866081e-13 1.634064621623947805e-14 -1.230838822248274400e-14
6.970000000000000000e+03 4.039237594604492188e+01 1.228750348091125488e+00 -1.276128725261060914e-13 2.655654017004460687e-13 4.138575875230199319e-14 -1.516153061388234025e-13
6.971000000000000000e+03 4.011275863647460938e+01 4.938331127166748047e+00 -5.858746901656703907e-15 4.324005617537679536e-14 1.121439265506108535e-14 -5.718460881415973057e-15
6.972000000000000000e+03 4.594641494750976562e+01 1.495746135711669922e+01 -7.345452777930347454e-14 6.002138483495247923e-14 -4.029941782162467165e-15 -2.503826173358512236e-14
6.973000000000000000e+03 4.251452636718750000e+01 -1.630408167839050293e+00 -4.870550577434906714e-14 2.536319136485498671e-13 6.147792236226023999e-14 1.086390799742091139e-15
6.974000000000000000e+03 4.461014556884765625e+01 -3.860078334808349609e+00 -2.484883806152474867e-14 1.037278715611961166e-13 2.366371021930799984e-14 -2.626329329794702128e-14
6.975000000000000000e+03 4.140768432617187500e+01 -6.300186157226562500e+00 -9.612657078748171324e-14 9.605574528056409767e-14 -2.124838561905188517e-17 -5.557197836126605284e-14
6.976000000000000000e+03 6.262213134765625000e+01 4.370828151702880859e+00 -1.277789316413494025e-13 -9.011448847599887874e-15 -4.103711321494854514e-14 1.641115222232938931e-13
6.977000000000000000e+03 4.144352340698242188e+01 1.182238161563873291e-01 -8.330970868676221275e-14 1.930505858253536711e-13 3.292226314157743750e-14 -6.139253720601227024e-15
6.978000000000000000e+03 4.085542297363281250e+01 5.501945614814758301e-01 -2.133597897695845708e-14 -5.489493815026211254e-14 -2.286927462994640253e-14 -4.572424456747957444e-14
6.979000000000000000e+03 6.259631729125976562e+01 -1.767930984497070312e+00 -1.373291942403237487e-13 -1.310442131598286292e-14 -4.513008483629857293e-14 1.643553423512269379e-14
6.980000000000000000e+03 3.791474151611328125e+01 9.850912094116210938e+00 -4.254806752691971117e-14 1.647689146580533226e-13 3.666625041239511551e-14 -1.789460439094274491e-15
6.981000000000000000e+03 4.118019866943359375e+01 8.355298995971679688e+00 -4.660378663924949483e-14 3.002835881425053310e-13 7.610393841809767745e-14 -2.325462718710206295e-14
6.982000000000000000e+03 3.689045333862304688e+01 7.169574737548828125e+00 1.892078692412369791e-15 1.609392144292370874e-13 4.884938617890147161e-14 -4.481614393286002807e-14
6.983000000000000000e+03 3.897674942016601562e+01 7.190541744232177734e+00 -1.011514345048737662e-13 2.311550744652640654e-13 3.900109334336980538e-14 -8.066144323651269765e-14
6.984000000000000000e+03 5.080554962158203125e+01 1.312715435028076172e+01 -1.131357445336052259e-13 2.031434645066027000e-13 2.700231768596513676e-14 1.201640512354246182e-13
6.985000000000000000e+03 3.992420578002929688e+01 5.766757965087890625e+00 -5.784212491572945924e-14 2.497162090824012193e-13 5.756222457237517021e-14 -1.231911504772677246e-14
6.986000000000000000e+03 3.939871215820312500e+01 3.808954477310180664e+00 -9.039542389361471253e-14 -1.531182678479042769e-13 -7.305411158821384365e-14 1.723366288813431985e-14
6.987000000000000000e+03 6.180374908447265625e+01 7.140795707702636719e+00 -9.342875052168603256e-14 9.721195202982979566e-14 1.134959668937652721e-15 1.555046781447078086e-13
6.988000000000000000e+03 4.778327941894531250e+01 1.454332065582275391e+01 -5.806828271264635744e-14 -2.136090647896979333e-13 -8.150320425070328723e-14 6.790799341035644310e-14
6.989000000000000000e+03 5.945750045776367188e+01 -9.842385292053222656e+00 -6.423830109340833427e-14 -1.647835513873818769e-13 -6.870655574423706335e-14 -3.093507641347380266e-14
6.990000000000000000e+03 4.392778778076171875e+01 -7.481083869934082031e+00 -7.810770666317676247e-14 1.037781175556272417e-13 7.701122759515375421e-15 3.605303836913152302e-15
6.991000000000000000e+03 4.175223541259765625e+01 -1.115509748458862305e+00 -1.502114676133620152e-13 1.643783985880512000e-13 4.250077598340860907e-15 -1.144825929883094492e-14
6.992000000000000000e+03 4.120502090454101562e+01 -1.999958276748657227e+00 -8.157643024899342149e-15 1.223189708158753386e-13 3.424839825258950421e-14 -4.297462738992634604e-15
6.993000000000000000e+03 5.684239578247070312e+01 -1.166976833343505859e+01 -3.245251899782093663e-14 8.967251515445105736e-15 -7.045580244712749268e-15 4.481257877118503472e-15
6.994000000000000000e+03 6.173819351196289062e+01 -3.298095703125000000e+00 -2.065865924508192286e-13 1.402176308005695371e-13 -1.991068849507490746e-14 9.187380131843447817e-14
6.995000000000000000e+03 4.090253448486328125e+01 2.415561914443969727e+00 -1.325922200810444873e-13 2.405559204523427530e-13 3.238911688765305774e-14 -1.358120701403647823e-13
6.996000000000000000e+03 4.644560241699218750e+01 -8.942471504211425781e+00 -9.281844634253036408e-14 2.884708937651511707e-14 -1.919140844505728971e-14 -3.251049670899459898e-14
6.997000000000000000e+03 4.306838989257812500e+01 -5.746808052062988281e+00 -1.056417797749668874e-13 1.148532766288845597e-13 2.763446684483049365e-15 -6.310562153128557172e-14
6.998000000000000000e+03 5.141041183471679688e+01 -1.617637443542480469e+01 -5.055562901905980011e-14 2.299635091726481839e-13 5.382236743420830416e-14 -7.236064402023085346e-15
6.999000000000000000e+03 5.394511413574218750e+01 -1.809809875488281250e+01 -1.296108301251670120e-14 1.545735653189772574e-13 4.248374723303700862e-14 2.380100536621197575e-15
7.000000000000000000e+03 4.582197570800781250e+01 -1.179676151275634766e+01 -1.507758626067765007e-14 1.879797045020031865e-13 5.187063750527673434e-14 -5.277018310712901228e-14
7.001000000000000000e+03 6.110470581054687500e+01 1.363440418243408203e+01 -1.369961679905176699e-13 -1.959654904711352619e-13 -9.988849482799044832e-14 2.130433280960949971e-13
7.002000000000000000e+03 6.186255264282226562e+01 1.257898521423339844e+01 -1.704823077413458732e-13 -7.306384230271190106e-14 -7.306384230271190106e-14 5.005788196606707208e-14
7.003000000000000000e+03 6.275844192504882812e+01 1.339831638336181641e+01 -1.720596050618777850e-13 1.776206914568586454e-14 -4.628925958901144999e-14 7.923434179818791834e-14
7.004000000000000000e+03 6.193312072753906250e+01 1.341750621795654297e+01 -1.882795270602768967e-13 1.081066964734537367e-14 -5.324065908735194086e-14 7.813010899056574421e-14
7.005000000000000000e+03 4.049008941650390625e+01 1.434809207916259766e+01 3.182488113643265615e-14 1.966430355137757657e-13 6.854037465624934766e-14 -1.810478375834263798e-14
7.006000000000000000e+03 6.092985153198242188e+01 1.272150421142578125e+01 -6.903221619553381871e-14 -5.246071114952018111e-14 -3.644787854232937885e-14 2.295387458665226754e-13
7.007000000000000000e+03 6.175056457519531250e+01 1.067537403106689453e+01 -1.667280273261531609e-13 -1.858322388114883039e-13 -1.057680825517978707e-13 8.258769780252264714e-14
7.008000000000000000e+03 6.145171737670898438e+01 7.929035186767578125e+00 -1.746487205073546378e-13 1.081543437708026856e-13 -1.994831369859194348e-14 1.541835100348984411e-13
7.009000000000000000e+03 6.203882217407226562e+01 8.307287216186523438e+00 -1.098888368538178395e-13 -1.786291926007821385e-13 -8.655541019163270899e-14 1.526745581088145842e-13
7.010000000000000000e+03 6.247527694702148438e+01 9.919598698616027832e-02 -1.008150878859144506e-13 2.544481256079524252e-15 -2.948118162896147532e-14 5.080235616406782173e-14
7.011000000000000000e+03 6.217422866821289062e+01 -2.493861436843872070e+00 -1.211288624199287345e-14 -9.669313418524116965e-14 -3.264180714460974964e-14 3.467657340742655303e-14
7.012000000000000000e+03 5.878778839111328125e+01 1.342080116271972656e+01 -1.503029336191383236e-13 -2.016683938984090152e-13 -1.055913982552642016e-13 1.671459195010105425e-13
7.013000000000000000e+03 5.154017639160156250e+01 1.226765537261962891e+01 -1.078664135551084258e-13 -6.910393616924373483e-14 -5.309110356205293257e-14 1.110594973732954849e-13
7.014000000000000000e+03 4.954526519775390625e+01 1.326146507263183594e+01 -1.985173229144057694e-13 -2.108939650517782649e-13 -1.228233823240970635e-13 3.755881985089380704e-14
7.015000000000000000e+03 4.883887863159179688e+01 1.373306846618652344e+01 -1.643125062010183934e-13 2.108225195167432592e-14 -4.296907678302298861e-14 5.194141557834930367e-14
7.016000000000000000e+03 6.130333328247070312e+01 4.193683624267578125e+00 -1.990244178230043959e-13 1.434585685921446752e-13 -1.666975239756566390e-14 1.007515062047617538e-13
7.017000000000000000e+03 6.130342102050781250e+01 3.429238557815551758e+00 -1.341736644748861562e-13 -3.777596453962556167e-13 -1.535799888955843850e-13 1.279070436805557209e-13
7.018000000000000000e+03 3.817779541015625000e+01 9.017230033874511719e+00 -5.221485136625014789e-14 6.912410232965196522e-14 5.072776136053492452e-15 -1.226551276994544692e-13
7.019000000000000000e+03 4.027904891967773438e+01 8.563435554504394531e+00 3.195886141989755236e-14 2.424514040054448483e-13 8.232307793353682568e-14 -2.980582902885331453e-14
7.020000000000000000e+03 6.055032348632812500e+01 5.878287792205810547e+00 -1.835187411107844224e-13 2.873566998500692860e-13 3.115138829941181686e-14 1.325391348321741658e-13
7.021000000000000000e+03 5.366971969604492188e+01 1.245877170562744141e+01 -1.631250202190764886e-13 2.045949672700719812e-13 1.244098530114477394e-14 1.759753773906622132e-13
7.022000000000000000e+03 5.524694824218750000e+01 1.232982158660888672e+01 -1.430975021636526900e-13 -1.299539225145182608e-13 -8.191543146920943208e-14 1.290845278974564470e-13
7.023000000000000000e+03 6.108930587768554688e+01 1.523658514022827148e+00 -8.894211864403367418e-14 7.632897643745830546e-15 -2.439276672360282672e-14 1.438801741594428196e-13
7.024000000000000000e+03 3.984846878051757812e+01 1.001856136322021484e+01 -1.183662814031177790e-13 -7.360388340482693081e-14 -5.759105079763612856e-14 -1.212084295186202513e-16
7.025000000000000000e+03 4.340999603271484375e+01 1.208696961402893066e+00 -1.579314614199092692e-14 1.304843548748796378e-13 3.440736261986661326e-14 -3.345189929096839543e-14
7.026000000000000000e+03 5.696043014526367188e+01 1.260144901275634766e+01 -1.506846947565976258e-13 -1.560810535721282588e-13 -9.202972314336504978e-14 2.313678762466686578e-13
7.027000000000000000e+03 5.785161972045898438e+01 1.335408020019531250e+01 -7.882876209425182523e-14 1.196719318693334477e-14 -2.005847033338236524e-14 2.696988140628298058e-13
7.028000000000000000e+03 6.180627059936523438e+01 1.164971542358398438e+01 -1.261080270157505234e-13 -9.979724566264863705e-14 -6.777158044826703254e-14 1.445318609802695442e-13
7.029000000000000000e+03 6.082732772827148438e+01 7.608005046844482422e+00 -7.554126459563201279e-14 1.337612153337478307e-14 -1.864954283397387419e-14 1.538559454535362581e-13
7.030000000000000000e+03 4.501578140258789062e+01 1.379606628417968750e+01 -5.481526961937516207e-14 -6.167833988670126406e-16 -1.662961489432707163e-14 -1.259505195451426918e-13
7.031000000000000000e+03 3.936466598510742188e+01 1.075621128082275391e+01 -6.372403774497709464e-15 -4.848198055583223531e-14 -1.645631534145063080e-14 3.265331324016525205e-14
7.032000000000000000e+03 4.036803054809570312e+01 1.322144222259521484e+01 -2.002107213469519337e-14 3.717048912589560050e-14 5.144825182063416866e-15 -4.935165045860190683e-15
7.033000000000000000e+03 5.926881790161132812e+01 -8.148900985717773438e+00 -1.072981696439816168e-13 -1.603622969007303944e-13 -8.029814064103996119e-14 -1.301109861398617312e-14
7.034000000000000000e+03 5.771273040771484375e+01 -1.039101123809814453e+01 -9.567569853779003819e-14 -8.103594699567992499e-14 -5.301349501529370456e-14 -1.253942831730761598e-14
7.035000000000000000e+03 4.124996948242187500e+01 1.620245933532714844e+00 -3.335984713839258708e-14 8.578396477052548791e-15 -7.434435283105306214e-15 9.801980462107590109e-15
7.036000000000000000e+03 4.739241790771484375e+01 1.417950534820556641e+01 -6.645824569915387281e-14 -7.423305270178384707e-14 -4.220739087553403157e-14 3.723044889416583791e-14
7.037000000000000000e+03 4.070881271362304688e+01 6.090229034423828125e+00 1.910737091822840156e-14 2.369436298641641736e-13 7.681529701599257298e-14 -2.095470149531203710e-15
7.038000000000000000e+03 6.065415191650390625e+01 8.915766716003417969e+00 -9.004683934263346679e-14 7.159446883812144863e-15 -2.486621748353651240e-14 2.321684511308319543e-13
7.039000000000000000e+03 3.853105545043945312e+01 8.113840103149414062e+00 7.639806891496583874e-14 -1.300892004524583506e-14 1.901674347506987495e-14 -1.237079168080581007e-14
7.040000000000000000e+03 5.445853424072265625e+01 1.186315917968750000e+01 -1.485947595438602553e-13 7.356937867068757964e-14 -2.250761527839133941e-14 1.060426431994526686e-13
7.041000000000000000e+03 5.268099212646484375e+01 1.287680339813232422e+01 -1.136917437364465266e-13 -4.872503157784917327e-14 -4.872503157784917327e-14 2.312455511365579808e-13
7.042000000000000000e+03 6.021614074707031250e+01 -3.921764612197875977e+00 -5.512648307672354808e-14 1.314986802173484515e-13 2.291165846456111321e-14 1.055216433979919155e-13
7.043000000000000000e+03 5.077093887329101562e+01 1.240678882598876953e+01 -1.711691769226697524e-13 6.389462933352116347e-14 -3.218236630962365008e-14 -9.652639236144237161e-15
7.044000000000000000e+03 4.200074005126953125e+01 -2.578770399093627930e+00 -1.967971006424859559e-13 -3.287179691858002628e-14 -6.890066859069343685e-14 -1.069736408287023932e-13
7.045000000000000000e+03 6.219228744506835938e+01 -7.419056415557861328e+00 -1.883219600228025481e-13 -2.065245218764444335e-13 -1.184539391487632320e-13 4.411797194388798748e-14
7.046000000000000000e+03 6.155727005004882812e+01 -8.275519371032714844e+00 -8.164701350448812234e-15 4.225179234262910200e-14 1.022612712824749748e-14 6.052897441079230223e-15
7.047000000000000000e+03 4.443303680419921875e+01 -1.743997693061828613e+00 -8.681029934612047305e-14 5.429748515498218631e-14 -9.753843579715128220e-15 2.124075383896223412e-14
7.048000000000000000e+03 4.647318649291992188e+01 1.432214260101318359e+01 -1.499375845920650208e-13 -3.280518624760794810e-14 -5.482282854139645945e-14 9.705033814349367516e-14
7.049000000000000000e+03 6.011294937133789062e+01 -8.745252609252929688e+00 -1.105595175414537945e-14 1.553900508700217786e-13 4.330022939594974085e-14 2.812953727370989809e-14
7.050000000000000000e+03 5.850524139404296875e+01 -9.225164413452148438e+00 -1.814628159649452066e-14 -7.776977948073787034e-15 -7.776977948073787034e-15 7.386054455224035087e-15
7.051000000000000000e+03 6.202445602416992188e+01 -4.199378788471221924e-01 -2.604619265492852387e-13 -1.116265351095054037e-13 -1.116265351095054037e-13 1.982197873450896458e-14
7.052000000000000000e+03 4.499473190307617188e+01 -8.177832603454589844e+00 -1.568234203521562398e-13 9.291828103382554493e-14 -1.917154044024649284e-14 1.080449710650049477e-15
7.053000000000000000e+03 4.241066360473632812e+01 -4.116021633148193359e+00 -1.092503637469682820e-13 1.819331631961601525e-13 2.180483712425212994e-14 -8.335672917973019347e-14
7.054000000000000000e+03 6.079151153564453125e+01 -6.238592624664306641e+00 -2.226934728202095704e-13 -1.869419603926086859e-13 -1.228906299638454769e-13 -8.323882558160418388e-15
7.055000000000000000e+03 6.149115753173828125e+01 -6.858098030090332031e+00 -7.427904997895154460e-14 1.604630734926629221e-13 2.585520807055294995e-14 -3.608138432671138818e-14
7.056000000000000000e+03 4.455223846435546875e+01 -1.170690822601318359e+01 -3.047526966025448925e-14 1.241920113840069839e-13 2.811502421119164291e-14 -4.224510417047758204e-14
7.057000000000000000e+03 4.678987503051757812e+01 -1.028420352935791016e+01 -8.927316622487496689e-14 1.447438631625719285e-13 1.664120908130908849e-14 -5.180869567990992186e-14
7.058000000000000000e+03 5.542905807495117188e+01 -1.516674613952636719e+01 1.264786462818216425e-14 1.562556778845342054e-13 5.067106266911161616e-14 -7.175249977509068344e-14
7.059000000000000000e+03 4.448091125488281250e+01 -1.492728137969970703e+01 -2.049986174329542291e-15 2.507516492621791881e-13 7.461049735934394134e-14 -8.036762444776912595e-14
7.060000000000000000e+03 4.871839141845703125e+01 -1.307494735717773438e+01 -4.892952523659062185e-16 1.027299380003225682e-13 3.067219126796395801e-14 -9.103329899520350849e-15
7.061000000000000000e+03 4.916259002685546875e+01 -1.477305126190185547e+01 -4.354525231066788682e-14 1.300283394411322346e-13 2.594492410626023093e-14 -3.097918650123501760e-14
7.062000000000000000e+03 5.998370361328125000e+01 1.271106719970703125e+01 -1.066115037505650787e-13 -2.744453969638627200e-13 -1.143170708919546974e-13 2.021625190385192838e-13
7.063000000000000000e+03 5.631218719482421875e+01 1.179501628875732422e+01 -5.891728755260186579e-14 -4.812573882700781069e-14 -3.211290960794879745e-14 1.297230687669417848e-13
7.064000000000000000e+03 6.011861419677734375e+01 1.173722839355468750e+01 -8.630951313891299659e-14 -3.698978989319194610e-14 -3.698978989319194610e-14 2.778619619548533537e-13
7.065000000000000000e+03 3.991532897949218750e+01 1.379246425628662109e+01 -1.125152962878732399e-13 1.490801297514277035e-13 1.096945020847292854e-14 8.333287673193551237e-14
7.066000000000000000e+03 3.992270278930664062e+01 1.262694549560546875e+01 -1.386823192091671264e-13 1.693194602537737015e-13 9.191142652195151419e-15 -9.136704691708064791e-15
7.067000000000000000e+03 6.038191223144531250e+01 6.578626632690429688e+00 -1.295857139042150274e-13 1.308968717786537436e-14 -3.494880979667408516e-14 2.125092365534014816e-13
7.068000000000000000e+03 5.987905502319335938e+01 6.043495655059814453e+00 -7.986372793557933170e-14 -2.278957560587335091e-14 -3.079599021540285753e-14 1.771276268019983391e-13
7.069000000000000000e+03 4.208848571777343750e+01 1.332823371887207031e+01 -1.333423931167143639e-13 3.435515828526143622e-14 -2.969616875536998379e-14 6.320532069730919189e-14
7.070000000000000000e+03 4.081465148925781250e+01 1.276379966735839844e+01 -9.447673356534694311e-14 5.101187145763706743e-14 -1.303945897112614161e-14 -6.864825954867523339e-15
7.071000000000000000e+03 6.100591659545898438e+01 -3.772361874580383301e-01 -1.314082442036360043e-13 -1.056686984820306291e-14 -4.259253336851877292e-14 1.399209490404642459e-14
7.072000000000000000e+03 4.783463668823242188e+01 1.254473686218261719e+01 -6.932455775881737892e-14 5.321306953019397379e-14 -4.833445282740895382e-15 8.387026831499153068e-14
7.073000000000000000e+03 4.904113769531250000e+01 1.257233333587646484e+01 -3.693850035416980371e-14 -7.301947132880293179e-14 -3.298738981082592614e-14 1.467695458440623768e-13
7.074000000000000000e+03 6.040997314453125000e+01 4.130179882049560547e+00 -1.259599249989890035e-13 6.039454689393125575e-14 -1.966961275389096653e-14 6.673872880117587281e-14
7.075000000000000000e+03 6.093499374389648438e+01 -4.679040908813476562e+00 -2.113017063837957510e-13 -1.363088244707433283e-13 -1.042831592563617238e-13 3.453989278292581011e-14
7.076000000000000000e+03 6.159410858154296875e+01 2.704765796661376953e+00 -1.522284360198911113e-13 -6.524076119835200971e-14 -6.524076119835200971e-14 1.641248172524339966e-13
7.077000000000000000e+03 6.008342742919921875e+01 9.982018470764160156e+00 -1.165677932868716682e-13 -4.995762375829826407e-14 -4.995762375829826407e-14 2.106640464285755576e-13
7.078000000000000000e+03 3.909359359741210938e+01 9.430042266845703125e+00 3.221112477224882809e-14 5.955572000186995507e-14 2.753005309342245605e-14 1.150162186628819749e-13
7.079000000000000000e+03 4.096672821044921875e+01 5.214896202087402344e+00 -1.020693539454178844e-13 1.392597788387600621e-13 1.115712899266195837e-14 -1.009285225382107465e-13
7.080000000000000000e+03 4.032221984863281250e+01 4.081361770629882812e+00 -6.397006269967184244e-14 2.928408925940984009e-13 6.866124964595432534e-14 -1.016733355493903979e-13
7.081000000000000000e+03 4.971189498901367188e+01 1.200808715820312500e+01 -1.212600034489544343e-13 1.767861708803011855e-13 1.665784989059084648e-14 4.530865293410693551e-14
7.082000000000000000e+03 6.166841506958007812e+01 9.668868064880371094e+00 -8.528895363395239126e-14 7.782496028911969899e-14 -2.239196817603681527e-15 2.054270517798731377e-13
7.083000000000000000e+03 4.463271713256835938e+01 1.198868465423583984e+01 -7.336397466328606950e-16 -3.144170418340201840e-16 -3.144170418340201840e-16 9.599902964848184422e-15
7.084000000000000000e+03 6.147866439819335938e+01 7.808501124382019043e-01 -1.313791875854133928e-13 -9.061857302950296345e-14 -6.659932750684854907e-14 3.967987505411330051e-14
7.085000000000000000e+03 6.074155807495117188e+01 2.322739601135253906e+00 -4.667818323707273453e-14 -1.801332520645626545e-13 -6.804343059049061671e-14 5.901948715988578065e-14
7.086000000000000000e+03 6.094748687744140625e+01 1.173342990875244141e+01 -1.368835329373235821e-13 -1.730417431523509353e-13 -9.297758011639692399e-14 1.487513996527300986e-13
7.087000000000000000e+03 5.944072341918945312e+01 4.081290245056152344e+00 -8.662448064628361366e-14 3.150164658749683710e-14 -1.653684954000967516e-14 1.800223246297902313e-13
7.088000000000000000e+03 6.144775772094726562e+01 8.736152648925781250e+00 -1.812954896884128031e-13 -5.482259137217122824e-14 -7.083542059123024148e-14 7.699503740739993551e-14
7.089000000000000000e+03 4.517767715454101562e+01 1.251974296569824219e+01 -5.747069758022665953e-14 6.687159777741397138e-14 2.820269466233130476e-15 -1.544680182374857935e-13
7.090000000000000000e+03 4.410220718383789062e+01 1.263721084594726562e+01 -1.512066974450679280e-13 -1.905191905930345153e-14 -5.107758427368505605e-14 2.261994497620794208e-15
7.091000000000000000e+03 4.226890563964843750e+01 -1.402196735143661499e-01 1.389134372310231458e-14 6.314211848691686502e-14 2.311003866300575388e-14 1.418667615972262971e-14
7.092000000000000000e+03 3.952762603759765625e+01 6.447919845581054688e+00 -1.705738405568458962e-16 1.143042637537922124e-13 3.424010749410177912e-14 1.532383567910342026e-14
7.093000000000000000e+03 4.606114196777343750e+01 1.375544834136962891e+01 -6.175732803837333251e-14 1.928352327807119487e-14 -1.274214024224451514e-14 2.753131686657975946e-14
7.094000000000000000e+03 4.176482772827148438e+01 2.742759227752685547e+00 2.495814088710433809e-14 1.708246716823624833e-13 5.873484343202686753e-14 2.028774012934747573e-14
7.095000000000000000e+03 4.058403778076171875e+01 3.235749483108520508e+00 -3.849268383963704021e-14 1.207559849640202354e-13 2.467898932087542185e-14 -3.714016534638389655e-14
7.096000000000000000e+03 5.319470214843750000e+01 1.169443130493164062e+01 -2.859539523030439623e-14 -3.513064405352706032e-14 -1.911781144633625806e-14 2.601006974904673807e-13
7.097000000000000000e+03 6.092650222778320312e+01 -2.982410669326782227e+00 -1.113552338446316403e-13 -4.772367261573692843e-14 -4.772367261573692843e-14 6.688727127506996495e-14
7.098000000000000000e+03 5.048431396484375000e+01 1.162695503234863281e+01 -4.750845848449855580e-14 -8.898719434935475903e-14 -4.094869652778235225e-14 1.630462529312454167e-13
7.099000000000000000e+03 5.237866592407226562e+01 1.205061721801757812e+01 -1.543359624128770591e-13 1.626107695761394578e-13 2.482442021923777532e-15 3.181350378988513639e-14
7.100000000000000000e+03 5.776150131225585938e+01 1.255125045776367188e+01 -1.607325926002156624e-13 -1.832627609778605948e-13 -1.031986047181701616e-13 2.499278453464703897e-13
7.101000000000000000e+03 5.613734054565429688e+01 1.253366565704345703e+01 -1.134310269952816530e-13 -1.401152008003239691e-13 -7.606386359529718200e-14 9.925223078306733004e-14
7.102000000000000000e+03 6.034368896484375000e+01 8.104372978210449219e+00 -1.703916277821446168e-13 5.279012565083916753e-14 -3.528045030057845588e-14 1.345884531210247981e-13
7.103000000000000000e+03 4.053115844726562500e+01 9.583709716796875000e+00 -1.367263896908830698e-14 -5.859702778337680384e-15 -5.859702778337680384e-15 4.617155589066099242e-14
7.104000000000000000e+03 3.982422256469726562e+01 7.763657093048095703e+00 -1.155203862256148906e-14 1.780529255935789368e-13 4.995026473605251871e-14 6.907869458741555668e-14
7.105000000000000000e+03 6.017563629150390625e+01 -2.384079933166503906e+00 -1.257284207301090362e-13 1.291201845964040640e-13 1.017530197503868725e-15 1.187658912188416238e-13
7.106000000000000000e+03 6.008695220947265625e+01 -5.553113460540771484e+00 -2.915999689975801168e-14 7.900475521190053474e-14 1.495342817126911472e-14 1.121900288598640105e-13
7.107000000000000000e+03 4.370924758911132812e+01 -3.563934326171875000e+00 -1.057330086115179646e-13 1.148141775880393012e-13 2.724350608253106251e-15 -2.214579949043883026e-16
7.108000000000000000e+03 4.510971832275390625e+01 -2.188455581665039062e+00 -5.811870488993051143e-14 1.580957858116766035e-13 2.999312156601839641e-14 -1.055803055117869593e-13
7.109000000000000000e+03 6.083897018432617188e+01 -1.613248467445373535e+00 -8.737153660070759442e-14 5.405695490301627715e-14 -9.994374678713984633e-15 1.043519349435469840e-14
7.110000000000000000e+03 4.624732589721679688e+01 -2.805922746658325195e+00 -1.227107608234301317e-13 1.990398948090166265e-13 2.289874121211548513e-14 -6.977743578252815215e-14
7.111000000000000000e+03 4.431507110595703125e+01 -6.207654476165771484e+00 -1.125694725151796249e-13 1.805106899458591707e-13 2.038236387395114813e-14 2.434107399689779128e-14
7.112000000000000000e+03 4.119549560546875000e+01 4.374938488006591797e+00 -3.263786674733912263e-14 7.751424149901250948e-14 1.346291191728224770e-14 2.616604375120686055e-14
7.113000000000000000e+03 4.035198974609375000e+01 6.991508483886718750e+00 -5.202643058119932329e-14 1.607067479309290392e-13 3.260409723779798818e-14 -3.045554395697883110e-14
7.114000000000000000e+03 4.594368362426757812e+01 -7.656040191650390625e+00 -8.169821834021553930e-14 1.708657493921725279e-13 2.675025762152120207e-14 -6.394163627396198812e-14
7.115000000000000000e+03 4.602774429321289062e+01 -1.884825706481933594e+01 1.297275427949691820e-14 1.199371277207234021e-13 3.987296468476939082e-14 -8.469977784463303405e-14
7.116000000000000000e+03 4.560420608520507812e+01 -6.348466396331787109e+00 -1.174398441992560715e-13 8.692148427890886153e-14 -9.155507976104163004e-15 -5.739902504036178965e-14
7.117000000000000000e+03 4.402600479125976562e+01 -2.608225584030151367e+00 -4.592662445550114991e-14 2.606810980184531834e-14 -5.957553718470391668e-15 -1.537556059306045136e-14
7.118000000000000000e+03 4.995925521850585938e+01 -1.866849517822265625e+01 5.583363785010122052e-16 9.174118306394876687e-14 2.768985602331734686e-14 -3.521135612900502809e-14
7.119000000000000000e+03 5.575888061523437500e+01 -1.065001678466796875e+01 -2.005354907195881775e-14 1.428109576938601383e-14 -1.731735990771841177e-15 -1.824032597056227112e-14
7.120000000000000000e+03 5.497668457031250000e+01 1.117978763580322266e+01 -8.079053105767425302e-14 5.687738827012470133e-14 -7.173943852704402213e-15 1.293607555059514413e-13
7.121000000000000000e+03 5.563152313232421875e+01 1.152579784393310547e+01 -1.410305520369720123e-13 -1.469071751454640445e-14 -4.671638103486211446e-14 3.962910051112308873e-14
7.122000000000000000e+03 5.131443405151367188e+01 1.146949577331542969e+01 -9.001279539441742195e-14 1.673023563219730447e-13 2.318686793945350794e-14 -2.501462443215904385e-14
7.123000000000000000e+03 5.281140136718750000e+01 1.102082443237304688e+01 -1.483407038697925895e-13 7.367825967385943642e-14 -2.239873258115358812e-14 1.208733634017189473e-13
7.124000000000000000e+03 5.906631088256835938e+01 1.249267005920410156e+01 -1.217106927395295024e-13 -1.093504152786979600e-13 -6.931833037258916530e-14 1.932085811869391212e-13
7.125000000000000000e+03 6.093904495239257812e+01 1.077020835876464844e+01 -1.135831812176628375e-13 4.282339050422703797e-14 -2.122793823047027656e-14 1.742247161427498692e-13
7.126000000000000000e+03 4.116001510620117188e+01 1.317231464385986328e+01 1.004095217345055135e-13 1.802855011546339314e-13 8.420850551148911789e-14 -2.425858992849416751e-14
7.127000000000000000e+03 4.352417373657226562e+01 1.319205474853515625e+01 2.080589051197366535e-14 3.751115222475412403e-14 1.749511315983151571e-14 -1.089266751883727347e-14
7.128000000000000000e+03 4.256746292114257812e+01 1.297482967376708984e+01 -1.418475508899825696e-14 -1.433320286460884607e-13 -4.725503300294364717e-14 1.289443846022673285e-14
7.129000000000000000e+03 5.933846664428710938e+01 1.161708927154541016e+01 -7.501715448918894191e-14 -2.380294854449627184e-13 -9.391399198024549810e-14 1.611648097962770088e-13
7.130000000000000000e+03 5.942586517333984375e+01 7.380703449249267578e+00 -8.454442522584301734e-14 1.467704674159089895e-13 1.866781333464614945e-14 1.192026349589730971e-13
7.131000000000000000e+03 5.883864212036132812e+01 5.397592067718505859e+00 -5.706084205397282672e-14 -1.579170957411238363e-15 -1.759200356460204062e-14 2.024919132110475362e-13
7.132000000000000000e+03 4.735809326171875000e+01 1.318879795074462891e+01 6.720423778019610217e-15 -2.716255226384994836e-13 -7.947152457594627850e-14 1.521676935931776109e-13
7.133000000000000000e+03 4.004650497436523438e+01 1.135724449157714844e+01 -6.851503143046749900e-14 -2.078528220036696822e-14 -2.679009358103057181e-14 3.044261145794015244e-14
7.134000000000000000e+03 6.047754287719726562e+01 3.198881387710571289e+00 -1.558085393560740273e-13 -6.677509023153560541e-14 -6.677509023153560541e-14 7.719055971668054017e-14
7.135000000000000000e+03 6.017457199096679688e+01 7.323872566223144531e+00 -1.499206303805927787e-13 2.102539876144143838e-13 1.810000818658601823e-14 1.885853533880807453e-13
7.136000000000000000e+03 5.985069274902343750e+01 1.940880656242370605e+00 -1.873152918581769133e-13 9.128807464727634047e-14 -2.880816651852288746e-14 7.880850784241708040e-14
7.137000000000000000e+03 4.565431976318359375e+01 1.312320232391357422e+01 1.924689037365186726e-15 1.380777138676805849e-13 4.200072161266756032e-14 5.234433898696280729e-14
7.138000000000000000e+03 4.456477737426757812e+01 1.320342731475830078e+01 6.442446538268767342e-14 1.191123886806408350e-13 5.506105486374583691e-14 5.465733863229370326e-14
7.139000000000000000e+03 5.963970184326171875e+01 5.136276245117187500e+00 -1.265440931295241933e-13 1.745215571450492442e-13 1.439323784940479967e-14 8.487934205318736769e-14
7.140000000000000000e+03 5.987702560424804688e+01 9.154777526855468750e+00 -1.436254544115445064e-13 9.857455699141884353e-14 -1.351527041188382502e-14 1.201198157867872096e-13
7.141000000000000000e+03 3.941533279418945312e+01 8.543060302734375000e+00 -9.161700803388128644e-14 2.809922162571448778e-13 5.681255975647364620e-14 1.598732675108308077e-14
7.142000000000000000e+03 4.224475097656250000e+01 9.783654212951660156e+00 -2.638506546494973071e-13 6.992494826435838307e-14 -5.817771259316803500e-14 4.080047592640821674e-14
7.143000000000000000e+03 4.963780593872070312e+01 1.051668739318847656e+01 -8.291768828624576648e-14 5.596574703778563198e-14 -8.085582543944629802e-15 1.037418916505390698e-13
7.144000000000000000e+03 5.115863037109375000e+01 1.066633415222167969e+01 -5.320214958143797135e-14 9.157645209636675054e-14 1.151229075447863376e-14 2.460171111696562302e-14
7.145000000000000000e+03 4.641783905029296875e+01 1.242400836944580078e+01 -8.555661604528475017e-14 -3.666712116226489293e-14 -3.666712116226489293e-14 7.795283515910078620e-14
7.146000000000000000e+03 4.671740722656250000e+01 1.321377277374267578e+01 -9.351530373636826599e-14 1.429258051971124543e-13 1.482315111584961431e-14 1.492472188587348758e-13
7.147000000000000000e+03 4.446387100219726562e+01 -8.557351827621459961e-01 -2.722151456612149911e-14 1.370242217217307323e-13 3.294081316312230667e-14 3.770812126630863903e-14
7.148000000000000000e+03 4.240573883056640625e+01 9.182947278022766113e-01 -2.860109067984173414e-14 1.249952290109657138e-13 2.891824353221626731e-14 -2.122745372762444710e-14
7.149000000000000000e+03 6.017188644409179688e+01 1.083225345611572266e+01 -6.861940621835996290e-14 -7.515926628894747941e-14 -4.313360107456587489e-14 1.445023164710693142e-13
7.150000000000000000e+03 4.127599334716796875e+01 7.336021423339843750e+00 -6.172827565531545727e-15 8.885639890977153899e-14 2.480507186914011897e-14 -4.824397446204914397e-14
7.151000000000000000e+03 5.767819595336914062e+01 1.180257225036621094e+01 -1.014763427909133597e-13 -4.348985974404924459e-14 -4.348985974404924459e-14 2.188721345006486296e-13
7.152000000000000000e+03 5.926629638671875000e+01 -6.479430198669433594e+00 -1.485073050861221433e-13 -1.322724075452155756e-13 -8.423391649990674690e-14 -2.637392427118790544e-14
7.153000000000000000e+03 5.844458007812500000e+01 -7.456914901733398438e+00 -2.197425387809835706e-14 -6.558103466205479626e-15 -8.559707542104329908e-15 3.257856766476774357e-14
7.154000000000000000e+03 4.225158691406250000e+01 3.843422412872314453e+00 1.867807937396687157e-14 1.910086807688574084e-13 6.290602668759456839e-14 4.430139523455001171e-14
7.155000000000000000e+03 4.854449462890625000e+01 -8.434660911560058594e+00 -5.074015345255325493e-14 1.129694723895756803e-15 -1.488313798917416386e-14 1.370643643071670081e-14
7.156000000000000000e+03 4.583815002441406250e+01 -1.733065247535705566e+00 -7.751040613382734201e-14 2.641624169841955139e-13 5.599560325511045156e-14 2.372999901776012138e-14
7.157000000000000000e+03 4.326896667480468750e+01 -2.170610904693603516e+00 -7.209918697227007955e-14 1.063531925829704072e-13 1.027620117499032995e-14 -7.406834206299256484e-14
7.158000000000000000e+03 5.951634216308593750e+01 -1.682331919670104980e+00 -9.520118390447460111e-14 -1.265835309835483535e-13 -6.653541378878052859e-14 -4.687431879820715130e-14
7.159000000000000000e+03 5.685730361938476562e+01 -5.848761558532714844e+00 -8.339258916658515153e-14 -1.100849758030840453e-13 -5.804327152377983245e-14 4.262153238850097114e-14
7.160000000000000000e+03 4.145301437377929688e+01 1.089920330047607422e+01 -3.945297186820281854e-14 9.746895537855390645e-14 1.740479573073168418e-14 9.481051875667376172e-14
7.161000000000000000e+03 4.162265396118164062e+01 1.338211154937744141e+01 -3.626034205967548774e-14 3.021080225719917356e-14 -1.814861898391246890e-15 7.551033095239828574e-14
7.162000000000000000e+03 6.110335922241210938e+01 6.829195022583007812e+00 -1.848608207699956041e-13 1.952796241768209318e-13 3.125639455036645885e-15 1.481775212784381540e-14
7.163000000000000000e+03 6.027764129638671875e+01 -9.904339909553527832e-01 -1.397074730208336391e-13 1.231291679943194439e-13 -4.973493710239921400e-15 1.653364673902951720e-13
7.164000000000000000e+03 6.061231613159179688e+01 2.953942418098449707e-01 -9.104568769909004988e-14 -2.758184238188347848e-14 -3.558825868547887961e-14 1.649095763374061607e-13
7.165000000000000000e+03 4.447398376464843750e+01 -4.953028202056884766e+00 -1.182510307121825699e-13 1.094493080693557940e-13 -2.640515310540375062e-15 -2.627044733821953110e-14
7.166000000000000000e+03 4.679817581176757812e+01 -6.207444190979003906e+00 -4.824311726470652262e-14 7.082627263539989504e-14 6.774947288834369530e-15 -7.412663148229081678e-14
7.167000000000000000e+03 4.648479080200195312e+01 -3.902906417846679688e+00 -1.306055551252363611e-13 -5.597380740331170390e-14 -5.597380740331170390e-14 -9.584492894438786936e-14
7.168000000000000000e+03 4.789311599731445312e+01 -1.006429290771484375e+01 -4.012794531881545834e-14 -5.151090261257783298e-14 -2.749165370179162959e-14 -8.671289733344980655e-14
7.169000000000000000e+03 5.067381668090820312e+01 -1.432467269897460938e+01 4.257141006088014518e-15 7.045091506702183537e-14 2.241241555138353408e-14 -7.346083817476051908e-15
7.170000000000000000e+03 4.553542327880859375e+01 -3.964625358581542969e+00 -1.396570440672859070e-13 1.002753042818153861e-13 -1.181452142742138792e-14 -3.235501872932838863e-14
7.171000000000000000e+03 5.850635910034179688e+01 -5.742166996002197266e+00 -5.627761779270108733e-14 1.734281832998108702e-14 -1.168043950000282119e-14 7.415237450762376947e-14
7.172000000000000000e+03 4.594236755371093750e+01 -1.335852622985839844e+01 -2.052944098084649033e-14 1.742054580016610954e-13 4.610280730853004438e-14 -2.494825431854398590e-14
7.173000000000000000e+03 4.394174194335937500e+01 1.320716738700866699e-01 -1.296350586555902740e-13 2.189478118122881178e-13 2.679382391413027975e-14 -2.891938533262916611e-14
7.174000000000000000e+03 4.297114944458007812e+01 2.219581604003906250e+00 -6.625718040626643601e-14 2.003588131993180865e-13 4.023048712741006394e-14 -5.902553751622801811e-15
7.175000000000000000e+03 5.760315704345703125e+01 -8.484730720520019531e+00 -8.836043062596804498e-14 -8.326227484171597193e-14 -5.148681299555792068e-14 -1.901853071458858152e-14
7.176000000000000000e+03 5.672093582153320312e+01 -9.558344841003417969e+00 -2.018567096513743803e-14 -6.834169460814137897e-14 -2.655820984139023455e-14 4.460234604070946463e-14
7.177000000000000000e+03 5.302568054199218750e+01 -1.522762870788574219e+01 5.684940230154741925e-14 9.299045501719518936e-14 4.495195719562278258e-14 2.578418435792567687e-14
7.178000000000000000e+03 4.309960174560546875e+01 1.253698825836181641e+01 -1.654037421350978976e-13 -1.623892128621920450e-13 -9.833788243342883595e-14 4.362728575754357130e-14
7.179000000000000000e+03 4.916233062744140625e+01 1.133664798736572266e+01 -1.230663655834782211e-13 3.161058180077731816e-14 -2.743673716768934429e-14 5.943410639943497165e-14
7.180000000000000000e+03 4.852242660522460938e+01 1.196583652496337891e+01 -1.507292419133596240e-14 1.021986789358046710e-13 2.613772574571425478e-14 1.753939062130310811e-13
7.181000000000000000e+03 5.864842987060546875e+01 7.630355358123779297e+00 -1.064915706614974478e-13 4.586265313919271613e-14 -1.818867559550459839e-14 1.952836086198048160e-13
7.182000000000000000e+03 5.666455078125000000e+01 1.119492053985595703e+01 -9.877293888392937871e-14 -2.517465436688379882e-14 -3.718427882227690051e-14 1.081082245208905834e-13
7.183000000000000000e+03 5.185246658325195312e+01 9.897838592529296875e+00 -1.276058523170392478e-13 -1.461901210980318111e-13 -8.213879066926860206e-14 -6.261921455539068426e-14
7.184000000000000000e+03 4.056029129028320312e+01 1.054909706115722656e+01 -5.878302266606669213e-14 -1.624455778226341351e-13 -6.636858217948932159e-14 -5.019876048585440731e-14
7.185000000000000000e+03 4.129336929321289062e+01 1.263922023773193359e+01 -2.937790798390044200e-14 -1.498433809758031865e-13 -5.376638533265837294e-14 2.378089045129705426e-13
7.186000000000000000e+03 5.452585601806640625e+01 1.063180255889892578e+01 -2.511481487729207152e-14 -5.651444142848981167e-14 -2.448877621410820715e-14 1.422815858187487237e-13
7.187000000000000000e+03 5.390176010131835938e+01 1.119512748718261719e+01 -1.178229876944852927e-13 2.240101279384759669e-13 3.185614342844991786e-14 1.045556260385709091e-13
7.188000000000000000e+03 5.344599533081054688e+01 1.058393383026123047e+01 -6.073568433124024168e-14 8.283632399539841290e-15 -1.573561566421341484e-14 1.420660735319129175e-13
7.189000000000000000e+03 5.036790084838867188e+01 1.076131534576416016e+01 -9.025150283148083985e-14 5.282268220919983381e-14 -1.122864483143158620e-14 8.238133177745129293e-15
7.190000000000000000e+03 4.135335540771484375e+01 9.365831375122070312e+00 -1.499294395232442234e-13 2.724642580510024809e-14 -3.680490292959706644e-14 -5.826898886356415841e-14
7.191000000000000000e+03 5.916978073120117188e+01 6.387536525726318359e+00 -1.622303907964500747e-13 6.772553573725428877e-14 -2.835145482369284126e-14 1.182166886083690915e-13
7.192000000000000000e+03 5.764701843261718750e+01 4.894536495208740234e+00 -3.005330156285491994e-14 3.287096343815992805e-14 8.452980120200867184e-16 1.761276535857878023e-13
7.193000000000000000e+03 4.263966751098632812e+01 1.180963897705078125e+01 5.547012773155640675e-14 2.377291140093391875e-14 2.377291140093391875e-14 8.512872210538618978e-14
7.194000000000000000e+03 5.888997650146484375e+01 1.061776828765869141e+01 -8.404547538606518819e-14 -7.033270314890302521e-14 -4.631345084998503281e-14 2.223314712673438165e-13
7.195000000000000000e+03 5.837296676635742188e+01 6.704113483428955078e+00 -1.081709862741503381e-13 -4.635899411749300203e-14 -4.635899411749300203e-14 2.101649204059446996e-13
7.196000000000000000e+03 5.948344421386718750e+01 1.083905220031738281e+01 -1.227304119878064315e-13 -2.972327719781391042e-14 -4.573610641687292366e-14 1.863155219298737175e-13
7.197000000000000000e+03 5.300275039672851562e+01 1.011716461181640625e+01 -1.277703528916596110e-13 -9.007776959773540482e-15 -4.103344048008925049e-14 1.064470235047354496e-13
7.198000000000000000e+03 5.209060287475585938e+01 1.129484844207763672e+01 -1.252627830020808242e-13 6.069331913135037060e-14 -1.937083882240595717e-14 7.886629581821055779e-14
7.199000000000000000e+03 4.336637115478515625e+01 1.148758029937744141e+01 -1.294888946502120719e-13 -5.549524056437660224e-14 -5.549524056437660224e-14 6.344411622579912424e-14
7.200000000000000000e+03 5.896166229248046875e+01 1.481038570404052734e+00 -9.452449267104492958e-14 -1.434501253677264443e-13 -7.139238879976320118e-14 1.001177222723081961e-13
7.201000000000000000e+03 4.538688659667968750e+01 -5.975461602210998535e-01 -1.335694386041599846e-13 8.000880096252147022e-14 -1.606819298655744882e-14 8.985554203369376658e-15
7.202000000000000000e+03 5.936267089843750000e+01 5.531665086746215820e-01 -1.108182420611267260e-13 4.400836588051328102e-14 -2.004296454824992801e-14 8.320112583918778948e-14
7.203000000000000000e+03 5.979206848144531250e+01 -2.684927582740783691e-01 -1.114044701757896383e-13 -8.205798372610054181e-14 -5.803873820344612744e-14 5.279864002602496775e-14
7.204000000000000000e+03 5.860622406005859375e+01 -4.064891338348388672e+00 -1.118677768691470065e-13 7.358262626598263689e-14 -1.148554653620202648e-14 1.045819450463079947e-13
7.205000000000000000e+03 4.182195281982421875e+01 5.479942798614501953e+00 -3.100921974844581333e-15 9.017293205529353095e-14 2.612160332059621642e-14 6.345962031686566696e-14
7.206000000000000000e+03 5.764157104492187500e+01 -6.684763908386230469e+00 -1.366414305922075689e-13 -1.729379850044440725e-13 -9.287382196849006122e-14 -5.832864962920401505e-15
7.207000000000000000e+03 4.174969863891601562e+01 1.009489154815673828e+01 -4.018190809381913531e-14 2.853013303578434690e-14 -3.495532602113731249e-15 -3.445619576334171819e-14
7.208000000000000000e+03 4.255691528320312500e+01 3.059404373168945312e+00 -1.024852810038376361e-13 1.828686111365147512e-15 -3.019697867949998338e-14 4.122589653010079458e-14
7.209000000000000000e+03 4.145197677612304688e+01 3.558344841003417969e+00 -1.187067750953868517e-13 2.922577815606813845e-13 5.206529922908292862e-14 -1.043140657945411387e-13
7.210000000000000000e+03 5.833258819580078125e+01 1.211897850036621094e+01 -1.752699141420802076e-13 -2.581194806505759942e-13 -1.300168197930495761e-13 2.602416166678361842e-13
7.211000000000000000e+03 5.713959884643554688e+01 1.053323936462402344e+01 -1.288696661319241321e-13 -9.478906002398802128e-15 -4.150457036974745939e-14 2.208688012214979346e-13
7.212000000000000000e+03 5.963178634643554688e+01 8.310324668884277344e+00 -1.119661478875093319e-13 6.639187897367060387e-14 -1.367228067415161841e-14 2.759510556258476521e-13
7.213000000000000000e+03 5.295040512084960938e+01 -9.326179504394531250e+00 -1.005837055897788879e-13 3.695685725220269890e-14 -1.908805517889921449e-14 1.516357704548290664e-14
7.214000000000000000e+03 4.555976486206054688e+01 -5.082957267761230469e+00 -7.722452234973364860e-14 3.553019965914228084e-14 -1.250829562133128417e-14 -8.142955981813720934e-14
7.215000000000000000e+03 4.663764190673828125e+01 -5.035908222198486328e+00 -1.051835959368745133e-13 1.150496391948488406e-13 2.959813062095592931e-15 -6.839414288823536525e-14
7.216000000000000000e+03 4.054467773437500000e+01 1.207420253753662109e+01 2.508019664073778826e-14 -3.500229484509551070e-14 -2.976628995439195742e-15 1.144012185330667286e-13
7.217000000000000000e+03 4.546181869506835938e+01 -2.986827611923217773e+00 -1.120968416831388814e-13 2.058492163889164700e-14 -2.745357448861486527e-14 -5.271869705646310689e-14
7.218000000000000000e+03 4.676907730102539062e+01 -1.497636675834655762e+00 -1.064450177307163514e-13 1.030712922780660512e-13 -1.012117868729150560e-15 -7.636213438921152230e-14
7.219000000000000000e+03 4.729450988769531250e+01 1.183377647399902344e+01 -5.884276220577064342e-14 2.149741566400201198e-13 4.683941765264848511e-14 1.527586108822365230e-13
7.220000000000000000e+03 4.806285095214843750e+01 1.141516876220703125e+01 -7.085123639042137378e-14 6.113708308054868756e-14 -2.914245230632153336e-15 8.457692418596327033e-14
7.221000000000000000e+03 4.790378189086914062e+01 -6.055748939514160156e+00 -1.314750852675697357e-13 3.515542823756372115e-14 -2.889589880306769887e-14 -1.235248475771680288e-15
7.222000000000000000e+03 4.708335113525390625e+01 -7.420421600341796875e+00 -9.218712897001921092e-14 2.911765202865887470e-14 -1.892084409884763757e-14 -4.185139309219841619e-14
7.223000000000000000e+03 4.156277084350585938e+01 6.376430511474609375e+00 -7.211317995655872060e-14 2.207245752275030504e-13 4.458341654840422552e-14 -5.358193628509722375e-15
7.224000000000000000e+03 5.870353317260742188e+01 -2.429229259490966797e+00 -1.237791336441973478e-13 1.413933396364128181e-13 5.284260357708630770e-15 9.342162189240194037e-14
7.225000000000000000e+03 5.675151062011718750e+01 -7.652349948883056641e+00 -3.795785876641120243e-15 -2.450224064983776151e-14 -8.489408042646959252e-15 6.942408751825154822e-14
7.226000000000000000e+03 4.496624755859375000e+01 6.392553448677062988e-01 -5.462790593144251083e-14 1.824673089489622924e-13 3.835182226050865006e-14 2.046792097788741049e-14
7.227000000000000000e+03 4.958644104003906250e+01 -8.078993797302246094e+00 -2.184564886571673664e-14 5.926400185483557403e-14 1.122550572732906177e-14 -1.991286536974935101e-14
7.228000000000000000e+03 5.258687973022460938e+01 -1.136999797821044922e+01 -1.253070184507182327e-13 1.492341271175021133e-14 -3.311508510982219544e-14 -8.460676007449735581e-14
7.229000000000000000e+03 5.134643554687500000e+01 -1.210581302642822266e+01 -8.075355976359249732e-14 4.545549117771115200e-14 -1.058942040635781415e-14 8.339982960421828129e-15
7.230000000000000000e+03 4.798426818847656250e+01 -1.885715293884277344e+01 4.252626151072559646e-14 1.326029130249706256e-13 5.253875337714840332e-14 -2.171506349030443567e-14
7.231000000000000000e+03 4.133919143676757812e+01 1.189754772186279297e+01 -9.106613846256855771e-14 -8.477929729772126777e-14 -5.275362869520787423e-14 -2.414277850174787604e-14
7.232000000000000000e+03 5.849288940429687500e+01 4.348771095275878906e+00 -1.246774222491559003e-13 1.066951431719087573e-13 -5.394682113811543125e-15 1.260041604476264121e-13
7.233000000000000000e+03 5.848942184448242188e+01 2.407547319307923317e-03 -9.386052726061480667e-14 -1.317278398990304189e-13 -6.767650947026720987e-14 2.830990277543233430e-14
7.234000000000000000e+03 5.597692871093750000e+01 1.079413986206054688e+01 -4.132124872303910568e-14 2.804184225861476587e-14 -3.983822532250365020e-15 7.941716538952328652e-14
7.235000000000000000e+03 5.405216598510742188e+01 9.979829788208007812e+00 -1.522663559908737918e-13 1.177467818342867178e-13 -1.035587139994317493e-14 1.262115005605871088e-13
7.236000000000000000e+03 5.653836059570312500e+01 9.263811111450195312e+00 -9.584555236063704853e-14 5.042523337902768410e-14 -1.362609535566963043e-14 1.972281794262661925e-13
7.237000000000000000e+03 4.314751815795898438e+01 1.079540634155273438e+01 7.962105469025686916e-15 4.916327964849497023e-14 1.713761612817926022e-14 9.448989306921548592e-14
7.238000000000000000e+03 4.582304000854492188e+01 1.173222732543945312e+01 -5.474852681126331222e-14 -9.166482982001736973e-15 -1.917450336149598838e-14 6.121345834733671332e-14
7.239000000000000000e+03 4.325291061401367188e+01 3.422370672225952148e+00 -8.902335249180715060e-14 7.598082895547784293e-15 -2.442758147180087297e-14 -3.433868815311854998e-15
7.240000000000000000e+03 5.110542297363281250e+01 9.824620246887207031e+00 -1.071495051973431201e-13 -9.167216681940648648e-14 -5.964650160502488196e-14 4.330390551894082452e-14
7.241000000000000000e+03 5.196645736694335938e+01 9.265294075012207031e+00 -9.761354729078200454e-14 -1.104608009336489893e-13 -6.242230311207658255e-14 3.137102733076664596e-14
7.242000000000000000e+03 5.522208023071289062e+01 1.049017429351806641e+01 -1.499112655843279351e-13 2.725421342601730412e-14 -3.679711361461411590e-14 4.718191034267307793e-14
7.243000000000000000e+03 5.950734710693359375e+01 2.961632728576660156e+00 -1.294027276825537864e-13 -5.545831331600810377e-14 -5.545831331600810377e-14 3.792783144843103749e-14
7.244000000000000000e+03 4.208301925659179688e+01 1.230297851562500000e+01 -1.076769560017301619e-13 4.535462988248389893e-14 -1.869669885221341560e-14 1.427185463993146941e-13
7.245000000000000000e+03 4.177300262451171875e+01 1.285523033142089844e+01 2.040212515261059095e-14 -1.513845472589370189e-13 -3.929472917299677015e-14 -5.411035524814297726e-14
7.246000000000000000e+03 4.855387115478515625e+01 1.089741039276123047e+01 -6.647149329444893007e-14 1.726316673975308164e-14 -1.476249847462852288e-14 1.994925356635021685e-13
7.247000000000000000e+03 5.888611221313476562e+01 8.530784606933593750e+00 -6.630094151645338219e-14 1.545891100676252683e-13 2.648644921009885023e-14 1.047314090920486995e-13
7.248000000000000000e+03 5.025755310058593750e+01 9.902242660522460938e+00 -1.242822712148664022e-13 -5.326382713252524048e-14 -5.326382713252524048e-14 4.895790804010369257e-14
7.249000000000000000e+03 4.208620452880859375e+01 8.350543975830078125e+00 -5.023304499142747237e-14 -4.440392010248567223e-14 -2.839108918936076448e-14 -2.798641919881002249e-14
7.250000000000000000e+03 4.554937744140625000e+01 1.040678024291992188e+01 -3.256413422334653029e-14 -1.512089065069943672e-13 -5.513191086384955364e-14 6.320746199659985076e-14
7.251000000000000000e+03 4.714973068237304688e+01 -2.625439405441284180e+00 -1.133980096509976804e-14 2.582080328630137478e-13 7.406047482097846690e-14 -5.828952094220560265e-14
7.252000000000000000e+03 5.804201126098632812e+01 5.785000324249267578e+00 -8.987530500641910391e-14 5.298390984851200636e-14 -1.106741803915236091e-14 1.339704443301809045e-13
7.253000000000000000e+03 4.511955261230468750e+01 1.123953342437744141e+01 -4.141439524218276658e-14 -1.550018793872176559e-13 -5.892488374407284235e-14 -7.718467114363122827e-14
7.254000000000000000e+03 4.713612365722656250e+01 1.087979793548583984e+01 -1.742533390801034865e-13 1.682189645555148133e-14 -4.722943227914583320e-14 3.038342418371781095e-13
7.255000000000000000e+03 5.789585494995117188e+01 1.102470684051513672e+01 -1.541045665642143403e-13 -2.147354017691116557e-13 -1.106519864342396520e-13 1.922312000334977511e-13
7.256000000000000000e+03 5.632888031005859375e+01 1.004973983764648438e+01 -1.415067336311276458e-13 -6.064574298476899106e-14 -6.064574298476899106e-14 1.229723381500694157e-13
7.257000000000000000e+03 5.337259292602539062e+01 9.512148857116699219e+00 -1.533070952087697836e-13 -1.572049375441267327e-13 -9.315360711536352367e-14 1.206752661122786896e-13
7.258000000000000000e+03 5.253082656860351562e+01 1.044950103759765625e+01 -6.991676253795611751e-14 1.301640002379644834e-13 1.807417029356297306e-14 9.903537001977949505e-14
7.259000000000000000e+03 4.231919479370117188e+01 1.032031631469726562e+01 6.392693855826123150e-14 1.646500996524760674e-13 6.857311078559483186e-14 1.253398833290716996e-13
7.260000000000000000e+03 5.680388641357421875e+01 7.450207710266113281e+00 -5.786189127658658560e-14 6.670394624022982222e-14 2.652615176191902742e-15 2.015782966978754698e-13
7.261000000000000000e+03 5.715570068359375000e+01 4.104814529418945312e+00 -8.020281216502417321e-14 1.143179518062198419e-13 1.023454155354552170e-14 1.810415288820352298e-13
7.262000000000000000e+03 5.151210784912109375e+01 -6.958118915557861328e+00 -3.023760576778208864e-14 5.852687990281699171e-14 8.486783087543418175e-15 -3.908995726393214853e-14
7.263000000000000000e+03 4.850867080688476562e+01 -3.595842123031616211e+00 -3.182896722337021089e-14 1.121741249692463638e-13 2.410354562969695136e-14 -4.777237701020405070e-14
7.264000000000000000e+03 4.290246200561523438e+01 4.819142341613769531e+00 -8.215445400252922858e-15 1.337319469572884056e-13 3.765494792601180307e-14 3.878560477345652235e-14
7.265000000000000000e+03 4.271609497070312500e+01 5.687435626983642578e+00 -6.227830751104335150e-14 2.478149792577849508e-13 5.566100491215426882e-14 5.330666857668970530e-16
7.266000000000000000e+03 5.582035446166992188e+01 -8.630760192871093750e+00 -1.150759582025859262e-13 -9.506921617129238111e-14 -6.304355095691077659e-14 -2.523696041641793064e-14
7.267000000000000000e+03 5.895061874389648438e+01 -8.889019489288330078e-01 -1.117093139453746720e-13 8.937742581628660421e-14 -6.699567285759367580e-15 3.197007613611919929e-14
7.268000000000000000e+03 4.440616226196289062e+01 1.797762632369995117e+00 -1.116164926868827567e-13 1.580436356871800507e-13 1.392814137542988315e-14 -6.398755901223032727e-14
7.269000000000000000e+03 5.910778808593750000e+01 9.400895118713378906e+00 -1.872195398656874982e-14 6.060272726357562867e-14 1.256423283013501091e-14 2.789140175329246629e-13
7.270000000000000000e+03 4.707280349731445312e+01 -1.173011684417724609e+01 -3.165515436852773395e-15 1.587716774460040670e-13 4.668184580753666213e-14 -6.349141454557380437e-14
7.271000000000000000e+03 4.900519180297851562e+01 -9.751329421997070312e+00 -9.661723325690360631e-14 1.530341473118465578e-13 1.692507523292242216e-14 1.417472028967213526e-14
7.272000000000000000e+03 5.011137771606445312e+01 -9.329927444458007812e+00 -2.632559426528346957e-14 8.021950210221687194e-14 1.616817167345366291e-14 -1.221627550705120697e-15
7.273000000000000000e+03 4.760000228881835938e+01 -1.501588249206542969e+01 4.666490176045978711e-14 1.343766135690482866e-13 5.431245392122606430e-14 -4.901792540661434328e-14
7.274000000000000000e+03 5.466210556030273438e+01 -1.170489597320556641e+01 1.582447280851217997e-15 -2.219728273530809787e-14 -6.184450551633769236e-15 -2.612467805019474953e-14
7.275000000000000000e+03 5.375187683105468750e+01 -1.051827335357666016e+01 2.219275449717207638e-14 -1.926556956772119272e-15 6.079858923306808230e-15 7.201667241068035463e-14
7.276000000000000000e+03 5.608922576904296875e+01 -4.961621761322021484e+00 -4.964925971978444152e-14 -1.841881952947127532e-14 -2.042042445240307286e-14 -3.907820806992078413e-15
7.277000000000000000e+03 5.785354614257812500e+01 -3.242509126663208008e+00 -1.153248910213885980e-13 -6.944099429587874406e-14 -5.542976152942205581e-14 8.241810147769160211e-14
7.278000000000000000e+03 5.438138961791992188e+01 -1.399745082855224609e+01 -6.435090565341632096e-15 2.059808080394701091e-13 5.986371473401877474e-14 -1.001915378055296194e-14
7.279000000000000000e+03 5.005368804931640625e+01 -1.267636299133300781e+01 -7.322742808174922957e-14 6.011871230872378735e-14 -3.932613037841738157e-15 -5.616465747885525384e-14
7.280000000000000000e+03 5.774296188354492188e+01 -4.947248935699462891e+00 -1.055452654528249434e-13 -2.235821221902283690e-14 -3.837104313214774465e-14 4.321194823405510865e-14
7.281000000000000000e+03 4.805683135986328125e+01 -2.101563262939453125e+01 2.377181025810248816e-14 6.737660559683056327e-14 2.734452407885355762e-14 -2.581018996347227840e-14
7.282000000000000000e+03 5.019164657592773438e+01 -2.086401557922363281e+01 1.849197607105973473e-14 9.942703127832630550e-14 3.537570084956309646e-14 -8.683299982910688830e-14
7.283000000000000000e+03 4.782859420776367188e+01 -1.686191368103027344e+01 3.061406109085978988e-14 1.846863726404426864e-13 6.459013147464345850e-14 -2.656003265629272581e-14
7.284000000000000000e+03 4.734181594848632812e+01 -1.330498600006103516e+01 -2.967516233827807715e-14 1.474103906431642463e-13 3.532056916909220856e-14 -5.666287209403486624e-14
7.285000000000000000e+03 5.767053222656250000e+01 9.871285438537597656e+00 -1.056304227572101018e-13 -4.527018069764264518e-14 -4.527018069764264518e-14 2.259889324285335732e-13
7.286000000000000000e+03 5.786875534057617188e+01 7.927095413208007812e+00 -1.014514603510548174e-13 9.377364878528082759e-14 -2.303343469732196946e-15 1.812313862349645976e-13
7.287000000000000000e+03 5.862405395507812500e+01 1.135556602478027344e+01 -1.365733698008297914e-13 7.872140575038502619e-14 -1.735558819869389285e-14 2.250694476711029290e-13
7.288000000000000000e+03 4.284671783447265625e+01 9.136429786682128906e+00 -9.013310117798184473e-14 5.287342625900394444e-14 -1.117790162866042283e-14 4.829815407748731804e-14
7.289000000000000000e+03 4.220883560180664062e+01 7.485806941986083984e+00 -7.125497972692781956e-14 2.210923772619916017e-13 4.495121858289277683e-14 2.142286084042422517e-14
7.290000000000000000e+03 4.888793945312500000e+01 1.011214447021484375e+01 -9.810145182092763760e-14 -4.204347983584495740e-14 -4.204347983584495740e-14 7.418364696403639824e-14
7.291000000000000000e+03 5.835063171386718750e+01 9.579861640930175781e+00 -1.161132144210028083e-13 -2.688733465744126000e-14 -4.290016557056616775e-14 1.613886297822594851e-13
7.292000000000000000e+03 4.996345138549804688e+01 8.979755401611328125e+00 -4.331174226776882130e-14 -4.143765137878258065e-14 -2.542481707752588388e-14 5.518178416378388684e-14
7.293000000000000000e+03 5.195618057250976562e+01 8.677844047546386719e+00 -5.550471716899048336e-14 -1.152896273457285070e-13 -5.123830708136066503e-14 2.379392628835529794e-15
7.294000000000000000e+03 5.733317947387695312e+01 9.102999687194824219e+00 -1.369256812967789561e-13 7.857041026907568559e-14 -1.750658029187144443e-14 9.273265206936887051e-14
7.295000000000000000e+03 4.792017745971679688e+01 1.076624202728271484e+01 -1.580057462093834714e-14 3.897927377464853460e-14 6.953609830816350965e-15 4.380926909219526322e-14
7.296000000000000000e+03 5.766022872924804688e+01 1.900344967842102051e+00 -3.043605203479661514e-14 -2.646742417247716084e-13 -8.853308982193636156e-14 7.912266897442191138e-14
7.297000000000000000e+03 5.791477203369140625e+01 3.418776750564575195e+00 -7.096324125110270442e-14 1.140640994200595171e-14 -1.786704871510266801e-14 1.380471800239979618e-13
7.298000000000000000e+03 5.803085327148437500e+01 -1.556179285049438477e+00 -6.104187657727730421e-14 -3.285328882516604619e-15 -1.929816170146564369e-14 5.426525046914147665e-14
7.299000000000000000e+03 5.725198364257812500e+01 6.227797031402587891e+00 -9.710207491591196782e-14 -4.161517593199992593e-14 -4.161517593199992593e-14 1.875715972517524865e-13
7.300000000000000000e+03 5.584090042114257812e+01 8.994337081909179688e+00 -9.392841186913955531e-14 -1.317569371748344986e-13 -6.770560674607128959e-14 -4.698504972133581148e-14
7.301000000000000000e+03 4.629915618896484375e+01 1.078727817535400391e+01 -5.231742027989906563e-14 4.620467149076684654e-14 -1.833823789706718471e-15 -3.439341706942301846e-14
7.302000000000000000e+03 5.853398895263671875e+01 2.510285139083862305e+00 -2.143858685412294851e-13 9.112413650253295416e-14 -3.697851757872988587e-14 1.187348694841813823e-13
7.303000000000000000e+03 5.809035110473632812e+01 9.570420384407043457e-01 -1.473570343437508035e-13 2.834888492573087171e-14 -3.570244211490054831e-14 6.055626920048462480e-14
7.304000000000000000e+03 4.293651199340820312e+01 8.427026748657226562e+00 -1.036997703961380080e-13 2.071874572948106952e-13 3.104630878010723738e-14 8.965691280756263315e-14
7.305000000000000000e+03 4.527933120727539062e+01 9.137840270996093750e+00 -1.371227502882212471e-14 -5.162763730523663164e-14 -1.960197378492092163e-14 8.685881061707562134e-14
7.306000000000000000e+03 5.710250854492187500e+01 8.246969223022460938e+00 -1.190682752047478310e-13 8.622358334047994233e-14 -9.853407220467187699e-15 1.577159491330734631e-13
7.307000000000000000e+03 5.544160461425781250e+01 9.707278251647949219e+00 -1.939976093179654471e-13 -8.314183353287998846e-14 -8.314183353287998846e-14 1.214043378631665671e-13
7.308000000000000000e+03 5.574274826049804688e+01 5.251579284667968750e+00 -1.095596120878790380e-13 2.218327111629461723e-13 3.368192972252014028e-14 1.317702322039746021e-13
7.309000000000000000e+03 4.654621505737304688e+01 9.860561370849609375e+00 -1.082882020815231772e-13 -3.209149254928406192e-13 -1.287609342065509921e-13 6.117904848088745462e-14
7.310000000000000000e+03 4.244698715209960938e+01 6.592259883880615234e+00 -7.553553865290857372e-14 -3.237237612848352375e-14 -3.237237612848352375e-14 4.673219683405324676e-14
7.311000000000000000e+03 5.056772613525390625e+01 -7.575995922088623047e+00 -9.688051820196455499e-14 7.285714593479111767e-14 -7.207011171932262844e-15 -5.656500251917731537e-14
7.312000000000000000e+03 5.460772705078125000e+01 9.173816680908203125e+00 -1.653055947334336473e-13 -1.165961993837907884e-13 -8.457054094567276192e-14 9.984010552977970465e-14
7.313000000000000000e+03 4.950588989257812500e+01 -1.116167354583740234e+01 -1.749273977351330916e-14 6.112953432292275724e-14 1.309103904244919223e-14 -2.623101117826126538e-14
7.314000000000000000e+03 5.069366836547851562e+01 -1.067640495300292969e+01 -1.030642381876813174e-13 8.164471973926695769e-14 -6.425855788634192087e-15 -5.903528940654975687e-14
7.315000000000000000e+03 4.774113845825195312e+01 -1.313848614692687988e+00 -8.643155364595339618e-14 8.877301698644382566e-14 7.024394997789853556e-16 3.618586075855752260e-14
7.316000000000000000e+03 4.603662490844726562e+01 8.703831434249877930e-01 -1.051958880790050677e-13 1.036066306532579251e-13 -4.767768465593165070e-16 -3.151169578638306212e-14
7.317000000000000000e+03 4.288489913940429688e+01 1.022382545471191406e+01 -1.972801262628554042e-13 6.953270170604501990e-15 -5.709805729354339165e-14 1.961725595335528372e-14
7.318000000000000000e+03 4.377765655517578125e+01 2.727411031723022461e+00 -1.227459702889815985e-13 3.889648477438389929e-14 -2.515484396031341524e-14 -1.508517059368736507e-14
7.319000000000000000e+03 5.594229888916015625e+01 -6.754358768463134766e+00 -8.060682655207374037e-14 -3.454578135597512201e-14 -3.454578135597512201e-14 -2.691017574789691946e-14
7.320000000000000000e+03 5.482791900634765625e+01 -9.595930099487304688e+00 -3.966906352557454662e-14 -6.275197511141153428e-14 -3.072630989702992976e-14 3.094748375208518365e-14
7.321000000000000000e+03 5.322429656982421875e+01 -7.408862590789794922e+00 -3.052848365813279341e-14 3.266731300071747113e-14 6.416489510061690847e-16 -1.380979986127014308e-14
7.322000000000000000e+03 4.899531555175781250e+01 -5.966599464416503906e+00 -1.087317220852326849e-13 9.065353854956562096e-14 -5.423455399513298081e-15 8.595861449391985210e-15
7.323000000000000000e+03 5.533853912353515625e+01 -4.030717849731445312e+00 -4.753041019035959824e-14 -1.118720730202554803e-13 -4.782074597962406026e-14 1.144885781231147481e-13
7.324000000000000000e+03 4.602865982055664062e+01 -1.506051826477050781e+01 1.675549076655263869e-14 1.901847142228227372e-13 6.208206014155989716e-14 -2.147791798199575469e-14
7.325000000000000000e+03 5.698347854614257812e+01 -4.103326320648193359e+00 -9.817019701492679662e-14 -6.494841963506844951e-14 -4.893558363974585823e-14 9.452050822806104535e-14
7.326000000000000000e+03 5.343088531494140625e+01 -1.270512485504150391e+01 -2.429738234341251996e-14 8.108873408895281298e-14 1.703740535425549846e-14 3.810088705581866908e-14
7.327000000000000000e+03 4.810502624511718750e+01 -2.450709819793701172e+00 -8.858845189536890263e-14 -3.653269195133795194e-15 -2.767251725888705133e-14 2.296535357715345782e-14
7.328000000000000000e+03 4.747705078125000000e+01 -3.768979310989379883e+00 -1.213884271962853423e-13 -2.914813843849645147e-14 -4.516096765755546472e-14 7.599700897883629458e-14
7.329000000000000000e+03 4.829914474487304688e+01 -1.151370525360107422e+01 -6.199932196327209710e-14 1.564326603366653079e-13 2.833000117320478434e-14 -2.955412810637901566e-14
7.330000000000000000e+03 5.758227157592773438e+01 7.064030647277832031e+00 -2.429340637075810827e-14 8.109043493111089962e-14 1.703910958454537411e-14 1.275174220773458988e-13
7.331000000000000000e+03 4.440823364257812500e+01 1.079639053344726562e+01 -1.230425266882106961e-13 -1.899853565483569651e-13 -9.390836090521215151e-14 4.812456992154059976e-14
7.332000000000000000e+03 4.279835891723632812e+01 9.724835395812988281e+00 -1.879027058189659816e-14 3.122036591925170246e-13 8.802401624437294902e-14 9.051657671012638962e-14
7.333000000000000000e+03 4.234936904907226562e+01 1.100856876373291016e+01 -1.717147610083916143e-13 1.790985776025690035e-14 -4.614146928037451967e-14 4.540800651068807592e-14
7.334000000000000000e+03 5.724347686767578125e+01 4.929934144020080566e-01 -1.490023382455518686e-13 -6.385814593041702625e-14 -6.385814593041702625e-14 8.846444627189087306e-14
7.335000000000000000e+03 4.329322052001953125e+01 9.890896797180175781e+00 3.670486156226275554e-14 1.529835015178643287e-13 5.690650587471951516e-14 1.164194744296756512e-13
7.336000000000000000e+03 5.276504898071289062e+01 8.542425155639648438e+00 -2.767587997968765090e-14 3.388985598228033691e-14 1.864193097239337342e-15 6.920759267319692709e-14
7.337000000000000000e+03 4.308422851562500000e+01 7.637880802154541016e+00 8.036310637402847151e-15 1.406969836860796907e-13 4.461998804293487719e-14 8.197811021324035580e-15
7.338000000000000000e+03 4.569770050048828125e+01 6.659540176391601562e+00 -4.173444155910512043e-14 7.361570798477060085e-14 9.564379250073286320e-15 -9.916291962910883662e-14
7.339000000000000000e+03 5.686696624755859375e+01 5.429695129394531250e+00 -1.333340989700948498e-13 3.435871582363990429e-14 -2.969261460512330475e-14 1.725697899466679952e-13
7.340000000000000000e+03 5.638837814331054688e+01 4.679740905761718750e+00 -2.546888989583741963e-14 8.630552869592911236e-14 1.825099180943409727e-14 1.371927067393349797e-13
7.341000000000000000e+03 5.623582077026367188e+01 -3.237198114395141602e+00 -1.311397415356199692e-13 -3.332727025124118669e-14 -4.934010285843198895e-14 1.170428686559981876e-14
7.342000000000000000e+03 4.366200256347656250e+01 5.856648445129394531e+00 2.562870468419357201e-14 1.596743164121797176e-13 5.559090446543950292e-14 -3.401925551156648186e-14
7.343000000000000000e+03 4.703595352172851562e+01 1.914702892303466797e+00 -9.734253062897851860e-14 1.184100967234133495e-13 6.320270167143628159e-15 -5.680647805991236032e-14
7.344000000000000000e+03 4.603936004638671875e+01 3.023722410202026367e+00 -7.342881863528841202e-14 -8.594020846797601615e-15 -2.460685260695545662e-14 -7.313790008735623904e-14
7.345000000000000000e+03 5.755901718139648438e+01 -5.389828085899353027e-01 -1.261061432144758299e-13 1.747092460936336411e-13 1.458093188018688008e-14 1.223834401875567579e-13
7.346000000000000000e+03 5.711053466796875000e+01 -2.367182016372680664e+00 -9.053899936630610545e-14 2.982399619150602477e-14 -1.821449993600048750e-14 6.276771637170330820e-14
7.347000000000000000e+03 5.811856460571289062e+01 8.781830787658691406e+00 -9.519826333487246828e-14 5.070264005738525648e-14 -1.334868698324616354e-14 2.436849279221359188e-13
7.348000000000000000e+03 5.134669113159179688e+01 9.084702491760253906e+00 -6.975504700766632649e-14 -6.992710311617619801e-14 -4.190464435952639954e-14 -7.634040291191676597e-15
7.349000000000000000e+03 5.371539306640625000e+01 8.667606353759765625e+00 -1.031773136980079775e-13 -4.421884679164239662e-14 -4.421884679164239662e-14 7.118058990536815789e-14
7.350000000000000000e+03 5.498982620239257812e+01 -7.647683143615722656e+00 3.496832543577882424e-14 1.498642518676235325e-14 1.498642518676235325e-14 4.617823728654893434e-14
7.351000000000000000e+03 5.714585494995117188e+01 2.747311115264892578e+00 -1.020158485682057248e-13 9.353177005686288958e-14 -2.545223468699555833e-15 2.221295962109588046e-14
7.352000000000000000e+03 4.727903747558593750e+01 9.904780387878417969e+00 4.737878112840571143e-14 2.030519239619270333e-14 2.030519239619270333e-14 8.564959315783896021e-14
7.353000000000000000e+03 4.806517410278320312e+01 9.961866378784179688e+00 -1.494319126988177815e-13 -4.116677363038244442e-14 -5.717960962570503569e-14 1.971353988253557454e-13
7.354000000000000000e+03 4.602576065063476562e+01 2.008719682693481445e+00 4.043684129402015659e-14 1.088319701286061258e-13 4.478064308797470583e-14 -2.888359310840998839e-14
7.355000000000000000e+03 4.520757293701171875e+01 2.585785150527954102e+00 -4.618578943230665368e-14 1.403344129270733820e-13 2.824458637080366069e-14 -2.259575244468493838e-14
7.356000000000000000e+03 4.299098205566406250e+01 4.059147834777832031e+00 -1.284193681705706955e-14 8.599821159013809613e-14 2.194688285544078160e-14 3.065835752586940077e-14
7.357000000000000000e+03 4.369624328613281250e+01 3.984323978424072266e+00 -6.724371629180173060e-14 1.541850550229942329e-13 2.608240263579728740e-14 -2.061978890313242302e-14
7.358000000000000000e+03 5.524440383911132812e+01 8.402523040771484375e+00 -1.873904135162030027e-13 5.694267079343548477e-14 -3.913432146157753977e-14 8.493811936346323810e-14
7.359000000000000000e+03 5.550785446166992188e+01 -2.352251768112182617e+00 -4.604735036740741083e-14 -1.569874194832718284e-13 -6.091043061639059286e-14 4.698114998164665268e-14
7.360000000000000000e+03 5.686633682250976562e+01 1.407308220863342285e+00 -1.585926756673267102e-13 1.607864503431338798e-13 6.581323180388561761e-16 1.940229118861658275e-13
7.361000000000000000e+03 5.118688964843750000e+01 -8.786818504333496094e+00 -4.492068473921015381e-14 2.649922754914112860e-14 -5.526436818207528662e-15 -5.515313073324416837e-14
7.362000000000000000e+03 5.648209381103515625e+01 6.684887409210205078e+00 -1.093637238603652195e-13 1.246958943436696221e-13 4.599650636771552420e-15 8.339439842896048671e-14
7.363000000000000000e+03 5.399542617797851562e+01 -8.513275146484375000e+00 -7.298688427725616434e-14 -5.415556647873562279e-14 -3.814273387154482053e-14 1.919900124839647726e-14
7.364000000000000000e+03 4.889370727539062500e+01 -4.821280479431152344e+00 -8.324771942755035403e-14 5.582430608812131989e-14 -8.227023493608941890e-15 1.036421382744068254e-14
7.365000000000000000e+03 5.184835052490234375e+01 -1.005729675292968750e+01 -9.024665780302254525e-14 -3.867714051049471469e-14 -3.867714051049471469e-14 4.522785276720245329e-14
7.366000000000000000e+03 4.866942977905273438e+01 -1.251234412193298340e+00 -1.163902687336543229e-13 -4.988154325897588282e-14 -4.988154325897588282e-14 1.361043202240900390e-14
7.367000000000000000e+03 4.880411529541015625e+01 -4.818159639835357666e-01 -5.121607416056113415e-14 2.068050049784664335e-13 4.667667890655841090e-14 4.568425444797380441e-14
7.368000000000000000e+03 4.735511779785156250e+01 -1.885325163602828979e-01 -1.094271225824013094e-13 1.017932483096672946e-13 -2.290162578281735965e-15 -8.225478674919739497e-14
7.369000000000000000e+03 5.634230422973632812e+01 -1.651710748672485352e+00 -7.914460373962400874e-14 7.187995451672993252e-14 -2.179396503285764737e-15 4.232342083678071465e-14
7.370000000000000000e+03 4.419773483276367188e+01 9.619569778442382812e+00 -7.367131400369195116e-14 -7.732437059355598552e-14 -4.529870537917438100e-14 2.665521205450979703e-14
7.371000000000000000e+03 4.447266006469726562e+01 3.469878673553466797e+00 -7.133481766440422089e-14 1.517888462490568635e-14 -1.684677889541002366e-14 4.126189712442499685e-15
7.372000000000000000e+03 4.385206222534179688e+01 4.854846477508544922e+00 1.256222620908296547e-14 9.688570881986532934e-14 3.283438177923390933e-14 1.003907684250533033e-14
7.373000000000000000e+03 4.706421279907226562e+01 8.894435167312622070e-01 -1.513999734229724142e-14 8.501332911291584193e-14 2.096199868415263290e-14 -8.030337191652220374e-14
7.374000000000000000e+03 4.640119552612304688e+01 8.279416084289550781e+00 -8.861892475267932334e-14 -1.066059607669582465e-13 -5.856746294538583975e-14 9.867476437721081628e-15
7.375000000000000000e+03 4.330769348144531250e+01 6.788911342620849609e+00 -1.428170868242664704e-13 1.217964666839002619e-13 -6.306186550329630908e-15 2.173897883029545040e-16
7.376000000000000000e+03 4.903339004516601562e+01 9.212696075439453125e+00 -7.564317959984565021e-14 8.195886731874463260e-14 1.894705765098279003e-15 6.112765729791164171e-14
7.377000000000000000e+03 5.635324096679687500e+01 2.241294145584106445e+00 -1.444909187957310603e-13 1.813948331005985765e-14 -3.790542912104205575e-14 1.490547594205915427e-13
7.378000000000000000e+03 4.377854156494140625e+01 1.032339191436767578e+01 -7.145734606242223896e-14 6.087732179254831677e-14 -3.174008424456655451e-15 -2.352092418132344792e-14
7.379000000000000000e+03 4.451783752441406250e+01 8.828005790710449219e+00 -9.376167512753844080e-14 2.114466371092027508e-13 3.530548859449929300e-14 -1.474084797368352406e-13
7.380000000000000000e+03 5.513142776489257812e+01 4.958828449249267578e+00 -1.305992938576902573e-13 1.041571952927096423e-13 -7.932632110593026281e-15 9.429912092070308338e-14
7.381000000000000000e+03 5.272482681274414062e+01 -4.479905605316162109e+00 -6.900186086404482954e-16 1.026439133341994214e-13 3.058616660184081126e-14 2.903126144430251410e-14
7.382000000000000000e+03 5.386571502685546875e+01 -1.928550243377685547e+00 1.423304136682679083e-16 -2.281447498639083832e-14 -6.801643649749456941e-15 9.461939085432351237e-15
7.383000000000000000e+03 5.171448135375976562e+01 8.016417503356933594e+00 -1.342275493228586858e-14 -2.345073462674263087e-13 -7.437903374804544221e-14 9.417880666680918805e-15
7.384000000000000000e+03 5.259017181396484375e+01 7.691473007202148438e+00 -2.652617674939097142e-14 1.716354380669471436e-13 4.353277720942072548e-14 -4.282602308262710433e-14
7.385000000000000000e+03 5.004013061523437500e+01 -4.541044235229492188e+00 -2.042177801105278523e-14 3.699875827803747463e-14 4.973093910688817371e-15 1.167568764516872457e-14
7.386000000000000000e+03 4.903842544555664062e+01 -2.244421243667602539e+00 -3.109622951388661682e-14 -1.332695550595140721e-14 -1.332695550595140721e-14 -1.593503093691960026e-14
7.387000000000000000e+03 5.569954299926757812e+01 7.144510746002197266e+00 -1.513942102107992960e-13 1.181205605332510955e-13 -9.982093548011744533e-15 9.885286491283229449e-14
7.388000000000000000e+03 5.598149108886718750e+01 3.915637493133544922e+00 -1.339862736818991928e-13 3.407920850357314124e-14 -2.997212192519006779e-14 1.764491466349840665e-13
7.389000000000000000e+03 5.661320114135742188e+01 3.457372426986694336e+00 -1.416572751027772581e-13 -1.836659351082264857e-13 -9.759696577380655436e-14 9.509848962994948973e-14
7.390000000000000000e+03 5.225231170654296875e+01 6.844302177429199219e+00 -1.087520983098118343e-13 9.064480394581353462e-14 -5.432189156232437172e-15 -4.969964801575070534e-14
7.391000000000000000e+03 4.824135971069335938e+01 9.078383445739746094e+00 -1.199868112852775504e-13 1.315808762945500088e-13 3.478217554605958842e-15 1.776789436067072181e-13
7.392000000000000000e+03 4.593487167358398438e+01 9.566809654235839844e+00 -1.508844861119323921e-13 2.683711915619623606e-14 -3.721420957850107847e-14 -1.833547826372503020e-13
7.393000000000000000e+03 4.601890945434570312e+01 4.117394447326660156e+00 -5.059123150789879286e-14 1.841973161454887875e-13 4.008182606890335620e-14 -4.701564793952242582e-14
7.394000000000000000e+03 5.602913665771484375e+01 7.874020576477050781e+00 -7.586062312180119616e-14 1.276166265761283225e-13 1.552680001985860120e-14 7.067330526138934643e-14
7.395000000000000000e+03 5.516354370117187500e+01 -5.803188323974609375e+00 -4.100439063813021701e-14 -1.090752108860032488e-13 -4.502388045724003973e-14 9.356179568077716002e-14
7.396000000000000000e+03 4.816008377075195312e+01 1.093711033463478088e-01 -3.574351643657880384e-14 2.591870403197138462e-13 6.703305580968779709e-14 5.533376897957562046e-14
7.397000000000000000e+03 4.965456008911132812e+01 8.048865318298339844e+00 -1.114378568264386138e-13 -2.008131947065102361e-15 -3.403379737320494369e-14 5.211091703549025622e-14
7.398000000000000000e+03 4.875634384155273438e+01 8.424589157104492188e+00 -9.704032960218891835e-14 -5.302644784312311732e-14 -4.502003492765950521e-14 9.479008154572240996e-14
7.399000000000000000e+03 4.951353073120117188e+01 -3.328209638595581055e+00 -9.662794652962047870e-14 1.187163431795590363e-13 6.626518740871683091e-15 3.229280500638550752e-15
7.400000000000000000e+03 5.073595809936523438e+01 -5.778419494628906250e+00 -7.835122524738058480e-14 7.221997387054854278e-14 -1.839375878917733596e-15 5.619361584125598386e-14
7.401000000000000000e+03 5.174517059326171875e+01 -5.151480674743652344e+00 -2.825941114144650546e-14 1.251416640668870373e-13 2.906467858813759075e-14 -4.320783165393145275e-14
7.402000000000000000e+03 5.221977996826171875e+01 -8.137241363525390625e+00 1.536112566933158039e-15 6.377202639660378702e-15 2.373994487862678138e-15 -6.166758150947995037e-15
7.403000000000000000e+03 5.332444381713867188e+01 7.286746501922607422e+00 -1.696547023417697975e-14 -7.270915572637863533e-15 -7.270915572637863533e-15 1.860103325708462041e-13
7.404000000000000000e+03 5.641406631469726562e+01 1.780977249145507812e-01 -1.471366295946116565e-13 2.844334604000867128e-14 -3.560798438875453775e-14 1.194226737898790303e-13
7.405000000000000000e+03 4.924186325073242188e+01 3.812569618225097656e+00 -1.326677076573037906e-13 -3.398211481089527530e-14 -4.999494741808607756e-14 -2.120960970804111438e-15
7.406000000000000000e+03 5.663111114501953125e+01 -7.755813598632812500e-01 -1.134407577097797104e-13 -2.574199364682294017e-14 -4.175482455994784792e-14 6.334867932956608771e-14
7.407000000000000000e+03 5.228008651733398438e+01 -2.055889320373535156e+01 -3.318554173389128177e-15 1.015174001719326702e-13 2.945965343957406002e-14 -7.118098123458978937e-15
7.408000000000000000e+03 5.055998611450195312e+01 7.659790515899658203e+00 -4.730445568135004109e-14 -2.027333887517825811e-14 -2.027333887517825811e-14 1.491452733613351372e-14
7.409000000000000000e+03 5.030381011962890625e+01 6.852811336517333984e+00 -3.307750734015020566e-14 1.688277203584429009e-13 4.072506288904827187e-14 -3.696350137864096164e-14
7.410000000000000000e+03 5.638656997680664062e+01 8.546348571777343750e+00 -1.219631898729742203e-13 6.210743047239605796e-14 -1.795672748136026980e-14 8.549787939259034797e-14
7.411000000000000000e+03 5.570895385742187500e+01 1.671240091323852539e+00 -8.576009368800596722e-14 1.576872042229754411e-13 2.157813383811719998e-14 3.945303624270680987e-14
7.412000000000000000e+03 5.142871856689453125e+01 7.240162849426269531e+00 -2.309601349146511717e-14 -9.898291496342193074e-15 -9.898291496342193074e-15 5.474968216420336709e-14
7.413000000000000000e+03 4.559629440307617188e+01 8.208629608154296875e+00 -1.504197835082779489e-13 2.329155477428374033e-13 2.474873062562055193e-14 -1.246290397272087347e-13
7.414000000000000000e+03 5.516473007202148438e+01 5.680284023284912109e+00 -7.861270770632977634e-14 -1.023175820328084407e-13 -5.427908759936782290e-14 7.422605959777131557e-14
7.415000000000000000e+03 5.614336395263671875e+01 5.939962863922119141e+00 -8.862106605196998221e-14 -1.294823623321228467e-13 -6.543102512709605967e-14 1.002374181921505958e-13
7.416000000000000000e+03 4.990799331665039062e+01 -1.914806365966796875e+00 -1.157523648329453203e-13 -3.857209317844213087e-15 -3.588287368519287035e-14 -2.656646333042828045e-14
7.417000000000000000e+03 4.483585739135742188e+01 7.022358417510986328e+00 -1.082438311076142079e-13 1.823645265830106665e-13 2.223620898143211649e-14 -3.737290204820211889e-15
7.418000000000000000e+03 4.733355712890625000e+01 8.000892639160156250e+00 5.878134892896291763e-14 7.094295311795006942e-14 3.891729129170025392e-14 7.756397249741170397e-14
7.419000000000000000e+03 4.654021453857421875e+01 9.080703735351562500e+00 -4.504331139305005338e-14 -6.505522710158542776e-14 -3.302956188720382324e-14 1.277529378942640625e-13
7.420000000000000000e+03 4.713414382934570312e+01 3.894054651260375977e+00 -3.738219654073234033e-14 7.548095584978750661e-14 1.142962711509019208e-14 -1.094805161512644315e-14
7.421000000000000000e+03 5.485963821411132812e+01 7.598958969116210938e+00 -7.517973060495314330e-14 2.194103324590704340e-13 4.326918055623518722e-14 1.230005138540268828e-13
7.422000000000000000e+03 5.447433471679687500e+01 5.910859584808349609e+00 -8.670947532034289917e-14 1.458425936441687387e-13 1.773993617477410967e-14 9.398811752752561643e-14
7.423000000000000000e+03 5.578223800659179688e+01 -9.397361278533935547e-01 -7.553068684818670109e-14 1.048825536511567569e-13 8.805558855044890582e-15 7.622378341573879390e-14
7.424000000000000000e+03 5.396701431274414062e+01 7.753827571868896484e+00 -7.666494527972314565e-14 5.864549162048690589e-14 -5.405836690693935007e-15 1.499494430533265810e-13
7.425000000000000000e+03 5.395075607299804688e+01 6.949505805969238281e+00 -7.435745134854940264e-14 1.053853659611740656e-13 9.308373706161041095e-15 9.595415553700220590e-14
7.426000000000000000e+03 5.252856445312500000e+01 4.760097980499267578e+00 -7.987087689365415799e-14 1.487734225093587104e-13 2.067076334589818681e-14 3.425868800883274945e-14
7.427000000000000000e+03 5.106667709350585938e+01 -4.015346527099609375e+00 -2.444359547670166277e-14 8.102607397964672886e-14 1.697474185681762532e-14 4.073253371964305480e-14
7.428000000000000000e+03 5.046137237548828125e+01 -2.917665004730224609e+00 -3.870788780648004579e-14 6.286379955407509976e-15 -9.726452228266818656e-15 2.377662987557236512e-14
7.429000000000000000e+03 5.345284271240234375e+01 -5.563197612762451172e+00 -2.216707923447490403e-14 3.625077058737151414e-14 4.225107914088751387e-15 2.777495064726440838e-14
7.430000000000000000e+03 4.741160964965820312e+01 8.956145286560058594e+00 -4.236255375894386332e-14 -2.240346444601012954e-13 -7.991915777164765311e-14 5.301871443231468556e-15
7.431000000000000000e+03 4.627582550048828125e+01 5.202860832214355469e+00 -8.730621341981534278e-14 1.455868439042065643e-13 1.748419151700961877e-14 -1.145824158211433685e-13
7.432000000000000000e+03 4.445631027221679688e+01 6.257952690124511719e+00 -7.099075288122952410e-14 1.983301354093261470e-13 3.820181611368170249e-14 -7.235110812331066454e-14
7.433000000000000000e+03 5.420675659179687500e+01 -6.623598098754882812e+00 -6.867510032870782766e-14 -1.180746445712463344e-13 -5.602492414761260642e-14 3.216032312420430417e-14
7.434000000000000000e+03 5.547620391845703125e+01 8.872303962707519531e-01 -1.207677756626460153e-13 1.083707030905857460e-13 -3.719124736233396164e-15 6.308012922770500630e-14
7.435000000000000000e+03 5.247897338867187500e+01 -6.286229133605957031e+00 -2.637135945542361942e-14 -7.992843447648598221e-14 -3.188993665491357543e-14 4.104960186872286254e-14
7.436000000000000000e+03 5.460409164428710938e+01 -3.037848949432373047e+00 -5.011874636552497708e-14 4.428752761113756431e-14 -1.749365393382163337e-15 -6.178269752217654606e-15
7.437000000000000000e+03 4.709115600585937500e+01 2.901627063751220703e+00 -6.493257588379005782e-15 1.573454908032623223e-13 4.525567271732207353e-14 1.576329500686379087e-14
7.438000000000000000e+03 5.003169631958007812e+01 -5.732299685478210449e-01 -3.984089262925455399e-14 1.230376071208530431e-13 2.495901502510590453e-14 2.369739333148851435e-14
7.439000000000000000e+03 4.980634689331054688e+01 5.449421405792236328e+00 -1.186344588104820685e-13 2.351000795951241340e-13 3.493968894589805085e-14 -4.597717876992507557e-14
7.440000000000000000e+03 5.440953445434570312e+01 -4.804590702056884766e+00 -7.105072281389512856e-14 6.105158696298462750e-14 -2.999740712921502954e-15 2.959998647014336348e-14
7.441000000000000000e+03 4.570589447021484375e+01 -2.327268600463867188e+01 3.077710815694266466e-14 1.319018933112299161e-14 1.319018933112299161e-14 -9.022193460535808673e-15
7.442000000000000000e+03 5.064062881469726562e+01 -2.570223808288574219e+01 2.346453719802472915e-14 1.701845451671998855e-13 5.809472369312784767e-14 -6.046840139066825270e-14
7.443000000000000000e+03 5.468517684936523438e+01 1.008328199386596680e+00 -4.073398045191696515e-14 7.404447606267072768e-14 9.993149022039307661e-15 -3.117374954570285676e-15
7.444000000000000000e+03 5.115296173095703125e+01 6.437401771545410156e+00 2.877742938693292341e-14 2.410879384583813900e-13 8.095960561020978941e-14 9.770145575817984485e-14
7.445000000000000000e+03 4.936075592041015625e+01 7.189077377319335938e+00 3.695691146231132318e-14 1.530915287118253532e-13 5.701453306868053961e-14 1.023213089777763596e-13
7.446000000000000000e+03 5.509316253662109375e+01 3.074711561203002930e+00 -4.096763957261474742e-14 9.681980965656894478e-14 1.675565170281261701e-14 6.443261045150847077e-14
7.447000000000000000e+03 4.896665573120117188e+01 1.375474214553833008e+00 -6.069338689398615094e-14 1.569923390506294814e-13 2.888968496936664132e-14 -4.725492458272639862e-14
7.448000000000000000e+03 4.527202224731445312e+01 5.645489215850830078e+00 -9.380038114509617331e-14 -1.732468843677805598e-14 -3.333751934990296373e-14 2.276613989828871892e-14
7.449000000000000000e+03 4.612272262573242188e+01 7.508160114288330078e+00 -2.081251092148940496e-14 1.740841493310871235e-13 4.598149186169249447e-14 -2.057123358646401751e-14
7.450000000000000000e+03 4.827367019653320312e+01 5.476278305053710938e+00 6.715051556254944543e-14 1.660316442707657214e-13 6.995464185135732982e-14 1.167483400536448168e-13
7.451000000000000000e+03 4.863842010498046875e+01 6.614186167716979980e-01 -3.743521741509867051e-14 1.669601279062279953e-13 3.885747382496515523e-14 9.606104940087980409e-15
7.452000000000000000e+03 5.300925064086914062e+01 6.472528457641601562e+00 2.744332200182129922e-14 5.751237160123157111e-14 2.548670808091586110e-14 1.074352127985837846e-13
7.453000000000000000e+03 5.140251159667968750e+01 2.737348079681396484e+00 -1.032018369958968840e-13 1.845253821703557451e-13 2.439706626284308955e-14 2.278706330615179465e-14
7.454000000000000000e+03 5.492816162109375000e+01 2.046856164932250977e+00 -1.185609363506603953e-13 -1.080005158113177266e-13 -6.796843090520893194e-14 6.224857326646293654e-14
7.455000000000000000e+03 5.367744827270507812e+01 -3.763171434402465820e+00 2.406193090099834758e-14 -8.118963942989332327e-14 -1.713831408332779777e-14 2.714457686945649650e-15
7.456000000000000000e+03 5.135602951049804688e+01 -2.375368356704711914e+00 -4.033169401207979676e-14 -2.300388002372637242e-14 -1.900067187192867185e-14 5.069220461147508350e-14
7.457000000000000000e+03 5.374258422851562500e+01 6.158361434936523438e+00 -6.717156263722282028e-14 6.271408224548316590e-14 -1.337244477510898897e-15 7.938289104834558851e-14
7.458000000000000000e+03 5.554870986938476562e+01 -1.776344329118728638e-02 -1.159735014185508950e-13 -7.257840433250867251e-14 -5.656557172531787026e-14 1.128149036997783475e-14
7.459000000000000000e+03 5.485062026977539062e+01 -1.323718667030334473e+00 -9.859365250218174448e-14 7.212295132863824620e-14 -7.941212554348712344e-15 1.619545799281651294e-14
7.460000000000000000e+03 4.834342575073242188e+01 7.597332477569580078e+00 -2.249266006467461748e-14 8.186218359001323774e-14 1.781085824344771223e-14 -1.834326927277387526e-14
7.461000000000000000e+03 4.944359588623046875e+01 4.913375854492187500e+00 3.782680752287791159e-14 -3.804550973579307743e-15 1.020667755771264423e-14 -2.101006780390931444e-14
7.462000000000000000e+03 4.489995574951171875e+01 4.522827625274658203e+00 -6.536181237091001628e-14 1.321161198020517902e-13 2.002628985765027986e-14 1.389824450052359536e-14
7.463000000000000000e+03 4.982009887695312500e+01 7.624202966690063477e-01 -1.169608030218705075e-13 -4.375110249267436316e-15 -3.640077334606667270e-14 2.172531258896621270e-14
7.464000000000000000e+03 5.356347656250000000e+01 5.318969726562500000e+00 -1.134384198988452885e-13 8.863638040765633996e-14 -7.440611847356684572e-15 4.681076761024055566e-14
7.465000000000000000e+03 4.700504684448242188e+01 7.099899768829345703e+00 -9.504927362758222587e-14 1.422683856572987127e-13 1.416573496416766165e-14 -4.365804321792426945e-14
7.466000000000000000e+03 5.457647705078125000e+01 -1.352984160184860229e-01 -6.414508681162889303e-14 1.097620936198542840e-13 1.368510221187420675e-14 1.353300219960164655e-14
7.467000000000000000e+03 5.202891540527343750e+01 -3.404557228088378906e+00 -4.325258887486436998e-14 6.152733487627126685e-14 5.482424139235247962e-15 -4.629019810151700776e-14
7.468000000000000000e+03 5.295092010498046875e+01 -2.706309318542480469e+00 -5.889156485605964719e-14 4.338718241018307831e-14 -4.651313717323433961e-15 -9.767058140725242560e-15
7.469000000000000000e+03 4.861759185791015625e+01 6.188029766082763672e+00 -2.385458062364228388e-14 1.727804097712004605e-13 4.467774552554225342e-14 -9.473933071965472130e-15
7.470000000000000000e+03 4.661824798583984375e+01 6.188924789428710938e+00 -6.379971420958363559e-14 1.840821298290575697e-14 -1.361745053740995304e-14 5.152522085751821967e-14
7.471000000000000000e+03 5.340695571899414062e+01 4.447832584381103516e+00 -1.122523840373090831e-13 -2.357216247485228143e-15 -3.438287997955917497e-14 7.656185120564693025e-14
7.472000000000000000e+03 5.515748214721679688e+01 4.083423137664794922e+00 -1.525377453471740696e-13 2.612857948394980284e-14 -3.792274925074751168e-14 2.395982785547041971e-14
7.473000000000000000e+03 4.933873748779296875e+01 2.187793731689453125e+00 -4.180522640844126780e-14 9.646084386978615033e-14 1.639668591602982256e-14 1.253156785155709607e-14
7.474000000000000000e+03 5.541877365112304688e+01 6.388324260711669922e+00 -8.632887292395544088e-14 1.460057118610191829e-13 1.790305100349276479e-14 8.923887833117011281e-14
7.475000000000000000e+03 4.792367172241210938e+01 6.684248924255371094e+00 6.045166147853166597e-15 1.512813718696978671e-13 4.719795992295765241e-14 2.564486437876128955e-14
7.476000000000000000e+03 4.926706314086914062e+01 6.409161567687988281e+00 2.910616965002589540e-14 1.039759708995786902e-13 3.992464047081548117e-14 -3.340267651233755353e-14
7.477000000000000000e+03 4.822431182861328125e+01 2.684159517288208008e+00 -1.017366936138450195e-13 1.165268782073874965e-13 4.437054615733090554e-15 1.983402820170013063e-15
7.478000000000000000e+03 5.418206405639648438e+01 3.281674861907958984e+00 -1.457142512120007671e-13 2.905293193522506812e-14 -3.499839510540635190e-14 4.643228618435302213e-14
7.479000000000000000e+03 5.594744110107421875e+01 3.075330734252929688e+00 -1.014952553425596538e-13 -4.349796754342036276e-14 -4.349796754342036276e-14 9.021572415978881820e-14
7.480000000000000000e+03 5.196725845336914062e+01 6.011566638946533203e+00 9.604333794195271667e-15 4.616256378889294076e-13 1.413689857451133625e-13 -2.103775561688916301e-14
7.481000000000000000e+03 5.205269622802734375e+01 2.090559244155883789e+00 -1.081101828610646354e-13 -5.819863854212995249e-16 -3.260765138804466723e-14 2.057308858861850442e-14
7.482000000000000000e+03 4.933522796630859375e+01 1.179527640342712402e-01 -4.034483996342118350e-14 5.705464854906250327e-14 5.012942152175922303e-15 4.202999168319287993e-14
7.483000000000000000e+03 5.299018859863281250e+01 -9.168940186500549316e-01 -3.003519199844262300e-14 3.573815641208857863e-14 1.710889874665202405e-15 -4.951142628344248550e-15
7.484000000000000000e+03 4.891605758666992188e+01 4.626677989959716797e+00 -5.438495316524745438e-14 2.054469062321567785e-13 4.531858693651233394e-14 8.610550694763269286e-14
7.485000000000000000e+03 5.140701675415039062e+01 -8.111533522605895996e-01 5.332943491648776957e-14 6.860642289734444899e-14 3.658075768296284447e-14 8.503134719776983541e-14
7.486000000000000000e+03 4.750104141235351562e+01 5.800819396972656250e+00 -9.237072505540247502e-14 1.891672853516351838e-13 2.903896944412252823e-14 -4.928988735718696501e-14
7.487000000000000000e+03 4.725174331665039062e+01 4.868922233581542969e+00 -3.541183527509296491e-14 1.449518131392546483e-13 3.286199505331439952e-14 8.959902318781548525e-14
7.488000000000000000e+03 5.069508743286132812e+01 -1.422700881958007812e+00 -3.672417052532836457e-14 1.072167460608279554e-13 2.114777164421034056e-14 -1.262345483270818983e-14
7.489000000000000000e+03 5.427995300292968750e+01 4.214152336120605469e+00 -9.267187576133747995e-14 9.753632499104672449e-14 1.459335700649015341e-15 4.832147458859112343e-14
7.490000000000000000e+03 5.276586532592773438e+01 5.629703998565673828e+00 -3.858587779262574735e-14 7.496509245611890360e-14 1.091376456845453632e-14 7.909012935672019018e-14
7.491000000000000000e+03 4.997740936279296875e+01 4.300809383392333984e+00 -1.339422550736962814e-13 1.713509163118326351e-13 1.122260040431997952e-14 -4.662715797233013548e-14
7.492000000000000000e+03 5.029127883911132812e+01 1.441380500793457031e+00 -9.033379377637248964e-14 9.853836496764856179e-14 2.461370595053169116e-15 -3.324010717283693017e-14
7.493000000000000000e+03 5.219405364990234375e+01 -1.712655305862426758e+00 -6.355365452653805036e-14 4.138914349595922137e-14 -6.649353478580238147e-15 -3.327721060405845754e-14
7.494000000000000000e+03 5.086133956909179688e+01 5.656717777252197266e+00 -4.708119473711275260e-14 2.543280256533941852e-13 6.217405469589529221e-14 -5.180260043082147992e-14
7.495000000000000000e+03 5.435421752929687500e+01 5.085768222808837891e+00 -7.016197518805444844e-14 -7.193944841687918007e-15 -2.320677660184577301e-14 7.490499377444531648e-14
7.496000000000000000e+03 5.380579757690429688e+01 1.260590314865112305e+00 -1.065816475332402591e-13 -5.711558748741976665e-14 -4.910916779569257651e-14 5.616964142071689814e-14
7.497000000000000000e+03 5.061836242675781250e+01 2.024111337959766388e-02 -1.291249415334358441e-13 3.616263850327559870e-14 -2.788868853735582132e-14 -1.194729214783760499e-14
7.498000000000000000e+03 5.167168426513671875e+01 5.173606395721435547e+00 -8.034579132652069910e-14 -8.018486184280596007e-14 -4.815919662842435556e-14 5.328997673367287524e-14
7.499000000000000000e+03 5.007852554321289062e+01 6.105211257934570312e+00 -1.134854403918132693e-13 4.286527797753465763e-14 -2.118604906309676239e-14 1.001417780080102182e-13
7.500000000000000000e+03 4.916381454467773438e+01 5.798584461212158203e+00 5.980056673373507214e-14 -1.573749811023539280e-13 -2.927232363295929896e-14 1.032098939732911669e-13
7.501000000000000000e+03 4.891807937622070312e+01 5.254842758178710938e+00 -2.810623878546272131e-14 3.082111117973934666e-13 8.403146207298581305e-14 1.414771942041250993e-14
7.502000000000000000e+03 5.402676773071289062e+01 2.303812026977539062e+00 -6.356946354946560462e-14 1.786352099228394330e-13 3.451972323438579071e-14 -4.138723258963021567e-14
7.503000000000000000e+03 5.353184127807617188e+01 1.169976145029067993e-01 -5.070754268408396437e-14 1.155210367469183819e-13 1.944404957410304086e-14 6.683112823726005541e-15
7.504000000000000000e+03 5.080388259887695312e+01 2.110390186309814453e+00 -4.618280448820052952e-14 -4.266810564807280159e-14 -2.665527304088199934e-14 4.871940389094761570e-14
7.505000000000000000e+03 5.163378524780273438e+01 1.377125740051269531e+00 -1.881747931304147969e-13 1.481084000018104141e-13 -1.201991929383403046e-14 -2.551922567576095369e-14
7.506000000000000000e+03 5.115319442749023438e+01 6.781607270240783691e-01 -4.569869466565859573e-14 2.616579472352036778e-14 -5.859870067344763109e-15 7.004576226769115843e-14
7.507000000000000000e+03 4.824657440185546875e+01 3.690507888793945312e+00 -1.151546373989904837e-14 1.551931190979169428e-13 4.310329762384490504e-14 5.200103992157242838e-14
7.508000000000000000e+03 4.816023254394531250e+01 4.647833824157714844e+00 -4.880929102731024205e-14 1.957207055726752944e-15 -1.405562491618933887e-14 -5.112577367212024770e-14
7.509000000000000000e+03 5.326111984252929688e+01 3.544867992401123047e+00 -1.106582477017857558e-13 2.120145998053910713e-14 -2.683703614696740514e-14 5.191608590509461107e-14
7.510000000000000000e+03 5.312137985229492188e+01 2.610355854034423828e+00 -1.121251867936857993e-13 8.919919653165714335e-14 -6.877796570388828440e-15 5.558409093241178933e-14
7.511000000000000000e+03 5.227781677246093750e+01 3.842447757720947266e+00 -7.800167846697125817e-14 -3.342929028754028364e-14 -3.342929028754028364e-14 6.636489589210287088e-14
7.512000000000000000e+03 5.131058883666992188e+01 4.315471172332763672e+00 -1.147891596229091982e-13 1.109329709797664265e-13 -1.156855682382413198e-15 -3.114281293785381433e-14
7.513000000000000000e+03 4.993394088745117188e+01 2.923674821853637695e+00 -1.073621443484218396e-13 1.970395689058351829e-13 2.690322499553175067e-14 -2.736157824021357571e-14
7.514000000000000000e+03 5.071700668334960938e+01 3.554892301559448242e+00 -1.073944603494254857e-13 1.831107355044873930e-14 -2.672501603969302392e-14 6.798693688104054389e-14
7.515000000000000000e+03 5.219546127319335938e+01 2.906994104385375977e+00 -5.572848294486433540e-14 4.474278749149601664e-14 -3.295708847768732443e-15 -1.080528590593262533e-14
7.516000000000000000e+03 5.290069580078125000e+01 1.650290727615356445e+00 -3.356951150976054954e-14 2.372432762395848549e-13 6.110213111301318611e-14 -3.155641573786630016e-14
7.517000000000000000e+03 5.049639511108398438e+01 4.929736614227294922e+00 -5.734148101005712150e-14 2.117602866333074402e-14 -1.084963570401791325e-14 9.770059517270543448e-14
7.518000000000000000e+03 5.253675842285156250e+01 7.209153771400451660e-01 -8.732078238650811675e-14 -1.454771971832503896e-14 -3.056055232551584122e-14 -2.134088499178895398e-14
7.519000000000000000e+03 5.203530120849609375e+01 -1.020460501313209534e-01 -4.345487389519585297e-14 6.715951444058107511e-14 7.111391316582619387e-15 6.679061253381051409e-16
7.520000000000000000e+03 3.619442367553710938e+01 -2.840736007690429688e+01 2.801470162891884358e-14 1.721346182996866259e-13 6.004479682561458809e-14 -3.001277018929585441e-15
7.521000000000000000e+03 4.539037322998046875e+01 -2.579054450988769531e+01 3.613558765907208536e-14 2.099282119666368018e-13 7.381913819364677165e-14 -4.686779664451329319e-14
7.522000000000000000e+03 2.795398139953613281e+01 -4.096244812011718750e+01 -7.154522742476576713e-14 3.010321484274436354e-13 6.884607223504521367e-14 1.720835862586804488e-14
7.523000000000000000e+03 2.492641448974609375e+01 -3.842978668212890625e+01 -8.629529653792628041e-14 3.290238903812942040e-13 7.281857544250494585e-14 -4.700891572165764865e-14
7.524000000000000000e+03 5.308469390869140625e+01 -2.523607254028320312e+01 5.265971645827989545e-15 7.660213609261834478e-14 2.456043181331413194e-14 -6.580896275783145594e-15
7.525000000000000000e+03 4.806495666503906250e+01 -2.335560989379882812e+01 5.640610083233830313e-15 8.248156796236347232e-14 2.643665214312976991e-14 -8.346499354291644912e-14
7.526000000000000000e+03 4.210647201538085938e+01 -2.806024360656738281e+01 1.382700182987945704e-15 1.664397786260707335e-13 5.034674391800331161e-14 -4.228090317096033779e-14
7.527000000000000000e+03 6.411946868896484375e+01 -2.886954307556152344e+01 2.898986863823609095e-14 1.242422929538218937e-14 1.242422929538218937e-14 -2.724106408654412836e-14
7.528000000000000000e+03 3.962307739257812500e+01 -2.721197891235351562e+01 2.142811922096077987e-14 1.578740664674033178e-13 5.379065452066310316e-14 -8.060965225398578071e-15
7.529000000000000000e+03 5.615353012084960938e+01 -2.684109497070312500e+01 1.620737066418669742e-14 1.156045203141997657e-13 3.954356712410934949e-14 1.435706615442525202e-14
7.530000000000000000e+03 6.587136077880859375e+01 -3.736550140380859375e+01 6.305559237728894373e-14 5.561816537381393533e-14 3.560212630889132701e-14 4.326415172162733844e-15
7.531000000000000000e+03 3.935820770263671875e+01 -3.727870178222656250e+01 -1.833629141535439433e-14 2.609284045339971270e-13 7.277764003423004002e-14 -4.776856282084256458e-15
7.532000000000000000e+03 6.163050842285156250e+01 -3.722490692138671875e+01 2.585509456813801787e-14 1.025826491351904124e-13 3.853132548269078139e-14 -5.639780837978468353e-15
7.533000000000000000e+03 5.700278472900390625e+01 -3.725227355957031250e+01 3.209384797850378668e-14 6.522432198291169825e-14 2.919545369893007669e-14 -9.241632592115085754e-15
7.534000000000000000e+03 3.282821273803710938e+01 -3.702099227905273438e+01 -3.253770679539219612e-14 2.491232318092145848e-13 6.497565343838856977e-14 -3.545553539890770878e-14
7.535000000000000000e+03 4.800778579711914062e+01 -3.159142303466796875e+01 5.228592928898604525e-15 1.966823513950555213e-13 6.057328439832906919e-14 -1.709621993398104806e-14
7.536000000000000000e+03 4.803680038452148438e+01 -2.589420318603515625e+01 2.109520986170142220e-14 1.691691220700314302e-13 5.707930059595939243e-14 -3.801794558962352799e-14
7.537000000000000000e+03 5.599740600585937500e+01 -3.368270874023437500e+01 5.348170433534978063e-14 1.258603681345005221e-13 5.380262140214191191e-14 -3.745994061276312903e-14
7.538000000000000000e+03 4.038567733764648438e+01 -3.425209045410156250e+01 2.090513228020576819e-14 2.034008812074050709e-13 6.729180065815146272e-14 -5.681354231469246119e-14
7.539000000000000000e+03 3.820875930786132812e+01 -3.000187873840332031e+01 4.415907337062055515e-14 1.904913808073102621e-13 7.039513286524745617e-14 -3.979052127394723526e-14
7.540000000000000000e+03 4.498122406005859375e+01 -2.853021049499511719e+01 3.440271325601913441e-15 2.359480070091707349e-13 7.181648803205806231e-14 -1.745810629036597533e-14
7.541000000000000000e+03 3.445522689819335938e+01 -3.026661872863769531e+01 7.957916044068567146e-15 2.607596213607954461e-13 8.061526300022839320e-14 -7.382416618122167318e-14
7.542000000000000000e+03 3.693816375732421875e+01 -3.530642700195312500e+01 -2.997862375009319180e-14 3.074086666644826327e-13 8.322901016381140105e-14 -2.504855784257547201e-15
7.543000000000000000e+03 6.572617340087890625e+01 -2.959010505676269531e+01 4.494864190866722925e-15 2.480184467361108008e-14 8.789012913453225079e-15 -2.806170179309609020e-14
7.544000000000000000e+03 4.406996917724609375e+01 -3.459295654296875000e+01 -3.167875058885587063e-15 2.388348308186849511e-13 7.070008505504973839e-14 -6.456650094948095803e-15
7.545000000000000000e+03 4.801518630981445312e+01 -2.863275527954101562e+01 1.865116405503491892e-14 2.138726207853020034e-13 6.975713409684836108e-14 -7.932719016173414572e-14
7.546000000000000000e+03 5.099181365966796875e+01 -2.837669181823730469e+01 1.990811351491525438e-14 1.229094273190109443e-13 4.284526089492514400e-14 -2.089330431213030914e-14
7.547000000000000000e+03 5.199979019165039062e+01 -3.442210388183593750e+01 2.437328496581597781e-14 1.248230712585021718e-13 4.475890483441637147e-14 2.368586182494459430e-14
7.548000000000000000e+03 5.236725616455078125e+01 -3.767838668823242188e+01 2.433852103959476681e-14 1.133704268701032913e-13 4.131268352587647019e-14 -1.470802239765880981e-14
7.549000000000000000e+03 4.762367630004882812e+01 -4.097389984130859375e+01 1.516850338910413765e-14 1.380347659091230028e-13 4.596098011184178433e-14 -6.315813503291649658e-15
7.550000000000000000e+03 3.119607269763946533e-01 -2.686004638671875000e+00 8.594762678252806931e-14 -8.916250814657977058e-15 2.310941355269068020e-14 4.827777107664459055e-14
7.551000000000000000e+03 1.272854208946228027e+00 -3.066853046417236328e+00 -4.919263696341385703e-15 -1.736743073573604468e-13 -5.357807296782479689e-14 1.754052429019971326e-14
7.552000000000000000e+03 3.983880996704101562e+00 -2.598982334136962891e+00 3.436463488987531734e-14 3.760317388414383122e-14 2.159034297101892347e-14 -1.240538027120693942e-14
7.553000000000000000e+03 1.946477293968200684e+00 -3.699575805664062500e+01 -1.965385624700614203e-14 4.948373525173743737e-13 1.425550487117038800e-13 -4.097888817015428453e-14
7.554000000000000000e+03 2.374066352844238281e+01 3.222485733032226562e+01 -1.008675768235899051e-13 1.626503022978537105e-13 1.853482069159775175e-14 -6.642573318650646375e-14
7.555000000000000000e+03 1.909606361389160156e+01 -3.843414688110351562e+01 -1.710785918311585885e-13 2.873267487650543739e-13 3.487445046830052464e-14 1.060165410321500801e-14
7.556000000000000000e+03 2.011933708190917969e+01 -3.913389587402343750e+01 -1.631615171747077819e-13 2.503302740878426969e-13 2.615062944563272679e-14 4.578262885446791886e-14
7.557000000000000000e+03 2.953599929809570312e+01 -3.347195434570312500e+01 -2.817998570901541697e-15 1.932338159925037213e-13 5.712474899577726917e-14 -3.383646961319726650e-15
7.558000000000000000e+03 7.533529663085937500e+01 -3.655487442016601562e+01 6.511098643347023110e-15 2.315452246170329742e-13 7.141689176886137358e-14 1.379110855462967189e-13
7.559000000000000000e+03 7.687349700927734375e+01 -3.531815719604492188e+01 -2.551520396332739027e-14 1.491932391430722538e-13 3.710340750460484893e-14 -3.450508650505723640e-14
7.560000000000000000e+03 1.130074977874755859e+01 -2.035583114624023438e+01 -1.287780917059305752e-13 8.206223244336396938e-14 -1.401475896461610790e-14 1.253266560625673764e-13
7.561000000000000000e+03 7.608703613281250000e+01 -3.616166305541992188e+01 -7.802210890165903190e-14 8.093932425332073244e-14 8.751650290149837891e-16 -1.304876362805173010e-14
7.562000000000000000e+03 2.528767967224121094e+01 3.154882621765136719e+01 -2.429710112847403153e-14 1.039643292787516271e-13 2.390016793686351032e-14 2.538698180983792879e-14
7.563000000000000000e+03 5.275463104248046875e+00 -3.277376937866210938e+01 1.201773394883011437e-14 3.254071003540998097e-13 1.012274506296921561e-13 8.179074144311002104e-14
7.564000000000000000e+03 1.037867259979248047e+01 -2.017588424682617188e+01 1.234351569524491654e-13 3.274064775803803284e-13 1.352524862940907013e-13 2.061858611634732191e-14
7.565000000000000000e+03 1.036888408660888672e+01 -2.756756401062011719e+01 -2.250718159752234521e-14 -1.468987827430226489e-13 -5.082178709987783538e-14 1.203013654405699073e-13
7.566000000000000000e+03 1.051158142089843750e+01 -3.066067314147949219e+01 -8.697589259324279426e-15 6.489888514831301802e-14 1.686038902080650576e-14 1.214656494960206223e-13
7.567000000000000000e+03 2.480039024353027344e+01 3.124232482910156250e+01 5.433630298088895638e-14 -6.821491071659635530e-14 -4.163582405415514401e-15 -4.070035324391096943e-14
7.568000000000000000e+03 8.738871574401855469e+00 -7.326961040496826172e+00 4.017974646573774233e-14 3.374765202533713815e-13 1.132968840814908840e-13 8.548167565230937320e-15
7.569000000000000000e+03 1.006134605407714844e+01 -2.947004699707031250e+01 -1.090595915984558795e-14 -1.419268348679114666e-13 -4.584983583663486406e-14 1.204227283212525035e-13
7.570000000000000000e+03 9.662921905517578125e+00 -1.548630237579345703e+01 1.604172523983482535e-13 6.875025586805180722e-14 6.875025586805180722e-14 6.286401385341075509e-14
7.571000000000000000e+03 5.919028472900390625e+01 2.450821113586425781e+01 1.167273742941343784e-13 9.577696302070018430e-14 6.375130458258215782e-14 7.787234670032089356e-14
7.572000000000000000e+03 6.000049209594726562e+01 2.490666770935058594e+01 1.447071595309015052e-14 -8.530016157391046017e-14 -2.124883453327904015e-14 1.335446781370458469e-13
7.573000000000000000e+03 2.355674552917480469e+01 -2.423799133300781250e+01 8.272485615360564148e-14 6.302158231039078906e-13 2.138822024220013440e-13 7.384348530868264926e-15
7.574000000000000000e+03 7.661239624023437500e+00 -2.309576225280761719e+01 -3.448587579781350887e-14 2.597260243247107026e-13 6.757204659094823151e-14 -8.728393984143434370e-14
7.575000000000000000e+03 6.081836318969726562e+01 2.527324295043945312e+01 -1.348328187381758747e-13 1.023428236146366188e-13 -9.746998706468366219e-15 9.625359184825196812e-14
7.576000000000000000e+03 6.998104095458984375e+01 -2.474558067321777344e+01 3.674883951288419881e-14 8.437592665571161388e-14 3.633742883413920710e-14 4.163869973101107236e-15
7.577000000000000000e+03 2.676882934570312500e+01 2.878084945678710938e+01 1.368171120017316889e-13 1.501378096282687813e-13 8.608647919950557226e-14 4.264800386216856254e-14
7.578000000000000000e+03 2.676537513732910156e+01 -2.316366577148437500e+01 1.636869486525485695e-14 3.730227389996121357e-13 1.168174308370864556e-13 -2.822380526447572369e-14
7.579000000000000000e+03 7.480358886718750000e+01 2.344378089904785156e+01 -4.925420355318503585e-14 1.618948573291201232e-13 3.379219308346191608e-14 -1.397656133623331742e-13
7.580000000000000000e+03 6.638285636901855469e+00 -8.136886596679687500e+00 -3.953983679100964155e-14 3.033110058687366051e-13 7.913134936806537345e-14 -8.640227341103270953e-14
7.581000000000000000e+03 2.571678543090820312e+01 2.747311973571777344e+01 1.089629485273059528e-13 -3.650601414044440940e-13 -7.682915447500965334e-14 -2.290552459077027647e-13
7.582000000000000000e+03 8.543385505676269531e+00 -2.616541481018066406e+01 1.148461751046547796e-13 1.407216899430852042e-13 7.667035951432199514e-14 1.604147045232429125e-13
7.583000000000000000e+03 7.159536361694335938e+00 -8.730100631713867188e+00 6.115339354698101637e-14 3.464652338896340167e-13 1.222855909414899411e-13 -1.655953613165575544e-13
7.584000000000000000e+03 8.221128463745117188e+00 -1.343611335754394531e+01 1.250847705578858604e-13 -1.293960327341386884e-13 -1.293379394029677259e-15 -1.227812204121145334e-13
7.585000000000000000e+03 7.568401336669921875e+00 -1.398042869567871094e+01 2.010828298575767503e-13 -5.323543204703443457e-15 5.872778256537855568e-14 1.164335555053908067e-13
7.586000000000000000e+03 7.054240417480468750e+01 -2.375348854064941406e+01 1.677757122142166379e-14 1.901941874393048293e-13 6.209152658177841122e-14 1.141826027175121827e-13
7.587000000000000000e+03 2.601516914367675781e+01 -2.363600158691406250e+01 6.324520260835595018e-16 4.463428053807366735e-13 1.340925797049113966e-13 2.054342210667386981e-14
7.588000000000000000e+03 6.391898632049560547e+00 -2.265248489379882812e+01 1.285391064420604579e-13 2.495297263087337125e-13 1.134206457594801043e-13 -8.995867337721966117e-14
7.589000000000000000e+03 6.791224479675292969e+00 -2.348299217224121094e+01 5.502373459208981243e-14 6.933254697357588148e-14 3.730688514732606598e-14 5.340224925676553824e-14
7.590000000000000000e+03 2.730767440795898438e+01 2.366567993164062500e+01 9.291028504280346434e-14 -9.743415248881712176e-14 -1.357160974957926074e-15 -8.212256829426278770e-14
7.591000000000000000e+03 5.786629486083984375e+01 -1.382579898834228516e+01 3.245338974769071405e-14 1.511614455568938142e-13 5.508444991374900068e-14 -1.184393837345976142e-13
7.592000000000000000e+03 5.957717514038085938e+01 2.359148025512695312e+01 -2.762344355805492618e-14 -3.320952725056197652e-13 -1.079156092286849555e-13 1.199207698204460271e-13
7.593000000000000000e+03 6.070925235748291016e+00 -8.303019523620605469e+00 9.872291820026222325e-15 2.329857227284515275e-13 7.285740343280708298e-14 -1.864525379794215731e-13
7.594000000000000000e+03 6.895597839355468750e+01 -2.226908874511718750e+01 5.623934206788056001e-14 1.529558272574116362e-13 6.275855486334580569e-14 4.539255662973015748e-14
7.595000000000000000e+03 2.743694496154785156e+01 2.426144790649414062e+01 -5.311166274574868895e-14 -3.430187720237370952e-13 -1.188391290755930196e-13 -2.988490124854539798e-14
7.596000000000000000e+03 5.210004425048828125e+01 -1.362141513824462891e+01 -3.533125194862297980e-14 5.348445888649425162e-14 5.445962335471265722e-15 -7.619112860155624611e-14
7.597000000000000000e+03 6.564564514160156250e+01 -1.379904270172119141e+01 -6.143698695398533416e-14 -2.633013605594664713e-14 -2.633013605594664713e-14 7.004592489801703126e-14
7.598000000000000000e+03 6.076452255249023438e+00 -2.027740478515625000e+01 -1.342887220423093914e-14 3.602523552907743731e-13 1.040470471282486931e-13 -1.895661599427608118e-14
7.599000000000000000e+03 6.182610702514648438e+01 2.445610046386718750e+01 1.498681143378630121e-13 -2.727270754338765452e-14 3.677862119130966001e-14 -9.417543378161322143e-14
7.600000000000000000e+03 6.104948520660400391e+00 -2.143522834777832031e+01 -3.163132055545789245e-14 3.295758306022522621e-13 8.938335504691738431e-14 -4.153598851582701590e-14
7.601000000000000000e+03 5.910579681396484375e+00 -1.831568527221679688e+01 -6.115792686731472139e-14 -2.621054178005791796e-14 -2.621054178005791796e-14 6.213158785205175061e-14
7.602000000000000000e+03 5.977515697479248047e+00 -2.637399101257324219e+01 3.292870736824014821e-14 3.698777734290926988e-14 2.097494642978436213e-14 2.983862614457100104e-14
7.603000000000000000e+03 6.445920467376708984e+00 -1.925411796569824219e+01 -8.230606951195595933e-14 3.307335687870865959e-13 7.452824707203375976e-14 -7.214434399275410081e-14
7.604000000000000000e+03 6.114377975463867188e+00 -1.007903003692626953e+01 8.060668425053860164e-14 3.090514226911783568e-13 1.168974314048887297e-13 -1.421423200496929606e-13
7.605000000000000000e+03 6.854064178466796875e+01 -2.124431610107421875e+01 7.836723078195190206e-14 1.708388069681862631e-13 7.476181132504144955e-14 -8.132240506811185682e-15
7.606000000000000000e+03 6.375946521759033203e+00 -1.520326232910156250e+01 1.165165986155396183e-14 -8.650832871229252596e-14 -2.245699997759521144e-14 -1.157409942626613786e-13
7.607000000000000000e+03 2.599981689453125000e+01 2.091345214843750000e+01 3.921184191691025334e-14 1.998088651998519705e-13 7.170621111858913044e-14 -3.635256361884074694e-14
7.608000000000000000e+03 2.412753868103027344e+01 -1.813788223266601562e+01 -1.748190961024971568e-14 5.415191407266706225e-13 1.572111717066185244e-13 1.389010197280163977e-14
7.609000000000000000e+03 3.225382995605468750e+01 -1.350080776214599609e+01 3.854611806608163049e-14 4.282783166737608171e-13 1.400473297443263765e-13 4.280772378283462243e-15
7.610000000000000000e+03 4.328002929687500000e+01 -1.149581241607666016e+01 -2.914588194272496602e-14 1.705127060597569355e-13 4.241004520223051744e-14 -4.487189902958009513e-14
7.611000000000000000e+03 4.199243545532226562e+01 2.452865600585937500e+01 4.406925738502549816e-14 1.103887218179694374e-13 4.633739477733801737e-14 6.312606551850050152e-14
7.612000000000000000e+03 2.605673217773437500e+01 1.985245132446289062e+01 -1.494295139015111573e-13 3.477173247685289015e-13 5.948634461535803886e-14 3.333934555293724400e-14
7.613000000000000000e+03 4.909389114379882812e+01 2.333435249328613281e+01 -5.012273419664065033e-14 1.394302628541198297e-15 -1.461852997864960396e-14 8.373705374931095236e-14
7.614000000000000000e+03 4.956750106811523438e+01 2.296974372863769531e+01 -9.529859946967242368e-14 4.908691454610231153e-15 -2.711697206570547886e-14 3.590945357907771029e-15
7.615000000000000000e+03 3.106213378906250000e+01 -1.331170558929443359e+01 1.500974061566847512e-14 4.410667523487704633e-13 1.368229531409359545e-13 -4.046324839318375666e-14
7.616000000000000000e+03 6.807198333740234375e+01 -1.056026554107666016e+01 -5.356633647930764131e-14 2.279394629588118310e-14 -9.231717224434526914e-15 -4.739754439049505188e-16
7.617000000000000000e+03 3.038218879699707031e+01 -9.081292152404785156e+00 4.668215751566125171e-14 3.631387454194195952e-13 1.229462766403482954e-13 1.105896126220697398e-14
7.618000000000000000e+03 4.457997894287109375e+01 -9.119269371032714844e+00 -6.747015191552532820e-14 2.227144385797200088e-13 4.657328667688476198e-14 2.832591254516838783e-15
7.619000000000000000e+03 4.926219558715820312e+01 2.235944557189941406e+01 -4.773992887206063296e-14 -6.621091885481919515e-14 -3.418525364043759063e-14 6.206040320316449921e-14
7.620000000000000000e+03 2.960000801086425781e+01 -1.025386238098144531e+01 3.381584224334925615e-14 3.805001019124842898e-13 1.242947801974314537e-13 -2.798707819044298634e-14
7.621000000000000000e+03 2.558712577819824219e+01 1.904706573486328125e+01 -5.988272892961873928e-14 1.573397716368024613e-13 2.923711077927604318e-14 -2.436487392864974261e-14
7.622000000000000000e+03 2.517271041870117188e+01 1.917998313903808594e+01 5.264043121213680954e-14 2.055639865142580569e-13 7.746132565673163883e-14 -4.615690560880528204e-14
7.623000000000000000e+03 2.572793579101562500e+01 1.946355247497558594e+01 4.923597540416012330e-14 2.155426716016900501e-13 7.943359105243644191e-14 -1.315875847954922628e-13
7.624000000000000000e+03 2.913047981262207031e+01 2.419715881347656250e+01 5.744846465942712865e-14 -2.041339780588583008e-13 -4.400565198695027824e-14 -1.077974989545198159e-13
7.625000000000000000e+03 4.879920578002929688e+01 2.287309265136718750e+01 -9.765513999662397970e-14 4.964969678878522474e-14 -1.440163194591208978e-14 1.049036346071480219e-13
7.626000000000000000e+03 2.504106712341308594e+01 1.871186447143554688e+01 8.243430352390668236e-14 1.954573113603641499e-13 8.336748311002853407e-14 3.903634007837095132e-14
7.627000000000000000e+03 2.552355766296386719e+01 1.857931327819824219e+01 -2.254931471038466861e-14 1.733398038820943565e-13 4.523714641269972747e-14 -6.868037903803511646e-14
7.628000000000000000e+03 2.599984169006347656e+01 1.902267837524414062e+01 -3.011239735751895796e-14 1.014720601923320420e-13 2.140789885044392521e-14 -4.310939456699924149e-15
7.629000000000000000e+03 2.638274574279785156e+01 1.927256584167480469e+01 -3.203245841861858401e-14 3.202275142104304972e-14 -2.912347840434356751e-18 9.250667723156857924e-14
7.630000000000000000e+03 2.676859474182128906e+01 1.890695381164550781e+01 -1.794289814383703829e-13 2.204830285360004360e-13 1.231621650098126824e-14 -9.001508577150679757e-14
7.631000000000000000e+03 6.002629852294921875e+01 -7.152520179748535156e+00 -1.711319616830991874e-14 -7.334227050280386212e-15 -7.334227050280386212e-15 1.100989687873726863e-13
7.632000000000000000e+03 7.136047363281250000e+01 -1.718392562866210938e+01 -6.679860386615138479e-14 -1.201298717619370127e-13 -5.607854133317380363e-14 -2.180765599696103305e-16
7.633000000000000000e+03 4.106449890136718750e+01 2.271319770812988281e+01 4.889040629047110287e-14 2.039568194238741694e-13 7.585417211887490740e-14 3.607644781869479012e-14
7.634000000000000000e+03 7.092220306396484375e+01 -1.562921142578125000e+01 7.256680336926307762e-14 1.226019611354212113e-13 5.855062393039442425e-14 -5.287325769944744083e-16
7.635000000000000000e+03 7.196408843994140625e+01 6.656438350677490234e+00 -4.108806478782473307e-15 -1.847647062474047641e-13 -5.666205555427371310e-14 1.639078683977196471e-13
7.636000000000000000e+03 7.152003479003906250e+01 -1.531324100494384766e+01 4.731589062613797414e-14 -2.547271001442953653e-14 6.552953505886173480e-15 3.065263158314596170e-14
7.637000000000000000e+03 3.238621902465820312e+01 2.491157531738281250e+01 -2.725657495387424911e-14 -1.946851832307014418e-13 -6.658252914943860179e-14 4.595874055672924396e-14
7.638000000000000000e+03 5.803989791870117188e+01 2.056307029724121094e+01 -2.850426464957520056e-14 -2.295331080152257508e-13 -7.741121518757207443e-14 9.867219617331474124e-14
7.639000000000000000e+03 5.870809936523437500e+01 1.872877502441406250e+01 -4.134015788655361068e-14 -2.464719509216728444e-13 -8.634363162602839981e-14 1.120940498625447312e-13
7.640000000000000000e+03 6.284286880493164062e+01 -6.636767387390136719e+00 -6.067063897715468945e-14 2.485039897383994889e-13 5.635000522837343984e-14 -7.932298379611808087e-15
7.641000000000000000e+03 3.170194435119628906e+01 -7.212323665618896484e+00 -5.049881343708977066e-14 3.214897694846924336e-13 8.129728715309397780e-14 2.341257003264478331e-14
7.642000000000000000e+03 4.990501403808593750e+01 -6.469432830810546875e+00 -6.235484540815725008e-14 -9.534992966627603428e-14 -4.731143184470362750e-14 8.556230471855851005e-15
7.643000000000000000e+03 3.137142944335937500e+01 2.340185165405273438e+01 9.919778350521782362e-14 -2.091168899284387428e-13 -3.297573124933991795e-14 3.022381607140078863e-14
7.644000000000000000e+03 3.225371551513671875e+01 2.359908866882324219e+01 1.169457732692544272e-13 6.155735372392195925e-14 5.355093742032655812e-14 6.976486581359089834e-14
7.645000000000000000e+03 2.687580299377441406e+01 -6.380301475524902344e+00 -3.740436508702787988e-14 3.499771544616947505e-13 9.377183274664191437e-14 -1.199439852994643729e-13
7.646000000000000000e+03 3.413664627075195312e+01 2.441122627258300781e+01 2.716271523298900009e-14 8.026758646856660406e-14 3.222909203512598630e-14 -5.542006469624188858e-14
7.647000000000000000e+03 7.000941467285156250e+01 1.838260459899902344e+01 9.233687084256661515e-14 -3.149969163545457418e-13 -6.679801433122009580e-14 6.881585009948718024e-14
7.648000000000000000e+03 5.078860092163085938e+01 1.954023551940917969e+01 -5.749004381274194775e-14 2.498671029197568894e-13 5.771311840973084029e-14 5.744714328802941194e-14
7.649000000000000000e+03 6.287643432617187500e+01 -5.345683097839355469e+00 5.158919556195844247e-14 3.681011929729943732e-13 1.259071243531889595e-13 -1.764725213561964962e-14
7.650000000000000000e+03 3.360027694702148438e+01 2.417935943603515625e+01 1.306895130309682074e-13 1.475116822311287046e-13 8.346035857862907359e-14 1.779680190109461657e-13
7.651000000000000000e+03 4.067780685424804688e+01 2.186484718322753906e+01 3.971857090727566597e-14 1.085241448030467570e-13 4.447281437428354800e-14 2.685761057725621209e-15
7.652000000000000000e+03 7.086251831054687500e+01 -7.612747192382812500e+00 -1.239625264416732708e-13 -1.446286937867996558e-13 -8.057736335803644678e-14 2.380549845248068619e-14
7.653000000000000000e+03 4.341090011596679688e+01 -4.612224102020263672e+00 -8.220980591156640260e-14 2.392729298115320313e-13 4.711893513711061521e-14 -1.441383599661612974e-14
7.654000000000000000e+03 3.846244812011718750e+01 -7.957897186279296875e-01 -2.259009629747635306e-13 8.618909893513132525e-14 -4.191355853426330380e-14 -4.366910208008362160e-14
7.655000000000000000e+03 5.215442657470703125e+01 1.880635833740234375e+01 -1.289502088008126490e-13 1.336204977502204738e-14 -3.467644804655035939e-14 7.600438155360919601e-14
7.656000000000000000e+03 7.054059600830078125e+01 7.929576396942138672e+00 9.849087013623011866e-14 -2.322953298900670704e-13 -4.014133521564565432e-14 7.172441893882330888e-14
7.657000000000000000e+03 6.401446533203125000e+01 -5.239644050598144531e+00 4.660761861630287328e-14 1.743841480722138626e-13 6.629752627961005285e-14 -6.023877414679940090e-14
7.658000000000000000e+03 4.283607482910156250e+01 -3.119022846221923828e+00 -5.160816232371336076e-14 2.066369536417311803e-13 4.650863773421852476e-14 -2.679100498848181744e-14
7.659000000000000000e+03 5.616646957397460938e+01 1.020459175109863281e+00 -1.316182541644464465e-13 -3.353235048029860887e-14 -4.954518308748941113e-14 3.674442138903132038e-14
7.660000000000000000e+03 6.953200531005859375e+01 1.443947696685791016e+01 -8.733226815327288506e-14 -3.805602209229486110e-13 -1.403677521438773113e-13 -1.722710685312257156e-14
7.661000000000000000e+03 3.017627906799316406e+01 -4.563052654266357422e+00 2.191649131329329730e-14 3.525248940417641252e-13 1.123324184864292474e-13 -1.794034484772083493e-13
7.662000000000000000e+03 5.687071609497070312e+01 1.418091869354248047e+01 -6.333955847879005341e-14 2.016092235648456188e-13 4.148089749293759620e-14 2.045309586843138683e-13
7.663000000000000000e+03 6.776824188232421875e+01 1.907931137084960938e+01 -1.858758508438765333e-13 -1.254120234311234539e-13 -9.338636499300542737e-14 1.499599191568182222e-13
7.664000000000000000e+03 6.753723144531250000e+01 1.869247436523437500e+01 2.922043778274228953e-14 -7.897885633250528725e-14 -1.492752420967618371e-14 -1.691964846223595331e-13
7.665000000000000000e+03 4.475389099121093750e+01 -2.928856611251831055e+00 -1.281233013563851109e-13 2.195957039255111432e-13 2.744172110955098859e-14 -4.426290605742677631e-14
7.666000000000000000e+03 6.980563354492187500e+01 8.504266738891601562e+00 6.853086078218578736e-14 -1.536334265101607643e-13 -2.553076904076613529e-14 4.880463573423213242e-14
7.667000000000000000e+03 6.145368194580078125e+01 -9.474054574966430664e-01 -3.897222646052737882e-14 -3.671842425381419139e-14 -2.270719487548929216e-14 7.884759333073518284e-14
7.668000000000000000e+03 3.030970001220703125e+01 -2.397515773773193359e+00 -4.271138903167749634e-14 2.790762954930914308e-13 7.090947159961100144e-14 -8.706705197309219657e-14
7.669000000000000000e+03 5.000173950195312500e+01 1.776535606384277344e+01 -2.227060190722243010e-14 -1.010464430769957012e-13 -3.699511264823249213e-14 1.061843416471329460e-13
7.670000000000000000e+03 3.499754714965820312e+01 1.996356010437011719e+01 -5.715104089846004265e-14 2.957633324449787660e-13 7.158368949683469040e-14 -3.631408121798108957e-14
7.671000000000000000e+03 4.941656112670898438e+01 -1.061956644058227539e+00 -1.001181627294407683e-13 1.400960104218709756e-13 1.199335295247634658e-14 -1.078295917623418605e-15
7.672000000000000000e+03 6.292587661743164062e+01 -4.293652176856994629e-01 -1.066930357539359886e-13 -1.372274825240174523e-13 -7.317615887151782128e-14 1.409216574812729994e-13
7.673000000000000000e+03 6.174809265136718750e+01 1.009375303983688354e-01 -7.481707175452032010e-14 -7.781540575747467048e-14 -4.578974393122485498e-14 1.224306300871141895e-13
7.674000000000000000e+03 5.745558547973632812e+01 1.791337394714355469e+01 -1.658760477064868954e-13 2.491668980517114385e-13 2.498726018576504643e-14 4.073508159474839574e-14
7.675000000000000000e+03 4.099112319946289062e+01 -6.210153698921203613e-01 5.746620491747442272e-14 1.319063571748619462e-14 2.119705202108159575e-14 -6.856586695982991309e-14
7.676000000000000000e+03 6.913387298583984375e+01 6.946213722229003906e+00 -6.511379434769037911e-14 -1.194078066675888228e-13 -5.535647962695740276e-14 7.980752560546311436e-14
7.677000000000000000e+03 4.376316070556640625e+01 -1.333226084709167480e+00 -2.894811330206824296e-14 1.705974635645909898e-13 4.249480609519636076e-14 -5.474443733619396846e-14
7.678000000000000000e+03 6.843659973144531250e+01 1.566387939453125000e+01 -6.936831209274074705e-14 -2.127330700919111139e-13 -8.463041601064827391e-14 -1.678850201219939109e-13
7.679000000000000000e+03 3.125784301757812500e+01 5.637297630310058594e+00 -1.281381820312024744e-13 2.195893206852206347e-13 2.743534295145816371e-14 -6.266844411028510420e-14
7.680000000000000000e+03 3.122903442382812500e+01 7.138697147369384766e+00 -6.101647236512325323e-14 3.398576721696383585e-13 8.365235723084910036e-14 -4.374853682987712988e-14
7.681000000000000000e+03 4.131521606445312500e+01 1.766580772399902344e+01 4.145994613298726109e-15 -1.583514677890029976e-13 -4.626164292679917078e-14 -5.391967796732066720e-14
7.682000000000000000e+03 5.009203720092773438e+01 1.595055294036865234e+01 -1.231432897276160676e-13 -7.024745351792661616e-15 -3.905041098969073976e-14 1.742482975400014289e-13
7.683000000000000000e+03 5.015943527221679688e+01 1.722784805297851562e+01 -1.606895904315494561e-13 -2.061198163105099068e-13 -1.100428206673650933e-13 1.420235185966428615e-13
7.684000000000000000e+03 4.791942596435546875e+01 9.078945517539978027e-01 -4.199581220970527440e-14 1.421301092227253426e-13 3.004029113678509388e-14 6.218600124858336686e-14
7.685000000000000000e+03 6.291190338134765625e+01 -1.088454842567443848e+00 -1.095012616822085838e-13 -4.692911166549913748e-14 -4.692911166549913748e-14 6.893355379783763781e-14
7.686000000000000000e+03 6.988756561279296875e+01 -1.031195044517517090e+00 -1.951677887227290520e-13 -3.789238820178612854e-14 -6.991805002803594404e-14 1.159472637259767458e-13
7.687000000000000000e+03 4.152962875366210938e+01 8.542803525924682617e-01 -8.197428162431876636e-15 1.566151315622946183e-13 4.452531347635436954e-14 2.563849469099793721e-14
7.688000000000000000e+03 4.698519897460937500e+01 1.377573108673095703e+01 -1.802086142799457641e-14 3.714510947769701990e-15 -4.291905355825699139e-15 -1.610169991588493443e-14
7.689000000000000000e+03 4.211577606201171875e+01 1.892030239105224609e+00 -6.772219503931031781e-14 1.672715243226929882e-14 -1.529851278211230570e-14 3.393622934207661535e-14
7.690000000000000000e+03 3.205997085571289062e+01 1.634709715843200684e+00 -7.427224661031919806e-14 1.969237761138137310e-13 3.679546020630107550e-14 -6.714843524963098886e-14
7.691000000000000000e+03 5.697465133666992188e+01 1.182244110107421875e+01 -1.573878560031521934e-13 -1.818293101805631973e-13 -1.017651539208727640e-13 1.935562848236552225e-13
7.692000000000000000e+03 3.459969329833984375e+01 1.258161258697509766e+01 -5.976589936926984814e-14 6.588794180389934141e-14 1.836613280960263696e-15 -3.792139738616369382e-14
7.693000000000000000e+03 3.464626312255859375e+01 1.364212322235107422e+01 -2.009259559676134649e-14 -1.001130127691214622e-13 -3.606168234035825315e-14 -4.552433462753219251e-14
7.694000000000000000e+03 4.913730239868164062e+01 1.518350696563720703e+01 -1.051777005875616233e-13 4.642574031373664090e-14 -1.762559011502656814e-14 7.656328269132779002e-15
7.695000000000000000e+03 5.239733505249023438e+01 1.601234626770019531e+01 -1.188472605918866609e-13 -9.668548378366156881e-14 -6.465982534554354233e-14 1.711777963299410121e-13
7.696000000000000000e+03 3.067840194702148438e+01 1.141512012481689453e+01 2.124626124718528158e-14 4.341875302219314059e-14 1.939950411140693720e-14 -5.294548504589276228e-14
7.697000000000000000e+03 3.251853942871093750e+01 9.323306083679199219e+00 -9.509470847487294654e-14 3.710036563988466929e-13 8.277268979820298633e-14 6.190690728059486392e-14
7.698000000000000000e+03 3.133204460144042969e+01 9.193156242370605469e+00 -8.795343468294414269e-14 5.570680093429369872e-13 1.407343751085032846e-13 -1.086956317054160737e-13
7.699000000000000000e+03 6.698136138916015625e+01 8.422342300415039062e+00 -6.686580407205475196e-14 -2.865677123766244283e-14 -2.865677123766244283e-14 7.500097954802817379e-14
7.700000000000000000e+03 4.292119216918945312e+01 1.368230342864990234e+01 -8.595803512338393015e-14 -8.259010337609284935e-14 -5.056444154984303385e-14 3.176864831313033766e-14
7.701000000000000000e+03 4.962410736083984375e+01 1.468932628631591797e+01 -1.498636284513743533e-13 -1.013999200902802877e-13 -7.537906795062818133e-14 1.109142752685546296e-13
7.702000000000000000e+03 3.512914657592773438e+01 1.319190597534179688e+01 -8.459829652128839084e-15 -4.937658964966791519e-14 -1.735092612935220518e-14 -1.286738998771547182e-13
7.703000000000000000e+03 3.517636489868164062e+01 7.751957416534423828e+00 -6.431611801027258685e-15 3.632511771847063420e-13 1.070458690221806619e-13 -6.600431057832492621e-14
7.704000000000000000e+03 3.697378158569335938e+01 1.381039810180664062e+01 4.095446651621904854e-14 -7.394998106707503793e-14 -9.898654873476565169e-15 -3.262665541924926471e-14
7.705000000000000000e+03 6.824980163574218750e+01 4.110651314258575439e-01 -2.116287830741803155e-13 -4.109546904162986181e-13 -1.867750339156273864e-13 -1.028746112277136027e-13
7.706000000000000000e+03 3.523382949829101562e+01 9.132811546325683594e+00 -1.849329405432566242e-14 2.208290516593491848e-13 6.070072558744116220e-14 -1.840448366624558574e-13
7.707000000000000000e+03 5.826615142822265625e+01 1.030172729492187500e+01 -1.090860461314645258e-13 4.475073266054126198e-14 -1.930059438009015804e-14 2.016427389645025769e-13
7.708000000000000000e+03 5.272894287109375000e+01 1.469357204437255859e+01 -1.096163090852364519e-13 -1.227469854579688827e-15 -3.325313453956570131e-14 2.709907764766178451e-13
7.709000000000000000e+03 3.341492462158203125e+01 8.826468467712402344e+00 -8.520688969389060563e-15 4.209922476816965742e-14 1.007356040082100015e-14 -1.186528072381854912e-14
7.710000000000000000e+03 4.364663696289062500e+01 1.210550594329833984e+01 3.924156938522709026e-14 -2.119369268841278520e-13 -5.180860758848340741e-14 -5.616932293632873052e-14
7.711000000000000000e+03 4.403585815429687500e+01 1.153740692138671875e+01 -3.469068158819602066e-14 -1.521202868531856822e-13 -5.604328782190907965e-14 3.810903720683714996e-15
7.712000000000000000e+03 4.203723144531250000e+01 4.637977123260498047e+00 -1.228147764693529598e-13 2.218707937642547257e-13 2.971680586609688757e-14 -3.672754171645843668e-14
7.713000000000000000e+03 6.647097778320312500e+01 7.241978168487548828e+00 -2.516020567886953496e-14 -1.022848459034629565e-13 -3.823351547469974743e-14 1.761403251986787266e-13
7.714000000000000000e+03 6.633972167968750000e+01 6.648762226104736328e+00 -1.490735025656483859e-13 -1.782660119780538066e-13 -9.820185571836337335e-14 2.132907565843833453e-14
7.715000000000000000e+03 5.937236022949218750e+01 1.015619468688964844e+01 -1.493125555921542835e-13 -6.399109622181806123e-14 -6.399109622181806123e-14 1.445493843978823412e-13
7.716000000000000000e+03 5.189241790771484375e+01 1.058380222320556641e+01 -6.799536655293161869e-14 6.236102536054041745e-14 -1.690301680091002567e-15 -4.851133532965228035e-14
7.717000000000000000e+03 6.333757781982421875e+01 8.729326248168945312e+00 -1.729206784272657726e-13 -7.410886411918921057e-14 -7.410886411918921057e-14 1.255663189527952972e-13
7.718000000000000000e+03 5.087763595581054688e+01 8.490020751953125000e+00 -9.778795476275345400e-14 4.959277278659794674e-14 -1.445855425403347327e-14 1.628341050592761047e-14
7.719000000000000000e+03 4.210881423950195312e+01 9.147378921508789062e+00 4.220416198593909818e-15 3.220653995231193001e-13 9.788574302244806846e-14 3.074776015938619766e-14
7.720000000000000000e+03 5.466624832153320312e+01 6.732092380523681641e+00 -1.134283232661140173e-13 4.288976061784209592e-14 -2.116156981092111311e-14 1.232648016860973805e-13
7.721000000000000000e+03 4.486099243164062500e+01 9.998797416687011719e+00 -8.061426688948242214e-14 2.399567090166643268e-13 4.780273805916543384e-14 -9.276115303397808320e-14
7.722000000000000000e+03 6.593806457519531250e+01 7.419990062713623047e+00 -5.452908429155224612e-14 6.723871540928114121e-14 3.812890436461499957e-15 4.673038757167791157e-14
7.723000000000000000e+03 4.407988357543945312e+01 7.002660751342773438e+00 3.192409918774223587e-14 5.943270371287431852e-14 2.740704019255860852e-14 -6.833830901745120354e-15
7.724000000000000000e+03 4.354043579101562500e+01 9.307141304016113281e+00 -1.486302942700634677e-13 5.067867580124153781e-14 -2.938548384658068446e-14 9.839204172007627591e-15
7.725000000000000000e+03 4.392722320556640625e+01 7.800903797149658203e+00 -1.161218473808012241e-13 3.162410925575814824e-13 6.003577084252864626e-14 -8.410644820574034175e-14
7.726000000000000000e+03 4.478514099121093750e+01 7.938473701477050781e+00 -7.125165935777458270e-14 -7.628737187315506874e-14 -4.426171004690525324e-14 -2.910389960172725388e-14
7.727000000000000000e+03 5.249175262451171875e+01 9.915454864501953125e+00 -1.563713622563384087e-13 -2.500200838462945940e-13 -1.219174365412953320e-13 1.325653725247483150e-13
7.728000000000000000e+03 5.265555572509765625e+01 9.302468299865722656e+00 -1.427742337333989808e-13 -1.069399085886109380e-13 -7.491424337422933344e-14 1.222991705737003221e-13
7.729000000000000000e+03 4.374546432495117188e+01 8.590989112854003906e+00 -1.081660396017383730e-13 9.089597293159695779e-14 -5.181020170449014001e-15 -3.450122954053191394e-16
