# el_label, x, y, sXX, sYY, sZZ, sXY
1.000000000000000000e+00 5.758132553100585938e+01 3.117728233337402344e+01 -6.972295284271240234e+00 -2.158300161361694336e+00 -2.739178657531738281e+00 -2.508147001266479492e+00
2.000000000000000000e+00 5.738232421875000000e+01 3.117320442199707031e+01 -1.847954630851745605e+00 8.410696387290954590e-01 -3.020655214786529541e-01 8.970972895622253418e-01
3.000000000000000000e+00 5.718332672119140625e+01 3.116912460327148438e+01 -3.102191209793090820e+00 -4.353165626525878906e-01 -1.061252355575561523e+00 1.584488898515701294e-01
4.000000000000000000e+00 5.698432540893554688e+01 3.116504478454589844e+01 -3.320765733718872070e+00 1.882965117692947388e-01 -9.397407770156860352e-01 4.021174311637878418e-01
5.000000000000000000e+00 5.758822631835937500e+01 3.111928749084472656e+01 9.256811141967773438e+00 -2.738259792327880859e+00 1.955565333366394043e+00 8.237751722335815430e-01
6.000000000000000000e+00 5.739382934570312500e+01 3.107654380798339844e+01 2.314839601516723633e+00 1.751536428928375244e-01 7.469979524612426758e-01 1.073363304138183594e+00
7.000000000000000000e+00 5.719943237304687500e+01 3.103380012512207031e+01 2.372713565826416016e+00 4.357662796974182129e-01 8.425439000129699707e-01 1.909109950065612793e+00
8.000000000000000000e+00 5.700503540039062500e+01 3.099105834960937500e+01 1.211237788200378418e+00 7.098334282636642456e-02 3.846663236618041992e-01 1.197966814041137695e+00
9.000000000000000000e+00 5.760628890991210938e+01 3.106374549865722656e+01 1.567770481109619141e+01 1.303987979888916016e+00 5.094508171081542969e+00 7.760324954986572266e+00
1.000000000000000000e+01 5.742393112182617188e+01 3.098397445678710938e+01 8.911737442016601562e+00 7.102627158164978027e-01 2.886600017547607422e+00 4.540377140045166016e+00
1.100000000000000000e+01 5.724157714843750000e+01 3.090420341491699219e+01 5.722643375396728516e+00 1.454262852668762207e+00 2.153071880340576172e+00 3.733545303344726562e+00
1.200000000000000000e+01 5.705921936035156250e+01 3.082443237304687500e+01 4.825453281402587891e+00 1.305165171623229980e+00 1.839185595512390137e+00 3.557889938354492188e+00
1.300000000000000000e+01 5.763481903076171875e+01 3.101278305053710938e+01 1.824581909179687500e+01 7.393967151641845703e+00 7.691935539245605469e+00 1.354702472686767578e+01
1.400000000000000000e+01 5.747148132324218750e+01 3.089903640747070312e+01 1.135864830017089844e+01 4.474540710449218750e+00 4.749956607818603516e+00 8.833426475524902344e+00
1.500000000000000000e+01 5.730814361572265625e+01 3.078528976440429688e+01 8.721007347106933594e+00 3.694731235504150391e+00 3.724721431732177734e+00 6.975744724273681641e+00
1.600000000000000000e+01 5.714480590820312500e+01 3.067154502868652344e+01 6.672715663909912109e+00 3.425558567047119141e+00 3.029482364654541016e+00 5.961730003356933594e+00
1.700000000000000000e+01 5.767272186279296875e+01 3.096834945678710938e+01 1.700748825073242188e+01 1.551493072509765625e+01 9.756726264953613281e+00 1.765828895568847656e+01
1.800000000000000000e+01 5.753465652465820312e+01 3.082497978210449219e+01 1.195470905303955078e+01 9.937777519226074219e+00 6.567746162414550781e+00 1.227772045135498047e+01
1.900000000000000000e+01 5.739658737182617188e+01 3.068161201477050781e+01 9.088745117187500000e+00 7.807220935821533203e+00 5.068789958953857422e+00 9.805867195129394531e+00
2.000000000000000000e+01 5.725851821899414062e+01 3.053824424743652344e+01 7.634996891021728516e+00 6.764252185821533203e+00 4.319774627685546875e+00 8.581176757812500000e+00
2.100000000000000000e+01 5.771855163574218750e+01 3.093214607238769531e+01 1.442947196960449219e+01 2.438546752929687500e+01 1.164448165893554688e+01 1.920940208435058594e+01
2.200000000000000000e+01 5.761103820800781250e+01 3.076464080810546875e+01 1.039083957672119141e+01 1.645641326904296875e+01 8.054175376892089844e+00 1.410402965545654297e+01
2.300000000000000000e+01 5.750352096557617188e+01 3.059713554382324219e+01 8.434986114501953125e+00 1.312127494812011719e+01 6.466878414154052734e+00 1.165044498443603516e+01
2.400000000000000000e+01 5.739600753784179688e+01 3.042963027954101562e+01 6.804820537567138672e+00 1.107688617706298828e+01 5.364511966705322266e+00 1.004340744018554688e+01
2.500000000000000000e+01 5.777055358886718750e+01 3.090555572509765625e+01 1.099390602111816406e+01 3.288806533813476562e+01 1.316459178924560547e+01 1.807947349548339844e+01
2.600000000000000000e+01 5.769770431518554688e+01 3.072032356262207031e+01 8.516499519348144531e+00 2.309980392456054688e+01 9.484890937805175781e+00 1.409028530120849609e+01
2.700000000000000000e+01 5.762485885620117188e+01 3.053509330749511719e+01 6.639784812927246094e+00 1.871251296997070312e+01 7.605689525604248047e+00 1.188594436645507812e+01
2.800000000000000000e+01 5.755200958251953125e+01 3.034986114501953125e+01 5.532545566558837891e+00 1.623642730712890625e+01 6.530691623687744141e+00 1.047923660278320312e+01
2.900000000000000000e+01 5.782673645019531250e+01 3.088959884643554688e+01 8.565479278564453125e+00 3.991722106933593750e+01 1.454481124877929688e+01 1.476955223083496094e+01
3.000000000000000000e+01 5.779134368896484375e+01 3.069372940063476562e+01 6.575522422790527344e+00 2.900735473632812500e+01 1.067486286163330078e+01 1.220849323272705078e+01
3.100000000000000000e+01 5.775595092773437500e+01 3.049785995483398438e+01 5.069405555725097656e+00 2.392671585083007812e+01 8.698836326599121094e+00 1.069923210144042969e+01
3.200000000000000000e+01 5.772055816650390625e+01 3.030199050903320312e+01 4.117323875427246094e+00 2.089008712768554688e+01 7.502223491668701172e+00 9.548515319824218750e+00
3.300000000000000000e+01 5.788494873046875000e+01 3.088488578796386719e+01 7.648047924041748047e+00 4.470610046386718750e+01 1.570624542236328125e+01 9.936100006103515625e+00
3.400000000000000000e+01 5.788836669921875000e+01 3.068587303161621094e+01 5.543250560760498047e+00 3.359207916259765625e+01 1.174059963226318359e+01 9.094356536865234375e+00
3.500000000000000000e+01 5.789178466796875000e+01 3.048686218261718750e+01 4.165838718414306641e+00 2.801239585876464844e+01 9.653470039367675781e+00 8.151144981384277344e+00
3.600000000000000000e+01 5.789519882202148438e+01 3.028784942626953125e+01 3.183382511138916016e+00 2.450562477111816406e+01 8.306702613830566406e+00 7.478523254394531250e+00
3.700000000000000000e+01 5.794296646118164062e+01 3.089159393310546875e+01 8.672463417053222656e+00 4.702553558349609375e+01 1.670939826965332031e+01 4.751686096191406250e+00
3.800000000000000000e+01 5.798506164550781250e+01 3.069705581665039062e+01 5.789884090423583984e+00 3.635112762451171875e+01 1.264230346679687500e+01 5.246656417846679688e+00
3.900000000000000000e+01 5.802716064453125000e+01 3.050251770019531250e+01 4.276731967926025391e+00 3.071782684326171875e+01 1.049836730957031250e+01 4.914497852325439453e+00
4.000000000000000000e+01 5.806925582885742188e+01 3.030797767639160156e+01 3.232206344604492188e+00 2.694163894653320312e+01 9.052153587341308594e+00 4.553080558776855469e+00
4.100000000000000000e+01 5.799856948852539062e+01 3.090947151184082031e+01 1.136830615997314453e+01 4.701810073852539062e+01 1.751592254638671875e+01 1.357390135526657104e-01
4.200000000000000000e+01 5.807773208618164062e+01 3.072685050964355469e+01 7.469575881958007812e+00 3.733095932006835938e+01 1.344015979766845703e+01 1.446480870246887207e+00
4.300000000000000000e+01 5.815689468383789062e+01 3.054422760009765625e+01 5.514889717102050781e+00 3.176214599609375000e+01 1.118311023712158203e+01 1.591906666755676270e+00
4.400000000000000000e+01 5.823605728149414062e+01 3.036160659790039062e+01 4.339913368225097656e+00 2.831017875671386719e+01 9.795027732849121094e+00 1.578287124633789062e+00
4.500000000000000000e+01 5.804962539672851562e+01 3.093782997131347656e+01 1.535023212432861328e+01 4.537618637084960938e+01 1.821792411804199219e+01 -3.159512519836425781e+00
4.600000000000000000e+01 5.816283035278320312e+01 3.077411460876464844e+01 1.020797729492187500e+01 3.664099884033203125e+01 1.405469226837158203e+01 -1.669135332107543945e+00
4.700000000000000000e+01 5.827602767944335938e+01 3.061039924621582031e+01 7.874424934387207031e+00 3.147813224792480469e+01 1.180576705932617188e+01 -1.183037996292114258e+00
4.800000000000000000e+01 5.838922882080078125e+01 3.044668388366699219e+01 6.348087787628173828e+00 2.811821365356445312e+01 1.033989048004150391e+01 -8.175743222236633301e-01
4.900000000000000000e+01 5.809418487548828125e+01 3.097558593750000000e+01 1.968777847290039062e+01 4.276411056518554688e+01 1.873556709289550781e+01 -4.839716911315917969e+00
5.000000000000000000e+01 5.823709487915039062e+01 3.083704185485839844e+01 1.373807334899902344e+01 3.486299896240234375e+01 1.458032131195068359e+01 -3.573350906372070312e+00
5.100000000000000000e+01 5.838000106811523438e+01 3.069849586486816406e+01 1.078282642364501953e+01 3.008923530578613281e+01 1.226161861419677734e+01 -2.916969299316406250e+00
5.200000000000000000e+01 5.852291107177734375e+01 3.055995178222656250e+01 9.099926948547363281e+00 2.685413932800292969e+01 1.078622055053710938e+01 -2.466418981552124023e+00
5.300000000000000000e+01 5.813054275512695312e+01 3.102129364013671875e+01 2.377851676940917969e+01 3.998169326782226562e+01 1.912806320190429688e+01 -4.894273757934570312e+00
5.400000000000000000e+01 5.829768753051757812e+01 3.091322135925292969e+01 1.731076240539550781e+01 3.258222198486328125e+01 1.496789550781250000e+01 -4.049899101257324219e+00
5.500000000000000000e+01 5.846483230590820312e+01 3.080514907836914062e+01 1.391336059570312500e+01 2.813264274597167969e+01 1.261380100250244141e+01 -3.403331279754638672e+00
5.600000000000000000e+01 5.863198089599609375e+01 3.069707679748535156e+01 1.175431346893310547e+01 2.515263748168945312e+01 1.107208538055419922e+01 -3.007791280746459961e+00
5.700000000000000000e+01 5.815730667114257812e+01 3.107320594787597656e+01 2.699222564697265625e+01 3.769013977050781250e+01 1.940470886230468750e+01 -3.601723194122314453e+00
5.800000000000000000e+01 5.834229278564453125e+01 3.099974250793457031e+01 2.036917114257812500e+01 3.036538887023925781e+01 1.522036838531494141e+01 -3.173706531524658203e+00
5.900000000000000000e+01 5.852727890014648438e+01 3.092627716064453125e+01 1.660127449035644531e+01 2.630668067932128906e+01 1.287238597869873047e+01 -2.668163299560546875e+00
6.000000000000000000e+01 5.871226882934570312e+01 3.085281372070312500e+01 1.408120441436767578e+01 2.338085174560546875e+01 1.123861694335937500e+01 -2.361081600189208984e+00
6.100000000000000000e+01 5.817345046997070312e+01 3.112933540344238281e+01 2.901200103759765625e+01 3.615997314453125000e+01 1.955159187316894531e+01 -1.341637611389160156e+00
6.200000000000000000e+01 5.836920166015625000e+01 3.109329032897949219e+01 2.228196144104003906e+01 2.891181373596191406e+01 1.535813331604003906e+01 -1.273307800292968750e+00
6.300000000000000000e+01 5.856494903564453125e+01 3.105724525451660156e+01 1.838699913024902344e+01 2.494910049438476562e+01 1.300082969665527344e+01 -9.915128946304321289e-01
6.400000000000000000e+01 5.876070022583007812e+01 3.102120018005371094e+01 1.577286338806152344e+01 2.230406761169433594e+01 1.142307949066162109e+01 -9.179278612136840820e-01
6.500000000000000000e+01 5.817835617065429688e+01 3.118753433227539062e+01 2.950090599060058594e+01 3.562030410766601562e+01 1.953636360168457031e+01 1.288981676101684570e+00
6.600000000000000000e+01 5.837738037109375000e+01 3.119028854370117188e+01 2.282591056823730469e+01 2.855057907104492188e+01 1.541294670104980469e+01 1.248864531517028809e+00
6.700000000000000000e+01 5.857640075683593750e+01 3.119304084777832031e+01 1.881623458862304688e+01 2.449600982666015625e+01 1.299367332458496094e+01 1.066017508506774902e+00
6.800000000000000000e+01 5.877542114257812500e+01 3.119579505920410156e+01 1.627493095397949219e+01 2.209629631042480469e+01 1.151136779785156250e+01 9.836986064910888672e-01
6.900000000000000000e+01 5.817184066772460938e+01 3.124557304382324219e+01 2.853936958312988281e+01 3.646244812011718750e+01 1.950054550170898438e+01 3.966225147247314453e+00
7.000000000000000000e+01 5.836651992797851562e+01 3.128701972961425781e+01 2.177428054809570312e+01 2.907398796081542969e+01 1.525448131561279297e+01 3.616307258605957031e+00
7.100000000000000000e+01 5.856119537353515625e+01 3.132846641540527344e+01 1.787925148010253906e+01 2.534564781188964844e+01 1.296747016906738281e+01 3.158410787582397461e+00
7.200000000000000000e+01 5.875587463378906250e+01 3.136991310119628906e+01 1.527241325378417969e+01 2.254716110229492188e+01 1.134587192535400391e+01 2.755141496658325195e+00
7.300000000000000000e+01 5.815414810180664062e+01 3.130123329162597656e+01 2.601554679870605469e+01 3.807321166992187500e+01 1.922662734985351562e+01 6.140426635742187500e+00
7.400000000000000000e+01 5.833703231811523438e+01 3.137978744506835938e+01 1.934254074096679688e+01 3.092511177062988281e+01 1.508029556274414062e+01 5.274124622344970703e+00
7.500000000000000000e+01 5.851992034912109375e+01 3.145834159851074219e+01 1.570805931091308594e+01 2.663765335083007812e+01 1.270371341705322266e+01 4.651132106781005859e+00
7.600000000000000000e+01 5.870280075073242188e+01 3.153689575195312500e+01 1.326118278503417969e+01 2.416845130920410156e+01 1.122889041900634766e+01 4.115924835205078125e+00
7.700000000000000000e+01 5.812596130371093750e+01 3.135238647460937500e+01 2.234178352355957031e+01 4.063863754272460938e+01 1.889412689208984375e+01 7.205051422119140625e+00
7.800000000000000000e+01 5.829005432128906250e+01 3.146504020690917969e+01 1.585459709167480469e+01 3.322198104858398438e+01 1.472297382354736328e+01 5.878536224365234375e+00
7.900000000000000000e+01 5.845414352416992188e+01 3.157769584655761719e+01 1.265111446380615234e+01 2.859735298156738281e+01 1.237454032897949219e+01 4.956649303436279297e+00
8.000000000000000000e+01 5.861823654174804688e+01 3.169035148620605469e+01 1.065431880950927734e+01 2.568188285827636719e+01 1.090086078643798828e+01 4.555297374725341797e+00
8.100000000000000000e+01 5.808835220336914062e+01 3.139707183837890625e+01 1.779074478149414062e+01 4.365666198730468750e+01 1.843422126770019531e+01 6.826435089111328125e+00
8.200000000000000000e+01 5.822737503051757812e+01 3.153951644897460938e+01 1.197131919860839844e+01 3.544476699829101562e+01 1.422482585906982422e+01 5.017571926116943359e+00
8.300000000000000000e+01 5.836639404296875000e+01 3.168196105957031250e+01 9.270948410034179688e+00 3.060892486572265625e+01 1.196396255493164062e+01 4.083605289459228516e+00
8.400000000000000000e+01 5.850541305541992188e+01 3.182440757751464844e+01 7.494013786315917969e+00 2.705256652832031250e+01 1.036397457122802734e+01 3.516754865646362305e+00
8.500000000000000000e+01 5.804276657104492188e+01 3.143358039855957031e+01 1.307043361663818359e+01 4.614938354492187500e+01 1.776594543457031250e+01 4.762405395507812500e+00
8.600000000000000000e+01 5.815139389038085938e+01 3.160036468505859375e+01 8.329409599304199219e+00 3.721842193603515625e+01 1.366434860229492188e+01 2.704294919967651367e+00
8.700000000000000000e+01 5.826002502441406250e+01 3.176714897155761719e+01 6.100343704223632812e+00 3.176127815246582031e+01 1.135848712921142578e+01 1.993489265441894531e+00
8.800000000000000000e+01 5.836865234375000000e+01 3.193393325805664062e+01 4.635298252105712891e+00 2.834585189819335938e+01 9.894345283508300781e+00 1.577414274215698242e+00
8.900000000000000000e+01 5.799094390869140625e+01 3.146051597595214844e+01 9.033661842346191406e+00 4.772277450561523438e+01 1.702693176269531250e+01 9.243342876434326172e-01
9.000000000000000000e+01 5.806502532958984375e+01 3.164525794982910156e+01 5.481708526611328125e+00 3.747878646850585938e+01 1.288814830780029297e+01 -6.383245587348937988e-01
9.100000000000000000e+01 5.813910675048828125e+01 3.182999801635742188e+01 3.725894212722778320e+00 3.202063369750976562e+01 1.072395801544189453e+01 -1.049732565879821777e+00
9.200000000000000000e+01 5.821318435668945312e+01 3.201473999023437500e+01 2.710055589675903320e+00 2.824609184265136719e+01 9.286844253540039062e+00 -1.044398307800292969e+00
9.300000000000000000e+01 5.793487167358398438e+01 3.147684478759765625e+01 6.317503452301025391e+00 4.720044708251953125e+01 1.605538558959960938e+01 -4.017552375793457031e+00
9.400000000000000000e+01 5.797156524658203125e+01 3.167247581481933594e+01 3.944057464599609375e+00 3.618452072143554688e+01 1.203857421875000000e+01 -4.692453384399414062e+00
9.500000000000000000e+01 5.800826263427734375e+01 3.186810493469238281e+01 2.521312713623046875e+00 3.048502540588378906e+01 9.901901245117187500e+00 -4.318433284759521484e+00
9.600000000000000000e+01 5.804496002197265625e+01 3.206373214721679688e+01 1.768010973930358887e+00 2.701532745361328125e+01 8.635001182556152344e+00 -4.131439685821533203e+00
9.700000000000000000e+01 5.787668609619140625e+01 3.148194694519042969e+01 5.538454532623291016e+00 4.429752731323242188e+01 1.495079517364501953e+01 -9.491811752319335938e+00
9.800000000000000000e+01 5.787459564208984375e+01 3.168097686767578125e+01 3.801184892654418945e+00 3.286467361450195312e+01 1.099975776672363281e+01 -8.467705726623535156e+00
9.900000000000000000e+01 5.787250518798828125e+01 3.188000869750976562e+01 2.594467163085937500e+00 2.736996078491210938e+01 8.989328384399414062e+00 -7.555653572082519531e+00
1.000000000000000000e+02 5.787041473388671875e+01 3.207903671264648438e+01 1.882076382637023926e+00 2.402927780151367188e+01 7.773406028747558594e+00 -6.670114517211914062e+00
1.010000000000000000e+02 5.781862640380859375e+01 3.147562408447265625e+01 6.661620616912841797e+00 3.876451492309570312e+01 1.362784099578857422e+01 -1.415012073516845703e+01
1.020000000000000000e+02 5.777782821655273438e+01 3.167043876647949219e+01 4.956512451171875000e+00 2.780270576477050781e+01 9.827765464782714844e+00 -1.154051494598388672e+01
1.030000000000000000e+02 5.773703002929687500e+01 3.186525344848632812e+01 3.662273406982421875e+00 2.277601432800292969e+01 7.931486129760742188e+00 -9.774260520935058594e+00
1.040000000000000000e+02 5.769623184204101562e+01 3.206007003784179688e+01 2.879902124404907227e+00 1.961713790893554688e+01 6.749112129211425781e+00 -8.700364112854003906e+00
1.050000000000000000e+02 5.776290512084960938e+01 3.145812034606933594e+01 9.416348457336425781e+00 3.101008796691894531e+01 1.212793159484863281e+01 -1.725983047485351562e+01
1.060000000000000000e+02 5.768496322631835938e+01 3.164126396179199219e+01 6.735359668731689453e+00 2.142773056030273438e+01 8.448926925659179688e+00 -1.293243026733398438e+01
1.070000000000000000e+02 5.760701751708984375e+01 3.182440948486328125e+01 5.337841510772705078e+00 1.721674728393554688e+01 6.766376495361328125e+00 -1.080188369750976562e+01
1.080000000000000000e+02 5.752907562255859375e+01 3.200755310058593750e+01 4.124338626861572266e+00 1.478617286682128906e+01 5.673153400421142578e+00 -9.420108795166015625e+00
1.090000000000000000e+02 5.771166229248046875e+01 3.143010139465332031e+01 1.230725288391113281e+01 2.196329116821289062e+01 1.028116321563720703e+01 -1.772879219055175781e+01
1.100000000000000000e+02 5.759955215454101562e+01 3.159456825256347656e+01 8.806765556335449219e+00 1.446804809570312500e+01 6.982444286346435547e+00 -1.256043720245361328e+01
1.110000000000000000e+02 5.748744583129882812e+01 3.175903511047363281e+01 6.519118309020996094e+00 1.146977138519287109e+01 5.396666526794433594e+00 -1.005519104003906250e+01
1.120000000000000000e+02 5.737533950805664062e+01 3.192350006103515625e+01 5.283880233764648438e+00 1.004732990264892578e+01 4.599362850189208984e+00 -8.700347900390625000e+00
1.130000000000000000e+02 5.766685104370117188e+01 3.139264297485351562e+01 1.498024272918701172e+01 1.268405628204345703e+01 8.299289703369140625e+00 -1.539747714996337891e+01
1.140000000000000000e+02 5.752487182617187500e+01 3.153213882446289062e+01 9.242539405822753906e+00 7.895073413848876953e+00 5.141283988952636719e+00 -1.012916564941406250e+01
1.150000000000000000e+02 5.738288879394531250e+01 3.167163085937500000e+01 7.157614231109619141e+00 6.532132148742675781e+00 4.106924057006835938e+00 -7.917582511901855469e+00
1.160000000000000000e+02 5.724090957641601562e+01 3.181112480163574219e+01 5.272686958312988281e+00 5.659558296203613281e+00 3.279673576354980469e+00 -6.659901142120361328e+00
1.170000000000000000e+02 5.763019180297851562e+01 3.134717750549316406e+01 1.434291553497314453e+01 4.465912342071533203e+00 5.642648220062255859e+00 -1.055111598968505859e+01
1.180000000000000000e+02 5.746376800537109375e+01 3.145636177062988281e+01 8.455903053283691406e+00 2.821208953857421875e+00 3.383133649826049805e+00 -6.140981674194335938e+00
1.190000000000000000e+02 5.729734802246093750e+01 3.156554603576660156e+01 5.235844135284423828e+00 2.943886995315551758e+00 2.453919172286987305e+00 -4.753282070159912109e+00
1.200000000000000000e+02 5.713092803955078125e+01 3.167472839355468750e+01 4.416698932647705078e+00 2.952018022537231445e+00 2.210615158081054688e+00 -4.397957801818847656e+00
1.210000000000000000e+02 5.760308456420898438e+01 3.129544448852539062e+01 1.065262413024902344e+01 -1.888998031616210938e+00 2.629087686538696289e+00 -3.397278547286987305e+00
1.220000000000000000e+02 5.741859054565429688e+01 3.137014007568359375e+01 3.218691825866699219e+00 6.805869936943054199e-01 1.169783711433410645e+00 -1.847703576087951660e+00
1.230000000000000000e+02 5.723409652709960938e+01 3.144483566284179688e+01 2.792862892150878906e+00 1.363610029220581055e+00 1.246941804885864258e+00 -2.481987714767456055e+00
1.240000000000000000e+02 5.704960250854492188e+01 3.151953125000000000e+01 1.473814606666564941e+00 5.707677006721496582e-01 6.133746504783630371e-01 -1.613777756690979004e+00
1.250000000000000000e+02 5.758656692504882812e+01 3.123942565917968750e+01 -3.789044141769409180e+00 -3.099954128265380859e+00 -2.066699504852294922e+00 2.760789632797241211e+00
1.260000000000000000e+02 5.739105987548828125e+01 3.127677345275878906e+01 -5.780067443847656250e-01 1.159700393676757812e+00 1.745080947875976562e-01 -7.340222597122192383e-01
1.270000000000000000e+02 5.719555282592773438e+01 3.131412315368652344e+01 -1.976173758506774902e+00 -4.201180636882781982e-01 -7.188875675201416016e-01 9.011553972959518433e-02
1.280000000000000000e+02 5.700004959106445312e+01 3.135147094726562500e+01 -2.372363328933715820e+00 2.690470218658447266e-01 -6.309948563575744629e-01 5.935653671622276306e-02
1.290000000000000000e+02 2.333872413635253906e+01 3.602074050903320312e+01 6.570316851139068604e-03 -9.562451305100694299e-05 1.942407689057290554e-03 -2.843789407052099705e-04
1.300000000000000000e+02 2.389290046691894531e+01 3.609888076782226562e+01 5.296687595546245575e-03 -2.593804849311709404e-03 8.108647307381033897e-04 -1.685618772171437740e-03
1.310000000000000000e+02 2.284308815002441406e+01 3.526721954345703125e+01 -8.338063955307006836e-03 -3.477690974250435829e-03 -3.544726409018039703e-03 -3.625359619036316872e-03
1.320000000000000000e+02 2.421754455566406250e+01 3.556056594848632812e+01 -1.730440184473991394e-02 -3.071609418839216232e-03 -6.112803239375352859e-03 -9.939151816070079803e-03
1.330000000000000000e+02 2.498613166809082031e+01 3.604191207885742188e+01 -9.814101271331310272e-03 -3.167639079038053751e-04 -3.039259463548660278e-03 -4.226825200021266937e-03
1.340000000000000000e+02 2.485820960998535156e+01 3.530118560791015625e+01 -3.179734572768211365e-02 -2.730527659878134727e-03 -1.035836152732372284e-02 -1.639777421951293945e-02
1.350000000000000000e+02 2.364893722534179688e+01 3.528245925903320312e+01 -1.608696766197681427e-02 -5.040655843913555145e-03 -6.338286679238080978e-03 -9.856432676315307617e-03
1.360000000000000000e+02 2.269410705566406250e+01 3.600639724731445312e+01 6.871051155030727386e-03 -1.666208409005776048e-04 2.011329168453812599e-03 -6.817794201197102666e-05
1.370000000000000000e+02 2.440931320190429688e+01 3.610589981079101562e+01 -2.311224350705742836e-03 6.077474099583923817e-04 -5.110430647619068623e-04 -4.448506515473127365e-03
1.380000000000000000e+02 2.713174057006835938e+01 3.578996658325195312e+01 -6.791120022535324097e-02 9.675025357864797115e-04 -2.008310891687870026e-02 -4.880066495388746262e-03
1.390000000000000000e+02 2.639669990539550781e+01 3.588855361938476562e+01 -4.197283461689949036e-02 1.463739201426506042e-03 -1.215272955596446991e-02 -5.883499048650264740e-03
1.400000000000000000e+02 2.560692596435546875e+01 3.524289321899414062e+01 -5.073931440711021423e-02 -1.783643267117440701e-03 -1.575688831508159637e-02 -2.104117348790168762e-02
1.410000000000000000e+02 2.704477500915527344e+01 3.505500793457031250e+01 -9.876961261034011841e-02 3.516805358231067657e-03 -2.857584320008754730e-02 -2.967489324510097504e-02
1.420000000000000000e+02 2.786719703674316406e+01 3.568653869628906250e+01 -9.793284535408020020e-02 1.827890984714031219e-03 -2.883148565888404846e-02 -2.947652712464332581e-03
1.430000000000000000e+02 2.776436805725097656e+01 3.495370483398437500e+01 -1.307415962219238281e-01 6.515529006719589233e-03 -3.726781904697418213e-02 -3.152606636285781860e-02
1.440000000000000000e+02 2.632559776306152344e+01 3.515146636962890625e+01 -7.241018861532211304e-02 1.489835558459162712e-03 -2.127610519528388977e-02 -2.568844333291053772e-02
1.450000000000000000e+02 2.566216468811035156e+01 3.598210525512695312e+01 -2.173142693936824799e-02 -3.983180213253945112e-04 -6.638923659920692444e-03 -5.600825417786836624e-03
1.460000000000000000e+02 2.933965110778808594e+01 3.544803619384765625e+01 -1.788245588541030884e-01 1.492661423981189728e-03 -5.319957062602043152e-02 6.137241609394550323e-03
1.470000000000000000e+02 2.922042655944824219e+01 3.471769332885742188e+01 -2.092208266258239746e-01 1.135614700615406036e-02 -5.935940146446228027e-02 -3.458856046199798584e-02
1.480000000000000000e+02 2.848941230773925781e+01 3.484096145629882812e+01 -1.675205677747726440e-01 8.985042572021484375e-03 -4.756065830588340759e-02 -3.385338187217712402e-02
1.490000000000000000e+02 3.068212890625000000e+01 3.447154998779296875e+01 -3.074457943439483643e-01 1.624095253646373749e-02 -8.736145496368408203e-02 -2.939801849424839020e-02
1.500000000000000000e+02 2.995129966735839844e+01 3.459505081176757812e+01 -2.551469504833221436e-01 1.307187043130397797e-02 -7.262252271175384521e-02 -3.284449502825737000e-02
1.510000000000000000e+02 3.081263542175292969e+01 3.519998931884765625e+01 -2.779372036457061768e-01 1.176542602479457855e-03 -8.302819728851318359e-02 2.027383446693420410e-02
1.520000000000000000e+02 2.860299301147460938e+01 3.557225799560546875e+01 -1.346239149570465088e-01 2.354862401261925697e-03 -3.968071565032005310e-02 1.163403620012104511e-03
1.530000000000000000e+02 3.007616424560546875e+01 3.532444381713867188e+01 -2.273652553558349609e-01 1.455257413908839226e-03 -6.777299940586090088e-02 1.218469347804784775e-02
1.540000000000000000e+02 3.228277587890625000e+01 3.491655731201171875e+01 -4.066289663314819336e-01 -2.876635175198316574e-03 -1.228516846895217896e-01 4.208494350314140320e-02
1.550000000000000000e+02 3.141323661804199219e+01 3.433660507202148438e+01 -3.650316596031188965e-01 1.794290356338024139e-02 -1.041266247630119324e-01 -2.687336131930351257e-02
1.560000000000000000e+02 3.301699829101562500e+01 3.477141952514648438e+01 -4.803245961666107178e-01 -3.640700830146670341e-03 -1.451895833015441895e-01 5.405406653881072998e-02
1.570000000000000000e+02 3.287635040283203125e+01 3.404490280151367188e+01 -4.942763447761535645e-01 1.878882758319377899e-02 -1.426462531089782715e-01 -1.751116104423999786e-02
1.580000000000000000e+02 3.360715103149414062e+01 3.390307235717773438e+01 -5.665374994277954102e-01 2.006682753562927246e-02 -1.639411896467208862e-01 -1.034211646765470505e-02
1.590000000000000000e+02 3.375072097778320312e+01 3.462901306152343750e+01 -5.586715936660766602e-01 -6.189078092575073242e-03 -1.694581955671310425e-01 6.745973229408264160e-02
1.600000000000000000e+02 3.214505767822265625e+01 3.418946456909179688e+01 -4.266555607318878174e-01 1.913620531558990479e-02 -1.222558021545410156e-01 -2.329279109835624695e-02
1.610000000000000000e+02 3.154802894592285156e+01 3.506427764892578125e+01 -3.368592858314514160e-01 2.301247295690700412e-04 -1.009887531399726868e-01 3.101316094398498535e-02
1.620000000000000000e+02 3.448552703857421875e+01 3.448280334472656250e+01 -6.434512138366699219e-01 -8.192803710699081421e-03 -1.954932063817977905e-01 8.232927322387695312e-02
1.630000000000000000e+02 3.581328582763671875e+01 3.345945358276367188e+01 -8.146265149116516113e-01 1.793066598474979401e-02 -2.390087544918060303e-01 1.294281519949436188e-02
1.640000000000000000e+02 3.434083938598632812e+01 3.375708389282226562e+01 -6.443977952003479004e-01 1.956800930202007294e-02 -1.874489337205886841e-01 -3.248768858611583710e-03
1.650000000000000000e+02 3.654941177368164062e+01 3.331057739257812500e+01 -9.031181335449218750e-01 1.637738384306430817e-02 -2.660222351551055908e-01 2.151266112923622131e-02
1.660000000000000000e+02 3.595657730102539062e+01 3.418545532226562500e+01 -8.337962031364440918e-01 -1.376329455524682999e-02 -2.542678415775299072e-01 1.141021102666854858e-01
1.670000000000000000e+02 3.669200897216796875e+01 3.403672027587890625e+01 -9.410978555679321289e-01 -1.848287694156169891e-02 -2.878742218017578125e-01 1.295657157897949219e-01
1.680000000000000000e+02 3.522108078002929688e+01 3.433415222167968750e+01 -7.356356978416442871e-01 -1.172715239226818085e-02 -2.242088466882705688e-01 9.770295023918151855e-02
1.690000000000000000e+02 3.507709503173828125e+01 3.360829162597656250e+01 -7.267557978630065918e-01 1.986537314951419830e-02 -2.120671272277832031e-01 5.000698380172252655e-03
1.700000000000000000e+02 3.742828750610351562e+01 3.389342117309570312e+01 -1.048201441764831543e+00 -1.956228539347648621e-02 -3.203290998935699463e-01 1.440363377332687378e-01
1.710000000000000000e+02 3.802332687377929688e+01 3.303014373779296875e+01 -1.092247605323791504e+00 1.487860269844532013e-02 -3.232107162475585938e-01 4.663311690092086792e-02
1.720000000000000000e+02 3.728625106811523438e+01 3.316717147827148438e+01 -9.949502348899841309e-01 1.389832701534032822e-02 -2.943155765533447266e-01 3.360231220722198486e-02
1.730000000000000000e+02 3.890202331542968750e+01 3.361664962768554688e+01 -1.261500358581542969e+00 -2.379422262310981750e-02 -3.855883777141571045e-01 1.788763552904129028e-01
1.740000000000000000e+02 3.963956451416015625e+01 3.347409820556640625e+01 -1.372173786163330078e+00 -2.651633508503437042e-02 -4.196070134639739990e-01 1.986600011587142944e-01
1.750000000000000000e+02 3.949879837036132812e+01 3.274760437011718750e+01 -1.291962981224060059e+00 1.605722866952419281e-02 -3.827717304229736328e-01 7.288297265768051147e-02
1.760000000000000000e+02 3.876083374023437500e+01 3.289023590087890625e+01 -1.189266204833984375e+00 1.479733362793922424e-02 -3.523406386375427246e-01 5.880500376224517822e-02
1.770000000000000000e+02 3.816493988037109375e+01 3.375647735595703125e+01 -1.152060270309448242e+00 -2.081046253442764282e-02 -3.518612384796142578e-01 1.604070365428924561e-01
1.780000000000000000e+02 4.037628555297851562e+01 3.333070373535156250e+01 -1.492596387863159180e+00 -2.951199002563953400e-02 -4.566324949264526367e-01 2.223780006170272827e-01
1.790000000000000000e+02 4.171068954467773438e+01 3.231314468383789062e+01 -1.622434973716735840e+00 6.094221025705337524e-03 -4.849022328853607178e-01 1.080221235752105713e-01
1.800000000000000000e+02 4.023619079589843750e+01 3.260407638549804688e+01 -1.398251175880432129e+00 1.420469116419553757e-02 -4.152139425277709961e-01 8.433701097965240479e-02
1.810000000000000000e+02 4.244785308837890625e+01 3.216765213012695312e+01 -1.731037616729736328e+00 1.073967898264527321e-03 -5.189890861511230469e-01 1.182749345898628235e-01
1.820000000000000000e+02 4.184893417358398438e+01 3.304013442993164062e+01 -1.764945149421691895e+00 -3.934678062796592712e-02 -5.412876009941101074e-01 2.689098417758941650e-01
1.830000000000000000e+02 4.258517456054687500e+01 3.289482498168945312e+01 -1.920177578926086426e+00 -4.840617626905441284e-02 -5.905750989913940430e-01 2.873952388763427734e-01
1.840000000000000000e+02 4.111263656616210938e+01 3.318542480468750000e+01 -1.625662922859191895e+00 -3.679210692644119263e-02 -4.987365305423736572e-01 2.456463277339935303e-01
1.850000000000000000e+02 4.097346878051757812e+01 3.245861816406250000e+01 -1.506460189819335938e+00 1.256915181875228882e-02 -4.481672942638397217e-01 9.751898795366287231e-02
1.860000000000000000e+02 4.332307434082031250e+01 3.275568008422851562e+01 -2.065818548202514648e+00 -4.743159189820289612e-02 -6.339750289916992188e-01 3.000578582286834717e-01
1.870000000000000000e+02 4.318753814697265625e+01 3.202817916870117188e+01 -1.842806816101074219e+00 -5.658403970301151276e-03 -5.545395612716674805e-01 1.342336684465408325e-01
1.880000000000000000e+02 4.392967605590820312e+01 3.189475250244140625e+01 -1.960300683975219727e+00 -1.457505975849926472e-03 -5.885275006294250488e-01 1.493145972490310669e-01
1.890000000000000000e+02 4.480221557617187500e+01 3.249026870727539062e+01 -2.339617967605590820e+00 -4.691519588232040405e-02 -7.159599661827087402e-01 3.350712358951568604e-01
1.900000000000000000e+02 4.541445922851562500e+01 3.162938690185546875e+01 -2.176577568054199219e+00 -6.615525577217340469e-03 -6.549579501152038574e-01 1.662386059761047363e-01
1.910000000000000000e+02 4.554204177856445312e+01 3.235831069946289062e+01 -2.497815608978271484e+00 -5.524005368351936340e-02 -7.659167051315307617e-01 3.519177436828613281e-01
1.920000000000000000e+02 4.406255722045898438e+01 3.262272644042968750e+01 -2.196992158889770508e+00 -4.623817652463912964e-02 -6.729690432548522949e-01 3.144509196281433105e-01
1.930000000000000000e+02 4.467198181152343750e+01 3.176181983947753906e+01 -2.072693109512329102e+00 -3.883466357365250587e-03 -6.229730248451232910e-01 1.562398970127105713e-01
1.940000000000000000e+02 4.628276062011718750e+01 3.223004150390625000e+01 -2.649339675903320312e+00 -5.319112911820411682e-02 -8.107592463493347168e-01 3.649941086769104004e-01
1.950000000000000000e+02 4.764949035644531250e+01 3.125085830688476562e+01 -2.484870433807373047e+00 -1.642206870019435883e-02 -7.503877282142639160e-01 1.889934986829757690e-01
1.960000000000000000e+02 4.615840911865234375e+01 3.150056076049804688e+01 -2.281120300292968750e+00 -1.345503889024257660e-02 -6.883726119995117188e-01 1.782823204994201660e-01
1.970000000000000000e+02 4.839503097534179688e+01 3.112652587890625000e+01 -2.545068740844726562e+00 -2.591102197766304016e-02 -7.712938785552978516e-01 1.928903460502624512e-01
1.980000000000000000e+02 4.776623153686523438e+01 3.198161315917968750e+01 -2.948617696762084961e+00 -5.255074799060821533e-02 -9.003505706787109375e-01 3.978478610515594482e-01
1.990000000000000000e+02 4.850796127319335938e+01 3.185791587829589844e+01 -3.138772964477539062e+00 -7.023867219686508179e-02 -9.627034664154052734e-01 4.026615321636199951e-01
2.000000000000000000e+02 4.702449035644531250e+01 3.210565567016601562e+01 -2.791831493377685547e+00 -5.460843443870544434e-02 -8.539319634437561035e-01 3.782321810722351074e-01
2.010000000000000000e+02 4.690394592285156250e+01 3.137553787231445312e+01 -2.385907411575317383e+00 -8.080467581748962402e-03 -7.181963920593261719e-01 1.910275071859359741e-01
2.020000000000000000e+02 4.925159072875976562e+01 3.174488639831542969e+01 -3.289349079132080078e+00 -5.859634652733802795e-02 -1.004383683204650879e+00 3.923129439353942871e-01
2.030000000000000000e+02 4.914293289184570312e+01 3.101285552978515625e+01 -2.600345849990844727e+00 -3.762825578451156616e-02 -7.913922071456909180e-01 2.106390744447708130e-01
2.040000000000000000e+02 4.989311599731445312e+01 3.090981101989746094e+01 -2.647752046585083008e+00 -1.838988065719604492e-02 -7.998425960540771484e-01 2.295258343219757080e-01
2.050000000000000000e+02 5.074266433715820312e+01 3.154084205627441406e+01 -3.506262302398681641e+00 -3.865620493888854980e-02 -1.063475489616394043e+00 4.007882773876190186e-01
2.060000000000000000e+02 5.139404296875000000e+01 3.070597648620605469e+01 -2.588407993316650391e+00 -2.060747146606445312e-02 -7.827046513557434082e-01 2.509048581123352051e-01
2.070000000000000000e+02 5.148847579956054688e+01 3.143994712829589844e+01 -3.643773794174194336e+00 -6.529916822910308838e-02 -1.112721920013427734e+00 3.980774879455566406e-01
2.080000000000000000e+02 4.999703216552734375e+01 3.164248847961425781e+01 -3.390093326568603516e+00 -5.113025754690170288e-02 -1.032367110252380371e+00 3.858231604099273682e-01
2.090000000000000000e+02 5.064348983764648438e+01 3.080751800537109375e+01 -2.652343511581420898e+00 -1.763299107551574707e-02 -8.009929656982421875e-01 2.272356003522872925e-01
2.100000000000000000e+02 5.276024246215820312e+01 3.054317092895507812e+01 -2.298105478286743164e+00 -9.654189459979534149e-03 -6.923279166221618652e-01 3.204267621040344238e-01
2.110000000000000000e+02 5.333357620239257812e+01 3.038128471374511719e+01 -1.838533401489257812e+00 -3.533577173948287964e-02 -5.621607303619384766e-01 3.998698890209197998e-01
2.120000000000000000e+02 5.463811874389648438e+01 3.029609680175781250e+01 -8.352962732315063477e-01 2.114510163664817810e-02 -2.442453503608703613e-01 8.683593869209289551e-01
2.130000000000000000e+02 5.209500503540039062e+01 3.062204742431640625e+01 -2.508497238159179688e+00 -3.951725363731384277e-02 -7.644043564796447754e-01 2.782578766345977783e-01
2.140000000000000000e+02 5.451832199096679688e+01 3.009292793273925781e+01 -2.826036214828491211e-01 1.399063616991043091e-01 -4.280917719006538391e-02 1.006545305252075195e+00
2.150000000000000000e+02 5.465930175781250000e+01 3.089232826232910156e+01 -2.937091588973999023e+00 5.926156416535377502e-02 -8.633490204811096191e-01 4.319218695163726807e-01
2.160000000000000000e+02 5.295842742919921875e+01 3.126531982421875000e+01 -3.789864540100097656e+00 -5.192665010690689087e-02 -1.152537345886230469e+00 3.781177699565887451e-01
2.170000000000000000e+02 5.467536163330078125e+01 3.047866630554199219e+01 -1.260655403137207031e+00 1.708132028579711914e-02 -3.730722069740295410e-01 6.278771162033081055e-01
2.180000000000000000e+02 5.431122589111328125e+01 3.086658477783203125e+01 -2.955800533294677734e+00 -4.570588842034339905e-02 -9.004518985748291016e-01 4.692553877830505371e-01
2.190000000000000000e+02 5.371856689453125000e+01 3.067699050903320312e+01 -2.384602785110473633e+00 -1.194278802722692490e-02 -7.189636826515197754e-01 4.010481536388397217e-01
2.200000000000000000e+02 5.465973663330078125e+01 3.110541534423828125e+01 -3.522378683090209961e+00 1.399589329957962036e-01 -1.014725923538208008e+00 2.437400370836257935e-01
2.210000000000000000e+02 5.421176528930664062e+01 3.031587791442871094e+01 -1.096890687942504883e+00 4.523589834570884705e-02 -3.154964447021484375e-01 7.274927496910095215e-01
2.220000000000000000e+02 5.426982498168945312e+01 3.116539382934570312e+01 -3.891485452651977539e+00 -9.195252507925033569e-02 -1.195031404495239258e+00 3.144721686840057373e-01
2.230000000000000000e+02 5.222244262695312500e+01 3.135229301452636719e+01 -3.739464044570922852e+00 -4.012279957532882690e-02 -1.133876085281372070e+00 3.896214067935943604e-01
2.240000000000000000e+02 5.459245300292968750e+01 3.133517837524414062e+01 -4.415456295013427734e+00 3.405632823705673218e-02 -1.314419984817504883e+00 3.774085938930511475e-01
2.250000000000000000e+02 5.445686340332031250e+01 3.043854904174804688e+01 -1.368289232254028320e+00 1.315337792038917542e-02 -4.065407514572143555e-01 7.020834684371948242e-01
2.260000000000000000e+02 5.466956710815429688e+01 3.067984771728515625e+01 -1.926526188850402832e+00 -2.867552824318408966e-02 -5.865605473518371582e-01 5.583473443984985352e-01
2.270000000000000000e+02 5.413972854614257812e+01 3.066593360900878906e+01 -2.351155042648315430e+00 -9.611633419990539551e-02 -7.341814041137695312e-01 4.884773790836334229e-01
2.280000000000000000e+02 5.381676864624023438e+01 3.025411415100097656e+01 -1.134488940238952637e+00 1.585852801799774170e-01 -2.927711009979248047e-01 5.787171125411987305e-01
2.290000000000000000e+02 5.370530700683593750e+01 3.121781921386718750e+01 -3.893371343612670898e+00 -5.370441824197769165e-02 -1.184122681617736816e+00 3.504022657871246338e-01
2.300000000000000000e+02 5.440032577514648438e+01 3.065278244018554688e+01 -1.945712208747863770e+00 7.609028369188308716e-02 -5.608865618705749512e-01 5.478581190109252930e-01
2.310000000000000000e+02 5.609937667846679688e+01 3.017792510986328125e+01 2.469826459884643555e+00 1.363788127899169922e+00 1.150084376335144043e+00 2.993062019348144531e+00
2.320000000000000000e+02 5.924005126953125000e+01 3.076646232604980469e+01 1.080046272277832031e+01 1.862471771240234375e+01 8.827553749084472656e+00 -1.576136827468872070e+00
2.330000000000000000e+02 5.891144943237304688e+01 3.157247924804687500e+01 1.201037597656250000e+01 2.164344787597656250e+01 1.009614753723144531e+01 3.445562124252319336e+00
2.340000000000000000e+02 5.847479629516601562e+01 3.248881149291992188e+01 1.635783195495605469e+00 2.270078659057617188e+01 7.300970554351806641e+00 -2.664731442928314209e-01
2.350000000000000000e+02 5.743014144897460938e+01 3.219869995117187500e+01 3.550981283187866211e+00 1.287168312072753906e+01 4.926799297332763672e+00 -8.326264381408691406e+00
2.360000000000000000e+02 5.784831619262695312e+01 3.228284454345703125e+01 1.437403202056884766e+00 2.114844703674316406e+01 6.775755405426025391e+00 -6.384728431701660156e+00
2.370000000000000000e+02 5.601124191284179688e+01 3.078527069091796875e+01 -6.368026733398437500e-01 9.044875204563140869e-02 -1.639061719179153442e-01 9.088771939277648926e-01
2.380000000000000000e+02 5.485320281982421875e+01 3.003998184204101562e+01 1.780568063259124756e-01 5.263012051582336426e-01 2.113073915243148804e-01 1.396170139312744141e+00
2.390000000000000000e+02 5.548321533203125000e+01 3.023788833618164062e+01 7.031241059303283691e-01 5.350614190101623535e-01 3.714556396007537842e-01 1.708458423614501953e+00
2.400000000000000000e+02 5.731404113769531250e+01 3.018229484558105469e+01 5.597882747650146484e+00 1.094703292846679688e+01 4.963474750518798828e+00 9.016390800476074219e+00
2.410000000000000000e+02 5.693894577026367188e+01 3.054404449462890625e+01 5.617961406707763672e+00 2.937207460403442383e+00 2.566550731658935547e+00 5.269856452941894531e+00
2.420000000000000000e+02 5.682979965209960938e+01 3.073862266540527344e+01 3.333860635757446289e+00 8.328656554222106934e-01 1.250017881393432617e+00 2.761670112609863281e+00
2.430000000000000000e+02 5.569633865356445312e+01 3.022842216491699219e+01 1.203614234924316406e+00 6.006907820701599121e-01 5.412915349006652832e-01 1.925311088562011719e+00
2.440000000000000000e+02 5.838728332519531250e+01 3.231104278564453125e+01 1.937149882316589355e+00 2.458336448669433594e+01 7.956154346466064453e+00 -4.940985143184661865e-01
2.450000000000000000e+02 5.869370651245117188e+01 3.202127838134765625e+01 5.938137531280517578e+00 2.423315048217773438e+01 9.051385879516601562e+00 2.895709037780761719e+00
2.460000000000000000e+02 5.880747985839843750e+01 3.174873924255371094e+01 9.854532241821289062e+00 2.344224357604980469e+01 9.989032745361328125e+00 3.996469259262084961e+00
2.470000000000000000e+02 5.898492050170898438e+01 3.117563056945800781e+01 1.424198818206787109e+01 2.014154624938964844e+01 1.031506061553955078e+01 7.002590894699096680e-01
2.480000000000000000e+02 5.512720870971679688e+01 3.281479263305664062e+01 1.252018362283706665e-01 1.322033762931823730e+00 4.341706931591033936e-01 -1.275088071823120117e+00
2.490000000000000000e+02 5.532445907592773438e+01 3.279881668090820312e+01 3.908614516258239746e-01 1.205837368965148926e+00 4.790096282958984375e-01 -1.518639206886291504e+00
2.500000000000000000e+02 5.549345779418945312e+01 3.258372116088867188e+01 2.973950207233428955e-01 1.112521886825561523e+00 4.229750633239746094e-01 -1.469336032867431641e+00
2.510000000000000000e+02 5.500552749633789062e+01 3.155396842956542969e+01 -4.156176567077636719e+00 -8.969146013259887695e-02 -1.273760318756103516e+00 3.849878907203674316e-01
2.520000000000000000e+02 5.652917861938476562e+01 3.266029357910156250e+01 2.253821134567260742e+00 4.402633190155029297e+00 1.996936321258544922e+00 -4.401007175445556641e+00
2.530000000000000000e+02 5.580296325683593750e+01 3.148325920104980469e+01 -3.979521274566650391e+00 6.087940186262130737e-02 -1.175592541694641113e+00 3.357954621315002441e-01
2.540000000000000000e+02 5.503135299682617188e+01 3.176839637756347656e+01 -3.121345996856689453e+00 -6.745375692844390869e-02 -9.566398859024047852e-01 2.720750272274017334e-01
2.550000000000000000e+02 5.571305465698242188e+01 3.275649642944335938e+01 1.043101072311401367e+00 1.705383419990539551e+00 8.245453238487243652e-01 -2.220099449157714844e+00
2.560000000000000000e+02 5.582155609130859375e+01 3.170434570312500000e+01 -2.373911857604980469e+00 9.032437205314636230e-02 -6.850762367248535156e-01 -5.057478696107864380e-02
2.570000000000000000e+02 5.619942474365234375e+01 3.144914817810058594e+01 -3.712680816650390625e+00 8.900712430477142334e-02 -1.087102055549621582e+00 2.700659632682800293e-01
2.580000000000000000e+02 5.680298614501953125e+01 3.138449096679687500e+01 -2.782168149948120117e+00 -1.848086863756179810e-01 -8.900930881500244141e-01 6.570020318031311035e-02
2.590000000000000000e+02 5.853052902221679688e+01 3.218840026855468750e+01 3.539448499679565430e+00 2.492368888854980469e+01 8.538941383361816406e+00 1.442268729209899902e+00
2.600000000000000000e+02 5.777246093750000000e+01 3.246342086791992188e+01 1.230728626251220703e+00 1.875446701049804688e+01 5.995558738708496094e+00 -6.352579593658447266e+00
2.610000000000000000e+02 5.705554962158203125e+01 3.196610450744628906e+01 4.190284252166748047e+00 4.753088951110839844e+00 2.683012008666992188e+00 -5.651525020599365234e+00
2.620000000000000000e+02 5.692438888549804688e+01 3.179027175903320312e+01 2.988188028335571289e+00 1.961797833442687988e+00 1.484995722770690918e+00 -3.498189926147460938e+00
2.630000000000000000e+02 5.677784729003906250e+01 3.116440773010253906e+01 -3.585229396820068359e+00 -1.219428330659866333e-01 -1.112151622772216797e+00 3.018594980239868164e-01
2.640000000000000000e+02 5.791472625732421875e+01 3.009735107421875000e+01 2.697367668151855469e+00 2.248807334899902344e+01 7.555632114410400391e+00 6.693744659423828125e+00
2.650000000000000000e+02 5.898870468139648438e+01 3.035158538818359375e+01 7.819797039031982422e+00 2.128177070617675781e+01 8.730470657348632812e+00 -2.322673320770263672e+00
2.660000000000000000e+02 5.489289855957031250e+01 3.046020126342773438e+01 -1.036469578742980957e+00 4.877462238073348999e-02 -2.963084876537322998e-01 7.514275312423706055e-01
2.670000000000000000e+02 5.515495681762695312e+01 3.106887054443359375e+01 -3.457411527633666992e+00 -7.140622287988662720e-02 -1.058645367622375488e+00 4.045425355434417725e-01
2.680000000000000000e+02 5.497789764404296875e+01 3.130164337158203125e+01 -4.628237724304199219e+00 -2.171561866998672485e-01 -1.453618288040161133e+00 4.386767148971557617e-01
2.690000000000000000e+02 5.897982025146484375e+01 3.074431800842285156e+01 1.210582828521728516e+01 2.104165649414062500e+01 9.944245338439941406e+00 -2.114043235778808594e+00
2.700000000000000000e+02 5.752629470825195312e+01 3.262047576904296875e+01 1.524453043937683105e+00 1.456581306457519531e+01 4.827079772949218750e+00 -6.805171489715576172e+00
2.710000000000000000e+02 5.631954956054687500e+01 3.267701721191406250e+01 2.053788661956787109e+00 3.500239849090576172e+00 1.666208505630493164e+00 -3.834917068481445312e+00
2.720000000000000000e+02 5.706904602050781250e+01 3.227063369750976562e+01 3.707808971405029297e+00 7.385374069213867188e+00 3.327954769134521484e+00 -6.558657646179199219e+00
2.730000000000000000e+02 5.871440124511718750e+01 3.189130783081054688e+01 7.295526027679443359e+00 2.488533973693847656e+01 9.654259681701660156e+00 3.654853582382202148e+00
2.740000000000000000e+02 5.828292846679687500e+01 3.219195556640625000e+01 2.029057979583740234e+00 2.570848274230957031e+01 8.321262359619140625e+00 -1.146512508392333984e+00
2.750000000000000000e+02 5.896570587158203125e+01 3.137939262390136719e+01 1.365817642211914062e+01 2.067933273315429688e+01 1.030125331878662109e+01 2.359391450881958008e+00
2.760000000000000000e+02 5.893548965454101562e+01 3.180963325500488281e+01 9.284964561462402344e+00 2.148892211914062500e+01 9.232166290283203125e+00 3.511181831359863281e+00
2.770000000000000000e+02 5.735565567016601562e+01 3.240792083740234375e+01 2.809849977493286133e+00 1.191365051269531250e+01 4.417049884796142578e+00 -7.457848548889160156e+00
2.780000000000000000e+02 5.807229232788085938e+01 3.227597045898437500e+01 1.155419468879699707e+00 2.403847503662109375e+01 7.558168411254882812e+00 -3.860558748245239258e+00
2.790000000000000000e+02 5.630208587646484375e+01 3.239509963989257812e+01 1.914735078811645508e+00 2.267713785171508789e+00 1.254734635353088379e+00 -3.067790031433105469e+00
2.800000000000000000e+02 5.749830627441406250e+01 3.012360572814941406e+01 4.631065368652343750e+00 1.483987712860107422e+01 5.841282844543457031e+00 9.350048065185546875e+00
2.810000000000000000e+02 5.770323562622070312e+01 3.008399009704589844e+01 3.455818414688110352e+00 1.897277832031250000e+01 6.728579044342041016e+00 8.462476730346679688e+00
2.820000000000000000e+02 5.788272476196289062e+01 2.979341888427734375e+01 2.071223974227905273e+00 1.941773033142089844e+01 6.446686744689941406e+00 6.276739120483398438e+00
2.830000000000000000e+02 5.867272949218750000e+01 3.041458320617675781e+01 7.681201934814453125e+00 2.441790390014648438e+01 9.629732131958007812e+00 -2.171387910842895508e+00
2.840000000000000000e+02 5.648045730590820312e+01 2.992284011840820312e+01 3.962768316268920898e+00 3.611984968185424805e+00 2.272425889968872070e+00 5.118153572082519531e+00
2.850000000000000000e+02 5.878948211669921875e+01 3.059443473815917969e+01 1.029397487640380859e+01 2.314431571960449219e+01 1.003148746490478516e+01 -2.712021112442016602e+00
2.860000000000000000e+02 5.833333206176757812e+01 3.005219650268554688e+01 3.102237224578857422e+00 2.435244369506835938e+01 8.236404418945312500e+00 1.816857814788818359e+00
2.870000000000000000e+02 5.811386108398437500e+01 3.014838790893554688e+01 2.644116401672363281e+00 2.511146545410156250e+01 8.326674461364746094e+00 4.231933116912841797e+00
2.880000000000000000e+02 5.746681594848632812e+01 2.985203361511230469e+01 3.551087141036987305e+00 1.424082088470458984e+01 5.337572097778320312e+00 8.266505241394042969e+00
2.890000000000000000e+02 5.799980926513671875e+01 2.995244216918945312e+01 2.247046232223510742e+00 2.178324508666992188e+01 7.209087371826171875e+00 5.611209392547607422e+00
2.900000000000000000e+02 5.850873947143554688e+01 3.027645492553710938e+01 5.288663864135742188e+00 2.545263290405273438e+01 9.222389221191406250e+00 -6.493050456047058105e-01
2.910000000000000000e+02 5.809207534790039062e+01 3.252693557739257812e+01 7.922463417053222656e-01 2.153985786437988281e+01 6.699631214141845703e+00 -3.676977872848510742e+00
2.920000000000000000e+02 5.914511489868164062e+01 3.173127555847167969e+01 9.938424110412597656e+00 2.006772994995117188e+01 9.001846313476562500e+00 3.298743009567260742e+00
2.930000000000000000e+02 5.907306671142578125e+01 3.188796234130859375e+01 8.053021430969238281e+00 2.063439750671386719e+01 8.606225967407226562e+00 3.500998258590698242e+00
2.940000000000000000e+02 5.922269821166992188e+01 3.135958290100097656e+01 1.220220851898193359e+01 1.876457405090332031e+01 9.290034294128417969e+00 1.775759816169738770e+00
2.950000000000000000e+02 5.821477127075195312e+01 2.978061866760253906e+01 1.893108844757080078e+00 2.149332809448242188e+01 7.015931129455566406e+00 3.451877832412719727e+00
2.960000000000000000e+02 5.836937713623046875e+01 2.985050964355468750e+01 2.231171607971191406e+00 2.224214553833007812e+01 7.341995239257812500e+00 2.263522148132324219e+00
2.970000000000000000e+02 5.867015838623046875e+01 3.008359527587890625e+01 4.571694850921630859e+00 2.320544815063476562e+01 8.333143234252929688e+00 -6.608180403709411621e-01
2.980000000000000000e+02 5.883467483520507812e+01 3.022195625305175781e+01 6.405307769775390625e+00 2.248046112060546875e+01 8.665730476379394531e+00 -1.880491256713867188e+00
2.990000000000000000e+02 5.911950302124023438e+01 3.046278381347656250e+01 8.912837982177734375e+00 1.988582611083984375e+01 8.639598846435546875e+00 -2.322526693344116211e+00
3.000000000000000000e+02 5.919892501831054688e+01 3.059911155700683594e+01 9.889090538024902344e+00 1.908347892761230469e+01 8.691770553588867188e+00 -2.044242382049560547e+00
3.010000000000000000e+02 5.896336364746093750e+01 3.204251480102539062e+01 6.774905681610107422e+00 2.185058212280273438e+01 8.587646484375000000e+00 3.637159585952758789e+00
3.020000000000000000e+02 5.886774063110351562e+01 3.218803787231445312e+01 4.828021049499511719e+00 2.248712539672851562e+01 8.194543838500976562e+00 2.716986179351806641e+00
3.030000000000000000e+02 5.894168853759765625e+01 3.055843544006347656e+01 9.792377471923828125e+00 2.165565490722656250e+01 9.434410095214843750e+00 -2.473012447357177734e+00
3.040000000000000000e+02 5.894358444213867188e+01 3.097546577453613281e+01 1.397810554504394531e+01 2.055502891540527344e+01 1.035994052886962891e+01 -8.713316917419433594e-01
3.050000000000000000e+02 5.861914062500000000e+01 3.242473983764648438e+01 2.359421253204345703e+00 2.258154487609863281e+01 7.482289791107177734e+00 7.335754036903381348e-01
3.060000000000000000e+02 5.851544189453125000e+01 2.995649337768554688e+01 3.162475347518920898e+00 2.316848945617675781e+01 7.899289131164550781e+00 7.286040186882019043e-01
3.070000000000000000e+02 5.831522750854492188e+01 3.019370651245117188e+01 3.607908725738525391e+00 2.581255531311035156e+01 8.826138496398925781e+00 1.504144072532653809e+00
3.080000000000000000e+02 5.918062591552734375e+01 3.155625534057617188e+01 1.131950283050537109e+01 1.944895362854003906e+01 9.230536460876464844e+00 2.772680044174194336e+00
3.090000000000000000e+02 5.868795776367187500e+01 3.214844894409179688e+01 4.599701881408691406e+00 2.360170173645019531e+01 8.460421562194824219e+00 2.243846178054809570e+00
3.100000000000000000e+02 5.712817382812500000e+01 3.264290237426757812e+01 2.494642734527587891e+00 9.436275482177734375e+00 3.579275369644165039e+00 -6.597730636596679688e+00
3.110000000000000000e+02 5.732733917236328125e+01 3.262702178955078125e+01 2.138062715530395508e+00 1.186977577209472656e+01 4.202351570129394531e+00 -6.814803600311279297e+00
3.120000000000000000e+02 5.693077468872070312e+01 3.265496826171875000e+01 2.832134008407592773e+00 7.245988368988037109e+00 3.023436546325683594e+00 -5.986147880554199219e+00
3.130000000000000000e+02 5.696567153930664062e+01 3.244101333618164062e+01 3.023772001266479492e+00 6.600593566894531250e+00 2.887309789657592773e+00 -6.021847724914550781e+00
3.140000000000000000e+02 5.757085418701171875e+01 3.243002700805664062e+01 2.081758737564086914e+00 1.578440475463867188e+01 5.359848976135253906e+00 -7.538382530212402344e+00
3.150000000000000000e+02 5.510698699951171875e+01 3.260429000854492188e+01 -2.746229171752929688e-01 7.247563600540161133e-01 1.350400298833847046e-01 -7.971743345260620117e-01
3.160000000000000000e+02 5.505425262451171875e+01 3.197987365722656250e+01 -2.205494165420532227e+00 1.768850982189178467e-01 -6.085827350616455078e-01 6.401562690734863281e-02
3.170000000000000000e+02 5.771341323852539062e+01 3.262141418457031250e+01 9.959242939949035645e-01 1.678353118896484375e+01 5.333836555480957031e+00 -6.380282402038574219e+00
3.180000000000000000e+02 5.788856506347656250e+01 3.258596420288085938e+01 6.946662664413452148e-01 1.943068313598632812e+01 6.037604808807373047e+00 -5.509490966796875000e+00
3.190000000000000000e+02 5.599977493286132812e+01 3.146967697143554688e+01 -3.866366624832153320e+00 -9.433000534772872925e-02 -1.188209056854248047e+00 2.934465408325195312e-01
3.200000000000000000e+02 5.602139282226562500e+01 3.170663070678710938e+01 -1.977108478546142578e+00 1.840070188045501709e-01 -5.379304289817810059e-01 -2.135861665010452271e-01
3.210000000000000000e+02 5.640106964111328125e+01 3.142864418029785156e+01 -3.489874839782714844e+00 -6.049962341785430908e-02 -1.065112352371215820e+00 1.831622421741485596e-01
3.220000000000000000e+02 5.643134689331054688e+01 3.164099884033203125e+01 -1.077444672584533691e+00 5.096709728240966797e-01 -1.703321039676666260e-01 -5.877178907394409180e-01
3.230000000000000000e+02 5.685227966308593750e+01 3.158582496643066406e+01 6.604169607162475586e-01 6.014231443405151367e-01 3.785520195960998535e-01 -1.397223591804504395e+00
3.240000000000000000e+02 5.602233886718750000e+01 3.119050979614257812e+01 -4.033821105957031250e+00 -8.973448723554611206e-02 -1.237066626548767090e+00 2.741672098636627197e-01
3.250000000000000000e+02 5.641299438476562500e+01 3.049205398559570312e+01 2.644079208374023438e+00 1.080439805984497070e+00 1.117355704307556152e+00 2.774764299392700195e+00
3.260000000000000000e+02 5.517742538452148438e+01 3.128346824645996094e+01 -4.491940498352050781e+00 3.715257346630096436e-02 -1.336436390876770020e+00 3.448488116264343262e-01
3.270000000000000000e+02 5.631457901000976562e+01 3.107634735107421875e+01 -2.771898984909057617e+00 7.797846198081970215e-02 -8.081761598587036133e-01 4.103890061378479004e-01
3.280000000000000000e+02 5.555456161499023438e+01 3.100286483764648438e+01 -3.033000469207763672e+00 -4.567218944430351257e-03 -9.112702608108520508e-01 3.584375083446502686e-01
3.290000000000000000e+02 5.512963485717773438e+01 3.085922813415527344e+01 -2.391351699829101562e+00 -7.340677082538604736e-02 -7.394275069236755371e-01 4.369146227836608887e-01
3.300000000000000000e+02 5.767849731445312500e+01 2.983054733276367188e+01 2.722170352935791016e+00 1.725424194335937500e+01 5.992923259735107422e+00 7.581878662109375000e+00
3.310000000000000000e+02 5.726883316040039062e+01 2.987487411499023438e+01 4.062298297882080078e+00 1.117451953887939453e+01 4.571045398712158203e+00 8.200160026550292969e+00
3.320000000000000000e+02 5.626860427856445312e+01 2.993245887756347656e+01 3.357316493988037109e+00 2.462986469268798828e+00 1.746090888977050781e+00 4.090843200683593750e+00
3.330000000000000000e+02 5.586375808715820312e+01 2.996818351745605469e+01 2.313627243041992188e+00 1.417397022247314453e+00 1.119307279586791992e+00 3.004014968872070312e+00
3.340000000000000000e+02 5.706834411621093750e+01 3.039285850524902344e+01 6.335907459259033203e+00 5.660681247711181641e+00 3.598976612091064453e+00 7.173686027526855469e+00
3.350000000000000000e+02 5.706604003906250000e+01 2.989028930664062500e+01 4.460125446319580078e+00 8.598898887634277344e+00 3.917707443237304688e+00 7.722761154174804688e+00
3.360000000000000000e+02 5.686144256591796875e+01 2.987807464599609375e+01 4.524580955505371094e+00 6.407762527465820312e+00 3.279703140258789062e+00 6.872100353240966797e+00
3.370000000000000000e+02 5.680019760131835938e+01 3.004579162597656250e+01 4.707231998443603516e+00 5.026806831359863281e+00 2.920211553573608398e+00 6.199501037597656250e+00
3.380000000000000000e+02 5.505435943603515625e+01 3.002479362487792969e+01 5.117018818855285645e-01 4.953077733516693115e-01 3.021028935909271240e-01 1.615593910217285156e+00
3.390000000000000000e+02 5.590036773681640625e+01 3.020083808898925781e+01 1.924007058143615723e+00 9.858555197715759277e-01 8.729587793350219727e-01 2.486054182052612305e+00
3.400000000000000000e+02 5.565825271606445312e+01 3.253656005859375000e+01 4.964930713176727295e-01 1.315806388854980469e+00 5.436898469924926758e-01 -1.628016114234924316e+00
3.410000000000000000e+02 5.530516052246093750e+01 3.258991622924804688e+01 7.001511007547378540e-02 1.010170102119445801e+00 3.240555822849273682e-01 -1.218064308166503906e+00
3.420000000000000000e+02 5.524622344970703125e+01 3.176031112670898438e+01 -2.971265316009521484e+00 9.322245419025421143e-02 -8.634128570556640625e-01 2.104474455118179321e-01
3.430000000000000000e+02 5.520966720581054688e+01 3.153930473327636719e+01 -4.145356655120849609e+00 1.210015825927257538e-02 -1.239977002143859863e+00 4.027509987354278564e-01
3.440000000000000000e+02 5.541030883789062500e+01 3.152032661437988281e+01 -4.116005420684814453e+00 -2.911332994699478149e-02 -1.243535637855529785e+00 3.460420370101928711e-01
3.450000000000000000e+02 5.508786010742187500e+01 3.044447708129882812e+01 -7.105391621589660645e-01 1.498601883649826050e-01 -1.682036817073822021e-01 9.375236034393310547e-01
3.460000000000000000e+02 5.493473434448242188e+01 3.087970542907714844e+01 -2.569211483001708984e+00 1.058769878000020981e-03 -7.704457640647888184e-01 3.144930005073547363e-01
3.470000000000000000e+02 5.652038192749023438e+01 3.097467231750488281e+01 -9.767161607742309570e-01 1.027711853384971619e-01 -2.621834874153137207e-01 8.116402626037597656e-01
3.480000000000000000e+02 5.606935119628906250e+01 3.244830322265625000e+01 1.239646792411804199e+00 1.842591285705566406e+00 9.246714115142822266e-01 -2.451206684112548828e+00
3.490000000000000000e+02 5.723482131958007812e+01 3.210253524780273438e+01 4.241226196289062500e+00 8.601854324340820312e+00 3.852924108505249023e+00 -7.513603210449218750e+00
3.500000000000000000e+02 5.590769577026367188e+01 3.272790908813476562e+01 1.352472186088562012e+00 2.254574298858642578e+00 1.082113981246948242e+00 -2.635339736938476562e+00
3.510000000000000000e+02 5.564358520507812500e+01 3.170388031005859375e+01 -2.869911670684814453e+00 9.550220519304275513e-02 -8.323228359222412109e-01 5.344447493553161621e-02
3.520000000000000000e+02 5.560734558105468750e+01 3.149843978881835938e+01 -4.044096946716308594e+00 -7.255386561155319214e-02 -1.234995365142822266e+00 3.682262301445007324e-01
3.530000000000000000e+02 5.580233001708984375e+01 3.119523429870605469e+01 -4.111328125000000000e+00 -1.093057543039321899e-01 -1.266190171241760254e+00 3.704358637332916260e-01
3.540000000000000000e+02 5.558117294311523438e+01 3.123530387878417969e+01 -4.256717681884765625e+00 2.634558826684951782e-02 -1.269111633300781250e+00 3.938435614109039307e-01
3.550000000000000000e+02 5.487357330322265625e+01 3.025066757202148438e+01 -3.814854323863983154e-01 2.772938311100006104e-01 -3.125748410820960999e-02 1.056739926338195801e+00
3.560000000000000000e+02 5.545969772338867188e+01 3.000142860412597656e+01 1.367190003395080566e+00 7.399047613143920898e-01 6.321284174919128418e-01 2.082712650299072266e+00
3.570000000000000000e+02 5.667613601684570312e+01 2.989091110229492188e+01 4.153164863586425781e+00 4.775780200958251953e+00 2.678683519363403320e+00 5.868332862854003906e+00
3.580000000000000000e+02 5.649842834472656250e+01 3.034762382507324219e+01 3.506134033203125000e+00 1.790564179420471191e+00 1.589009404182434082e+00 3.679556608200073242e+00
3.590000000000000000e+02 5.525628662109375000e+01 3.001187705993652344e+01 9.920665025711059570e-01 6.254867911338806152e-01 4.852660000324249268e-01 1.878498196601867676e+00
3.600000000000000000e+02 5.623317718505859375e+01 3.061673164367675781e+01 1.264146685600280762e+00 5.172358751296997070e-01 5.344147682189941406e-01 1.800779700279235840e+00
3.610000000000000000e+02 5.545579147338867188e+01 3.174126434326171875e+01 -2.910527944564819336e+00 1.290158135816454887e-03 -8.727713823318481445e-01 1.732477843761444092e-01
3.620000000000000000e+02 5.529048919677734375e+01 3.063320922851562500e+01 -1.153008818626403809e+00 2.186191827058792114e-02 -3.393440842628479004e-01 7.098687887191772461e-01
3.630000000000000000e+02 5.687599945068359375e+01 3.216421890258789062e+01 3.464216709136962891e+00 4.385726928710937500e+00 2.354983091354370117e+00 -5.155166149139404297e+00
3.640000000000000000e+02 5.677398300170898438e+01 3.095008087158203125e+01 4.506833851337432861e-01 1.734739989042282104e-01 1.872472167015075684e-01 1.224700570106506348e+00
3.650000000000000000e+02 5.711202621459960938e+01 3.018380355834960938e+01 5.663733959197998047e+00 7.670945644378662109e+00 4.000403881072998047e+00 7.921526432037353516e+00
3.660000000000000000e+02 5.654988479614257812e+01 3.237273025512695312e+01 2.533307790756225586e+00 3.430598258972167969e+00 1.789171695709228516e+00 -4.005066394805908203e+00
3.670000000000000000e+02 5.621979904174804688e+01 3.214915084838867188e+01 1.190449237823486328e+00 1.364078640937805176e+00 7.663583159446716309e-01 -2.109181165695190430e+00
3.680000000000000000e+02 5.580176162719726562e+01 3.223806762695312500e+01 2.271049283444881439e-02 8.713564872741699219e-01 2.682200968265533447e-01 -1.296326041221618652e+00
3.690000000000000000e+02 5.507291412353515625e+01 3.023702430725097656e+01 2.159026823937892914e-02 3.124392330646514893e-01 1.002088487148284912e-01 1.287339568138122559e+00
3.700000000000000000e+02 5.616835784912109375e+01 3.095401573181152344e+01 -1.825138449668884277e+00 4.051614552736282349e-02 -5.353866815567016602e-01 6.536857485771179199e-01
3.710000000000000000e+02 5.589170837402343750e+01 3.204639816284179688e+01 -4.191666543483734131e-01 6.248430609703063965e-01 6.170292198657989502e-02 -8.891894817352294922e-01
3.720000000000000000e+02 5.560436630249023438e+01 3.054423332214355469e+01 -9.087030589580535889e-02 2.450768947601318359e-01 4.626197740435600281e-02 1.206899762153625488e+00
3.730000000000000000e+02 5.507324981689453125e+01 3.218804168701171875e+01 -1.473676085472106934e+00 2.154355347156524658e-01 -3.774721622467041016e-01 -2.402840256690979004e-01
3.740000000000000000e+02 5.531960678100585938e+01 3.083520507812500000e+01 -2.203408241271972656e+00 -1.598896645009517670e-02 -6.658191680908203125e-01 4.850362837314605713e-01
3.750000000000000000e+02 5.662564086914062500e+01 3.209908676147460938e+01 2.393786907196044922e+00 2.446388959884643555e+00 1.452052712440490723e+00 -3.425467491149902344e+00
3.760000000000000000e+02 5.577868652343750000e+01 3.093411445617675781e+01 -2.289576768875122070e+00 -7.221179455518722534e-02 -7.085365653038024902e-01 3.891192376613616943e-01
3.770000000000000000e+02 5.529968261718750000e+01 3.238708496093750000e+01 -5.000309348106384277e-01 5.472323298454284668e-01 1.416040863841772079e-02 -7.364474534988403320e-01
3.780000000000000000e+02 5.527317047119140625e+01 3.022953796386718750e+01 3.092584013938903809e-01 3.799590766429901123e-01 2.067652493715286255e-01 1.469260692596435547e+00
3.790000000000000000e+02 5.510596847534179688e+01 3.065123748779296875e+01 -1.496205329895019531e+00 4.820655286312103271e-02 -4.343996047973632812e-01 5.712152123451232910e-01
3.800000000000000000e+02 5.546525955200195312e+01 3.044158554077148438e+01 5.050269886851310730e-02 2.309789508581161499e-01 8.444449305534362793e-02 1.271228075027465820e+00
3.810000000000000000e+02 5.491318130493164062e+01 3.066975021362304688e+01 -1.820108056068420410e+00 -3.269059350714087486e-03 -5.470131039619445801e-01 5.594702959060668945e-01
3.820000000000000000e+02 5.495665359497070312e+01 3.109007644653320312e+01 -3.483794927597045898e+00 -1.834470927715301514e-01 -1.100172638893127441e+00 3.499158322811126709e-01
3.830000000000000000e+02 5.535190582275390625e+01 3.104248809814453125e+01 -3.250515699386596680e+00 2.030895091593265533e-02 -9.690620303153991699e-01 3.594702184200286865e-01
3.840000000000000000e+02 5.566248321533203125e+01 2.998718643188476562e+01 1.796221852302551270e+00 1.102945089340209961e+00 8.697500824928283691e-01 2.544788122177124023e+00
3.850000000000000000e+02 5.606479263305664062e+01 2.994918441772460938e+01 2.875693798065185547e+00 1.880036234855651855e+00 1.426719069480895996e+00 3.517227649688720703e+00
3.860000000000000000e+02 5.630086517333984375e+01 3.015362739562988281e+01 3.123745679855346680e+00 1.925814390182495117e+00 1.514868021011352539e+00 3.622339010238647461e+00
3.870000000000000000e+02 5.651264953613281250e+01 3.015544700622558594e+01 3.949432134628295898e+00 2.573257207870483398e+00 1.956806778907775879e+00 4.476352214813232422e+00
3.880000000000000000e+02 5.673472976684570312e+01 3.021270370483398438e+01 4.734639167785644531e+00 3.688834905624389648e+00 2.527042150497436523e+00 5.483716487884521484e+00
3.890000000000000000e+02 5.805770874023437500e+01 2.975892829895019531e+01 1.764518260955810547e+00 2.071295166015625000e+01 6.743240833282470703e+00 4.790005207061767578e+00
3.900000000000000000e+02 5.924548339843750000e+01 3.095198249816894531e+01 1.205487823486328125e+01 1.856637573242187500e+01 9.186376571655273438e+00 -6.589843034744262695e-01
3.910000000000000000e+02 5.906733322143554688e+01 3.088418006896972656e+01 1.264323806762695312e+01 1.985140991210937500e+01 9.748394012451171875e+00 -1.130660772323608398e+00
3.920000000000000000e+02 5.923562622070312500e+01 3.115476608276367188e+01 1.253857898712158203e+01 1.862382888793945312e+01 9.348722457885742188e+00 5.277753472328186035e-01
3.930000000000000000e+02 5.875139999389648438e+01 3.231715393066406250e+01 3.448908329010009766e+00 2.249595451354980469e+01 7.783458709716796875e+00 1.744323134422302246e+00
3.940000000000000000e+02 5.862572860717773438e+01 3.225695800781250000e+01 3.335242509841918945e+00 2.356288337707519531e+01 8.069437980651855469e+00 1.451140165328979492e+00
3.950000000000000000e+02 5.830295181274414062e+01 3.250482177734375000e+01 8.961428403854370117e-01 2.294322013854980469e+01 7.151808738708496094e+00 -1.999058842658996582e+00
3.960000000000000000e+02 5.763815307617187500e+01 3.224818801879882812e+01 2.304040670394897461e+00 1.737877273559570312e+01 5.904843807220458984e+00 -7.982006072998046875e+00
3.970000000000000000e+02 5.537717056274414062e+01 3.126258277893066406e+01 -4.400860309600830078e+00 -5.296174809336662292e-02 -1.336146712303161621e+00 3.659638464450836182e-01
3.980000000000000000e+02 5.620665740966796875e+01 3.122440147399902344e+01 -4.046446323394775391e+00 9.962815046310424805e-02 -1.184045433998107910e+00 2.429374456405639648e-01
3.990000000000000000e+02 5.637709426879882812e+01 3.121835136413574219e+01 -3.965085744857788086e+00 -7.712078839540481567e-02 -1.212661981582641602e+00 3.462660908699035645e-01
4.000000000000000000e+02 5.656840896606445312e+01 3.118187332153320312e+01 -3.750080823898315430e+00 2.827798016369342804e-02 -1.116540908813476562e+00 3.605715036392211914e-01
4.010000000000000000e+02 5.714746093750000000e+01 3.242903900146484375e+01 3.215433835983276367e+00 9.095050811767578125e+00 3.693145513534545898e+00 -7.019643306732177734e+00
4.020000000000000000e+02 5.673299789428710938e+01 3.265623092651367188e+01 2.557206153869628906e+00 5.724928855895996094e+00 2.484640598297119141e+00 -5.145158290863037109e+00
4.030000000000000000e+02 5.677833938598632812e+01 3.240152359008789062e+01 2.892408370971679688e+00 4.971263885498046875e+00 2.359101772308349609e+00 -5.038194179534912109e+00
4.040000000000000000e+02 5.611098480224609375e+01 3.270246887207031250e+01 1.749146580696105957e+00 2.596349716186523438e+00 1.303648948669433594e+00 -3.145697355270385742e+00
4.050000000000000000e+02 5.552067565917968750e+01 3.278192520141601562e+01 6.437389850616455078e-01 1.597576498985290527e+00 6.723946332931518555e-01 -1.799097418785095215e+00
4.060000000000000000e+02 5.508943557739257812e+01 3.239524078369140625e+01 -7.583546638488769531e-01 4.393755495548248291e-01 -9.569374471902847290e-02 -5.208919048309326172e-01
4.070000000000000000e+02 5.551881790161132812e+01 3.196350288391113281e+01 -1.486542105674743652e+00 2.890873849391937256e-01 -3.592364192008972168e-01 -2.631876468658447266e-01
4.080000000000000000e+02 5.527978134155273438e+01 3.197614669799804688e+01 -1.894250273704528809e+00 9.926345199346542358e-02 -5.384960174560546875e-01 -1.028184145689010620e-01
4.090000000000000000e+02 5.627798843383789062e+01 3.186207580566406250e+01 -2.914736568927764893e-01 6.969409584999084473e-01 1.216401830315589905e-01 -1.083884358406066895e+00
4.100000000000000000e+02 5.622902679443359375e+01 3.166580390930175781e+01 -1.610792517662048340e+00 8.652064204216003418e-02 -4.572815597057342529e-01 -3.115892410278320312e-01
4.110000000000000000e+02 5.660290527343750000e+01 3.140908622741699219e+01 -3.166663646697998047e+00 1.476275622844696045e-01 -9.057108163833618164e-01 1.112783029675483704e-01
4.120000000000000000e+02 5.664031600952148438e+01 3.162490844726562500e+01 -2.456234544515609741e-01 3.000629842281341553e-01 1.633185707032680511e-02 -1.003176093101501465e+00
4.130000000000000000e+02 5.667378616333007812e+01 3.185150718688964844e+01 1.814405441284179688e+00 1.527578473091125488e+00 1.002595186233520508e+00 -2.496609926223754883e+00
4.140000000000000000e+02 5.846116638183593750e+01 3.208042907714843750e+01 3.944493293762207031e+00 2.658565521240234375e+01 9.159044265747070312e+00 1.701839566230773926e+00
4.150000000000000000e+02 5.886568069458007812e+01 3.078911018371582031e+01 1.275480079650878906e+01 2.179190826416015625e+01 1.036401271820068359e+01 -2.234090805053710938e+00
4.160000000000000000e+02 5.816284561157226562e+01 3.003486061096191406e+01 2.514883518218994141e+00 2.432132148742675781e+01 8.050861358642578125e+00 3.838197946548461914e+00
4.170000000000000000e+02 5.658744430541992188e+01 3.062228965759277344e+01 2.748132944107055664e+00 9.365286231040954590e-01 1.105398416519165039e+00 2.635175466537475586e+00
4.180000000000000000e+02 5.639749145507812500e+01 3.078831291198730469e+01 6.000002622604370117e-01 2.591419219970703125e-01 2.577426731586456299e-01 1.348910570144653320e+00
4.190000000000000000e+02 5.669948577880859375e+01 3.042525100708007812e+01 4.447590351104736328e+00 2.213479518890380859e+00 1.998320937156677246e+00 4.312629222869873047e+00
4.200000000000000000e+02 5.692240905761718750e+01 3.020537376403808594e+01 5.154149532318115234e+00 4.957250595092773438e+00 3.033420085906982422e+00 6.484716892242431641e+00
4.210000000000000000e+02 5.555300140380859375e+01 3.220044326782226562e+01 -5.661460161209106445e-01 5.258129835128784180e-01 -1.209990214556455612e-02 -8.093590736389160156e-01
4.220000000000000000e+02 5.550811004638671875e+01 3.079867935180664062e+01 -1.710073113441467285e+00 -1.287410408258438110e-02 -5.168841481208801270e-01 4.907384514808654785e-01
4.230000000000000000e+02 5.569432830810546875e+01 3.073005676269531250e+01 -8.201085925102233887e-01 3.473564609885215759e-02 -2.356118857860565186e-01 7.872437238693237305e-01
4.240000000000000000e+02 5.575402450561523438e+01 3.044835662841796875e+01 5.128080844879150391e-01 4.381338357925415039e-01 2.852825820446014404e-01 1.580491900444030762e+00
4.250000000000000000e+02 5.586985778808593750e+01 3.061287498474121094e+01 1.201199814677238464e-01 2.598482966423034668e-01 1.139904856681823730e-01 1.265483617782592773e+00
4.260000000000000000e+02 5.825016784667968750e+01 2.994729042053222656e+01 2.317228078842163086e+00 2.303830909729003906e+01 7.606660842895507812e+00 3.009872436523437500e+00
4.270000000000000000e+02 5.852245712280273438e+01 3.236465835571289062e+01 2.283932924270629883e+00 2.323362731933593750e+01 7.655268192291259766e+00 3.757810890674591064e-01
4.280000000000000000e+02 5.909751129150390625e+01 3.074517822265625000e+01 1.122881698608398438e+01 1.977055931091308594e+01 9.299813270568847656e+00 -1.841548919677734375e+00
4.290000000000000000e+02 5.812823486328125000e+01 2.986456680297851562e+01 1.912332177162170410e+00 2.186320495605468750e+01 7.132661342620849609e+00 4.162753582000732422e+00
4.300000000000000000e+02 5.908303833007812500e+01 3.059219741821289062e+01 9.983736038208007812e+00 1.999090385437011719e+01 8.992391586303710938e+00 -2.215301275253295898e+00
4.310000000000000000e+02 5.527804565429687500e+01 3.043419837951660156e+01 -2.554040849208831787e-01 2.068845927715301514e-01 -1.455585286021232605e-02 1.098361253738403320e+00
4.320000000000000000e+02 5.546081161499023438e+01 3.061382865905761719e+01 -7.572247982025146484e-01 2.437236346304416656e-02 -2.198557257652282715e-01 8.783460855484008789e-01
4.330000000000000000e+02 5.632755661010742188e+01 3.034512901306152344e+01 2.766904354095458984e+00 1.362638354301452637e+00 1.238862752914428711e+00 3.070465087890625000e+00
4.340000000000000000e+02 5.529889297485351562e+01 3.218538284301757812e+01 -1.140760898590087891e+00 3.732167780399322510e-01 -2.302632331848144531e-01 -4.247288107872009277e-01
4.350000000000000000e+02 5.551424789428710938e+01 3.240800857543945312e+01 3.070597164332866669e-02 8.733828663825988770e-01 2.712266445159912109e-01 -1.181678056716918945e+00
4.360000000000000000e+02 5.573383712768554688e+01 3.188449859619140625e+01 -1.533143639564514160e+00 1.507711112499237061e-01 -4.147117733955383301e-01 -3.201403915882110596e-01
4.370000000000000000e+02 5.584588241577148438e+01 3.247976684570312500e+01 8.050904870033264160e-01 1.331326842308044434e+00 6.409251689910888672e-01 -1.924669265747070312e+00
4.380000000000000000e+02 5.593682098388671875e+01 3.042803001403808594e+01 1.145674109458923340e+00 4.869030117988586426e-01 4.897731244564056396e-01 1.852557539939880371e+00
4.390000000000000000e+02 5.645333480834960938e+01 3.183887100219726562e+01 5.474071502685546875e-01 8.146635890007019043e-01 4.086212217807769775e-01 -1.498173713684082031e+00
4.400000000000000000e+02 5.639646148681640625e+01 3.201943206787109375e+01 1.188791394233703613e+00 1.223183155059814453e+00 7.235923409461975098e-01 -2.166890859603881836e+00
4.410000000000000000e+02 5.613765335083007812e+01 3.040827941894531250e+01 1.840826511383056641e+00 8.774254918098449707e-01 8.154755830764770508e-01 2.329517841339111328e+00
4.420000000000000000e+02 5.601055908203125000e+01 3.222742462158203125e+01 7.891874313354492188e-01 1.097448468208312988e+00 5.659908056259155273e-01 -1.745198726654052734e+00
4.430000000000000000e+02 5.609049987792968750e+01 3.193591117858886719e+01 -5.396777987480163574e-01 3.927496075630187988e-01 -4.407846927642822266e-02 -9.293503165245056152e-01
4.440000000000000000e+02 5.485102462768554688e+01 3.242745971679687500e+01 -8.897852301597595215e-01 4.347742497920989990e-01 -1.365032941102981567e-01 -4.106960892677307129e-01
4.450000000000000000e+02 5.301451492309570312e+01 3.275759887695312500e+01 -1.825432658195495605e+00 7.032829523086547852e-02 -5.265312790870666504e-01 2.354899346828460693e-01
4.460000000000000000e+02 5.459984207153320312e+01 3.242095565795898438e+01 -1.400903582572937012e+00 3.435224294662475586e-01 -3.172143399715423584e-01 -2.544599175453186035e-01
4.470000000000000000e+02 5.485874557495117188e+01 3.262921142578125000e+01 -5.583976507186889648e-01 5.127906799316406250e-01 -1.368209719657897949e-02 -6.169210672378540039e-01
4.480000000000000000e+02 5.236794662475585938e+01 3.285081481933593750e+01 -1.939327716827392578e+00 -2.704582922160625458e-02 -5.899120569229125977e-01 3.610160946846008301e-01
4.490000000000000000e+02 5.303986740112304688e+01 3.200986480712890625e+01 -3.357262134552001953e+00 -1.177912503480911255e-01 -1.042515993118286133e+00 4.916852712631225586e-01
4.500000000000000000e+02 5.373124694824218750e+01 3.185517120361328125e+01 -3.551588535308837891e+00 2.101018559187650681e-03 -1.064846277236938477e+00 4.936175942420959473e-01
4.510000000000000000e+02 5.231502151489257812e+01 3.211204147338867188e+01 -3.136660099029541016e+00 -1.410231925547122955e-02 -9.452286958694458008e-01 4.753594100475311279e-01
4.520000000000000000e+02 5.447478485107421875e+01 3.202094650268554688e+01 -2.751223802566528320e+00 1.053683459758758545e-01 -7.937566041946411133e-01 2.040301710367202759e-01
4.530000000000000000e+02 5.473881149291992188e+01 3.182690429687500000e+01 -3.161752700805664062e+00 1.362531930208206177e-01 -9.076498746871948242e-01 3.899907171726226807e-01
4.540000000000000000e+02 5.460651779174804688e+01 3.161622238159179688e+01 -3.935792922973632812e+00 -1.033237110823392868e-02 -1.183837652206420898e+00 5.280619859695434570e-01
4.550000000000000000e+02 5.480897521972656250e+01 3.223622894287109375e+01 -1.690420269966125488e+00 3.394619524478912354e-01 -4.052875041961669922e-01 -1.024233698844909668e-01
4.560000000000000000e+02 5.428591537475585938e+01 3.235374832153320312e+01 -1.892897367477416992e+00 6.260171532630920410e-02 -5.490886569023132324e-01 2.673700638115406036e-02
4.570000000000000000e+02 5.480718612670898438e+01 3.284554290771484375e+01 -2.347087115049362183e-01 6.516856551170349121e-01 1.250930726528167725e-01 -8.510194420814514160e-01
4.580000000000000000e+02 5.456669235229492188e+01 3.271464157104492188e+01 -6.880079507827758789e-01 4.521478116512298584e-01 -7.075803726911544800e-02 -5.557907223701477051e-01
4.590000000000000000e+02 5.388763809204101562e+01 3.222263336181640625e+01 -2.508784532546997070e+00 3.534353151917457581e-02 -7.420323491096496582e-01 2.375045865774154663e-01
4.600000000000000000e+02 5.416609954833984375e+01 3.278886413574218750e+01 -9.234318137168884277e-01 3.875578045845031738e-01 -1.607621908187866211e-01 -2.626222670078277588e-01
4.610000000000000000e+02 5.420028686523437500e+01 3.185405921936035156e+01 -3.524378299713134766e+00 -1.896008551120758057e-01 -1.114193677902221680e+00 5.032409429550170898e-01
4.620000000000000000e+02 5.362625503540039062e+01 3.275284194946289062e+01 -1.511684417724609375e+00 1.236762702465057373e-01 -4.164024293422698975e-01 8.118387311697006226e-02
4.630000000000000000e+02 5.477403259277343750e+01 3.203313064575195312e+01 -2.345517396926879883e+00 1.586567908525466919e-01 -6.560581922531127930e-01 1.501429378986358643e-01
4.640000000000000000e+02 5.010603713989257812e+01 3.241886520385742188e+01 -2.616777896881103516e+00 -9.975504130125045776e-02 -8.149598240852355957e-01 4.558798372745513916e-01
4.650000000000000000e+02 5.084666061401367188e+01 3.231782531738281250e+01 -2.799499273300170898e+00 -4.119813442230224609e-02 -8.522092103958129883e-01 4.754579067230224609e-01
4.660000000000000000e+02 5.168240356445312500e+01 3.294850540161132812e+01 -1.941363453865051270e+00 9.062732569873332977e-04 -5.821371674537658691e-01 4.098306000232696533e-01
4.670000000000000000e+02 4.947475433349609375e+01 3.324953460693359375e+01 -1.758173823356628418e+00 -9.149870276451110840e-02 -5.549017786979675293e-01 5.102446675300598145e-01
4.680000000000000000e+02 5.020995712280273438e+01 3.315154266357421875e+01 -1.845513820648193359e+00 -6.082899868488311768e-02 -5.719028711318969727e-01 4.751449823379516602e-01
4.690000000000000000e+02 5.094583892822265625e+01 3.305115127563476562e+01 -1.897537589073181152e+00 -7.705421745777130127e-02 -5.923775434494018555e-01 4.598118960857391357e-01
4.700000000000000000e+02 4.936609268188476562e+01 3.251750564575195312e+01 -2.418695211410522461e+00 -4.930749908089637756e-02 -7.404007911682128906e-01 4.352411627769470215e-01
4.710000000000000000e+02 5.158797073364257812e+01 3.221453475952148438e+01 -2.957717657089233398e+00 -9.695812314748764038e-02 -9.164027571678161621e-01 4.758948981761932373e-01
4.720000000000000000e+02 4.727144622802734375e+01 3.360919570922851562e+01 -1.420819759368896484e+00 -1.215315833687782288e-01 -4.627054035663604736e-01 4.869795143604278564e-01
4.730000000000000000e+02 4.715089797973632812e+01 3.287907791137695312e+01 -1.880280256271362305e+00 -8.355481922626495361e-02 -5.891505479812622070e-01 4.181267321109771729e-01
4.740000000000000000e+02 4.641378021240234375e+01 3.299990844726562500e+01 -1.685289263725280762e+00 -8.702053129673004150e-02 -5.316929221153259277e-01 3.791148066520690918e-01
4.750000000000000000e+02 4.788861083984375000e+01 3.275563049316406250e+01 -2.071709156036376953e+00 -8.468934148550033569e-02 -6.469195485115051270e-01 4.408152997493743896e-01
4.760000000000000000e+02 4.873987197875976562e+01 3.336110687255859375e+01 -1.644388675689697266e+00 -5.937382578849792480e-02 -5.111287832260131836e-01 4.788478910923004150e-01
4.770000000000000000e+02 4.862693405151367188e+01 3.262971878051757812e+01 -2.238129138946533203e+00 -6.999775022268295288e-02 -6.924380660057067871e-01 4.494772553443908691e-01
4.780000000000000000e+02 4.653813171386718750e+01 3.372938919067382812e+01 -1.287907361984252930e+00 -1.074214726686477661e-01 -4.185986220836639404e-01 5.030926465988159180e-01
4.790000000000000000e+02 4.800535202026367188e+01 3.348638153076171875e+01 -1.521656036376953125e+00 -9.475168585777282715e-02 -4.849222898483276367e-01 4.979213178157806396e-01
4.800000000000000000e+02 4.420226669311523438e+01 3.339414215087890625e+01 -1.148351192474365234e+00 -4.882603511214256287e-02 -3.591531813144683838e-01 2.932216227054595947e-01
4.810000000000000000e+02 4.433515167236328125e+01 3.412211608886718750e+01 -8.869042396545410156e-01 -1.405197978019714355e-01 -3.082272112369537354e-01 3.890999257564544678e-01
4.820000000000000000e+02 4.346595001220703125e+01 3.352351760864257812e+01 -9.861829280853271484e-01 -7.982724905014038086e-02 -3.198030591011047363e-01 2.559919357299804688e-01
4.830000000000000000e+02 4.493911361694335938e+01 3.326211166381835938e+01 -1.314967751502990723e+00 -9.816810488700866699e-02 -4.239407479763031006e-01 3.204736411571502686e-01
4.840000000000000000e+02 4.580409240722656250e+01 3.385649871826171875e+01 -1.152285933494567871e+00 -1.392517983913421631e-01 -3.874613046646118164e-01 4.510324001312255859e-01
4.850000000000000000e+02 4.567650985717773438e+01 3.312757492065429688e+01 -1.491522550582885742e+00 -6.140975654125213623e-02 -4.658797085285186768e-01 3.650612235069274902e-01
4.860000000000000000e+02 4.360148620605468750e+01 3.425101852416992188e+01 -7.892985343933105469e-01 -9.780613332986831665e-02 -2.661314010620117188e-01 3.536374270915985107e-01
4.870000000000000000e+02 4.506934738159179688e+01 3.399055862426757812e+01 -1.020485281944274902e+00 -1.181662455201148987e-01 -3.415954411029815674e-01 4.340197145938873291e-01
4.880000000000000000e+02 4.139850234985351562e+01 3.467833328247070312e+01 -4.906437397003173828e-01 -1.071568056941032410e-01 -1.793401688337326050e-01 2.426076829433441162e-01
4.890000000000000000e+02 4.199465942382812500e+01 3.380642318725585938e+01 -7.296262383460998535e-01 -6.845082342624664307e-02 -2.394231110811233521e-01 1.989381611347198486e-01
4.900000000000000000e+02 4.052394866943359375e+01 3.409660720825195312e+01 -5.217466354370117188e-01 -5.858665332198143005e-02 -1.740999817848205566e-01 1.474971473217010498e-01
4.910000000000000000e+02 4.213290405273437500e+01 3.453341293334960938e+01 -5.793161988258361816e-01 -8.997315168380737305e-02 -2.007867991924285889e-01 2.886720001697540283e-01
4.920000000000000000e+02 4.272992324829101562e+01 3.366130447387695312e+01 -8.453028798103332520e-01 -4.336869344115257263e-02 -2.666014730930328369e-01 2.317238748073577881e-01
4.930000000000000000e+02 4.286724853515625000e+01 3.438847732543945312e+01 -6.890333294868469238e-01 -1.200840249657630920e-01 -2.427352070808410645e-01 3.174142241477966309e-01
4.940000000000000000e+02 4.066404342651367188e+01 3.482323455810546875e+01 -4.164513051509857178e-01 -6.854404509067535400e-02 -1.454986035823822021e-01 2.207666188478469849e-01
4.950000000000000000e+02 4.125933456420898438e+01 3.395152664184570312e+01 -6.197742223739624023e-01 -3.255602717399597168e-02 -1.956990808248519897e-01 1.801064461469650269e-01
4.960000000000000000e+02 3.905131912231445312e+01 3.438002777099609375e+01 -3.495610058307647705e-01 -4.871506989002227783e-02 -1.194828227162361145e-01 1.008059605956077576e-01
4.970000000000000000e+02 3.845631790161132812e+01 3.524533081054687500e+01 -2.258736044168472290e-01 -7.174249738454818726e-02 -8.928482979536056519e-02 1.398929357528686523e-01
4.980000000000000000e+02 3.757802581787109375e+01 3.465816116333007812e+01 -2.180146872997283936e-01 -3.640750423073768616e-02 -7.632665336132049561e-02 6.993314623832702637e-02
4.990000000000000000e+02 3.992870712280273438e+01 3.496635818481445312e+01 -3.531982004642486572e-01 -8.803914487361907959e-02 -1.323712021112442017e-01 1.846569329500198364e-01
5.000000000000000000e+02 3.978794097900390625e+01 3.423986434936523438e+01 -4.296702146530151367e-01 -1.945072598755359650e-02 -1.347362846136093140e-01 1.314663439989089966e-01
5.010000000000000000e+02 3.772006225585937500e+01 3.538441467285156250e+01 -1.856236457824707031e-01 -3.613647073507308960e-02 -6.652803719043731689e-02 1.145600900053977966e-01
5.020000000000000000e+02 3.919250869750976562e+01 3.510644531250000000e+01 -2.930145859718322754e-01 -5.063562467694282532e-02 -1.030950620770454407e-01 1.705674976110458374e-01
5.030000000000000000e+02 3.831470489501953125e+01 3.451899719238281250e+01 -2.806476950645446777e-01 -7.044649682939052582e-03 -8.630770444869995117e-02 8.956186473369598389e-02
5.040000000000000000e+02 3.551680755615234375e+01 3.582569122314453125e+01 -8.365435153245925903e-02 -4.082198068499565125e-02 -3.734289854764938354e-02 5.826893076300621033e-02
5.050000000000000000e+02 3.610754394531250000e+01 3.495201110839843750e+01 -1.266722679138183594e-01 -2.439502626657485962e-02 -4.532018676400184631e-02 4.389547556638717651e-02
5.060000000000000000e+02 3.463803482055664062e+01 3.524788665771484375e+01 -6.390017271041870117e-02 -1.997540332376956940e-02 -2.516267262399196625e-02 2.279184386134147644e-02
5.070000000000000000e+02 3.684228134155273438e+01 3.480297470092773438e+01 -1.672627925872802734e-01 -6.449993699789047241e-03 -5.211383476853370667e-02 5.809015780687332153e-02
5.080000000000000000e+02 3.698487472534179688e+01 3.552911758422851562e+01 -1.444232165813446045e-01 -5.319392308592796326e-02 -5.928514152765274048e-02 9.787423163652420044e-02
5.090000000000000000e+02 3.478272247314453125e+01 3.597360992431640625e+01 -5.881404504179954529e-02 -1.333947572857141495e-02 -2.164605632424354553e-02 5.473879724740982056e-02
5.100000000000000000e+02 3.625083541870117188e+01 3.567801284790039062e+01 -1.062561050057411194e-01 -2.697243914008140564e-02 -3.996856510639190674e-02 8.029337227344512939e-02
5.110000000000000000e+02 3.537281799316406250e+01 3.509983062744140625e+01 -9.064620733261108398e-02 -2.987181534990668297e-03 -2.809001691639423370e-02 3.737870976328849792e-02
5.120000000000000000e+02 3.242737579345703125e+01 3.568672943115234375e+01 -1.158776786178350449e-02 3.950656857341527939e-03 -2.291133161634206772e-03 8.722005411982536316e-03
5.130000000000000000e+02 3.169006347656250000e+01 3.583216094970703125e+01 -1.175408018752932549e-03 -8.257565088570117950e-03 -2.829891862347722054e-03 4.650108050554990768e-03
5.140000000000000000e+02 3.330534362792968750e+01 3.626757049560546875e+01 -3.007731586694717407e-02 -4.393553535919636488e-04 -9.155001491308212280e-03 2.625386230647563934e-02
5.150000000000000000e+02 3.316469573974609375e+01 3.554105377197265625e+01 -2.444258145987987518e-02 -1.495471596717834473e-02 -1.181918848305940628e-02 1.196589227765798569e-02
5.160000000000000000e+02 3.390202713012695312e+01 3.539514541625976562e+01 -4.247671365737915039e-02 4.035187419503927231e-03 -1.153245847672224045e-02 2.043371461331844330e-02
5.170000000000000000e+02 3.404560089111328125e+01 3.612108612060546875e+01 -3.633447363972663879e-02 -3.472847491502761841e-02 -2.131888456642627716e-02 3.353721275925636292e-02
5.180000000000000000e+02 3.182485580444335938e+01 3.655983352661132812e+01 -9.047130122780799866e-03 -1.566007267683744431e-03 -3.183941124007105827e-03 1.395046338438987732e-02
5.190000000000000000e+02 3.256509399414062500e+01 3.641382217407226562e+01 -1.696125045418739319e-02 -2.190743386745452881e-02 -1.166060473769903183e-02 2.290510386228561401e-02
5.200000000000000000e+02 2.946516418457031250e+01 3.621912765502929688e+01 1.162170059978961945e-02 2.155169844627380371e-03 4.133061040192842484e-03 -1.451303949579596519e-03
5.210000000000000000e+02 2.958438682556152344e+01 3.694947052001953125e+01 5.491306073963642120e-03 -4.678305704146623611e-03 2.439000818412750959e-04 2.422541147097945213e-03
5.220000000000000000e+02 2.872264671325683594e+01 3.634394836425781250e+01 1.251498050987720490e-02 -1.378649612888693810e-03 3.340899245813488960e-03 -1.823745784349739552e-03
5.230000000000000000e+02 3.020768547058105469e+01 3.609378433227539062e+01 1.007161010056734085e-02 -4.020024556666612625e-03 1.815475639887154102e-03 -3.368942416273057461e-04
5.240000000000000000e+02 3.095018768310546875e+01 3.596792221069335938e+01 5.802962463349103928e-03 2.456424990668892860e-03 2.477816306054592133e-03 2.133050933480262756e-03
5.250000000000000000e+02 3.108069419860839844e+01 3.669636154174804688e+01 -1.672533922828733921e-03 -1.300461217761039734e-02 -4.403143655508756638e-03 1.044904347509145737e-02
5.260000000000000000e+02 2.883622932434082031e+01 3.707524490356445312e+01 5.744996946305036545e-03 2.795680775307118893e-04 1.807369524613022804e-03 -1.460694940760731697e-03
5.270000000000000000e+02 3.033255004882812500e+01 3.682317352294921875e+01 1.716038794256746769e-03 -9.254346950910985470e-04 2.371812297496944666e-04 3.487569978460669518e-03
5.280000000000000000e+02 2.647223281860351562e+01 3.666142654418945312e+01 9.793289005756378174e-03 1.053119311109185219e-03 3.253922564908862114e-03 -1.795314485207200050e-03
5.290000000000000000e+02 2.572040748596191406e+01 3.676027679443359375e+01 9.031190536916255951e-03 -2.799762296490371227e-04 2.625364344567060471e-03 -1.607649028301239014e-03
5.300000000000000000e+02 2.731099891662597656e+01 3.729562377929687500e+01 6.034922786056995392e-03 7.364327320829033852e-04 2.031406620517373085e-03 -1.978063723072409630e-03
5.310000000000000000e+02 2.722403526306152344e+01 3.656066131591796875e+01 1.099885813891887665e-02 -3.757535305339843035e-04 3.186931367963552475e-03 -2.119727665558457375e-03
5.320000000000000000e+02 2.797564125061035156e+01 3.645804595947265625e+01 1.206759829074144363e-02 1.219624886289238930e-03 3.986166790127754211e-03 -2.161989454180002213e-03
5.330000000000000000e+02 2.807846832275390625e+01 3.719087982177734375e+01 5.759696010500192642e-03 -8.218160364776849747e-04 1.481364015489816666e-03 -1.181207597255706787e-03
5.340000000000000000e+02 2.577564430236816406e+01 3.749948883056640625e+01 4.352346062660217285e-03 1.543326419778168201e-03 1.768701709806919098e-03 -1.890513696707785130e-03
5.350000000000000000e+02 2.654333496093750000e+01 3.739851379394531250e+01 5.776200909167528152e-03 -7.767156785121187568e-05 1.709558768197894096e-03 -2.368571469560265541e-03
5.360000000000000000e+02 2.340743637084960938e+01 3.754123687744140625e+01 2.981315599754452705e-03 -3.671652812045067549e-04 7.842450868338346481e-04 -1.517130527645349503e-03
5.370000000000000000e+02 2.266618919372558594e+01 3.679620742797851562e+01 3.191609401255846024e-03 1.902408694149926305e-04 1.014555105939507484e-03 -4.690682690124958754e-04
5.380000000000000000e+02 2.419788742065429688e+01 3.680555725097656250e+01 5.646442063152790070e-03 -1.586160797160118818e-04 1.646347809582948685e-03 -5.304077640175819397e-04
5.390000000000000000e+02 2.496211051940917969e+01 3.680892944335937500e+01 7.332860492169857025e-03 8.279347093775868416e-04 2.448238665238022804e-03 -1.176061923615634441e-03
5.400000000000000000e+02 2.499495697021484375e+01 3.754912567138671875e+01 4.934407304972410202e-03 -1.562851975904777646e-04 1.433436642400920391e-03 -1.595346257090568542e-03
5.410000000000000000e+02 2.261228370666503906e+01 3.753591537475585938e+01 1.962846145033836365e-03 7.703573792241513729e-04 8.199610165320336819e-04 -1.533425180241465569e-03
5.420000000000000000e+02 2.343242454528808594e+01 3.680136489868164062e+01 4.315333440899848938e-03 1.410005279467441142e-05 1.298830029554665089e-03 -6.621647626161575317e-04
5.430000000000000000e+02 2.420181655883789062e+01 3.754558944702148438e+01 4.221950657665729523e-03 7.858815370127558708e-04 1.502349739894270897e-03 -2.256606705486774445e-03
5.440000000000000000e+02 1.998039245605468750e+01 3.692026138305664062e+01 5.167308263480663300e-04 4.151381726842373610e-04 2.795606851577758789e-04 -3.143236681353300810e-04
5.450000000000000000e+02 2.062745285034179688e+01 3.732268142700195312e+01 8.442026446573436260e-04 -1.419513137079775333e-04 2.106753963744267821e-04 -5.565343890339136124e-04
5.460000000000000000e+02 2.113145446777343750e+01 3.686664581298828125e+01 1.271673827432096004e-03 1.806247310014441609e-04 4.356895806267857552e-04 -3.955774591304361820e-04
5.470000000000000000e+02 2.021580696105957031e+01 3.715901565551757812e+01 1.193897216580808163e-03 3.786117304116487503e-04 4.717526899185031652e-04 -6.603843648917973042e-04
5.480000000000000000e+02 2.186282539367675781e+01 3.673282623291015625e+01 1.749789342284202576e-03 -1.595897047081962228e-04 4.770598607137799263e-04 -3.562806232366710901e-04
5.490000000000000000e+02 2.186202239990234375e+01 3.748466491699218750e+01 1.756252720952033997e-03 -2.934399235527962446e-04 4.388438246678560972e-04 -9.857345139607787132e-04
5.500000000000000000e+02 2.119230079650878906e+01 3.743341445922851562e+01 1.161696272902190685e-03 4.125525010749697685e-04 4.722746380139142275e-04 -8.340395870618522167e-04
5.510000000000000000e+02 2.068652153015136719e+01 3.649208450317382812e+01 3.618324990384280682e-04 -7.713062950642779469e-05 8.541056013200432062e-05 -1.963272807188332081e-04
5.520000000000000000e+02 2.102560424804687500e+01 3.579481887817382812e+01 1.715647405944764614e-03 1.370804966427385807e-03 9.259356884285807610e-04 2.015939448028802872e-03
5.530000000000000000e+02 2.197462081909179688e+01 3.519912338256835938e+01 -3.145454451441764832e-03 -3.471474628895521164e-03 -1.985078677535057068e-03 4.761583986692130566e-04
5.540000000000000000e+02 2.189435958862304688e+01 3.593660354614257812e+01 5.488030146807432175e-03 -1.041842391714453697e-03 1.333856373094022274e-03 2.007153816521167755e-03
5.550000000000000000e+02 2.057264900207519531e+01 3.514139175415039062e+01 3.591608256101608276e-04 5.654222331941127777e-03 1.804014900699257851e-03 1.603633398190140724e-03
5.560000000000000000e+02 2.112965202331542969e+01 3.506163787841796875e+01 -1.096530832001008093e-04 1.302437507547438145e-03 3.578353498596698046e-04 2.398769138380885124e-03
5.570000000000000000e+02 2.202296447753906250e+01 3.430863189697265625e+01 -9.487515315413475037e-03 -7.670567836612462997e-03 -5.147424992173910141e-03 -5.406395066529512405e-03
5.580000000000000000e+02 2.542288589477539062e+01 3.341648101806640625e+01 -8.816494047641754150e-02 -1.973955146968364716e-02 -3.237134590744972229e-02 -7.161539793014526367e-02
5.590000000000000000e+02 2.696968078613281250e+01 3.424983215332031250e+01 -1.250599175691604614e-01 1.782859908416867256e-03 -3.698311746120452881e-02 -5.871042236685752869e-02
5.600000000000000000e+02 2.193724632263183594e+01 3.221936416625976562e+01 -1.310872752219438553e-02 -4.233838617801666260e-02 -1.663413457572460175e-02 -3.092796728014945984e-02
5.610000000000000000e+02 2.099770736694335938e+01 2.404150962829589844e+01 -1.364000840112566948e-03 -4.906616210937500000e-01 -1.476076841354370117e-01 -4.542237892746925354e-02
5.620000000000000000e+02 2.584694290161132812e+01 1.612560653686523438e+01 4.143296554684638977e-02 -6.327698230743408203e-01 -1.774010658264160156e-01 -3.115888237953186035e-01
5.630000000000000000e+02 3.372705078125000000e+01 1.123547554016113281e+01 2.057894170284271240e-01 2.719217538833618164e-01 1.433133482933044434e-01 -2.286936491727828979e-01
5.640000000000000000e+02 5.919953155517578125e+01 -1.280073547363281250e+01 -7.502397894859313965e-02 5.542315483093261719e+00 1.640187382698059082e+00 1.798870600759983063e-02
5.650000000000000000e+02 6.328410720825195312e+01 -1.566027259826660156e+01 -5.297140777111053467e-02 6.278695106506347656e+00 1.867717146873474121e+00 -4.612988792359828949e-03
5.660000000000000000e+02 7.250470733642578125e+01 -2.449063110351562500e+01 -3.036466194316744804e-03 7.993718624114990234e+00 2.397204637527465820e+00 4.538892768323421478e-03
5.670000000000000000e+02 7.796714019775390625e+01 -3.051694679260253906e+01 -8.076943457126617432e-03 9.022195816040039062e+00 2.704235792160034180e+00 -5.126446485519409180e-03
5.680000000000000000e+02 7.935945892333984375e+01 -2.646352005004882812e+01 1.519142184406518936e-03 9.285479545593261719e+00 2.786099433898925781e+00 -8.672634139657020569e-03
5.690000000000000000e+02 7.807414245605468750e+01 -2.368486595153808594e+01 -2.097047865390777588e-03 9.042945861816406250e+00 2.712254762649536133e+00 -7.980886846780776978e-03
5.700000000000000000e+02 7.935158538818359375e+01 -2.229294204711914062e+01 -1.064093550667166710e-03 9.286207199096679688e+00 2.785542726516723633e+00 -1.056525111198425293e-02
5.710000000000000000e+02 7.286365509033203125e+01 -1.101808071136474609e+01 -3.341909497976303101e-02 8.059906005859375000e+00 2.407946109771728516e+00 -5.124779418110847473e-02
5.720000000000000000e+02 6.012098693847656250e+01 3.956371247768402100e-01 -2.606386244297027588e-01 5.947648525238037109e+00 1.706102967262268066e+00 5.805440619587898254e-02
5.730000000000000000e+02 4.799896240234375000e+01 1.303929328918457031e+01 2.970266938209533691e-01 2.859014511108398438e+00 9.468123316764831543e-01 6.932077407836914062e-01
5.740000000000000000e+02 4.359241867065429688e+01 2.072794532775878906e+01 4.596425294876098633e-01 8.870417475700378418e-01 4.040052890777587891e-01 1.303222775459289551e-01
5.750000000000000000e+02 3.835384368896484375e+01 2.876379394531250000e+01 -6.619926095008850098e-01 1.172040924429893494e-01 -1.634365618228912354e-01 -3.784172236919403076e-01
5.760000000000000000e+02 3.202466201782226562e+01 3.275596618652343750e+01 -4.432476460933685303e-01 4.037217423319816589e-02 -1.208626478910446167e-01 -1.381022036075592041e-01
5.770000000000000000e+02 2.987168121337890625e+01 3.385627365112304688e+01 -2.781233787536621094e-01 2.078557945787906647e-02 -7.720134407281875610e-02 -7.794366776943206787e-02
5.780000000000000000e+02 1.826448822021484375e+01 -3.776827239990234375e+01 -4.161813855171203613e-01 -1.637783885002136230e+00 -6.161895990371704102e-01 -7.710815668106079102e-01
5.790000000000000000e+02 1.714114189147949219e+01 -3.809717178344726562e+01 2.110664397478103638e-01 1.175725311040878296e-01 9.859169274568557739e-02 -2.052704989910125732e-01
5.800000000000000000e+02 1.880717277526855469e+01 -3.947714233398437500e+01 1.504548639059066772e-01 -1.117550492286682129e+00 -2.901287078857421875e-01 -3.481534421443939209e-01
5.810000000000000000e+02 1.486363506317138672e+01 -3.764860153198242188e+01 1.362180560827255249e-01 -3.499166294932365417e-02 3.036791458725929260e-02 -1.693179016001522541e-03
5.820000000000000000e+02 1.602859687805175781e+01 -3.760453796386718750e+01 2.302486151456832886e-01 1.034323051571846008e-01 1.001042798161506653e-01 -1.522796899080276489e-01
5.830000000000000000e+02 1.204674816131591797e+01 -3.208669662475585938e+01 4.383016843348741531e-03 2.865994581952691078e-03 2.174703404307365417e-03 -5.537978373467922211e-03
5.840000000000000000e+02 6.699119806289672852e-01 -2.482444000244140625e+01 -1.142985885962843895e-03 -7.667744648642838001e-04 -5.729281110689043999e-04 -7.306605402845889330e-05
5.850000000000000000e+02 7.034658789634704590e-01 -3.047152709960937500e+01 -1.138363615609705448e-03 5.163747700862586498e-04 -1.865966478362679482e-04 6.655726465396583080e-04
5.860000000000000000e+02 7.168638110160827637e-01 -3.188594818115234375e+01 1.424485468305647373e-03 2.102105179801583290e-03 1.057977206073701382e-03 9.077155264094471931e-04
5.870000000000000000e+02 7.279788255691528320e-01 -3.743823242187500000e+01 1.062045106664299965e-03 1.376792415976524353e-02 4.448990803211927414e-03 1.883098157122731209e-03
5.880000000000000000e+02 7.861046314239501953e+00 -4.141959762573242188e+01 -2.244384773075580597e-02 7.285929284989833832e-03 -4.547375254333019257e-03 6.238759960979223251e-03
5.890000000000000000e+02 1.491242027282714844e+01 -4.034253692626953125e+01 -8.144365251064300537e-02 -1.031795963644981384e-01 -5.538697540760040283e-02 -5.499452352523803711e-03
5.900000000000000000e+02 2.036524009704589844e+01 -3.731850051879882812e+01 -1.724638193845748901e-01 -1.554279446601867676e+00 -5.180230140686035156e-01 -7.741300761699676514e-02
5.910000000000000000e+02 1.961183166503906250e+01 -2.785116577148437500e+01 -4.815323336515575647e-05 -1.941538691520690918e+00 -5.824760198593139648e-01 -5.059454124420881271e-03
5.920000000000000000e+02 2.142813491821289062e+01 -3.264209365844726562e+01 -8.294052630662918091e-02 -1.673959374427795410e+00 -5.270699858665466309e-01 -1.036332100629806519e-01
5.930000000000000000e+02 1.955999374389648438e+01 -3.518733215332031250e+01 -1.632683873176574707e-01 -2.327598571777343750e+00 -7.472600936889648438e-01 -2.891638875007629395e-01
5.940000000000000000e+02 1.911925697326660156e+01 -3.660488128662109375e+01 -3.523954153060913086e-01 -2.204954862594604492e+00 -7.672050595283508301e-01 -5.510361194610595703e-01
5.950000000000000000e+02 1.962933731079101562e+01 -2.366677474975585938e+01 1.829163730144500732e-02 -1.849587082862854004e+00 -5.493885874748229980e-01 -4.585929214954376221e-02
5.960000000000000000e+02 1.973257827758789062e+01 -2.087536048889160156e+01 -7.550248410552740097e-03 -1.885627985000610352e+00 -5.679534673690795898e-01 -5.416268855333328247e-02
5.970000000000000000e+02 2.099072647094726562e+01 -2.486885452270507812e+01 2.677590958774089813e-02 -1.661920905113220215e+00 -4.905435144901275635e-01 -5.111422762274742126e-02
5.980000000000000000e+02 2.057627487182617188e+01 -2.677013874053955078e+00 -2.703305333852767944e-02 -1.898266792297363281e+00 -5.775899887084960938e-01 -1.198435798287391663e-01
5.990000000000000000e+02 2.033809089660644531e+01 -8.272734642028808594e+00 7.935021421872079372e-04 -1.909238815307617188e+00 -5.725336074829101562e-01 -3.204772993922233582e-02
6.000000000000000000e+02 2.159300422668457031e+01 -1.097551727294921875e+01 -1.239707879722118378e-02 -1.700440764427185059e+00 -5.138513445854187012e-01 -6.138106435537338257e-02
6.010000000000000000e+02 2.488090515136718750e+01 -2.631159019470214844e+01 9.256371413357555866e-04 -9.324889779090881348e-01 -2.794690132141113281e-01 -6.061680242419242859e-02
6.020000000000000000e+02 3.449558639526367188e+01 -3.392144775390625000e+01 3.632114082574844360e-02 8.641319870948791504e-01 2.701359391212463379e-01 1.578306593000888824e-02
6.030000000000000000e+02 4.329132080078125000e+01 -3.695729064941406250e+01 3.337516635656356812e-02 2.475808858871459961e+00 7.527552247047424316e-01 1.617432013154029846e-02
6.040000000000000000e+02 4.761679458618164062e+01 -4.085070419311523438e+01 2.071140520274639130e-02 3.300746440887451172e+00 9.964373707771301270e-01 6.835320498794317245e-03
6.050000000000000000e+02 4.796380615234375000e+01 -3.748153305053710938e+01 2.943234518170356750e-02 3.380577325820922852e+00 1.023002982139587402e+00 8.725290186703205109e-03
6.060000000000000000e+02 6.226508712768554688e+01 -4.095602416992187500e+01 1.041350141167640686e-02 6.087920665740966797e+00 1.829500198364257812e+00 -3.606533864513039589e-04
6.070000000000000000e+02 5.739585494995117188e+01 -4.096647644042968750e+01 1.882174052298069000e-02 5.161993026733398438e+00 1.554244399070739746e+00 5.965362302958965302e-03
6.080000000000000000e+02 5.641396331787109375e+01 -3.131364059448242188e+01 6.006565876305103302e-03 4.989012241363525391e+00 1.498505592346191406e+00 1.184088177978992462e-02
6.090000000000000000e+02 5.591060256958007812e+01 -2.269364929199218750e+01 -2.474452555179595947e-02 4.866560935974121094e+00 1.452544808387756348e+00 3.405349701642990112e-02
6.100000000000000000e+02 5.808100128173828125e+01 -1.629939842224121094e+01 -4.946723952889442444e-02 5.302381515502929688e+00 1.575874209403991699e+00 2.127353847026824951e-02
6.110000000000000000e+02 5.894970703125000000e+01 -1.118804454803466797e+01 -7.891049981117248535e-02 5.507681846618652344e+00 1.628631472587585449e+00 3.474624082446098328e-02
6.120000000000000000e+02 4.586101531982421875e+01 -7.891631603240966797e+00 4.631249699741601944e-03 2.950182914733886719e+00 8.864442706108093262e-01 9.735810011625289917e-02
6.130000000000000000e+02 5.437055969238281250e+01 -5.651772022247314453e+00 -1.109121963381767273e-01 4.661419868469238281e+00 1.365152239799499512e+00 1.129805520176887512e-01
6.140000000000000000e+02 3.931950759887695312e+01 -3.761860847473144531e+00 6.367164105176925659e-02 1.603606581687927246e+00 5.001834630966186523e-01 4.812284186482429504e-02
6.150000000000000000e+02 3.235749816894531250e+01 -1.318989753723144531e+00 6.848329305648803711e-02 2.708778679370880127e-01 1.018083468079566956e-01 -4.865242913365364075e-02
6.160000000000000000e+02 2.729214668273925781e+01 -2.202911853790283203e+00 3.044367022812366486e-02 -6.234526038169860840e-01 -1.779026836156845093e-01 -7.879476249217987061e-02
6.170000000000000000e+02 2.047071647644042969e+01 -4.076793670654296875e+00 5.815291311591863632e-03 -1.798492312431335449e+00 -5.378031134605407715e-01 -1.181057691574096680e-01
6.180000000000000000e+02 2.026476287841796875e+01 -1.108173465728759766e+01 9.158709435723721981e-04 -1.950031518936157227e+00 -5.847346782684326172e-01 -7.072044163942337036e-02
6.190000000000000000e+02 1.993304634094238281e+01 -1.668854331970214844e+01 -1.575028290972113609e-04 -1.849329590797424316e+00 -5.548461079597473145e-01 -1.514007151126861572e-01
6.200000000000000000e+02 2.126517868041992188e+01 -1.795581245422363281e+01 3.836473822593688965e-02 -1.632137298583984375e+00 -4.781317710876464844e-01 -8.064244687557220459e-02
6.210000000000000000e+02 1.960126686096191406e+01 -2.505817985534667969e+01 6.531280931085348129e-03 -1.890439510345458984e+00 -5.651724934577941895e-01 -2.197511121630668640e-02
6.220000000000000000e+02 3.786796951293945312e+01 -4.071064758300781250e+01 5.877634137868881226e-02 1.498296380043029785e+00 4.671218395233154297e-01 1.075589284300804138e-02
6.230000000000000000e+02 4.272759628295898438e+01 -4.072631072998046875e+01 3.699248656630516052e-02 2.367516517639160156e+00 7.213527560234069824e-01 4.520139656960964203e-03
6.240000000000000000e+02 1.425496101379394531e+01 -3.615158843994140625e+01 6.578375399112701416e-02 3.780911862850189209e-02 3.107786364853382111e-02 -4.371314123272895813e-02
6.250000000000000000e+02 1.378343009948730469e+01 -3.459492492675781250e+01 1.435175072401762009e-02 1.727981306612491608e-02 9.489469230175018311e-03 -1.439064741134643555e-02
6.260000000000000000e+02 1.389340400695800781e+01 -3.298698425292968750e+01 -3.736714279511943460e-05 4.168078303337097168e-03 1.239213394001126289e-03 -2.835307270288467407e-03
6.270000000000000000e+02 1.370292091369628906e+01 -2.745914840698242188e+01 1.005911966785788536e-03 -3.578484465833753347e-04 1.944190735230222344e-04 -1.151069664047099650e-04
6.280000000000000000e+02 1.899947285652160645e+00 -1.779787254333496094e+01 -8.263152558356523514e-04 -1.038680493365973234e-04 -2.790550061035901308e-04 -1.308723003603518009e-04
6.290000000000000000e+02 6.626000404357910156e-01 -2.341421318054199219e+01 1.093673286959528923e-03 -5.985586903989315033e-04 1.485343964304775000e-04 -7.662556890863925219e-05
6.300000000000000000e+02 1.444814109802246094e+01 -3.023633193969726562e+01 -1.763126696459949017e-03 -1.551410183310508728e-03 -9.943611221387982368e-04 2.760525385383516550e-04
6.310000000000000000e+02 1.320133495330810547e+01 -2.972300148010253906e+01 1.581447548232972622e-03 6.866151816211640835e-04 6.804188014939427376e-04 -8.534782682545483112e-04
6.320000000000000000e+02 1.419364070892333984e+01 -2.207736015319824219e+01 -7.130601443350315094e-04 -4.035960882902145386e-04 -3.349968756083399057e-04 1.230858033522963524e-04
6.330000000000000000e+02 1.451681232452392578e+01 -1.346477031707763672e+01 -5.361744551919400692e-04 -2.824828152370173484e-05 -1.693268131930381060e-04 7.263181760208681226e-05
6.340000000000000000e+02 1.460364246368408203e+01 -6.544970512390136719e+00 3.149214608129113913e-04 1.592380795045755804e-05 9.925357881002128124e-05 -1.204848740599118173e-05
6.350000000000000000e+02 1.459890651702880859e+01 -3.863208532333374023e+00 1.956773194251582026e-04 2.793833846226334572e-05 6.708470027660951018e-05 2.837614010786637664e-05
6.360000000000000000e+02 1.442504596710205078e+01 -2.842174053192138672e+00 -1.592390326550230384e-04 -3.985110197390895337e-06 -4.896724203717894852e-05 -9.286879503633826971e-05
6.370000000000000000e+02 1.038276004791259766e+01 -2.566789388656616211e+00 -8.467605948681011796e-05 -7.696533430134877563e-05 -4.849241668125614524e-05 2.330937240913044661e-05
6.380000000000000000e+02 1.353124713897705078e+01 -1.057450771331787109e+01 4.059737548232078552e-04 2.857482468243688345e-05 1.303645694861188531e-04 -7.889856351539492607e-05
6.390000000000000000e+02 1.275592231750488281e+01 -1.874449348449707031e+01 5.667883087880909443e-04 -7.133829785743728280e-05 1.486350083723664284e-04 -6.438728451030328870e-05
6.400000000000000000e+02 1.339969730377197266e+01 -2.512281227111816406e+01 8.900842512957751751e-04 -4.624908033292740583e-04 1.282780285691842437e-04 2.094944793498143554e-04
6.410000000000000000e+02 1.461675071716308594e+01 -2.621924591064453125e+01 1.664577634073793888e-03 -1.210015150718390942e-03 1.363687479170039296e-04 1.614228608559642453e-06
6.420000000000000000e+02 1.110404300689697266e+01 -1.871631860733032227e+00 -9.256456542061641812e-05 -5.899397001485340297e-05 -4.546756099443882704e-05 2.599340041342657059e-05
6.430000000000000000e+02 4.279799938201904297e+00 -1.900988578796386719e+00 6.225931429071351886e-05 -4.691556387115269899e-05 4.603124125424074009e-06 -6.932058113306993619e-06
6.440000000000000000e+02 1.762884616851806641e+00 -1.075394153594970703e+01 4.800721071660518646e-04 -3.718334795621558442e-08 1.440104679204523563e-04 1.956282176251988858e-06
6.450000000000000000e+02 6.329827308654785156e-01 -1.777034187316894531e+01 7.982321549206972122e-04 -1.248720363946631551e-04 2.020080282818526030e-04 -1.750567935232538730e-05
6.460000000000000000e+02 2.374531507492065430e+00 -3.825218963623046875e+01 -3.301148826722055674e-04 1.293456088751554489e-02 3.781333798542618752e-03 5.525464657694101334e-03
6.470000000000000000e+02 2.794202423095703125e+01 -3.646406555175781250e+01 1.459769811481237411e-02 -2.770310044288635254e-01 -7.872999459505081177e-02 1.735346019268035889e-02
6.480000000000000000e+02 3.049718666076660156e+01 -3.721058273315429688e+01 4.748772457242012024e-02 1.454347968101501465e-01 5.787675455212593079e-02 5.101964250206947327e-02
6.490000000000000000e+02 2.760345268249511719e+01 -3.305073165893554688e+01 -3.279158100485801697e-02 -3.413010239601135254e-01 -1.122277826070785522e-01 -1.605639420449733734e-02
6.500000000000000000e+02 1.983999061584472656e+01 -3.223836135864257812e+01 -2.397226355969905853e-02 -2.039855480194091797e+00 -6.191483139991760254e-01 -5.474174022674560547e-02
6.510000000000000000e+02 6.734764099121093750e+01 -2.924400901794433594e+01 9.809049079194664955e-04 7.029441356658935547e+00 2.109126567840576172e+00 1.629861816763877869e-02
6.520000000000000000e+02 6.317650985717773438e+01 -2.646965217590332031e+01 -1.287109032273292542e-02 6.228752613067626953e+00 1.864764451980590820e+00 6.553495768457651138e-04
6.530000000000000000e+02 6.703672027587890625e+01 -4.100457000732421875e+01 -1.066250610165297985e-03 6.952720642089843750e+00 2.085496425628662109e+00 6.643707398325204849e-03
6.540000000000000000e+02 7.015450286865234375e+01 -3.823842620849609375e+01 7.227951195091009140e-03 7.587266445159912109e+00 2.278348445892333984e+00 -1.112526399083435535e-03
6.550000000000000000e+02 7.334676361083984375e+01 -3.100999832153320312e+01 -5.457959603518247604e-03 8.131139755249023438e+00 2.437704563140869141e+00 -7.443638518452644348e-03
6.560000000000000000e+02 7.339373016357421875e+01 -2.399573707580566406e+01 -1.163672655820846558e-03 8.168978691101074219e+00 2.450344562530517578e+00 -1.106909476220607758e-03
6.570000000000000000e+02 7.790582275390625000e+01 -4.163340759277343750e+01 5.950209498405456543e-02 9.030735969543457031e+00 2.727071285247802734e+00 1.671204157173633575e-02
6.580000000000000000e+02 7.769834899902343750e+01 -3.680203247070312500e+01 -1.379029080271720886e-02 8.957736015319824219e+00 2.683183670043945312e+00 2.867848053574562073e-02
6.590000000000000000e+02 7.931655883789062500e+01 -3.336415100097656250e+01 3.156702034175395966e-03 9.270463943481445312e+00 2.782086133956909180e+00 1.441861502826213837e-03
6.600000000000000000e+02 7.802947235107421875e+01 -1.671453475952148438e+01 -3.441541921347379684e-03 9.036725044250488281e+00 2.709985017776489258e+00 -1.395865436643362045e-02
6.610000000000000000e+02 7.935883331298828125e+01 -1.253573703765869141e+01 -1.602710290171671659e-05 9.278847694396972656e+00 2.783649444580078125e+00 -1.816189661622047424e-02
6.620000000000000000e+02 7.285382080078125000e+01 -3.932614803314208984e+00 -6.019264832139015198e-02 8.030877113342285156e+00 2.391205310821533203e+00 -1.238059774041175842e-01
6.630000000000000000e+02 6.673879241943359375e+01 2.510349988937377930e+00 -2.935294806957244873e-01 7.164539337158203125e+00 2.061302900314331055e+00 -1.918834447860717773e-01
6.640000000000000000e+02 6.045984268188476562e+01 1.013787841796875000e+01 -5.681160092353820801e-01 6.613549232482910156e+00 1.813629984855651855e+00 2.299194037914276123e-01
6.650000000000000000e+02 5.012444305419921875e+01 2.052673149108886719e+01 6.440487504005432129e-01 2.601068973541259766e+00 9.735353589057922363e-01 1.325748324394226074e+00
6.660000000000000000e+02 4.514661026000976562e+01 2.816053199768066406e+01 -7.533711194992065430e-01 1.539150178432464600e-01 -1.798368394374847412e-01 -1.650424450635910034e-01
6.670000000000000000e+02 3.719296646118164062e+01 3.246571350097656250e+01 -9.464319944381713867e-01 4.256748780608177185e-02 -2.711593508720397949e-01 -6.153478100895881653e-02
6.680000000000000000e+02 3.572045898437500000e+01 3.275487518310546875e+01 -7.862806320190429688e-01 4.171542078256607056e-02 -2.233695536851882935e-01 -7.298144698143005371e-02
6.690000000000000000e+02 3.351708984375000000e+01 3.318999862670898438e+01 -5.669814944267272949e-01 3.743876889348030090e-02 -1.588628292083740234e-01 -8.116188645362854004e-02
6.700000000000000000e+02 7.807907867431640625e+01 -9.741811752319335938e+00 -4.710305482149124146e-03 9.017243385314941406e+00 2.703759908676147461e+00 -3.091230802237987518e-02
6.710000000000000000e+02 7.935752868652343750e+01 -5.573422431945800781e+00 -1.565939397551119328e-03 9.218021392822265625e+00 2.764936447143554688e+00 -2.953078784048557281e-02
6.720000000000000000e+02 7.296489715576171875e+01 1.358252882957458496e+00 -1.139654517173767090e-01 8.009191513061523438e+00 2.368567705154418945e+00 -2.332705706357955933e-01
6.730000000000000000e+02 6.658596801757812500e+01 9.646327018737792969e+00 -5.288123488426208496e-01 7.504899024963378906e+00 2.092825889587402344e+00 -3.632854819297790527e-01
6.740000000000000000e+02 5.391804122924804688e+01 2.020787811279296875e+01 1.984741836786270142e-01 4.814662456512451172e+00 1.503941059112548828e+00 1.933590054512023926e+00
6.750000000000000000e+02 5.179029083251953125e+01 2.846081733703613281e+01 4.756946116685867310e-02 4.162946343421936035e-01 1.391592323780059814e-01 8.415644168853759766e-01
6.760000000000000000e+02 4.229615402221679688e+01 3.079180526733398438e+01 -1.384620189666748047e+00 6.438874453306198120e-02 -3.960694372653961182e-01 -1.092361509799957275e-01
6.770000000000000000e+02 4.161427307128906250e+01 3.161258506774902344e+01 -1.468469262123107910e+00 4.099715128540992737e-02 -4.282416403293609619e-01 -1.799161173403263092e-02
6.780000000000000000e+02 3.940394973754882812e+01 3.204599761962890625e+01 -1.203409194946289062e+00 4.545117542147636414e-02 -3.473874032497406006e-01 -3.833634033799171448e-02
6.790000000000000000e+02 7.808189392089843750e+01 -2.786806583404541016e+00 -8.352913893759250641e-03 8.919889450073242188e+00 2.673460960388183594e+00 -6.621427088975906372e-02
6.800000000000000000e+02 7.938546752929687500e+01 2.777108430862426758e+00 -2.131530549377202988e-03 8.958426475524902344e+00 2.686888456344604492e+00 -5.545847490429878235e-02
6.810000000000000000e+02 7.355082702636718750e+01 1.059101009368896484e+01 -2.090805619955062866e-01 7.885910511016845703e+00 2.303049087524414062e+00 -5.882133245468139648e-01
6.820000000000000000e+02 6.731234741210937500e+01 1.660698318481445312e+01 -6.259378194808959961e-01 8.189407348632812500e+00 2.269040822982788086e+00 -7.856926321983337402e-01
6.830000000000000000e+02 5.703077316284179688e+01 2.961227989196777344e+01 3.627257585525512695e+00 8.969998359680175781e+00 3.779176712036132812e+00 7.253442764282226562e+00
6.840000000000000000e+02 5.130859375000000000e+01 3.008767890930175781e+01 -1.778020501136779785e+00 1.795331574976444244e-02 -5.280201435089111328e-01 2.463987022638320923e-01
6.850000000000000000e+02 4.982418823242187500e+01 3.026899719238281250e+01 -2.014368772506713867e+00 7.301066652871668339e-04 -6.040915846824645996e-01 1.431680768728256226e-01
6.860000000000000000e+02 4.832155609130859375e+01 3.046015930175781250e+01 -2.050629138946533203e+00 2.392773749306797981e-03 -6.144708991050720215e-01 8.462693542242050171e-02
6.870000000000000000e+02 4.532729339599609375e+01 3.093013381958007812e+01 -1.875331997871398926e+00 2.462221123278141022e-02 -5.552129149436950684e-01 3.072922863066196442e-02
6.880000000000000000e+02 7.817366027832031250e+01 4.139703273773193359e+00 -1.377497520297765732e-02 8.675007820129394531e+00 2.598369836807250977e+00 -1.333955526351928711e-01
6.890000000000000000e+02 7.941139984130859375e+01 8.334944725036621094e+00 -2.648102585226297379e-03 8.538259506225585938e+00 2.560683488845825195e+00 -8.543875068426132202e-02
6.900000000000000000e+02 7.319345855712890625e+01 1.724698829650878906e+01 -2.208216190338134766e-01 7.640930175781250000e+00 2.226032495498657227e+00 -9.881222248077392578e-01
6.910000000000000000e+02 6.723791503906250000e+01 2.447760009765625000e+01 3.621794581413269043e-01 8.926273345947265625e+00 2.786535739898681641e+00 -1.371155619621276855e+00
6.920000000000000000e+02 5.479353332519531250e+01 2.972652816772460938e+01 9.118024110794067383e-01 6.836456060409545898e-01 4.786344170570373535e-01 1.785250902175903320e+00
6.930000000000000000e+02 7.824967193603515625e+01 1.103951358795166016e+01 -2.255747467279434204e-02 8.096569061279296875e+00 2.422203540802001953e+00 -2.550634741783142090e-01
6.940000000000000000e+02 7.941210937500000000e+01 1.666874504089355469e+01 -2.346712397411465645e-03 7.197790622711181641e+00 2.158633232116699219e+00 -1.517561823129653931e-01
6.950000000000000000e+02 7.298907470703125000e+01 2.283397293090820312e+01 8.314094692468643188e-02 7.326727867126464844e+00 2.222960710525512695e+00 -1.183955907821655273e+00
6.960000000000000000e+02 7.821793365478515625e+01 1.793760108947753906e+01 -1.624239608645439148e-02 7.002899646759033203e+00 2.095997095108032227e+00 -4.188065230846405029e-01
6.970000000000000000e+02 7.939089965820312500e+01 2.362774085998535156e+01 -6.208492559380829334e-04 5.458940029144287109e+00 1.637495756149291992e+00 -1.705229133367538452e-01
6.980000000000000000e+02 7.392893218994140625e+01 3.550054931640625000e+01 2.058285921812057495e-01 6.559929370880126953e+00 2.029727458953857422e+00 9.024020284414291382e-02
6.990000000000000000e+02 6.212211990356445312e+01 3.411991500854492188e+01 1.685420870780944824e+00 1.258546257019042969e+01 4.281265258789062500e+00 1.808680176734924316e+00
7.000000000000000000e+02 5.659799957275390625e+01 3.757329177856445312e+01 -5.795085430145263672e-01 8.095584869384765625e+00 2.254822969436645508e+00 -2.035512447357177734e+00
7.010000000000000000e+02 5.342524337768554688e+01 3.920401382446289062e+01 5.683528780937194824e-01 3.362479209899902344e+00 1.179249644279479980e+00 -9.281901717185974121e-01
7.020000000000000000e+02 4.826271820068359375e+01 3.557783126831054688e+01 -3.332191705703735352e-01 9.921836107969284058e-02 -7.020024210214614868e-02 4.629656672477722168e-01
7.030000000000000000e+02 4.744647979736328125e+01 3.444919204711914062e+01 -9.133737087249755859e-01 -1.205871254205703735e-01 -3.101882636547088623e-01 5.489130616188049316e-01
7.040000000000000000e+02 4.949551391601562500e+01 3.405402755737304688e+01 -1.127563238143920898e+00 -4.017737135291099548e-02 -3.503221869468688965e-01 4.271291792392730713e-01
7.050000000000000000e+02 5.023390197753906250e+01 3.398854064941406250e+01 -1.084781289100646973e+00 -1.358860079199075699e-02 -3.295109868049621582e-01 3.976482748985290527e-01
7.060000000000000000e+02 7.562755584716796875e+01 2.459728813171386719e+01 1.114864721894264221e-01 6.417154312133789062e+00 1.958592295646667480e+00 -8.434941172599792480e-01
7.070000000000000000e+02 7.936031341552734375e+01 2.919758796691894531e+01 7.324270904064178467e-03 4.316965579986572266e+00 1.297286987304687500e+00 -9.818179905414581299e-02
7.080000000000000000e+02 7.000383758544921875e+01 3.683767700195312500e+01 1.601965278387069702e-01 8.328656196594238281e+00 2.546655654907226562e+00 3.700908720493316650e-01
7.090000000000000000e+02 5.962984085083007812e+01 3.739429473876953125e+01 -1.404962420463562012e+00 1.168482685089111328e+01 3.083959341049194336e+00 -7.510834336280822754e-01
7.100000000000000000e+02 7.934316253662109375e+01 3.197967147827148438e+01 1.477739494293928146e-02 4.053513050079345703e+00 1.220487117767333984e+00 -3.880888223648071289e-02
7.110000000000000000e+02 7.915727233886718750e+01 3.744412612915039062e+01 4.268757253885269165e-02 4.262777805328369141e+00 1.291639685630798340e+00 9.196228533983230591e-02
7.120000000000000000e+02 7.708779144287109375e+01 3.816988754272460938e+01 1.116091758012771606e-01 5.152398586273193359e+00 1.579202294349670410e+00 1.797205358743667603e-01
7.130000000000000000e+02 4.447359466552734375e+01 3.496875000000000000e+01 -6.141651868820190430e-01 -1.780976802110671997e-01 -2.376788556575775146e-01 4.678288996219635010e-01
7.140000000000000000e+02 2.415376091003417969e+01 3.862303924560546875e+01 1.087717013433575630e-03 -1.700737338978797197e-04 2.752929867710918188e-04 -2.370082540437579155e-03
7.150000000000000000e+02 2.237382316589355469e+01 3.842596054077148438e+01 9.883086895570158958e-04 5.493546996149234474e-05 3.129732504021376371e-04 -1.219159341417253017e-03
7.160000000000000000e+02 2.160940361022949219e+01 4.040703582763671875e+01 -5.051534390076994896e-04 6.853165104985237122e-04 5.404892363003455102e-05 -8.112219511531293392e-04
7.170000000000000000e+02 2.098000526428222656e+01 3.803835296630859375e+01 9.261725936084985733e-04 -1.388817763654515147e-04 2.361872466281056404e-04 -7.071991567499935627e-04
7.180000000000000000e+02 1.947584915161132812e+01 3.771387863159179688e+01 8.724098443053662777e-04 1.178529695607721806e-03 6.152818677946925163e-04 -9.075371199287474155e-04
7.190000000000000000e+02 1.818817734718322754e+00 2.610038948059082031e+01 -1.277131668757647276e-04 4.078462456647002909e-09 -3.831272624665871263e-05 -1.540635093988385051e-05
7.200000000000000000e+02 1.994309782981872559e+00 3.028785324096679688e+01 1.075497930287383497e-04 1.647578756092116237e-05 3.720767199411056936e-05 1.993484147533308715e-06
7.210000000000000000e+02 4.102373600006103516e+00 3.647396850585937500e+01 1.982590620173141360e-04 5.128926204633899033e-05 7.486449612770229578e-05 4.552326936391182244e-05
7.220000000000000000e+02 2.004412174224853516e+00 4.165531158447265625e+01 -9.846658213064074516e-05 -1.078758123185252771e-05 -3.277625000919215381e-05 -3.069632293772883713e-05
7.230000000000000000e+02 1.356920337677001953e+01 3.654604721069335938e+01 3.946282668039202690e-04 3.952872248191852123e-06 1.195743461721576750e-04 -6.203358498169109225e-05
7.240000000000000000e+02 1.454615116119384766e+01 2.295950317382812500e+01 -1.639984548091888428e-04 2.205181148795531954e-09 -4.919887578580528498e-05 1.240926758327987045e-05
7.250000000000000000e+02 1.452999591827392578e+01 1.737394714355468750e+01 -1.632084895391017199e-04 -1.513211032033723313e-07 -4.900794374407269061e-05 2.170412926716380753e-06
7.260000000000000000e+02 1.449067687988281250e+01 1.051232433319091797e+01 9.325573773821815848e-05 -2.736702242600586032e-07 2.789462087093852460e-05 -6.292474154179217294e-06
7.270000000000000000e+02 1.369590473175048828e+01 1.788694262504577637e+00 5.149790922587271780e-06 4.759744115290232003e-06 2.972860556837986223e-06 8.531126695743296295e-06
7.280000000000000000e+02 1.318762302398681641e+01 1.740657091140747070e+00 -7.243105756060685962e-06 -5.885638074687449262e-06 -3.938623194699175656e-06 -3.747654318431159481e-06
7.290000000000000000e+02 6.823263764381408691e-01 3.462242507934570312e+01 1.466799003537744284e-04 -2.352017691009677947e-05 3.694791666930541396e-05 -1.198695099446922541e-05
7.300000000000000000e+02 6.223035454750061035e-01 2.760449028015136719e+01 -1.089482466340996325e-04 -1.320728870268794708e-06 -3.308069426566362381e-05 -9.681690471552428789e-07
7.310000000000000000e+02 6.063639521598815918e-01 2.056752395629882812e+01 1.284339523408561945e-04 3.505408301407442195e-07 3.863534584525041282e-05 -1.847293219725543167e-06
7.320000000000000000e+02 1.779645681381225586e+00 1.632971572875976562e+01 1.118135405704379082e-04 -5.382614745030878112e-07 3.338258466101251543e-05 -5.374316060624551028e-06
7.330000000000000000e+02 1.217731285095214844e+01 1.229928874969482422e+01 -8.649240771774202585e-05 -8.643701221444644034e-06 -2.854083322745282203e-05 -4.138936674280557781e-06
7.340000000000000000e+02 1.342214298248291016e+01 1.604420089721679688e+01 -1.347078941762447357e-04 -1.995466618609498255e-06 -4.101101148989982903e-05 -6.548936198669252917e-06
7.350000000000000000e+02 1.217149162292480469e+01 1.865738296508789062e+01 1.445249072276055813e-04 -8.257786703325109556e-07 4.310973963583819568e-05 2.785967444651760161e-05
7.360000000000000000e+02 1.328204059600830078e+01 2.452736663818359375e+01 -1.908806880237534642e-04 2.871853439501137473e-06 -5.640265226247720420e-05 7.286296749953180552e-06
7.370000000000000000e+02 1.251250362396240234e+01 2.913078117370605469e+01 -2.588314528111368418e-04 1.050989521900191903e-05 -7.449647091561928391e-05 5.406642685557017103e-06
7.380000000000000000e+02 5.925752520561218262e-01 1.492921352386474609e+01 1.005626909318380058e-04 1.138489437835232820e-06 3.051035309908911586e-05 -2.722267026911140420e-06
7.390000000000000000e+02 1.699443817138671875e+00 9.286628723144531250e+00 -7.381372415693476796e-05 -4.832719469050061889e-07 -2.228909943369217217e-05 3.826593911071540788e-06
7.400000000000000000e+02 8.933209419250488281e+00 2.566949129104614258e+00 2.150965519831515849e-05 8.494886060361750424e-06 9.001362741400953382e-06 6.536967589454434346e-07
7.410000000000000000e+02 9.654933929443359375e+00 1.844107985496520996e+00 1.622941454115789384e-05 8.280618203571066260e-06 7.353010005317628384e-06 -1.159081307378073689e-06
7.420000000000000000e+02 1.117792606353759766e+00 3.811905860900878906e+00 1.562532270327210426e-05 -1.569179221405647695e-05 -1.994095377710891626e-08 3.987896343460306525e-05
7.430000000000000000e+02 5.384227633476257324e-01 6.436563968658447266e+00 5.390550722950138152e-05 5.117507498653139919e-06 1.770690505509264767e-05 1.959901965165045112e-06
7.440000000000000000e+02 3.718941926956176758e+00 3.793601989746093750e+00 3.029537583643104881e-05 1.321853687841212377e-05 1.305417390540242195e-05 -1.188778696814551950e-05
7.450000000000000000e+02 1.324438381195068359e+01 1.072957515716552734e+01 -9.000385034596547484e-05 -1.672610068226276780e-07 -2.705133374547585845e-05 4.508117399382172152e-06
7.460000000000000000e+02 1.448151397705078125e+01 2.014776992797851562e+01 -1.641222916077822447e-04 3.311651880721910857e-06 -4.824318966711871326e-05 7.594820544909453019e-06
7.470000000000000000e+02 1.558936595916748047e+01 3.133488655090332031e+01 -3.348319150973111391e-04 -2.004016641876660287e-05 -1.064616226358339190e-04 6.546154327224940062e-05
7.480000000000000000e+02 1.532417869567871094e+01 2.995442581176757812e+01 2.917689562309533358e-04 -1.503074599895626307e-06 8.707976667210459709e-05 -5.731159762945026159e-05
7.490000000000000000e+02 1.806964874267578125e+01 3.775062179565429688e+01 -4.847104355576448143e-05 3.348427417222410440e-04 8.591150981374084949e-05 -3.825810272246599197e-04
7.500000000000000000e+02 1.835760116577148438e+01 3.928213500976562500e+01 -1.151326345279812813e-03 7.821659091860055923e-04 -1.107481439248658717e-04 -3.663723473437130451e-04
7.510000000000000000e+02 1.949321174621582031e+01 4.006129074096679688e+01 -1.341236638836562634e-04 8.699658210389316082e-04 2.207526558777317405e-04 -1.274440670385956764e-03
7.520000000000000000e+02 1.214502048492431641e+01 4.129695892333984375e+01 -2.221315953647717834e-04 8.005640120245516300e-05 -4.262255970388650894e-05 -2.695144794415682554e-04
7.530000000000000000e+02 1.985982322692871094e+01 3.776594161987304688e+01 6.215812754817306995e-04 8.766850805841386318e-05 2.127749321516603231e-04 -4.139766679145395756e-04
7.540000000000000000e+02 3.176807785034179688e+01 3.755023956298828125e+01 -8.049660362303256989e-03 -2.523709647357463837e-02 -9.986027143895626068e-03 2.618831768631935120e-02
7.550000000000000000e+02 3.578947067260742188e+01 3.673186492919921875e+01 -4.641243070363998413e-02 -6.279232352972030640e-02 -3.276142850518226624e-02 9.894850105047225952e-02
7.560000000000000000e+02 3.652848434448242188e+01 3.657201004028320312e+01 -8.273377269506454468e-02 -7.199996709823608398e-02 -4.642012342810630798e-02 1.172046586871147156e-01
7.570000000000000000e+02 3.866370391845703125e+01 3.601089096069335938e+01 -1.763692647218704224e-01 -8.752299100160598755e-02 -7.916767150163650513e-02 1.759450435638427734e-01
7.580000000000000000e+02 4.177070236206054688e+01 3.613546752929687500e+01 -2.443064153194427490e-01 -1.776508390903472900e-01 -1.265871822834014893e-01 3.251785337924957275e-01
7.590000000000000000e+02 4.227606582641601562e+01 3.531270217895507812e+01 -4.240356385707855225e-01 -1.536244601011276245e-01 -1.732980310916900635e-01 3.236586749553680420e-01
7.600000000000000000e+02 3.056255340576171875e+01 2.939046478271484375e+01 -2.943210005760192871e-01 -1.623116200789809227e-03 -8.878323435783386230e-02 -3.351403176784515381e-01
7.610000000000000000e+02 2.659561729431152344e+01 2.439839363098144531e+01 -4.632620140910148621e-02 -2.704254090785980225e-01 -9.502548724412918091e-02 -3.664596974849700928e-01
7.620000000000000000e+02 3.763809967041015625e+01 2.889606857299804688e+01 -6.386768221855163574e-01 1.110300496220588684e-01 -1.582940369844436646e-01 -3.793707787990570068e-01
7.630000000000000000e+02 4.351137161254882812e+01 2.771312332153320312e+01 -6.171383857727050781e-01 1.763496696949005127e-01 -1.322366148233413696e-01 -2.591636478900909424e-01
7.640000000000000000e+02 4.976601409912109375e+01 2.856990051269531250e+01 -6.055185198783874512e-01 1.881553828716278076e-01 -1.252089440822601318e-01 2.950602769851684570e-01
7.650000000000000000e+02 7.291087341308593750e+01 2.433439064025878906e+01 2.107006758451461792e-01 7.225831985473632812e+00 2.230959892272949219e+00 -1.151374340057373047e+00
7.660000000000000000e+02 7.305414581298828125e+01 3.215153121948242188e+01 5.352458953857421875e-01 6.744611740112304688e+00 2.183957338333129883e+00 -2.011263817548751831e-01
7.670000000000000000e+02 5.951108551025390625e+01 3.190273284912109375e+01 8.086988449096679688e+00 1.773572731018066406e+01 7.746814727783203125e+00 2.940249681472778320e+00
7.680000000000000000e+02 5.543000411987304688e+01 3.343011093139648438e+01 1.130430698394775391e+00 2.652211666107177734e+00 1.134792685508728027e+00 -2.538690090179443359e+00
7.690000000000000000e+02 3.294510269165039062e+01 1.548669338226318359e+01 1.856583207845687866e-01 7.041092216968536377e-02 7.682077586650848389e-02 -3.547526299953460693e-01
7.700000000000000000e+02 3.279129791259765625e+01 1.677997589111328125e+01 1.714047640562057495e-01 3.776281699538230896e-02 6.275027245283126831e-02 -3.934983909130096436e-01
7.710000000000000000e+02 4.435812377929687500e+01 2.116698074340820312e+01 4.847004115581512451e-01 9.256526827812194824e-01 4.231059253215789795e-01 2.091241329908370972e-01
7.720000000000000000e+02 4.744320297241210938e+01 2.129330444335937500e+01 6.516283750534057617e-01 1.518966197967529297e+00 6.511783599853515625e-01 7.542262077331542969e-01
7.730000000000000000e+02 5.459085464477539062e+01 2.140439605712890625e+01 1.894584894180297852e-01 5.222511291503906250e+00 1.623590946197509766e+00 2.210541486740112305e+00
7.740000000000000000e+02 6.553966522216796875e+01 1.542159652709960938e+01 -7.439352869987487793e-01 8.066853523254394531e+00 2.196875333786010742e+00 -4.761196076869964600e-01
7.750000000000000000e+02 7.216610717773437500e+01 1.863877487182617188e+01 -2.241633832454681396e-01 7.711961746215820312e+00 2.246339559555053711e+00 -1.107494235038757324e+00
7.760000000000000000e+02 2.701894569396972656e+01 1.623512077331542969e+01 5.820657312870025635e-02 -5.119549036026000977e-01 -1.361245065927505493e-01 -3.492115139961242676e-01
7.770000000000000000e+02 2.716247367858886719e+01 1.201780700683593750e+01 6.305930763483047485e-02 -5.851168632507324219e-01 -1.566172689199447632e-01 -2.814311981201171875e-01
7.780000000000000000e+02 2.727331161499023438e+01 6.143729686737060547e-01 2.402788773179054260e-02 -6.331026554107666016e-01 -1.827224195003509521e-01 -9.800387918949127197e-02
7.790000000000000000e+02 2.599995231628417969e+01 3.325279951095581055e+00 2.918054349720478058e-03 -8.524904847145080566e-01 -2.548717260360717773e-01 -1.237959638237953186e-01
7.800000000000000000e+02 3.546059036254882812e+01 3.924835205078125000e+00 1.450658589601516724e-01 7.338768839836120605e-01 2.636828124523162842e-01 -5.372261628508567810e-02
7.810000000000000000e+02 3.390334320068359375e+01 5.320938587188720703e+00 1.450277268886566162e-01 4.408318400382995605e-01 1.757578700780868530e-01 -1.066696271300315857e-01
7.820000000000000000e+02 3.509328460693359375e+01 9.648816108703613281e+00 2.173197418451309204e-01 5.057513117790222168e-01 2.169213145971298218e-01 -1.527379751205444336e-01
7.830000000000000000e+02 2.847326087951660156e+01 9.289782524108886719e+00 7.450607419013977051e-02 -4.307308793067932129e-01 -1.068674400448799133e-01 -2.420867681503295898e-01
7.840000000000000000e+02 4.034997558593750000e+01 1.130900001525878906e+01 3.377158641815185547e-01 1.265452384948730469e+00 4.809504747390747070e-01 7.241315394639968872e-02
7.850000000000000000e+02 3.955421829223632812e+01 1.268584251403808594e+01 3.474654853343963623e-01 1.049805998802185059e+00 4.191814363002777100e-01 3.183212596923112869e-03
7.860000000000000000e+02 5.105807876586914062e+01 1.468574905395507812e+01 1.756553947925567627e-01 3.768841266632080078e+00 1.183349013328552246e+00 1.025769948959350586e+00
7.870000000000000000e+02 6.003821182250976562e+01 8.046009063720703125e+00 -4.830819666385650635e-01 6.329765319824218750e+00 1.754005074501037598e+00 2.065036147832870483e-01
7.880000000000000000e+02 6.559426116943359375e+01 1.043730735778808594e+01 -5.888475775718688965e-01 7.479686737060546875e+00 2.067251920700073242e+00 -3.041609227657318115e-01
7.890000000000000000e+02 7.236820220947265625e+01 1.044769001007080078e+01 -2.723067402839660645e-01 7.850962638854980469e+00 2.273596763610839844e+00 -6.056186556816101074e-01
7.900000000000000000e+02 2.098529052734375000e+01 2.544120979309082031e+01 -1.276088645681738853e-03 -3.764748871326446533e-01 -1.133252903819084167e-01 -4.169425368309020996e-02
7.910000000000000000e+02 2.103593635559082031e+01 1.843161582946777344e+01 7.879110053181648254e-04 -9.744564890861511230e-01 -2.921005785465240479e-01 -4.706517606973648071e-02
7.920000000000000000e+02 2.104120254516601562e+01 1.702544784545898438e+01 1.284176949411630630e-03 -1.089437246322631836e+00 -3.264459073543548584e-01 -4.496043920516967773e-02
7.930000000000000000e+02 2.105758285522460938e+01 9.990094184875488281e+00 8.074154029600322247e-04 -1.570405602455139160e+00 -4.708794653415679932e-01 -3.157854825258255005e-02
7.940000000000000000e+02 2.100984382629394531e+01 4.341147422790527344e+00 -3.491545841097831726e-02 -1.932401537895202637e+00 -5.901950597763061523e-01 -1.037407368421554565e-01
7.950000000000000000e+02 4.663170242309570312e+01 2.047664642333984375e+00 5.228789895772933960e-02 3.006037473678588867e+00 9.174975752830505371e-01 2.519013285636901855e-01
7.960000000000000000e+02 4.616094589233398438e+01 4.929757595062255859e+00 1.129191517829895020e-01 2.833601951599121094e+00 8.839563131332397461e-01 3.114996850490570068e-01
7.970000000000000000e+02 6.163898849487304688e+01 2.578681468963623047e+00 -3.325346410274505615e-01 6.328990936279296875e+00 1.798936843872070312e+00 1.784250512719154358e-02
7.980000000000000000e+02 6.646860504150390625e+01 4.194705963134765625e+00 -3.510904610157012939e-01 7.164477348327636719e+00 2.044016122817993164e+00 -2.092722505331039429e-01
7.990000000000000000e+02 7.200906372070312500e+01 4.104092597961425781e+00 -1.809244751930236816e-01 7.860503196716308594e+00 2.303873538970947266e+00 -3.224980831146240234e-01
8.000000000000000000e+02 2.105588340759277344e+01 1.139825439453125000e+01 1.321011222898960114e-03 -1.486305117607116699e+00 -4.454952478408813477e-01 -3.370795398950576782e-02
8.010000000000000000e+02 4.020829010009765625e+01 1.997908115386962891e+00 1.360874325037002563e-01 1.660626411437988281e+00 5.390141606330871582e-01 7.138749212026596069e-02
8.020000000000000000e+02 5.953235626220703125e+01 -4.269990444183349609e+00 -1.698658019304275513e-01 5.676936149597167969e+00 1.652121067047119141e+00 4.782969132065773010e-02
8.030000000000000000e+02 5.882109832763671875e+01 -5.261938571929931641e+00 -1.502181440591812134e-01 5.553654193878173828e+00 1.621030926704406738e+00 5.552449077367782593e-02
8.040000000000000000e+02 6.506958770751953125e+01 -5.685908794403076172e+00 -1.402395218610763550e-01 6.698555469512939453e+00 1.967494726181030273e+00 -5.269134789705276489e-02
8.050000000000000000e+02 7.183946990966796875e+01 -2.529505729675292969e+00 -1.004274562001228333e-01 7.860726356506347656e+00 2.328089714050292969e+00 -1.563928425312042236e-01
8.060000000000000000e+02 2.870532417297363281e+01 -3.405564546585083008e+00 3.672580793499946594e-02 -3.613873422145843506e-01 -9.739845991134643555e-02 -6.619586795568466187e-02
8.070000000000000000e+02 2.729141426086425781e+01 -9.068434715270996094e+00 8.777683600783348083e-03 -5.822550654411315918e-01 -1.720432192087173462e-01 -6.272512674331665039e-02
8.080000000000000000e+02 3.391814804077148438e+01 -1.724988937377929688e+01 1.039753761142492294e-02 7.022904753684997559e-01 2.138064056634902954e-01 3.450755320955067873e-05
8.090000000000000000e+02 5.323406219482421875e+01 -2.817294311523437500e+01 -4.689218010753393173e-03 4.376335144042968750e+00 1.311493754386901855e+00 1.452872529625892639e-02
8.100000000000000000e+02 3.507954025268554688e+01 -1.660130143165588379e+00 8.047575503587722778e-02 7.759256958961486816e-01 2.569204270839691162e-01 -1.142027601599693298e-02
8.110000000000000000e+02 3.341196823120117188e+01 -1.088528633117675781e+01 2.053773403167724609e-02 5.729973912239074707e-01 1.780605316162109375e-01 -1.031045615673065186e-02
8.120000000000000000e+02 4.691630172729492188e+01 -1.546447753906250000e+01 -1.816877536475658417e-02 3.190627098083496094e+00 9.517374634742736816e-01 5.451368540525436401e-02
8.130000000000000000e+02 5.162577056884765625e+01 -2.254374122619628906e+01 -8.231849409639835358e-03 4.111195564270019531e+00 1.230889201164245605e+00 3.824154287576675415e-02
8.140000000000000000e+02 5.598199462890625000e+01 -2.536307144165039062e+01 -1.128552202135324478e-02 4.877685546875000000e+00 1.459919929504394531e+00 2.324519865214824677e-02
8.150000000000000000e+02 4.094196319580078125e+01 -4.325634479522705078e+00 5.438709259033203125e-02 1.936012506484985352e+00 5.971198678016662598e-01 7.278381288051605225e-02
8.160000000000000000e+02 4.853715133666992188e+01 -1.358264732360839844e+01 -2.257757820188999176e-02 3.499002456665039062e+00 1.042927384376525879e+00 6.359347701072692871e-02
8.170000000000000000e+02 5.978389739990234375e+01 -1.617308616638183594e+01 -5.314448475837707520e-02 5.608274459838867188e+00 1.666538953781127930e+00 1.701036095619201660e-02
8.180000000000000000e+02 6.488223266601562500e+01 -1.069752120971679688e+01 -8.699842542409896851e-02 6.607546329498291016e+00 1.956164479255676270e+00 -2.482266910374164581e-02
8.190000000000000000e+02 7.148954772949218750e+01 -1.085544586181640625e+01 -4.242244362831115723e-02 7.802393436431884766e+00 2.327991247177124023e+00 -5.006094649434089661e-02
8.200000000000000000e+02 2.717350006103515625e+01 -1.181681823730468750e+01 -2.821568166837096214e-03 -5.896874070167541504e-01 -1.777526885271072388e-01 -4.902461543679237366e-02
8.210000000000000000e+02 2.710251045227050781e+01 -1.716889381408691406e+01 3.130473662167787552e-03 -5.683011412620544434e-01 -1.695511937141418457e-01 -2.591160312294960022e-02
8.220000000000000000e+02 3.845512390136718750e+01 -2.161668968200683594e+01 4.840756300836801529e-03 1.532832741737365723e+00 4.613020420074462891e-01 1.672916859388351440e-02
8.230000000000000000e+02 3.982612609863281250e+01 -2.874332809448242188e+01 2.787107368931174278e-03 1.815096616744995117e+00 5.453650951385498047e-01 2.092672884464263916e-02
8.240000000000000000e+02 5.295558547973632812e+01 -3.126723098754882812e+01 5.617030430585145950e-03 4.321403503417968750e+00 1.298106193542480469e+00 1.203258801251649857e-02
8.250000000000000000e+02 3.464391708374023438e+01 -8.265367507934570312e+00 3.351202607154846191e-02 7.645961642265319824e-01 2.394324541091918945e-01 -3.664444375317543745e-04
8.260000000000000000e+02 4.199639892578125000e+01 -6.998389244079589844e+00 2.662607841193675995e-02 2.183398246765136719e+00 6.630073189735412598e-01 6.939069926738739014e-02
8.270000000000000000e+02 7.249458312988281250e+01 -1.782401275634765625e+01 -1.530064176768064499e-02 8.013633728027343750e+00 2.399499893188476562e+00 -2.002197690308094025e-02
8.280000000000000000e+02 7.109622192382812500e+01 -1.752562713623046875e+01 -1.597636006772518158e-02 7.747367858886718750e+00 2.319417476654052734e+00 -1.390106510370969772e-02
8.290000000000000000e+02 2.006140899658203125e+01 -1.529471588134765625e+01 -2.631291002035140991e-02 -1.973244786262512207e+00 -5.998673439025878906e-01 -1.626068204641342163e-01
8.300000000000000000e+02 2.858847427368164062e+01 -1.690710258483886719e+01 -2.782003721222281456e-03 -3.026200532913208008e-01 -9.162061661481857300e-02 -2.313908189535140991e-02
8.310000000000000000e+02 3.673849487304687500e+01 -1.792900466918945312e+01 1.435846183449029922e-02 1.239548325538635254e+00 3.761720359325408936e-01 1.059922482818365097e-02
8.320000000000000000e+02 2.783094787597656250e+01 -2.754996681213378906e+01 -7.272174581885337830e-03 -3.538349270820617676e-01 -1.083321273326873779e-01 -6.882247328758239746e-02
8.330000000000000000e+02 3.731487274169921875e+01 -2.465389633178710938e+01 1.263731904327869415e-02 1.347810983657836914e+00 4.081345200538635254e-01 1.978332735598087311e-02
8.340000000000000000e+02 4.323929595947265625e+01 -2.386562728881835938e+01 -2.620286431920249015e-05 2.493833541870117188e+00 7.481421828269958496e-01 1.995711028575897217e-02
8.350000000000000000e+02 5.107756805419921875e+01 -2.492366981506347656e+01 -4.171074833720922470e-03 3.987118244171142578e+00 1.194884181022644043e+00 3.362529352307319641e-02
8.360000000000000000e+02 6.595130157470703125e+01 -2.752943992614746094e+01 -1.627750508487224579e-02 6.791405200958251953e+00 2.032538414001464844e+00 9.592396207153797150e-03
8.370000000000000000e+02 3.732703781127929688e+01 -3.030849266052246094e+01 5.102794151753187180e-03 1.401998758316040039e+00 4.221304655075073242e-01 2.994898147881031036e-02
8.380000000000000000e+02 3.832702255249023438e+01 -3.327574539184570312e+01 2.820879966020584106e-02 1.606807231903076172e+00 4.905048310756683350e-01 2.735366672277450562e-02
8.390000000000000000e+02 6.577050781250000000e+01 -3.089849472045898438e+01 -1.272621680982410908e-03 6.768875598907470703e+00 2.030280828475952148e+00 1.720625534653663635e-02
8.400000000000000000e+02 7.471394348144531250e+01 -3.293753433227539062e+01 -2.181679941713809967e-02 8.393308639526367188e+00 2.511447668075561523e+00 -1.235759723931550980e-02
8.410000000000000000e+02 1.070973300933837891e+01 -3.079405021667480469e+01 4.469378851354122162e-03 1.405233284458518028e-03 1.762383733876049519e-03 -2.721991622820496559e-03
8.420000000000000000e+02 1.436405277252197266e+01 -1.764225769042968750e+01 5.361600196920335293e-04 -9.446345939068123698e-05 1.325089542660862207e-04 -6.186906830407679081e-05
8.430000000000000000e+02 1.150693607330322266e+01 -1.701111602783203125e+01 5.126963951624929905e-04 3.245601328671909869e-05 1.635457156226038933e-04 -1.847266685217618942e-05
8.440000000000000000e+02 1.458531856536865234e+01 -1.068965625762939453e+01 -4.864282382186502218e-04 -1.412881283613387495e-05 -1.501671067671850324e-04 6.130217661848291755e-05
8.450000000000000000e+02 1.246982860565185547e+01 -1.044051456451416016e+01 -3.581096243578940630e-04 -5.564225648413412273e-05 -1.241255667991936207e-04 1.004838559310883284e-04
8.460000000000000000e+02 5.872130990028381348e-01 -1.071426582336425781e+01 -4.816268337890505791e-04 -1.454073526474530809e-06 -1.449242699891328812e-04 1.077674278349149972e-05
8.470000000000000000e+02 1.309751224517822266e+01 9.376068115234375000e+00 8.188588253688067198e-05 1.784997266440768726e-06 2.510126432753168046e-05 -3.076957227676757611e-06
8.480000000000000000e+02 2.624514770507812500e+01 3.431991577148437500e+01 -9.711038321256637573e-02 -3.579178825020790100e-03 -3.020687028765678406e-02 -5.146180838346481323e-02
8.490000000000000000e+02 2.470311355590820312e+01 3.441132736206054688e+01 -5.106099322438240051e-02 -1.121673826128244400e-02 -1.868331991136074066e-02 -3.399680554866790771e-02
8.500000000000000000e+02 2.095775604248046875e+01 2.823957252502441406e+01 -2.217972883954644203e-03 -1.803250759840011597e-01 -5.476291477680206299e-02 -3.043712489306926727e-02
8.510000000000000000e+02 2.215266227722167969e+01 2.275124931335449219e+01 -1.777114113792777061e-03 -5.520040988922119141e-01 -1.661343574523925781e-01 -1.395419538021087646e-01
8.520000000000000000e+02 2.101852416992187500e+01 2.123776817321777344e+01 -1.561697135912254453e-04 -7.332586050033569336e-01 -2.200244367122650146e-01 -4.847227036952972412e-02
8.530000000000000000e+02 2.102863311767578125e+01 1.983603668212890625e+01 5.666246870532631874e-04 -8.552451729774475098e-01 -2.564035654067993164e-01 -4.830545932054519653e-02
8.540000000000000000e+02 2.226379585266113281e+01 1.575551700592041016e+01 6.762411911040544510e-03 -1.041035890579223633e+00 -3.102820515632629395e-01 -1.289779543876647949e-01
8.550000000000000000e+02 2.104611587524414062e+01 1.561958408355712891e+01 1.274180482141673565e-03 -1.198647260665893555e+00 -3.592119216918945312e-01 -4.233602806925773621e-02
8.560000000000000000e+02 2.105303573608398438e+01 1.280546760559082031e+01 1.245754188857972622e-03 -1.396907091140747070e+00 -4.186984002590179443e-01 -3.637223318219184875e-02
8.570000000000000000e+02 2.229937934875488281e+01 1.011875629425048828e+01 3.858795156702399254e-03 -1.357733726501464844e+00 -4.061624705791473389e-01 -1.002836003899574280e-01
8.580000000000000000e+02 2.105747795104980469e+01 8.580666542053222656e+00 -5.160065484233200550e-04 -1.652390718460083008e+00 -4.958719909191131592e-01 -3.160749375820159912e-02
8.590000000000000000e+02 2.105459594726562500e+01 7.170326709747314453e+00 1.983765687327831984e-04 -1.734546661376953125e+00 -5.203045010566711426e-01 -3.207872062921524048e-02
8.600000000000000000e+02 2.104831886291503906e+01 5.756617546081542969e+00 -1.465141493827104568e-02 -1.852116703987121582e+00 -5.600304007530212402e-01 -5.046952888369560242e-02
8.610000000000000000e+02 2.217988204956054688e+01 3.008451938629150391e+00 -3.521189093589782715e-02 -1.584732413291931152e+00 -4.859832823276519775e-01 -9.178905189037322998e-02
8.620000000000000000e+02 2.091690254211425781e+01 2.931453466415405273e+00 -2.757445164024829865e-02 -1.888608932495117188e+00 -5.748549699783325195e-01 -1.508602201938629150e-01
8.630000000000000000e+02 2.069796180725097656e+01 1.353526860475540161e-01 2.289570681750774384e-02 -1.754681944847106934e+00 -5.195358991622924805e-01 -1.013343483209609985e-01
8.640000000000000000e+02 2.039075279235839844e+01 -5.472226619720458984e+00 2.237358875572681427e-02 -1.766025781631469727e+00 -5.230956673622131348e-01 -7.534147799015045166e-02
8.650000000000000000e+02 2.182815551757812500e+01 -4.009943485260009766e+00 1.780762709677219391e-02 -1.612606644630432129e+00 -4.784397184848785400e-01 -6.680916249752044678e-02
8.660000000000000000e+02 2.031645393371582031e+01 -9.678569793701171875e+00 -2.189158275723457336e-02 -1.981678962707519531e+00 -6.010711789131164551e-01 -5.565928295254707336e-02
8.670000000000000000e+02 2.022041320800781250e+01 -1.248507404327392578e+01 -1.590889063663780689e-03 -1.987118601799011230e+00 -5.966128706932067871e-01 -6.760792434215545654e-02
8.680000000000000000e+02 2.148495483398437500e+01 -1.378214168548583984e+01 -5.258985981345176697e-02 -1.666505932807922363e+00 -5.157287120819091797e-01 -8.944318443536758423e-02
8.690000000000000000e+02 1.976295089721679688e+01 -1.947622108459472656e+01 2.342952415347099304e-02 -1.795844554901123047e+00 -5.317245125770568848e-01 -6.782448291778564453e-02
8.700000000000000000e+02 1.968638229370117188e+01 -2.227419281005859375e+01 -6.999662611633539200e-03 -1.892943978309631348e+00 -5.699830651283264160e-01 -6.488905847072601318e-02
8.710000000000000000e+02 1.959337043762207031e+01 -2.645320701599121094e+01 5.509951151907444000e-03 -1.923071146011352539e+00 -5.752683281898498535e-01 -9.613393805921077728e-03
8.720000000000000000e+02 1.968454742431640625e+01 -2.926212692260742188e+01 -2.397563912381883711e-05 -1.954714894294738770e+00 -5.864216685295104980e-01 -5.063494201749563217e-03
8.730000000000000000e+02 1.968499565124511719e+01 -3.372274017333984375e+01 -6.259891390800476074e-02 -2.206845760345458984e+00 -6.808334589004516602e-01 -1.274785548448562622e-01
8.740000000000000000e+02 2.113355255126953125e+01 -3.396743774414062500e+01 -1.391461491584777832e-01 -1.715191841125488281e+00 -5.563014149665832520e-01 -1.389950513839721680e-01
8.750000000000000000e+02 1.424221897125244141e+01 -3.157034111022949219e+01 2.294213278219103813e-03 9.980544564314186573e-05 7.182055851444602013e-04 -1.458444516174495220e-03
8.760000000000000000e+02 1.463620281219482422e+01 -2.756577682495117188e+01 -1.841415185481309891e-03 -1.714492216706275940e-03 -1.066772267222404480e-03 3.389477496966719627e-04
8.770000000000000000e+02 1.302816486358642578e+01 -2.393081665039062500e+01 -6.932860706001520157e-04 -3.073849948123097420e-04 -3.002013254445046186e-04 3.152409335598349571e-04
8.780000000000000000e+02 1.439904499053955078e+01 -2.351928901672363281e+01 1.020655734464526176e-03 -6.757222581654787064e-04 1.034800370689481497e-04 1.889630220830440521e-04
8.790000000000000000e+02 1.416052627563476562e+01 -2.055239486694335938e+01 5.095942178741097450e-04 -2.880791435018181801e-04 6.645452231168746948e-05 5.371091538108885288e-05
8.800000000000000000e+02 1.290858936309814453e+01 -1.734086608886718750e+01 -5.694613792002201080e-04 -1.113543985411524773e-04 -2.042447304120287299e-04 1.897053298307582736e-04
8.810000000000000000e+02 1.441153240203857422e+01 -1.623921203613281250e+01 -5.395929329097270966e-04 -8.688254456501454115e-05 -1.879426417872309685e-04 1.001978453132323921e-04
8.820000000000000000e+02 1.459647750854492188e+01 -9.305207252502441406e+00 4.339852021075785160e-04 1.555338894831947982e-05 1.348615769529715180e-04 -4.583106056088581681e-05
8.830000000000000000e+02 1.254727745056152344e+01 -1.914174556732177734e+00 -7.497495244024321437e-05 -5.791879084426909685e-05 -3.986812225775793195e-05 1.669585799390915781e-05
8.840000000000000000e+02 1.300706481933593750e+01 -2.801282405853271484e+00 -4.675916716223582625e-05 -1.102559908758848906e-04 -4.710454595624469221e-05 7.811454270267859101e-05
8.850000000000000000e+02 1.428494548797607422e+01 -2.023434877395629883e+00 7.073595043038949370e-05 2.534294617362320423e-05 2.882366788981016725e-05 6.116323493188247085e-05
8.860000000000000000e+02 1.373536014556884766e+01 -2.030203819274902344e+00 -1.623172138351947069e-04 2.558337428126833402e-06 -4.792766048922203481e-05 2.662032966327387840e-05
8.870000000000000000e+02 1.317663002014160156e+01 -1.974373936653137207e+00 9.340786346001550555e-05 6.958295853110030293e-05 4.889724732493050396e-05 -7.588889275211840868e-05
8.880000000000000000e+02 1.183234691619873047e+01 -1.887177586555480957e+00 1.005706290015950799e-04 4.848370735999196768e-05 4.471630018088035285e-05 -1.255651386600220576e-05
8.890000000000000000e+02 9.617255210876464844e+00 -1.855055451393127441e+00 -6.336007209029048681e-05 -7.458384061465039849e-05 -4.138317672186531126e-05 -1.342244650004431605e-05
8.900000000000000000e+02 1.036654949188232422e+01 -1.858612537384033203e+00 7.519500650232657790e-05 7.281758007593452930e-05 4.440377597347833216e-05 -1.478527065046364442e-05
8.910000000000000000e+02 8.859100341796875000e+00 -1.863249063491821289e+00 6.947034853510558605e-05 6.761668919352814555e-05 4.112610986339859664e-05 3.636878318502567708e-05
8.920000000000000000e+02 7.335231304168701172e+00 -1.889388084411621094e+00 8.946372690843418241e-05 3.393478255020454526e-05 3.701955210999585688e-05 6.814573134761303663e-05
8.930000000000000000e+02 5.801539897918701172e+00 -1.898551344871520996e+00 9.372059867018833756e-05 -9.645751788411871530e-07 2.782680712698493153e-05 5.348218473955057561e-05
8.940000000000000000e+02 3.521382570266723633e+00 -1.935942530632019043e+00 -4.223308133077807724e-05 3.456465128692798316e-05 -2.300528876730822958e-06 -9.002475962915923446e-06
8.950000000000000000e+02 5.039330482482910156e+00 -1.895096063613891602e+00 -7.197996455943211913e-05 2.210362254118081182e-05 -1.496290224167751148e-05 -7.925793397589586675e-06
8.960000000000000000e+02 4.395338535308837891e+00 -2.687795400619506836e+00 -1.044886812451295555e-04 5.953736945230048150e-06 -2.956048228952568024e-05 1.707238880044315010e-05
8.970000000000000000e+02 2.761944770812988281e+00 -2.009689092636108398e+00 1.016934947983827442e-05 1.510473794041899964e-05 7.582226317026652396e-06 2.608226850497885607e-06
8.980000000000000000e+02 1.999445796012878418e+00 -2.108438730239868164e+00 -5.800062353955581784e-05 -3.281782846897840500e-05 -2.724553633015602827e-05 -1.894188972073607147e-05
8.990000000000000000e+02 1.219627618789672852e+00 -2.184065580368041992e+00 2.142066077794879675e-04 8.150730536726769060e-06 6.670720176771283150e-05 2.172484528273344040e-05
9.000000000000000000e+02 1.997194886207580566e+00 -4.165706253051757812e+01 -1.970761455595493317e-03 1.912783831357955933e-02 5.147123243659734726e-03 5.820496007800102234e-04
9.010000000000000000e+02 4.414890289306640625e+00 -3.796332168579101562e+01 -2.431817818433046341e-03 6.132328417152166367e-03 1.110153156332671642e-03 1.060226280242204666e-02
9.020000000000000000e+02 8.839544653892517090e-01 -3.877302169799804688e+01 -1.439353334717452526e-03 1.643766835331916809e-02 4.499494563788175583e-03 1.149808638729155064e-03
9.030000000000000000e+02 7.174483537673950195e-01 -3.469142150878906250e+01 7.973208557814359665e-04 7.420697715133428574e-03 2.465405501425266266e-03 1.462715561501681805e-03
9.040000000000000000e+02 7.232182621955871582e-01 -3.329352569580078125e+01 -8.330004638992249966e-04 4.474354442209005356e-03 1.092406222596764565e-03 1.530199428088963032e-03
9.050000000000000000e+02 6.901094913482666016e-01 -2.905573463439941406e+01 1.480294275097548962e-03 -4.467956314329057932e-04 3.100495669059455395e-04 2.914444194175302982e-04
9.060000000000000000e+02 6.807875633239746094e-01 -2.764333724975585938e+01 -1.225721673108637333e-03 -8.131856448017060757e-04 -6.116721779108047485e-04 4.530257865553721786e-05
9.070000000000000000e+02 6.751727461814880371e-01 -2.623383331298828125e+01 1.247536274604499340e-03 -8.408259600400924683e-04 1.220130798174068332e-04 -8.190316293621435761e-06
9.080000000000000000e+02 6.529675722122192383e-01 -2.200370979309082031e+01 -1.042589196003973484e-03 -4.518134519457817078e-04 -4.483207885641604662e-04 -6.821168062742799520e-05
9.090000000000000000e+02 6.429759263992309570e-01 -2.059238052368164062e+01 9.615296730771660805e-04 -3.143066423945128918e-04 1.941669179359450936e-04 -5.069051258033141494e-05
9.100000000000000000e+02 1.924220800399780273e+00 -2.060196495056152344e+01 -9.852709481492638588e-04 -1.651569036766886711e-04 -3.451283555477857590e-04 -1.700013381196185946e-04
9.110000000000000000e+02 6.315805912017822266e-01 -1.636074638366699219e+01 -7.209425675682723522e-04 -8.404471009271219373e-05 -2.414961782051250339e-04 -2.442380900902207941e-05
9.120000000000000000e+02 6.279076337814331055e-01 -1.494992256164550781e+01 6.385860033333301544e-04 -3.490628660074435174e-05 1.811039110179990530e-04 -1.465784407628234476e-05
9.130000000000000000e+02 6.195025444030761719e-01 -1.353806400299072266e+01 -5.812500021420419216e-04 -2.515704363759141415e-05 -1.819221215555444360e-04 1.150345724454382434e-06
9.140000000000000000e+02 1.863663554191589355e+00 -1.357626914978027344e+01 5.663993069902062416e-04 -1.186420263366017025e-06 1.695638638921082020e-04 -3.843459580821217969e-06
9.150000000000000000e+02 5.670285820960998535e-01 -9.303884506225585938e+00 4.336715501267462969e-04 3.530255980876972899e-06 1.311605446971952915e-04 -1.152256299974396825e-05
9.160000000000000000e+02 5.484583377838134766e-01 -7.894563198089599609e+00 -3.812951617874205112e-04 5.984146355331176892e-06 -1.125933049479499459e-04 6.931920324859675020e-06
9.170000000000000000e+02 5.351616740226745605e-01 -6.480417251586914062e+00 3.247567510697990656e-04 6.283584752964088693e-06 9.931210661306977272e-05 -5.359015631256625056e-06
9.180000000000000000e+02 7.461565399169921875e+01 -4.026857376098632812e+01 3.476135060191154480e-02 8.416299819946289062e+00 2.535318374633789062e+00 -4.430737718939781189e-02
9.190000000000000000e+02 5.250910186767578125e+01 -4.094240570068359375e+01 1.898685842752456665e-02 4.233509540557861328e+00 1.275748968124389648e+00 -6.086675915867090225e-03
9.200000000000000000e+02 3.310513687133789062e+01 -4.076517105102539062e+01 8.833696693181991577e-02 6.076538562774658203e-01 2.087972462177276611e-01 1.003420539200305939e-02
9.210000000000000000e+02 1.111478900909423828e+01 -3.920579147338867188e+01 -7.659601513296365738e-03 -2.283954992890357971e-02 -9.149746038019657135e-03 3.074573725461959839e-02
9.220000000000000000e+02 7.863208770751953125e+01 4.015631103515625000e+01 6.766625493764877319e-02 4.631852149963378906e+00 1.409855604171752930e+00 1.809293031692504883e-01
9.230000000000000000e+02 7.895404815673828125e+01 3.878778457641601562e+01 7.825686596333980560e-03 4.436622619628906250e+00 1.333334445953369141e+00 1.226106882095336914e-01
9.240000000000000000e+02 7.933219909667968750e+01 3.472212219238281250e+01 2.755351737141609192e-02 4.036953449249267578e+00 1.219352126121520996e+00 2.501226961612701416e-02
9.250000000000000000e+02 7.801279449462890625e+01 3.449577713012695312e+01 7.014744728803634644e-02 4.665567398071289062e+00 1.420714497566223145e+00 2.012616954743862152e-02
9.260000000000000000e+02 7.934159088134765625e+01 3.335704803466796875e+01 7.965403608977794647e-03 4.011333465576171875e+00 1.205789685249328613e+00 -1.583547145128250122e-02
9.270000000000000000e+02 7.935008239746093750e+01 3.059130287170410156e+01 1.651235669851303101e-02 4.153720378875732422e+00 1.251069784164428711e+00 -7.204471528530120850e-02
9.280000000000000000e+02 7.807904815673828125e+01 2.905950355529785156e+01 6.234243139624595642e-02 4.952434062957763672e+00 1.504432916641235352e+00 -2.743801176548004150e-01
9.290000000000000000e+02 7.937949371337890625e+01 2.641056251525878906e+01 1.324300421401858330e-03 4.808243274688720703e+00 1.442870259284973145e+00 -1.441682279109954834e-01
9.300000000000000000e+02 7.688195800781250000e+01 2.612550926208496094e+01 9.695893526077270508e-02 5.813116550445556641e+00 1.773022651672363281e+00 -5.963560342788696289e-01
9.310000000000000000e+02 7.938623809814453125e+01 2.501915931701660156e+01 1.199752744287252426e-02 5.119153499603271484e+00 1.539345383644104004e+00 -1.573884040117263794e-01
9.320000000000000000e+02 7.940009307861328125e+01 2.084220504760742188e+01 -2.893041120842099190e-03 6.178471088409423828e+00 1.852673411369323730e+00 -1.747597157955169678e-01
9.330000000000000000e+02 7.940435028076171875e+01 1.944966125488281250e+01 -1.621562405489385128e-04 6.535551071166992188e+00 1.960616707801818848e+00 -1.697482466697692871e-01
9.340000000000000000e+02 7.697566986083984375e+01 2.057417678833007812e+01 -1.393506210297346115e-02 6.695755958557128906e+00 2.004546165466308594e+00 -6.912516951560974121e-01
9.350000000000000000e+02 7.940844726562500000e+01 1.805867767333984375e+01 -5.418806802481412888e-03 6.877521514892578125e+00 2.061630964279174805e+00 -1.623693257570266724e-01
9.360000000000000000e+02 7.941771697998046875e+01 1.389236927032470703e+01 -2.744408324360847473e-03 7.756994724273681641e+00 2.326275110244750977e+00 -1.283755600452423096e-01
9.370000000000000000e+02 7.941834259033203125e+01 1.250278949737548828e+01 -5.996140185743570328e-03 7.993312358856201172e+00 2.396194934844970703e+00 -1.171061843633651733e-01
9.380000000000000000e+02 7.941776275634765625e+01 1.111349010467529297e+01 -2.812002552673220634e-03 8.201340675354003906e+00 2.459558486938476562e+00 -1.055244877934455872e-01
9.390000000000000000e+02 7.940575408935546875e+01 6.945563316345214844e+00 -4.053799435496330261e-03 8.671327590942382812e+00 2.600182056427001953e+00 -7.696153223514556885e-02
9.400000000000000000e+02 7.939911651611328125e+01 5.555768966674804688e+00 -2.463570097461342812e-03 8.784125328063964844e+00 2.634498596191406250e+00 -6.882167607545852661e-02
9.410000000000000000e+02 7.939212799072265625e+01 4.166415691375732422e+00 -3.164762165397405624e-03 8.878967285156250000e+00 2.662740945816040039e+00 -6.187066435813903809e-02
9.420000000000000000e+02 7.937214660644531250e+01 -1.973733538761734962e-03 -1.728001399897038937e-03 9.080204963684082031e+00 2.723542928695678711e+00 -4.518124088644981384e-02
9.430000000000000000e+02 7.936634063720703125e+01 -1.394133329391479492e+00 -2.142231678590178490e-03 9.126058578491210938e+00 2.737174987792968750e+00 -4.062728956341743469e-02
9.440000000000000000e+02 7.806973266601562500e+01 -4.183081626892089844e+00 -6.943422369658946991e-03 8.946415901184082031e+00 2.681841850280761719e+00 -5.647969618439674377e-02
9.450000000000000000e+02 7.935894775390625000e+01 -4.181702613830566406e+00 -1.523707411251962185e-03 9.193792343139648438e+00 2.757680654525756836e+00 -3.301876783370971680e-02
9.460000000000000000e+02 7.935929870605468750e+01 -8.356080055236816406e+00 -2.192831132560968399e-03 9.252790451049804688e+00 2.775179147720336914e+00 -2.421751804649829865e-02
9.470000000000000000e+02 7.808061981201171875e+01 -1.113327407836914062e+01 -2.724404446780681610e-03 9.025982856750488281e+00 2.706977605819702148e+00 -2.608306147158145905e-02
9.480000000000000000e+02 7.936066436767578125e+01 -1.114292812347412109e+01 -1.793957431800663471e-03 9.272721290588378906e+00 2.781278133392333984e+00 -2.024880424141883850e-02
9.490000000000000000e+02 7.935041809082031250e+01 -1.532433509826660156e+01 -1.340168877504765987e-03 9.286191940307617188e+00 2.785455465316772461e+00 -1.500707212835550308e-02
9.500000000000000000e+02 7.801628875732421875e+01 -1.811683464050292969e+01 -7.027860847301781178e-04 9.034533500671386719e+00 2.710149049758911133e+00 -1.208641752600669861e-02
9.510000000000000000e+02 7.934167480468750000e+01 -1.811598396301269531e+01 -1.381259295158088207e-03 9.286528587341308594e+00 2.785544395446777344e+00 -1.258749142289161682e-02
9.520000000000000000e+02 7.935725402832031250e+01 -2.368538665771484375e+01 6.082569598220288754e-04 9.286113739013671875e+00 2.786016464233398438e+00 -1.001633424311876297e-02
9.530000000000000000e+02 7.808351898193359375e+01 -2.506779479980468750e+01 -4.201907431706786156e-04 9.042853355407714844e+00 2.712729930877685547e+00 -7.482508663088083267e-03
9.540000000000000000e+02 7.936033630371093750e+01 -2.507624435424804688e+01 -1.670657424256205559e-03 9.285601615905761719e+00 2.785179138183593750e+00 -8.862444199621677399e-03
9.550000000000000000e+02 7.934236145019531250e+01 -2.923095893859863281e+01 2.210716484114527702e-04 9.289697647094726562e+00 2.786975622177124023e+00 -8.084801957011222839e-03
9.560000000000000000e+02 7.792029571533203125e+01 -3.187133789062500000e+01 -8.980640210211277008e-03 9.021439552307128906e+00 2.703737735748291016e+00 -1.432221499271690845e-03
9.570000000000000000e+02 7.931922912597656250e+01 -3.199164009094238281e+01 -4.449265543371438980e-03 9.283507347106933594e+00 2.783717632293701172e+00 9.120092727243900299e-04
9.580000000000000000e+02 7.930029296875000000e+01 -3.607603073120117188e+01 9.176217950880527496e-03 9.218537330627441406e+00 2.768314123153686523e+00 9.397889487445354462e-03
9.590000000000000000e+02 7.917228698730468750e+01 -3.739298629760742188e+01 -2.304249256849288940e-02 9.169176101684570312e+00 2.743839979171752930e+00 3.079866617918014526e-02
9.600000000000000000e+02 7.891203308105468750e+01 -3.869179916381835938e+01 1.157653867267072201e-03 9.109453201293945312e+00 2.733183145523071289e+00 3.997128084301948547e-02
9.610000000000000000e+02 7.853448486328125000e+01 -4.005561828613281250e+01 -1.274897437542676926e-02 9.053679466247558594e+00 2.712279081344604492e+00 5.050878599286079407e-02
9.620000000000000000e+02 4.880665779113769531e+00 4.051285552978515625e+01 1.681194116827100515e-04 7.888801519584376365e-06 5.280246477923355997e-05 -6.830754136899486184e-05
9.630000000000000000e+02 2.743110847473144531e+01 3.800719070434570312e+01 9.770998731255531311e-04 3.226665721740573645e-04 3.899299481417983770e-04 -1.580821233801543713e-03
9.640000000000000000e+02 4.671827697753906250e+01 3.636341094970703125e+01 -2.656932687386870384e-03 -1.521053612232208252e-01 -4.642868787050247192e-02 5.124387145042419434e-01
9.650000000000000000e+02 6.749577522277832031e-01 3.027361869812011719e+00 -2.821777343342546374e-05 6.552703780471347272e-06 -6.499520623037824407e-06 -4.322544918977655470e-05
9.660000000000000000e+02 3.109854936599731445e+00 2.776348352432250977e+00 2.736300120886880904e-05 1.649469231779221445e-05 1.315730787609936669e-05 -3.358403318998171017e-06
9.670000000000000000e+02 5.285072326660156250e+00 2.704621076583862305e+00 -1.462829641241114587e-05 -1.526871346868574619e-05 -8.969102964329067618e-06 5.178395895200083032e-06
9.680000000000000000e+02 1.646315813064575195e+00 6.379783153533935547e+00 -6.059173028916120529e-05 -4.019899733975762501e-06 -1.938348941621370614e-05 4.393475592223694548e-06
9.690000000000000000e+02 5.677273273468017578e-01 9.278315544128417969e+00 6.466357444878667593e-05 -2.708754607283481164e-07 1.931780934683047235e-05 -1.709434513941232581e-06
9.700000000000000000e+02 5.793060660362243652e-01 1.210679054260253906e+01 8.215766865760087967e-05 2.418060489617346320e-07 2.471984225849155337e-05 -1.987946006920537911e-06
9.710000000000000000e+02 1.735675930976867676e+00 1.211277008056640625e+01 -8.580153371440246701e-05 -1.269003746529051568e-06 -2.612116077216342092e-05 4.235563210386317223e-06
9.720000000000000000e+02 5.957143902778625488e-01 1.633829116821289062e+01 -1.100842637242749333e-04 1.413744570299968473e-07 -3.298286537756212056e-05 3.214586968169896863e-06
9.730000000000000000e+02 1.793470144271850586e+00 1.772624397277832031e+01 -1.185998771688900888e-04 2.087962002406129614e-06 -3.495357304927892983e-05 3.556391675374470651e-06
9.740000000000000000e+02 6.002701520919799805e-01 1.774773025512695312e+01 1.181032857857644558e-04 -1.438455541347138933e-07 3.538783130352385342e-05 -2.559236008892185055e-06
9.750000000000000000e+02 6.030995845794677734e-01 2.197500038146972656e+01 -1.303553581237792969e-04 3.938767747513338691e-07 -3.898844443028792739e-05 1.218726993101881817e-06
9.760000000000000000e+02 5.991705656051635742e-01 2.338252067565917969e+01 1.288396742893382907e-04 2.269261472065409180e-07 3.871998342219740152e-05 -4.194733662643557182e-07
9.770000000000000000e+02 1.788640975952148438e+00 2.332338714599609375e+01 -1.305668702116236091e-04 3.018649977093446068e-06 -3.826446481980383396e-05 -1.091280955733964220e-05
9.780000000000000000e+02 6.001878380775451660e-01 2.479057502746582031e+01 -1.245699095306918025e-04 4.830610009776137304e-07 -3.722605106304399669e-05 -4.955774102199939080e-07
9.790000000000000000e+02 6.407462358474731445e-01 2.901276016235351562e+01 1.018956972984597087e-04 2.117074473062530160e-06 3.120383189525455236e-05 -1.053633923220331781e-06
9.800000000000000000e+02 6.568017601966857910e-01 3.042149925231933594e+01 -1.037424881360493600e-04 -8.937674465414602309e-06 -3.380404814379289746e-05 9.296907592215575278e-06
9.810000000000000000e+02 2.027203321456909180e+00 3.168579483032226562e+01 -1.123969414038583636e-04 -2.640116872498765588e-05 -4.163943231105804443e-05 2.360411417612340301e-05
9.820000000000000000e+02 6.655801534652709961e-01 3.182618522644042969e+01 1.165996582130901515e-04 1.140541030508757103e-06 3.532206028467044234e-05 -1.550359957036562264e-05
9.830000000000000000e+02 7.357850670814514160e-01 3.601173019409179688e+01 -1.375328720314428210e-04 -2.887549635488539934e-05 -4.992250978830270469e-05 1.276569400943117216e-05
9.840000000000000000e+02 2.456168174743652344e+00 3.697716140747070312e+01 -1.398527674609795213e-04 -6.755742651876062155e-05 -6.222305819392204285e-05 1.224480456585297361e-05
9.850000000000000000e+02 9.823578596115112305e-01 3.874952697753906250e+01 -1.487281115259975195e-04 -5.074073123978450894e-05 -5.984065501252189279e-05 4.555239502224139869e-05
9.860000000000000000e+02 1.291422367095947266e+00 4.012387084960937500e+01 1.770949747879058123e-04 -4.064110908075235784e-05 4.093616007594391704e-05 -3.436519182287156582e-05
9.870000000000000000e+02 1.038847637176513672e+01 1.820912718772888184e+00 -1.618953319848515093e-05 -8.067057024163659662e-06 -7.276977157744113356e-06 1.864899331849301234e-06
9.880000000000000000e+02 8.934611320495605469e+00 1.855904698371887207e+00 -1.548566069686785340e-05 -8.895961400412488729e-06 -7.314486538234632462e-06 7.118881626411166508e-07
9.890000000000000000e+02 8.214594841003417969e+00 1.863612413406372070e+00 1.404783506586682051e-05 9.983226846088655293e-06 7.209318482637172565e-06 -1.000578549792408012e-06
9.900000000000000000e+02 8.202783584594726562e+00 2.587710618972778320e+00 -1.921596049214713275e-05 -1.022886044665938243e-05 -8.833446372591424733e-06 -3.212631725091341650e-07
9.910000000000000000e+02 7.495164871215820312e+00 1.870695948600769043e+00 -1.346012504654936492e-05 -1.110639004764379933e-05 -7.369954346359008923e-06 2.074959184028557502e-06
9.920000000000000000e+02 5.331504821777343750e+00 1.901318311691284180e+00 1.149766649177763611e-05 1.368239736621035263e-05 7.554019248345866799e-06 -6.546902568516088650e-06
9.930000000000000000e+02 4.607778549194335938e+00 1.915366172790527344e+00 -1.327879454038338736e-05 -1.387716110912151635e-05 -8.146786967699881643e-06 7.583805654576281086e-06
9.940000000000000000e+02 3.892522811889648438e+00 1.921440362930297852e+00 1.771540337358601391e-05 1.376145246467785910e-05 9.443056114832870662e-06 -7.636404006916563958e-06
9.950000000000000000e+02 3.188876628875732422e+00 1.912685036659240723e+00 -2.319503619219176471e-05 -1.211020571645349264e-05 -1.059157239069463685e-05 3.344450988151947968e-06
9.960000000000000000e+02 2.493973016738891602e+00 1.895550251007080078e+00 2.005773603741545230e-05 1.315884401265066117e-05 9.964973287424072623e-06 3.039626108147785999e-06
9.970000000000000000e+02 1.804072499275207520e+00 1.888435721397399902e+00 -1.085313306248281151e-05 -1.627027813810855150e-05 -8.137023542076349258e-06 -4.117641310585895553e-06
9.980000000000000000e+02 1.186084365844726562e+01 1.749566078186035156e+00 -1.700072971289046109e-05 -6.413325081666698679e-06 -7.024216756690293550e-06 -1.006841117145995668e-07
9.990000000000000000e+02 1.435567855834960938e+01 2.951480388641357422e+00 1.047036585077876225e-05 1.295975471293786541e-05 7.029036169114988297e-06 -2.188723556173499674e-05
1.000000000000000000e+03 1.458114433288574219e+01 3.778201818466186523e+00 -3.960738104069605470e-05 -8.835402695694938302e-06 -1.453283493901835755e-05 1.283615529246162623e-05
1.001000000000000000e+03 1.479354572296142578e+01 2.004823684692382812e+00 2.609579314594157040e-05 4.126256953895790502e-06 9.066615348274353892e-06 1.267664288207015488e-06
1.002000000000000000e+03 1.293734645843505859e+01 2.769639730453491211e+00 -6.261002999963238835e-05 1.317788610322168097e-05 -1.482964216847904027e-05 -1.214241092384327203e-05
1.003000000000000000e+03 1.452237796783447266e+01 6.383751869201660156e+00 -5.928900282015092671e-05 -9.139878329733619466e-07 -1.806089676392730325e-05 1.047083424055017531e-05
1.004000000000000000e+03 1.447110843658447266e+01 7.766013145446777344e+00 6.598362961085513234e-05 3.514054242259589955e-06 2.084930565615650266e-05 -1.026076097332406789e-05
1.005000000000000000e+03 1.445955753326416016e+01 9.142652511596679688e+00 -7.783726323395967484e-05 -3.156351795041700825e-06 -2.429808409942779690e-05 6.998917342571076006e-06
1.006000000000000000e+03 1.452270698547363281e+01 1.188499736785888672e+01 -1.099166038329713047e-04 -1.009919401440129150e-06 -3.327795639052055776e-05 7.293345788639271632e-06
1.007000000000000000e+03 1.454435062408447266e+01 1.325608539581298828e+01 1.254754606634378433e-04 1.705651243355532642e-06 3.815433228737674654e-05 -6.287258202064549550e-06
1.008000000000000000e+03 1.455160903930664062e+01 1.462818622589111328e+01 -1.402872003382071853e-04 -1.166751644632313401e-06 -4.243618604959920049e-05 4.666851054935250431e-06
1.009000000000000000e+03 1.454510402679443359e+01 1.600090217590332031e+01 1.535680639790371060e-04 1.117438159781158902e-06 4.640565020963549614e-05 -3.120558858427102678e-06
1.010000000000000000e+03 1.323144054412841797e+01 2.012817382812500000e+01 1.648178440518677235e-04 -1.262346449948381633e-05 4.565831477520987391e-05 -1.990660393857979216e-06
1.011000000000000000e+03 1.448791885375976562e+01 2.155248451232910156e+01 1.618337264517322183e-04 4.745548665141541278e-07 4.869248368777334690e-05 -1.103768227039836347e-05
1.012000000000000000e+03 1.477823257446289062e+01 2.577101516723632812e+01 -1.979595981538295746e-04 9.075997695617843419e-07 -5.911559856031090021e-05 1.905369572341442108e-05
1.013000000000000000e+03 1.314814281463623047e+01 2.305138969421386719e+01 1.698342384770512581e-04 5.026835879107238725e-06 5.245832289801910520e-05 -9.248709829989820719e-06
1.014000000000000000e+03 1.491320133209228516e+01 2.717393684387207031e+01 2.236057189293205738e-04 -2.001543180085718632e-06 6.648125417996197939e-05 -3.032788845303002745e-05
1.015000000000000000e+03 1.510091495513916016e+01 2.856896209716796875e+01 -2.579198626335710287e-04 -6.160418251965893432e-06 -7.922408258309587836e-05 3.917502181138843298e-05
1.016000000000000000e+03 1.592474460601806641e+01 3.270297241210937500e+01 3.606248938012868166e-04 -5.114316536491969600e-06 1.066531767719425261e-04 -1.075847831089049578e-04
1.017000000000000000e+03 1.631759643554687500e+01 3.404735946655273438e+01 -4.263104347046464682e-04 -6.146926170913502574e-05 -1.463339140173047781e-04 9.662927914177998900e-05
1.018000000000000000e+03 1.530138206481933594e+01 3.589585494995117188e+01 -4.492914013098925352e-04 -4.853060090681537986e-05 -1.493465970270335674e-04 1.224672305397689342e-04
1.019000000000000000e+03 1.719386482238769531e+01 3.650753784179687500e+01 -9.195955353789031506e-04 -2.589533687569200993e-04 -3.535646828822791576e-04 -1.695140963420271873e-04
1.020000000000000000e+03 1.931008148193359375e+01 3.823535919189453125e+01 2.047410234808921814e-04 3.089005185756832361e-04 1.540924567962065339e-04 -6.714608753100037575e-04
1.021000000000000000e+03 2.161972236633300781e+01 3.824967193603515625e+01 1.107369782403111458e-03 8.468313026241958141e-04 5.862603429704904556e-04 -1.647428725846111774e-03
1.022000000000000000e+03 2.324349975585937500e+01 3.855104827880859375e+01 1.071294886060059071e-03 1.546634011901915073e-03 7.853786810301244259e-04 -2.463030861690640450e-03
1.023000000000000000e+03 2.516119384765625000e+01 3.866357421875000000e+01 1.191761228255927563e-03 5.241267499513924122e-04 5.147664342075586319e-04 -2.517712535336613655e-03
1.024000000000000000e+03 2.821220207214355469e+01 3.798596572875976562e+01 2.210318343713879585e-03 -1.572372391819953918e-03 1.913838204927742481e-04 -1.577001763507723808e-03
1.025000000000000000e+03 2.899259185791015625e+01 3.786967086791992188e+01 1.495760283432900906e-03 -4.889359697699546814e-03 -1.018079696223139763e-03 2.360708545893430710e-03
1.026000000000000000e+03 3.069417953491210938e+01 3.812227249145507812e+01 -6.527076475322246552e-03 -1.047841180115938187e-02 -5.101646296679973602e-03 1.118991058319807053e-02
1.027000000000000000e+03 3.108120155334472656e+01 3.745935440063476562e+01 -1.679515931755304337e-03 -1.158331986516714096e-02 -3.978850785642862320e-03 9.221289306879043579e-03
1.028000000000000000e+03 3.260908889770507812e+01 3.756546783447265625e+01 -1.302867475897073746e-02 -1.953890733420848846e-02 -9.770275093615055084e-03 2.803888730704784393e-02
1.029000000000000000e+03 3.429912948608398438e+01 3.713894271850585938e+01 -3.168378397822380066e-02 -3.409813717007637024e-02 -1.973457634449005127e-02 5.605280399322509766e-02
1.030000000000000000e+03 3.696084976196289062e+01 3.766827011108398438e+01 1.152019295841455460e-02 -1.232222169637680054e-01 -3.351060673594474792e-02 1.470514535903930664e-01
1.031000000000000000e+03 3.677996063232421875e+01 3.873746109008789062e+01 4.123389720916748047e-02 -1.596910655498504639e-01 -3.553715348243713379e-02 1.204475387930870056e-01
1.032000000000000000e+03 3.797614669799804688e+01 3.620719909667968750e+01 -1.385443210601806641e-01 -8.770192414522171021e-02 -6.787387281656265259e-02 1.577807813882827759e-01
1.033000000000000000e+03 3.937281799316406250e+01 3.597212219238281250e+01 -1.988869309425354004e-01 -1.211447790265083313e-01 -9.600951522588729858e-02 2.119833081960678101e-01
1.034000000000000000e+03 4.013467407226562500e+01 3.589010238647460938e+01 -2.388102114200592041e-01 -1.122723296284675598e-01 -1.053247675299644470e-01 2.457469105720520020e-01
1.035000000000000000e+03 4.305579376220703125e+01 3.529277420043945312e+01 -4.584542214870452881e-01 -1.673198640346527100e-01 -1.877322196960449219e-01 3.708625137805938721e-01
1.036000000000000000e+03 4.379727172851562500e+01 3.513703536987304688e+01 -5.064851045608520508e-01 -1.864323616027832031e-01 -2.078752368688583374e-01 4.131512045860290527e-01
1.037000000000000000e+03 4.520230102539062500e+01 3.489131927490234375e+01 -6.839278936386108398e-01 -1.927264928817749023e-01 -2.629963159561157227e-01 4.961323142051696777e-01
1.038000000000000000e+03 4.667700195312500000e+01 3.456156158447265625e+01 -8.407629132270812988e-01 -1.465190351009368896e-01 -2.961845695972442627e-01 5.113065838813781738e-01
1.039000000000000000e+03 4.816229248046875000e+01 3.423987960815429688e+01 -1.034328937530517578e+00 -5.140986293554306030e-02 -3.257216215133666992e-01 5.196848511695861816e-01
1.040000000000000000e+03 5.099261474609375000e+01 3.388740158081054688e+01 -1.033667922019958496e+00 4.360802099108695984e-02 -2.970179617404937744e-01 3.003506362438201904e-01
1.041000000000000000e+03 5.174473571777343750e+01 3.377021408081054688e+01 -9.282789230346679688e-01 1.075393930077552795e-01 -2.462218552827835083e-01 2.109887599945068359e-01
1.042000000000000000e+03 5.242815399169921875e+01 3.365924835205078125e+01 -7.683622837066650391e-01 2.457442283630371094e-01 -1.567854136228561401e-01 3.288712725043296814e-02
1.043000000000000000e+03 5.437063598632812500e+01 3.399432373046875000e+01 5.612355470657348633e-01 1.651005268096923828e+00 6.636722683906555176e-01 -1.463978528976440430e+00
1.044000000000000000e+03 5.420614624023437500e+01 3.334080886840820312e+01 -1.933607161045074463e-01 7.054660320281982422e-01 1.536315977573394775e-01 -7.591170072555541992e-01
1.045000000000000000e+03 5.512908935546875000e+01 3.314614486694335938e+01 6.372324228286743164e-01 1.455564141273498535e+00 6.278389692306518555e-01 -1.688331365585327148e+00
1.046000000000000000e+03 5.594689178466796875e+01 3.299680328369140625e+01 1.633500576019287109e+00 2.820748567581176758e+00 1.336274743080139160e+00 -3.112120151519775391e+00
1.047000000000000000e+03 5.616090774536132812e+01 3.326243209838867188e+01 1.678945183753967285e+00 4.305285453796386719e+00 1.795269131660461426e+00 -3.800479173660278320e+00
1.048000000000000000e+03 5.654653549194335938e+01 3.294215393066406250e+01 2.130891084671020508e+00 5.392981052398681641e+00 2.257161617279052734e+00 -4.748046398162841797e+00
1.049000000000000000e+03 5.810728836059570312e+01 3.283769607543945312e+01 1.809148937463760376e-01 1.908635520935058594e+01 5.780180931091308594e+00 -3.545053005218505859e+00
1.050000000000000000e+03 5.791802978515625000e+01 3.282960128784179688e+01 2.417081445455551147e-01 1.820165061950683594e+01 5.533007144927978516e+00 -4.914835453033447266e+00
1.051000000000000000e+03 5.852712249755859375e+01 3.273705673217773438e+01 8.792738318443298340e-01 2.122210121154785156e+01 6.630412101745605469e+00 -7.264704704284667969e-01
1.052000000000000000e+03 5.831587600708007812e+01 3.282141113281250000e+01 2.993605434894561768e-01 2.020633125305175781e+01 6.151707649230957031e+00 -2.376365661621093750e+00
1.053000000000000000e+03 5.889639663696289062e+01 3.252754974365234375e+01 2.867816686630249023e+00 2.106789588928222656e+01 7.180713653564453125e+00 1.606076836585998535e+00
1.054000000000000000e+03 5.906071090698242188e+01 3.239467239379882812e+01 4.118049621582031250e+00 2.072673416137695312e+01 7.453434944152832031e+00 2.612924098968505859e+00
1.055000000000000000e+03 5.963920593261718750e+01 3.141938400268554688e+01 9.885642051696777344e+00 1.657190132141113281e+01 7.937262535095214844e+00 1.503052115440368652e+00
1.056000000000000000e+03 5.906851196289062500e+01 2.996975898742675781e+01 5.050475120544433594e+00 2.012219238281250000e+01 7.551800251007080078e+00 -1.541326999664306641e+00
1.057000000000000000e+03 5.743009185791015625e+01 2.950549507141113281e+01 2.457099437713623047e+00 1.326219558715820312e+01 4.715788364410400391e+00 7.220327854156494141e+00
1.058000000000000000e+03 5.662479019165039062e+01 2.961220741271972656e+01 3.849103689193725586e+00 5.510219573974609375e+00 2.807796955108642578e+00 6.046925067901611328e+00
1.059000000000000000e+03 5.642300415039062500e+01 2.963421440124511719e+01 3.542857646942138672e+00 4.477684497833251953e+00 2.406162738800048828e+00 5.307772636413574219e+00
1.060000000000000000e+03 5.561965560913085938e+01 2.951902770996093750e+01 2.432871580123901367e+00 1.811564087867736816e+00 1.273330688476562500e+00 3.285529136657714844e+00
1.061000000000000000e+03 5.501612472534179688e+01 2.975251579284667969e+01 1.287338376045227051e+00 7.846731543540954590e-01 6.216034889221191406e-01 1.975696563720703125e+00
1.062000000000000000e+03 5.379304122924804688e+01 2.979781341552734375e+01 -4.475627839565277100e-01 2.194879353046417236e-01 -6.842245906591415405e-02 9.230940341949462891e-01
1.063000000000000000e+03 5.319885635375976562e+01 2.986783409118652344e+01 -9.613718986511230469e-01 9.937153756618499756e-02 -2.586001157760620117e-01 6.923936009407043457e-01
1.064000000000000000e+03 5.259623336791992188e+01 2.993507194519042969e+01 -1.220815420150756836e+00 6.845926493406295776e-02 -3.457068502902984619e-01 4.978687465190887451e-01
1.065000000000000000e+03 5.198379516601562500e+01 3.000453186035156250e+01 -1.508282780647277832e+00 2.153522893786430359e-02 -4.460242688655853271e-01 3.434552252292633057e-01
1.066000000000000000e+03 5.057054138183593750e+01 3.017962837219238281e+01 -1.930043578147888184e+00 1.035190187394618988e-02 -5.759075284004211426e-01 1.900091469287872314e-01
1.067000000000000000e+03 4.757229995727539062e+01 3.057129096984863281e+01 -2.030810356140136719e+00 1.366312988102436066e-02 -6.051442027091979980e-01 6.624729186296463013e-02
1.068000000000000000e+03 4.682326889038085938e+01 3.068652534484863281e+01 -1.997569322586059570e+00 1.707544736564159393e-02 -5.941481590270996094e-01 5.120803415775299072e-02
1.069000000000000000e+03 4.607428359985351562e+01 3.080548095703125000e+01 -1.939393758773803711e+00 2.513011731207370758e-02 -5.742790699005126953e-01 4.319820180535316467e-02
1.070000000000000000e+03 4.235237121582031250e+01 3.146735191345214844e+01 -1.555632948875427246e+00 3.494286164641380310e-02 -4.562070369720458984e-01 -8.853939361870288849e-03
1.071000000000000000e+03 4.309394073486328125e+01 3.132703208923339844e+01 -1.640952706336975098e+00 3.448057174682617188e-02 -4.819416403770446777e-01 1.197668490931391716e-03
1.072000000000000000e+03 4.383819198608398438e+01 3.119236564636230469e+01 -1.724429726600646973e+00 2.934757433831691742e-02 -5.085246562957763672e-01 1.124972663819789886e-02
1.073000000000000000e+03 4.087698364257812500e+01 3.175823783874511719e+01 -1.383026242256164551e+00 4.401472210884094238e-02 -4.017034769058227539e-01 -2.500124461948871613e-02
1.074000000000000000e+03 4.014034652709960938e+01 3.190341949462890625e+01 -1.292161226272583008e+00 4.678879678249359131e-02 -3.736117184162139893e-01 -3.013074398040771484e-02
1.075000000000000000e+03 3.645625305175781250e+01 3.260878372192382812e+01 -8.649180531501770020e-01 4.106327518820762634e-02 -2.471564263105392456e-01 -6.765942275524139404e-02
1.076000000000000000e+03 3.793019104003906250e+01 3.232571411132812500e+01 -1.029006719589233398e+00 4.233976453542709351e-02 -2.960000932216644287e-01 -5.385991558432579041e-02
1.077000000000000000e+03 3.935315322875976562e+01 3.137108230590820312e+01 -1.112625837326049805e+00 6.912882626056671143e-02 -3.130490779876708984e-01 -1.290763914585113525e-01
1.078000000000000000e+03 3.498498916625976562e+01 3.290102005004882812e+01 -7.107874751091003418e-01 4.078083112835884094e-02 -2.010020017623901367e-01 -7.647600769996643066e-02
1.079000000000000000e+03 3.424982070922851562e+01 3.304657745361328125e+01 -6.367492675781250000e-01 4.015808925032615662e-02 -1.789773553609848022e-01 -7.888471335172653198e-02
1.080000000000000000e+03 3.132806777954101562e+01 3.360888671875000000e+01 -3.806857764720916748e-01 2.914606593549251556e-02 -1.054619103670120239e-01 -8.154841512441635132e-02
1.081000000000000000e+03 3.278682708740234375e+01 3.333116531372070312e+01 -5.007625818252563477e-01 3.561861440539360046e-02 -1.395431905984878540e-01 -8.231510221958160400e-02
1.082000000000000000e+03 2.914277458190917969e+01 3.397070693969726562e+01 -2.329182326793670654e-01 1.564793847501277924e-02 -6.518109142780303955e-02 -7.471146434545516968e-02
1.083000000000000000e+03 2.841407966613769531e+01 3.407899475097656250e+01 -1.924331188201904297e-01 1.127241645008325577e-02 -5.434820801019668579e-02 -7.024545222520828247e-02
1.084000000000000000e+03 2.769025993347167969e+01 3.417185592651367188e+01 -1.562185287475585938e-01 6.059739273041486740e-03 -4.504763707518577576e-02 -6.527455896139144897e-02
1.085000000000000000e+03 2.381130409240722656e+01 3.439971542358398438e+01 -3.213180601596832275e-02 -1.279780082404613495e-02 -1.347888261079788208e-02 -2.380621992051601410e-02
1.086000000000000000e+03 2.117760467529296875e+01 3.421259307861328125e+01 -4.583047237247228622e-03 -2.397048054262995720e-03 -2.094028750434517860e-03 -1.863537239842116833e-03
1.087000000000000000e+03 5.863759231567382812e+01 3.310239410400390625e+01 3.660691678524017334e-01 1.917140769958496094e+01 5.861242771148681641e+00 -9.038084745407104492e-01
1.088000000000000000e+03 5.935645675659179688e+01 3.208180618286132812e+01 6.820302486419677734e+00 1.886086273193359375e+01 7.704349994659423828e+00 3.153458833694458008e+00
1.089000000000000000e+03 6.018146514892578125e+01 3.150935745239257812e+01 8.192411422729492188e+00 1.487323284149169922e+01 6.919693470001220703e+00 1.395401358604431152e+00
1.090000000000000000e+03 5.921268844604492188e+01 3.224509811401367188e+01 5.663106918334960938e+00 1.963935089111328125e+01 7.590737342834472656e+00 3.067070484161376953e+00
1.091000000000000000e+03 5.948972702026367188e+01 3.072273445129394531e+01 9.985249519348144531e+00 1.734870910644531250e+01 8.200187683105468750e+00 -1.282387137413024902e+00
1.092000000000000000e+03 5.772872161865234375e+01 3.285567855834960938e+01 6.923241615295410156e-01 1.643076896667480469e+01 5.136927604675292969e+00 -5.762246131896972656e+00
1.093000000000000000e+03 5.939544677734375000e+01 3.053228759765625000e+01 9.143812179565429688e+00 1.811038970947265625e+01 8.176260948181152344e+00 -1.842088460922241211e+00
1.094000000000000000e+03 5.945286941528320312e+01 3.259910583496093750e+01 3.958704948425292969e+00 1.847970390319824219e+01 6.731523036956787109e+00 2.572083711624145508e+00
1.095000000000000000e+03 5.830447387695312500e+01 2.955654907226562500e+01 1.546688318252563477e+00 2.024427986145019531e+01 6.537290573120117188e+00 3.107133150100708008e+00
1.096000000000000000e+03 5.964125442504882812e+01 3.116622924804687500e+01 1.026337242126464844e+01 1.632930755615234375e+01 7.977803707122802734e+00 5.017396807670593262e-01
1.097000000000000000e+03 5.961677169799804688e+01 3.167741775512695312e+01 9.090767860412597656e+00 1.699523544311523438e+01 7.825801372528076172e+00 2.348847389221191406e+00
1.098000000000000000e+03 5.888615417480468750e+01 2.983171272277832031e+01 3.786973476409912109e+00 2.065800285339355469e+01 7.333492755889892578e+00 -7.131003737449645996e-01
1.099000000000000000e+03 5.474834823608398438e+01 3.322921752929687500e+01 2.294162511825561523e-01 1.208762645721435547e+00 4.314536452293395996e-01 -1.226707339286804199e+00
1.100000000000000000e+03 5.555524826049804688e+01 3.304943847656250000e+01 1.104557752609252930e+00 2.084231853485107422e+00 9.566369056701660156e-01 -2.348813295364379883e+00
1.101000000000000000e+03 5.635395050048828125e+01 3.298367309570312500e+01 1.963429808616638184e+00 4.591513156890869141e+00 1.966482877731323242e+00 -4.244054317474365234e+00
1.102000000000000000e+03 5.753319549560546875e+01 3.287355422973632812e+01 1.175890445709228516e+00 1.405991744995117188e+01 4.570742607116699219e+00 -6.113407611846923828e+00
1.103000000000000000e+03 5.733376312255859375e+01 3.289993286132812500e+01 1.448073267936706543e+00 1.205282783508300781e+01 4.050270557403564453e+00 -6.273739337921142578e+00
1.104000000000000000e+03 5.575185394287109375e+01 3.302146911621093750e+01 1.368481397628784180e+00 2.487027883529663086e+00 1.156652808189392090e+00 -2.737797021865844727e+00
1.105000000000000000e+03 5.662438583374023438e+01 3.335403442382812500e+01 1.607478022575378418e+00 6.889615058898925781e+00 2.549127817153930664e+00 -4.888332366943359375e+00
1.106000000000000000e+03 5.712534713745117188e+01 3.294265747070312500e+01 1.772278785705566406e+00 9.882124900817871094e+00 3.496321201324462891e+00 -6.057264328002929688e+00
1.107000000000000000e+03 5.535208511352539062e+01 3.308973693847656250e+01 8.254039883613586426e-01 1.920987725257873535e+00 8.239175081253051758e-01 -1.918853759765625000e+00
1.108000000000000000e+03 5.637718200683593750e+01 3.332994461059570312e+01 1.665118098258972168e+00 5.663955688476562500e+00 2.198722124099731445e+00 -4.383920192718505859e+00
1.109000000000000000e+03 5.741227340698242188e+01 3.349482345581054688e+01 4.719621837139129639e-01 1.227810096740722656e+01 3.825019121170043945e+00 -5.008605003356933594e+00
1.110000000000000000e+03 5.627859497070312500e+01 2.938441085815429688e+01 3.184746503829956055e+00 4.371394157409667969e+00 2.266842126846313477e+00 5.120559215545654297e+00
1.111000000000000000e+03 5.543084335327148438e+01 2.974201774597167969e+01 1.747026920318603516e+00 1.262066841125488281e+00 9.027281403541564941e-01 2.560611248016357422e+00
1.112000000000000000e+03 5.437915420532226562e+01 2.972170639038085938e+01 3.147040903568267822e-01 4.839592576026916504e-01 2.395990043878555298e-01 1.361574888229370117e+00
1.113000000000000000e+03 5.765467071533203125e+01 2.947080421447753906e+01 1.972494840621948242e+00 1.531723785400390625e+01 5.186919689178466797e+00 6.642087936401367188e+00
1.114000000000000000e+03 5.683323287963867188e+01 2.962539863586425781e+01 3.886371374130249023e+00 7.277086257934570312e+00 3.349037170410156250e+00 6.883390903472900391e+00
1.115000000000000000e+03 5.622808074951171875e+01 2.965523529052734375e+01 3.312463521957397461e+00 3.230639934539794922e+00 1.962931036949157715e+00 4.602433204650878906e+00
1.116000000000000000e+03 5.602498626708984375e+01 2.967242431640625000e+01 2.941715240478515625e+00 2.503532409667968750e+00 1.633574366569519043e+00 4.034849166870117188e+00
1.117000000000000000e+03 2.035406112670898438e+01 3.786627578735351562e+01 8.843903196975588799e-04 5.832272581756114960e-04 4.402852791827172041e-04 -7.904924568720161915e-04
1.118000000000000000e+03 1.420981121063232422e+01 1.868742942810058594e+00 -9.152414349955506623e-06 -3.414093271203455515e-06 -3.769952400034526363e-06 2.164505531254690140e-06
1.119000000000000000e+03 1.257275485992431641e+01 1.730816483497619629e+00 1.368551966152153909e-05 3.477066456980537623e-06 5.148775926500093192e-06 6.773885274924396072e-07
1.120000000000000000e+03 1.972468376159667969e+01 3.827688980102539062e+01 4.153243207838386297e-04 9.770982433110475540e-04 4.177267546765506268e-04 -9.688009740784764290e-04
1.121000000000000000e+03 5.304299926757812500e+01 3.355848312377929688e+01 -5.821882486343383789e-01 3.594844043254852295e-01 -6.681115180253982544e-02 -1.705048680305480957e-01
1.122000000000000000e+03 5.320501708984375000e+01 3.434735488891601562e+01 1.476276367902755737e-01 9.771580100059509277e-01 3.374356925487518311e-01 -6.605808734893798828e-01
1.123000000000000000e+03 5.363504028320312500e+01 3.345468902587890625e+01 -4.329026639461517334e-01 5.754053592681884766e-01 4.275081679224967957e-02 -4.588724374771118164e-01
1.124000000000000000e+03 5.381544113159179688e+01 3.419265747070312500e+01 3.648913204669952393e-01 1.187383651733398438e+00 4.656824767589569092e-01 -1.019980669021606445e+00
1.125000000000000000e+03 5.563217163085937500e+01 2.974327087402343750e+01 2.181012630462646484e+00 1.516151905059814453e+00 1.109149336814880371e+00 2.970834255218505859e+00
1.126000000000000000e+03 5.369467163085937500e+01 2.928886985778808594e+01 3.217090070247650146e-01 4.726300537586212158e-01 2.383017241954803467e-01 1.315511345863342285e+00
1.127000000000000000e+03 2.059467697143554688e+01 3.863857269287109375e+01 8.053934434428811073e-04 5.251467810012400150e-04 3.991620615124702454e-04 -1.172784948721528053e-03
1.128000000000000000e+03 2.288415145874023438e+01 3.978890609741210938e+01 -1.478710211813449860e-03 7.960735238157212734e-04 -2.047909947577863932e-04 -8.426522254012525082e-04
1.129000000000000000e+03 6.055431842803955078e+00 1.888385176658630371e+00 -1.207038349093636498e-05 -1.312905442318879068e-05 -7.559831374237546697e-06 4.520309630606789142e-06
1.130000000000000000e+03 9.664167404174804688e+00 2.537877559661865234e+00 -2.296791717526502907e-05 -7.117153927538311109e-06 -9.025521649164147675e-06 6.575485826942895073e-07
1.131000000000000000e+03 6.776381969451904297e+00 1.878787279129028320e+00 1.281807726627448574e-05 1.192675154015887529e-05 7.423448550980538130e-06 -3.222749000997282565e-06
1.132000000000000000e+03 7.475244998931884766e+00 2.610054731369018555e+00 1.779278318281285465e-05 1.185138080472825095e-05 8.893249287211801857e-06 -1.046309535013278946e-06
1.133000000000000000e+03 8.209366798400878906e+00 3.301601409912109375e+00 2.314035009476356208e-05 1.139887535828165710e-05 1.036176763591356575e-05 3.331242623971775174e-06
1.134000000000000000e+03 6.045612812042236328e+00 4.177300930023193359e+00 2.716868220886681229e-05 1.252904621651396155e-05 1.190931834571529180e-05 -3.886585545842535794e-06
1.135000000000000000e+03 1.683587193489074707e+00 7.849933624267578125e+00 6.985475192777812481e-05 1.865720150817651302e-06 2.151614171452820301e-05 -1.439208972442429513e-06
1.136000000000000000e+03 3.873367011547088623e-01 3.783761739730834961e+00 6.781113916076719761e-05 1.170709037978667766e-05 2.385546758887358010e-05 1.915515895234420896e-05
1.137000000000000000e+03 2.424048185348510742e+00 4.529669761657714844e+00 1.073679050023201853e-05 -4.804016953130485490e-07 3.076916527788853273e-06 3.065195778617635369e-05
1.138000000000000000e+03 3.835185766220092773e-01 2.095525741577148438e+00 -2.373426286794710904e-05 -1.305537534790346399e-05 -1.103689191950252280e-05 8.056800652411766350e-06
1.139000000000000000e+03 1.113249063491821289e+00 1.937036991119384766e+00 -2.837310148606775329e-06 2.044840948656201363e-05 5.283329755911836401e-06 1.566241962791536935e-06
1.140000000000000000e+03 1.113119220733642578e+01 1.785540103912353516e+00 1.599467213964089751e-05 8.384591637877747416e-06 7.313778951356653124e-06 -1.450130184821318835e-06
1.141000000000000000e+03 9.690698623657226562e+00 3.244586467742919922e+00 3.108562304987572134e-05 4.506853656494058669e-06 1.067774337570881471e-05 -5.189742751099402085e-07
1.142000000000000000e+03 2.551342964172363281e+01 3.438318634033203125e+01 -7.232625037431716919e-02 -7.003161124885082245e-03 -2.379882335662841797e-02 -4.323651641607284546e-02
1.143000000000000000e+03 2.692848777770996094e+01 3.255088043212890625e+01 -1.546296328306198120e-01 -1.595530658960342407e-02 -5.117547884583473206e-02 -1.269762367010116577e-01
1.144000000000000000e+03 2.692683601379394531e+01 3.339530181884765625e+01 -1.426059007644653320e-01 -6.231382954865694046e-03 -4.465118423104286194e-02 -9.244754910469055176e-02
1.145000000000000000e+03 2.381443786621093750e+01 3.113601112365722656e+01 -5.223869159817695618e-02 -8.066140115261077881e-02 -3.987002745270729065e-02 -1.027185991406440735e-01
1.146000000000000000e+03 2.839009284973144531e+01 3.329314422607421875e+01 -2.103540599346160889e-01 8.469102904200553894e-03 -6.056548655033111572e-02 -1.088592633605003357e-01
1.147000000000000000e+03 2.911736869812011719e+01 3.321066665649414062e+01 -2.498318403959274292e-01 1.596322655677795410e-02 -7.016058266162872314e-02 -1.159624978899955750e-01
1.148000000000000000e+03 3.057125091552734375e+01 3.300248718261718750e+01 -3.396295309066772461e-01 2.902917936444282532e-02 -9.318009763956069946e-02 -1.284081935882568359e-01
1.149000000000000000e+03 3.059991073608398438e+01 3.373742294311523438e+01 -3.272875547409057617e-01 2.478640340268611908e-02 -9.075034409761428833e-02 -8.024314790964126587e-02
1.150000000000000000e+03 2.984460830688476562e+01 3.311276245117187500e+01 -2.928721606731414795e-01 2.226086333394050598e-02 -8.118339627981185913e-02 -1.225214079022407532e-01
1.151000000000000000e+03 5.107093811035156250e+01 3.573548889160156250e+01 2.170828282833099365e-01 5.612401366233825684e-01 2.334968745708465576e-01 -1.920556426048278809e-01
1.152000000000000000e+03 4.935629272460937500e+01 3.495642852783203125e+01 -5.209802389144897461e-01 5.840113759040832520e-02 -1.387737244367599487e-01 3.715235292911529541e-01
1.153000000000000000e+03 5.100303649902343750e+01 3.482826995849609375e+01 -2.782236337661743164e-01 2.510741055011749268e-01 -8.144853636622428894e-03 7.704140990972518921e-02
1.154000000000000000e+03 5.181506347656250000e+01 3.466901779174804688e+01 -1.441331803798675537e-01 4.049649536609649658e-01 7.824953645467758179e-02 -1.545469015836715698e-01
1.155000000000000000e+03 5.254372024536132812e+01 3.449938964843750000e+01 3.046093508601188660e-03 5.953756570816040039e-01 1.795265376567840576e-01 -3.382965028285980225e-01
1.156000000000000000e+03 4.880634689331054688e+01 3.407946777343750000e+01 -1.144846558570861816e+00 -6.494912505149841309e-02 -3.629387021064758301e-01 4.962308704853057861e-01
1.157000000000000000e+03 4.594320678710937500e+01 3.471741867065429688e+01 -7.730081677436828613e-01 -1.434117704629898071e-01 -2.749259769916534424e-01 5.280247330665588379e-01
1.158000000000000000e+03 3.205714797973632812e+01 3.347109603881835938e+01 -4.389075934886932373e-01 3.223270177841186523e-02 -1.220024675130844116e-01 -8.256192505359649658e-02
1.159000000000000000e+03 3.275316238403320312e+01 3.262416458129882812e+01 -5.004175305366516113e-01 4.475803673267364502e-02 -1.366978585720062256e-01 -1.418381184339523315e-01
1.160000000000000000e+03 3.129747390747070312e+01 3.288302612304687500e+01 -3.897700905799865723e-01 3.454745188355445862e-02 -1.065667942166328430e-01 -1.338115334510803223e-01
1.161000000000000000e+03 3.348317718505859375e+01 3.248908615112304688e+01 -5.603042840957641602e-01 4.958083853125572205e-02 -1.532170325517654419e-01 -1.442831456661224365e-01
1.162000000000000000e+03 4.533083724975585938e+01 3.605787277221679688e+01 -2.596608698368072510e-01 -2.203164845705032349e-01 -1.439931988716125488e-01 4.881403744220733643e-01
1.163000000000000000e+03 4.614944458007812500e+01 3.566988372802734375e+01 -3.220297098159790039e-01 -1.579897403717041016e-01 -1.440058350563049316e-01 5.171059370040893555e-01
1.164000000000000000e+03 4.375128173828125000e+01 3.680791473388671875e+01 -1.014856696128845215e-01 -2.631058394908905029e-01 -1.093774586915969849e-01 4.371922612190246582e-01
1.165000000000000000e+03 1.180089759826660156e+01 -2.613539695739746094e+00 -1.707681949483230710e-04 -8.007429642020724714e-06 -5.363268428482115269e-05 3.643005766207352281e-05
1.166000000000000000e+03 1.039938259124755859e+01 -3.271481275558471680e+00 8.636928396299481392e-05 9.505989874014630914e-05 5.442875408334657550e-05 -4.301232911529950798e-05
1.167000000000000000e+03 1.110175132751464844e+01 -2.588987827301025391e+00 1.216269665746949613e-04 5.362540105124935508e-05 5.257570956018753350e-05 -5.224211054155603051e-05
1.168000000000000000e+03 4.303040313720703125e+01 3.621385574340820312e+01 -2.902319133281707764e-01 -2.221364378929138184e-01 -1.537104994058609009e-01 4.149001836776733398e-01
1.169000000000000000e+03 4.156391906738281250e+01 3.542861557006835938e+01 -3.668532967567443848e-01 -1.262915581464767456e-01 -1.479434520006179810e-01 3.117084503173828125e-01
1.170000000000000000e+03 3.392068862915039062e+01 3.893702697753906250e+01 -8.601471781730651855e-03 -4.621921107172966003e-02 -1.644620485603809357e-02 4.197289794683456421e-02
1.171000000000000000e+03 3.504843902587890625e+01 3.691563415527343750e+01 -3.529004007577896118e-02 -6.375426054000854492e-02 -2.971328981220722198e-02 6.284753233194351196e-02
1.172000000000000000e+03 3.725426483154296875e+01 3.639947128295898438e+01 -1.074684783816337585e-01 -6.994657963514328003e-02 -5.322451516985893250e-02 1.353223174810409546e-01
1.173000000000000000e+03 3.860764694213867188e+01 3.799817276000976562e+01 2.824485301971435547e-03 -1.778923273086547852e-01 -5.252035334706306458e-02 2.229213267564773560e-01
1.174000000000000000e+03 3.913784790039062500e+01 3.672895050048828125e+01 -1.269119977951049805e-01 -1.371003240346908569e-01 -7.920369505882263184e-02 2.248672991991043091e-01
1.175000000000000000e+03 3.783386993408203125e+01 3.097178459167480469e+01 -8.944130539894104004e-01 7.995302975177764893e-02 -2.443380057811737061e-01 -2.130124121904373169e-01
1.176000000000000000e+03 3.861858367919921875e+01 3.151096534729003906e+01 -1.039420485496520996e+00 6.596957892179489136e-02 -2.920352816581726074e-01 -1.340525299310684204e-01
1.177000000000000000e+03 3.866712951660156250e+01 3.218605804443359375e+01 -1.115599274635314941e+00 4.536704719066619873e-02 -3.210696578025817871e-01 -4.519450291991233826e-02
1.178000000000000000e+03 4.008655548095703125e+01 3.122871398925781250e+01 -1.185472130775451660e+00 6.872329115867614746e-02 -3.350246548652648926e-01 -1.262049227952957153e-01
1.179000000000000000e+03 3.567948150634765625e+01 3.207064819335937500e+01 -7.553544640541076660e-01 5.758672952651977539e-02 -2.093303054571151733e-01 -1.464817523956298828e-01
1.180000000000000000e+03 3.421438980102539062e+01 3.235140228271484375e+01 -6.233699321746826172e-01 5.261509492993354797e-02 -1.712264418601989746e-01 -1.462439000606536865e-01
1.181000000000000000e+03 3.494666671752929688e+01 3.221166229248046875e+01 -6.881239414215087891e-01 5.604097247123718262e-02 -1.896248906850814819e-01 -1.469146311283111572e-01
1.182000000000000000e+03 3.788347625732421875e+01 3.164983177185058594e+01 -9.666544795036315918e-01 6.492049992084503174e-02 -2.705201804637908936e-01 -1.377604007720947266e-01
1.183000000000000000e+03 4.155742645263671875e+01 3.093749046325683594e+01 -1.322240948677062988e+00 6.544658541679382324e-02 -3.770383000373840332e-01 -1.165550276637077332e-01
1.184000000000000000e+03 4.378615570068359375e+01 3.051230049133300781e+01 -1.499141454696655273e+00 6.010154634714126587e-02 -4.317119717597961426e-01 -8.911784738302230835e-02
1.185000000000000000e+03 1.244244575500488281e+01 2.274085521697998047e+00 -2.319250597793143243e-05 -5.314535883371718228e-06 -8.552112376492004842e-06 -8.165062354237306863e-06
1.186000000000000000e+03 1.040123844146728516e+01 2.487665176391601562e+00 2.183544711442664266e-05 6.815580491092987359e-06 8.595307917858008295e-06 -2.084400648527662270e-06
1.187000000000000000e+03 1.299106025695800781e+01 2.289628028869628906e+00 1.971564961422700435e-05 -7.153889036715099792e-09 5.912549113418208435e-06 3.558344133125501685e-06
1.188000000000000000e+03 1.340209770202636719e+01 2.445139646530151367e+00 3.527636181388515979e-06 -7.198710136435693130e-06 -1.101322254726255778e-06 -1.386744224873837084e-05
1.189000000000000000e+03 4.458243560791015625e+01 3.106005287170410156e+01 -1.803106546401977539e+00 3.022735938429832458e-02 -5.318637490272521973e-01 2.227832376956939697e-02
1.190000000000000000e+03 4.303966140747070312e+01 3.064942550659179688e+01 -1.444999217987060547e+00 6.001028791069984436e-02 -4.154966771602630615e-01 -1.006509959697723389e-01
1.191000000000000000e+03 4.453295516967773438e+01 3.038118553161621094e+01 -1.547441363334655762e+00 5.474963784217834473e-02 -4.478075206279754639e-01 -7.773900777101516724e-02
1.192000000000000000e+03 3.350045013427734375e+01 3.739961624145507812e+01 -1.654997654259204865e-02 -4.349263757467269897e-02 -1.801278442144393921e-02 4.243220016360282898e-02
1.193000000000000000e+03 3.011398124694824219e+01 3.933221817016601562e+01 1.599870738573372364e-03 -2.074628509581089020e-02 -5.743924062699079514e-03 5.379344802349805832e-03
1.194000000000000000e+03 4.753947830200195312e+01 2.993881988525390625e+01 -1.636942505836486816e+00 3.937896713614463806e-02 -4.792690575122833252e-01 3.435216611251235008e-03
1.195000000000000000e+03 4.904802703857421875e+01 2.977774238586425781e+01 -1.577236294746398926e+00 3.497959300875663757e-02 -4.626770317554473877e-01 8.843912184238433838e-02
1.196000000000000000e+03 4.528095245361328125e+01 3.025695991516113281e+01 -1.586573123931884766e+00 5.465029925107955933e-02 -4.595768451690673828e-01 -6.177618354558944702e-02
1.197000000000000000e+03 4.678572463989257812e+01 3.003474998474121094e+01 -1.632352471351623535e+00 4.635425657033920288e-02 -4.757994711399078369e-01 -2.333136275410652161e-02
1.198000000000000000e+03 5.052880096435546875e+01 2.964611625671386719e+01 -1.377642869949340820e+00 5.151728540658950806e-02 -3.978376686573028564e-01 2.251169830560684204e-01
1.199000000000000000e+03 5.312593841552734375e+01 2.936560630798339844e+01 -1.787966191768646240e-01 2.825174033641815186e-01 3.111623972654342651e-02 9.130653738975524902e-01
1.200000000000000000e+03 4.907316589355468750e+01 3.035954093933105469e+01 -2.043943643569946289e+00 5.707282107323408127e-03 -6.114708781242370605e-01 1.131514385342597961e-01
1.201000000000000000e+03 4.979542922973632812e+01 2.971108055114746094e+01 -1.498549222946166992e+00 4.410413652658462524e-02 -4.363335072994232178e-01 1.507944166660308838e-01
1.202000000000000000e+03 2.997802734375000000e+01 3.845696640014648438e+01 -1.888278173282742500e-03 -1.482497900724411011e-02 -5.013977177441120148e-03 1.129048038274049759e-02
1.203000000000000000e+03 2.973273277282714844e+01 3.769919586181640625e+01 -1.684199523879215121e-04 -5.061724688857793808e-03 -1.569043495692312717e-03 2.702339552342891693e-03
1.204000000000000000e+03 3.043516540527343750e+01 3.751794052124023438e+01 -1.691911456873640418e-04 -1.109170075505971909e-02 -3.378267632797360420e-03 1.032484602183103561e-02
1.205000000000000000e+03 3.123013114929199219e+01 3.879860305786132812e+01 3.742949571460485458e-03 -3.218242526054382324e-02 -8.531842380762100220e-03 1.574032008647918701e-02
1.206000000000000000e+03 8.099150657653808594e+00 -1.876384854316711426e+00 -7.672558422200381756e-05 -5.494582001119852066e-05 -3.950142126996070147e-05 -5.496519952430389822e-05
1.207000000000000000e+03 9.654152870178222656e+00 -2.568785667419433594e+00 6.944274355191737413e-05 8.223948680097237229e-05 4.550466837827116251e-05 1.484018412156729028e-05
1.208000000000000000e+03 7.421670436859130859e+00 -2.680116415023803711e+00 -1.044801319949328899e-04 -4.365622226032428443e-05 -4.444090518518351018e-05 -8.004709525266662240e-05
1.209000000000000000e+03 8.180008888244628906e+00 -2.640828371047973633e+00 1.003418001346290112e-04 5.335271998774260283e-05 4.610835458151996136e-05 6.959530583117157221e-05
1.210000000000000000e+03 8.921165466308593750e+00 -2.599278450012207031e+00 -7.742467278148978949e-05 -7.386208744719624519e-05 -4.538602661341428757e-05 -5.305218292050994933e-05
1.211000000000000000e+03 6.567899227142333984e+00 -1.897841691970825195e+00 -9.253617463400587440e-05 -1.593842353031504899e-05 -3.254237890359945595e-05 -7.409033423755317926e-05
1.212000000000000000e+03 6.648460865020751953e+00 -2.708466768264770508e+00 1.197482633870095015e-04 2.429836240480653942e-05 4.321398591855540872e-05 9.340474935015663505e-05
1.213000000000000000e+03 5.123991489410400391e+00 -2.697129249572753906e+00 1.721158332657068968e-04 -2.927616333181504160e-05 4.285190152586437762e-05 1.955461812030989677e-05
1.214000000000000000e+03 1.641223549842834473e+00 -7.955036640167236328e+00 4.133463371545076370e-04 -7.983193768268392887e-07 1.237644028151407838e-04 8.254911335825454444e-06
1.215000000000000000e+03 3.907587051391601562e+00 -3.496872425079345703e+00 5.839232471771538258e-05 -6.948739610379561782e-05 -3.328521188450395130e-06 -5.661567774950526655e-05
1.216000000000000000e+03 4.750721156597137451e-01 -3.625267744064331055e+00 2.698834869079291821e-04 -9.710627637105062604e-06 7.805186032783240080e-05 -1.532671376480720937e-05
1.217000000000000000e+03 4.108920395374298096e-01 -2.207037210464477539e+00 -2.529798366595059633e-04 3.323330247440026142e-06 -7.489695417461916804e-05 8.528713806299492717e-06
1.218000000000000000e+03 5.213144421577453613e-01 -5.053732872009277344e+00 -2.842184621840715408e-04 -9.256962584913708270e-06 -8.804263052297756076e-05 1.568061452417168766e-05
1.219000000000000000e+03 2.607735443115234375e+01 3.848152923583984375e+01 2.419567666947841644e-03 3.123328788205981255e-04 8.195701520889997482e-04 -2.150553511455655098e-03
1.220000000000000000e+03 2.676160812377929688e+01 3.813559341430664062e+01 1.557283336296677589e-03 1.236837706528604031e-04 5.042901029810309410e-04 -1.168669783510267735e-03
1.221000000000000000e+03 2.835800933837890625e+01 3.891077804565429688e+01 -3.846795298159122467e-03 -3.675844520330429077e-03 -2.256792038679122925e-03 1.307529513724148273e-03
1.222000000000000000e+03 2.925193595886230469e+01 3.877162933349609375e+01 -3.096684347838163376e-03 -9.416881017386913300e-03 -3.754069795832037926e-03 5.637627909891307354e-04
1.223000000000000000e+03 2.461541557312011719e+01 4.118094253540039062e+01 -1.642213552258908749e-03 3.030082152690738440e-04 -4.017615865450352430e-04 -2.429831074550747871e-03
1.224000000000000000e+03 2.396555709838867188e+01 3.997444534301757812e+01 -1.910497550852596760e-03 3.186670597642660141e-03 3.828518674708902836e-04 -3.042647847905755043e-03
1.225000000000000000e+03 2.737045288085937500e+01 3.865697479248046875e+01 1.144920359365642071e-03 5.957151879556477070e-04 5.221906467340886593e-04 -1.170614035800099373e-03
1.226000000000000000e+03 2.524324035644531250e+01 4.004976272583007812e+01 -2.321531297639012337e-03 -2.353986026719212532e-03 -1.402655267156660557e-03 -2.123115817084908485e-03
1.227000000000000000e+03 2.291318511962890625e+01 3.437779617309570312e+01 -1.773115806281566620e-02 -1.298325136303901672e-02 -9.214323014020919800e-03 -1.324291899800300598e-02
1.228000000000000000e+03 2.288944625854492188e+01 3.332207870483398438e+01 -2.552781999111175537e-02 -2.837752364575862885e-02 -1.617160439491271973e-02 -3.078720904886722565e-02
1.229000000000000000e+03 2.618325996398925781e+01 3.341508483886718750e+01 -1.134788990020751953e-01 -1.297703944146633148e-02 -3.793678060173988342e-02 -8.245883136987686157e-02
1.230000000000000000e+03 2.200605773925781250e+01 3.329863739013671875e+01 -1.082342676818370819e-02 -2.161967195570468903e-02 -9.732929058372974396e-03 -1.602313481271266937e-02
1.231000000000000000e+03 2.547984504699707031e+01 3.147638130187988281e+01 -1.047836542129516602e-01 -5.797474831342697144e-02 -4.882752150297164917e-02 -1.405625939369201660e-01
1.232000000000000000e+03 2.094810295104980469e+01 3.233095550537109375e+01 -2.189443213865160942e-03 -1.296257879585027695e-02 -4.545606672763824463e-03 -8.989162743091583252e-03
1.233000000000000000e+03 2.012658691406250000e+01 3.838940048217773438e+01 4.459961492102593184e-04 1.298002025578171015e-04 1.727389026200398803e-04 -6.605674861930310726e-04
1.234000000000000000e+03 2.216862869262695312e+01 -4.115865707397460938e+01 2.953062951564788818e-01 -1.191382050514221191e+00 -2.688227295875549316e-01 6.720101833343505859e-02
1.235000000000000000e+03 1.251797103881835938e+01 -3.671210861206054688e+01 5.857459455728530884e-02 -3.403686359524726868e-02 7.361319381743669510e-03 3.528439672663807869e-03
1.236000000000000000e+03 1.803835105895996094e+01 -4.132658004760742188e+01 9.308603405952453613e-02 -7.964260578155517578e-01 -2.110020071268081665e-01 -1.476584672927856445e-01
1.237000000000000000e+03 1.345185375213623047e+01 2.598014068603515625e+01 2.139556017937138677e-04 -8.802294360066298395e-06 6.154599395813420415e-05 -1.516545489721465856e-05
1.238000000000000000e+03 1.193379020690917969e+01 2.474030303955078125e+01 2.021794352913275361e-04 -5.481186690303729847e-06 5.900947508052922785e-05 -1.655347659834660590e-05
1.239000000000000000e+03 1.426704883575439453e+01 3.167215156555175781e+01 3.215235192328691483e-04 -2.479700015101116151e-05 8.901795081328600645e-05 -4.464732410269789398e-05
1.240000000000000000e+03 1.674458694458007812e+01 3.534336853027343750e+01 4.678634868469089270e-04 -1.165211142506450415e-05 1.368634111713618040e-04 -1.509528519818559289e-04
1.241000000000000000e+03 1.706906127929687500e+01 3.769261169433593750e+01 7.198711391538381577e-04 -3.710150194820016623e-04 1.046568359015509486e-04 1.323776523349806666e-04
1.242000000000000000e+03 1.487240123748779297e+01 3.451715469360351562e+01 3.662466478999704123e-04 -9.343262718175537884e-06 1.070710131898522377e-04 -1.170429313788190484e-04
1.243000000000000000e+03 1.450862598419189453e+01 1.875329208374023438e+01 1.665511517785489559e-04 -1.362181251352012623e-06 4.955668919137679040e-05 -3.268585714977234602e-06
1.244000000000000000e+03 1.332172012329101562e+01 1.873079490661621094e+01 -1.594574423506855965e-04 5.837621301907347515e-06 -4.608594827004708350e-05 -5.011550001654541120e-06
1.245000000000000000e+03 1.465527534484863281e+01 2.436643791198730469e+01 1.757105783326551318e-04 1.115910777116368990e-06 5.304794831317849457e-05 -1.427301049261586741e-05
1.246000000000000000e+03 1.381573772430419922e+01 2.884498214721679688e+01 2.589703071862459183e-04 -1.044638429448241368e-05 7.455717422999441624e-05 -2.574726204329635948e-05
1.247000000000000000e+03 1.362694454193115234e+01 2.741686630249023438e+01 -2.379077486693859100e-04 8.450188033748418093e-06 -6.883726746309548616e-05 1.677124419074971229e-05
1.248000000000000000e+03 1.402579402923583984e+01 3.025984191894531250e+01 -3.005492035299539566e-04 6.056270649423822761e-06 -8.834787877276539803e-05 1.931705628521740437e-05
1.249000000000000000e+03 1.337930583953857422e+01 1.737995910644531250e+01 1.482114021200686693e-04 5.120047035234165378e-07 4.461701973923482001e-05 7.249605914694257081e-06
1.250000000000000000e+03 1.334927463531494141e+01 1.205893325805664062e+01 9.999376925406977534e-05 2.775343318717204966e-06 3.083073170273564756e-05 -6.487736072813277133e-07
1.251000000000000000e+03 1.343856048583984375e+01 1.470913887023925781e+01 1.232710201293230057e-04 2.547545818742946722e-06 3.774556898861192167e-05 5.090398644824745134e-06
1.252000000000000000e+03 1.456613922119140625e+01 5.035881519317626953e+00 5.160283035365864635e-05 3.636665724116028287e-06 1.657184839132241905e-05 -1.011177755572134629e-05
1.253000000000000000e+03 1.181438159942626953e+01 2.319736003875732422e+00 1.902965414046775550e-05 9.756313374964520335e-06 8.635790436528623104e-06 2.208377054557786323e-06
1.254000000000000000e+03 1.051548576354980469e+01 3.879856586456298828e+00 3.295497299404814839e-05 2.877506858567357995e-06 1.074974443326937035e-05 -1.165026878879871219e-05
1.255000000000000000e+03 1.314332103729248047e+01 7.965480804443359375e+00 -6.885449693072587252e-05 -2.254247192468028516e-06 -2.133262387360446155e-05 3.231944276649301173e-07
1.256000000000000000e+03 1.341370010375976562e+01 1.338097667694091797e+01 -1.124972404795698822e-04 -3.142005198242259212e-06 -3.469177318038418889e-05 -2.784177922876551747e-06
1.257000000000000000e+03 7.935325622558593750e+01 -2.784772300720214844e+01 -1.127779483795166016e-03 9.286972999572753906e+00 2.785753488540649414e+00 -9.069182910025119781e-03
1.258000000000000000e+03 7.698376464843750000e+01 -3.776867294311523438e+01 -3.094560839235782623e-02 8.867292404174804688e+00 2.650903940200805664e+00 3.658831864595413208e-02
1.259000000000000000e+03 7.932019042968750000e+01 -3.472702026367187500e+01 -1.097753550857305527e-02 9.247634887695312500e+00 2.770997285842895508e+00 1.136817131191492081e-02
1.260000000000000000e+03 7.800325012207031250e+01 3.319633483886718750e+01 6.460443139076232910e-02 4.687559604644775391e+00 1.425649166107177734e+00 -4.175426438450813293e-02
1.261000000000000000e+03 7.927922058105468750e+01 3.608546829223632812e+01 -2.063758904114365578e-03 4.122499465942382812e+00 1.236130714416503906e+00 4.534809663891792297e-02
1.262000000000000000e+03 7.934526062011718750e+01 -2.090107154846191406e+01 -3.664597752504050732e-04 9.285860061645507812e+00 2.785648107528686523e+00 -1.209861412644386292e-02
1.263000000000000000e+03 7.805513000488281250e+01 -2.779836273193359375e+01 2.601246815174818039e-04 9.037367820739746094e+00 2.711288452148437500e+00 -9.917717427015304565e-03
1.264000000000000000e+03 7.807746887207031250e+01 -2.643815612792968750e+01 1.437000115402042866e-03 9.041492462158203125e+00 2.712878704071044922e+00 -9.074226021766662598e-03
1.265000000000000000e+03 7.932953643798828125e+01 -3.061322212219238281e+01 -2.072165021672844887e-03 9.290410041809082031e+00 2.786501169204711914e+00 -6.056169979274272919e-03
1.266000000000000000e+03 7.792675781250000000e+01 -3.453141403198242188e+01 -1.863326877355575562e-03 9.022889137268066406e+00 2.706307888031005859e+00 1.506502460688352585e-02
1.267000000000000000e+03 7.790036773681640625e+01 -3.321515274047851562e+01 -1.313822437077760696e-02 9.018610000610351562e+00 2.701641559600830078e+00 1.704406365752220154e-02
1.268000000000000000e+03 7.428427886962890625e+01 -3.724091339111328125e+01 -1.785311661660671234e-02 8.353114128112792969e+00 2.500578165054321289e+00 -5.793010815978050232e-02
1.269000000000000000e+03 7.604368591308593750e+01 -3.891560363769531250e+01 -6.876059342175722122e-03 8.797642707824707031e+00 2.637229919433593750e+00 4.121683072298765182e-03
1.270000000000000000e+03 7.824726104736328125e+01 1.379994869232177734e+01 -2.436229400336742401e-02 7.723116874694824219e+00 2.309626340866088867e+00 -3.205004632472991943e-01
1.271000000000000000e+03 7.941552734375000000e+01 1.528056621551513672e+01 -6.354616023600101471e-03 7.491527557373046875e+00 2.245551824569702148e+00 -1.405399590730667114e-01
1.272000000000000000e+03 7.819393157958984375e+01 2.071582221984863281e+01 -2.428645500913262367e-03 6.437839508056640625e+00 1.930623173713684082e+00 -4.581824243068695068e-01
1.273000000000000000e+03 7.939544677734375000e+01 2.223539924621582031e+01 4.521554335951805115e-03 5.816613674163818359e+00 1.746340513229370117e+00 -1.734484881162643433e-01
1.274000000000000000e+03 7.800880432128906250e+01 3.184181976318359375e+01 6.485432386398315430e-02 4.743524074554443359e+00 1.442513465881347656e+00 -1.246408224105834961e-01
1.275000000000000000e+03 7.811067962646484375e+01 2.766451263427734375e+01 4.579909518361091614e-02 5.126889228820800781e+00 1.551806449890136719e+00 -3.353202342987060547e-01
1.276000000000000000e+03 7.937061309814453125e+01 2.780340385437011719e+01 1.667630672454833984e-02 4.536872386932373047e+00 1.366064667701721191e+00 -1.232974454760551453e-01
1.277000000000000000e+03 7.815285491943359375e+01 2.488769721984863281e+01 2.705015428364276886e-02 5.583822727203369141e+00 1.683261752128601074e+00 -4.294526576995849609e-01
1.278000000000000000e+03 7.816666412353515625e+01 2.350123023986816406e+01 1.776957139372825623e-02 5.857950687408447266e+00 1.762716174125671387e+00 -4.508284330368041992e-01
1.279000000000000000e+03 7.704869842529296875e+01 1.505410861968994141e+01 -5.897039175033569336e-02 7.543685913085937500e+00 2.245414495468139648e+00 -5.300117731094360352e-01
1.280000000000000000e+03 7.822826385498046875e+01 1.655466079711914062e+01 -2.266804687678813934e-02 7.263237953186035156e+00 2.172170877456665039e+00 -3.884201943874359131e-01
1.281000000000000000e+03 7.707617187500000000e+01 1.231894397735595703e+01 -5.783201381564140320e-02 7.878381729125976562e+00 2.346164941787719727e+00 -4.269806444644927979e-01
1.282000000000000000e+03 7.707645416259765625e+01 1.095135879516601562e+01 -5.334588885307312012e-02 8.020219802856445312e+00 2.390062093734741211e+00 -3.779372572898864746e-01
1.283000000000000000e+03 7.823162078857421875e+01 8.281062126159667969e+00 -1.943522319197654724e-02 8.382896423339843750e+00 2.509038448333740234e+00 -1.990110427141189575e-01
1.284000000000000000e+03 7.941550445556640625e+01 9.724157333374023438e+00 -5.082684569060802460e-03 8.382302284240722656e+00 2.513165950775146484e+00 -9.539215266704559326e-02
1.285000000000000000e+03 7.934142303466796875e+01 -1.950934410095214844e+01 6.765485741198062897e-04 9.285571098327636719e+00 2.785874128341674805e+00 -1.183116622269153595e-02
1.286000000000000000e+03 7.935527038574218750e+01 -1.392920684814453125e+01 -7.172137266024947166e-04 9.283371925354003906e+00 2.784796476364135742e+00 -1.733817160129547119e-02
1.287000000000000000e+03 7.935800170898437500e+01 -6.963987350463867188e+00 -4.436324816197156906e-04 9.237485885620117188e+00 2.771112442016601562e+00 -2.718559838831424713e-02
1.288000000000000000e+03 7.811556243896484375e+01 -2.122655743733048439e-03 -9.916608221828937531e-03 8.847289085388183594e+00 2.651211977005004883e+00 -8.868558704853057861e-02
1.289000000000000000e+03 7.937876129150390625e+01 1.387957334518432617e+00 -2.372030634433031082e-03 9.024818420410156250e+00 2.706733942031860352e+00 -5.001611262559890747e-02
1.290000000000000000e+03 7.796719360351562500e+01 4.167804336547851562e+01 -2.264022380113601685e-01 4.725858211517333984e+00 1.349836707115173340e+00 6.336015462875366211e-02
1.291000000000000000e+03 7.455800628662109375e+01 3.821654129028320312e+01 -3.576680645346641541e-02 6.465088367462158203e+00 1.928796410560607910e+00 2.853900939226150513e-02
1.292000000000000000e+03 7.824346160888671875e+01 9.660540580749511719e+00 -1.921842247247695923e-02 8.250121116638183594e+00 2.469270944595336914e+00 -2.249972969293594360e-01
1.293000000000000000e+03 7.813470458984375000e+01 1.379702925682067871e+00 -1.073107495903968811e-02 8.800320625305175781e+00 2.636877059936523438e+00 -1.015842184424400330e-01
1.294000000000000000e+03 7.815389251708984375e+01 2.759332895278930664e+00 -1.282097678631544113e-02 8.743327140808105469e+00 2.619151830673217773e+00 -1.165970116853713989e-01
1.295000000000000000e+03 7.682806396484375000e+01 -1.377195119857788086e+00 -2.195740118622779846e-02 8.659143447875976562e+00 2.591156005859375000e+00 -1.095365956425666809e-01
1.296000000000000000e+03 7.936184692382812500e+01 -2.787988662719726562e+00 -1.464290660806000233e-03 9.163405418395996094e+00 2.748582363128662109e+00 -3.648756444454193115e-02
1.297000000000000000e+03 7.806622314453125000e+01 -6.957905292510986328e+00 -5.874513648450374603e-03 8.988353729248046875e+00 2.694743871688842773e+00 -4.157043248414993286e-02
1.298000000000000000e+03 7.806394195556640625e+01 -5.572613716125488281e+00 -5.743942223489284515e-03 8.969316482543945312e+00 2.689071655273437500e+00 -4.956609755754470825e-02
1.299000000000000000e+03 7.936038970947265625e+01 -9.749632835388183594e+00 2.605097834020853043e-04 9.264098167419433594e+00 2.779307603836059570e+00 -2.198461070656776428e-02
1.300000000000000000e+03 7.806335449218750000e+01 -1.391394615173339844e+01 -2.785672666504979134e-03 9.035728454589843750e+00 2.709882974624633789e+00 -1.999534107744693756e-02
1.301000000000000000e+03 7.807495880126953125e+01 -1.252238368988037109e+01 -2.671951428055763245e-03 9.032445907592773438e+00 2.708932161331176758e+00 -2.435672655701637268e-02
1.302000000000000000e+03 7.934513092041015625e+01 -1.672049522399902344e+01 2.652327239047735929e-04 9.286761283874511719e+00 2.786107778549194336e+00 -1.385167520493268967e-02
1.303000000000000000e+03 7.801410675048828125e+01 -1.951349830627441406e+01 -1.031257677823305130e-03 9.035501480102539062e+00 2.710340976715087891e+00 -1.169185806065797806e-02
1.304000000000000000e+03 2.064718818664550781e+01 -1.269557595252990723e+00 -1.281826198101043701e-02 -1.867473363876342773e+00 -5.640875101089477539e-01 -8.804130554199218750e-02
1.305000000000000000e+03 2.210490989685058594e+01 1.603156328201293945e+00 1.352918241173028946e-02 -1.599182724952697754e+00 -4.756960570812225342e-01 -9.172079712152481079e-02
1.306000000000000000e+03 2.079460144042968750e+01 1.532016038894653320e+00 -1.316006993874907494e-03 -1.782640814781188965e+00 -5.351870656013488770e-01 -1.462954133749008179e-01
1.307000000000000000e+03 2.340454483032226562e+01 1.689769864082336426e+00 -2.144728554412722588e-03 -1.348268389701843262e+00 -4.051239490509033203e-01 -9.794395416975021362e-02
1.308000000000000000e+03 2.017108345031738281e+01 -1.389289665222167969e+01 -4.570540040731430054e-02 -2.074380874633789062e+00 -6.360259056091308594e-01 -1.158894300460815430e-01
1.309000000000000000e+03 1.334007549285888672e+01 -3.850775146484375000e+01 2.623661793768405914e-02 -1.539075514301657677e-03 7.409262936562299728e-03 4.242618009448051453e-02
1.310000000000000000e+03 1.593957233428955078e+01 -3.883251190185546875e+01 -2.634958364069461823e-02 -1.200643405318260193e-01 -4.392417520284652710e-02 -2.718186751008033752e-02
1.311000000000000000e+03 1.982865142822265625e+01 -1.808132934570312500e+01 1.351627800613641739e-02 -1.790645599365234375e+00 -5.331388115882873535e-01 -1.136325970292091370e-01
1.312000000000000000e+03 2.133369064331054688e+01 -1.657175254821777344e+01 1.258177217096090317e-02 -1.661077022552490234e+00 -4.945485591888427734e-01 -7.620900869369506836e-02
1.313000000000000000e+03 2.035454177856445312e+01 -6.870295047760009766e+00 9.093988686800003052e-03 -1.825133681297302246e+00 -5.448119044303894043e-01 -4.157384485006332397e-02
1.314000000000000000e+03 2.203202247619628906e+01 2.053236514329910278e-01 2.518457546830177307e-02 -1.609782338142395020e+00 -4.753793478012084961e-01 -1.204838082194328308e-01
1.315000000000000000e+03 2.167628860473632812e+01 -8.177397727966308594e+00 -5.793871358036994934e-03 -1.641450047492980957e+00 -4.941731691360473633e-01 -8.313857764005661011e-02
1.316000000000000000e+03 2.121404075622558594e+01 -1.934045600891113281e+01 3.524857014417648315e-02 -1.628951430320739746e+00 -4.781108498573303223e-01 -9.172265231609344482e-02
1.317000000000000000e+03 2.176354026794433594e+01 -5.397152900695800781e+00 3.733464702963829041e-02 -1.616914033889770508e+00 -4.738738238811492920e-01 -8.345821499824523926e-02
1.318000000000000000e+03 2.141217613220214844e+01 -1.518271160125732422e+01 -3.392312303185462952e-02 -1.678611755371093750e+00 -5.137604475021362305e-01 -6.490672379732131958e-02
1.319000000000000000e+03 2.190111160278320312e+01 -2.611473798751831055e+00 -2.065891213715076447e-02 -1.576853632926940918e+00 -4.792537689208984375e-01 -8.248064666986465454e-02
1.320000000000000000e+03 2.227724647521972656e+01 5.859033584594726562e+00 -3.284110873937606812e-02 -1.542538285255432129e+00 -4.726138114929199219e-01 -1.149736717343330383e-01
1.321000000000000000e+03 2.421986770629882812e+01 -2.186422920227050781e+01 2.727908827364444733e-02 -1.078911423683166504e+00 -3.154897093772888184e-01 -5.734788253903388977e-02
1.322000000000000000e+03 1.214347362518310547e+01 -2.896922683715820312e+01 1.655192318139597774e-04 9.890007786452770233e-04 3.463560133241117001e-04 -4.475908936001360416e-04
1.323000000000000000e+03 1.985630226135253906e+01 -3.072826004028320312e+01 -2.043790183961391449e-02 -1.984904885292053223e+00 -6.016028523445129395e-01 -2.528157643973827362e-02
1.324000000000000000e+03 1.453576946258544922e+01 -2.487639236450195312e+01 -1.364478492178022861e-03 -1.020032912492752075e-03 -7.153534097597002983e-04 1.183904678327962756e-04
1.325000000000000000e+03 1.233354854583740234e+01 -2.562304496765136719e+01 -1.191648407257162035e-04 2.565399627201259136e-04 4.121253732591867447e-05 2.233435516245663166e-04
1.326000000000000000e+03 2.094885063171386719e+01 -2.623595237731933594e+01 1.170112099498510361e-02 -1.688505887985229492e+00 -5.030414462089538574e-01 -3.851628676056861877e-02
1.327000000000000000e+03 2.096940422058105469e+01 -2.759093856811523438e+01 1.003894675523042679e-02 -1.709208011627197266e+00 -5.097507238388061523e-01 -2.867371775209903717e-02
1.328000000000000000e+03 2.097273635864257812e+01 2.684152793884277344e+01 -2.323936438187956810e-03 -2.717594802379608154e-01 -8.222502470016479492e-02 -3.676657378673553467e-02
1.329000000000000000e+03 2.229380798339843750e+01 1.153034782409667969e+01 5.903602112084627151e-03 -1.285474538803100586e+00 -3.838712871074676514e-01 -1.056641340255737305e-01
1.330000000000000000e+03 2.092960739135742188e+01 3.100489044189453125e+01 -2.576254773885011673e-03 -4.815188050270080566e-02 -1.521844044327735901e-02 -1.587006822228431702e-02
1.331000000000000000e+03 1.483002758026123047e+01 -2.151834011077880859e+00 -6.953227421035990119e-05 -4.479535709833726287e-05 -3.429828939260914922e-05 1.481001982028828934e-05
1.332000000000000000e+03 2.171468162536621094e+01 -6.784190177917480469e+00 2.677863091230392456e-02 -1.618279933929443359e+00 -4.774504005908966064e-01 -8.449709415435791016e-02
1.333000000000000000e+03 2.229389381408691406e+01 7.284227371215820312e+00 -6.672492250800132751e-03 -1.496949434280395508e+00 -4.510865807533264160e-01 -1.021330952644348145e-01
1.334000000000000000e+03 2.104995155334472656e+01 1.421290016174316406e+01 1.603257027454674244e-03 -1.301150321960449219e+00 -3.898641467094421387e-01 -3.931133821606636047e-02
1.335000000000000000e+03 2.093996429443359375e+01 2.963014984130859375e+01 -2.673561917617917061e-03 -1.048349142074584961e-01 -3.225254267454147339e-02 -2.351072430610656738e-02
1.336000000000000000e+03 2.344669723510742188e+01 1.729008865356445312e+01 1.353128906339406967e-02 -8.198965191841125488e-01 -2.419095784425735474e-01 -2.122392207384109497e-01
1.337000000000000000e+03 2.100843048095703125e+01 2.263982772827148438e+01 -1.983627880690619349e-04 -6.106363534927368164e-01 -1.832504123449325562e-01 -4.764277487993240356e-02
1.338000000000000000e+03 2.318298530578613281e+01 2.560234069824218750e+01 -1.698607578873634338e-02 -3.319191932678222656e-01 -1.046715751290321350e-01 -1.895259171724319458e-01
1.339000000000000000e+03 2.229965400695800781e+01 8.702823638916015625e+00 9.760799002833664417e-04 -1.425002455711364746e+00 -4.272079169750213623e-01 -9.594283998012542725e-02
1.340000000000000000e+03 2.221290588378906250e+01 1.996717834472656250e+01 2.542564412578940392e-03 -7.531833052635192871e-01 -2.251922190189361572e-01 -1.438067853450775146e-01
1.341000000000000000e+03 2.212142562866210938e+01 2.414206695556640625e+01 -3.903113305568695068e-03 -4.524911940097808838e-01 -1.369182914495468140e-01 -1.328458935022354126e-01
1.342000000000000000e+03 2.338758087158203125e+01 2.009155082702636719e+01 5.884572397917509079e-03 -6.581718921661376953e-01 -1.956862062215805054e-01 -2.237183153629302979e-01
1.343000000000000000e+03 2.224935722351074219e+01 1.716055297851562500e+01 5.651049781590700150e-03 -9.493318796157836914e-01 -2.831042408943176270e-01 -1.357783675193786621e-01
1.344000000000000000e+03 2.201360702514648438e+01 2.830652809143066406e+01 -1.076037157326936722e-02 -1.913884878158569336e-01 -6.064466014504432678e-02 -8.925626426935195923e-02
1.345000000000000000e+03 2.323668289184570312e+01 2.422759628295898438e+01 -1.109531801193952560e-02 -4.110493659973144531e-01 -1.266434043645858765e-01 -2.052109688520431519e-01
1.346000000000000000e+03 2.227602005004882812e+01 1.434893226623535156e+01 6.874046754091978073e-03 -1.127883791923522949e+00 -3.363029062747955322e-01 -1.212428361177444458e-01
1.347000000000000000e+03 2.228529930114746094e+01 1.293950080871582031e+01 6.772305816411972046e-03 -1.209592819213867188e+00 -3.608461320400238037e-01 -1.132458671927452087e-01
1.348000000000000000e+03 1.315501213073730469e+01 -1.458540248870849609e+01 -5.303307552821934223e-04 -6.096780634834431112e-05 -1.773895783117040992e-04 1.066722907125949860e-04
1.349000000000000000e+03 1.355659103393554688e+01 -7.909141540527343750e+00 3.252817259635776281e-04 3.046552774321753532e-05 1.067241755663417280e-04 -6.607070827158167958e-05
1.350000000000000000e+03 1.460023212432861328e+01 -7.921605110168457031e+00 -3.746675502043217421e-04 -9.681803931016474962e-06 -1.153048069681972265e-04 3.000865035573951900e-05
1.351000000000000000e+03 1.109721469879150391e+01 -3.322789192199707031e+00 -1.394938590237870812e-04 -6.639480852754786611e-05 -6.176660099299624562e-05 8.301728666992858052e-05
1.352000000000000000e+03 1.346168422698974609e+01 -1.190527629852294922e+01 -4.501630028244107962e-04 -3.284748891019262373e-05 -1.449031406082212925e-04 1.007034006761386991e-04
1.353000000000000000e+03 1.455998325347900391e+01 -1.207563591003417969e+01 5.194985424168407917e-04 2.769172851913026534e-06 1.566803111927583814e-04 -6.316164945019409060e-05
1.354000000000000000e+03 1.358504009246826172e+01 -5.297761440277099609e+00 2.601547457743436098e-04 3.296848808531649411e-05 8.793696906650438905e-05 -3.418049163883551955e-05
1.355000000000000000e+03 1.460854244232177734e+01 -5.184094905853271484e+00 -2.546304313000291586e-04 -1.150127081928076223e-05 -7.983950490597635508e-05 -6.691019279969623312e-06
1.356000000000000000e+03 1.446246719360351562e+01 -1.485098743438720703e+01 5.376536282710731030e-04 -1.852926470746751875e-05 1.557373179821297526e-04 -6.268203287618234754e-05
1.357000000000000000e+03 1.429544734954833984e+01 -1.906456947326660156e+01 -5.577816045843064785e-04 -1.626850425964221358e-04 -2.161399897886440158e-04 1.061453222064301372e-04
1.358000000000000000e+03 1.364013099670410156e+01 -2.628202819824218750e+01 -8.598316344432532787e-04 -9.293581242673099041e-04 -5.367569392547011375e-04 3.638419148046523333e-04
1.359000000000000000e+03 2.308245658874511719e+01 2.837730216979980469e+01 -2.723653800785541534e-02 -1.877442300319671631e-01 -6.449422985315322876e-02 -1.394867449998855591e-01
1.360000000000000000e+03 1.253644227981567383e+00 -4.012248229980468750e+01 1.127060037106275558e-03 1.835771277546882629e-02 5.845431704074144363e-03 1.462057814933359623e-03
1.361000000000000000e+03 8.337814807891845703e-01 3.738263320922851562e+01 1.313316897721961141e-04 -1.584795063536148518e-05 3.464511974016204476e-05 -2.004636371566448361e-05
1.362000000000000000e+03 6.688008904457092285e-01 3.322581863403320312e+01 -1.378104643663391471e-04 -1.512622202426427975e-05 -4.588100637192837894e-05 2.556591789470985532e-05
1.363000000000000000e+03 6.074696183204650879e-01 2.619770812988281250e+01 1.175247743958607316e-04 1.714152659815226798e-07 3.530885805957950652e-05 1.476393890698091127e-06
1.364000000000000000e+03 1.933738946914672852e+00 2.888305091857910156e+01 -1.170950781670399010e-04 -1.024174707708880305e-05 -3.820104757323861122e-05 -8.728195098228752613e-06
1.365000000000000000e+03 7.061129212379455566e-01 -3.607449340820312500e+01 -7.796598365530371666e-04 1.030827127397060394e-02 2.858583349734544754e-03 1.470660790801048279e-03
1.366000000000000000e+03 2.191282272338867188e+00 -3.326997756958007812e+01 1.993965357542037964e-03 3.514222102239727974e-03 1.652456237934529781e-03 3.390853758901357651e-03
1.367000000000000000e+03 3.115624427795410156e+00 2.732775878906250000e+01 -1.331681269221007824e-04 -8.685523425810970366e-06 -4.255609746905975044e-05 -1.946141674125101417e-05
1.368000000000000000e+03 2.954206466674804688e+00 2.463308143615722656e+01 -1.402299385517835617e-04 5.350488208932802081e-06 -4.046383401146158576e-05 -2.745213714661076665e-05
1.369000000000000000e+03 2.021948814392089844e+00 3.306484222412109375e+01 1.238041731994599104e-04 -8.435979452769970521e-07 3.688817378133535385e-05 -2.224285344709642231e-05
1.370000000000000000e+03 2.719927072525024414e+00 3.822101974487304688e+01 1.045290191541425884e-04 5.335835885489359498e-05 4.736621485790237784e-05 -5.977890032227151096e-05
1.371000000000000000e+03 3.352330446243286133e+00 3.931877517700195312e+01 -9.575793956173583865e-05 -4.356418139650486410e-05 -4.179663665127009153e-05 1.151393953477963805e-04
1.372000000000000000e+03 2.103885650634765625e+00 -3.044338989257812500e+01 2.205519704148173332e-03 5.722349160350859165e-04 8.333263685926795006e-04 1.476220320910215378e-03
1.373000000000000000e+03 2.038534879684448242e+00 -2.762005615234375000e+01 1.509878202341496944e-03 -1.305939367739483714e-04 4.137852811254560947e-04 2.528827753849327564e-04
1.374000000000000000e+03 2.064194440841674805e+00 -3.721564102172851562e+01 -1.068415469489991665e-03 1.063099782913923264e-02 2.868774812668561935e-03 4.156797658652067184e-03
1.375000000000000000e+03 1.957733631134033203e+00 -2.200705146789550781e+01 9.916002163663506508e-04 -2.396848431089892983e-04 2.255746076116338372e-04 -1.618188107386231422e-04
1.376000000000000000e+03 6.049560904502868652e-01 1.915807533264160156e+01 -1.240485580638051033e-04 -5.085033905061209225e-08 -3.722982364706695080e-05 2.020199417529511265e-06
1.377000000000000000e+03 5.870990157127380371e-01 1.351832866668701172e+01 -9.107685764320194721e-05 -7.299610160771408118e-08 -2.734495683398563415e-05 1.996735818465822376e-06
1.378000000000000000e+03 5.607943534851074219e-01 7.857713222503662109e+00 -5.705595685867592692e-05 1.798861681834296178e-08 -1.711138975224457681e-05 2.045963583441334777e-06
1.379000000000000000e+03 3.257033586502075195e+00 -3.928329086303710938e+01 -3.099518828094005585e-03 1.392268855124711990e-02 3.246950916945934296e-03 5.708480253815650940e-03
1.380000000000000000e+03 3.540179729461669922e+00 -3.609911727905273438e+01 -5.221260944381356239e-04 5.010408349335193634e-03 1.346484757959842682e-03 8.574555628001689911e-03
1.381000000000000000e+03 2.178850889205932617e+00 -3.465622329711914062e+01 -5.461890250444412231e-04 5.600946489721536636e-03 1.516427262686192989e-03 4.986965097486972809e-03
1.382000000000000000e+03 2.157078742980957031e+00 -3.186195945739746094e+01 -2.706412342377007008e-04 1.956111518666148186e-03 5.056411027908325195e-04 3.077191533520817757e-03
1.383000000000000000e+03 3.383096933364868164e+00 -2.760764503479003906e+01 -5.552516668103635311e-04 1.211943235830403864e-04 -1.302172022406011820e-04 3.421662549953907728e-04
1.384000000000000000e+03 1.990648031234741211e+00 -2.341147613525390625e+01 -1.049465732648968697e-03 -3.054966800846159458e-04 -4.064887179993093014e-04 -1.739945437293499708e-04
1.385000000000000000e+03 2.027152299880981445e+00 -2.622055625915527344e+01 -1.021632808260619640e-03 -3.183378139510750771e-04 -4.019911866635084152e-04 -4.359564263722859323e-05
1.386000000000000000e+03 3.188753366470336914e+00 -2.060435104370117188e+01 9.220186620950698853e-04 -8.908506424631923437e-05 2.498800749890506268e-04 -1.124244736274704337e-04
1.387000000000000000e+03 6.359149813652038574e-01 -1.918066978454589844e+01 -8.956952369771897793e-04 -2.082599094137549400e-04 -3.311865439172834158e-04 -5.167471681488677859e-05
1.388000000000000000e+03 1.904157042503356934e+00 -1.919740104675292969e+01 8.596056140959262848e-04 -1.321345189353451133e-04 2.182413300033658743e-04 -4.950344009557738900e-05
1.389000000000000000e+03 1.898935675621032715e+00 -1.639767456054687500e+01 6.994806462898850441e-04 -3.392166763660497963e-05 1.996676874114200473e-04 -4.667785560741322115e-06
1.390000000000000000e+03 6.054827570915222168e-01 -1.212612247467041016e+01 5.265282816253602505e-04 -2.941961838587303646e-06 1.570758904563263059e-04 -1.609401260793674737e-05
1.391000000000000000e+03 1.820114850997924805e+00 -1.216366863250732422e+01 -5.291799316182732582e-04 -1.944827090483158827e-05 -1.645884622121229768e-04 -2.039425271505024284e-05
1.392000000000000000e+03 4.290995121002197266e+00 -4.118081092834472656e+00 -2.485392033122479916e-04 -2.817120912368409336e-05 -8.301312482217326760e-05 9.594691073289141059e-05
1.393000000000000000e+03 3.688321590423583984e+00 -2.766758441925048828e+00 5.723406502511352301e-05 -1.577215880388393998e-05 1.243857150257099420e-05 1.916386099765077233e-05
1.394000000000000000e+03 2.858683586120605469e+00 -4.228204727172851562e+00 2.767337136901915073e-04 1.324567274423316121e-04 1.227571337949484587e-04 -1.479680504417046905e-04
1.395000000000000000e+03 1.428228139877319336e+00 -3.593737363815307617e+00 -2.633919066283851862e-04 4.069086571689695120e-05 -6.681030936306342483e-05 -2.328537630091886967e-05
1.396000000000000000e+03 4.715741574764251709e-01 5.046237468719482422e+00 -6.112102710176259279e-05 -5.551477443077601492e-06 -2.000175118155311793e-05 -1.020573017740389332e-05
1.397000000000000000e+03 2.275162696838378906e+00 3.586432218551635742e+00 3.023082899744622409e-05 1.851722117862664163e-05 1.462441559851868078e-05 -2.820379449985921383e-05
1.398000000000000000e+03 1.712259769439697266e+00 1.070615959167480469e+01 8.031910692807286978e-05 1.979918238248501439e-07 2.415512972220312804e-05 -4.179490133537910879e-06
1.399000000000000000e+03 5.722754001617431641e-01 1.069458389282226562e+01 -7.313767127925530076e-05 -4.017036303594068158e-07 -2.206181306974031031e-05 1.663573357291170396e-06
1.400000000000000000e+03 1.761511564254760742e+00 1.352100086212158203e+01 9.197486360790207982e-05 2.225831394753186032e-06 2.826020681823138148e-05 -6.434060196625068784e-06
1.401000000000000000e+03 1.817035675048828125e+00 2.053448677062988281e+01 -1.273248199140653014e-04 2.073248424494522624e-06 -3.757547165150754154e-05 -4.577339495881460607e-06
1.402000000000000000e+03 1.812276005744934082e+00 1.912982940673828125e+01 1.239519624505192041e-04 -2.298388380950200371e-06 3.649607242550700903e-05 1.387453352208467550e-07
1.403000000000000000e+03 1.791596770286560059e+00 2.471443367004394531e+01 1.302309101447463036e-04 -2.749152145042899065e-06 3.824452869594097137e-05 1.465418426960241050e-05
1.404000000000000000e+03 5.950238800048828125e+01 3.003034591674804688e+01 6.055924415588378906e+00 1.799911308288574219e+01 7.216511726379394531e+00 -1.957395434379577637e+00
1.405000000000000000e+03 5.910756683349609375e+01 2.954148292541503906e+01 3.150386810302734375e+00 1.912143325805664062e+01 6.681546211242675781e+00 -6.414744257926940918e-01
1.406000000000000000e+03 5.850670242309570312e+01 2.961967086791992188e+01 1.969733357429504395e+00 2.099053192138671875e+01 6.888079643249511719e+00 1.782264947891235352e+00
1.407000000000000000e+03 5.795890426635742188e+01 2.911642646789550781e+01 9.978574514389038086e-01 1.637126922607421875e+01 5.210738182067871094e+00 4.948909759521484375e+00
1.408000000000000000e+03 5.707649230957031250e+01 2.889046096801757812e+01 2.036067724227905273e+00 9.964771270751953125e+00 3.600251674652099609e+00 6.183616638183593750e+00
1.409000000000000000e+03 5.562530517578125000e+01 3.364183807373046875e+01 1.349251747131347656e+00 3.437931060791015625e+00 1.436154842376708984e+00 -3.097802639007568359e+00
1.410000000000000000e+03 5.580350112915039062e+01 3.331857681274414062e+01 1.468211412429809570e+00 3.045335292816162109e+00 1.354063987731933594e+00 -3.111428976058959961e+00
1.411000000000000000e+03 5.757829666137695312e+01 3.316957092285156250e+01 6.154956221580505371e-01 1.374396991729736328e+01 4.307839870452880859e+00 -5.661131858825683594e+00
1.412000000000000000e+03 5.722552108764648438e+01 2.957505607604980469e+01 3.185599803924560547e+00 1.092695522308349609e+01 4.233766555786132812e+00 7.458872318267822266e+00
1.413000000000000000e+03 5.522180938720703125e+01 2.973587417602539062e+01 1.442619323730468750e+00 8.399514555931091309e-01 6.847712397575378418e-01 2.144531250000000000e+00
1.414000000000000000e+03 5.519239425659179688e+01 2.939342689514160156e+01 1.754033327102661133e+00 1.609103083610534668e+00 1.008940935134887695e+00 2.713857412338256836e+00
1.415000000000000000e+03 6.010391235351562500e+01 3.121118164062500000e+01 8.924146652221679688e+00 1.493904495239257812e+01 7.158957481384277344e+00 5.591008067131042480e-01
1.416000000000000000e+03 5.871855545043945312e+01 3.264175033569335938e+01 1.836430311203002930e+00 2.123243141174316406e+01 6.920658588409423828e+00 5.347239375114440918e-01
1.417000000000000000e+03 5.920584487915039062e+01 3.014717483520507812e+01 6.487244129180908203e+00 1.961707115173339844e+01 7.831294536590576172e+00 -2.099273920059204102e+00
1.418000000000000000e+03 5.799213027954101562e+01 3.310482406616210938e+01 -5.332001671195030212e-02 1.732989501953125000e+01 5.182972908020019531e+00 -4.145712852478027344e+00
1.419000000000000000e+03 5.423065567016601562e+01 2.919438171386718750e+01 8.962356448173522949e-01 8.313876986503601074e-01 5.182870030403137207e-01 1.805480003356933594e+00
1.420000000000000000e+03 1.244856834411621094e+01 -2.626458406448364258e+00 1.342270697932690382e-04 1.623404023121111095e-05 4.513833118835464120e-05 2.163157478207722306e-05
1.421000000000000000e+03 5.341757583618164062e+01 3.516453170776367188e+01 6.085887551307678223e-01 1.667237043380737305e+00 6.827477812767028809e-01 -1.112707734107971191e+00
1.422000000000000000e+03 5.327706909179687500e+01 3.592166519165039062e+01 6.989465951919555664e-01 1.911375999450683594e+00 7.830967903137207031e-01 -1.183501243591308594e+00
1.423000000000000000e+03 5.485381317138671875e+01 3.378819274902343750e+01 7.209004759788513184e-01 1.976981639862060547e+00 8.093646168708801270e-01 -1.873511791229248047e+00
1.424000000000000000e+03 5.274301910400390625e+01 3.531552505493164062e+01 4.005863666534423828e-01 1.145655632019042969e+00 4.638725817203521729e-01 -6.714332699775695801e-01
1.425000000000000000e+03 5.124084472656250000e+01 2.957470321655273438e+01 -1.173468589782714844e+00 8.243374526500701904e-02 -3.273104429244995117e-01 3.355179727077484131e-01
1.426000000000000000e+03 5.190855407714843750e+01 2.950088500976562500e+01 -9.142141938209533691e-01 1.169587671756744385e-01 -2.391766309738159180e-01 4.886164367198944092e-01
1.427000000000000000e+03 5.015905761718750000e+01 3.495503234863281250e+01 -4.039376378059387207e-01 1.248655617237091064e-01 -8.372163027524948120e-02 2.213516086339950562e-01
1.428000000000000000e+03 2.766105461120605469e+01 3.335467147827148438e+01 -1.753358244895935059e-01 2.018422819674015045e-03 -5.199522152543067932e-02 -1.009415313601493835e-01
1.429000000000000000e+03 2.983143806457519531e+01 3.237555313110351562e+01 -2.993869781494140625e-01 2.044082432985305786e-02 -8.368384838104248047e-02 -1.657235026359558105e-01
1.430000000000000000e+03 2.019474029541015625e+01 3.921681594848632812e+01 -2.165858859370928258e-05 4.474181623663753271e-04 1.277278788620606065e-04 -7.332128006964921951e-04
1.431000000000000000e+03 2.104442977905273438e+01 3.903267288208007812e+01 -2.484853903297334909e-04 5.661774193868041039e-04 9.530760871712118387e-05 -7.894790614955127239e-04
1.432000000000000000e+03 1.385094070434570312e+01 2.653455972671508789e+00 3.393764563952572644e-05 -1.265429273189511150e-05 6.385005690390244126e-06 1.154304936790140346e-05
1.433000000000000000e+03 3.808333396911621094e+00 2.802560567855834961e+00 -2.435791975585743785e-05 -1.310874267801409587e-05 -1.123999936680775136e-05 7.292930149560561404e-06
1.434000000000000000e+03 6.022363185882568359e+00 2.661875486373901367e+00 1.682125366642139852e-05 1.345956479781307280e-05 9.084245903068222106e-06 -3.462681206656270660e-06
1.435000000000000000e+03 6.021328449249267578e+00 3.427316188812255859e+00 -2.173076609324198216e-05 -1.369886012980714440e-05 -1.062888804881367832e-05 2.795185309878434055e-06
1.436000000000000000e+03 6.748039722442626953e+00 3.387375116348266602e+00 2.295097328897099942e-05 1.283041274291463196e-05 1.073441580956568941e-05 -1.564693207001255360e-06
1.437000000000000000e+03 8.948160171508789062e+00 3.276677608489990234e+00 -2.933964242401998490e-05 -6.904929705342510715e-06 -1.087337113858666271e-05 -4.099406396562699229e-06
1.438000000000000000e+03 6.751049995422363281e+00 2.634114742279052734e+00 -1.750941737554967403e-05 -1.298224560741800815e-05 -9.147499440587125719e-06 2.527336846469552256e-06
1.439000000000000000e+03 7.475190162658691406e+00 3.345083713531494141e+00 -2.129817039531189948e-05 -1.315818553848657757e-05 -1.033690659824060276e-05 1.064943035089527257e-06
1.440000000000000000e+03 4.527334213256835938e+00 3.626920700073242188e+00 -1.542815880384296179e-05 -1.673915721767116338e-05 -9.650194442656356841e-06 6.427840162359643728e-06
1.441000000000000000e+03 4.540004253387451172e+00 2.761654615402221680e+00 1.622193667571991682e-05 1.463801254431018606e-05 9.257984856958501041e-06 -8.952411008067429066e-06
1.442000000000000000e+03 1.827860236167907715e+00 2.635928153991699219e+00 2.204739575972780585e-05 1.266955587198026478e-05 1.041508585331030190e-05 8.991611139208544046e-06
1.443000000000000000e+03 1.113182258605957031e+01 2.410221576690673828e+00 -2.003243571380153298e-05 -7.945727702463045716e-06 -8.393449206778313965e-06 2.051384626611252315e-06
1.444000000000000000e+03 1.121136569976806641e+01 3.065731763839721680e+00 2.392587884969543666e-05 9.566721018927637488e-06 1.004778005153639242e-05 -3.478471626294776797e-06
1.445000000000000000e+03 2.461757278442382812e+01 3.340002822875976562e+01 -6.397809833288192749e-02 -2.579990960657596588e-02 -2.693340368568897247e-02 -5.924853682518005371e-02
1.446000000000000000e+03 2.460193443298339844e+01 3.237369155883789062e+01 -7.222259044647216797e-02 -4.544286802411079407e-02 -3.529963642358779907e-02 -8.829063922166824341e-02
1.447000000000000000e+03 5.008948516845703125e+01 3.601940155029296875e+01 1.480451077222824097e-01 3.407517969608306885e-01 1.466390788555145264e-01 8.870104700326919556e-02
1.448000000000000000e+03 3.055285835266113281e+01 3.227444839477539062e+01 -3.431290090084075928e-01 2.822940796613693237e-02 -9.446988254785537720e-02 -1.748423874378204346e-01
1.449000000000000000e+03 3.127614212036132812e+01 3.216246032714843750e+01 -3.895673155784606934e-01 3.637365251779556274e-02 -1.059581041336059570e-01 -1.830639243125915527e-01
1.450000000000000000e+03 2.375261497497558594e+01 3.228495025634765625e+01 -4.902750253677368164e-02 -5.180235579609870911e-02 -3.024895675480365753e-02 -7.172755897045135498e-02
1.451000000000000000e+03 4.089731597900390625e+01 3.912812042236328125e+01 1.995346695184707642e-01 -2.897010147571563721e-01 -2.704990282654762268e-02 2.384004443883895874e-01
1.452000000000000000e+03 2.839190292358398438e+01 3.251907348632812500e+01 -2.215603440999984741e-01 3.195620374754071236e-03 -6.550941616296768188e-02 -1.472166478633880615e-01
1.453000000000000000e+03 2.766562080383300781e+01 3.255288696289062500e+01 -1.861462891101837158e-01 -7.095129694789648056e-03 -5.797242373228073120e-02 -1.372709125280380249e-01
1.454000000000000000e+03 5.198076629638671875e+01 3.555636978149414062e+01 3.477560877799987793e-01 7.445625662803649902e-01 3.276955783367156982e-01 -4.320509135723114014e-01
1.455000000000000000e+03 4.861733245849609375e+01 3.477024078369140625e+01 -6.796543002128601074e-01 -2.090308070182800293e-02 -2.101672291755676270e-01 4.484820067882537842e-01
1.456000000000000000e+03 4.753061676025390625e+01 3.539167022705078125e+01 -4.605963230133056641e-01 -1.423750519752502441e-01 -1.808914095163345337e-01 5.088686347007751465e-01
1.457000000000000000e+03 3.272603988647460938e+01 3.191871833801269531e+01 -4.904094636440277100e-01 5.035232752561569214e-02 -1.320171356201171875e-01 -1.971413940191268921e-01
1.458000000000000000e+03 3.345359039306640625e+01 3.178940963745117188e+01 -5.445041656494140625e-01 5.585186555981636047e-02 -1.465956866741180420e-01 -2.030272483825683594e-01
1.459000000000000000e+03 4.680500030517578125e+01 3.546318817138671875e+01 -4.640825986862182617e-01 -1.257470548152923584e-01 -1.769488900899887085e-01 5.393362045288085938e-01
1.460000000000000000e+03 1.239142227172851562e+01 2.774788141250610352e+00 2.997709088958799839e-05 1.165674075309652835e-05 1.249014894710853696e-05 3.133805512334220111e-05
1.461000000000000000e+03 9.711684226989746094e+00 -3.280667066574096680e+00 -5.812949530081823468e-05 -9.788524039322510362e-05 -4.680441998061724007e-05 -2.638553269207477570e-05
1.462000000000000000e+03 1.360242557525634766e+01 -4.059323787689208984e+00 -2.476508961990475655e-04 -1.633751890040002763e-05 -7.919652125565335155e-05 4.212848216411657631e-05
1.463000000000000000e+03 9.813379287719726562e+00 -3.967774868011474609e+00 5.058566785010043532e-06 1.096038613468408585e-04 3.439872671151533723e-05 3.709622615133412182e-05
1.464000000000000000e+03 4.002683639526367188e+01 3.055340576171875000e+01 -1.067934155464172363e+00 8.820138871669769287e-02 -2.939198315143585205e-01 -2.058367580175399780e-01
1.465000000000000000e+03 3.929736328125000000e+01 3.069572448730468750e+01 -1.013139724731445312e+00 8.567468822002410889e-02 -2.782394886016845703e-01 -2.091057449579238892e-01
1.466000000000000000e+03 3.714796447753906250e+01 3.178914642333984375e+01 -8.943175077438354492e-01 6.128866225481033325e-02 -2.499086558818817139e-01 -1.418608576059341431e-01
1.467000000000000000e+03 3.856630706787109375e+01 3.083462905883789062e+01 -9.543293118476867676e-01 8.430449664592742920e-02 -2.610074579715728760e-01 -2.106295078992843628e-01
1.468000000000000000e+03 3.777923965454101562e+01 3.028944969177246094e+01 -8.148472309112548828e-01 9.366462379693984985e-02 -2.163547724485397339e-01 -2.777393162250518799e-01
1.469000000000000000e+03 3.418180084228515625e+01 3.165656089782714844e+01 -5.999231338500976562e-01 6.169774383306503296e-02 -1.614676117897033691e-01 -2.074817419052124023e-01
1.470000000000000000e+03 3.491054153442382812e+01 3.152108001708984375e+01 -6.571564078330993652e-01 6.565321236848831177e-02 -1.774509698152542114e-01 -2.111428678035736084e-01
1.471000000000000000e+03 3.641305541992187500e+01 3.192948532104492188e+01 -8.240767121315002441e-01 6.037031114101409912e-02 -2.291119247674942017e-01 -1.448941826820373535e-01
1.472000000000000000e+03 3.636970520019531250e+01 3.124654197692871094e+01 -7.743030190467834473e-01 7.314524054527282715e-02 -2.103473246097564697e-01 -2.143482118844985962e-01
1.473000000000000000e+03 4.082095718383789062e+01 3.108374214172363281e+01 -1.254123568534851074e+00 6.864204257726669312e-02 -3.556444346904754639e-01 -1.213753670454025269e-01
1.474000000000000000e+03 4.149429321289062500e+01 3.026032447814941406e+01 -1.166607737541198730e+00 8.826046437025070190e-02 -3.235041797161102295e-01 -1.971785873174667358e-01
1.475000000000000000e+03 1.222561168670654297e+01 3.249954700469970703e+00 -8.213302862714044750e-06 -1.402106227033073083e-05 -6.670309630862902850e-06 -1.867717219283804297e-05
1.476000000000000000e+03 4.373044204711914062e+01 2.982762527465820312e+01 -1.272215008735656738e+00 8.382833749055862427e-02 -3.565160036087036133e-01 -1.657880693674087524e-01
1.477000000000000000e+03 4.297982406616210938e+01 2.996726799011230469e+01 -1.243475079536437988e+00 8.697298914194107056e-02 -3.469506204128265381e-01 -1.788802593946456909e-01
1.478000000000000000e+03 4.448224258422851562e+01 2.969607543945312500e+01 -1.290952920913696289e+00 8.426865935325622559e-02 -3.620052933692932129e-01 -1.466806381940841675e-01
1.479000000000000000e+03 4.603189086914062500e+01 3.014113616943359375e+01 -1.618553996086120605e+00 4.839947819709777832e-02 -4.710463285446166992e-01 -4.688463732600212097e-02
1.480000000000000000e+03 1.350024700164794922e+01 4.187600612640380859e+00 5.772682561655528843e-05 -1.444319877919042483e-06 1.688475276750978082e-05 6.676858902210369706e-06
1.481000000000000000e+03 4.829354476928710938e+01 2.985316467285156250e+01 -1.616129517555236816e+00 3.865507245063781738e-02 -4.732423126697540283e-01 4.326146841049194336e-02
1.482000000000000000e+03 4.599278259277343750e+01 2.946886062622070312e+01 -1.298475742340087891e+00 7.990742474794387817e-02 -3.655704855918884277e-01 -9.698435664176940918e-02
1.483000000000000000e+03 4.977667236328125000e+01 2.914303779602050781e+01 -1.028383851051330566e+00 1.000402346253395081e-01 -2.785030901432037354e-01 2.013068646192550659e-01
1.484000000000000000e+03 4.903403854370117188e+01 2.918677330017089844e+01 -1.132705569267272949e+00 8.855134248733520508e-02 -3.132462501525878906e-01 1.157248616218566895e-01
1.485000000000000000e+03 5.253056716918945312e+01 2.943292808532714844e+01 -6.125826239585876465e-01 1.992828398942947388e-01 -1.239899322390556335e-01 6.693521738052368164e-01
1.486000000000000000e+03 4.523541259765625000e+01 2.957574653625488281e+01 -1.301823496818542480e+00 7.983798533678054810e-02 -3.665956556797027588e-01 -1.261350512504577637e-01
1.487000000000000000e+03 4.223377227783203125e+01 3.011239624023437500e+01 -1.209000706672668457e+00 8.620839565992355347e-02 -3.368377089500427246e-01 -1.903718709945678711e-01
1.488000000000000000e+03 6.743252754211425781e+00 -3.548402070999145508e+00 -1.204248110298067331e-04 -5.057969974586740136e-05 -5.130135468789376318e-05 -9.534027049085125327e-05
1.489000000000000000e+03 2.733994722366333008e+00 -8.011953353881835938e+00 -4.121532838325947523e-04 -5.734168553317431360e-06 -1.253662339877337217e-04 -1.770984090398997068e-05
1.490000000000000000e+03 7.845886230468750000e+00 -5.150688648223876953e+00 1.854344154708087444e-04 5.332345608621835709e-05 7.162736437749117613e-05 2.827125899784732610e-05
1.491000000000000000e+03 5.936577320098876953e+00 -3.586591958999633789e+00 1.905043609440326691e-04 1.392454760207328945e-05 6.132866838015615940e-05 1.282458688365295529e-04
1.492000000000000000e+03 5.876777648925781250e+00 -2.715604543685913086e+00 -1.589110033819451928e-04 1.199192138301441446e-05 -4.407572487252764404e-05 -8.050472388276830316e-05
1.493000000000000000e+03 2.271181106567382812e+00 -3.331747770309448242e+00 4.452313078218139708e-05 -6.849590863566845655e-05 -7.191832537500886247e-06 4.518761488725431263e-05
1.494000000000000000e+03 5.046472072601318359e+00 -4.514499664306640625e+00 3.892174863722175360e-04 1.220725266648514662e-06 1.171314652310684323e-04 4.700498175225220621e-05
1.495000000000000000e+03 1.573630571365356445e+00 -5.078840732574462891e+00 3.122113703284412622e-04 2.157719609385821968e-05 1.001365671982057393e-04 4.061444542458048090e-06
1.496000000000000000e+03 9.019744873046875000e+00 -3.353795289993286133e+00 8.385207183891907334e-05 7.700793503317981958e-05 4.825800351682119071e-05 7.125914999051019549e-05
1.497000000000000000e+03 2.678364181518554688e+01 4.028050231933593750e+01 -2.619574079290032387e-03 -1.950568403117358685e-03 -1.371042802929878235e-03 6.903827306814491749e-05
1.498000000000000000e+03 2.804943847656250000e+01 3.986788558959960938e+01 -1.904854085296392441e-03 -2.762118587270379066e-03 -1.400091801770031452e-03 1.090979203581809998e-03
1.499000000000000000e+03 2.192092514038085938e+01 3.099315834045410156e+01 -1.237152609974145889e-02 -7.500720769166946411e-02 -2.621361985802650452e-02 -4.893805459141731262e-02
1.500000000000000000e+03 2.211496162414550781e+01 4.173610687255859375e+01 -2.517964923754334450e-03 2.294648671522736549e-03 -6.699486402794718742e-05 -1.313351793214678764e-03
1.501000000000000000e+03 2.376374053955078125e+01 3.336310195922851562e+01 -4.315147176384925842e-02 -2.882715314626693726e-02 -2.159358747303485870e-02 -4.484051838517189026e-02
1.502000000000000000e+03 1.883261299133300781e+01 3.775305557250976562e+01 6.331763579510152340e-04 -2.889702154789119959e-04 1.032618529279716313e-04 -2.721190685406327248e-04
1.503000000000000000e+03 1.231911277770996094e+01 1.607129478454589844e+01 1.195085642393678427e-04 2.626856939969002269e-06 3.664062751340679824e-05 1.288951898459345102e-05
1.504000000000000000e+03 1.199730491638183594e+01 1.106188106536865234e+01 7.251972419908270240e-05 8.811736734060104936e-06 2.439943818899337202e-05 -5.911349035159219056e-06
1.505000000000000000e+03 4.086106491088867188e+01 3.562639617919921875e+01 -2.961504757404327393e-01 -1.411936283111572266e-01 -1.312032341957092285e-01 2.693988382816314697e-01
1.506000000000000000e+03 3.841410064697265625e+01 3.936680603027343750e+01 1.490042805671691895e-01 -2.073647230863571167e-01 -1.750813238322734833e-02 1.558375060558319092e-01
1.507000000000000000e+03 1.215118694305419922e+01 2.623108291625976562e+01 -2.207054494647309184e-04 7.482969976990716532e-06 -6.396674871211871505e-05 1.408415118930861354e-05
1.508000000000000000e+03 2.294395637512207031e+01 -1.086071777343750000e+01 -2.248260565102100372e-02 -1.403037071228027344e+00 -4.276559054851531982e-01 -8.199987560510635376e-02
1.509000000000000000e+03 2.154260826110839844e+01 -1.237559032440185547e+01 -2.205154672265052795e-02 -1.709192037582397461e+00 -5.193730592727661133e-01 -1.003036126494407654e-01
1.510000000000000000e+03 3.618811416625976562e+01 3.778032684326171875e+01 -8.721744641661643982e-03 -1.112325862050056458e-01 -3.598630055785179138e-02 9.863354265689849854e-02
1.511000000000000000e+03 2.196808052062988281e+01 -1.200992107391357422e+00 -5.967576056718826294e-03 -1.575601577758789062e+00 -4.744707643985748291e-01 -1.253460049629211426e-01
1.512000000000000000e+03 2.335016632080078125e+01 2.822248339653015137e-01 1.033689454197883606e-02 -1.348647713661193848e+00 -4.014932513236999512e-01 -1.008073985576629639e-01
1.513000000000000000e+03 2.446518325805664062e+01 -6.603822708129882812e+00 1.948881894350051880e-02 -1.126154422760009766e+00 -3.319996595382690430e-01 -7.801203429698944092e-02
1.514000000000000000e+03 2.307985877990722656e+01 -6.700502872467041016e+00 2.296794764697551727e-02 -1.386521339416503906e+00 -4.090660214424133301e-01 -8.743885159492492676e-02
1.515000000000000000e+03 2.270522308349609375e+01 -1.780519104003906250e+01 2.676767669618129730e-02 -1.394701123237609863e+00 -4.103800356388092041e-01 -6.022896990180015564e-02
1.516000000000000000e+03 2.329536628723144531e+01 -1.127731800079345703e+00 1.033423095941543579e-02 -1.354127407073974609e+00 -4.031379520893096924e-01 -9.796507656574249268e-02
1.517000000000000000e+03 1.290357112884521484e+01 3.199197959899902344e+01 -3.331980260554701090e-04 3.079148518736474216e-05 -9.072195825865492225e-05 -1.795367279555648565e-05
1.518000000000000000e+03 1.454770278930664062e+01 3.309694290161132812e+01 -3.781004634220153093e-04 2.014115489146206528e-05 -1.073877938324585557e-04 4.475961395655758679e-05
1.519000000000000000e+03 1.173604869842529297e+01 2.150481986999511719e+01 1.705038594081997871e-04 -1.849992986535653472e-05 4.560117668006569147e-05 1.343831627309555188e-05
1.520000000000000000e+03 1.223663806915283203e+01 1.735830879211425781e+01 -1.271994551643729210e-04 -6.059782663214718923e-06 -3.997777093900367618e-05 -1.761910243658348918e-05
1.521000000000000000e+03 2.274450683593750000e+01 -1.642324066162109375e+01 3.342402051202952862e-04 -1.394912004470825195e+00 -4.183733165264129639e-01 -4.540766775608062744e-02
1.522000000000000000e+03 1.234768009185791016e+01 1.479340553283691406e+01 -1.125884664361365139e-04 -2.878817213058937341e-06 -3.464018664089962840e-05 -1.285000962525373325e-05
1.523000000000000000e+03 1.313722419738769531e+01 2.157533264160156250e+01 -1.665661256993189454e-04 4.069104761583730578e-06 -4.874910882790572941e-05 1.139764299296075478e-05
1.524000000000000000e+03 1.334038448333740234e+01 6.580808639526367188e+00 6.278888758970424533e-05 -1.821198111429112032e-06 1.829030588851310313e-05 5.052857545706501696e-07
1.525000000000000000e+03 1.065854263305664062e+01 4.614824771881103516e+00 -4.362318941275589168e-05 6.177264822326833382e-06 -1.123377660405822098e-05 1.384712777507957071e-05
1.526000000000000000e+03 1.229349994659423828e+01 1.353832054138183594e+01 1.014335139188915491e-04 6.203038992680376396e-06 3.229096546419896185e-05 1.077683646144578233e-05
1.527000000000000000e+03 1.340978145599365234e+01 5.311911106109619141e+00 -5.722013884223997593e-05 3.976471134592429735e-07 -1.704674832581076771e-05 -1.004776095214765519e-06
1.528000000000000000e+03 8.964306831359863281e+00 3.987442255020141602e+00 3.792299321503378451e-05 6.266630407480988652e-06 1.325688754150178283e-05 1.263505328097380698e-05
1.529000000000000000e+03 8.439496994018554688e+00 -3.253151702880859375e+01 1.089873071759939194e-02 -4.710248205810785294e-03 1.856544753536581993e-03 2.348961133975535631e-04
1.530000000000000000e+03 1.270334529876708984e+01 -3.084950447082519531e+01 3.641454968601465225e-04 1.886570011265575886e-03 6.752146291546523571e-04 -1.303332857787609100e-03
1.531000000000000000e+03 1.202996253967285156e+01 2.001148033142089844e+01 -1.594516943441703916e-04 2.008194678637664765e-05 -4.181092299404554069e-05 -3.054268381674773991e-05
1.532000000000000000e+03 7.473983764648437500e+01 -3.458175277709960938e+01 -2.381684631109237671e-02 8.435544013977050781e+00 2.523518085479736328e+00 -2.449785359203815460e-02
1.533000000000000000e+03 7.678162384033203125e+01 -3.580453491210937500e+01 -1.503473427146673203e-02 8.812535285949707031e+00 2.639250278472900391e+00 2.460902184247970581e-02
1.534000000000000000e+03 7.546611022949218750e+01 -2.238657760620117188e+01 -6.092787254601716995e-03 8.545956611633300781e+00 2.561959028244018555e+00 -5.688581150025129318e-03
1.535000000000000000e+03 7.801680755615234375e+01 -2.915703964233398438e+01 -1.030070590786635876e-03 9.030426025390625000e+00 2.708818912506103516e+00 -1.115948427468538284e-02
1.536000000000000000e+03 7.797504425048828125e+01 -3.576589584350585938e+01 -1.350952126085758209e-02 9.017957687377929688e+00 2.701334476470947266e+00 2.866583690047264099e-02
1.537000000000000000e+03 7.282899475097656250e+01 -3.806915664672851562e+01 -1.420345809310674667e-02 7.999217033386230469e+00 2.395504236221313477e+00 -2.940535545349121094e-02
1.538000000000000000e+03 7.820614624023437500e+01 1.932386779785156250e+01 -1.308084279298782349e-02 6.725400924682617188e+00 2.013695955276489258e+00 -4.436093568801879883e-01
1.539000000000000000e+03 7.580327606201171875e+01 1.626200294494628906e+01 -1.029999703168869019e-01 7.459879398345947266e+00 2.207063913345336914e+00 -7.309080958366394043e-01
1.540000000000000000e+03 7.790991973876953125e+01 3.576044464111328125e+01 5.356646329164505005e-02 4.755839347839355469e+00 1.442821860313415527e+00 1.003543511033058167e-01
1.541000000000000000e+03 7.673141479492187500e+01 3.437633132934570312e+01 1.819952428340911865e-01 5.281689643859863281e+00 1.639105439186096191e+00 7.534226402640342712e-03
1.542000000000000000e+03 7.805243682861328125e+01 -2.229492759704589844e+01 -1.770586357451975346e-03 9.039805412292480469e+00 2.711410284042358398e+00 -1.105469372123479843e-02
1.543000000000000000e+03 7.680360412597656250e+01 -2.370126724243164062e+01 -4.809520673006772995e-03 8.800050735473632812e+00 2.638572216033935547e+00 -7.901403121650218964e-03
1.544000000000000000e+03 7.657620239257812500e+01 -3.038483047485351562e+01 -8.025229908525943756e-03 8.752796173095703125e+00 2.623431205749511719e+00 -9.265576489269733429e-03
1.545000000000000000e+03 7.668321228027343750e+01 -2.905397415161132812e+01 -5.404478870332241058e-03 8.772575378417968750e+00 2.630151271820068359e+00 -8.202054537832736969e-03
1.546000000000000000e+03 7.558561706542968750e+01 -2.507292938232421875e+01 -5.548614542931318283e-03 8.570444107055664062e+00 2.569468498229980469e+00 -8.551365695893764496e-03
1.547000000000000000e+03 7.675298309326171875e+01 -2.773211288452148438e+01 4.273435100913047791e-03 8.788379669189453125e+00 2.637795925140380859e+00 -1.077976636588573456e-02
1.548000000000000000e+03 7.681947326660156250e+01 -2.506718444824218750e+01 4.557706415653228760e-04 8.803996086120605469e+00 2.641335725784301758e+00 -6.290732417255640030e-03
1.549000000000000000e+03 7.644995880126953125e+01 -3.172640800476074219e+01 -1.840502955019474030e-02 8.730614662170410156e+00 2.613662958145141602e+00 -3.144212299957871437e-03
1.550000000000000000e+03 7.643363952636718750e+01 -3.447472763061523438e+01 -2.145047113299369812e-02 8.767564773559570312e+00 2.623834133148193359e+00 1.672279275953769684e-02
1.551000000000000000e+03 7.536875152587890625e+01 -2.891368484497070312e+01 -1.410050608683377504e-04 8.520644187927246094e+00 2.556151151657104492e+00 -1.063232216984033585e-02
1.552000000000000000e+03 7.818044281005859375e+01 2.211035919189453125e+01 4.636838100850582123e-03 6.143145561218261719e+00 1.844334840774536133e+00 -4.635017514228820801e-01
1.553000000000000000e+03 7.430757141113281250e+01 2.445171928405761719e+01 1.556414514780044556e-01 6.808913707733154297e+00 2.089366674423217773e+00 -1.007314205169677734e+00
1.554000000000000000e+03 7.695246124267578125e+01 2.197341156005859375e+01 9.644459001719951630e-03 6.462956428527832031e+00 1.941780209541320801e+00 -6.983377337455749512e-01
1.555000000000000000e+03 7.823899078369140625e+01 1.517698001861572266e+01 -2.114382758736610413e-02 7.503501415252685547e+00 2.244707345962524414e+00 -3.545198440551757812e-01
1.556000000000000000e+03 7.825065612792968750e+01 1.241913032531738281e+01 -2.128434181213378906e-02 7.921226024627685547e+00 2.369982481002807617e+00 -2.862550318241119385e-01
1.557000000000000000e+03 7.468861389160156250e+01 1.336899566650390625e+01 -1.668822616338729858e-01 7.765417098999023438e+00 2.279560565948486328e+00 -6.829016208648681641e-01
1.558000000000000000e+03 7.706684875488281250e+01 1.368760585784912109e+01 -5.742225050926208496e-02 7.718738555908203125e+00 2.298394918441772461e+00 -4.773028790950775146e-01
1.559000000000000000e+03 7.813494873046875000e+01 2.627380561828613281e+01 4.192784056067466736e-02 5.335977554321289062e+00 1.613371610641479492e+00 -3.869540691375732422e-01
1.560000000000000000e+03 7.802794647216796875e+01 -2.090467834472656250e+01 -8.494893700117245317e-05 9.036260604858398438e+00 2.710852622985839844e+00 -1.001128088682889938e-02
1.561000000000000000e+03 7.675192260742187500e+01 -2.231730842590332031e+01 -2.345751505345106125e-03 8.793189048767089844e+00 2.637253046035766602e+00 -8.252343162894248962e-03
1.562000000000000000e+03 7.804183197021484375e+01 3.045627403259277344e+01 6.572846323251724243e-02 4.831027030944824219e+00 1.469026684761047363e+00 -1.917152851819992065e-01
1.563000000000000000e+03 7.680121612548828125e+01 2.890555000305175781e+01 1.392073333263397217e-01 5.514880180358886719e+00 1.696226239204406738e+00 -4.162479043006896973e-01
1.564000000000000000e+03 7.821490478515625000e+01 6.900991916656494141e+00 -1.664264872670173645e-02 8.496927261352539062e+00 2.544085264205932617e+00 -1.743195950984954834e-01
1.565000000000000000e+03 7.410119628906250000e+01 -1.515288925170898438e+01 -1.775921694934368134e-02 8.297090530395507812e+00 2.483799457550048828e+00 -2.002000063657760620e-02
1.566000000000000000e+03 7.548044586181640625e+01 -8.355384826660156250e+00 -2.205960638821125031e-02 8.514104843139648438e+00 2.547613620758056641e+00 -5.665448680520057678e-02
1.567000000000000000e+03 7.804746246337890625e+01 -1.531184577941894531e+01 -2.908025402575731277e-03 9.036556243896484375e+00 2.710094213485717773e+00 -1.850318908691406250e-02
1.568000000000000000e+03 7.555704498291015625e+01 -1.346968770027160645e+00 -3.960159420967102051e-02 8.442441940307617188e+00 2.520852088928222656e+00 -1.349849551916122437e-01
1.569000000000000000e+03 7.807324218750000000e+01 -8.347940444946289062e+00 -4.219064954668283463e-03 9.003803253173828125e+00 2.699875354766845703e+00 -3.630648180842399597e-02
1.570000000000000000e+03 7.819486236572265625e+01 5.520069599151611328e+00 -1.624245569109916687e-02 8.593530654907226562e+00 2.573186635971069336e+00 -1.530918478965759277e-01
1.571000000000000000e+03 7.566692352294921875e+01 2.724168539047241211e+00 -5.814873427152633667e-02 8.358974456787109375e+00 2.490247726440429688e+00 -2.138535231351852417e-01
1.572000000000000000e+03 7.564126586914062500e+01 3.724626922607421875e+01 1.128883212804794312e-01 5.700863361358642578e+00 1.744125485420227051e+00 1.180087551474571228e-01
1.573000000000000000e+03 7.554383087158203125e+01 2.874610137939453125e+01 2.396111190319061279e-01 5.977013111114501953e+00 1.864987254142761230e+00 -5.476301908493041992e-01
1.574000000000000000e+03 7.698542785644531250e+01 5.484233379364013672e+00 -3.911871463060379028e-02 8.423581123352050781e+00 2.515338659286499023e+00 -2.251209467649459839e-01
1.575000000000000000e+03 7.809790802001953125e+01 -1.391109585762023926e+00 -9.124297648668289185e-03 8.886703491210937500e+00 2.663273811340332031e+00 -7.705570012331008911e-02
1.576000000000000000e+03 7.679582977294921875e+01 -2.775121927261352539e+00 -2.079696767032146454e-02 8.684260368347167969e+00 2.599039077758789062e+00 -9.359917789697647095e-02
1.577000000000000000e+03 7.679405975341796875e+01 -9.738137245178222656e+00 -9.213959798216819763e-03 8.771828651428222656e+00 2.628784418106079102e+00 -3.870184719562530518e-02
1.578000000000000000e+03 7.670021820068359375e+01 -1.669499969482421875e+01 -5.938639864325523376e-03 8.783007621765136719e+00 2.633120775222778320e+00 -1.707436330616474152e-02
1.579000000000000000e+03 7.635806274414062500e+01 3.643009948730468750e+01 7.119759172201156616e-02 5.387470245361328125e+00 1.637600302696228027e+00 1.367954611778259277e-01
1.580000000000000000e+03 7.522380828857421875e+01 3.154517555236816406e+01 2.981138229370117188e-01 5.946457386016845703e+00 1.873371481895446777e+00 -2.693914175033569336e-01
1.581000000000000000e+03 7.663519287109375000e+01 3.170658302307128906e+01 1.654697805643081665e-01 5.382953643798828125e+00 1.664527058601379395e+00 -1.859634965658187866e-01
1.582000000000000000e+03 7.576464080810546875e+01 1.901484489440917969e+01 -7.006291300058364868e-02 7.139107227325439453e+00 2.120713472366333008e+00 -8.390583992004394531e-01
1.583000000000000000e+03 7.706715393066406250e+01 9.586303710937500000e+00 -5.110549554228782654e-02 8.144442558288574219e+00 2.428001165390014648e+00 -3.346320986747741699e-01
1.584000000000000000e+03 7.701959228515625000e+01 6.854068756103515625e+00 -4.376128315925598145e-02 8.344902992248535156e+00 2.490342617034912109e+00 -2.584685683250427246e-01
1.585000000000000000e+03 7.673789978027343750e+01 -1.528442192077636719e+01 -6.503359880298376083e-03 8.788450241088867188e+00 2.634584188461303711e+00 -1.893135532736778259e-02
1.586000000000000000e+03 7.677806854248046875e+01 -8.344280242919921875e+00 -1.224020496010780334e-02 8.760306358337402344e+00 2.624419927597045898e+00 -4.717709124088287354e-02
1.587000000000000000e+03 7.571855163574218750e+01 4.084288597106933594e+00 -6.513488292694091797e-02 8.319255828857421875e+00 2.476236343383789062e+00 -2.467494159936904907e-01
1.588000000000000000e+03 7.685680389404296875e+01 5.585789680480957031e-03 -2.423628233373165131e-02 8.628281593322753906e+00 2.581213474273681641e+00 -1.267063766717910767e-01
1.589000000000000000e+03 7.694975280761718750e+01 4.112631797790527344e+00 -3.594049811363220215e-02 8.489401817321777344e+00 2.536038398742675781e+00 -1.962283551692962646e-01
1.590000000000000000e+03 7.674623870849609375e+01 -5.571623325347900391e+00 -1.424834318459033966e-02 8.723054885864257812e+00 2.612641811370849609e+00 -6.624297052621841431e-02
1.591000000000000000e+03 7.675486755371093750e+01 -6.954367637634277344e+00 -1.264739036560058594e-02 8.741303443908691406e+00 2.618596792221069336e+00 -5.796041712164878845e-02
1.592000000000000000e+03 7.676393127441406250e+01 -4.178699016571044922e+00 -1.739600859582424164e-02 8.706259727478027344e+00 2.606658935546875000e+00 -7.912946492433547974e-02
1.593000000000000000e+03 7.678590393066406250e+01 -1.250216293334960938e+01 -6.424110848456621170e-03 8.788904190063476562e+00 2.634744167327880859e+00 -2.880126610398292542e-02
1.594000000000000000e+03 7.676676940917968750e+01 -1.388650321960449219e+01 -6.477661896497011185e-03 8.790727615356445312e+00 2.635275125503540039e+00 -2.528876252472400665e-02
1.595000000000000000e+03 7.679622650146484375e+01 -1.112296009063720703e+01 -6.176996976137161255e-03 8.783034324645996094e+00 2.633057117462158203e+00 -3.488549962639808655e-02
1.596000000000000000e+03 7.668991851806640625e+01 -2.092450332641601562e+01 -1.302284770645201206e-03 8.784405708312988281e+00 2.634931087493896484e+00 -1.103859581053256989e-02
1.597000000000000000e+03 7.665617370605468750e+01 -1.952354049682617188e+01 6.651263538515195251e-05 8.778104782104492188e+00 2.633451223373413086e+00 -9.553340263664722443e-03
1.598000000000000000e+03 2.224041366577148438e+01 4.429543495178222656e+00 -5.284422636032104492e-02 -1.566848754882812500e+00 -4.859078824520111084e-01 -1.068011745810508728e-01
1.599000000000000000e+03 2.353320312500000000e+01 1.024280071258544922e+01 1.069797109812498093e-02 -1.153045535087585449e+00 -3.427042663097381592e-01 -1.561031043529510498e-01
1.600000000000000000e+03 2.230336952209472656e+01 -2.608444595336914062e+01 2.829439006745815277e-02 -1.442321538925170898e+00 -4.242081642150878906e-01 -6.305339932441711426e-02
1.601000000000000000e+03 2.105879211425781250e+01 -2.350049400329589844e+01 2.037130482494831085e-02 -1.660090804100036621e+00 -4.919158518314361572e-01 -4.948446527123451233e-02
1.602000000000000000e+03 2.196119117736816406e+01 2.967218780517578125e+01 -1.194167044013738632e-02 -1.260211020708084106e-01 -4.138883203268051147e-02 -6.892607361078262329e-02
1.603000000000000000e+03 2.350817108154296875e+01 1.306907272338867188e+01 1.618518494069576263e-02 -1.033989548683166504e+00 -3.053413033485412598e-01 -1.783853173255920410e-01
1.604000000000000000e+03 1.284417343139648438e+01 -2.737264633178710938e+01 -3.186138637829571962e-04 -7.291542715393006802e-04 -3.143304202239960432e-04 7.306360639631748199e-04
1.605000000000000000e+03 2.205297279357910156e+01 2.691928863525390625e+01 -9.018358774483203888e-03 -2.693299055099487305e-01 -8.350447565317153931e-02 -1.066557019948959351e-01
1.606000000000000000e+03 2.467291259765625000e+01 3.131063842773437500e+01 -7.534474134445190430e-02 -7.308029383420944214e-02 -4.452751204371452332e-02 -1.226637065410614014e-01
1.607000000000000000e+03 2.208719825744628906e+01 2.552965545654296875e+01 -7.217464037239551544e-03 -3.573306500911712646e-01 -1.093644350767135620e-01 -1.217689812183380127e-01
1.608000000000000000e+03 2.313456726074218750e+01 2.698543930053710938e+01 -2.403745055198669434e-02 -2.552212774753570557e-01 -8.377762138843536377e-02 -1.678099483251571655e-01
1.609000000000000000e+03 1.355549430847167969e+01 -6.586267471313476562e+00 -2.871399046853184700e-04 -3.642181036411784589e-05 -9.706851415103301406e-05 5.191544187255203724e-05
1.610000000000000000e+03 2.223413276672363281e+01 1.856642150878906250e+01 4.595476202666759491e-03 -8.526680469512939453e-01 -2.544217705726623535e-01 -1.410741060972213745e-01
1.611000000000000000e+03 2.449672698974609375e+01 2.158579063415527344e+01 -3.296296054031699896e-04 -5.004265904426574707e-01 -1.502268612384796143e-01 -2.888588309288024902e-01
1.612000000000000000e+03 2.112156677246093750e+01 -2.893080520629882812e+01 -1.306640356779098511e-02 -1.715931177139282227e+00 -5.186992883682250977e-01 -4.637343436479568481e-02
1.613000000000000000e+03 2.218360519409179688e+01 2.136012458801269531e+01 7.645246223546564579e-04 -6.528683304786682129e-01 -1.956311464309692383e-01 -1.433165520429611206e-01
1.614000000000000000e+03 2.329171180725097656e+01 2.285550498962402344e+01 -4.946675617247819901e-03 -4.927011728286743164e-01 -1.492943465709686279e-01 -2.166728228330612183e-01
1.615000000000000000e+03 2.334351921081542969e+01 2.147844123840332031e+01 4.121459496673196554e-04 -5.753846764564514160e-01 -1.724917441606521606e-01 -2.226431220769882202e-01
1.616000000000000000e+03 2.459741592407226562e+01 1.881363868713378906e+01 1.726617477834224701e-02 -6.346908807754516602e-01 -1.852274239063262939e-01 -2.852403223514556885e-01
1.617000000000000000e+03 1.301191806793212891e+01 -1.594391059875488281e+01 5.078729009255766869e-04 4.672827799367951229e-06 1.537637144792824984e-04 -5.261107799015007913e-05
1.618000000000000000e+03 1.135136032104492188e+01 -1.833385467529296875e+01 -6.329974276013672352e-04 -1.390987599734216928e-04 -2.316288591828197241e-04 2.787700796034187078e-04
1.619000000000000000e+03 1.156441497802734375e+01 -1.558575916290283203e+01 -5.487556336447596550e-04 -6.700208177790045738e-05 -1.847273088060319424e-04 1.569446176290512085e-04
1.620000000000000000e+03 1.248992538452148438e+01 -9.186291694641113281e+00 3.163930959999561310e-04 4.600952524924650788e-05 1.087207856471650302e-04 -6.895821570651605725e-05
1.621000000000000000e+03 1.355631732940673828e+01 -9.244123458862304688e+00 -3.700203378684818745e-04 -3.093244959018193185e-05 -1.202858402393758297e-04 7.602502591907978058e-05
1.622000000000000000e+03 1.237986660003662109e+01 -1.168214607238769531e+01 3.729605523403733969e-04 4.839458779315464199e-05 1.264065504074096680e-04 -1.022639407892711461e-04
1.623000000000000000e+03 2.349178886413574219e+01 1.447982120513916016e+01 1.672753319144248962e-02 -9.670375585556030273e-01 -2.850930094718933105e-01 -1.907440274953842163e-01
1.624000000000000000e+03 2.347034645080566406e+01 1.588577175140380859e+01 1.549692079424858093e-02 -8.958045244216918945e-01 -2.640922963619232178e-01 -2.022095620632171631e-01
1.625000000000000000e+03 2.352273750305175781e+01 1.165779113769531250e+01 1.470734924077987671e-02 -1.096687793731689453e+00 -3.245941400527954102e-01 -1.668843477964401245e-01
1.626000000000000000e+03 1.103991985321044922e+01 -1.954330253601074219e+01 4.082318628206849098e-04 3.029517829418182373e-04 2.133550879079848528e-04 2.084265906887594610e-05
1.627000000000000000e+03 1.173064041137695312e+01 -2.465567207336425781e+01 3.627957485150545835e-04 1.814133865991607308e-04 1.632627390790730715e-04 3.534716597641818225e-05
1.628000000000000000e+03 2.353204154968261719e+01 7.394969463348388672e+00 -1.094272080808877945e-02 -1.249094367027282715e+00 -3.780111372470855713e-01 -1.456750929355621338e-01
1.629000000000000000e+03 2.163875007629394531e+01 -9.576842308044433594e+00 -1.996491849422454834e-02 -1.649750471115112305e+00 -5.009146332740783691e-01 -6.651791930198669434e-02
1.630000000000000000e+03 2.312866783142089844e+01 -5.320590972900390625e+00 2.819278463721275330e-02 -1.376826763153076172e+00 -4.045901894569396973e-01 -7.429898530244827271e-02
1.631000000000000000e+03 2.318412399291992188e+01 -3.934708118438720703e+00 1.229051593691110611e-02 -1.357531309127807617e+00 -4.035722315311431885e-01 -7.811195403337478638e-02
1.632000000000000000e+03 3.374710321426391602e+00 3.012137603759765625e+01 -1.210239643114618957e-04 -2.644468804646749049e-05 -4.424059443408623338e-05 -1.250595414603594691e-05
1.633000000000000000e+03 1.869323849678039551e+00 2.748717117309570312e+01 1.228417968377470970e-04 1.885749952634796500e-06 3.741826367331668735e-05 1.490887825639219955e-05
1.634000000000000000e+03 4.946257591247558594e+00 3.309788894653320312e+01 7.914488378446549177e-05 2.067904642899520695e-05 2.994717942783609033e-05 2.788258461805526167e-05
1.635000000000000000e+03 2.174953699111938477e+00 3.571499252319335938e+01 1.784003688953816891e-04 -2.703036079765297472e-05 4.541100133792497218e-05 7.849635039747226983e-06
1.636000000000000000e+03 3.240428686141967773e+00 2.870559883117675781e+01 1.277286355616524816e-04 1.141021311923395842e-05 4.174165587755851448e-05 1.746752241160720587e-05
1.637000000000000000e+03 4.288684844970703125e+00 3.794733047485351562e+01 -7.881643250584602356e-05 -4.871897544944658875e-05 -3.826062311418354511e-05 -6.247012152016395703e-06
1.638000000000000000e+03 2.028554916381835938e+00 3.441245651245117188e+01 -1.589092280482873321e-04 7.240863396873464808e-06 -4.550051016849465668e-05 3.443945388426072896e-05
1.639000000000000000e+03 3.486197948455810547e+00 3.532402801513671875e+01 -2.070332848234102130e-04 2.670465801202226430e-05 -5.409858931670896709e-05 5.410043740994296968e-05
1.640000000000000000e+03 3.432898044586181641e+00 3.297454452514648438e+01 -1.155824356828816235e-04 -1.331626481260173023e-05 -3.866960832965560257e-05 3.652872328530065715e-05
1.641000000000000000e+03 4.762362957000732422e+00 2.988236045837402344e+01 1.386685762554407120e-04 2.313520599273033440e-05 4.854113285546191037e-05 9.547901754558552057e-06
1.642000000000000000e+03 3.470967054367065430e+00 3.155967712402343750e+01 9.543835039949044585e-05 4.222624556859955192e-05 4.129937951802276075e-05 5.146777311892947182e-06
1.643000000000000000e+03 3.204035043716430664e+00 -3.734837722778320312e+01 -6.931368261575698853e-04 1.028235349804162979e-02 2.876764861866831779e-03 7.199848070740699768e-03
1.644000000000000000e+03 3.693488836288452148e+00 -3.470523452758789062e+01 2.441845368593931198e-03 3.674037288874387741e-03 1.834764843806624413e-03 6.514839828014373779e-03
1.645000000000000000e+03 3.475068807601928711e+00 -3.039716720581054688e+01 6.388894980773329735e-04 4.428199317771941423e-04 3.245128318667411804e-04 2.003010828047990799e-03
1.646000000000000000e+03 2.060761928558349609e+00 -2.902660942077636719e+01 -6.894438993185758591e-04 1.861062191892415285e-04 -1.510012953076511621e-04 7.344822515733540058e-04
1.647000000000000000e+03 1.804916024208068848e+00 2.193084526062011719e+01 1.296887057833373547e-04 -1.660172529227565974e-06 3.840856152237392962e-05 7.622404609719524160e-06
1.648000000000000000e+03 2.948458433151245117e+00 2.327705955505371094e+01 1.390744728269055486e-04 -9.838909136306028813e-06 3.877066774293780327e-05 2.366247281315736473e-05
1.649000000000000000e+03 3.160297393798828125e+00 -1.921914863586425781e+01 -9.821911808103322983e-04 -7.338159775827080011e-06 -2.968588087242096663e-04 -2.221840404672548175e-04
1.650000000000000000e+03 3.043085098266601562e+00 -1.218509960174560547e+01 4.980015801265835762e-04 1.384345159749500453e-05 1.535534975118935108e-04 1.302566488448064774e-05
1.651000000000000000e+03 1.699876546859741211e+00 -9.351696968078613281e+00 -4.478046612348407507e-04 1.354057303615263663e-06 -1.339351874776184559e-04 -1.115669601858826354e-05
1.652000000000000000e+03 2.964876413345336914e+00 1.770285987854003906e+01 1.324346667388454080e-04 -1.226068525284063071e-05 3.605219535529613495e-05 -2.535019575589103624e-06
1.653000000000000000e+03 2.885701894760131836e+00 1.211554622650146484e+01 8.842254464980214834e-05 4.193906079308362678e-06 2.778493580990470946e-05 -4.401336354931117967e-06
1.654000000000000000e+03 1.889367818832397461e+00 -1.498903465270996094e+01 -6.472551613114774227e-04 -5.841350866830907762e-05 -2.117006079060956836e-04 -6.368263711920008063e-05
1.655000000000000000e+03 3.120954036712646484e+00 -1.360802459716796875e+01 -5.755081656388938427e-04 -4.238164547132328153e-05 -1.853669382398948073e-04 -6.659773498540744185e-05
1.656000000000000000e+03 4.856557369232177734e+00 5.144901752471923828e+00 1.131245312535611447e-06 -8.059639185375999659e-06 -2.078518264170270413e-06 2.459492316120304167e-05
1.657000000000000000e+03 2.838162899017333984e+00 7.854794025421142578e+00 -7.164935232140123844e-05 -5.238719040789874271e-06 -2.306642090843524784e-05 1.084045152310864069e-06
1.658000000000000000e+03 1.776283860206604004e+00 1.493046951293945312e+01 -1.021443313220515847e-04 -7.712142746640893165e-07 -3.087466393481008708e-05 6.874521204736083746e-06
1.659000000000000000e+03 2.947173833847045898e+00 1.633667373657226562e+01 -1.224846055265516043e-04 6.529689017042983323e-06 -3.478647704469040036e-05 1.340050312137464061e-05
1.660000000000000000e+03 2.824083805084228516e+00 9.312995910644531250e+00 8.111090573947876692e-05 2.992020995407074224e-07 2.442303230054676533e-05 -1.555276980980124790e-06
1.661000000000000000e+03 5.993321895599365234e+00 -4.530759811401367188e+00 -1.457263133488595486e-04 -6.978139572311192751e-05 -6.465231126639991999e-05 -1.536222844151780009e-04
1.662000000000000000e+03 2.646587848663330078e+00 -5.267852306365966797e+00 -2.968706830870360136e-04 -8.014888589968904853e-05 -1.131058743339963257e-04 4.929678834741935134e-05
1.663000000000000000e+03 1.595923185348510742e+00 -6.547952651977539062e+00 -3.778215905185788870e-04 -5.970022812107345089e-06 -1.151374890469014645e-04 -3.370472313690697774e-06
1.664000000000000000e+03 3.399114370346069336e+00 -2.899508094787597656e+01 2.461492316797375679e-03 8.950986375566571951e-05 7.653006468899548054e-04 8.850549929775297642e-04
1.665000000000000000e+03 3.258518934249877930e+00 -2.199806213378906250e+01 -1.068896381184458733e-03 1.130185955844353884e-05 -3.172783472109586000e-04 -1.978040236281231046e-04
1.666000000000000000e+03 2.119968175888061523e+00 -3.599256515502929688e+01 7.044601952657103539e-04 9.129976853728294373e-03 2.950330963358283043e-03 4.706075880676507950e-03
1.667000000000000000e+03 3.326048374176025391e+00 -2.339929199218750000e+01 1.041303272359073162e-03 1.117296051234006882e-05 3.157428582198917866e-04 -2.297758765053004026e-04
1.668000000000000000e+03 3.179390907287597656e+00 -1.645049476623535156e+01 -7.303767488338053226e-04 -7.172072946559637785e-05 -2.406292333034798503e-04 -1.529834553366526961e-04
1.669000000000000000e+03 2.996509313583374023e+00 2.190691947937011719e+01 -1.369400270050391555e-04 7.673411346331704408e-06 -3.877998460666276515e-05 -1.590511237736791372e-05
1.670000000000000000e+03 2.942182779312133789e+00 -1.077284145355224609e+01 -4.832360136788338423e-04 -1.031942065310431644e-05 -1.480666251154616475e-04 -3.308095620013773441e-05
1.671000000000000000e+03 2.833272695541381836e+00 -9.382498741149902344e+00 4.432395508047193289e-04 -9.037772201736515854e-07 1.327007339568808675e-04 1.905426324810832739e-05
1.672000000000000000e+03 3.700528383255004883e+00 -3.326184463500976562e+01 9.848439367488026619e-04 1.439664629288017750e-03 7.273525698110461235e-04 6.523855496197938919e-03
1.673000000000000000e+03 5.277707099914550781e+00 -3.483528518676757812e+01 2.295122016221284866e-03 -1.708301948383450508e-03 1.760460436344146729e-04 1.148667559027671814e-02
1.674000000000000000e+03 2.013883829116821289e+00 -2.481743621826171875e+01 1.148091978393495083e-03 -2.796993940137326717e-04 2.605177869554609060e-04 -1.352277904516085982e-04
1.675000000000000000e+03 4.673511981964111328e+00 -2.336927604675292969e+01 -9.556756122037768364e-04 1.563834375701844692e-04 -2.397876523900777102e-04 -1.092168968170881271e-04
1.676000000000000000e+03 3.382594585418701172e+00 -2.621873283386230469e+01 1.435489859431982040e-03 1.276653492823243141e-04 4.689465858973562717e-04 5.437963045551441610e-05
1.677000000000000000e+03 3.165266752243041992e+00 -1.503380489349365234e+01 5.815909244120121002e-04 3.322695556562393904e-05 1.844453654484823346e-04 1.049443380907177925e-05
1.678000000000000000e+03 2.841857194900512695e+00 1.072351837158203125e+01 -8.548262849217280746e-05 -9.393714321959123481e-07 -2.592659984657075256e-05 1.705208433122606948e-06
1.679000000000000000e+03 2.933700561523437500e+00 1.352489471435546875e+01 -8.994628296932205558e-05 -5.685288215317996219e-06 -2.868947012757416815e-05 7.065695626806700602e-06
1.680000000000000000e+03 3.014650106430053711e+00 1.909810447692871094e+01 -1.274069509236142039e-04 7.309649845410604030e-06 -3.602919241529889405e-05 -7.010246918071061373e-06
1.681000000000000000e+03 2.345287322998046875e+01 3.103696107864379883e+00 -2.325271628797054291e-02 -1.325460195541381836e+00 -4.046138525009155273e-01 -9.967494755983352661e-02
1.682000000000000000e+03 2.299294853210449219e+01 -9.469815254211425781e+00 -8.368767797946929932e-03 -1.401008248329162598e+00 -4.228130877017974854e-01 -7.896671444177627563e-02
1.683000000000000000e+03 1.176798629760742188e+01 3.369340515136718750e+01 -3.343831340316683054e-04 6.892321107443422079e-05 -7.963797543197870255e-05 -8.051485929172486067e-05
1.684000000000000000e+03 1.269220542907714844e+01 3.056697845458984375e+01 2.717060851864516735e-04 -8.259116839326452464e-06 7.903409277787432075e-05 -7.820012797310482711e-06
1.685000000000000000e+03 1.168795967102050781e+01 2.313939857482910156e+01 -1.801511243684217334e-04 -4.047043603350175545e-06 -5.525945016415789723e-05 6.547909379150951281e-06
1.686000000000000000e+03 1.596981048583984375e+01 3.713592529296875000e+01 2.548885822761803865e-04 3.521883336361497641e-04 1.821230689529329538e-04 -2.021351683652028441e-04
1.687000000000000000e+03 2.279182624816894531e+01 -1.503874015808105469e+01 -2.559322491288185120e-02 -1.391783237457275391e+00 -4.252129197120666504e-01 -5.850851535797119141e-02
1.688000000000000000e+03 2.289154052734375000e+01 -1.225405311584472656e+01 -3.282925859093666077e-02 -1.405356407165527344e+00 -4.314557015895843506e-01 -6.739825755357742310e-02
1.689000000000000000e+03 1.063496112823486328e+01 -3.719471359252929688e+01 2.562867663800716400e-02 -1.755488105118274689e-02 2.422138350084424019e-03 1.734929718077182770e-02
1.690000000000000000e+03 2.351821327209472656e+01 5.963663101196289062e+00 -2.720299735665321350e-02 -1.281831979751586914e+00 -3.927105069160461426e-01 -1.345496028661727905e-01
1.691000000000000000e+03 3.769536209106445312e+01 3.743864059448242188e+01 -1.500630285590887070e-02 -1.284721940755844116e-01 -4.304355010390281677e-02 1.777174919843673706e-01
1.692000000000000000e+03 1.331431293487548828e+01 3.494062042236328125e+01 -4.447134560905396938e-04 9.628268890082836151e-05 -1.045292301569133997e-04 2.638056139403488487e-05
1.693000000000000000e+03 4.283969879150390625e+01 3.702009582519531250e+01 4.008706891909241676e-04 -2.508612871170043945e-01 -7.513812929391860962e-02 4.199483692646026611e-01
1.694000000000000000e+03 4.233763122558593750e+01 3.606504058837890625e+01 -2.771366536617279053e-01 -1.642620116472244263e-01 -1.324196010828018188e-01 3.757586181163787842e-01
1.695000000000000000e+03 3.572750854492187500e+01 3.906089782714843750e+01 3.621955960988998413e-02 -1.581727564334869385e-01 -3.658596053719520569e-02 8.245572447776794434e-02
1.696000000000000000e+03 3.478161621093750000e+01 3.833658599853515625e+01 7.689436897635459900e-03 -9.270527958869934082e-02 -2.550475113093852997e-02 4.238419607281684875e-02
1.697000000000000000e+03 4.246727752685546875e+01 3.807925796508789062e+01 1.516295224428176880e-01 -2.945638298988342285e-01 -4.288029298186302185e-02 3.332159221172332764e-01
1.698000000000000000e+03 2.324078941345214844e+01 -2.536772012710571289e+00 1.028477493673563004e-02 -1.351384043693542480e+00 -4.023297727108001709e-01 -9.225901961326599121e-02
1.699000000000000000e+03 2.117389869689941406e+01 -2.073146247863769531e+01 9.960807859897613525e-03 -1.600532054901123047e+00 -4.771713614463806152e-01 -8.126868307590484619e-02
1.700000000000000000e+03 2.268132972717285156e+01 -1.919003295898437500e+01 2.943198196589946747e-02 -1.369798541069030762e+00 -4.021099805831909180e-01 -6.701651215553283691e-02
1.701000000000000000e+03 1.233914279937744141e+01 2.768440818786621094e+01 2.333411684958264232e-04 -1.125100334320450202e-05 6.662704981863498688e-05 -1.486459586885757744e-05
1.702000000000000000e+03 3.245338821411132812e+01 3.923426437377929688e+01 -5.122074391692876816e-03 -4.571967944502830505e-02 -1.525252591818571091e-02 3.906714171171188354e-02
1.703000000000000000e+03 2.112495613098144531e+01 -2.212284278869628906e+01 2.673675538972020149e-03 -1.617223262786865234e+00 -4.843648672103881836e-01 -4.599737375974655151e-02
1.704000000000000000e+03 2.496748352050781250e+01 -3.127563095092773438e+01 -4.556566849350929260e-02 -9.449670910835266113e-01 -2.971598207950592041e-01 -5.219153314828872681e-02
1.705000000000000000e+03 2.225258064270019531e+01 -2.736999320983886719e+01 7.601316086947917938e-03 -1.474874973297119141e+00 -4.401820898056030273e-01 -6.120198220014572144e-02
1.706000000000000000e+03 2.694215393066406250e+01 3.930723953247070312e+01 -2.935695927590131760e-03 -9.109341190196573734e-04 -1.153988996520638466e-03 5.136824329383671284e-04
1.707000000000000000e+03 2.347534942626953125e+01 -2.732681655883789062e+01 4.282238893210887909e-03 -1.202342629432678223e+00 -3.594181239604949951e-01 -8.163830637931823730e-02
1.708000000000000000e+03 2.231818008422851562e+01 -2.853700065612792969e+01 -1.660187542438507080e-02 -1.459211826324462891e+00 -4.427441060543060303e-01 -6.408876925706863403e-02
1.709000000000000000e+03 2.305757141113281250e+01 -3.529649353027343750e+01 -1.447284370660781860e-01 -1.162422776222229004e+00 -3.921453654766082764e-01 1.603594608604907990e-02
1.710000000000000000e+03 4.807563304901123047e+00 -4.059252929687500000e+01 -5.305073224008083344e-03 1.146527379751205444e-02 1.848060172051191330e-03 6.459077820181846619e-03
1.711000000000000000e+03 6.037959098815917969e+00 -3.873661422729492188e+01 -8.449937216937541962e-03 7.348790764808654785e-03 -3.303439880255609751e-04 1.262894831597805023e-02
1.712000000000000000e+03 5.561275863647460938e+01 3.335308074951171875e+01 1.351113319396972656e+00 2.902923583984375000e+00 1.276211023330688477e+00 -2.833078622817993164e+00
1.713000000000000000e+03 5.520679092407226562e+01 3.359400939941406250e+01 9.120855331420898438e-01 2.308441638946533203e+00 9.661581516265869141e-01 -2.190681219100952148e+00
1.714000000000000000e+03 5.633011245727539062e+01 2.853087043762207031e+01 2.241394042968750000e+00 6.313782691955566406e+00 2.566553115844726562e+00 5.271888256072998047e+00
1.715000000000000000e+03 5.660124588012695312e+01 2.885680007934570312e+01 2.501753807067871094e+00 7.288806438446044922e+00 2.937168121337890625e+00 5.851150989532470703e+00
1.716000000000000000e+03 5.663798141479492188e+01 2.931546783447265625e+01 3.179608106613159180e+00 6.529007434844970703e+00 2.912584543228149414e+00 6.072299480438232422e+00
1.717000000000000000e+03 5.843078994750976562e+01 2.919970512390136719e+01 1.032505035400390625e+00 1.856919097900390625e+01 5.880508899688720703e+00 2.723720788955688477e+00
1.718000000000000000e+03 5.819372177124023438e+01 2.916079139709472656e+01 9.396249651908874512e-01 1.766935920715332031e+01 5.582695484161376953e+00 3.866321563720703125e+00
1.719000000000000000e+03 5.681609725952148438e+01 2.937116241455078125e+01 3.261651754379272461e+00 7.838160514831542969e+00 3.329943656921386719e+00 6.644202232360839844e+00
1.720000000000000000e+03 5.929993820190429688e+01 3.034482002258300781e+01 8.105626106262207031e+00 1.892036056518554688e+01 8.107795715332031250e+00 -2.238770961761474609e+00
1.721000000000000000e+03 5.998972702026367188e+01 3.078496742248535156e+01 8.848600387573242188e+00 1.537196159362792969e+01 7.266168594360351562e+00 -5.742193460464477539e-01
1.722000000000000000e+03 5.958922958374023438e+01 3.092836761474609375e+01 1.031901359558105469e+01 1.659793472290039062e+01 8.075084686279296875e+00 -3.818792402744293213e-01
1.723000000000000000e+03 5.951980972290039062e+01 3.296891021728515625e+01 2.548210620880126953e+00 1.792226600646972656e+01 6.141142845153808594e+00 2.024549722671508789e+00
1.724000000000000000e+03 6.020576477050781250e+01 3.185406684875488281e+01 7.276160240173339844e+00 1.507498359680175781e+01 6.705343246459960938e+00 2.107234477996826172e+00
1.725000000000000000e+03 5.517129135131835938e+01 3.437688064575195312e+01 9.689016938209533691e-01 3.467821598052978516e+00 1.331017017364501953e+00 -2.673077583312988281e+00
1.726000000000000000e+03 5.641711807250976562e+01 2.912005424499511719e+01 3.005373716354370117e+00 5.803233146667480469e+00 2.642582178115844727e+00 5.667255401611328125e+00
1.727000000000000000e+03 5.358266448974609375e+01 2.876531410217285156e+01 8.028312325477600098e-01 8.112565279006958008e-01 4.842263460159301758e-01 1.626850724220275879e+00
1.728000000000000000e+03 5.304350662231445312e+01 2.885091972351074219e+01 3.475240170955657959e-01 5.376482605934143066e-01 2.655516862869262695e-01 1.223150610923767090e+00
1.729000000000000000e+03 5.408551788330078125e+01 3.500993347167968750e+01 7.076535224914550781e-01 2.307950258255004883e+00 9.046811461448669434e-01 -1.540730714797973633e+00
1.730000000000000000e+03 5.466926956176757812e+01 3.468241882324218750e+01 7.935113906860351562e-01 2.930439233779907227e+00 1.117185235023498535e+00 -2.091447114944458008e+00
1.731000000000000000e+03 5.220671463012695312e+01 3.713886260986328125e+01 6.816961765289306641e-01 1.629075646400451660e+00 6.932315230369567871e-01 -7.611355185508728027e-01
1.732000000000000000e+03 5.561477661132812500e+01 3.502446746826171875e+01 7.326118946075439453e-01 4.875275135040283203e+00 1.682366132736206055e+00 -3.059796333312988281e+00
1.733000000000000000e+03 5.549991607666015625e+01 3.400642013549804688e+01 1.137724876403808594e+00 3.654826879501342773e+00 1.437765598297119141e+00 -3.056221961975097656e+00
1.734000000000000000e+03 2.624151802062988281e+01 3.160585212707519531e+01 -1.319522112607955933e-01 -4.263369366526603699e-02 -5.237577110528945923e-02 -1.514003872871398926e-01
1.735000000000000000e+03 2.541016197204589844e+01 3.245207595825195312e+01 -9.673609584569931030e-02 -3.744028136134147644e-02 -4.025291278958320618e-02 -1.032832339406013489e-01
1.736000000000000000e+03 5.246360778808593750e+01 2.892214393615722656e+01 -4.690350964665412903e-02 3.556608855724334717e-01 9.262721240520477295e-02 8.920204043388366699e-01
1.737000000000000000e+03 5.458172607421875000e+01 3.575131607055664062e+01 6.548538804054260254e-01 3.615708112716674805e+00 1.281168580055236816e+00 -1.915597915649414062e+00
1.738000000000000000e+03 5.507887649536132812e+01 3.534267807006835938e+01 7.018727064132690430e-01 4.327638626098632812e+00 1.508853435516357422e+00 -2.571529388427734375e+00
1.739000000000000000e+03 5.049630737304687500e+01 2.909929275512695312e+01 -8.706496357917785645e-01 1.307431906461715698e-01 -2.219719290733337402e-01 3.166213333606719971e-01
1.740000000000000000e+03 5.118835830688476562e+01 2.904648017883300781e+01 -6.630861759185791016e-01 1.777442097663879395e-01 -1.456025987863540649e-01 4.625753760337829590e-01
1.741000000000000000e+03 2.698102569580078125e+01 3.171714210510253906e+01 -1.604742258787155151e-01 -3.063832782208919525e-02 -5.733376368880271912e-02 -1.626437008380889893e-01
1.742000000000000000e+03 8.235808372497558594e+00 3.988049745559692383e+00 -2.589127325336448848e-05 -1.457305188523605466e-05 -1.213929772347910330e-05 -8.942164640757255256e-06
1.743000000000000000e+03 1.044484710693359375e+01 3.173143148422241211e+00 -2.713984758884180337e-05 -6.469505478889914230e-06 -1.008280560199636966e-05 3.834900326182832941e-06
1.744000000000000000e+03 2.617936515808105469e+01 3.251213455200195312e+01 -1.248803660273551941e-01 -2.730656415224075317e-02 -4.565607756376266479e-02 -1.166782975196838379e-01
1.745000000000000000e+03 2.564730262756347656e+01 3.048451232910156250e+01 -1.110650449991226196e-01 -7.755275815725326538e-02 -5.658534169197082520e-02 -1.791660934686660767e-01
1.746000000000000000e+03 7.258028030395507812e+00 5.136581420898437500e+00 -4.243545845383778214e-05 1.347160286968573928e-05 -8.689155947649851441e-06 -1.712957055133301765e-05
1.747000000000000000e+03 5.351489543914794922e+00 4.265899658203125000e+00 -2.848887197615113109e-05 -9.599814802641049027e-06 -1.142660585173871368e-05 5.915006113355048001e-06
1.748000000000000000e+03 5.287634849548339844e+00 3.501909017562866211e+00 2.036035402852576226e-05 1.335841989202890545e-05 1.011563199426745996e-05 -3.548750100890174508e-06
1.749000000000000000e+03 3.040621519088745117e+00 5.345193862915039062e+00 -5.541684004128910601e-05 1.005841022561071441e-05 -1.360752867185510695e-05 -2.569601019786205143e-05
1.750000000000000000e+03 2.912523841857910156e+01 3.171276092529296875e+01 -2.610489428043365479e-01 4.645974375307559967e-03 -7.692089676856994629e-02 -1.958746314048767090e-01
1.751000000000000000e+03 2.967707157135009766e+00 3.726277589797973633e+00 -2.509565820218995214e-05 -2.557323205110151321e-05 -1.520066689408849925e-05 -7.240149898279923946e-06
1.752000000000000000e+03 1.458101153373718262e+00 4.946051597595214844e+00 3.341709088999778032e-05 2.458765266055706888e-06 1.076275657396763563e-05 -1.750271621858701110e-05
1.753000000000000000e+03 1.648247838020324707e+00 3.335981607437133789e+00 -4.849629476666450500e-05 -2.184443701480631717e-06 -1.520422210887772962e-05 -9.352871529699768871e-06
1.754000000000000000e+03 2.983167648315429688e+01 3.164305114746093750e+01 -2.988080382347106934e-01 1.444711443036794662e-02 -8.530827611684799194e-02 -2.074084132909774780e-01
1.755000000000000000e+03 3.054443931579589844e+01 3.155088424682617188e+01 -3.391056060791015625e-01 2.467565797269344330e-02 -9.432898461818695068e-02 -2.187851816415786743e-01
1.756000000000000000e+03 3.198262977600097656e+01 3.133359146118164062e+01 -4.264186024665832520e-01 4.326459392905235291e-02 -1.149462014436721802e-01 -2.394501864910125732e-01
1.757000000000000000e+03 5.206797409057617188e+01 3.638426589965820312e+01 6.018078327178955078e-01 1.160470724105834961e+00 5.286836028099060059e-01 -6.544948220252990723e-01
1.758000000000000000e+03 5.123376083374023438e+01 3.653322601318359375e+01 4.808529317378997803e-01 7.398220300674438477e-01 3.662024736404418945e-01 -3.461371660232543945e-01
1.759000000000000000e+03 9.726539611816406250e+00 3.978701591491699219e+00 -4.380174505058676004e-05 2.573625806689960882e-06 -1.236843581864377484e-05 -1.350062575511401519e-06
1.760000000000000000e+03 1.015116500854492188e+01 -4.567909717559814453e+00 1.134139602072536945e-04 1.440285359421977773e-05 3.834504241240210831e-05 -8.835262269712984562e-05
1.761000000000000000e+03 1.038623332977294922e+01 -3.950476169586181641e+00 -9.938208677340298891e-05 -9.366544691147282720e-05 -5.791425792267546058e-05 7.076757174218073487e-05
1.762000000000000000e+03 2.911203575134277344e+01 3.245802307128906250e+01 -2.588421702384948730e-01 1.161388028413057327e-02 -7.416848093271255493e-02 -1.564629226922988892e-01
1.763000000000000000e+03 1.179086494445800781e+01 -4.191034317016601562e+00 -1.737713610054925084e-04 -8.599305147072300315e-05 -7.792932592565193772e-05 9.938141738530248404e-05
1.764000000000000000e+03 3.270392227172851562e+01 3.121497344970703125e+01 -4.728626608848571777e-01 5.124869197607040405e-02 -1.264842003583908081e-01 -2.486391961574554443e-01
1.765000000000000000e+03 2.770789909362792969e+01 3.176539230346679688e+01 -1.934067308902740479e-01 -1.664186455309391022e-02 -6.301458179950714111e-02 -1.738611161708831787e-01
1.766000000000000000e+03 2.841965293884277344e+01 3.175656127929687500e+01 -2.259905487298965454e-01 -5.934615153819322586e-03 -6.957755237817764282e-02 -1.842191070318222046e-01
1.767000000000000000e+03 3.200037384033203125e+01 3.204336166381835938e+01 -4.389286935329437256e-01 4.324273392558097839e-02 -1.187057867646217346e-01 -1.907809525728225708e-01
1.768000000000000000e+03 3.126274299621582031e+01 3.144583892822265625e+01 -3.819913268089294434e-01 3.388103842735290527e-02 -1.044330894947052002e-01 -2.297918498516082764e-01
1.769000000000000000e+03 3.923373031616210938e+01 3.001726531982421875e+01 -9.059731364250183105e-01 1.012147814035415649e-01 -2.414274960756301880e-01 -2.751977145671844482e-01
1.770000000000000000e+03 3.995856857299804688e+01 2.987529945373535156e+01 -9.465626478195190430e-01 1.028657853603363037e-01 -2.531090676784515381e-01 -2.731212675571441650e-01
1.771000000000000000e+03 3.710138320922851562e+01 3.110893058776855469e+01 -8.342620134353637695e-01 7.774700969457626343e-02 -2.269545048475265503e-01 -2.139132320880889893e-01
1.772000000000000000e+03 3.850757598876953125e+01 3.015471839904785156e+01 -8.622067570686340332e-01 9.655243158340454102e-02 -2.296962887048721313e-01 -2.774205207824707031e-01
1.773000000000000000e+03 3.563965988159179688e+01 3.138409805297851562e+01 -7.151947021484375000e-01 7.044376432895660400e-02 -1.934252828359603882e-01 -2.133356779813766479e-01
1.774000000000000000e+03 3.771575927734375000e+01 2.959920310974121094e+01 -7.292044758796691895e-01 1.021576672792434692e-01 -1.881140321493148804e-01 -3.338202238082885742e-01
1.775000000000000000e+03 4.075874328613281250e+01 3.040793609619140625e+01 -1.120614886283874512e+00 8.758653700351715088e-02 -3.099084794521331787e-01 -2.029887884855270386e-01
1.776000000000000000e+03 3.342681503295898438e+01 3.109058952331542969e+01 -5.202879905700683594e-01 5.941550061106681824e-02 -1.382617503404617310e-01 -2.563042044639587402e-01
1.777000000000000000e+03 3.415010833740234375e+01 3.096162223815917969e+01 -5.689650774002075195e-01 6.586852669715881348e-02 -1.509289592504501343e-01 -2.633894383907318115e-01
1.778000000000000000e+03 4.366912460327148438e+01 2.913502502441406250e+01 -1.046345233917236328e+00 1.128328591585159302e-01 -2.800537049770355225e-01 -2.162904143333435059e-01
1.779000000000000000e+03 7.538203716278076172e+00 -3.493687629699707031e+00 1.321419840678572655e-04 3.945102434954605997e-05 5.147790216142311692e-05 7.805194763932377100e-05
1.780000000000000000e+03 1.159397506713867188e+01 -5.121492862701416016e+00 7.864139479352161288e-05 1.332801184616982937e-04 6.357645179377868772e-05 -6.787521851947531104e-05
1.781000000000000000e+03 4.291292572021484375e+01 2.927983093261718750e+01 -1.043735504150390625e+00 1.098869368433952332e-01 -2.801545560359954834e-01 -2.378196269273757935e-01
1.782000000000000000e+03 4.675439453125000000e+01 2.937679481506347656e+01 -1.287601470947265625e+00 7.734658569097518921e-02 -3.630764782428741455e-01 -6.285649538040161133e-02
1.783000000000000000e+03 4.827673721313476562e+01 2.923871803283691406e+01 -1.210330724716186523e+00 7.941325753927230835e-02 -3.392752408981323242e-01 4.075017943978309631e-02
1.784000000000000000e+03 4.588376617431640625e+01 3.730410003662109375e+01 1.885837167501449585e-01 -2.078750729560852051e-01 -5.787407048046588898e-03 4.201332330703735352e-01
1.785000000000000000e+03 4.673121261596679688e+01 2.871006965637207031e+01 -9.548950195312500000e-01 1.224891766905784607e-01 -2.497217655181884766e-01 -6.447745114564895630e-02
1.786000000000000000e+03 3.487392807006835938e+01 3.082922935485839844e+01 -6.179909110069274902e-01 7.286600768566131592e-02 -1.635374575853347778e-01 -2.688243091106414795e-01
1.787000000000000000e+03 3.559809112548828125e+01 3.069493293762207031e+01 -6.674646735191345215e-01 7.786886394023895264e-02 -1.768787354230880737e-01 -2.733076810836791992e-01
1.788000000000000000e+03 4.750320434570312500e+01 2.865829849243164062e+01 -9.070999622344970703e-01 1.285739094018936157e-01 -2.335578203201293945e-01 -1.521528116427361965e-03
1.789000000000000000e+03 5.173786544799804688e+01 2.793055343627929688e+01 3.764636516571044922e-01 6.219254732131958008e-01 2.995167374610900879e-01 1.039363622665405273e+00
1.790000000000000000e+03 1.186364173889160156e+01 2.880683183670043945e+00 -1.451191656087758020e-05 -1.708154377411119640e-05 -9.478038009547162801e-06 -2.587692733868607320e-06
1.791000000000000000e+03 1.192883396148681641e+01 3.802832603454589844e+00 8.367182090296410024e-06 1.230719772138400003e-05 6.202314125403063372e-06 8.840651389618869871e-06
1.792000000000000000e+03 4.442836380004882812e+01 2.899923515319824219e+01 -1.039431571960449219e+00 1.119110137224197388e-01 -2.782561779022216797e-01 -1.917631775140762329e-01
1.793000000000000000e+03 4.068748855590820312e+01 2.972929954528808594e+01 -9.804778099060058594e-01 1.060122698545455933e-01 -2.623396515846252441e-01 -2.680100500583648682e-01
1.794000000000000000e+03 4.142203140258789062e+01 2.957979393005371094e+01 -1.009800314903259277e+00 1.064727082848548889e-01 -2.709982693195343018e-01 -2.618275582790374756e-01
1.795000000000000000e+03 8.927558898925781250e+00 4.707146644592285156e+00 -4.116805575904436409e-05 -1.185908240586286411e-05 -1.590814099472481757e-05 -1.975825944100506604e-05
1.796000000000000000e+03 4.595840835571289062e+01 2.878375244140625000e+01 -9.963794946670532227e-01 1.153715476393699646e-01 -2.643023729324340820e-01 -1.182681545615196228e-01
1.797000000000000000e+03 5.043219757080078125e+01 3.695335388183593750e+01 4.440165162086486816e-01 7.028457522392272949e-01 3.440586626529693604e-01 -1.418956369161605835e-01
1.798000000000000000e+03 4.477813243865966797e+00 -3.438597679138183594e+00 1.877436734503135085e-04 1.858266296039801091e-05 6.189790292410179973e-05 -9.160971967503428459e-05
1.799000000000000000e+03 6.246571540832519531e+00 -5.353112697601318359e+00 -7.949341670610010624e-05 7.321550947381183505e-05 -1.883371169242309406e-06 2.370596484979614615e-04
1.800000000000000000e+03 8.299249649047851562e+00 -3.431258440017700195e+00 -1.207186578540131450e-04 -5.151896766619756818e-05 -5.167128620087169111e-05 -8.407270070165395737e-05
1.801000000000000000e+03 3.833260774612426758e+00 -8.064879417419433594e+00 3.891311935149133205e-04 8.661167157697491348e-06 1.193377102026715875e-04 3.664561154437251389e-05
1.802000000000000000e+03 3.668032884597778320e+00 -4.471185684204101562e+00 -2.167431812267750502e-04 -3.439618740230798721e-05 -7.534181349910795689e-05 -2.248523669550195336e-04
1.803000000000000000e+03 3.748803615570068359e+00 -6.762983322143554688e+00 -3.414548700675368309e-04 -2.922644489444792271e-05 -1.112043973989784718e-04 -4.658232137444429100e-05
1.804000000000000000e+03 2.661985158920288086e+00 -6.646417140960693359e+00 3.611137799452990294e-04 2.784397656796500087e-05 1.166873262263834476e-04 -4.116226932637800928e-07
1.805000000000000000e+03 5.047099685668945312e+01 2.854525566101074219e+01 -4.414207637310028076e-01 2.356322407722473145e-01 -6.173655763268470764e-02 4.369571805000305176e-01
1.806000000000000000e+03 1.264996910095214844e+01 -4.170461177825927734e+00 2.392288442933931947e-04 2.193228101532440633e-05 7.834833377273753285e-05 -5.051942571299150586e-05
1.807000000000000000e+03 1.180880546569824219e+01 -3.362646818161010742e+00 2.324798406334593892e-04 9.840901839197613299e-06 7.269622437888756394e-05 -9.125743963522836566e-05
1.808000000000000000e+03 1.258480930328369141e+01 4.137374401092529297e+00 -2.224480340373702347e-05 -1.219621844938956201e-05 -1.033230637403903529e-05 -2.918377140304073691e-05
1.809000000000000000e+03 1.144991683959960938e+01 4.283434391021728516e+00 2.851789940905291587e-05 -6.832022336311638355e-06 6.505762939923442900e-06 -2.244865936518181115e-05
1.810000000000000000e+03 1.359962463378906250e+01 3.331036090850830078e+00 -7.053342415019869804e-05 7.475806796719552949e-06 -1.891728425107430667e-05 -1.317178885074099526e-05
1.811000000000000000e+03 2.289477157592773438e+01 3.103277969360351562e+01 -3.089478611946105957e-02 -8.446257561445236206e-02 -3.460720926523208618e-02 -7.873855531215667725e-02
1.812000000000000000e+03 1.364590835571289062e+01 -2.973310947418212891e+00 2.476996742188930511e-04 1.419687669113045558e-05 7.856896991143003106e-05 -5.681780749000608921e-05
1.813000000000000000e+03 2.286634445190429688e+01 3.222396850585937500e+01 -2.895025536417961121e-02 -5.086286365985870361e-02 -2.394393458962440491e-02 -5.185410007834434509e-02
1.814000000000000000e+03 1.216842365264892578e+01 -1.293225765228271484e+01 -4.129834705963730812e-04 -5.693115599569864571e-05 -1.409743854310363531e-04 1.601352269062772393e-04
1.815000000000000000e+03 1.180092430114746094e+01 -1.420534420013427734e+01 4.465006641112267971e-04 3.194858072674833238e-05 1.435347803635522723e-04 -1.049236452672630548e-04
1.816000000000000000e+03 1.241341781616210938e+01 -6.608694553375244141e+00 2.790391736198216677e-04 3.879597352351993322e-05 9.535054414300248027e-05 -6.537861190736293793e-05
1.817000000000000000e+03 1.246561145782470703e+01 -7.907933235168457031e+00 -3.012030792888253927e-04 -3.416210893192328513e-05 -1.006095553748309612e-04 5.919714021729305387e-05
1.818000000000000000e+03 1.193782043457031250e+01 7.847887516021728516e+00 3.559488322935067117e-05 1.640083792153745890e-05 1.559871634526643902e-05 2.290232441737316549e-05
1.819000000000000000e+03 4.199163436889648438e+01 4.124964904785156250e+01 4.370982348918914795e-01 -3.166904449462890625e-01 3.612234070897102356e-02 7.684148102998733521e-02
1.820000000000000000e+03 2.720793151855468750e+01 4.170287322998046875e+01 -5.147310439497232437e-03 -5.800076294690370560e-03 -3.284216159954667091e-03 1.643536495976150036e-03
1.821000000000000000e+03 1.822957420349121094e+01 4.155070495605468750e+01 -4.989484441466629505e-04 5.406748387031257153e-04 1.251792218681657687e-05 5.999413551762700081e-04
1.822000000000000000e+03 2.466250610351562500e+01 3.735440373420715332e-01 1.005177944898605347e-02 -1.109072685241699219e+00 -3.297062814235687256e-01 -9.589186310768127441e-02
1.823000000000000000e+03 2.454755020141601562e+01 -3.848732233047485352e+00 2.279743738472461700e-02 -1.116752743721008301e+00 -3.281866014003753662e-01 -8.057121187448501587e-02
1.824000000000000000e+03 2.416091537475585938e+01 -1.762433242797851562e+01 1.174453459680080414e-02 -1.116159915924072266e+00 -3.313246071338653564e-01 -4.090110585093498230e-02
1.825000000000000000e+03 2.417465019226074219e+01 -1.900897407531738281e+01 2.583343908190727234e-02 -1.110514402389526367e+00 -3.254042863845825195e-01 -4.942987859249114990e-02
1.826000000000000000e+03 2.469794464111328125e+01 1.788700103759765625e+00 -9.520549210719764233e-04 -1.095475077629089355e+00 -3.289281427860260010e-01 -1.014801859855651855e-01
1.827000000000000000e+03 1.172634124755859375e+01 9.838402748107910156e+00 -5.972904182272031903e-05 -7.308753993129357696e-06 -2.011133983614854515e-05 1.366171272820793092e-05
1.828000000000000000e+03 2.303640747070312500e+01 -8.082469940185546875e+00 5.557483527809381485e-03 -1.382354497909545898e+00 -4.130391180515289307e-01 -8.437086641788482666e-02
1.829000000000000000e+03 1.333003044128417969e+01 -1.324629306793212891e+01 4.796892171725630760e-04 -6.551562364620622247e-06 1.419413019903004169e-04 -7.365315832430496812e-05
1.830000000000000000e+03 2.427363586425781250e+01 -1.211707305908203125e+01 -2.090450190007686615e-02 -1.137043952941894531e+00 -3.473845124244689941e-01 -6.767223775386810303e-02
1.831000000000000000e+03 1.087427806854248047e+01 2.653058624267578125e+01 1.992459874600172043e-04 4.622942014975706115e-06 6.116068107075989246e-05 -1.358306872134562582e-05
1.832000000000000000e+03 5.000455856323242188e+00 9.512545585632324219e+00 7.293153612408787012e-05 5.446262093755649403e-06 2.351333932892885059e-05 8.715621333976741880e-06
1.833000000000000000e+03 1.115469074249267578e+01 8.858525276184082031e+00 2.097141623380593956e-05 -5.206055448070401326e-06 4.729608008346986026e-06 -4.028019975521601737e-05
1.834000000000000000e+03 8.481316566467285156e+00 1.905005073547363281e+01 -2.034617682511452585e-05 2.455591129546519369e-05 1.262920363842567895e-06 -2.297322498634457588e-05
1.835000000000000000e+03 7.589837646484375000e+01 1.219617748260498047e+01 -1.036323755979537964e-01 7.856633186340332031e+00 2.325900316238403320e+00 -5.343793034553527832e-01
1.836000000000000000e+03 7.452363586425781250e+01 2.024272346496582031e+01 -6.972879171371459961e-02 7.214941501617431641e+00 2.143563985824584961e+00 -1.015742897987365723e+00
1.837000000000000000e+03 7.587910461425781250e+01 1.354691123962402344e+01 -1.083096414804458618e-01 7.736688137054443359e+00 2.288513422012329102e+00 -5.998935699462890625e-01
1.838000000000000000e+03 7.577263641357421875e+01 5.447162151336669922e+00 -7.249295711517333984e-02 8.269513130187988281e+00 2.459105968475341797e+00 -2.848894894123077393e-01
1.839000000000000000e+03 7.688562774658203125e+01 1.375628590583801270e+00 -2.785140462219715118e-02 8.590696334838867188e+00 2.568853378295898438e+00 -1.469536870718002319e-01
1.840000000000000000e+03 7.559051513671875000e+01 2.085970342159271240e-02 -4.560456797480583191e-02 8.421461105346679688e+00 2.512756824493408203e+00 -1.587936431169509888e-01
1.841000000000000000e+03 7.428116607666015625e+01 -1.301143288612365723e+00 -6.476046890020370483e-02 8.237580299377441406e+00 2.451845884323120117e+00 -1.567636728286743164e-01
1.842000000000000000e+03 7.700881195068359375e+01 1.779536628723144531e+01 -4.851285368204116821e-02 7.148195743560791016e+00 2.129904747009277344e+00 -6.266888976097106934e-01
1.843000000000000000e+03 7.577645111083984375e+01 1.762990188598632812e+01 -8.949102461338043213e-02 7.305901527404785156e+00 2.164923191070556641e+00 -7.898089885711669922e-01
1.844000000000000000e+03 7.699291229248046875e+01 1.917919349670410156e+01 -3.283514454960823059e-02 6.929615974426269531e+00 2.069034099578857422e+00 -6.661550402641296387e-01
1.845000000000000000e+03 7.574786376953125000e+01 2.041598320007324219e+01 -3.388589620590209961e-02 6.960207462310791016e+00 2.077896356582641602e+00 -8.787400722503662109e-01
1.846000000000000000e+03 7.421689605712890625e+01 -8.408145904541015625e+00 -2.623265609145164490e-02 8.287758827209472656e+00 2.478457927703857422e+00 -7.001732289791107178e-02
1.847000000000000000e+03 7.542131805419921875e+01 -1.523336315155029297e+01 -1.009194925427436829e-02 8.540394783020019531e+00 2.559090852737426758e+00 -2.216138504445552826e-02
1.848000000000000000e+03 7.704782867431640625e+01 8.220954895019531250e+00 -4.609792307019233704e-02 8.252544403076171875e+00 2.461933851242065430e+00 -2.938298881053924561e-01
1.849000000000000000e+03 7.582274627685546875e+01 6.804131031036376953e+00 -7.797771692276000977e-02 8.210975646972656250e+00 2.439899206161499023e+00 -3.249052464962005615e-01
1.850000000000000000e+03 7.590155029296875000e+01 1.084672069549560547e+01 -9.855601936578750610e-02 7.964250564575195312e+00 2.359708309173583984e+00 -4.755214750766754150e-01
1.851000000000000000e+03 7.512744903564453125e+01 3.297794723510742188e+01 2.908881902694702148e-01 5.987627983093261719e+00 1.883554816246032715e+00 -1.059230864048004150e-01
1.852000000000000000e+03 7.658105468750000000e+01 3.311712265014648438e+01 1.459948718547821045e-01 5.351413726806640625e+00 1.649222612380981445e+00 -9.714438021183013916e-02
1.853000000000000000e+03 7.691628265380859375e+01 2.742622375488281250e+00 -3.116566129028797150e-02 8.545047760009765625e+00 2.554164648056030273e+00 -1.696721911430358887e-01
1.854000000000000000e+03 7.543961334228515625e+01 -4.158392906188964844e+00 -3.350069001317024231e-02 8.465076446533203125e+00 2.529472589492797852e+00 -9.890996664762496948e-02
1.855000000000000000e+03 7.538501739501953125e+01 -5.570791244506835938e+00 -2.536757849156856537e-02 8.479008674621582031e+00 2.536092281341552734e+00 -8.417318016290664673e-02
1.856000000000000000e+03 7.550778961181640625e+01 -2.742040157318115234e+00 -3.572697564959526062e-02 8.456470489501953125e+00 2.526223182678222656e+00 -1.166276559233665466e-01
1.857000000000000000e+03 7.528482818603515625e+01 -1.808854103088378906e+01 -7.543500512838363647e-03 8.515813827514648438e+00 2.552481174468994141e+00 -1.507370825856924057e-02
1.858000000000000000e+03 7.550626373291015625e+01 -1.111044120788574219e+01 -1.229014713317155838e-02 8.544146537780761719e+00 2.559556961059570312e+00 -4.206882789731025696e-02
1.859000000000000000e+03 7.548612213134765625e+01 -1.247176170349121094e+01 -1.247523725032806396e-02 8.548761367797851562e+00 2.560885906219482422e+00 -3.538032248616218567e-02
1.860000000000000000e+03 7.551180267333984375e+01 -9.742489814758300781e+00 -1.331409346312284470e-02 8.534414291381835938e+00 2.556330204010009766e+00 -4.939595982432365417e-02
1.861000000000000000e+03 7.588973999023437500e+01 9.500278472900390625e+00 -9.139791876077651978e-02 8.059535026550292969e+00 2.390441179275512695e+00 -4.198628664016723633e-01
1.862000000000000000e+03 7.535856628417968750e+01 -1.664919853210449219e+01 -9.402816183865070343e-03 8.530462265014648438e+00 2.556318044662475586e+00 -1.654974184930324554e-02
1.863000000000000000e+03 7.524637603759765625e+01 -1.954429626464843750e+01 -3.377195447683334351e-03 8.519370079040527344e+00 2.554797887802124023e+00 -1.134330499917268753e-02
1.864000000000000000e+03 7.666586303710937500e+01 -1.811151123046875000e+01 -4.728032741695642471e-03 8.782015800476074219e+00 2.633186340332031250e+00 -1.212681457400321960e-02
1.865000000000000000e+03 7.423660278320312500e+01 -2.255821418762207031e+01 -8.021921967156231403e-04 8.318988800048828125e+00 2.495455980300903320e+00 -4.676415584981441498e-03
1.866000000000000000e+03 7.692572784423828125e+01 2.336442375183105469e+01 3.691432625055313110e-02 6.229987144470214844e+00 1.880070328712463379e+00 -6.876608729362487793e-01
1.867000000000000000e+03 7.565901947021484375e+01 2.321560096740722656e+01 5.677195638418197632e-02 6.592661380767822266e+00 1.994830012321472168e+00 -8.821157813072204590e-01
1.868000000000000000e+03 7.441027832031250000e+01 -2.506186676025390625e+01 -3.326054895296692848e-03 8.346053123474121094e+00 2.502818346023559570e+00 -6.489277351647615433e-03
1.869000000000000000e+03 7.679867553710937500e+01 -2.640909194946289062e+01 2.272042911499738693e-03 8.798085212707519531e+00 2.640107154846191406e+00 -6.499432958662509918e-03
1.870000000000000000e+03 7.557194519042968750e+01 -2.374727630615234375e+01 4.140882811043411493e-04 8.564107894897460938e+00 2.569356679916381836e+00 -7.463153917342424393e-03
1.871000000000000000e+03 7.690364837646484375e+01 2.474572563171386719e+01 6.322463601827621460e-02 6.013775348663330078e+00 1.823099970817565918e+00 -6.519267559051513672e-01
1.872000000000000000e+03 7.434192657470703125e+01 2.585184478759765625e+01 2.498596459627151489e-01 6.662930011749267578e+00 2.073836803436279297e+00 -9.230676293373107910e-01
1.873000000000000000e+03 7.684996795654296875e+01 2.751243972778320312e+01 1.183792725205421448e-01 5.635734558105468750e+00 1.726234078407287598e+00 -5.138232707977294922e-01
1.874000000000000000e+03 7.559665679931640625e+01 2.735984802246093750e+01 2.223902195692062378e-01 6.105828285217285156e+00 1.898465514183044434e+00 -6.699090003967285156e-01
1.875000000000000000e+03 7.242270660400390625e+01 -3.620832443237304688e+01 1.153077743947505951e-02 7.975666046142578125e+00 2.396159172058105469e+00 -5.501112435013055801e-03
1.876000000000000000e+03 7.492234039306640625e+01 -3.149265670776367188e+01 -1.030685845762491226e-02 8.433645248413085938e+00 2.527001619338989258e+00 -1.021914277225732803e-02
1.877000000000000000e+03 7.672870635986328125e+01 3.030555725097656250e+01 1.632967591285705566e-01 5.419003963470458984e+00 1.674690246582031250e+00 -3.174521625041961670e-01
1.878000000000000000e+03 7.410500335693359375e+01 -2.876652526855468750e+01 -4.825041163712739944e-03 8.294039726257324219e+00 2.486764430999755859e+00 3.790653310716152191e-03
1.879000000000000000e+03 7.637250518798828125e+01 -3.309115219116210938e+01 -2.058032341301441193e-02 8.739544868469238281e+00 2.615689277648925781e+00 -5.500705912709236145e-03
1.880000000000000000e+03 7.519272613525390625e+01 -3.017929840087890625e+01 -1.582959480583667755e-02 8.480096817016601562e+00 2.539280176162719727e+00 -3.553307615220546722e-03
1.881000000000000000e+03 7.384975433349609375e+01 3.331879806518554688e+01 3.881402909755706787e-01 6.470165729522705078e+00 2.057491779327392578e+00 -1.262878924608230591e-01
1.882000000000000000e+03 7.545286560058593750e+01 3.012750434875488281e+01 2.861337065696716309e-01 5.938183307647705078e+00 1.867295145988464355e+00 -4.035643935203552246e-01
1.883000000000000000e+03 2.475918769836425781e+01 1.036302375793457031e+01 2.264401502907276154e-02 -9.609962701797485352e-01 -2.815056741237640381e-01 -2.009157389402389526e-01
1.884000000000000000e+03 1.255358982086181641e+01 -2.260738945007324219e+01 3.291534667368978262e-04 -2.430742169963195920e-04 2.582377419457770884e-05 2.619332517497241497e-04
1.885000000000000000e+03 1.245488739013671875e+01 -2.017287254333496094e+01 -6.380836130119860172e-04 -3.402519796509295702e-04 -2.935006632469594479e-04 4.331078380346298218e-04
1.886000000000000000e+03 2.284110832214355469e+01 -1.364833641052246094e+01 -2.843831107020378113e-02 -1.412125468254089355e+00 -4.321691393852233887e-01 -6.856843829154968262e-02
1.887000000000000000e+03 2.422846603393554688e+01 -1.349514865875244141e+01 -2.544445544481277466e-02 -1.130155801773071289e+00 -3.466800749301910400e-01 -5.219361931085586548e-02
1.888000000000000000e+03 2.474245834350585938e+01 1.178104114532470703e+01 2.684902027249336243e-02 -9.168077707290649414e-01 -2.669876217842102051e-01 -2.158122211694717407e-01
1.889000000000000000e+03 6.078986167907714844e+00 -2.483306884765625000e+01 -8.051747572608292103e-04 3.271060413680970669e-04 -1.434206060366705060e-04 6.407186447177082300e-05
1.890000000000000000e+03 1.148240661621093750e+01 -2.984468269348144531e+01 2.435731003060936928e-03 1.366088632494211197e-03 1.140545937232673168e-03 -1.948707271367311478e-03
1.891000000000000000e+03 2.565366935729980469e+01 2.168384361267089844e+01 -1.955657498911023140e-03 -4.271476864814758301e-01 -1.287310123443603516e-01 -3.444374799728393555e-01
1.892000000000000000e+03 2.455321311950683594e+01 2.020595741271972656e+01 8.841343224048614502e-03 -5.681726932525634766e-01 -1.677993983030319214e-01 -2.899077534675598145e-01
1.893000000000000000e+03 2.471937179565429688e+01 1.319264316558837891e+01 2.972890622913837433e-02 -8.698876500129699707e-01 -2.520476281642913818e-01 -2.318368703126907349e-01
1.894000000000000000e+03 2.342123031616210938e+01 1.869443893432617188e+01 9.956687688827514648e-03 -7.401572465896606445e-01 -2.190601676702499390e-01 -2.198419421911239624e-01
1.895000000000000000e+03 2.463271141052246094e+01 1.741246032714843750e+01 2.310382947325706482e-02 -6.992922425270080566e-01 -2.028565257787704468e-01 -2.756953239440917969e-01
1.896000000000000000e+03 1.003610992431640625e+01 -1.796973609924316406e+01 4.620472609531134367e-04 2.564461610745638609e-04 2.155480324290692806e-04 7.685410673730075359e-05
1.897000000000000000e+03 2.466481971740722656e+01 1.600941276550292969e+01 2.760587073862552643e-02 -7.601554989814758301e-01 -2.197648882865905762e-01 -2.629202604293823242e-01
1.898000000000000000e+03 2.299056053161621094e+01 2.974311637878417969e+01 -2.941911667585372925e-02 -1.315390914678573608e-01 -4.828746244311332703e-02 -1.104906871914863586e-01
1.899000000000000000e+03 2.488969039916992188e+01 3.020251083374023438e+01 -7.960615307092666626e-02 -1.040930300951004028e-01 -5.510975420475006104e-02 -1.652137041091918945e-01
1.900000000000000000e+03 2.353582191467285156e+01 8.820678710937500000e+00 4.911614116281270981e-03 -1.208461999893188477e+00 -3.610651195049285889e-01 -1.494008898735046387e-01
1.901000000000000000e+03 2.476977729797363281e+01 7.507254600524902344e+00 9.155808947980403900e-04 -1.027490377426147461e+00 -3.079724311828613281e-01 -1.717454046010971069e-01
1.902000000000000000e+03 2.426241302490234375e+01 2.564606475830078125e+01 -3.101551160216331482e-02 -3.010835647583007812e-01 -9.962972253561019897e-02 -2.461265772581100464e-01
1.903000000000000000e+03 2.434364128112792969e+01 2.429324531555175781e+01 -2.089243382215499878e-02 -3.670087754726409912e-01 -1.163703650236129761e-01 -2.669254541397094727e-01
1.904000000000000000e+03 8.365310668945312500e+00 -8.576919555664062500e+00 4.546970376395620406e-05 -3.350790575495921075e-05 3.588539584598038346e-06 4.499174792726989836e-06
1.905000000000000000e+03 2.416058540344238281e+01 2.844499015808105469e+01 -5.233018100261688232e-02 -1.726647019386291504e-01 -6.749846041202545166e-02 -1.863802224397659302e-01
1.906000000000000000e+03 2.636915397644042969e+01 2.916867828369140625e+01 -1.202105954289436340e-01 -1.087557598948478699e-01 -6.868990510702133179e-02 -2.431957423686981201e-01
1.907000000000000000e+03 1.050887393951416016e+01 -2.061373138427734375e+01 -6.349020986817777157e-04 1.035835084621794522e-04 -1.593955821590498090e-04 2.906138252001255751e-04
1.908000000000000000e+03 3.171414375305175781e+00 -1.784225463867187500e+01 7.693236111663281918e-04 -3.666381189759704284e-06 2.296971651958301663e-04 1.503528437751810998e-05
1.909000000000000000e+03 4.458602905273437500e+00 -1.508888626098632812e+01 -6.337285158224403858e-04 -5.486189547809772193e-05 -2.065771113848313689e-04 -1.251159119419753551e-04
1.910000000000000000e+03 4.183059692382812500e+00 2.193501091003417969e+01 1.435850281268358231e-04 -1.732336750137619674e-05 3.787850073422305286e-05 4.485445970203727484e-05
1.911000000000000000e+03 3.027674198150634766e+00 2.051332283020019531e+01 1.283912861254066229e-04 -5.211825282458448783e-06 3.695383929880335927e-05 9.743525879457592964e-06
1.912000000000000000e+03 4.465598106384277344e+00 -1.792840766906738281e+01 -8.698871824890375137e-04 -3.349707549205049872e-05 -2.710152766667306423e-04 -2.591419906821101904e-04
1.913000000000000000e+03 4.483214378356933594e+00 -1.653274345397949219e+01 5.979681736789643764e-04 1.035122040775604546e-04 2.104441082337871194e-04 3.275000926805660129e-05
1.914000000000000000e+03 5.374945163726806641e+00 2.555693244934082031e+01 1.255207171197980642e-04 1.759695260261651129e-05 4.293530219001695514e-05 2.722773751884233207e-05
1.915000000000000000e+03 4.538386344909667969e+00 2.845467567443847656e+01 -1.365162024740129709e-04 -2.341727486054878682e-05 -4.798004010808654130e-05 -8.504968718625605106e-06
1.916000000000000000e+03 4.710711479187011719e+00 -2.763757133483886719e+01 2.249138196930289268e-03 2.180578303523361683e-04 7.401588372886180878e-04 4.037077305838465691e-04
1.917000000000000000e+03 3.367209672927856445e+00 -2.481204605102539062e+01 -8.968625334091484547e-04 -5.278912067296914756e-05 -2.848955045919865370e-04 -1.169088063761591911e-04
1.918000000000000000e+03 4.553577423095703125e+00 -2.195807647705078125e+01 1.001814613118767738e-03 4.863887079409323633e-05 3.151360433548688889e-04 -2.223536721430718899e-04
1.919000000000000000e+03 4.106572151184082031e+00 1.765120697021484375e+01 -1.393894635839387774e-04 2.257424785057082772e-05 -3.504456617520190775e-05 1.471355608373414725e-05
1.920000000000000000e+03 4.228238105773925781e+00 1.903449058532714844e+01 1.383943308610469103e-04 -1.596159927430562675e-05 3.672981620184145868e-05 4.038839449549413985e-07
1.921000000000000000e+03 4.091503620147705078e+00 1.639800834655761719e+01 1.357194269075989723e-04 -2.011150354519486427e-05 3.468237628112547100e-05 -1.226940094056772068e-05
1.922000000000000000e+03 4.412228584289550781e+00 -2.059186935424804688e+01 -1.190182869322597980e-03 2.789442369248718023e-04 -2.733715809881687164e-04 -2.306575479451566935e-04
1.923000000000000000e+03 4.394391536712646484e+00 -1.926296424865722656e+01 9.282528772018849850e-04 -2.742605647654272616e-05 2.702480414882302284e-04 6.822840077802538872e-05
1.924000000000000000e+03 3.015702247619628906e+00 2.597642326354980469e+01 1.363593910355120897e-04 9.403801186635973863e-07 4.118993092561140656e-05 2.696839874261058867e-05
1.925000000000000000e+03 4.077210903167724609e+00 2.453564071655273438e+01 1.395858998876065016e-04 -1.528391862848366145e-06 4.141725003137253225e-05 4.248406912665814161e-05
1.926000000000000000e+03 4.044780254364013672e+00 2.325984382629394531e+01 -1.417045568814501166e-04 1.181364405056228861e-05 -3.896727503160946071e-05 -4.893620643997564912e-05
1.927000000000000000e+03 8.896221160888671875e+00 -2.196296119689941406e+01 7.110669976100325584e-04 -4.937650828651385382e-06 2.118388074450194836e-04 5.972290528006851673e-04
1.928000000000000000e+03 4.729421138763427734e+00 -2.481493186950683594e+01 1.237703254446387291e-03 3.257405769545584917e-04 4.690331406891345978e-04 -1.626772573217749596e-04
1.929000000000000000e+03 2.963092088699340820e+00 1.494801902770996094e+01 9.900249278871342540e-05 4.492198968364391476e-06 3.104840652667917311e-05 -1.292813249165192246e-05
1.930000000000000000e+03 4.031518936157226562e+00 1.211005783081054688e+01 -8.182199962902814150e-05 -1.334097760263830423e-05 -2.854889135051053017e-05 6.275743999140104279e-06
1.931000000000000000e+03 4.091017723083496094e+00 1.351826572418212891e+01 8.941852865973487496e-05 1.124819573306012899e-05 3.020001713593956083e-05 -1.464425622543785721e-05
1.932000000000000000e+03 4.126822948455810547e+00 -1.076466560363769531e+01 4.412224807310849428e-04 1.611427069292403758e-05 1.372010301565751433e-04 4.213590364088304341e-05
1.933000000000000000e+03 3.970846891403198242e+00 -9.392716407775878906e+00 -4.314680991228669882e-04 -1.235841591551434249e-05 -1.331479579675942659e-04 -4.704104139818809927e-05
1.934000000000000000e+03 4.397050380706787109e+00 -1.363201522827148438e+01 4.967272980138659477e-04 5.898414383409544826e-05 1.667134201852604747e-04 3.176146856276318431e-05
1.935000000000000000e+03 4.402055740356445312e+00 3.450893402099609375e+01 -1.435405829397495836e-05 2.548240263422485441e-05 3.338503347549703903e-06 -4.338816506788134575e-05
1.936000000000000000e+03 3.600467681884765625e+00 -3.182039833068847656e+01 4.194852430373430252e-03 -1.395809085806831717e-04 1.216581440530717373e-03 3.356201807036995888e-03
1.937000000000000000e+03 4.674239635467529297e+00 -2.897621154785156250e+01 3.594848094508051872e-04 2.358278288738802075e-04 1.785937929525971413e-04 8.356500184163451195e-04
1.938000000000000000e+03 5.099734783172607422e+00 1.074854755401611328e+01 -7.201124390121549368e-05 -1.235439322044840083e-05 -2.530968959035817534e-05 -6.372673396981554106e-06
1.939000000000000000e+03 4.275854587554931641e+00 -1.218459892272949219e+01 -5.070692277513444424e-04 -2.427211074973456562e-05 -1.594024070072919130e-04 -6.892763485666364431e-05
1.940000000000000000e+03 3.966641187667846680e+00 1.074865341186523438e+01 8.067008457146584988e-05 7.343460310949012637e-06 2.640406455611810088e-05 3.673955689009744674e-06
1.941000000000000000e+03 6.546082019805908203e+00 3.096952629089355469e+01 1.029627237585373223e-04 6.412629591068252921e-05 5.012670590076595545e-05 -1.965850060514640063e-05
1.942000000000000000e+03 3.294422626495361328e+00 3.424744033813476562e+01 1.533138274680823088e-04 -3.595613452489487827e-05 3.520730751915834844e-05 -1.928447636601049453e-05
1.943000000000000000e+03 5.255244731903076172e+00 -3.323311614990234375e+01 7.621865719556808472e-03 -3.325936151668429375e-03 1.288778847083449364e-03 5.766440182924270630e-03
1.944000000000000000e+03 4.777194499969482422e+00 -3.030769920349121094e+01 4.428429529070854187e-03 -7.881773635745048523e-04 1.092075603082776070e-03 1.548126805573701859e-03
1.945000000000000000e+03 5.026292324066162109e+00 -3.171263694763183594e+01 3.221127204596996307e-03 -8.174323011189699173e-04 7.211084594018757343e-04 3.191314171999692917e-03
1.946000000000000000e+03 4.061809062957763672e+00 8.014785766601562500e+00 6.976903387112542987e-05 6.017986379447393119e-06 2.273610516567714512e-05 5.841519396199146286e-06
1.947000000000000000e+03 3.748984813690185547e+00 -5.492080688476562500e+00 2.678054152056574821e-04 6.884389586048200727e-05 1.009947955026291311e-04 8.966277528088539839e-05
1.948000000000000000e+03 2.745741844177246094e+00 6.431484222412109375e+00 7.107471174094825983e-05 3.388488494238117710e-06 2.233895975223276764e-05 4.984268343832809478e-06
1.949000000000000000e+03 6.081400871276855469e+00 4.924016475677490234e+00 -1.960703048098366708e-05 -1.650324520596768707e-05 -1.083308234228752553e-05 1.550667002447880805e-05
1.950000000000000000e+03 1.355563926696777344e+01 -2.860796165466308594e+01 -9.542672778479754925e-04 -8.462780970148742199e-04 -5.401636008173227310e-04 4.493328160606324673e-04
1.951000000000000000e+03 1.273823833465576172e+01 -2.645024681091308594e+01 1.084378673112951219e-04 5.335147143341600895e-04 1.925857795868068933e-04 -8.120443089865148067e-05
1.952000000000000000e+03 2.255467414855957031e+01 -2.337712097167968750e+01 1.280630473047494888e-02 -1.373515009880065918e+00 -4.082126021385192871e-01 -5.130689963698387146e-02
1.953000000000000000e+03 2.442620468139648438e+01 -7.974509239196777344e+00 1.081284228712320328e-02 -1.132721662521362305e+00 -3.365726470947265625e-01 -8.143503218889236450e-02
1.954000000000000000e+03 1.810767745971679688e+01 3.851396942138671875e+01 6.831130012869834900e-04 -1.966875606740359217e-05 1.990332675632089376e-04 -2.010815514950081706e-04
1.955000000000000000e+03 1.162880516052246094e+01 3.898580932617187500e+01 3.760577819775789976e-04 -4.890916534350253642e-05 9.814458462642505765e-05 1.272594090551137924e-04
1.956000000000000000e+03 2.417165374755859375e+01 -1.624673461914062500e+01 -1.773101859726011753e-03 -1.126159429550170898e+00 -3.383797705173492432e-01 -4.371848329901695251e-02
1.957000000000000000e+03 4.806546020507812500e+01 4.146846771240234375e+01 9.308503866195678711e-01 2.911463975906372070e-01 3.665990233421325684e-01 1.347784698009490967e-01
1.958000000000000000e+03 2.263294029235839844e+01 -2.198732185363769531e+01 2.039145119488239288e-02 -1.368963003158569336e+00 -4.045714437961578369e-01 -6.583003699779510498e-02
1.959000000000000000e+03 2.462473869323730469e+01 -1.040414571762084961e+00 1.624339260160923004e-02 -1.108600378036499023e+00 -3.277071118354797363e-01 -9.262502193450927734e-02
1.960000000000000000e+03 2.349131393432617188e+01 4.529705524444580078e+00 -3.678514435887336731e-02 -1.304754853248596191e+00 -4.024620056152343750e-01 -1.194879785180091858e-01
1.961000000000000000e+03 2.476408195495605469e+01 6.073465824127197266e+00 -1.298621110618114471e-02 -1.048581480979919434e+00 -3.184702992439270020e-01 -1.552725434303283691e-01
1.962000000000000000e+03 2.474896430969238281e+01 4.638490200042724609e+00 -1.694140210747718811e-02 -1.066992282867431641e+00 -3.251800835132598877e-01 -1.320894658565521240e-01
1.963000000000000000e+03 1.266532993316650391e+01 -2.819077491760253906e+01 8.280762704089283943e-04 7.126347627490758896e-04 4.622132983058691025e-04 -4.115778428968042135e-04
1.964000000000000000e+03 3.786906814575195312e+01 4.136018753051757812e+01 1.381883472204208374e-01 -2.299345582723617554e-01 -2.752386219799518585e-02 4.503112286329269409e-02
1.965000000000000000e+03 3.502382659912109375e+01 4.047707748413085938e+01 4.765401035547256470e-02 -1.322428733110427856e-01 -2.537665888667106628e-02 3.229928761720657349e-02
1.966000000000000000e+03 7.729400634765625000e+00 3.018244171142578125e+01 -9.189500269712880254e-05 -6.506138743134215474e-05 -4.708691631094552577e-05 -2.097758988384157419e-05
1.967000000000000000e+03 2.432903480529785156e+01 -1.073408317565917969e+01 -1.604133471846580505e-02 -1.133231997489929199e+00 -3.447819948196411133e-01 -6.975942850112915039e-02
1.968000000000000000e+03 2.249132537841796875e+01 -3.146676445007324219e+01 -6.539367884397506714e-02 -1.466500639915466309e+00 -4.595683217048645020e-01 -8.879108726978302002e-02
1.969000000000000000e+03 2.278525352478027344e+01 -2.946185874938964844e+01 -3.209443762898445129e-02 -1.379067659378051758e+00 -4.233486354351043701e-01 -7.082664221525192261e-02
1.970000000000000000e+03 2.450487518310546875e+01 -5.232746601104736328e+00 2.100161090493202209e-02 -1.122594237327575684e+00 -3.304778039455413818e-01 -7.980374246835708618e-02
1.971000000000000000e+03 2.955228996276855469e+01 4.074732208251953125e+01 -4.986819811165332794e-03 -1.502189412713050842e-02 -6.002614274621009827e-03 2.064552856609225273e-03
1.972000000000000000e+03 2.182561492919921875e+01 3.939505386352539062e+01 3.464631736278533936e-04 1.040366478264331818e-03 4.160489188507199287e-04 -1.975095598027110100e-03
1.973000000000000000e+03 2.472685050964355469e+01 3.209430456161499023e+00 -1.292922254651784897e-02 -1.084967255592346191e+00 -3.293689489364624023e-01 -1.156482398509979248e-01
1.974000000000000000e+03 7.633586120605468750e+01 3.938755798339843750e+01 -2.924897242337465286e-03 5.216898441314697266e+00 1.564192056655883789e+00 2.830478921532630920e-02
1.975000000000000000e+03 7.339915466308593750e+01 3.961330795288085938e+01 -1.858474463224411011e-01 7.148233413696289062e+00 2.088715791702270508e+00 2.716189324855804443e-01
1.976000000000000000e+03 1.106138706207275391e+01 2.796603393554687500e+01 -2.303356595803052187e-04 7.850426300137769431e-06 -6.674557516817003489e-05 -2.178257773266523145e-06
1.977000000000000000e+03 5.895052433013916016e+00 9.547687530517578125e+00 -5.187571150599978864e-05 -1.447229260520543903e-05 -1.990440068766474724e-05 -1.123731180996401235e-06
1.978000000000000000e+03 7.587432861328125000e+00 1.811325645446777344e+01 2.197771573264617473e-05 -2.286949893459677696e-05 -2.675350856407021638e-07 3.576946255634538829e-05
1.979000000000000000e+03 1.876165390014648438e+01 -3.836644363403320312e+01 -1.616734266281127930e-02 -1.451338768005371094e+00 -4.402518272399902344e-01 -4.529300034046173096e-01
1.980000000000000000e+03 2.145100784301757812e+01 -3.880886077880859375e+01 6.949024647474288940e-02 -1.233898162841796875e+00 -3.493223786354064941e-01 8.259377628564834595e-02
1.981000000000000000e+03 2.266595077514648438e+01 -2.058447074890136719e+01 3.110999241471290588e-02 -1.369558215141296387e+00 -4.015344679355621338e-01 -6.590724736452102661e-02
1.982000000000000000e+03 1.191594982147216797e+01 -3.488681793212890625e+01 2.847560681402683258e-02 -4.950446542352437973e-03 7.057548500597476959e-03 -1.531251054257154465e-02
1.983000000000000000e+03 2.364401817321777344e+01 -2.608091926574707031e+01 1.994637958705425262e-02 -1.164650559425354004e+00 -3.434112370014190674e-01 -6.765998154878616333e-02
1.984000000000000000e+03 3.241126632690429688e+01 4.130723571777343750e+01 1.895023323595523834e-02 -6.075824797153472900e-02 -1.254240423440933228e-02 1.209034584462642670e-02
1.985000000000000000e+03 5.730916595458984375e+01 2.915207099914550781e+01 2.127247333526611328e+00 1.197397518157958984e+01 4.230366706848144531e+00 6.603784084320068359e+00
1.986000000000000000e+03 5.593378067016601562e+01 2.941601181030273438e+01 3.029335737228393555e+00 2.938841819763183594e+00 1.790453195571899414e+00 4.246419429779052734e+00
1.987000000000000000e+03 5.906659317016601562e+01 3.288726043701171875e+01 1.930107474327087402e+00 1.934493064880371094e+01 6.382511615753173828e+00 1.286877274513244629e+00
1.988000000000000000e+03 5.930558013916015625e+01 2.927921676635742188e+01 2.644405364990234375e+00 1.784218597412109375e+01 6.145977497100830078e+00 -6.221189498901367188e-01
1.989000000000000000e+03 6.075378799438476562e+01 3.111643028259277344e+01 7.149262905120849609e+00 1.343233871459960938e+01 6.174480438232421875e+00 3.890928924083709717e-01
1.990000000000000000e+03 5.908140945434570312e+01 3.325925445556640625e+01 8.062263131141662598e-01 1.835354995727539062e+01 5.747932910919189453e+00 4.624740481376647949e-01
1.991000000000000000e+03 5.860653686523437500e+01 3.343170166015625000e+01 -1.613060235977172852e-01 1.779690742492675781e+01 5.290680408477783203e+00 -1.542622447013854980e+00
1.992000000000000000e+03 6.021794509887695312e+01 3.227014541625976562e+01 5.838099479675292969e+00 1.546884059906005859e+01 6.392082214355468750e+00 2.483920097351074219e+00
1.993000000000000000e+03 5.984722137451171875e+01 3.228180313110351562e+01 5.908123016357421875e+00 1.662546348571777344e+01 6.760076045989990234e+00 2.776779174804687500e+00
1.994000000000000000e+03 5.603037643432617188e+01 2.920977210998535156e+01 2.854221582412719727e+00 3.824342727661132812e+00 2.003569364547729492e+00 4.633214473724365234e+00
1.995000000000000000e+03 5.787234115600585938e+01 3.373866653442382812e+01 -2.828046083450317383e-01 1.449830436706542969e+01 4.264649868011474609e+00 -4.023719787597656250e+00
1.996000000000000000e+03 5.675901412963867188e+01 3.370189285278320312e+01 1.050240993499755859e+00 8.188446044921875000e+00 2.771605968475341797e+00 -4.771807193756103516e+00
1.997000000000000000e+03 5.603965759277343750e+01 3.387207031250000000e+01 1.194874048233032227e+00 4.957460880279541016e+00 1.845700383186340332e+00 -3.656841754913330078e+00
1.998000000000000000e+03 5.607620620727539062e+01 3.347129058837890625e+01 1.604303002357482910e+00 4.403572559356689453e+00 1.802362680435180664e+00 -3.784087657928466797e+00
1.999000000000000000e+03 5.640682220458984375e+01 3.443848037719726562e+01 7.284819483757019043e-01 7.169071674346923828e+00 2.369266033172607422e+00 -3.955842018127441406e+00
2.000000000000000000e+03 5.295946502685546875e+01 2.832856369018554688e+01 7.161293029785156250e-01 8.222447633743286133e-01 4.615122079849243164e-01 1.485081076622009277e+00
2.001000000000000000e+03 5.239741897583007812e+01 2.840174293518066406e+01 3.645893335342407227e-01 5.830644369125366211e-01 2.842961251735687256e-01 1.133867979049682617e+00
2.002000000000000000e+03 5.184560394287109375e+01 2.898593711853027344e+01 -3.921387791633605957e-01 2.528230845928192139e-01 -4.179470986127853394e-02 6.492877602577209473e-01
2.003000000000000000e+03 5.264401245117187500e+01 3.803247451782226562e+01 6.955190300941467285e-01 2.371838808059692383e+00 9.202073812484741211e-01 -9.416713118553161621e-01
2.004000000000000000e+03 2.709919738769531250e+01 3.091601562500000000e+01 -1.667049527168273926e-01 -4.284318909049034119e-02 -6.286444514989852905e-02 -1.986057609319686890e-01
2.005000000000000000e+03 4.751590347290039062e+01 2.930100440979003906e+01 -1.255497336387634277e+00 7.954394817352294922e-02 -3.527860045433044434e-01 -1.476529147475957870e-02
2.006000000000000000e+03 4.976371765136718750e+01 2.799687957763671875e+01 -2.496918290853500366e-01 2.992262840270996094e-01 1.486033480614423752e-02 4.100985229015350342e-01
2.007000000000000000e+03 3.852288484573364258e+00 4.751839160919189453e+00 -5.865382718184264377e-06 -3.580146312742726877e-06 -2.833658527379157022e-06 2.727744686126243323e-05
2.008000000000000000e+03 4.633159160614013672e+00 4.442477703094482422e+00 2.061381019302643836e-05 4.996942152502015233e-06 7.683225703658536077e-06 -6.437844604079145938e-06
2.009000000000000000e+03 6.767079830169677734e+00 4.153418064117431641e+00 -2.942582977993879467e-05 -1.233830789715284482e-05 -1.252924175787484273e-05 9.390561217514914460e-07
2.010000000000000000e+03 5.281051635742187500e+00 5.647290229797363281e+00 -7.094603643054142594e-05 2.940502417914103717e-05 -1.246230385731905699e-05 -2.592376586108002812e-05
2.011000000000000000e+03 2.401172447204589844e+01 2.986296081542968750e+01 -5.502638965845108032e-02 -1.216944977641105652e-01 -5.301626771688461304e-02 -1.447716802358627319e-01
2.012000000000000000e+03 5.461641311645507812e+00 5.006058216094970703e+00 4.612347402144223452e-05 3.188486289218417369e-06 1.479358797951135784e-05 -3.637866257122368552e-06
2.013000000000000000e+03 1.127269458770751953e+01 3.717168807983398438e+00 -2.722811041167005897e-05 -9.914567272062413394e-06 -1.114280348701868206e-05 9.678407877800054848e-06
2.014000000000000000e+03 9.593081474304199219e+00 5.646974563598632812e+00 -4.634079596144147217e-05 -7.654924047528766096e-06 -1.619871545699425042e-05 -8.978458936326205730e-06
2.015000000000000000e+03 7.509293556213378906e+00 4.081612110137939453e+00 2.031991789408493787e-05 1.564875674375798553e-05 1.079060257325181738e-05 -3.233461029594764113e-06
2.016000000000000000e+03 8.263170242309570312e+00 4.606839656829833984e+00 2.864716952899470925e-05 1.731261181703303009e-05 1.378793513140408322e-05 1.464897195546654984e-05
2.017000000000000000e+03 2.984271812438964844e+01 3.091302490234375000e+01 -2.920340001583099365e-01 6.308847106993198395e-03 -8.571754395961761475e-02 -2.472668141126632690e-01
2.018000000000000000e+03 3.054435920715332031e+01 3.082970619201660156e+01 -3.291219770908355713e-01 1.763503998517990112e-02 -9.344608336687088013e-02 -2.605334818363189697e-01
2.019000000000000000e+03 9.192505836486816406e+00 -4.137429714202880859e+00 -8.725883526494726539e-05 -6.025691982358694077e-05 -4.425472798175178468e-05 -1.080431102309376001e-04
2.020000000000000000e+03 2.778828620910644531e+01 3.100483322143554688e+01 -1.947217583656311035e-01 -2.897532284259796143e-02 -6.710912287235260010e-02 -2.070423811674118042e-01
2.021000000000000000e+03 2.915224456787109375e+01 3.097346687316894531e+01 -2.573367655277252197e-01 -5.784157197922468185e-03 -7.893627882003784180e-02 -2.338915467262268066e-01
2.022000000000000000e+03 3.196944618225097656e+01 3.062676811218261719e+01 -4.077706038951873779e-01 3.963579982519149780e-02 -1.104404404759407043e-01 -2.847349047660827637e-01
2.023000000000000000e+03 3.268447113037109375e+01 3.051364898681640625e+01 -4.483220577239990234e-01 5.000712722539901733e-02 -1.194944828748703003e-01 -2.949829101562500000e-01
2.024000000000000000e+03 8.467754364013671875e+00 -4.253585338592529297e+00 1.590415195096284151e-04 2.277038583997637033e-05 5.454357233247719705e-05 7.917480979813262820e-05
2.025000000000000000e+03 1.140239715576171875e+01 -9.157646179199218750e+00 -2.682525664567947388e-04 -8.172337402356788516e-05 -1.049927814165130258e-04 4.850574987358413637e-05
2.026000000000000000e+03 3.915887069702148438e+01 2.933104324340820312e+01 -7.953906059265136719e-01 1.124433726072311401e-01 -2.048841714859008789e-01 -3.306357264518737793e-01
2.027000000000000000e+03 3.340017318725585938e+01 3.039328193664550781e+01 -4.897090494632720947e-01 5.890764668583869934e-02 -1.292404234409332275e-01 -3.048782646656036377e-01
2.028000000000000000e+03 3.705085372924804688e+01 3.042410659790039062e+01 -7.662314772605895996e-01 8.792909234762191772e-02 -2.034907191991806030e-01 -2.778529524803161621e-01
2.029000000000000000e+03 3.843848419189453125e+01 2.946659278869628906e+01 -7.639503479003906250e-01 1.088508367538452148e-01 -1.965298503637313843e-01 -3.324986696243286133e-01
2.030000000000000000e+03 3.987899017333984375e+01 2.919051361083984375e+01 -8.202633857727050781e-01 1.181123852729797363e-01 -2.106453031301498413e-01 -3.259943127632141113e-01
2.031000000000000000e+03 1.101708698272705078e+01 5.244615077972412109e+00 4.303296373109333217e-05 -2.124534876202233136e-05 6.536284672620240599e-06 -2.849112570402212441e-05
2.032000000000000000e+03 3.632339859008789062e+01 3.055959510803222656e+01 -7.169359326362609863e-01 8.405785262584686279e-02 -1.898634284734725952e-01 -2.759790122509002686e-01
2.033000000000000000e+03 4.216318130493164062e+01 2.942888641357421875e+01 -1.029590368270874023e+00 1.089226379990577698e-01 -2.762003242969512939e-01 -2.511747181415557861e-01
2.034000000000000000e+03 3.411622238159179688e+01 3.026687812805175781e+01 -5.310329198837280273e-01 6.812652945518493652e-02 -1.388719230890274048e-01 -3.130093216896057129e-01
2.035000000000000000e+03 7.045703887939453125e+00 -5.188541412353515625e+00 -1.110409721150062978e-04 -7.872850255807861686e-05 -5.693084312952123582e-05 -1.118490545195527375e-04
2.036000000000000000e+03 4.208175659179687500e+01 2.874032020568847656e+01 -8.553561568260192871e-01 1.297350078821182251e-01 -2.176863551139831543e-01 -2.952689230442047119e-01
2.037000000000000000e+03 4.510389328002929688e+01 2.739933776855468750e+01 -4.942784905433654785e-01 2.096463441848754883e-01 -8.538964390754699707e-02 -1.464490443468093872e-01
2.038000000000000000e+03 3.483322525024414062e+01 3.013604927062988281e+01 -5.723140835762023926e-01 7.557493448257446289e-02 -1.490217447280883789e-01 -3.204353153705596924e-01
2.039000000000000000e+03 4.519047927856445312e+01 2.888044548034667969e+01 -1.021065473556518555e+00 1.143653094768524170e-01 -2.720100283622741699e-01 -1.582718044519424438e-01
2.040000000000000000e+03 4.060481643676757812e+01 2.904517555236816406e+01 -8.405478596687316895e-01 1.212356686592102051e-01 -2.157936692237854004e-01 -3.199358284473419189e-01
2.041000000000000000e+03 4.359858322143554688e+01 2.843058586120605469e+01 -8.271300196647644043e-01 1.428263932466506958e-01 -2.052910923957824707e-01 -2.491092383861541748e-01
2.042000000000000000e+03 7.688766479492187500e+00 -4.319931030273437500e+00 -1.571044413140043616e-04 -4.098503268323838711e-05 -5.942684219917282462e-05 -7.156425272114574909e-05
2.043000000000000000e+03 7.498806953430175781e+00 -6.638371944427490234e+00 8.765488018980249763e-05 -7.702573930146172643e-05 3.188742994097992778e-06 -1.488816924393177032e-04
2.044000000000000000e+03 4.436899566650390625e+01 2.828368377685546875e+01 -7.949987053871154785e-01 1.498727947473526001e-01 -1.935377717018127441e-01 -2.101349830627441406e-01
2.045000000000000000e+03 1.223060321807861328e+01 6.659060955047607422e+00 -5.049673927715048194e-05 -1.216084638144820929e-05 -1.879727460618596524e-05 -1.297975450142985210e-05
2.046000000000000000e+03 6.871524810791015625e+00 -4.391788005828857422e+00 1.349811500404030085e-04 5.005756247555837035e-05 5.551161302719265223e-05 8.561574941268190742e-05
2.047000000000000000e+03 6.507204532623291016e+00 -6.070602416992187500e+00 -4.915815588901750743e-05 -1.740734005579724908e-04 -6.696946365991607308e-05 -2.316062746103852987e-04
2.048000000000000000e+03 5.783679485321044922e+00 -5.952919960021972656e+00 3.155077283736318350e-04 9.859868441708385944e-05 1.242319267475977540e-04 2.438287265249527991e-05
2.049000000000000000e+03 4.133874130249023438e+01 2.889472198486328125e+01 -8.515182733535766602e-01 1.263016313314437866e-01 -2.175650000572204590e-01 -3.093519508838653564e-01
2.050000000000000000e+03 1.250845241546630859e+01 -5.341370105743408203e+00 -2.509643381927162409e-04 -4.946099943481385708e-05 -9.012759983306750655e-05 5.917809176025912166e-05
2.051000000000000000e+03 4.902996063232421875e+01 2.859246635437011719e+01 -7.362300753593444824e-01 1.565831005573272705e-01 -1.738940924406051636e-01 1.758481711149215698e-01
2.052000000000000000e+03 4.906057357788085938e+01 2.741187286376953125e+01 -9.362157434225082397e-02 3.656333386898040771e-01 8.160352706909179688e-02 3.778245747089385986e-01
2.053000000000000000e+03 4.592397308349609375e+01 2.733401107788085938e+01 -4.366042613983154297e-01 2.284590452909469604e-01 -6.244356557726860046e-02 -7.460607588291168213e-02
2.054000000000000000e+03 4.836218643188476562e+01 3.720930099487304688e+01 2.689641416072845459e-01 2.858469784259796143e-01 1.664433330297470093e-01 2.892294228076934814e-01
2.055000000000000000e+03 1.021139621734619141e+01 7.383230686187744141e+00 4.863760477746836841e-05 5.698389486497035250e-06 1.630079714232124388e-05 -1.895780042104888707e-05
2.056000000000000000e+03 5.414847564697265625e+01 3.647461700439453125e+01 6.506467461585998535e-01 3.276811838150024414e+00 1.178237557411193848e+00 -1.553293943405151367e+00
2.057000000000000000e+03 2.597070693969726562e+01 4.831153750419616699e-01 1.548480801284313202e-02 -8.646016716957092285e-01 -2.547350525856018066e-01 -9.703763574361801147e-02
2.058000000000000000e+03 3.600516080856323242e+00 6.166822433471679688e+00 2.573274832684546709e-05 -9.806596608541440219e-06 4.777845788339618593e-06 9.853466508502606302e-06
2.059000000000000000e+03 2.568187522888183594e+01 -1.878542518615722656e+01 1.465048175305128098e-02 -8.251965045928955078e-01 -2.431638091802597046e-01 -3.738228604197502136e-02
2.060000000000000000e+03 2.562771034240722656e+01 -1.741024017333984375e+01 8.141593076288700104e-03 -8.485438227653503418e-01 -2.521206736564636230e-01 -3.550433367490768433e-02
2.061000000000000000e+03 2.590390968322753906e+01 -5.120337009429931641e+00 2.417531050741672516e-02 -8.647220134735107422e-01 -2.521640062332153320e-01 -7.461010664701461792e-02
2.062000000000000000e+03 1.014107322692871094e+01 -1.543795299530029297e+01 4.547217686194926500e-04 5.298952601151540875e-05 1.523133832961320877e-04 8.560470450902357697e-05
2.063000000000000000e+03 1.049699974060058594e+01 1.043502712249755859e+01 6.073441909393295646e-05 7.654193723283242434e-06 2.051658339041750878e-05 -8.147509106493089348e-06
2.064000000000000000e+03 1.106251907348632812e+01 1.731229019165039062e+01 1.037912734318524599e-04 1.103637623600661755e-05 3.444829417276196182e-05 1.731135125737637281e-05
2.065000000000000000e+03 1.120017242431640625e+01 1.374509525299072266e+01 -8.821842493489384651e-05 -1.093012087949318811e-05 -2.974456401716452092e-05 -2.076531018246896565e-05
2.066000000000000000e+03 1.025698947906494141e+01 2.352318954467773438e+01 1.271350047318264842e-04 2.944534935522824526e-05 4.697410622611641884e-05 -4.351877942099235952e-05
2.067000000000000000e+03 1.094769668579101562e+01 1.972582435607910156e+01 9.560710168443620205e-05 -1.239834182342747226e-05 2.496262641216162592e-05 4.460914351511746645e-05
2.068000000000000000e+03 1.140583038330078125e+01 -1.031637096405029297e+01 2.813147439155727625e-04 7.854460272938013077e-05 1.079578069038689137e-04 -7.845963409636169672e-05
2.069000000000000000e+03 1.134427261352539062e+01 -1.143206405639648438e+01 -3.364133299328386784e-04 -7.620237738592550159e-05 -1.237847172887995839e-04 1.190317270811647177e-04
2.070000000000000000e+03 2.458750724792480469e+01 -2.450129270553588867e+00 1.739847287535667419e-02 -1.112783432006835938e+00 -3.286154866218566895e-01 -8.492663502693176270e-02
2.071000000000000000e+03 2.595411491394042969e+01 -9.321084618568420410e-01 2.098141610622406006e-02 -8.695911765098571777e-01 -2.545829415321350098e-01 -8.841953426599502563e-02
2.072000000000000000e+03 8.708535194396972656e+00 -3.534746551513671875e+01 1.591870188713073730e-02 -1.146209239959716797e-02 1.336982822977006435e-03 8.520592935383319855e-03
2.073000000000000000e+03 7.476217651367187500e+01 3.422979354858398438e+01 2.719239890575408936e-01 6.058360576629638672e+00 1.899085402488708496e+00 -4.155475646257400513e-03
2.074000000000000000e+03 7.430682373046875000e+01 2.861655044555664062e+01 3.821057081222534180e-01 6.434793472290039062e+00 2.045069694519042969e+00 -6.536204814910888672e-01
2.075000000000000000e+03 1.549437046051025391e+01 4.023445892333984375e+01 8.080098778009414673e-04 1.278474665014073253e-04 2.807572018355131149e-04 -2.196721616201102734e-04
2.076000000000000000e+03 2.569710731506347656e+01 -1.196804046630859375e+01 -1.398942060768604279e-02 -8.621171712875366211e-01 -2.628319561481475830e-01 -5.442854762077331543e-02
2.077000000000000000e+03 7.545029449462890625e+01 -2.764913558959960938e+01 5.892184562981128693e-03 8.542184829711914062e+00 2.564423084259033203e+00 -2.668742090463638306e-03
2.078000000000000000e+03 2.438180160522460938e+01 -9.351766586303710938e+00 -4.472519736737012863e-03 -1.128131747245788574e+00 -3.397812843322753906e-01 -8.022088557481765747e-02
2.079000000000000000e+03 2.585415649414062500e+01 -7.847530841827392578e+00 1.148791238665580750e-02 -8.604782223701477051e-01 -2.546970844268798828e-01 -7.404202222824096680e-02
2.080000000000000000e+03 7.445773315429687500e+01 2.164636230468750000e+01 1.210335176438093185e-03 7.084096431732177734e+00 2.125591993331909180e+00 -1.051332116127014160e+00
2.081000000000000000e+03 7.570961761474609375e+01 2.182155990600585938e+01 1.212558709084987640e-02 6.769294738769531250e+00 2.034426212310791016e+00 -8.927236199378967285e-01
2.082000000000000000e+03 7.154350280761718750e+01 2.450175666809082031e+01 2.898809313774108887e-01 7.594933509826660156e+00 2.365444421768188477e+00 -1.244628787040710449e+00
2.083000000000000000e+03 7.561730957031250000e+01 2.597595596313476562e+01 1.614592075347900391e-01 6.248184204101562500e+00 1.922893047332763672e+00 -7.742894887924194336e-01
2.084000000000000000e+03 7.442187500000000000e+01 -2.383553123474121094e+01 -1.310780760832130909e-03 8.353476524353027344e+00 2.505649566650390625e+00 -7.005592808127403259e-03
2.085000000000000000e+03 7.531851959228515625e+01 -2.098505783081054688e+01 -1.706104725599288940e-03 8.528105735778808594e+00 2.557919979095458984e+00 -6.406547036021947861e-03
2.086000000000000000e+03 7.389168548583984375e+01 -2.114386558532714844e+01 -8.137652650475502014e-03 8.254291534423828125e+00 2.473846197128295898e+00 -6.772187072783708572e-03
2.087000000000000000e+03 7.401467895507812500e+01 -1.656026649475097656e+01 -9.968689642846584320e-03 8.277550697326660156e+00 2.480274438858032227e+00 -1.751935109496116638e-02
2.088000000000000000e+03 7.472047424316406250e+01 1.204629898071289062e+01 -1.596500575542449951e-01 7.847099781036376953e+00 2.306234836578369141e+00 -6.120070219039916992e-01
2.089000000000000000e+03 7.424399566650390625e+01 -9.750301361083984375e+00 -2.413803711533546448e-02 8.309615135192871094e+00 2.485642910003662109e+00 -5.948608741164207458e-02
2.090000000000000000e+03 7.429833984375000000e+01 3.919714689254760742e-02 -7.011644542217254639e-02 8.219083786010742188e+00 2.444690227508544922e+00 -1.842810064554214478e-01
2.091000000000000000e+03 7.462960815429687500e+01 6.753355503082275391e+00 -1.205319613218307495e-01 8.090813636779785156e+00 2.391084671020507812e+00 -3.746226131916046143e-01
2.092000000000000000e+03 7.546064758300781250e+01 -1.384133148193359375e+01 -1.265898346900939941e-02 8.546937942504882812e+00 2.560283660888671875e+00 -2.597478218376636505e-02
2.093000000000000000e+03 7.414112091064453125e+01 -1.377760791778564453e+01 -2.018309570848941803e-02 8.302462577819824219e+00 2.484683990478515625e+00 -3.201393783092498779e-02
2.094000000000000000e+03 7.452957916259765625e+01 1.883982276916503906e+01 -1.159875765442848206e-01 7.348210334777832031e+00 2.169666767120361328e+00 -9.683645367622375488e-01
2.095000000000000000e+03 7.541020202636718750e+01 -6.963420867919921875e+00 -2.434176579117774963e-02 8.496533393859863281e+00 2.541657447814941406e+00 -6.939418613910675049e-02
2.096000000000000000e+03 7.584388732910156250e+01 1.490182399749755859e+01 -1.063433140516281128e-01 7.602594375610351562e+00 2.248875379562377930e+00 -6.657655239105224609e-01
2.097000000000000000e+03 7.456060028076171875e+01 5.413040161132812500e+00 -1.099943518638610840e-01 8.128056526184082031e+00 2.405418872833251953e+00 -3.279531598091125488e-01
2.098000000000000000e+03 7.423287200927734375e+01 -2.676294326782226562e+00 -5.389916896820068359e-02 8.241497993469238281e+00 2.456279754638671875e+00 -1.295136511325836182e-01
2.099000000000000000e+03 7.411573028564453125e+01 -4.094459056854248047e+00 -4.779878258705139160e-02 8.230481147766113281e+00 2.454804658889770508e+00 -1.135337427258491516e-01
2.100000000000000000e+03 7.562392425537109375e+01 1.371988415718078613e+00 -5.064768716692924500e-02 8.392935752868652344e+00 2.502686262130737305e+00 -1.846532076597213745e-01
2.101000000000000000e+03 7.420263671875000000e+01 -1.108515930175781250e+01 -2.113027311861515045e-02 8.310857772827148438e+00 2.486918210983276367e+00 -4.616371914744377136e-02
2.102000000000000000e+03 7.388834381103515625e+01 -1.801572036743164062e+01 -1.127026509493589401e-02 8.256001472473144531e+00 2.473419189453125000e+00 -1.429824717342853546e-02
2.103000000000000000e+03 7.307350158691406250e+01 2.581470489501953125e+01 3.466194272041320801e-01 7.044809818267822266e+00 2.217428922653198242e+00 -1.053942084312438965e+00
2.104000000000000000e+03 7.410795593261718750e+01 -2.757332420349121094e+01 1.095676235854625702e-02 8.309228897094726562e+00 2.496055603027343750e+00 -4.799485672265291214e-03
2.105000000000000000e+03 7.552597808837890625e+01 -2.637242317199707031e+01 4.076640121638774872e-03 8.564403533935546875e+00 2.570544242858886719e+00 -3.808906534686684608e-03
2.106000000000000000e+03 7.586311340332031250e+01 8.153765678405761719e+00 -8.533424139022827148e-02 8.141258239746093750e+00 2.416777133941650391e+00 -3.706195652484893799e-01
2.107000000000000000e+03 7.468063354492187500e+01 8.082566261291503906e+00 -1.304907947778701782e-01 8.044404983520507812e+00 2.374174356460571289e+00 -4.256923198699951172e-01
2.108000000000000000e+03 7.462539672851562500e+01 1.470576095581054688e+01 -1.700361371040344238e-01 7.677019596099853516e+00 2.252094984054565430e+00 -7.629022002220153809e-01
2.109000000000000000e+03 7.451152038574218750e+01 1.743954849243164062e+01 -1.466307342052459717e-01 7.470037937164306641e+00 2.197022199630737305e+00 -9.081750512123107910e-01
2.110000000000000000e+03 7.447839355468750000e+01 4.060491085052490234e+00 -1.022274047136306763e-01 8.157571792602539062e+00 2.416603326797485352e+00 -2.867480218410491943e-01
2.111000000000000000e+03 7.439473724365234375e+01 2.706176042556762695e+00 -9.107144176959991455e-02 8.182752609252929688e+00 2.427504301071166992e+00 -2.470128983259201050e-01
2.112000000000000000e+03 7.400640869140625000e+01 -7.026378154754638672e+00 -3.861867636442184448e-02 8.233679771423339844e+00 2.458518266677856445e+00 -8.063387870788574219e-02
2.113000000000000000e+03 7.472695922851562500e+01 1.072557735443115234e+01 -1.506169587373733521e-01 7.922149658203125000e+00 2.331459760665893555e+00 -5.444307923316955566e-01
2.114000000000000000e+03 7.576954650878906250e+01 3.490161514282226562e+01 1.895839571952819824e-01 5.791665554046630859e+00 1.794374823570251465e+00 2.834639325737953186e-02
2.115000000000000000e+03 7.388490295410156250e+01 -2.982548332214355469e+01 -8.769142441451549530e-03 8.224848747253417969e+00 2.464823961257934570e+00 -1.856621587648987770e-03
2.116000000000000000e+03 7.264928436279296875e+01 -3.437003326416015625e+01 -2.008377946913242340e-02 8.003682136535644531e+00 2.395079612731933594e+00 -6.991586182266473770e-03
2.117000000000000000e+03 2.419543838500976562e+01 -1.487047576904296875e+01 -1.271480508148670197e-02 -1.133394598960876465e+00 -3.438328206539154053e-01 -4.543964564800262451e-02
2.118000000000000000e+03 6.882932186126708984e+00 -1.537599849700927734e+01 -4.868679679930210114e-04 -2.454320783726871014e-04 -2.196900168200954795e-04 -4.391988477436825633e-05
2.119000000000000000e+03 7.400095367431640625e+01 3.112310600280761719e+01 4.300514161586761475e-01 6.419590473175048828e+00 2.054892539978027344e+00 -3.544255495071411133e-01
2.120000000000000000e+03 5.848249435424804688e+00 -2.902459907531738281e+01 3.798821242526173592e-03 -4.179257084615528584e-04 1.014268607832491398e-03 5.813797470182180405e-04
2.121000000000000000e+03 1.168024826049804688e+01 -2.143425559997558594e+01 1.344850898021832108e-04 2.176767011405900121e-04 1.056485343724489212e-04 -1.067300690920092165e-04
2.122000000000000000e+03 1.131144809722900391e+01 3.087921714782714844e+01 -2.680339093785732985e-04 8.094502845779061317e-06 -7.798182195983827114e-05 -8.384358807234093547e-06
2.123000000000000000e+03 2.599667549133300781e+01 9.053553581237792969e+00 2.938179112970829010e-02 -8.010026216506958008e-01 -2.314862608909606934e-01 -2.133593261241912842e-01
2.124000000000000000e+03 6.133362770080566406e+00 -2.632853507995605469e+01 1.797319040633738041e-03 5.337062175385653973e-04 6.993075367063283920e-04 -1.525517436675727367e-04
2.125000000000000000e+03 4.353049278259277344e+00 2.710595130920410156e+01 1.340179587714374065e-04 1.558352596475742757e-05 4.488044578465633094e-05 2.266844421683344990e-05
2.126000000000000000e+03 5.815775394439697266e+00 2.810923957824707031e+01 1.230948691954836249e-04 3.837567055597901344e-05 4.844116119784303010e-05 9.433084414922632277e-06
2.127000000000000000e+03 2.571529197692871094e+01 2.031122398376464844e+01 1.267121080309152603e-02 -4.812835156917572021e-01 -1.405836939811706543e-01 -3.450008928775787354e-01
2.128000000000000000e+03 2.580699920654296875e+01 1.752587127685546875e+01 3.504177182912826538e-02 -5.857411623001098633e-01 -1.652098149061203003e-01 -3.271364271640777588e-01
2.129000000000000000e+03 2.576385498046875000e+01 1.892171859741210938e+01 2.510608918964862823e-02 -5.349917411804199219e-01 -1.529657095670700073e-01 -3.387964963912963867e-01
2.130000000000000000e+03 2.598712730407714844e+01 1.901950716972351074e+00 7.876209914684295654e-03 -8.624134063720703125e-01 -2.563611567020416260e-01 -1.087480634450912476e-01
2.131000000000000000e+03 2.597958183288574219e+01 1.048082637786865234e+01 3.717664256691932678e-02 -7.760753035545349121e-01 -2.216695994138717651e-01 -2.342088669538497925e-01
2.132000000000000000e+03 2.595431327819824219e+01 1.190076828002929688e+01 4.409506916999816895e-02 -7.477109432220458984e-01 -2.110847681760787964e-01 -2.538233399391174316e-01
2.133000000000000000e+03 2.476727485656738281e+01 8.936906814575195312e+00 1.224593259394168854e-02 -9.967544674873352051e-01 -2.953525781631469727e-01 -1.874472051858901978e-01
2.134000000000000000e+03 2.600833892822265625e+01 7.623399257659912109e+00 1.700662262737751007e-02 -8.182483911514282227e-01 -2.403725236654281616e-01 -1.932474672794342041e-01
2.135000000000000000e+03 1.458225154876708984e+01 -2.890647506713867188e+01 1.958278706297278404e-03 -1.532541355118155479e-03 1.277212286368012428e-04 -3.928474325221031904e-04
2.136000000000000000e+03 3.043014144897460938e+01 1.787473678588867188e+01 1.001234129071235657e-01 -1.783839166164398193e-01 -2.347815036773681641e-02 -4.288586974143981934e-01
2.137000000000000000e+03 2.469401168823242188e+01 1.460308074951171875e+01 2.946983091533184052e-02 -8.170043826103210449e-01 -2.362603694200515747e-01 -2.479051500558853149e-01
2.138000000000000000e+03 2.442531967163085938e+01 2.294571495056152344e+01 -1.046305987983942032e-02 -4.334352016448974609e-01 -1.331694722175598145e-01 -2.811868786811828613e-01
2.139000000000000000e+03 5.880086421966552734e+00 2.302628135681152344e+01 -6.574413419002667069e-05 -1.443840574211208150e-05 -2.405476152489427477e-05 1.196194898511748761e-05
2.140000000000000000e+03 9.531332015991210938e+00 2.211305809020996094e+01 -5.849620720255188644e-05 -1.712380799290258437e-05 -2.268600474053528160e-05 6.900171865709125996e-05
2.141000000000000000e+03 6.532144546508789062e+00 -1.061878967285156250e+01 2.775682660285383463e-04 9.945558122126385570e-05 1.131071549025364220e-04 9.778475941857323050e-05
2.142000000000000000e+03 5.112479686737060547e+00 -9.368280410766601562e+00 3.665433032438158989e-04 3.040134834009222686e-05 1.190833936561830342e-04 6.589099939446896315e-05
2.143000000000000000e+03 2.532970809936523438e+01 2.566068649291992188e+01 -4.814600571990013123e-02 -2.666313350200653076e-01 -9.443319588899612427e-02 -2.957683801651000977e-01
2.144000000000000000e+03 2.419494438171386719e+01 2.701387023925781250e+01 -4.198601841926574707e-02 -2.371414899826049805e-01 -8.373825252056121826e-02 -2.208559960126876831e-01
2.145000000000000000e+03 2.673968505859375000e+01 2.992852973937988281e+01 -1.385477632284164429e-01 -7.894486188888549805e-02 -6.524778157472610474e-02 -2.247603833675384521e-01
2.146000000000000000e+03 2.592205047607421875e+01 1.331352233886718750e+01 4.574379324913024902e-02 -7.135449647903442383e-01 -2.003403604030609131e-01 -2.740023136138916016e-01
2.147000000000000000e+03 2.588589668273925781e+01 1.472227001190185547e+01 4.565007984638214111e-02 -6.757376790046691895e-01 -1.890262812376022339e-01 -2.933219671249389648e-01
2.148000000000000000e+03 2.522950744628906250e+01 2.697681427001953125e+01 -6.182491406798362732e-02 -2.141104340553283691e-01 -8.278059959411621094e-02 -2.650718092918395996e-01
2.149000000000000000e+03 2.620897674560546875e+01 2.809097480773925781e+01 -1.035429015755653381e-01 -1.457449346780776978e-01 -7.478635013103485107e-02 -2.732709944248199463e-01
2.150000000000000000e+03 5.856698989868164062e+00 -2.182557868957519531e+01 -1.122325775213539600e-03 4.587329458445310593e-04 -1.990778255276381969e-04 -2.452649641782045364e-04
2.151000000000000000e+03 9.339710235595703125e+00 2.551265335083007812e+01 1.367628865409642458e-04 3.029858271474950016e-05 5.011844041291624308e-05 -1.037861056829569861e-05
2.152000000000000000e+03 5.174041748046875000e+00 2.437398338317871094e+01 -1.234850933542475104e-04 -1.030157454806612805e-05 -4.013600118923932314e-05 -3.756823207368142903e-05
2.153000000000000000e+03 5.807689189910888672e+00 -1.663646697998046875e+01 -7.295866962522268295e-04 -3.695397026604041457e-05 -2.299621992278844118e-04 -1.717192644719034433e-04
2.154000000000000000e+03 5.761838912963867188e+00 -1.515217590332031250e+01 5.355661269277334213e-04 1.307608472416177392e-04 1.998980878852307796e-04 8.093813812592998147e-05
2.155000000000000000e+03 1.034259223937988281e+01 1.591742706298828125e+01 6.546768418047577143e-05 9.961253454093821347e-06 2.262868292746134102e-05 3.199485581717453897e-05
2.156000000000000000e+03 5.863818645477294922e+00 1.616834259033203125e+01 -1.565129969094414264e-05 -2.115072129527106881e-05 -1.104060629586456344e-05 4.539480141829699278e-05
2.157000000000000000e+03 4.245844841003417969e+00 2.051838302612304688e+01 -1.520158548373728991e-04 2.250282523164059967e-05 -3.885390833602286875e-05 -1.706162220216356218e-05
2.158000000000000000e+03 4.746145725250244141e+00 -2.624884033203125000e+01 -4.735099209938198328e-04 1.210566115332767367e-04 -1.057359986589290202e-04 8.726740634301677346e-05
2.159000000000000000e+03 6.052617549896240234e+00 -2.777708244323730469e+01 4.368530353531241417e-04 1.305999194300966337e-05 1.349739031866192818e-04 2.711039851419627666e-04
2.160000000000000000e+03 4.182989597320556641e+00 1.500942230224609375e+01 -9.696643974166363478e-05 -9.448150194657500833e-06 -3.192437725374475121e-05 1.708835952740628272e-05
2.161000000000000000e+03 5.587595939636230469e+00 2.680351638793945312e+01 -1.291888474952429533e-04 -2.655123535078018904e-05 -4.672202703659422696e-05 -1.608418642717879266e-05
2.162000000000000000e+03 4.195394992828369141e+00 2.580634689331054688e+01 -1.375402498524636030e-04 -8.934173820307478309e-06 -4.394232746562920511e-05 -3.016371920239180326e-05
2.163000000000000000e+03 2.675194549560546875e+01 2.309893798828125000e+01 -2.643386088311672211e-02 -3.107016980648040771e-01 -1.011406630277633667e-01 -3.830713331699371338e-01
2.164000000000000000e+03 2.802414512634277344e+01 2.317933464050292969e+01 -3.613455593585968018e-02 -2.408893704414367676e-01 -8.310718089342117310e-02 -4.264350831508636475e-01
2.165000000000000000e+03 7.957419395446777344e+00 -1.194444942474365234e+01 3.082077600993216038e-04 1.371068647131323814e-04 1.335943961748853326e-04 1.678861299296841025e-04
2.166000000000000000e+03 5.034627437591552734e+00 3.145123672485351562e+01 -1.408836251357570291e-04 -4.365095082903280854e-05 -5.536037133424542844e-05 -1.713612073217518628e-05
2.167000000000000000e+03 5.975468158721923828e+00 2.144435119628906250e+01 -7.151704630814492702e-05 2.137144292646553367e-05 -1.504368174209957942e-05 6.990012479946017265e-05
2.168000000000000000e+03 5.912575244903564453e+00 1.809105110168457031e+01 4.845156217925250530e-05 -2.324554770893882960e-05 7.561804068245692179e-06 4.407145388540811837e-05
2.169000000000000000e+03 5.356073379516601562e+00 2.036824035644531250e+01 1.306293415836989880e-04 -2.083256549667567015e-05 3.293903500889427960e-05 -1.511726622993592173e-05
2.170000000000000000e+03 5.528210639953613281e+00 -2.053450775146484375e+01 8.972425130195915699e-04 -6.756764196325093508e-05 2.489024773240089417e-04 6.812399078626185656e-05
2.171000000000000000e+03 5.839449882507324219e+00 -1.811710357666015625e+01 6.827272591181099415e-04 2.089129411615431309e-04 2.674920542631298304e-04 1.082820599549449980e-04
2.172000000000000000e+03 5.484779834747314453e+00 3.540216445922851562e+01 -1.192409617942757905e-04 2.113913978973869234e-05 -2.943054641946218908e-05 9.483039320912212133e-06
2.173000000000000000e+03 5.027514457702636719e+00 1.705754852294921875e+01 -1.572903056512586772e-05 1.749694274622015655e-05 5.303737680151243694e-07 -2.509048681531567127e-05
2.174000000000000000e+03 5.215042591094970703e+00 1.347287654876708984e+01 -6.747380393790081143e-05 -3.084755735471844673e-05 -2.949640656879637390e-05 2.465097531967330724e-05
2.175000000000000000e+03 5.350586414337158203e+00 1.488382625579833984e+01 5.354231689125299454e-05 3.743228808161802590e-05 2.729238076426554471e-05 -3.834303788607940078e-05
2.176000000000000000e+03 9.717735290527343750e+00 -3.167865562438964844e+01 6.288878619670867920e-03 -1.701036351732909679e-03 1.376352622173726559e-03 -3.579271491616964340e-03
2.177000000000000000e+03 9.408810615539550781e+00 1.089847564697265625e+01 -5.936181696597486734e-05 -1.303264252783264965e-05 -2.171833693864755332e-05 8.189099389710463583e-06
2.178000000000000000e+03 3.942925453186035156e+00 9.393812179565429688e+00 -7.925897807581350207e-05 -5.495620030160353053e-07 -2.394256262050475925e-05 -7.937958798720501363e-06
2.179000000000000000e+03 5.706302642822265625e+00 -1.364241123199462891e+01 -5.417732172645628452e-04 -2.928601679741404951e-05 -1.713177625788375735e-04 -1.174136996269226074e-04
2.180000000000000000e+03 5.318600654602050781e+00 -1.071788692474365234e+01 -4.100438382010906935e-04 -4.412905400386080146e-05 -1.362518669338896871e-04 -9.460234286962077022e-05
2.181000000000000000e+03 4.922717094421386719e+00 -8.095252990722656250e+00 -3.696112253237515688e-04 -2.179632974730338901e-05 -1.174222634290345013e-04 -5.965301897958852351e-05
2.182000000000000000e+03 5.197739601135253906e+00 8.381741523742675781e+00 -6.929269875399768353e-05 -2.673265953490044922e-06 -2.158978895749896765e-05 -8.809498467599041760e-06
2.183000000000000000e+03 6.071821212768554688e+00 8.767419815063476562e+00 6.410557398339733481e-05 -5.919835075474111363e-06 1.745572080835700035e-05 6.710911293339449912e-06
2.184000000000000000e+03 7.285708904266357422e+00 -2.343031120300292969e+01 -9.769211756065487862e-04 2.335672033950686455e-04 -2.230062091257423162e-04 3.047458303626626730e-04
2.185000000000000000e+03 1.039319324493408203e+01 -2.543659973144531250e+01 -1.847983512561768293e-04 2.446016587782651186e-04 1.794099443941377103e-05 7.963110692799091339e-05
2.186000000000000000e+03 7.269979858398437500e+01 3.436136627197265625e+01 4.452795386314392090e-01 6.996436119079589844e+00 2.232514619827270508e+00 1.053093820810317993e-01
2.187000000000000000e+03 7.226276397705078125e+01 3.101874542236328125e+01 7.301390171051025391e-01 7.044616699218750000e+00 2.332426548004150391e+00 -3.944499790668487549e-01
2.188000000000000000e+03 1.131615352630615234e+01 1.488366508483886719e+01 1.028379047056660056e-04 3.295069063824485056e-06 3.183989247190766037e-05 2.510736339900176972e-05
2.189000000000000000e+03 1.101928329467773438e+01 1.261185550689697266e+01 7.068523700581863523e-05 1.744901419442612678e-05 2.644027517817448825e-05 1.107413936551893130e-05
2.190000000000000000e+03 4.858757972717285156e+00 -5.653971672058105469e+00 -3.629119892138987780e-04 -3.487970752757973969e-05 -1.193375137518160045e-04 -5.520170816453173757e-05
2.191000000000000000e+03 2.588264846801757812e+01 -6.483227729797363281e+00 1.828553155064582825e-02 -8.643201589584350586e-01 -2.538103759288787842e-01 -7.525911182165145874e-02
2.192000000000000000e+03 2.592263603210449219e+01 -3.741970062255859375e+00 2.410578727722167969e-02 -8.671438694000244141e-01 -2.529114186763763428e-01 -7.793928682804107666e-02
2.193000000000000000e+03 2.564871406555175781e+01 -1.332813644409179688e+01 -1.073703914880752563e-02 -8.672354817390441895e-01 -2.633917629718780518e-01 -4.964341223239898682e-02
2.194000000000000000e+03 2.575583648681640625e+01 -1.059677410125732422e+01 -6.670545786619186401e-03 -8.624022006988525391e-01 -2.607218325138092041e-01 -6.611913442611694336e-02
2.195000000000000000e+03 7.447490215301513672e+00 -2.814722251892089844e+01 3.014296991750597954e-03 2.242550253868103027e-04 9.715656051412224770e-04 -3.788695903494954109e-04
2.196000000000000000e+03 2.601220512390136719e+01 6.189135551452636719e+00 8.396585471928119659e-03 -8.325954079627990723e-01 -2.472596466541290283e-01 -1.687813252210617065e-01
2.197000000000000000e+03 2.581269645690917969e+01 -9.219353675842285156e+00 3.347457852214574814e-03 -8.627679944038391113e-01 -2.578261494636535645e-01 -6.977033615112304688e-02
2.198000000000000000e+03 1.042591857910156250e+01 2.097805404663085938e+01 -5.386078555602580309e-05 1.103613521991064772e-05 -1.284739573748083785e-05 -3.874360845657065511e-05
2.199000000000000000e+03 2.420534515380859375e+01 -2.041736793518066406e+01 2.617437392473220825e-02 -1.087191462516784668e+00 -3.183051049709320068e-01 -5.807794630527496338e-02
2.200000000000000000e+03 2.242692565917968750e+01 -2.474291992187500000e+01 2.046644873917102814e-02 -1.413264751434326172e+00 -4.178394973278045654e-01 -6.050245463848114014e-02
2.201000000000000000e+03 1.079491329193115234e+01 1.148403835296630859e+01 -6.069041046430356801e-05 -1.781574064807500690e-05 -2.355184551561251283e-05 -7.052843784549622796e-07
2.202000000000000000e+03 8.754824638366699219e+00 2.978606033325195312e+01 1.611688348930329084e-04 4.337311111157760024e-05 6.136258161859586835e-05 1.077855995390564203e-04
2.203000000000000000e+03 1.104543018341064453e+01 1.856964492797851562e+01 -1.213789073517546058e-04 -1.052646894095232710e-05 -3.957161243306472898e-05 -2.956636308226734400e-05
2.204000000000000000e+03 9.739319801330566406e+00 -2.957165908813476562e+01 3.554472466930747032e-03 -5.425374256446957588e-04 9.035805123858153820e-04 -1.560614444315433502e-03
2.205000000000000000e+03 2.593926429748535156e+01 -2.342399358749389648e+00 2.491636574268341064e-02 -8.666507005691528320e-01 -2.525203227996826172e-01 -8.292265981435775757e-02
2.206000000000000000e+03 2.600847625732421875e+01 4.754618644714355469e+00 1.722691114991903305e-03 -8.441578745841979980e-01 -2.527305483818054199e-01 -1.469716280698776245e-01
2.207000000000000000e+03 2.561976432800292969e+01 -1.468435668945312500e+01 -9.957461617887020111e-03 -8.614240884780883789e-01 -2.614144682884216309e-01 -3.802155703306198120e-02
2.208000000000000000e+03 4.763157272338867188e+01 3.632469940185546875e+01 -9.124689735472202301e-03 -1.995044015347957611e-02 -8.722539059817790985e-03 4.853156208992004395e-01
2.209000000000000000e+03 4.909055709838867188e+01 3.601218032836914062e+01 8.632068522274494171e-03 1.927622258663177490e-01 6.041828915476799011e-02 2.327326387166976929e-01
2.210000000000000000e+03 2.154134941101074219e+01 -3.027185630798339844e+01 -2.318387664854526520e-02 -1.620059490203857422e+00 -4.929729998111724854e-01 -6.731425970792770386e-02
2.211000000000000000e+03 2.386706733703613281e+01 -3.022879981994628906e+01 -4.634920135140419006e-02 -1.145446062088012695e+00 -3.575385510921478271e-01 -8.420129865407943726e-02
2.212000000000000000e+03 1.119865417480468750e+01 2.941591072082519531e+01 2.372360613662749529e-04 -1.056290329870535061e-05 6.800195114919915795e-05 8.479527195959235542e-07
2.213000000000000000e+03 7.741897583007812500e+00 2.472602272033691406e+01 1.151275500888004899e-04 2.518732981116045266e-05 4.209446342429146171e-05 2.084958197201558505e-07
2.214000000000000000e+03 1.423066043853759766e+01 3.827949905395507812e+01 -4.702295409515500069e-04 4.234704465488903224e-05 -1.283647579839453101e-04 1.678574044490233064e-04
2.215000000000000000e+03 6.403073787689208984e+00 3.373287963867187500e+01 7.361855386989191175e-05 -7.401080802083015442e-05 -1.176755759502157161e-07 -3.655572436400689185e-05
2.216000000000000000e+03 7.289100646972656250e+01 3.690863800048828125e+01 9.947763383388519287e-02 7.060167789459228516e+00 2.147893667221069336e+00 2.897805869579315186e-01
2.217000000000000000e+03 5.612346267700195312e+01 2.813071441650390625e+01 1.967469453811645508e+00 5.975340843200683594e+00 2.382843017578125000e+00 4.889035224914550781e+00
2.218000000000000000e+03 5.785904693603515625e+01 2.868922615051269531e+01 7.378295660018920898e-01 1.442899990081787109e+01 4.550048828125000000e+00 4.773910522460937500e+00
2.219000000000000000e+03 5.760685729980468750e+01 3.422447586059570312e+01 -3.113967776298522949e-01 1.223451900482177734e+01 3.576936721801757812e+00 -3.919336795806884766e+00
2.220000000000000000e+03 6.059442520141601562e+01 3.077257156372070312e+01 7.299750328063964844e+00 1.386229324340820312e+01 6.348613262176513672e+00 -4.955343008041381836e-01
2.221000000000000000e+03 5.828026962280273438e+01 2.881128501892089844e+01 5.588809251785278320e-01 1.645623397827148438e+01 5.104534149169921875e+00 3.456888437271118164e+00
2.222000000000000000e+03 5.854126739501953125e+01 2.880959892272949219e+01 6.472428441047668457e-01 1.699169540405273438e+01 5.291681289672851562e+00 2.510987758636474609e+00
2.223000000000000000e+03 6.100733566284179688e+01 3.064613342285156250e+01 6.605857372283935547e+00 1.314698982238769531e+01 5.925854206085205078e+00 -5.510507822036743164e-01
2.224000000000000000e+03 5.965898895263671875e+01 3.042203712463378906e+01 8.238046646118164062e+00 1.701748657226562500e+01 7.576659679412841797e+00 -1.779386639595031738e+00
2.225000000000000000e+03 5.490195846557617188e+01 2.943377876281738281e+01 1.375564336776733398e+00 9.954393506050109863e-01 7.113010883331298828e-01 2.259211540222167969e+00
2.226000000000000000e+03 5.943703842163085938e+01 3.342217636108398438e+01 1.044275283813476562e+00 1.716234588623046875e+01 5.461986541748046875e+00 9.999617338180541992e-01
2.227000000000000000e+03 5.976913452148437500e+01 2.952684211730957031e+01 4.022463321685791016e+00 1.675402069091796875e+01 6.232944965362548828e+00 -1.514522075653076172e+00
2.228000000000000000e+03 6.063252639770507812e+01 3.141290092468261719e+01 7.307180881500244141e+00 1.371000003814697266e+01 6.305154323577880859e+00 9.176884889602661133e-01
2.229000000000000000e+03 5.561420059204101562e+01 2.901564598083496094e+01 2.411363124847412109e+00 2.966765403747558594e+00 1.613438606262207031e+00 3.934900522232055664e+00
2.230000000000000000e+03 6.064686965942382812e+01 3.393564987182617188e+01 1.380122900009155273e+00 1.449784851074218750e+01 4.763391494750976562e+00 1.742293834686279297e+00
2.231000000000000000e+03 5.963964462280273438e+01 3.244310379028320312e+01 4.939842700958251953e+00 1.781173896789550781e+01 6.825474262237548828e+00 2.810337305068969727e+00
2.232000000000000000e+03 6.076215362548828125e+01 3.204555511474609375e+01 6.085504531860351562e+00 1.377933216094970703e+01 5.959451198577880859e+00 1.881551027297973633e+00
2.233000000000000000e+03 5.648654556274414062e+01 3.389910125732421875e+01 9.746968746185302734e-01 7.132518768310546875e+00 2.432164669036865234e+00 -4.319873332977294922e+00
2.234000000000000000e+03 5.612004089355468750e+01 2.885572814941406250e+01 2.638638734817504883e+00 4.939527988433837891e+00 2.273449897766113281e+00 5.034560203552246094e+00
2.235000000000000000e+03 5.509678649902343750e+01 2.878845596313476562e+01 2.032760381698608398e+00 2.307702779769897461e+00 1.302138924598693848e+00 3.271778106689453125e+00
2.236000000000000000e+03 5.347434234619140625e+01 2.823977470397949219e+01 1.065228939056396484e+00 1.168460011482238770e+00 6.701066493988037109e-01 1.920626163482666016e+00
2.237000000000000000e+03 5.114622879028320312e+01 2.850912475585937500e+01 -2.246657609939575195e-01 3.110086917877197266e-01 2.590287476778030396e-02 6.157923340797424316e-01
2.238000000000000000e+03 5.587795639038085938e+01 3.362496185302734375e+01 1.470307111740112305e+00 4.100177288055419922e+00 1.671145319938659668e+00 -3.479291439056396484e+00
2.239000000000000000e+03 5.287583160400390625e+01 2.780103874206542969e+01 9.346394538879394531e-01 1.135907769203186035e+00 6.211641430854797363e-01 1.716653347015380859e+00
2.240000000000000000e+03 4.828137969970703125e+01 2.800439834594726562e+01 -4.989216923713684082e-01 2.164580672979354858e-01 -8.473908901214599609e-02 1.469989717006683350e-01
2.241000000000000000e+03 4.593194198608398438e+01 2.807691383361816406e+01 -7.034011483192443848e-01 1.651564538478851318e-01 -1.614734083414077759e-01 -1.086788177490234375e-01
2.242000000000000000e+03 6.409853935241699219e+00 5.520789623260498047e+00 -4.375757998786866665e-05 8.011974159671808593e-07 -1.288691510126227513e-05 -3.790678965742699802e-05
2.243000000000000000e+03 8.707284927368164062e+00 5.455647945404052734e+00 3.321700933156535029e-05 8.756459465075749904e-06 1.259204054804285988e-05 1.332939427811652422e-05
2.244000000000000000e+03 9.754059791564941406e+00 4.772047519683837891e+00 5.323154618963599205e-05 -8.545387117919744924e-07 1.571310349390842021e-05 9.536757715977728367e-06
2.245000000000000000e+03 5.045363616943359375e+01 2.798949623107910156e+01 -7.944791764020919800e-02 3.712674081325531006e-01 8.754584938287734985e-02 5.788067579269409180e-01
2.246000000000000000e+03 4.827125549316406250e+01 2.862125205993652344e+01 -8.320710659027099609e-01 1.416074335575103760e-01 -2.071390897035598755e-01 8.158677071332931519e-02
2.247000000000000000e+03 7.072599411010742188e+00 5.755137443542480469e+00 7.072023436194285750e-05 -7.583741989947156981e-06 1.894094748422503471e-05 -2.764364353424753062e-06
2.248000000000000000e+03 7.694379329681396484e+00 4.709117412567138672e+00 7.880919383751461282e-07 -1.362132570648100227e-05 -3.849970198643859476e-06 1.509494722995441407e-05
2.249000000000000000e+03 2.639233398437500000e+01 3.067235374450683594e+01 -1.351680606603622437e-01 -6.268493086099624634e-02 -5.935589596629142761e-02 -1.895281076431274414e-01
2.250000000000000000e+03 2.727048301696777344e+01 3.022777557373046875e+01 -1.652303189039230347e-01 -5.620734393596649170e-02 -6.643129885196685791e-02 -2.256304174661636353e-01
2.251000000000000000e+03 5.797680282592773438e+01 3.440752792358398438e+01 -6.795287132263183594e-01 1.321341419219970703e+01 3.760165691375732422e+00 -3.227672815322875977e+00
2.252000000000000000e+03 4.248031616210937500e+00 5.557518482208251953e+00 -2.727145329117774963e-05 8.970060662250034511e-06 -5.490417606779374182e-06 -3.425926479394547641e-05
2.253000000000000000e+03 6.695411205291748047e+00 4.888978481292724609e+00 3.738629675353877246e-05 6.161377768876263872e-06 1.306430294789606705e-05 1.545707164041232318e-05
2.254000000000000000e+03 8.667530059814453125e+00 -5.121047496795654297e+00 -2.123704180121421814e-04 -5.990731551719363779e-06 -6.550834223162382841e-05 -5.406282798503525555e-05
2.255000000000000000e+03 8.118022918701171875e+00 6.149639606475830078e+00 7.689280892009264790e-07 6.051217951608123258e-06 2.046043846348766237e-06 -2.804289761115796864e-05
2.256000000000000000e+03 2.846865844726562500e+01 3.100831604003906250e+01 -2.245437800884246826e-01 -1.740409620106220245e-02 -7.258436083793640137e-02 -2.204143702983856201e-01
2.257000000000000000e+03 1.049217128753662109e+01 5.800108432769775391e+00 2.432877954561263323e-05 2.845516610250342637e-05 1.583518314873799682e-05 2.148665953427553177e-05
2.258000000000000000e+03 3.055041885375976562e+01 3.010922813415527344e+01 -3.135180473327636719e-01 9.023157879710197449e-03 -9.134846925735473633e-02 -2.994000315666198730e-01
2.259000000000000000e+03 2.986031341552734375e+01 3.018114089965820312e+01 -2.803554832935333252e-01 -4.704743623733520508e-03 -8.551806956529617310e-02 -2.852734327316284180e-01
2.260000000000000000e+03 3.125535583496093750e+01 3.073232841491699219e+01 -3.675965964794158936e-01 2.920473553240299225e-02 -1.015175580978393555e-01 -2.729357779026031494e-01
2.261000000000000000e+03 3.125253105163574219e+01 3.002207374572753906e+01 -3.484781086444854736e-01 2.183637954294681549e-02 -9.799251705408096313e-02 -3.129426836967468262e-01
2.262000000000000000e+03 3.195871162414550781e+01 2.992448997497558594e+01 -3.832944929599761963e-01 3.434090316295623779e-02 -1.046860814094543457e-01 -3.251689076423645020e-01
2.263000000000000000e+03 2.918453979492187500e+01 3.023297691345214844e+01 -2.483468800783157349e-01 -1.797168701887130737e-02 -7.989557087421417236e-02 -2.707706689834594727e-01
2.264000000000000000e+03 2.852176856994628906e+01 3.026524543762207031e+01 -2.182268202304840088e-01 -3.181280568242073059e-02 -7.501188665628433228e-02 -2.557554543018341064e-01
2.265000000000000000e+03 2.787838745117187500e+01 3.027641487121582031e+01 -1.896777898073196411e-01 -4.500545188784599304e-02 -7.040497660636901855e-02 -2.403073906898498535e-01
2.266000000000000000e+03 3.266432189941406250e+01 2.981689643859863281e+01 -4.187408983707427979e-01 4.567613452672958374e-02 -1.119194328784942627e-01 -3.370881974697113037e-01
2.267000000000000000e+03 3.906889343261718750e+01 2.863098144531250000e+01 -6.803500652313232422e-01 1.252737194299697876e-01 -1.665229052305221558e-01 -3.740119040012359619e-01
2.268000000000000000e+03 3.699204635620117188e+01 2.973242568969726562e+01 -6.917844414710998535e-01 9.725944697856903076e-02 -1.783574968576431274e-01 -3.324035108089447021e-01
2.269000000000000000e+03 3.978760147094726562e+01 2.849568748474121094e+01 -6.946145296096801758e-01 1.306162625551223755e-01 -1.691994667053222656e-01 -3.678907155990600586e-01
2.270000000000000000e+03 3.626994323730468750e+01 2.986737442016601562e+01 -6.530233025550842285e-01 8.995905518531799316e-02 -1.689192801713943481e-01 -3.303075730800628662e-01
2.271000000000000000e+03 3.825167846679687500e+01 2.804059982299804688e+01 -5.567661523818969727e-01 1.272380352020263672e-01 -1.288584321737289429e-01 -4.135541617870330811e-01
2.272000000000000000e+03 3.336943817138671875e+01 2.969928741455078125e+01 -4.534716308116912842e-01 5.684756860136985779e-02 -1.189872175455093384e-01 -3.472238183021545410e-01
2.273000000000000000e+03 4.051102828979492188e+01 2.835371971130371094e+01 -7.006463408470153809e-01 1.388337016105651855e-01 -1.685438007116317749e-01 -3.572106361389160156e-01
2.274000000000000000e+03 3.555097198486328125e+01 3.000249671936035156e+01 -6.130430102348327637e-01 8.381421864032745361e-02 -1.587686389684677124e-01 -3.258346021175384521e-01
2.275000000000000000e+03 3.682455825805664062e+01 2.831075668334960938e+01 -5.284120440483093262e-01 1.077223122119903564e-01 -1.262069195508956909e-01 -4.169903397560119629e-01
2.276000000000000000e+03 3.407509231567382812e+01 2.957341194152832031e+01 -4.876474440097808838e-01 6.662935763597488403e-02 -1.263054311275482178e-01 -3.571741282939910889e-01
2.277000000000000000e+03 3.478271102905273438e+01 2.944142723083496094e+01 -5.210795402526855469e-01 7.709573209285736084e-02 -1.331951320171356201e-01 -3.649901747703552246e-01
2.278000000000000000e+03 4.429714584350585938e+01 2.754193878173828125e+01 -5.594040155410766602e-01 1.967765837907791138e-01 -1.087882295250892639e-01 -2.114365249872207642e-01
2.279000000000000000e+03 4.283550643920898438e+01 2.858487701416015625e+01 -8.456465005874633789e-01 1.355798989534378052e-01 -2.130199819803237915e-01 -2.746943533420562744e-01
2.280000000000000000e+03 4.401409149169921875e+01 2.601550674438476562e+01 -1.787289232015609741e-01 2.975591421127319336e-01 3.564906120300292969e-02 -1.735019832849502563e-01
2.281000000000000000e+03 5.537854385375976562e+01 3.608093643188476562e+01 3.522136807441711426e-01 5.497109413146972656e+00 1.754796981811523438e+00 -2.499779939651489258e+00
2.282000000000000000e+03 1.192137718200683594e+01 4.816312313079833984e+00 -3.833334631053730845e-05 1.586110374773852527e-05 -6.741672677890164778e-06 3.275961353210732341e-05
2.283000000000000000e+03 9.537129402160644531e+00 8.676594734191894531e+00 1.640589471207931638e-05 5.069478902441915125e-06 6.442611720558488742e-06 -3.275672497693449259e-05
2.284000000000000000e+03 4.124281692504882812e+01 2.820327758789062500e+01 -6.992602348327636719e-01 1.447722464799880981e-01 -1.663464009761810303e-01 -3.431205749511718750e-01
2.285000000000000000e+03 3.549178695678710938e+01 2.930530357360839844e+01 -5.532258749008178711e-01 8.578162640333175659e-02 -1.402332633733749390e-01 -3.718047738075256348e-01
2.286000000000000000e+03 6.978032588958740234e+00 -7.881889343261718750e+00 -1.568356237839907408e-04 -9.419525304110720754e-05 -7.530926814069971442e-05 -1.123294132412411273e-04
2.287000000000000000e+03 7.905868530273437500e+00 -6.009215354919433594e+00 -1.979258522624149919e-04 -1.494632597314193845e-04 -1.042167350533418357e-04 2.391704947513062507e-05
2.288000000000000000e+03 9.512694358825683594e+00 -4.970714569091796875e+00 1.293846871703863144e-04 -2.089533609250793234e-06 3.818854747805744410e-05 1.246492029167711735e-04
2.289000000000000000e+03 4.339603042602539062e+01 2.698695945739746094e+01 -4.305176436901092529e-01 2.148567140102386475e-01 -6.469827890396118164e-02 -2.555921375751495361e-01
2.290000000000000000e+03 4.198666000366210938e+01 2.804617881774902344e+01 -6.849616169929504395e-01 1.543243974447250366e-01 -1.591911613941192627e-01 -3.227261304855346680e-01
2.291000000000000000e+03 2.522531127929687500e+01 2.833045578002929688e+01 -7.830691337585449219e-02 -1.590720266103744507e-01 -7.121367752552032471e-02 -2.299446910619735718e-01
2.292000000000000000e+03 4.672226715087890625e+01 2.803141212463378906e+01 -6.537074446678161621e-01 1.790414154529571533e-01 -1.423998028039932251e-01 -4.034439474344253540e-02
2.293000000000000000e+03 5.232979202270507812e+01 2.787504577636718750e+01 6.553491950035095215e-01 8.317812681198120117e-01 4.461391270160675049e-01 1.346784591674804688e+00
2.294000000000000000e+03 1.124846935272216797e+01 6.638595104217529297e+00 2.680278703337535262e-05 2.824026705638971180e-05 1.651291677262634039e-05 6.634705641772598028e-06
2.295000000000000000e+03 1.225753116607666016e+01 5.597851753234863281e+00 5.528858673642389476e-05 4.144753347645746544e-06 1.783000152499880642e-05 -2.411322384432423860e-06
2.296000000000000000e+03 1.127153396606445312e+01 1.605634498596191406e+01 -1.093356549972668290e-04 -9.488193200013483874e-07 -3.308534360257908702e-05 -2.326099092897493392e-05
2.297000000000000000e+03 8.570995330810546875e+00 1.222166156768798828e+01 -4.886087845079600811e-05 -3.779018152272328734e-05 -2.599531944724731147e-05 2.746274674336746102e-07
2.298000000000000000e+03 1.062206172943115234e+01 2.507165336608886719e+01 -1.739461877150461078e-04 -1.445153884560568258e-05 -5.651931860484182835e-05 2.990002394653856754e-05
2.299000000000000000e+03 9.380068778991699219e+00 2.002088546752929688e+01 2.710331864363979548e-05 -3.170029958710074425e-05 -1.379095010634046048e-06 1.552073081256821752e-05
2.300000000000000000e+03 5.197112560272216797e+00 6.791739940643310547e+00 -8.535436791134998202e-06 2.392595524725038558e-05 4.617155354935675859e-06 -3.961979018640704453e-05
2.301000000000000000e+03 4.753406047821044922e+00 6.172737121582031250e+00 5.559964847634546459e-05 -2.708874308154918253e-05 8.553271982236765325e-06 4.213731881463900208e-05
2.302000000000000000e+03 2.732305526733398438e+01 -1.991506004333496094e+01 1.591116748750209808e-02 -5.182067155838012695e-01 -1.506886631250381470e-01 -3.285279497504234314e-02
2.303000000000000000e+03 2.870013999938964844e+01 -1.820838546752929688e+01 2.895900048315525055e-03 -2.752243578433990479e-01 -8.169853687286376953e-02 -2.478412538766860962e-02
2.304000000000000000e+03 4.809834003448486328e+00 -6.874768257141113281e+00 3.643209638539701700e-04 1.573638110130559653e-05 1.140172025770880282e-04 5.349802449927665293e-05
2.305000000000000000e+03 7.223807334899902344e+00 7.292954921722412109e+00 7.300647121155634522e-05 -1.572707333252765238e-05 1.718382009130436927e-05 3.122602720395661891e-06
2.306000000000000000e+03 2.727401924133300781e+01 2.028762340545654297e+00 2.155353501439094543e-02 -6.322749853134155273e-01 -1.832164376974105835e-01 -1.117236241698265076e-01
2.307000000000000000e+03 2.854405212402343750e+01 4.995895385742187500e+00 4.703173786401748657e-02 -4.208555817604064941e-01 -1.121471524238586426e-01 -1.587182283401489258e-01
2.308000000000000000e+03 9.173261642456054688e+00 -9.147088050842285156e+00 -3.577544121071696281e-04 -7.888970867497846484e-05 -1.309932267758995295e-04 -8.611354860477149487e-05
2.309000000000000000e+03 9.275955200195312500e+00 1.806907463073730469e+01 1.407699164701625705e-05 -1.022559808916412294e-05 1.155417862719332334e-06 2.367198794672731310e-05
2.310000000000000000e+03 7.672433853149414062e+00 2.177402305603027344e+01 -6.334918725769966841e-05 -2.314573976036626846e-06 -1.969912773347459733e-05 5.661583418259397149e-05
2.311000000000000000e+03 7.308044910430908203e+00 2.355156326293945312e+01 -9.983406198443844914e-05 -1.428807809134013951e-05 -3.423664020374417305e-05 1.619151043996680528e-05
2.312000000000000000e+03 6.337190151214599609e+00 1.344538497924804688e+01 3.112129707005806267e-05 5.271066038403660059e-05 2.514958760002627969e-05 -6.529439815494697541e-06
2.313000000000000000e+03 2.732599639892578125e+01 -7.689776420593261719e+00 1.431844290345907211e-02 -5.868937969207763672e-01 -1.717725992202758789e-01 -6.432286649942398071e-02
2.314000000000000000e+03 2.731035995483398438e+01 -3.599770069122314453e+00 2.961887232959270477e-02 -6.120647192001342773e-01 -1.747337579727172852e-01 -7.269130647182464600e-02
2.315000000000000000e+03 1.062077617645263672e+01 -1.352546596527099609e+01 -1.913460146170109510e-04 -1.071780061465688050e-04 -8.955720841186121106e-05 1.540505618322640657e-04
2.316000000000000000e+03 7.176851654052734375e+01 -2.560439491271972656e+01 4.532987368293106556e-04 7.854772567749023438e+00 2.356567621231079102e+00 1.178205758333206177e-02
2.317000000000000000e+03 7.094616699218750000e+01 -3.176622772216796875e+01 -2.787118544802069664e-03 7.656458377838134766e+00 2.296101331710815430e+00 2.700282260775566101e-03
2.318000000000000000e+03 7.326789093017578125e+01 3.024613189697265625e+01 5.532261729240417480e-01 6.733520984649658203e+00 2.186024188995361328e+00 -4.979896843433380127e-01
2.319000000000000000e+03 7.288111877441406250e+01 -3.254148101806640625e+01 -1.506178919225931168e-02 8.059020042419433594e+00 2.413187503814697266e+00 -8.859049528837203979e-03
2.320000000000000000e+03 7.519456863403320312e+00 3.226008605957031250e+01 -1.243293372681364417e-04 3.868223939207382500e-05 -2.569412754382938147e-05 1.161098334705457091e-04
2.321000000000000000e+03 9.608918190002441406e+00 2.687832832336425781e+01 -1.739391009323298931e-04 -2.058261634374503046e-05 -5.835651609231717885e-05 -5.852406957274070010e-06
2.322000000000000000e+03 7.322894287109375000e+01 2.142567825317382812e+01 -3.440535441040992737e-02 7.378925323486328125e+00 2.203356027603149414e+00 -1.151892662048339844e+00
2.323000000000000000e+03 7.435459136962890625e+01 2.304743766784667969e+01 8.182399719953536987e-02 6.944164276123046875e+00 2.107796430587768555e+00 -1.046544194221496582e+00
2.324000000000000000e+03 7.310456085205078125e+01 -2.293501091003417969e+01 -8.293879800476133823e-04 8.136646270751953125e+00 2.440744876861572266e+00 -1.557522686198353767e-03
2.325000000000000000e+03 7.437228393554687500e+01 2.723154449462890625e+01 3.214475512504577637e-01 6.514578342437744141e+00 2.050807714462280273e+00 -8.083154559135437012e-01
2.326000000000000000e+03 7.424994659423828125e+01 -2.630517768859863281e+01 -4.017619881778955460e-03 8.317265510559082031e+00 2.493974208831787109e+00 -5.396151915192604065e-03
2.327000000000000000e+03 7.267024230957031250e+01 -1.640897750854492188e+01 -1.061026286333799362e-02 8.036186218261718750e+00 2.407672882080078125e+00 -2.167255803942680359e-02
2.328000000000000000e+03 7.354402923583984375e+01 1.187225818634033203e+01 -2.212095856666564941e-01 7.842759132385253906e+00 2.286464691162109375e+00 -6.579854488372802734e-01
2.329000000000000000e+03 7.350543975830078125e+01 1.315129375457763672e+01 -2.303046882152557373e-01 7.794658660888671875e+00 2.269306182861328125e+00 -7.325578331947326660e-01
2.330000000000000000e+03 7.298923492431640625e+01 -9.712070465087890625e+00 -3.342607244849205017e-02 8.081466674804687500e+00 2.414412021636962891e+00 -5.950348451733589172e-02
2.331000000000000000e+03 7.299232482910156250e+01 -1.266723394393920898e+00 -9.207221865653991699e-02 8.030151367187500000e+00 2.381423711776733398e+00 -1.690699458122253418e-01
2.332000000000000000e+03 7.299791717529296875e+01 -2.585793495178222656e+00 -7.676327228546142578e-02 8.041182518005371094e+00 2.389325857162475586e+00 -1.435333788394927979e-01
2.333000000000000000e+03 7.471296691894531250e+01 9.405652046203613281e+00 -1.412174105644226074e-01 7.987725734710693359e+00 2.353952407836914062e+00 -4.831137955188751221e-01
2.334000000000000000e+03 7.331649017333984375e+01 1.869311714172363281e+01 -1.687273830175399780e-01 7.541780948638916016e+00 2.211915969848632812e+00 -1.059019327163696289e+00
2.335000000000000000e+03 7.333458709716796875e+01 2.006434631347656250e+01 -1.100265160202980042e-01 7.446833610534667969e+00 2.201042175292968750e+00 -1.108933448791503906e+00
2.336000000000000000e+03 7.344354248046875000e+01 6.710052967071533203e+00 -1.662855744361877441e-01 7.980601787567138672e+00 2.344294786453247070e+00 -4.056954383850097656e-01
2.337000000000000000e+03 7.335569000244140625e+01 5.393787860870361328e+00 -1.529515981674194336e-01 7.996671199798583984e+00 2.353115797042846680e+00 -3.559005260467529297e-01
2.338000000000000000e+03 7.308979797363281250e+01 2.704060792922973633e+00 -1.313835084438323975e-01 8.003487586975097656e+00 2.361631155014038086e+00 -2.708489596843719482e-01
2.339000000000000000e+03 7.393786621093750000e+01 -5.568654537200927734e+00 -4.336210340261459351e-02 8.214924812316894531e+00 2.451468944549560547e+00 -9.640995413064956665e-02
2.340000000000000000e+03 7.416399383544921875e+01 -1.242769527435302734e+01 -1.912659965455532074e-02 8.302993774414062500e+00 2.485160112380981445e+00 -3.712344169616699219e-02
2.341000000000000000e+03 7.454523468017578125e+01 1.606102371215820312e+01 -1.623678654432296753e-01 7.575747013092041016e+00 2.224013805389404297e+00 -8.408872485160827637e-01
2.342000000000000000e+03 7.350178527832031250e+01 8.011833190917968750e+00 -1.815318316221237183e-01 7.955917358398437500e+00 2.332315683364868164e+00 -4.613781869411468506e-01
2.343000000000000000e+03 7.341169738769531250e+01 1.445112323760986328e+01 -2.401984035968780518e-01 7.748434066772460938e+00 2.252470731735229492e+00 -8.119406700134277344e-01
2.344000000000000000e+03 7.374922943115234375e+01 -1.957544136047363281e+01 -6.660243961960077286e-03 8.228936195373535156e+00 2.466682672500610352e+00 -1.099387463182210922e-02
2.345000000000000000e+03 9.191661834716796875e+00 3.485346603393554688e+01 -2.770876453723758459e-04 2.253316779388114810e-05 -7.636634109076112509e-05 1.918199268402531743e-05
2.346000000000000000e+03 7.353655242919921875e+01 9.304085731506347656e+00 -1.958527415990829468e-01 7.924403667449951172e+00 2.318565368652343750e+00 -5.220614671707153320e-01
2.347000000000000000e+03 7.297637176513671875e+01 -2.612078666687011719e+01 -6.512452964670956135e-04 8.077251434326171875e+00 2.422980070114135742e+00 -3.642926225438714027e-03
2.348000000000000000e+03 5.511822223663330078e+00 -1.214596366882324219e+01 4.137131327297538519e-04 4.936851837555877864e-05 1.389245007885619998e-04 9.680267248768359423e-05
2.349000000000000000e+03 1.007006359100341797e+01 9.519124984741210938e+00 -4.689821071224287152e-05 5.521218554349616170e-06 -1.241309746546903625e-05 2.963497718155849725e-05
2.350000000000000000e+03 1.017142963409423828e+01 -1.676766204833984375e+01 -6.524779601022601128e-04 -1.213874929817393422e-05 -1.993850164581090212e-04 5.878934825886972249e-05
2.351000000000000000e+03 2.623498344421386719e+01 2.691364669799804688e+01 -8.667399734258651733e-02 -1.852086633443832397e-01 -8.156479895114898682e-02 -3.042943179607391357e-01
2.352000000000000000e+03 2.545511245727539062e+01 2.434328269958496094e+01 -3.300350531935691833e-02 -3.202170133590698242e-01 -1.059661507606506348e-01 -3.197096586227416992e-01
2.353000000000000000e+03 2.818346977233886719e+01 1.633795738220214844e+01 7.626909017562866211e-02 -3.957161605358123779e-01 -9.583411365747451782e-02 -3.769389688968658447e-01
2.354000000000000000e+03 2.696889495849609375e+01 1.762721252441406250e+01 4.795745387673377991e-02 -4.781484007835388184e-01 -1.290572881698608398e-01 -3.675576746463775635e-01
2.355000000000000000e+03 9.397565841674804688e+00 -2.005327796936035156e+01 5.685518844984471798e-04 1.970324665307998657e-04 2.296753082191571593e-04 -7.642970740562304854e-05
2.356000000000000000e+03 2.725125122070312500e+01 7.741441726684570312e+00 4.010945186018943787e-02 -6.207205057144165039e-01 -1.741833090782165527e-01 -2.059459686279296875e-01
2.357000000000000000e+03 2.722926521301269531e+01 9.171375274658203125e+00 4.904314130544662476e-02 -6.123491525650024414e-01 -1.689918041229248047e-01 -2.324969172477722168e-01
2.358000000000000000e+03 2.978304290771484375e+01 7.968457698822021484e+00 9.253133833408355713e-02 -2.372083961963653564e-01 -4.340311512351036072e-02 -2.132676541805267334e-01
2.359000000000000000e+03 6.248205661773681641e+00 2.405356216430664062e+01 1.043393567670136690e-04 1.611075458640698344e-05 3.613503213273361325e-05 1.034301749314181507e-05
2.360000000000000000e+03 5.977249622344970703e+00 -8.055324554443359375e+00 2.910467446781694889e-04 4.183903729426674545e-05 9.986572695197537541e-05 9.556527220411226153e-05
2.361000000000000000e+03 2.707043266296386719e+01 1.483783817291259766e+01 6.356305629014968872e-02 -5.404956936836242676e-01 -1.430797874927520752e-01 -3.284015953540802002e-01
2.362000000000000000e+03 6.557264328002929688e+00 2.519673538208007812e+01 -1.191769842989742756e-04 -2.413689253444317728e-05 -4.299416468711569905e-05 -1.446652458980679512e-05
2.363000000000000000e+03 7.827849864959716797e+00 -1.553657054901123047e+01 8.390055882045999169e-05 3.575996961444616318e-04 1.324500772170722485e-04 1.284400059375911951e-04
2.364000000000000000e+03 6.043375015258789062e+00 -2.330912590026855469e+01 1.125518465414643288e-03 3.434581449255347252e-04 4.406929947435855865e-04 -1.936198677867650986e-04
2.365000000000000000e+03 5.585931777954101562e+00 -1.940304946899414062e+01 -1.247511478140950203e-03 3.388197510503232479e-04 -2.726075181271880865e-04 -1.712651719572022557e-04
2.366000000000000000e+03 7.598112106323242188e+00 -1.733741760253906250e+01 6.158627802506089211e-04 6.528651283588260412e-05 2.043447748292237520e-04 -1.208471512654796243e-04
2.367000000000000000e+03 8.341447830200195312e+00 2.726899528503417969e+01 1.339377340627834201e-04 3.887969069182872772e-05 5.184522888157516718e-05 1.823484308260958642e-05
2.368000000000000000e+03 6.826925754547119141e+00 2.641967010498046875e+01 1.196995071950368583e-04 3.405119059607386589e-05 4.612520933733321726e-05 1.501456154073821381e-05
2.369000000000000000e+03 1.054297637939453125e+01 -2.236312484741210938e+01 8.582066220697015524e-05 1.171926214738050476e-05 2.926197885244619101e-05 4.675214586313813925e-04
2.370000000000000000e+03 1.118253803253173828e+01 -2.345499420166015625e+01 -4.006214730907231569e-04 2.464614808559417725e-04 -4.624799476005136967e-05 1.656116364756599069e-04
2.371000000000000000e+03 6.179522514343261719e+00 1.980719184875488281e+01 -8.858613114171021152e-07 -1.397778123646276072e-05 -4.459092906472506002e-06 9.553079507895745337e-06
2.372000000000000000e+03 6.372827529907226562e+00 1.460588741302490234e+01 -3.018029929080512375e-05 -4.787349462276324630e-05 -2.341613799217157066e-05 1.860668271547183394e-05
2.373000000000000000e+03 5.200776576995849609e+00 1.208916854858398438e+01 6.512317486340180039e-05 2.993758062075357884e-05 2.851822682714555413e-05 -5.955016604275442660e-06
2.374000000000000000e+03 6.738026618957519531e+00 1.553007984161376953e+01 2.911586852860637009e-05 -4.745206297229742631e-06 7.311199169635074213e-06 -3.163095971103757620e-05
2.375000000000000000e+03 2.550771141052246094e+01 2.950457191467285156e+01 -9.517767280340194702e-02 -1.138808652758598328e-01 -6.271755695343017578e-02 -2.039870321750640869e-01
2.376000000000000000e+03 6.860862255096435547e+00 1.898173713684082031e+01 -3.631033541751094162e-05 3.245583502575755119e-05 -1.156350208475487307e-06 -3.080489113926887512e-05
2.377000000000000000e+03 8.356267929077148438e+00 -1.966064834594726562e+01 -6.522603216581046581e-04 9.602626960258930922e-06 -1.927973062265664339e-04 2.441342803649604321e-04
2.378000000000000000e+03 2.556764793395996094e+01 2.302352714538574219e+01 -1.753912866115570068e-02 -3.732514977455139160e-01 -1.172371879220008850e-01 -3.359043300151824951e-01
2.379000000000000000e+03 2.682959747314453125e+01 2.176423645019531250e+01 -3.707216121256351471e-03 -3.529351353645324707e-01 -1.069926992058753967e-01 -3.914166092872619629e-01
2.380000000000000000e+03 2.707336425781250000e+01 -1.449029827117919922e+01 9.305205312557518482e-04 -5.916612148284912109e-01 -1.772192120552062988e-01 -3.609960898756980896e-02
2.381000000000000000e+03 2.723508262634277344e+01 -1.045038032531738281e+01 3.009714884683489799e-03 -5.854609012603759766e-01 -1.747353672981262207e-01 -5.469996854662895203e-02
2.382000000000000000e+03 9.415826797485351562e+00 -2.299742507934570312e+01 -5.161345470696687698e-04 4.542120732367038727e-04 -1.857674578786827624e-05 -3.587506362237036228e-04
2.383000000000000000e+03 6.991835117340087891e+00 -1.348013782501220703e+01 2.565432514529675245e-04 9.371626947540789843e-05 1.050778591888956726e-04 1.763078325893729925e-04
2.384000000000000000e+03 1.051972389221191406e+01 -2.870294761657714844e+01 1.228131819516420364e-03 1.442451379261910915e-03 8.011749596334993839e-04 -9.366862941533327103e-04
2.385000000000000000e+03 1.188682746887207031e+01 -2.650689315795898438e+01 -9.100449824472889304e-05 -6.273635081015527248e-04 -2.155104011762887239e-04 5.138312699273228645e-04
2.386000000000000000e+03 8.167546272277832031e+00 8.389170646667480469e+00 4.889668343821540475e-05 -8.525379598722793162e-06 1.211139078804990277e-05 -2.966818829008843750e-05
2.387000000000000000e+03 5.894751548767089844e+00 6.152579307556152344e+00 3.309810563223436475e-05 -7.116857887012884021e-06 7.794375051162205637e-06 2.706846862565726042e-05
2.388000000000000000e+03 6.653350830078125000e+00 8.073958396911621094e+00 -5.796168989036232233e-05 2.415879862383008003e-05 -1.014086774375755340e-05 -2.503213181626051664e-05
2.389000000000000000e+03 7.144393920898437500e+01 3.553395843505859375e+01 4.153839647769927979e-01 7.525196552276611328e+00 2.382174015045166016e+00 2.515796422958374023e-01
2.390000000000000000e+03 7.175952148437500000e+01 3.308362960815429688e+01 6.863130331039428711e-01 7.247081756591796875e+00 2.380018472671508789e+00 -6.947728246450424194e-02
2.391000000000000000e+03 9.871841430664062500e+00 1.298245811462402344e+01 -5.181849701330065727e-05 -2.975362986035179347e-05 -2.447163751639891416e-05 -1.530480767542030662e-05
2.392000000000000000e+03 6.741697311401367188e+00 -1.204569053649902344e+01 -3.417428815737366676e-04 -9.793457138584926724e-05 -1.319032307947054505e-04 -1.640680129639804363e-04
2.393000000000000000e+03 8.641893386840820312e+00 9.184770584106445312e+00 -4.042364525957964361e-05 5.373536623665131629e-06 -1.051503295457223430e-05 2.832647260220255703e-05
2.394000000000000000e+03 5.783946514129638672e+00 -6.952296257019042969e+00 -3.105768410023301840e-04 -6.455528637161478400e-05 -1.125396374845877290e-04 -7.107428245944902301e-05
2.395000000000000000e+03 2.576900291442871094e+01 -2.020589447021484375e+01 2.025761827826499939e-02 -8.019770383834838867e-01 -2.345158159732818604e-01 -4.231268540024757385e-02
2.396000000000000000e+03 2.706421089172363281e+01 -1.582779598236083984e+01 1.328882528468966484e-03 -5.879239439964294434e-01 -1.759785264730453491e-01 -2.704795636236667633e-02
2.397000000000000000e+03 2.561217308044433594e+01 -1.604518318176269531e+01 -7.354461704380810261e-04 -8.552286624908447266e-01 -2.567892372608184814e-01 -3.357244655489921570e-02
2.398000000000000000e+03 2.726474761962890625e+01 6.307510852813720703e+00 3.014754876494407654e-02 -6.259468197822570801e-01 -1.787397861480712891e-01 -1.808752864599227905e-01
2.399000000000000000e+03 1.093622016906738281e+01 -3.317356109619140625e+01 1.272707898169755936e-02 7.833841373212635517e-04 4.053139127790927887e-03 -6.933524273335933685e-03
2.400000000000000000e+03 2.711858177185058594e+01 1.343083763122558594e+01 6.598454713821411133e-02 -5.652852058410644531e-01 -1.497901976108551025e-01 -3.049617111682891846e-01
2.401000000000000000e+03 1.110926055908203125e+01 -1.250329589843750000e+01 2.638857113197445869e-04 1.017303875414654613e-04 1.096848282031714916e-04 -8.785463433014228940e-05
2.402000000000000000e+03 9.725358963012695312e+00 -1.416649818420410156e+01 -4.164447018411010504e-04 1.230764610227197409e-04 -8.801047079032287002e-05 -1.367768563795834780e-04
2.403000000000000000e+03 2.586146926879882812e+01 -2.171244049072265625e+01 2.411359921097755432e-02 -7.724044322967529297e-01 -2.244872450828552246e-01 -4.997273534536361694e-02
2.404000000000000000e+03 2.554534149169921875e+01 -2.502391624450683594e+01 1.147826295346021652e-02 -8.123353123664855957e-01 -2.402571141719818115e-01 -5.738520622253417969e-02
2.405000000000000000e+03 2.727405357360839844e+01 3.449037790298461914e+00 2.050056681036949158e-02 -6.326972246170043945e-01 -1.836590021848678589e-01 -1.319956481456756592e-01
2.406000000000000000e+03 2.460322952270507812e+01 -2.877457809448242188e+01 -2.376855909824371338e-02 -9.855552315711975098e-01 -3.027971386909484863e-01 -8.175258338451385498e-02
2.407000000000000000e+03 4.522840499877929688e+01 4.018687057495117188e+01 6.659296154975891113e-01 -2.798526585102081299e-01 1.158230975270271301e-01 1.709298491477966309e-01
2.408000000000000000e+03 2.630028152465820312e+01 -2.860248756408691406e+01 -1.968638785183429718e-02 -6.765773296356201172e-01 -2.088791131973266602e-01 -4.853160306811332703e-02
2.409000000000000000e+03 2.464039611816406250e+01 -2.741997337341308594e+01 3.130606375634670258e-03 -9.708911180496215820e-01 -2.903281450271606445e-01 -7.213826477527618408e-02
2.410000000000000000e+03 1.121820354461669922e+01 -6.745769977569580078e+00 -2.570899378042668104e-04 -2.478813075867947191e-05 -8.456342038698494434e-05 3.485826709948014468e-06
2.411000000000000000e+03 8.795507431030273438e+00 -6.094439029693603516e+00 2.074630319839343429e-04 7.218127575470134616e-05 8.389329013880342245e-05 2.799658614094369113e-05
2.412000000000000000e+03 9.807594299316406250e+00 2.824732017517089844e+01 1.990701712202280760e-04 1.112948666559532285e-05 6.305989518295973539e-05 2.860103631974197924e-05
2.413000000000000000e+03 2.687930679321289062e+01 -2.599590492248535156e+01 6.156343501061201096e-03 -5.952953100204467773e-01 -1.767416894435882568e-01 -5.310840159654617310e-02
2.414000000000000000e+03 7.260355377197265625e+01 -2.171099853515625000e+01 -9.339713491499423981e-03 8.014545440673828125e+00 2.401561737060546875e+00 -6.738411262631416321e-03
2.415000000000000000e+03 5.143431091308593750e+01 3.979961395263671875e+01 7.022159695625305176e-01 2.089579105377197266e+00 8.375385403633117676e-01 -5.665444731712341309e-01
2.416000000000000000e+03 5.125918960571289062e+01 3.835046386718750000e+01 7.512927055358886719e-01 1.511864304542541504e+00 6.789470911026000977e-01 -5.085693001747131348e-01
2.417000000000000000e+03 7.279960632324218750e+01 -1.371046352386474609e+01 -3.188137710094451904e-02 8.054529190063476562e+00 2.406794309616088867e+00 -2.814236842095851898e-02
2.418000000000000000e+03 6.994896888732910156e+00 -3.497795867919921875e+01 1.314614526927471161e-02 -9.820747189223766327e-03 9.976194705814123154e-04 8.721975609660148621e-03
2.419000000000000000e+03 8.571545600891113281e+00 -3.723662185668945312e+01 1.234542578458786011e-02 -1.738529466092586517e-02 -1.511960523203015327e-03 1.874100789427757263e-02
2.420000000000000000e+03 7.307659912109375000e+01 -8.510364532470703125e+00 -3.383186087012290955e-02 8.104633331298828125e+00 2.421240329742431641e+00 -6.704122573137283325e-02
2.421000000000000000e+03 1.145137119293212891e+01 3.682612228393554688e+01 -3.118749300483614206e-04 7.338899740716442466e-05 -7.154578634072095156e-05 -5.379639696911908686e-05
2.422000000000000000e+03 1.002922058105468750e+01 3.272090148925781250e+01 -3.012137603946030140e-04 3.331379048177041113e-05 -8.036998769966885448e-05 2.867559487640392035e-05
2.423000000000000000e+03 8.688058853149414062e+00 3.898928070068359375e+01 -1.140245440183207393e-04 -2.983050035254564136e-05 -4.315651312936097383e-05 -1.376311993226408958e-04
2.424000000000000000e+03 7.433009338378906250e+01 1.366027116775512695e+00 -8.008160442113876343e-02 8.201234817504882812e+00 2.436346054077148438e+00 -2.128277570009231567e-01
2.425000000000000000e+03 1.021471214294433594e+01 -1.202696132659912109e+01 -3.795908705797046423e-04 1.694806815066840500e-05 -1.087928394554182887e-04 1.285722282773349434e-05
2.426000000000000000e+03 9.133145332336425781e+00 -1.310743331909179688e+01 3.561046905815601349e-04 -4.015185550088062882e-05 9.478584979660809040e-05 1.650526537559926510e-04
2.427000000000000000e+03 5.573786544799804688e+01 2.867448234558105469e+01 2.389401197433471680e+00 4.017347812652587891e+00 1.922024607658386230e+00 4.352051258087158203e+00
2.428000000000000000e+03 5.881459045410156250e+01 2.886651420593261719e+01 9.823637604713439941e-01 1.735364723205566406e+01 5.500803470611572266e+00 1.422162771224975586e+00
2.429000000000000000e+03 5.998600387573242188e+01 2.969001007080078125e+01 5.006063461303710938e+00 1.604949569702148438e+01 6.316668033599853516e+00 -1.736681222915649414e+00
2.430000000000000000e+03 5.805872344970703125e+01 2.879426193237304688e+01 6.200659871101379395e-01 1.555994129180908203e+01 4.854002475738525391e+00 4.339548110961914062e+00
2.431000000000000000e+03 5.864176940917968750e+01 3.401368331909179688e+01 -5.849968791007995605e-01 1.571938705444335938e+01 4.540317058563232422e+00 -1.721149206161499023e+00
2.432000000000000000e+03 5.822151565551757812e+01 2.854909706115722656e+01 4.224499762058258057e-01 1.542891120910644531e+01 4.755408287048339844e+00 3.604770898818969727e+00
2.433000000000000000e+03 5.579471206665039062e+01 2.823451042175292969e+01 2.099131822586059570e+00 4.919307231903076172e+00 2.105531692504882812e+00 4.545395374298095703e+00
2.434000000000000000e+03 5.867259216308593750e+01 2.925819587707519531e+01 1.423092365264892578e+00 1.890401077270507812e+01 6.098131179809570312e+00 1.476363539695739746e+00
2.435000000000000000e+03 5.907467269897460938e+01 2.888945388793945312e+01 1.355331420898437500e+00 1.743810844421386719e+01 5.638031959533691406e+00 5.646055340766906738e-01
2.436000000000000000e+03 5.981116104125976562e+01 2.984389686584472656e+01 5.502851009368896484e+00 1.671076774597167969e+01 6.664085388183593750e+00 -1.848276853561401367e+00
2.437000000000000000e+03 5.727010726928710938e+01 3.382321166992187500e+01 3.578394353389739990e-01 1.100874233245849609e+01 3.409974575042724609e+00 -4.792933940887451172e+00
2.438000000000000000e+03 5.982667922973632812e+01 3.351945114135742188e+01 1.364032030105590820e+00 1.618863868713378906e+01 5.265800952911376953e+00 1.420538306236267090e+00
2.439000000000000000e+03 6.032588958740234375e+01 3.274857330322265625e+01 3.982291460037231445e+00 1.537780857086181641e+01 5.808030128479003906e+00 2.454365730285644531e+00
2.440000000000000000e+03 6.149948501586914062e+01 3.087515640258789062e+01 5.886893749237060547e+00 1.234715175628662109e+01 5.470213890075683594e+00 -8.567152172327041626e-02
2.441000000000000000e+03 5.961419296264648438e+01 3.423318099975585938e+01 -5.286925286054611206e-02 1.535479545593261719e+01 4.590577602386474609e+00 3.809985220432281494e-01
2.442000000000000000e+03 5.890653228759765625e+01 3.367497253417968750e+01 -1.027992889285087585e-01 1.703587913513183594e+01 5.079923629760742188e+00 -6.817485690116882324e-01
2.443000000000000000e+03 5.532050704956054688e+01 2.908519363403320312e+01 2.262418746948242188e+00 2.287739515304565430e+00 1.365047454833984375e+00 3.384959697723388672e+00
2.444000000000000000e+03 5.450643539428710938e+01 2.853096008300781250e+01 1.577920317649841309e+00 1.807532668113708496e+00 1.015635848045349121e+00 2.710452318191528320e+00
2.445000000000000000e+03 6.106047439575195312e+01 3.172424697875976562e+01 6.200676441192626953e+00 1.317271232604980469e+01 5.812016963958740234e+00 1.326823830604553223e+00
2.446000000000000000e+03 6.033821868896484375e+01 3.321861648559570312e+01 2.707397222518920898e+00 1.529400920867919922e+01 5.400422096252441406e+00 2.177833557128906250e+00
2.447000000000000000e+03 5.407260894775390625e+01 2.866030502319335938e+01 1.264353990554809570e+00 1.236882805824279785e+00 7.503710389137268066e-01 2.158775568008422852e+00
2.448000000000000000e+03 5.111082458496093750e+01 2.796874427795410156e+01 1.279290765523910522e-01 4.719084799289703369e-01 1.799512654542922974e-01 7.825797796249389648e-01
2.449000000000000000e+03 5.225740432739257812e+01 2.734827613830566406e+01 8.362701535224914551e-01 1.097453594207763672e+00 5.801171064376831055e-01 1.530375599861145020e+00
2.450000000000000000e+03 5.337591934204101562e+01 2.771249389648437500e+01 1.177312016487121582e+00 1.519758582115173340e+00 8.091211915016174316e-01 2.105069875717163086e+00
2.451000000000000000e+03 5.667853927612304688e+01 3.424806594848632812e+01 6.672366857528686523e-01 8.444949150085449219e+00 2.733655929565429688e+00 -4.260403633117675781e+00
2.452000000000000000e+03 5.700899887084960938e+01 3.348791122436523438e+01 1.111006975173950195e+00 9.398765563964843750e+00 3.152931690216064453e+00 -5.372541904449462891e+00
2.453000000000000000e+03 5.656131744384765625e+01 3.515138626098632812e+01 5.447407811880111694e-02 8.016147613525390625e+00 2.421186447143554688e+00 -3.501332759857177734e+00
2.454000000000000000e+03 5.589693832397460938e+01 3.420521545410156250e+01 1.061767578125000000e+00 4.886712551116943359e+00 1.784543991088867188e+00 -3.412441968917846680e+00
2.455000000000000000e+03 5.698543167114257812e+01 3.409650802612304688e+01 4.573499262332916260e-01 9.618517875671386719e+00 3.022760391235351562e+00 -4.625922203063964844e+00
2.456000000000000000e+03 5.459476089477539062e+01 3.817618179321289062e+01 2.882005870342254639e-01 4.767419815063476562e+00 1.516686081886291504e+00 -1.313062787055969238e+00
2.457000000000000000e+03 5.168511199951171875e+01 2.740235900878906250e+01 6.095249056816101074e-01 8.420000672340393066e-01 4.354574680328369141e-01 1.212981462478637695e+00
2.458000000000000000e+03 8.670215606689453125e+00 6.791382312774658203e+00 2.147162922483403236e-05 -1.750066439853981137e-05 1.191289584312471561e-06 1.881834396044723690e-05
2.459000000000000000e+03 5.785653114318847656e+00 7.488687992095947266e+00 5.186599082662723958e-05 -1.750514638843014836e-05 1.030825296766124666e-05 2.800769289024174213e-05
2.460000000000000000e+03 2.715009880065917969e+01 2.887597656250000000e+01 -1.459408551454544067e-01 -9.821198880672454834e-02 -7.324585318565368652e-02 -2.795736789703369141e-01
2.461000000000000000e+03 2.728766822814941406e+01 2.961509704589843750e+01 -1.566677987575531006e-01 -7.796448469161987305e-02 -7.038968801498413086e-02 -2.560327053070068359e-01
2.462000000000000000e+03 4.903686523437500000e+01 2.799991989135742188e+01 -3.870582282543182373e-01 2.516403198242187500e-01 -4.062537476420402527e-02 2.680494189262390137e-01
2.463000000000000000e+03 5.522922515869140625e+01 3.706752014160156250e+01 1.882079094648361206e-01 5.596515655517578125e+00 1.735417127609252930e+00 -2.049691438674926758e+00
2.464000000000000000e+03 2.638903045654296875e+01 2.567248153686523438e+01 -6.788480281829833984e-02 -2.274514436721801758e-01 -8.860087394714355469e-02 -3.398096561431884766e-01
2.465000000000000000e+03 3.125377464294433594e+01 2.931840705871582031e+01 -3.245096802711486816e-01 1.332760229706764221e-02 -9.335462003946304321e-02 -3.487394154071807861e-01
2.466000000000000000e+03 4.750805664062500000e+01 2.801190948486328125e+01 -5.827087759971618652e-01 1.992890089750289917e-01 -1.150259226560592651e-01 4.899765178561210632e-02
2.467000000000000000e+03 4.918495178222656250e+01 2.624526977539062500e+01 3.533636331558227539e-01 6.676756739616394043e-01 3.063117861747741699e-01 6.351407170295715332e-01
2.468000000000000000e+03 3.194842338562011719e+01 2.923035240173339844e+01 -3.555485904216766357e-01 2.720435522496700287e-02 -9.850326925516128540e-02 -3.615793883800506592e-01
2.469000000000000000e+03 3.125954246520996094e+01 2.862749290466308594e+01 -2.986797094345092773e-01 3.733602818101644516e-03 -8.848383277654647827e-02 -3.801609277725219727e-01
2.470000000000000000e+03 2.788419914245605469e+01 2.875815582275390625e+01 -1.679542213678359985e-01 -8.375156670808792114e-02 -7.551173865795135498e-02 -3.036748766899108887e-01
2.471000000000000000e+03 2.789333724975585938e+01 2.788999938964843750e+01 -1.509033739566802979e-01 -1.075523197650909424e-01 -7.753670960664749146e-02 -3.337233662605285645e-01
2.472000000000000000e+03 5.278837585449218750e+01 2.727032279968261719e+01 1.046129345893859863e+00 1.429250359535217285e+00 7.426139116287231445e-01 1.869599223136901855e+00
2.473000000000000000e+03 1.035008525848388672e+01 6.570423603057861328e+00 -3.998718239017762244e-05 -1.753900141920894384e-05 -1.725785477901808918e-05 -4.094600626558531076e-06
2.474000000000000000e+03 3.332868194580078125e+01 2.901013374328613281e+01 -4.130077064037322998e-01 5.189936235547065735e-02 -1.083325073122978210e-01 -3.848289549350738525e-01
2.475000000000000000e+03 3.896442413330078125e+01 2.791270256042480469e+01 -5.657456517219543457e-01 1.358184963464736938e-01 -1.289781481027603149e-01 -4.075678288936614990e-01
2.476000000000000000e+03 3.691950988769531250e+01 2.903006935119628906e+01 -6.123247742652893066e-01 1.025341600179672241e-01 -1.529371887445449829e-01 -3.794767856597900391e-01
2.477000000000000000e+03 3.669415283203125000e+01 2.756332969665527344e+01 -4.418107271194458008e-01 1.112170964479446411e-01 -9.917809069156646729e-02 -4.486868977546691895e-01
2.478000000000000000e+03 7.193674564361572266e+00 -5.940198421478271484e+00 -2.500579967090743594e-06 1.826338266255334020e-04 5.403997420216910541e-05 1.868079125415533781e-04
2.479000000000000000e+03 3.620307922363281250e+01 2.916723442077636719e+01 -5.834352970123291016e-01 9.513281285762786865e-02 -1.464907377958297729e-01 -3.761614561080932617e-01
2.480000000000000000e+03 3.611421585083007812e+01 2.845464134216308594e+01 -5.101680159568786621e-01 9.728036075830459595e-02 -1.238662973046302795e-01 -4.152652323246002197e-01
2.481000000000000000e+03 4.274268722534179688e+01 2.788322830200195312e+01 -6.607011556625366211e-01 1.631408184766769409e-01 -1.492681056261062622e-01 -2.955477833747863770e-01
2.482000000000000000e+03 4.483233261108398438e+01 2.573061561584472656e+01 -5.239338055253028870e-02 3.659758865833282471e-01 9.407474845647811890e-02 -6.830767542123794556e-02
2.483000000000000000e+03 3.471442794799804688e+01 2.874418449401855469e+01 -4.652692973613739014e-01 7.502871751785278320e-02 -1.170721724629402161e-01 -4.035799801349639893e-01
2.484000000000000000e+03 4.419282913208007812e+01 2.678040313720703125e+01 -3.490206301212310791e-01 2.472062408924102783e-01 -3.054431453347206116e-02 -1.938199847936630249e-01
2.485000000000000000e+03 3.401959228515625000e+01 2.888121414184570312e+01 -4.400901794433593750e-01 6.415063887834548950e-02 -1.127818599343299866e-01 -3.943694233894348145e-01
2.486000000000000000e+03 3.598831939697265625e+01 2.771928787231445312e+01 -4.316861927509307861e-01 9.852079302072525024e-02 -9.994962066411972046e-02 -4.466476142406463623e-01
2.487000000000000000e+03 4.187578964233398438e+01 2.734660720825195312e+01 -5.272710323333740234e-01 1.793446838855743408e-01 -1.043779030442237854e-01 -3.374541103839874268e-01
2.488000000000000000e+03 1.024029350280761719e+01 -8.065958023071289062e+00 -2.608109498396515846e-04 -3.406356336199678481e-05 -8.846235868986696005e-05 -1.830789187806658447e-05
2.489000000000000000e+03 4.262892150878906250e+01 2.717557525634765625e+01 -4.869140982627868652e-01 1.969682723283767700e-01 -8.698374778032302856e-02 -3.017584383487701416e-01
2.490000000000000000e+03 5.357702636718750000e+01 3.732801818847656250e+01 7.065241336822509766e-01 2.931178092956542969e+00 1.091310620307922363e+00 -1.326074600219726562e+00
2.491000000000000000e+03 1.129113769531250000e+01 5.853047370910644531e+00 -4.336534766480326653e-05 -1.624378273845650256e-05 -1.788273948477581143e-05 -6.036012564436532557e-06
2.492000000000000000e+03 1.103450298309326172e+01 7.492696762084960938e+00 -1.837552372307982296e-05 -1.751840318320319057e-05 -1.076817807188490406e-05 -2.909751401602989063e-06
2.493000000000000000e+03 4.348033905029296875e+01 2.446136856079101562e+01 9.808619320392608643e-02 4.296780526638031006e-01 1.583292782306671143e-01 -1.202608793973922729e-01
2.494000000000000000e+03 4.977246856689453125e+01 2.742885208129882812e+01 4.600797593593597412e-02 4.357515871524810791e-01 1.445278674364089966e-01 5.395200848579406738e-01
2.495000000000000000e+03 5.044506454467773438e+01 2.743825340270996094e+01 2.076574116945266724e-01 5.295832753181457520e-01 2.211722135543823242e-01 7.271630764007568359e-01
2.496000000000000000e+03 4.831477737426757812e+01 2.739119720458984375e+01 -2.072520852088928223e-01 3.173787593841552734e-01 3.303800150752067566e-02 2.377734929323196411e-01
2.497000000000000000e+03 4.595821762084960938e+01 2.653039550781250000e+01 -1.645694077014923096e-01 3.235479295253753662e-01 4.769355803728103638e-02 -5.102825816720724106e-03
2.498000000000000000e+03 4.754222488403320312e+01 2.736508560180664062e+01 -2.968453466892242432e-01 2.795388698577880859e-01 -5.191936157643795013e-03 1.194384545087814331e-01
2.499000000000000000e+03 1.090194225311279297e+01 -5.700140476226806641e+00 2.619983570184558630e-04 -5.756795872002840042e-05 6.132911948952823877e-05 6.311305332928895950e-05
2.500000000000000000e+03 1.082742691040039062e+01 -4.867978096008300781e+00 -2.311755961272865534e-04 -2.309127194166649133e-05 -7.628006278537213802e-05 -2.721987584664020687e-05
2.501000000000000000e+03 9.076404571533203125e+00 1.452725028991699219e+01 -4.539111614576540887e-05 -1.209141737490426749e-05 -1.724475987430196255e-05 -1.742881249811034650e-05
2.502000000000000000e+03 6.702865600585937500e+00 1.718955421447753906e+01 -1.435660124116111547e-05 1.888402221084106714e-05 1.358226199954515323e-06 -4.490055653150193393e-05
2.503000000000000000e+03 8.571676254272460938e+00 -1.438538169860839844e+01 3.948172379750758410e-04 -5.502940621227025986e-05 1.019363480736501515e-04 1.349068625131621957e-04
2.504000000000000000e+03 9.072449684143066406e+00 1.000706958770751953e+01 5.339339986676350236e-05 -1.216961322825227398e-06 1.565293132443912327e-05 -2.118084194080438465e-05
2.505000000000000000e+03 5.204935836791992188e+01 4.155519866943359375e+01 5.918002128601074219e-01 3.026084661483764648e+00 1.085365414619445801e+00 -2.606318593025207520e-01
2.506000000000000000e+03 2.727834701538085938e+01 -7.955352663993835449e-01 2.877574041485786438e-02 -6.274435520172119141e-01 -1.796003431081771851e-01 -8.796631544828414917e-02
2.507000000000000000e+03 2.983653831481933594e+01 5.107822418212890625e+00 7.159770280122756958e-02 -2.113704830408096313e-01 -4.193183407187461853e-02 -1.553152799606323242e-01
2.508000000000000000e+03 6.615763664245605469e+00 9.288690567016601562e+00 6.884072263346752152e-07 1.281779532291693613e-05 4.051860742038115859e-06 2.108838316416949965e-06
2.509000000000000000e+03 9.657388687133789062e+00 1.189729785919189453e+01 5.262672493699938059e-05 2.668729939614422619e-05 2.379420766374096274e-05 2.543012215028284118e-06
2.510000000000000000e+03 7.206018066406250000e+01 2.110822296142578125e+01 -8.206096291542053223e-02 7.629862785339355469e+00 2.264340639114379883e+00 -1.216092944145202637e+00
2.511000000000000000e+03 1.030787754058837891e+01 -1.025067996978759766e+01 -1.861930795712396502e-04 -1.440795895177870989e-04 -9.908180072670802474e-05 5.394170511863194406e-05
2.512000000000000000e+03 1.029326725006103516e+01 -9.168520927429199219e+00 2.140719443559646606e-04 1.203788488055579364e-04 1.003352372208610177e-04 4.650123810279183090e-05
2.513000000000000000e+03 1.011484622955322266e+01 1.901607131958007812e+01 5.020691560275736265e-07 2.875188511097803712e-05 8.776186405157204717e-06 -6.203136308613466099e-06
2.514000000000000000e+03 7.335192203521728516e+00 8.772572517395019531e+00 -3.294125917818746530e-06 -1.091110425477381796e-05 -4.261568847141461447e-06 2.445394420647062361e-05
2.515000000000000000e+03 7.224071502685546875e+01 -1.933729934692382812e+01 -1.692042686045169830e-02 7.959191322326660156e+00 2.382681131362915039e+00 -6.002047099173069000e-03
2.516000000000000000e+03 1.134717655181884766e+01 -7.960471630096435547e+00 2.502065617591142654e-04 4.776313289767131209e-05 8.939090184867382050e-05 -9.475127626501489431e-06
2.517000000000000000e+03 9.217885971069335938e+00 -8.181719779968261719e+00 2.440016542095690966e-04 -1.439239531464409083e-05 6.888277857797220349e-05 -2.475023393344599754e-06
2.518000000000000000e+03 7.293880462646484375e+01 4.006429016590118408e-02 -1.017657443881034851e-01 8.019846916198730469e+00 2.375424385070800781e+00 -2.003584951162338257e-01
2.519000000000000000e+03 7.080027008056640625e+01 -3.465021133422851562e+00 -9.998778998851776123e-02 7.694381237030029297e+00 2.278317928314208984e+00 -1.431439071893692017e-01
2.520000000000000000e+03 8.075770378112792969e+00 2.597826957702636719e+01 -1.291445078095421195e-04 -3.206394467270001769e-05 -4.836253356188535690e-05 -7.862000529712531716e-06
2.521000000000000000e+03 8.957721710205078125e+00 2.416401863098144531e+01 -1.176284495159052312e-04 -2.623327964101918042e-05 -4.315851765568368137e-05 1.395517028868198395e-05
2.522000000000000000e+03 7.323416137695312500e+01 4.057455062866210938e+00 -1.403132230043411255e-01 8.003324508666992188e+00 2.358903646469116211e+00 -3.111932277679443359e-01
2.523000000000000000e+03 8.322051048278808594e+00 1.719369697570800781e+01 -1.608418460818938911e-05 1.275708837056299672e-05 -9.981287121263449080e-07 -1.931268525368068367e-05
2.524000000000000000e+03 9.937354087829589844e+00 1.696787071228027344e+01 -3.674992331070825458e-05 -1.535166302346624434e-05 -1.563047590025234967e-05 -1.854809306678362191e-05
2.525000000000000000e+03 2.718969917297363281e+01 -1.851581954956054688e+01 8.372400887310504913e-03 -5.513111352920532227e-01 -1.628816127777099609e-01 -3.158748522400856018e-02
2.526000000000000000e+03 6.260567188262939453e+00 -9.276442527770996094e+00 -3.108703822363168001e-04 -4.999580414732918143e-05 -1.082598537323065102e-04 -9.120272443396970630e-05
2.527000000000000000e+03 7.320911407470703125e+01 2.716541290283203125e+01 4.361833333969116211e-01 6.890206813812255859e+00 2.197916984558105469e+00 -9.108893275260925293e-01
2.528000000000000000e+03 7.184321594238281250e+01 2.596070480346679688e+01 4.557917714118957520e-01 7.410878181457519531e+00 2.360001087188720703e+00 -1.128413558006286621e+00
2.529000000000000000e+03 7.321800994873046875e+01 2.841190528869628906e+01 5.128925442695617676e-01 6.785049915313720703e+00 2.189382791519165039e+00 -7.628173828125000000e-01
2.530000000000000000e+03 7.211791992187500000e+01 2.727207565307617188e+01 5.871251225471496582e-01 7.237920761108398438e+00 2.347513675689697266e+00 -9.779962301254272461e-01
2.531000000000000000e+03 7.207885742187500000e+01 -2.351709556579589844e+01 -4.323184024542570114e-03 7.907774925231933594e+00 2.371035575866699219e+00 2.880478510633111000e-03
2.532000000000000000e+03 7.334517669677734375e+01 -2.496922302246093750e+01 -4.341388586908578873e-03 8.145444869995117188e+00 2.442331075668334961e+00 -2.982039586640894413e-04
2.533000000000000000e+03 9.772896766662597656e+00 -1.905108642578125000e+01 -7.080008508637547493e-04 -7.130672747734934092e-05 -2.337922778679057956e-04 1.315339468419551849e-04
2.534000000000000000e+03 8.904477119445800781e+00 -2.100826454162597656e+01 -1.186257577501237392e-03 5.137015250511467457e-04 -2.017668011831119657e-04 2.021533582592383027e-04
2.535000000000000000e+03 7.232887268066406250e+01 1.290097141265869141e+01 -2.989428639411926270e-01 7.819930553436279297e+00 2.256296396255493164e+00 -7.496962547302246094e-01
2.536000000000000000e+03 7.235745239257812500e+01 9.196606636047363281e+00 -2.534543871879577637e-01 7.862210273742675781e+00 2.282626867294311523e+00 -5.382229685783386230e-01
2.537000000000000000e+03 7.278746032714843750e+01 -1.504525184631347656e+01 -2.329406328499317169e-02 8.044471740722656250e+00 2.406353235244750977e+00 -2.307092584669589996e-02
2.538000000000000000e+03 7.129917144775390625e+01 -1.617021751403808594e+01 -2.431067265570163727e-02 7.799841880798339844e+00 2.332659244537353516e+00 -2.540107257664203644e-02
2.539000000000000000e+03 7.053997802734375000e+01 2.980184793472290039e+00 -2.083051353693008423e-01 7.686936378479003906e+00 2.243589401245117188e+00 -2.830147743225097656e-01
2.540000000000000000e+03 7.174579620361328125e+01 -9.508642196655273438e+00 -4.239282011985778809e-02 7.850576877593994141e+00 2.342455148696899414e+00 -5.966425314545631409e-02
2.541000000000000000e+03 7.131688690185546875e+01 1.616425895690917969e+01 -3.512564599514007568e-01 7.850973129272460938e+00 2.249914884567260742e+00 -9.645398259162902832e-01
2.542000000000000000e+03 7.130165863037109375e+01 -4.824095726013183594e+00 -7.549616694450378418e-02 7.776983261108398438e+00 2.310446262359619141e+00 -1.211561486124992371e-01
2.543000000000000000e+03 7.194384002685546875e+01 1.732231712341308594e+01 -2.886469066143035889e-01 7.783967018127441406e+00 2.248595952987670898e+00 -1.035801410675048828e+00
2.544000000000000000e+03 7.322919464111328125e+01 1.580335998535156250e+01 -2.408991158008575439e-01 7.703928470611572266e+00 2.238908767700195312e+00 -9.064214825630187988e-01
2.545000000000000000e+03 7.222488403320312500e+01 1.410153865814208984e+01 -3.071796596050262451e-01 7.803388118743896484e+00 2.248862504959106445e+00 -8.252238631248474121e-01
2.546000000000000000e+03 7.179768371582031250e+01 -6.591564178466796875e+00 -6.348906457424163818e-02 7.871014118194580078e+00 2.342257499694824219e+00 -9.582551568746566772e-02
2.547000000000000000e+03 7.251022338867187500e+01 -5.323163986206054688e+00 -6.196877732872962952e-02 7.973678112030029297e+00 2.373512744903564453e+00 -1.091747656464576721e-01
2.548000000000000000e+03 6.738156318664550781e+00 2.245681762695312500e+01 7.106963312253355980e-05 1.830079781939275563e-06 2.186991514463443309e-05 -4.484975579543970525e-05
2.549000000000000000e+03 2.720013809204101562e+01 1.059786891937255859e+01 5.841535329818725586e-02 -6.012693047523498535e-01 -1.628561764955520630e-01 -2.566291689872741699e-01
2.550000000000000000e+03 7.033017730712890625e+01 2.912982368469238281e+01 1.032889485359191895e+00 7.733909606933593750e+00 2.630039691925048828e+00 -7.563701868057250977e-01
2.551000000000000000e+03 2.692043876647949219e+01 1.901273918151855469e+01 3.464085981249809265e-02 -4.405076205730438232e-01 -1.217600256204605103e-01 -3.812322914600372314e-01
2.552000000000000000e+03 3.126906204223632812e+01 2.796059608459472656e+01 -2.695335149765014648e-01 -6.459156982600688934e-03 -8.279780298471450806e-02 -4.072639644145965576e-01
2.553000000000000000e+03 2.960332679748535156e+01 1.225539398193359375e+01 1.126048937439918518e-01 -2.739340662956237793e-01 -4.839875549077987671e-02 -3.072546720504760742e-01
2.554000000000000000e+03 2.922690200805664062e+01 1.913671112060546875e+01 5.853497982025146484e-02 -2.611906230449676514e-01 -6.079669296741485596e-02 -4.369758963584899902e-01
2.555000000000000000e+03 8.788146018981933594e+00 -1.767493629455566406e+01 -7.743784226477146149e-04 7.843622370273806155e-06 -2.299604529980570078e-04 -7.256018579937517643e-05
2.556000000000000000e+03 2.807291793823242188e+01 1.908458328247070312e+01 4.516049101948738098e-02 -3.492381572723388672e-01 -9.122329950332641602e-02 -4.141141176223754883e-01
2.557000000000000000e+03 8.550407409667968750e+00 -1.868217277526855469e+01 3.980966284871101379e-04 4.400309699121862650e-04 2.514382649678736925e-04 1.451936841476708651e-04
2.558000000000000000e+03 7.278724670410156250e+01 -1.237202835083007812e+01 -2.673486620187759399e-02 8.058887481689453125e+00 2.409645795822143555e+00 -4.171162843704223633e-02
2.559000000000000000e+03 7.374727725982666016e+00 -2.483989334106445312e+01 1.461747102439403534e-03 5.760489148087799549e-04 6.113388226367533207e-04 -2.672133559826761484e-04
2.560000000000000000e+03 8.208314895629882812e+00 1.535504531860351562e+01 1.573090230522211641e-05 -1.505163436377188191e-05 2.037801181131726480e-07 8.689058631716761738e-06
2.561000000000000000e+03 7.714752197265625000e+00 1.993982124328613281e+01 8.118537152768112719e-06 -2.945058986369986087e-05 -6.399615813279524446e-06 3.234531686757691205e-05
2.562000000000000000e+03 6.433944702148437500e+00 -2.010895156860351562e+01 1.646659256948623806e-05 -6.296485662460327148e-05 -1.394947958033299074e-05 -3.607898543123155832e-04
2.563000000000000000e+03 7.475044727325439453e+00 -1.462676429748535156e+01 -1.829986285883933306e-04 5.671372127835638821e-05 -3.788547110161744058e-05 -3.312087501399219036e-04
2.564000000000000000e+03 8.883353233337402344e+00 -1.549286651611328125e+01 -4.784512275364249945e-04 -1.862215503933839500e-05 -1.491220173193141818e-04 7.159271149248525035e-07
2.565000000000000000e+03 9.505780220031738281e+00 -1.139490127563476562e+01 1.089202123694121838e-04 -8.755714952712878585e-05 6.408919034583959728e-06 -6.795478111598640680e-05
2.566000000000000000e+03 2.831326866149902344e+01 1.354441642761230469e+01 8.791415393352508545e-02 -4.221806824207305908e-01 -1.002799570560455322e-01 -3.263664543628692627e-01
2.567000000000000000e+03 2.790911674499511719e+01 2.954409599304199219e+01 -1.811330914497375488e-01 -6.340966373682022095e-02 -7.336282730102539062e-02 -2.737219631671905518e-01
2.568000000000000000e+03 2.732909774780273438e+01 -4.968718528747558594e+00 2.569077350199222565e-02 -6.037952303886413574e-01 -1.734313368797302246e-01 -6.954330205917358398e-02
2.569000000000000000e+03 2.995613479614257812e+01 -1.795899748802185059e+00 4.520249739289283752e-02 -1.428297013044357300e-01 -2.928816154599189758e-02 -6.730543076992034912e-02
2.570000000000000000e+03 2.687679862976074219e+01 2.039524269104003906e+01 1.717024855315685272e-02 -3.982159793376922607e-01 -1.143137216567993164e-01 -3.901235163211822510e-01
2.571000000000000000e+03 9.899453163146972656e+00 -2.415786552429199219e+01 4.886168753728270531e-04 5.595678812824189663e-04 3.144554211758077145e-04 2.218197623733431101e-04
2.572000000000000000e+03 9.808093070983886719e+00 -2.148691749572753906e+01 1.418118044966831803e-04 2.591613447293639183e-04 1.202919447678141296e-04 -1.520145160611718893e-04
2.573000000000000000e+03 8.992789268493652344e+00 -2.612229347229003906e+01 1.260841498151421547e-03 9.157836902886629105e-04 6.529875681735575199e-04 -1.963976683327928185e-05
2.574000000000000000e+03 7.128618621826171875e+01 -1.234747982025146484e+01 -3.816872462630271912e-02 7.762823104858398438e+00 2.317396402359008789e+00 -4.056833684444427490e-02
2.575000000000000000e+03 2.837541007995605469e+01 1.213472175598144531e+01 8.692140877246856689e-02 -4.282847046852111816e-01 -1.024089902639389038e-01 -2.984425127506256104e-01
2.576000000000000000e+03 9.840109825134277344e+00 -5.919712543487548828e+00 -2.126865292666479945e-04 -2.250941179227083921e-05 -7.055878086248412728e-05 -3.171707066940143704e-05
2.577000000000000000e+03 7.935627937316894531e+00 -7.503985881805419922e+00 1.371151483908761293e-05 9.547905938234180212e-05 3.275717244832776487e-05 3.467654096311889589e-05
2.578000000000000000e+03 8.909920692443847656e+00 7.970710277557373047e+00 1.948375756910536438e-05 -1.274700389330973849e-05 2.021026148213422857e-06 1.293124932999489829e-05
2.579000000000000000e+03 6.972206115722656250e+00 1.001637935638427734e+01 -3.816057505900971591e-05 7.952712621772661805e-06 -9.062358003575354815e-06 -4.658924808609299362e-06
2.580000000000000000e+03 6.116941452026367188e+00 1.048483371734619141e+01 3.649395148386247456e-05 5.479595984070328996e-06 1.259206419490510598e-05 5.346717443899251521e-06
2.581000000000000000e+03 2.923660659790039062e+01 2.175128173828125000e+01 5.049187457188963890e-04 -2.145807147026062012e-01 -6.422273814678192139e-02 -4.583175182342529297e-01
2.582000000000000000e+03 4.900038909912109375e+01 3.957497787475585938e+01 7.588155865669250488e-01 8.197514414787292480e-01 4.735701084136962891e-01 1.043621897697448730e-01
2.583000000000000000e+03 2.733808898925781250e+01 -6.322956085205078125e+00 2.084950357675552368e-02 -5.935477018356323242e-01 -1.718094646930694580e-01 -6.640048325061798096e-02
2.584000000000000000e+03 2.803992271423339844e+01 2.044386482238769531e+01 2.359793893992900848e-02 -3.184534311294555664e-01 -8.845665305852890015e-02 -4.250356853008270264e-01
2.585000000000000000e+03 2.802690696716308594e+01 2.180207443237304688e+01 -3.113258862867951393e-03 -2.820785641670227051e-01 -8.555755019187927246e-02 -4.309083223342895508e-01
2.586000000000000000e+03 2.852895927429199219e+01 6.423480510711669922e+00 5.564757063984870911e-02 -4.243789017200469971e-01 -1.106194034218788147e-01 -1.846238225698471069e-01
2.587000000000000000e+03 8.535643577575683594e+00 3.101723480224609375e+01 -5.738446998293511569e-05 -2.932684765255544335e-05 -2.601339474495034665e-05 -1.247034670086577535e-04
2.588000000000000000e+03 3.031877517700195312e+01 -1.011679553985595703e+01 1.441677752882242203e-02 -6.195833906531333923e-03 2.466283040121197701e-03 -3.227546438574790955e-02
2.589000000000000000e+03 2.881101989746093750e+01 -8.893340110778808594e+00 1.449654344469308853e-02 -2.987521886825561523e-01 -8.527669310569763184e-02 -4.821502417325973511e-02
2.590000000000000000e+03 7.288588714599609375e+01 -2.898798751831054688e+01 -6.270634476095438004e-04 8.029787063598632812e+00 2.408747911453247070e+00 3.699333639815449715e-03
2.591000000000000000e+03 7.083515930175781250e+01 -1.887897872924804688e+01 -2.986331470310688019e-02 7.684315681457519531e+00 2.296335697174072266e+00 -1.104630809277296066e-02
2.592000000000000000e+03 7.226680755615234375e+01 6.677333831787109375e+00 -2.155342996120452881e-01 7.876180648803710938e+00 2.298193931579589844e+00 -4.208746850490570068e-01
2.593000000000000000e+03 2.727131271362304688e+01 4.875402927398681641e+00 2.415171079337596893e-02 -6.292729377746582031e-01 -1.815363764762878418e-01 -1.536834388971328735e-01
2.594000000000000000e+03 7.491957187652587891e+00 1.235034751892089844e+01 3.765548535739071667e-05 5.050830804975703359e-05 2.644913911353796721e-05 3.260300218244083226e-06
2.595000000000000000e+03 6.683978080749511719e+00 1.123133182525634766e+01 1.500799407949671149e-05 3.328481761855073273e-05 1.448784405511105433e-05 1.561349563417024910e-05
2.596000000000000000e+03 2.711623573303222656e+01 -1.315842151641845703e+01 -5.909714847803115845e-03 -5.879331231117248535e-01 -1.781528592109680176e-01 -3.967951610684394836e-02
2.597000000000000000e+03 8.571369171142578125e+00 2.855374336242675781e+01 -1.579892996232956648e-04 -3.754231875063851476e-05 -5.865948696737177670e-05 -4.652315692510455847e-05
2.598000000000000000e+03 2.863744163513183594e+01 -2.022150516510009766e+00 3.899867832660675049e-02 -3.771917819976806641e-01 -1.014579311013221741e-01 -7.598189264535903931e-02
2.599000000000000000e+03 8.815135955810546875e+00 -3.019349670410156250e+01 5.976955406367778778e-03 -1.001378288492560387e-03 1.492673181928694248e-03 -6.480960291810333729e-04
2.600000000000000000e+03 7.146263885498046875e+01 1.373760342597961426e+00 -1.569023281335830688e-01 7.788240909576416016e+00 2.289401531219482422e+00 -2.378361523151397705e-01
2.601000000000000000e+03 7.143463897705078125e+01 -2.951507270336151123e-02 -1.371395140886306763e-01 7.784339904785156250e+00 2.294160127639770508e+00 -2.058222740888595581e-01
2.602000000000000000e+03 2.988343048095703125e+01 2.944328498840332031e+01 -2.640726566314697266e-01 -1.660673506557941437e-02 -8.420381695032119751e-02 -3.211043775081634521e-01
2.603000000000000000e+03 2.857132530212402344e+01 7.646746039390563965e-01 3.667588159441947937e-02 -4.040381908416748047e-01 -1.102086976170539856e-01 -9.636404365301132202e-02
2.604000000000000000e+03 2.855530166625976562e+01 3.575299739837646484e+00 4.128228873014450073e-02 -4.154700040817260742e-01 -1.122563183307647705e-01 -1.327605694532394409e-01
2.605000000000000000e+03 2.751737022399902344e+01 -2.141743659973144531e+01 1.560411136597394943e-02 -4.737954437732696533e-01 -1.374574005603790283e-01 -3.504611924290657043e-02
2.606000000000000000e+03 7.207917022705078125e+01 -8.325868606567382812e+00 -5.177617445588111877e-02 7.897335052490234375e+00 2.353667736053466797e+00 -7.279095053672790527e-02
2.607000000000000000e+03 1.149588203430175781e+01 3.231986999511718750e+01 2.595292171463370323e-04 6.066794867365388200e-06 7.967880810610949993e-05 2.224333184130955487e-05
2.608000000000000000e+03 1.313372611999511719e+01 3.344262695312500000e+01 3.495147975627332926e-04 -5.997512562316842377e-05 8.686190267326310277e-05 -7.013855793047696352e-06
2.609000000000000000e+03 1.167350101470947266e+01 3.506607818603515625e+01 2.961182326544076204e-04 -8.753546717343851924e-05 6.257483619265258312e-05 1.532544556539505720e-04
2.610000000000000000e+03 2.859276008605957031e+01 -6.283973455429077148e-01 3.604375571012496948e-02 -3.944016098976135254e-01 -1.075073555111885071e-01 -8.432552218437194824e-02
2.611000000000000000e+03 2.591633605957031250e+01 -2.337589836120605469e+01 1.638941839337348938e-02 -7.516255974769592285e-01 -2.205708473920822144e-01 -5.070884525775909424e-02
2.612000000000000000e+03 2.393787002563476562e+01 -2.475301170349121094e+01 1.313281245529651642e-02 -1.125594615936279297e+00 -3.337385356426239014e-01 -5.507836863398551941e-02
2.613000000000000000e+03 8.636037826538085938e+00 3.339924240112304688e+01 2.168629289371892810e-04 -3.844518505502492189e-05 5.352532389224506915e-05 -9.169577970169484615e-05
2.614000000000000000e+03 7.151934814453125000e+01 -1.491619110107421875e+01 -1.971002109348773956e-02 7.826266288757324219e+00 2.341966867446899414e+00 -3.245892748236656189e-02
2.615000000000000000e+03 2.933928489685058594e+01 -2.846606826782226562e+01 -5.816790740936994553e-03 -6.616620719432830811e-02 -2.159489877521991730e-02 -2.707192301750183105e-02
2.616000000000000000e+03 4.708707809448242188e+01 3.857996749877929688e+01 6.300740838050842285e-01 8.279056288301944733e-03 1.915059387683868408e-01 3.867529034614562988e-01
2.617000000000000000e+03 7.081739807128906250e+01 -2.185759544372558594e+01 -1.427679974585771561e-02 7.691964626312255859e+00 2.303306341171264648e+00 -5.606588907539844513e-03
2.618000000000000000e+03 7.163902282714843750e+01 -2.072059440612792969e+01 -5.072032101452350616e-03 7.854628086090087891e+00 2.354866743087768555e+00 -2.185987541452050209e-03
2.619000000000000000e+03 6.947836303710937500e+01 3.074755096435546875e+01 1.311061501502990723e+00 8.005523681640625000e+00 2.794975519180297852e+00 -4.105893373489379883e-01
2.620000000000000000e+03 2.608208847045898438e+01 -3.227841186523437500e+01 -3.239575400948524475e-02 -6.352921724319458008e-01 -2.003063857555389404e-01 -4.001681879162788391e-02
2.621000000000000000e+03 7.180693817138671875e+01 -3.006900405883789062e+01 9.157281019724905491e-04 7.849205493927001953e+00 2.355036258697509766e+00 4.476074129343032837e-03
2.622000000000000000e+03 7.264365386962890625e+01 -2.757652091979980469e+01 -6.220288341864943504e-04 8.003786087036132812e+00 2.400949239730834961e+00 3.488034242764115334e-03
2.623000000000000000e+03 7.077489852905273438e+00 2.769295883178710938e+01 -1.253712689504027367e-04 -4.322234963183291256e-05 -5.057808448327705264e-05 -1.258834436157485470e-05
2.624000000000000000e+03 9.784976005554199219e+00 -1.270304775238037109e+01 1.763079490046948195e-04 4.221440394758246839e-05 6.555670552188530564e-05 8.255960710812360048e-05
2.625000000000000000e+03 9.128480911254882812e+00 3.675947952270507812e+01 2.125473256455734372e-04 3.433013034737086855e-06 6.479409785242751241e-05 9.188270632876083255e-05
2.626000000000000000e+03 5.945809555053710938e+01 2.873863410949707031e+01 1.591713786125183105e+00 1.645873451232910156e+01 5.415134906768798828e+00 -2.027131766080856323e-01
2.627000000000000000e+03 5.488605117797851562e+01 2.838463401794433594e+01 1.813184976577758789e+00 2.475644826889038086e+00 1.286648869514465332e+00 3.222418546676635742e+00
2.628000000000000000e+03 5.802468109130859375e+01 2.838692283630371094e+01 4.344752430915832520e-01 1.427138710021972656e+01 4.411758899688720703e+00 4.072051048278808594e+00
2.629000000000000000e+03 5.843949890136718750e+01 2.826214408874511719e+01 2.509858608245849609e-01 1.504320240020751953e+01 4.588256359100341797e+00 2.921180009841918945e+00
2.630000000000000000e+03 5.998865890502929688e+01 2.929171180725097656e+01 3.487797975540161133e+00 1.592088985443115234e+01 5.822606563568115234e+00 -1.429218053817749023e+00
2.631000000000000000e+03 5.927175521850585938e+01 2.894281578063964844e+01 1.691664457321166992e+00 1.711400413513183594e+01 5.641700267791748047e+00 -4.950980655848979950e-03
2.632000000000000000e+03 5.879946136474609375e+01 3.445122528076171875e+01 -7.346939444541931152e-01 1.474008274078369141e+01 4.201616764068603516e+00 -1.399246335029602051e+00
2.633000000000000000e+03 5.538510894775390625e+01 2.852149200439453125e+01 2.165205478668212891e+00 3.234388351440429688e+00 1.619878172874450684e+00 3.849558115005493164e+00
2.634000000000000000e+03 6.091611099243164062e+01 3.259310150146484375e+01 4.573798656463623047e+00 1.373058223724365234e+01 5.491313934326171875e+00 2.128717184066772461e+00
2.635000000000000000e+03 6.147818374633789062e+01 3.142564773559570312e+01 5.954934597015380859e+00 1.246696281433105469e+01 5.526569366455078125e+00 7.293621897697448730e-01
2.636000000000000000e+03 5.394556427001953125e+01 2.813910865783691406e+01 1.342866778373718262e+00 1.638821601867675781e+00 8.945065140724182129e-01 2.366559028625488281e+00
2.637000000000000000e+03 6.157321166992187500e+01 3.214065933227539062e+01 4.952992916107177734e+00 1.257688236236572266e+01 5.258962631225585938e+00 1.557188510894775391e+00
2.638000000000000000e+03 6.147469329833984375e+01 3.388547134399414062e+01 1.892760992050170898e+00 1.335142517089843750e+01 4.573256015777587891e+00 1.928361654281616211e+00
2.639000000000000000e+03 6.200933837890625000e+01 3.180274772644042969e+01 4.988163948059082031e+00 1.190172576904296875e+01 5.066967010498046875e+00 1.093417286872863770e+00
2.640000000000000000e+03 6.120246505737304688e+01 3.241044998168945312e+01 4.874948501586914062e+00 1.325474929809570312e+01 5.438909530639648438e+00 1.954143762588500977e+00
2.641000000000000000e+03 5.328254318237304688e+01 2.717724990844726562e+01 1.233747839927673340e+00 1.854538440704345703e+00 9.264858961105346680e-01 2.247145414352416992e+00
2.642000000000000000e+03 5.612392044067382812e+01 3.577522277832031250e+01 1.142382025718688965e-01 6.956658363342285156e+00 2.121268987655639648e+00 -2.935600280761718750e+00
2.643000000000000000e+03 5.108082962036132812e+01 2.743149948120117188e+01 3.956287205219268799e-01 6.620800495147705078e-01 3.173126280307769775e-01 9.494019746780395508e-01
2.644000000000000000e+03 5.218021392822265625e+01 2.683035659790039062e+01 9.358792304992675781e-01 1.344537734985351562e+00 6.841250658035278320e-01 1.657722473144531250e+00
2.645000000000000000e+03 5.163598632812500000e+01 2.688394546508789062e+01 7.620176076889038086e-01 1.073808431625366211e+00 5.507478117942810059e-01 1.363527297973632812e+00
2.646000000000000000e+03 4.505448532104492188e+01 2.656953430175781250e+01 -2.423281371593475342e-01 2.891019284725189209e-01 1.403213478624820709e-02 -1.035604998469352722e-01
2.647000000000000000e+03 3.193614959716796875e+01 2.854889678955078125e+01 -3.236767649650573730e-01 1.888384297490119934e-02 -9.143787622451782227e-02 -3.927805423736572266e-01
2.648000000000000000e+03 2.921585464477539062e+01 2.947896957397460938e+01 -2.352025657892227173e-01 -3.271492198109626770e-02 -8.037524670362472534e-02 -3.062386214733123779e-01
2.649000000000000000e+03 3.069072151184082031e+01 2.731874275207519531e+01 -2.220904380083084106e-01 -3.346095979213714600e-02 -7.666542381048202515e-02 -4.202288985252380371e-01
2.650000000000000000e+03 3.260557556152343750e+01 2.844628906250000000e+01 -3.486348986625671387e-01 3.330710902810096741e-02 -9.459833055734634399e-02 -4.047233164310455322e-01
2.651000000000000000e+03 3.263921737670898438e+01 2.912774848937988281e+01 -3.845917284488677979e-01 3.995101898908615112e-02 -1.033922135829925537e-01 -3.729510307312011719e-01
2.652000000000000000e+03 2.855637741088867188e+01 2.950841522216796875e+01 -2.072543054819107056e-01 -4.800608381628990173e-02 -7.657811790704727173e-02 -2.905233800411224365e-01
2.653000000000000000e+03 2.998195075988769531e+01 2.796319007873535156e+01 -2.235930860042572021e-01 -4.208062961697578430e-02 -7.970211654901504517e-02 -3.839329779148101807e-01
2.654000000000000000e+03 2.709197235107421875e+01 2.794873809814453125e+01 -1.272257566452026367e-01 -1.270986199378967285e-01 -7.629731297492980957e-02 -3.056895732879638672e-01
2.655000000000000000e+03 2.857878875732421875e+01 2.872025108337402344e+01 -1.926770657300949097e-01 -6.649476289749145508e-02 -7.775154709815979004e-02 -3.232960700988769531e-01
2.656000000000000000e+03 3.813103866577148438e+01 2.729039192199707031e+01 -4.514907300472259521e-01 1.359428316354751587e-01 -9.466436505317687988e-02 -4.398497939109802246e-01
2.657000000000000000e+03 3.753817367553710938e+01 2.817228317260742188e+01 -5.445090532302856445e-01 1.170796081423759460e-01 -1.282288283109664917e-01 -4.174498915672302246e-01
2.658000000000000000e+03 3.541262054443359375e+01 2.860073280334472656e+01 -4.886482357978820801e-01 8.714504539966583252e-02 -1.204509586095809937e-01 -4.103107452392578125e-01
2.659000000000000000e+03 3.327149200439453125e+01 2.832342147827148438e+01 -3.694756329059600830e-01 4.545448347926139832e-02 -9.720634669065475464e-02 -4.148885905742645264e-01
2.660000000000000000e+03 3.393967819213867188e+01 2.818842506408691406e+01 -3.884774148464202881e-01 5.825671553611755371e-02 -9.906620532274246216e-02 -4.268274307250976562e-01
2.661000000000000000e+03 4.447694396972656250e+01 2.493660354614257812e+01 8.976682275533676147e-02 4.429729282855987549e-01 1.598219275474548340e-01 -4.671651124954223633e-02
2.662000000000000000e+03 3.741279983520507812e+01 2.742052841186523438e+01 -4.479139745235443115e-01 1.243603602051734924e-01 -9.706608951091766357e-02 -4.453607201576232910e-01
2.663000000000000000e+03 3.461930847167968750e+01 2.804271316528320312e+01 -4.067987799644470215e-01 7.276643812656402588e-02 -1.002097055315971375e-01 -4.350993335247039795e-01
2.664000000000000000e+03 4.113246536254882812e+01 2.750340652465820312e+01 -5.506799221038818359e-01 1.677742749452590942e-01 -1.148716881871223450e-01 -3.637349009513854980e-01
2.665000000000000000e+03 4.040232086181640625e+01 2.765001106262207031e+01 -5.654661655426025391e-01 1.551535576581954956e-01 -1.230937838554382324e-01 -3.835660815238952637e-01
2.666000000000000000e+03 9.468888282775878906e+00 6.489208221435546875e+00 5.748708281316794455e-05 1.727495515524424263e-07 1.729795076244045049e-05 6.028227289789356291e-06
2.667000000000000000e+03 4.674248886108398438e+01 2.733884048461914062e+01 -3.677181005477905273e-01 2.603451609611511230e-01 -3.221188113093376160e-02 1.895669475197792053e-02
2.668000000000000000e+03 5.269207763671875000e+01 2.674429321289062500e+01 1.096703171730041504e+00 1.693834900856018066e+00 8.371614217758178711e-01 1.980636119842529297e+00
2.669000000000000000e+03 4.979838180541992188e+01 2.686639213562011719e+01 2.820335030555725098e-01 5.922479629516601562e-01 2.622844278812408447e-01 6.758758425712585449e-01
2.670000000000000000e+03 4.015106201171875000e+01 2.621084403991699219e+01 -3.154435455799102783e-01 1.959596872329711914e-01 -3.584516048431396484e-02 -4.044614136219024658e-01
2.671000000000000000e+03 4.101008987426757812e+01 2.679920578002929688e+01 -4.145932495594024658e-01 1.903799176216125488e-01 -6.726399809122085571e-02 -3.739162683486938477e-01
2.672000000000000000e+03 5.724341201782226562e+01 3.535997390747070312e+01 -4.836366474628448486e-01 1.012079524993896484e+01 2.891147613525390625e+00 -3.345518589019775391e+00
2.673000000000000000e+03 4.837989425659179688e+01 2.678336143493652344e+01 3.919467329978942871e-02 4.369820356369018555e-01 1.428530216217041016e-01 3.464625477790832520e-01
2.674000000000000000e+03 2.717066764831542969e+01 2.689323616027832031e+01 -1.092220619320869446e-01 -1.591436117887496948e-01 -8.050969988107681274e-02 -3.379373848438262939e-01
2.675000000000000000e+03 4.555254364013671875e+01 2.527574539184570312e+01 9.844822436571121216e-02 4.602694213390350342e-01 1.676152944564819336e-01 5.689224228262901306e-02
2.676000000000000000e+03 4.910744857788085938e+01 2.682860755920410156e+01 1.532588005065917969e-01 5.044023394584655762e-01 1.972983479499816895e-01 5.010718703269958496e-01
2.677000000000000000e+03 4.323991394042968750e+01 2.625418090820312500e+01 -2.629295289516448975e-01 2.634557783603668213e-01 1.578700612299144268e-04 -2.427518218755722046e-01
2.678000000000000000e+03 7.169646453857421875e+01 -1.330141186714172363e+00 -1.129301264882087708e-01 7.827452659606933594e+00 2.314356803894042969e+00 -1.793609261512756348e-01
2.679000000000000000e+03 7.040974426269531250e+01 -4.300173282623291016e+00 -9.118760377168655396e-02 7.648042678833007812e+00 2.267056465148925781e+00 -1.308123171329498291e-01
2.680000000000000000e+03 7.177316284179687500e+01 2.768308877944946289e+00 -1.713813394308090210e-01 7.831167697906494141e+00 2.297935962677001953e+00 -2.791031599044799805e-01
2.681000000000000000e+03 3.968046951293945312e+01 2.778497886657714844e+01 -5.689503550529479980e-01 1.457156687974929810e-01 -1.269703954458236694e-01 -3.969576358795166016e-01
2.682000000000000000e+03 3.725691986083984375e+01 2.663035964965820312e+01 -3.498807251453399658e-01 1.315596699714660645e-01 -6.549631804227828979e-02 -4.668539762496948242e-01
2.683000000000000000e+03 8.960232734680175781e+00 -7.159365177154541016e+00 -1.961883099284023046e-04 -3.829289198620244861e-05 -7.034435839159414172e-05 4.380333848530426621e-06
2.684000000000000000e+03 8.162919998168945312e+00 1.038620376586914062e+01 -5.981420326861552894e-05 4.561168680083937943e-06 -1.657591019466053694e-05 1.786538814485538751e-05
2.685000000000000000e+03 8.419578552246093750e+00 1.123751068115234375e+01 5.982834045425988734e-05 2.015136124100536108e-05 2.399391087237745523e-05 -9.958802365872543305e-06
2.686000000000000000e+03 7.048392486572265625e+01 -9.107886314392089844e+00 -6.475404649972915649e-02 7.632455348968505859e+00 2.270310401916503906e+00 -6.508775055408477783e-02
2.687000000000000000e+03 7.173037719726562500e+01 -3.694823503494262695e+00 -7.906960695981979370e-02 7.844209194183349609e+00 2.329541921615600586e+00 -1.336103975772857666e-01
2.688000000000000000e+03 1.006706047058105469e+01 -6.971479892730712891e+00 2.418755320832133293e-04 1.587209226272534579e-05 7.732428639428690076e-05 -1.423233334207907319e-05
2.689000000000000000e+03 2.812285041809082031e+01 1.771607971191406250e+01 6.326062977313995361e-02 -3.753949105739593506e-01 -9.364028275012969971e-02 -3.975287377834320068e-01
2.690000000000000000e+03 9.364126205444335938e+00 7.264018535614013672e+00 -5.394360414356924593e-05 1.476850957260467112e-05 -1.175252782559255138e-05 1.566565629218530376e-06
2.691000000000000000e+03 7.246689319610595703e+00 6.473188400268554688e+00 -6.361519626807421446e-05 1.408069601893657818e-05 -1.486034943809499964e-05 1.878184957604389638e-05
2.692000000000000000e+03 3.062239265441894531e+01 2.798344802856445312e+01 -2.476978898048400879e-01 -2.392708323895931244e-02 -8.148749172687530518e-02 -3.944254815578460693e-01
2.693000000000000000e+03 7.044342041015625000e+01 -1.660965681076049805e+00 -1.322938501834869385e-01 7.642006397247314453e+00 2.252913713455200195e+00 -1.731473058462142944e-01
2.694000000000000000e+03 7.012049102783203125e+01 -1.053164386749267578e+01 -5.003998428583145142e-02 7.567417621612548828e+00 2.255213260650634766e+00 -4.999260604381561279e-02
2.695000000000000000e+03 6.976693725585937500e+01 -1.209059810638427734e+01 -4.644457250833511353e-02 7.501061439514160156e+00 2.236385107040405273e+00 -4.362163692712783813e-02
2.696000000000000000e+03 2.843007278442382812e+01 1.071559906005859375e+01 8.132431656122207642e-02 -4.305319786071777344e-01 -1.047622933983802795e-01 -2.712004780769348145e-01
2.697000000000000000e+03 2.824871253967285156e+01 1.494742202758789062e+01 8.476592600345611572e-02 -4.113639593124389648e-01 -9.797941148281097412e-02 -3.523958623409271240e-01
2.698000000000000000e+03 7.011997985839843750e+01 -2.292216110229492188e+01 -1.425814535468816757e-02 7.562709331512451172e+00 2.264535427093505859e+00 -6.855410523712635040e-03
2.699000000000000000e+03 7.022337341308593750e+01 -2.891750717163085938e+01 -4.016227030660957098e-04 7.555703163146972656e+00 2.266590356826782227e+00 1.128996256738901138e-02
2.700000000000000000e+03 6.968051147460937500e+01 -1.724118614196777344e+01 -2.971145324409008026e-02 7.478495597839355469e+00 2.234635114669799805e+00 -1.384875923395156860e-02
2.701000000000000000e+03 6.955668640136718750e+01 -1.854862785339355469e+01 -2.187625877559185028e-02 7.455975055694580078e+00 2.230229616165161133e+00 -7.286319509148597717e-03
2.702000000000000000e+03 7.413953781127929688e+00 -9.061635971069335938e+00 1.483689557062461972e-04 8.352956501767039299e-05 6.956955621717497706e-05 1.164655477623455226e-04
2.703000000000000000e+03 6.989986419677734375e+01 -1.580950832366943359e+01 -3.061475418508052826e-02 7.514704227447509766e+00 2.245226860046386719e+00 -2.007152885198593140e-02
2.704000000000000000e+03 7.169866943359375000e+01 2.232372093200683594e+01 3.525800257921218872e-02 7.673028945922851562e+00 2.312486171722412109e+00 -1.261110305786132812e+00
2.705000000000000000e+03 7.196282958984375000e+01 1.528434181213378906e+01 -3.232407271862030029e-01 7.807605743408203125e+00 2.245309591293334961e+00 -9.102528095245361328e-01
2.706000000000000000e+03 2.878115272521972656e+01 -4.759628772735595703e+00 2.988663502037525177e-02 -3.368348777294158936e-01 -9.208447486162185669e-02 -5.964735150337219238e-02
2.707000000000000000e+03 2.989251136779785156e+01 -4.391705691814422607e-01 4.770961403846740723e-02 -1.665913462638854980e-01 -3.566451743245124817e-02 -7.877225428819656372e-02
2.708000000000000000e+03 7.232582092285156250e+01 7.940618515014648438e+00 -2.342006564140319824e-01 7.871079921722412109e+00 2.291063785552978516e+00 -4.771737158298492432e-01
2.709000000000000000e+03 3.096360778808593750e+01 1.096236515045166016e+01 1.373746097087860107e-01 -9.327744692564010620e-02 1.322914939373731613e-02 -2.721252441406250000e-01
2.710000000000000000e+03 2.850617790222167969e+01 7.857419013977050781e+00 6.431855261325836182e-02 -4.280342161655426025e-01 -1.091146916151046753e-01 -2.140778750181198120e-01
2.711000000000000000e+03 6.954212188720703125e+01 2.494802665710449219e+01 4.683897197246551514e-01 8.197579383850097656e+00 2.599790811538696289e+00 -1.340425968170166016e+00
2.712000000000000000e+03 7.094621276855468750e+01 2.323863220214843750e+01 1.244574263691902161e-01 7.803721904754638672e+00 2.378453731536865234e+00 -1.297575354576110840e+00
2.713000000000000000e+03 2.968015670776367188e+01 1.083626937866210938e+01 1.088324114680290222e-01 -2.628739476203918457e-01 -4.621245712041854858e-02 -2.753499448299407959e-01
2.714000000000000000e+03 7.270698547363281250e+01 2.931426239013671875e+01 6.197955012321472168e-01 6.919882297515869141e+00 2.261903285980224609e+00 -6.533040404319763184e-01
2.715000000000000000e+03 7.821431636810302734e+00 -2.240544509887695312e+01 -7.314486720133572817e-05 4.196628287900239229e-04 1.039553899317979813e-04 -8.648845832794904709e-04
2.716000000000000000e+03 9.104467391967773438e+00 -1.031155395507812500e+01 1.368611265206709504e-04 1.749195944285020232e-04 9.353421773994341493e-05 7.940501382108777761e-05
2.717000000000000000e+03 7.806724071502685547e+00 -1.046883869171142578e+01 -2.421734825475141406e-04 -1.379986060783267021e-04 -1.140516251325607300e-04 -1.259034324903041124e-04
2.718000000000000000e+03 7.236280822753906250e+01 1.168508338928222656e+01 -2.860618829727172852e-01 7.835778713226318359e+00 2.264914989471435547e+00 -6.765080690383911133e-01
2.719000000000000000e+03 7.116012573242187500e+01 1.149471187591552734e+01 -3.568793833255767822e-01 7.822305202484130859e+00 2.239627838134765625e+00 -6.666014790534973145e-01
2.720000000000000000e+03 7.334880828857421875e+00 1.469391727447509766e+01 1.202715884573990479e-05 4.489094862947240472e-05 1.707543196971528232e-05 6.006937837810255587e-06
2.721000000000000000e+03 7.513526439666748047e+00 1.352213287353515625e+01 -2.638598743942566216e-05 -5.854896880919113755e-05 -2.548048723838292062e-05 -1.588215127412695438e-05
2.722000000000000000e+03 7.216809844970703125e+01 5.401881217956542969e+00 -1.972749978303909302e-01 7.874226570129394531e+00 2.303085565567016602e+00 -3.686772882938385010e-01
2.723000000000000000e+03 7.083575439453125000e+01 4.217299938201904297e+00 -2.228898853063583374e-01 7.730686187744140625e+00 2.252338886260986328e+00 -3.230548202991485596e-01
2.724000000000000000e+03 7.219967651367187500e+01 1.988797569274902344e+01 -1.574536412954330444e-01 7.665753364562988281e+00 2.252489805221557617e+00 -1.165571331977844238e+00
2.725000000000000000e+03 7.107137298583984375e+01 1.866178321838378906e+01 -2.880939841270446777e-01 7.893498420715332031e+00 2.281621456146240234e+00 -1.130653262138366699e+00
2.726000000000000000e+03 2.942729759216308594e+01 1.505692577362060547e+01 1.078456044197082520e-01 -2.856833934783935547e-01 -5.335133895277976990e-02 -3.673259317874908447e-01
2.727000000000000000e+03 6.900029182434082031e+00 2.073905372619628906e+01 4.095202166354283690e-05 3.486506727767846314e-07 1.239020184584660456e-05 -4.289335629437118769e-05
2.728000000000000000e+03 2.883759117126464844e+01 -7.490896224975585938e+00 1.908290572464466095e-02 -3.071605265140533447e-01 -8.642328530550003052e-02 -5.448923259973526001e-02
2.729000000000000000e+03 7.945405483245849609e+00 -2.053573799133300781e+01 2.873913908842951059e-04 1.468141272198408842e-04 1.302616583416238427e-04 -5.341006326489150524e-04
2.730000000000000000e+03 9.916555404663085938e+00 2.965183448791503906e+01 -2.439581294311210513e-04 1.678394619375467300e-05 -6.815225788159295917e-05 -5.141767542227171361e-05
2.731000000000000000e+03 9.858781814575195312e+00 3.116075706481933594e+01 2.557341358624398708e-04 -1.368967423331923783e-05 7.261333666974678636e-05 4.415300645632669330e-05
2.732000000000000000e+03 2.883228111267089844e+01 -6.107850074768066406e+00 2.362926676869392395e-02 -3.182197511196136475e-01 -8.837714046239852905e-02 -5.768093466758728027e-02
2.733000000000000000e+03 8.159807205200195312e+00 -1.324921703338623047e+01 -4.678668919950723648e-04 5.108400364406406879e-05 -1.250348723260685802e-04 -1.321392628597095609e-04
2.734000000000000000e+03 8.579708099365234375e+00 2.097176551818847656e+01 9.742758265929296613e-06 3.007215309480670840e-05 1.194447395391762257e-05 -5.333870285539887846e-05
2.735000000000000000e+03 7.564598560333251953e+00 -2.642178153991699219e+01 -2.785441174637526274e-04 2.045169821940362453e-04 -2.220813985331915319e-05 1.704970236460212618e-05
2.736000000000000000e+03 8.343910217285156250e+00 -2.341333580017089844e+01 5.229616654105484486e-04 6.028149509802460670e-04 3.377329849172383547e-04 4.236813983879983425e-04
2.737000000000000000e+03 8.633138656616210938e+00 -2.464524841308593750e+01 -5.227653309702873230e-04 3.013277600985020399e-04 -6.643127562711015344e-05 -1.752094103721901774e-04
2.738000000000000000e+03 7.789787292480468750e+00 9.593036651611328125e+00 3.959952664445154369e-05 -5.120483365317340940e-06 1.034371325658867136e-05 -2.029629104072228074e-05
2.739000000000000000e+03 2.991871833801269531e+01 2.870137786865234375e+01 -2.448568791151046753e-01 -3.025550208985805511e-02 -8.253370970487594604e-02 -3.537050783634185791e-01
2.740000000000000000e+03 1.038860511779785156e+01 1.500703334808349609e+01 -8.789879211690276861e-05 -2.618390226416522637e-06 -2.715515438467264175e-05 -3.088661105721257627e-05
2.741000000000000000e+03 2.912877845764160156e+01 -2.093635368347167969e+01 1.094702910631895065e-02 -1.724943220615386963e-01 -4.846418648958206177e-02 -2.777718007564544678e-02
2.742000000000000000e+03 7.107228851318359375e+01 3.173519706726074219e+01 8.598257303237915039e-01 7.462959289550781250e+00 2.496835470199584961e+00 -2.467990517616271973e-01
2.743000000000000000e+03 3.020043945312500000e+01 -2.400850677490234375e+01 2.470330102369189262e-03 5.426749214529991150e-02 1.702134683728218079e-02 -1.727152615785598755e-02
2.744000000000000000e+03 2.959456253051757812e+01 -2.240642356872558594e+01 1.998895080760121346e-03 -4.920290783047676086e-02 -1.416120398789644241e-02 -3.010780736804008484e-02
2.745000000000000000e+03 8.998373031616210938e+00 -1.212475490570068359e+01 -4.376724245958030224e-04 -8.461346442345529795e-05 -1.566857681609690189e-04 -8.466834697173908353e-05
2.746000000000000000e+03 2.981503677368164062e+01 6.531272888183593750e+00 8.164473623037338257e-02 -2.243131995201110840e-01 -4.280054196715354919e-02 -1.836890876293182373e-01
2.747000000000000000e+03 2.866072654724121094e+01 -1.300937461853027344e+01 1.944751013070344925e-03 -3.078768849372863770e-01 -9.177964180707931519e-02 -3.631866723299026489e-02
2.748000000000000000e+03 1.135310840606689453e+01 -2.798483467102050781e+01 8.479056414216756821e-04 6.539298919960856438e-04 4.505506658460944891e-04 -6.489857332780957222e-04
2.749000000000000000e+03 9.495026588439941406e+00 -3.402342987060546875e+01 1.900415681302547455e-02 -9.236030280590057373e-03 2.930437680333852768e-03 -3.320227377116680145e-03
2.750000000000000000e+03 7.062850189208984375e+01 3.038875770568847656e+01 1.053233265876770020e+00 7.609282493591308594e+00 2.598754882812500000e+00 -5.008695721626281738e-01
2.751000000000000000e+03 2.779068946838378906e+01 2.451634979248046875e+01 -6.574263423681259155e-02 -2.113135755062103271e-01 -8.311686664819717407e-02 -4.079363942146301270e-01
2.752000000000000000e+03 7.041497039794921875e+01 2.471504592895507812e+01 3.802488148212432861e-01 7.917370319366455078e+00 2.489285707473754883e+00 -1.306231260299682617e+00
2.753000000000000000e+03 7.000364685058593750e+01 2.375343894958496094e+01 2.074075341224670410e-01 8.043034553527832031e+00 2.475132703781127930e+00 -1.329760313034057617e+00
2.754000000000000000e+03 2.740188980102539062e+01 2.574677085876464844e+01 -9.104674309492111206e-02 -1.864240765571594238e-01 -8.324124664068222046e-02 -3.716104328632354736e-01
2.755000000000000000e+03 7.164293670654296875e+01 -2.257057380676269531e+01 -1.046480331569910049e-02 7.826571464538574219e+00 2.344831943511962891e+00 3.852332942187786102e-03
2.756000000000000000e+03 6.983506774902343750e+01 -2.121849060058593750e+01 1.705027767457067966e-03 7.538404464721679688e+00 2.262032747268676758e+00 -6.322838831692934036e-03
2.757000000000000000e+03 2.856307792663574219e+01 2.163865089416503906e+00 3.696061670780181885e-02 -4.114571213722229004e-01 -1.123489513993263245e-01 -1.134334728121757507e-01
2.758000000000000000e+03 2.985294151306152344e+01 3.696008443832397461e+00 6.264875829219818115e-02 -2.017860412597656250e-01 -4.174118489027023315e-02 -1.322155594825744629e-01
2.759000000000000000e+03 7.037718963623046875e+01 -2.011168670654296875e+01 -1.751703768968582153e-02 7.612246513366699219e+00 2.278418779373168945e+00 -2.530634868890047073e-03
2.760000000000000000e+03 2.951624488830566406e+01 1.366078186035156250e+01 1.133838370442390442e-01 -2.818574905395507812e-01 -5.054210126399993896e-02 -3.371209204196929932e-01
2.761000000000000000e+03 7.513311386108398438e+00 1.142385673522949219e+01 -5.995497485855594277e-05 -2.784621574392076582e-05 -2.634035627124831080e-05 1.460327530367067084e-05
2.762000000000000000e+03 7.114825439453125000e+01 7.865417480468750000e+00 -2.868526875972747803e-01 7.784574985504150391e+00 2.249316692352294922e+00 -4.736023545265197754e-01
2.763000000000000000e+03 6.905928039550781250e+01 -3.066132354736328125e+01 6.146343890577554703e-03 7.334239482879638672e+00 2.202115774154663086e+00 1.319570280611515045e-02
2.764000000000000000e+03 2.852070426940917969e+01 -1.561358737945556641e+01 1.010360661894083023e-02 -3.077712655067443848e-01 -8.930029720067977905e-02 -2.307691611349582672e-02
2.765000000000000000e+03 2.992981147766113281e+01 -1.542402458190917969e+01 4.330135416239500046e-03 -5.339292064309120178e-02 -1.471883617341518402e-02 -3.060096688568592072e-02
2.766000000000000000e+03 7.084420776367187500e+01 1.760850715637207031e+01 -3.546949028968811035e-01 7.922020912170410156e+00 2.270197868347167969e+00 -1.061846733093261719e+00
2.767000000000000000e+03 7.039517974853515625e+01 1.665503692626953125e+01 -4.095533192157745361e-01 7.948503494262695312e+00 2.261684894561767578e+00 -9.927347898483276367e-01
2.768000000000000000e+03 7.049384307861328125e+01 -5.883001804351806641e+00 -8.739401400089263916e-02 7.627073287963867188e+00 2.261903762817382812e+00 -1.008381173014640808e-01
2.769000000000000000e+03 6.965021514892578125e+01 -4.951952934265136719e+00 -1.060266047716140747e-01 7.496041297912597656e+00 2.217004299163818359e+00 -1.074921414256095886e-01
2.770000000000000000e+03 7.030033111572265625e+01 3.401506805419921875e+01 7.663435339927673340e-01 7.933499813079833984e+00 2.609953165054321289e+00 1.870149672031402588e-01
2.771000000000000000e+03 7.112159729003906250e+01 -2.719992637634277344e+01 1.168835908174514771e-03 7.732851028442382812e+00 2.320205926895141602e+00 7.436180487275123596e-03
2.772000000000000000e+03 6.973072814941406250e+01 -2.628651428222656250e+01 -1.890830229967832565e-03 7.465670585632324219e+00 2.239133834838867188e+00 6.664019543677568436e-03
2.773000000000000000e+03 6.855210876464843750e+01 -2.521131896972656250e+01 -1.099451910704374313e-02 7.257418155670166016e+00 2.173927068710327148e+00 8.066280744969844818e-03
2.774000000000000000e+03 7.117295074462890625e+01 1.029750061035156250e+01 -3.355081379413604736e-01 7.808290004730224609e+00 2.241834402084350586e+00 -5.962231159210205078e-01
2.775000000000000000e+03 7.117118072509765625e+01 9.082646369934082031e+00 -3.114613890647888184e-01 7.796122074127197266e+00 2.245398283004760742e+00 -5.327985286712646484e-01
2.776000000000000000e+03 2.986405944824218750e+01 2.298076868057250977e+00 5.615552887320518494e-02 -1.913932114839553833e-01 -4.057130590081214905e-02 -1.087559461593627930e-01
2.777000000000000000e+03 2.241630744934082031e+01 -3.367113113403320312e+01 -1.458032578229904175e-01 -1.398990631103515625e+00 -4.634381532669067383e-01 -8.949626982212066650e-02
2.778000000000000000e+03 2.868237495422363281e+01 -3.074297332763671875e+01 -8.883956819772720337e-03 -1.690357923507690430e-01 -5.337592586874961853e-02 -2.166816592216491699e-02
2.779000000000000000e+03 2.920742034912109375e+01 2.045079803466796875e+01 3.186353296041488647e-02 -2.402995377779006958e-01 -6.253080070018768311e-02 -4.513989686965942383e-01
2.780000000000000000e+03 2.778437042236328125e+01 -2.310348320007324219e+01 1.300057675689458847e-02 -4.219152033329010010e-01 -1.226743906736373901e-01 -4.572961479425430298e-02
2.781000000000000000e+03 7.026145172119140625e+01 -3.367547988891601562e+01 -1.530267763882875443e-02 7.524575710296630859e+00 2.252781867980957031e+00 -3.432099707424640656e-03
2.782000000000000000e+03 2.616675949096679688e+01 -3.524486160278320312e+01 -2.751858159899711609e-02 -6.273095607757568359e-01 -1.964484453201293945e-01 -9.877777658402919769e-03
2.783000000000000000e+03 5.777746200561523438e+01 2.771946525573730469e+01 2.949345409870147705e-01 1.212016105651855469e+01 3.724528789520263672e+00 4.134647846221923828e+00
2.784000000000000000e+03 5.821556091308593750e+01 2.809128379821777344e+01 2.207276076078414917e-01 1.403072547912597656e+01 4.275435924530029297e+00 3.471204042434692383e+00
2.785000000000000000e+03 5.630457687377929688e+01 2.755497169494628906e+01 1.414692044258117676e+00 7.026258468627929688e+00 2.532285213470458984e+00 4.726936340332031250e+00
2.786000000000000000e+03 5.972410964965820312e+01 2.911050987243652344e+01 2.680632829666137695e+00 1.648621177673339844e+01 5.750053405761718750e+00 -1.014108061790466309e+00
2.787000000000000000e+03 5.878723526000976562e+01 3.538230133056640625e+01 -1.094641447067260742e+00 1.319621181488037109e+01 3.630471229553222656e+00 -1.499520063400268555e+00
2.788000000000000000e+03 5.519747924804687500e+01 2.825163269042968750e+01 1.990826725959777832e+00 3.125427484512329102e+00 1.534876227378845215e+00 3.683635950088500977e+00
2.789000000000000000e+03 5.428369522094726562e+01 2.753152275085449219e+01 1.533057689666748047e+00 2.572656869888305664e+00 1.231714367866516113e+00 2.927004337310791016e+00
2.790000000000000000e+03 5.437540817260742188e+01 2.803273391723632812e+01 1.585436820983886719e+00 2.207540988922119141e+00 1.137893319129943848e+00 2.834656000137329102e+00
2.791000000000000000e+03 6.052808380126953125e+01 2.925236129760742188e+01 3.790791749954223633e+00 1.452758884429931641e+01 5.495514392852783203e+00 -1.579941272735595703e+00
2.792000000000000000e+03 5.759413909912109375e+01 2.800660705566406250e+01 5.668261647224426270e-01 1.197732257843017578e+01 3.763244628906250000e+00 4.625750541687011719e+00
2.793000000000000000e+03 5.718730163574218750e+01 2.806160545349121094e+01 1.036545634269714355e+00 1.031913471221923828e+01 3.406703948974609375e+00 5.098523139953613281e+00
2.794000000000000000e+03 5.895471572875976562e+01 2.848676300048828125e+01 6.033733487129211426e-01 1.614532089233398438e+01 5.024608135223388672e+00 1.433827638626098633e+00
2.795000000000000000e+03 6.025387191772460938e+01 2.951718711853027344e+01 4.406740665435791016e+00 1.523696231842041016e+01 5.893110752105712891e+00 -1.668943762779235840e+00
2.796000000000000000e+03 6.051606750488281250e+01 2.979843521118164062e+01 5.227726459503173828e+00 1.446114635467529297e+01 5.906661987304687500e+00 -1.563851237297058105e+00
2.797000000000000000e+03 6.086044692993164062e+01 2.954043388366699219e+01 4.480674266815185547e+00 1.381315231323242188e+01 5.488147735595703125e+00 -1.538900971412658691e+00
2.798000000000000000e+03 6.025261688232421875e+01 3.002018737792968750e+01 6.172666072845458984e+00 1.517292118072509766e+01 6.403676033020019531e+00 -1.647729158401489258e+00
2.799000000000000000e+03 6.101504898071289062e+01 3.022520256042480469e+01 5.928103446960449219e+00 1.329841136932373047e+01 5.767954349517822266e+00 -1.065782904624938965e+00
2.800000000000000000e+03 5.860896682739257812e+01 3.481596374511718750e+01 -9.664863348007202148e-01 1.385158348083496094e+01 3.865529060363769531e+00 -1.857216358184814453e+00
2.801000000000000000e+03 5.994252777099609375e+01 3.475519943237304688e+01 -3.447493314743041992e-01 1.449597263336181641e+01 4.245367050170898438e+00 4.309918880462646484e-01
2.802000000000000000e+03 6.089343643188476562e+01 3.345772552490234375e+01 2.480093717575073242e+00 1.420463180541992188e+01 5.005417823791503906e+00 2.086776256561279297e+00
2.803000000000000000e+03 6.033073043823242188e+01 3.435123443603515625e+01 3.671559691429138184e-01 1.456132030487060547e+01 4.478542804718017578e+00 1.142469048500061035e+00
2.804000000000000000e+03 6.152213668823242188e+01 3.291300964355468750e+01 3.640542030334472656e+00 1.298754978179931641e+01 4.988427639007568359e+00 1.961994767189025879e+00
2.805000000000000000e+03 5.674027633666992188e+01 3.464171981811523438e+01 2.789769172668457031e-01 8.549258232116699219e+00 2.648470640182495117e+00 -3.888652801513671875e+00
2.806000000000000000e+03 5.721937942504882812e+01 3.459910202026367188e+01 -1.335505694150924683e-01 1.045998668670654297e+01 3.097930908203125000e+00 -3.900830030441284180e+00
2.807000000000000000e+03 5.384154891967773438e+01 2.762039566040039062e+01 1.392454624176025391e+00 1.985918045043945312e+00 1.013511776924133301e+00 2.517867803573608398e+00
2.808000000000000000e+03 6.202281570434570312e+01 3.263332748413085938e+01 3.989969491958618164e+00 1.221307373046875000e+01 4.860912799835205078e+00 1.648890018463134766e+00
2.809000000000000000e+03 5.044780349731445312e+01 2.689523315429687500e+01 4.285855293273925781e-01 7.099016308784484863e-01 3.415461480617523193e-01 8.734466433525085449e-01
2.810000000000000000e+03 5.209674835205078125e+01 2.632856941223144531e+01 9.864941239356994629e-01 1.570800185203552246e+00 7.671883106231689453e-01 1.747857689857482910e+00
2.811000000000000000e+03 3.058436203002929688e+01 2.867863655090332031e+01 -2.713062763214111328e-01 -1.253976300358772278e-02 -8.515381067991256714e-02 -3.674030303955078125e-01
2.812000000000000000e+03 3.187202644348144531e+01 2.726272201538085938e+01 -2.565966248512268066e-01 -1.101825153455138206e-03 -7.730953395366668701e-02 -4.397017061710357666e-01
2.813000000000000000e+03 2.925442504882812500e+01 2.870820999145507812e+01 -2.183831185102462769e-01 -4.755350947380065918e-02 -7.978098839521408081e-02 -3.397319614887237549e-01
2.814000000000000000e+03 3.082813453674316406e+01 2.672254753112792969e+01 -2.015932202339172363e-01 -3.866107016801834106e-02 -7.207629084587097168e-02 -4.407222568988800049e-01
2.815000000000000000e+03 2.828466415405273438e+01 2.595049095153808594e+01 -1.123930066823959351e-01 -1.528860032558441162e-01 -7.958370447158813477e-02 -3.938570320606231689e-01
2.816000000000000000e+03 2.932586479187011719e+01 2.792838287353515625e+01 -1.991240531206130981e-01 -6.377220153808593750e-02 -7.886888086795806885e-02 -3.703441619873046875e-01
2.817000000000000000e+03 4.160089492797851562e+01 2.594026374816894531e+01 -2.477967441082000732e-01 2.405824214220046997e-01 -2.164299134165048599e-03 -3.372306227684020996e-01
2.818000000000000000e+03 5.318191909790039062e+01 2.663448905944824219e+01 1.208781957626342773e+00 2.142509222030639648e+00 1.005387306213378906e+00 2.310769557952880859e+00
2.819000000000000000e+03 3.530256652832031250e+01 2.788362121582031250e+01 -4.210983514785766602e-01 8.534748107194900513e-02 -1.007252559065818787e-01 -4.419672489166259766e-01
2.820000000000000000e+03 3.651747131347656250e+01 2.677454757690429688e+01 -3.508299589157104492e-01 1.136222258210182190e-01 -7.116232812404632568e-02 -4.710327982902526855e-01
2.821000000000000000e+03 4.682094955444335938e+01 2.664189529418945312e+01 -1.149985045194625854e-01 3.492462635040283203e-01 7.027433067560195923e-02 9.722274541854858398e-02
2.822000000000000000e+03 3.191576385498046875e+01 2.788755035400390625e+01 -2.918958961963653564e-01 1.037887670099735260e-02 -8.445510268211364746e-02 -4.192118942737579346e-01
2.823000000000000000e+03 3.580276107788085938e+01 2.694457244873046875e+01 -3.527757823467254639e-01 9.691721200942993164e-02 -7.675757259130477905e-02 -4.712201654911041260e-01
2.824000000000000000e+03 3.448870086669921875e+01 2.733795166015625000e+01 -3.441552817821502686e-01 6.565727293491363525e-02 -8.354940265417098999e-02 -4.612120985984802246e-01
2.825000000000000000e+03 3.514048385620117188e+01 2.714810180664062500e+01 -3.506606817245483398e-01 8.444926887750625610e-02 -7.986342906951904297e-02 -4.680661857128143311e-01
2.826000000000000000e+03 4.248897171020507812e+01 2.646155548095703125e+01 -3.309022188186645508e-01 2.312671095132827759e-01 -2.989053167402744293e-02 -2.990480661392211914e-01
2.827000000000000000e+03 4.376322937011718750e+01 2.524572181701660156e+01 -1.856007985770702362e-02 3.625964522361755371e-01 1.032109111547470093e-01 -1.471393704414367676e-01
2.828000000000000000e+03 4.174721908569335938e+01 2.664252662658691406e+01 -3.792657256126403809e-01 2.107084095478057861e-01 -5.056719481945037842e-02 -3.402517139911651611e-01
2.829000000000000000e+03 4.231922912597656250e+01 2.574437332153320312e+01 -1.901528686285018921e-01 2.736078202724456787e-01 2.503648772835731506e-02 -2.874978482723236084e-01
2.830000000000000000e+03 4.303841400146484375e+01 2.551114082336425781e+01 -1.186800897121429443e-01 3.106952011585235596e-01 5.760453641414642334e-02 -2.279468029737472534e-01
2.831000000000000000e+03 4.985009384155273438e+01 2.630564498901367188e+01 4.737673997879028320e-01 7.706546187400817871e-01 3.733265995979309082e-01 8.174280524253845215e-01
2.832000000000000000e+03 4.762063217163085938e+01 2.672364425659179688e+01 -5.048160627484321594e-02 3.858851492404937744e-01 1.006210595369338989e-01 2.114733904600143433e-01
2.833000000000000000e+03 4.930076599121093750e+01 2.565412330627441406e+01 5.230662226676940918e-01 8.594697117805480957e-01 4.147607684135437012e-01 7.791275382041931152e-01
2.834000000000000000e+03 3.955630493164062500e+01 2.705360412597656250e+01 -4.465517103672027588e-01 1.607935726642608643e-01 -8.572743833065032959e-02 -4.174789786338806152e-01
2.835000000000000000e+03 5.105971908569335938e+01 2.690413475036621094e+01 5.908148288726806641e-01 8.648610711097717285e-01 4.367027878761291504e-01 1.100468993186950684e+00
2.836000000000000000e+03 4.775555038452148438e+01 2.608878517150878906e+01 1.615837663412094116e-01 5.156902074813842773e-01 2.031821906566619873e-01 3.259913027286529541e-01
2.837000000000000000e+03 2.975258827209472656e+01 2.418357276916503906e+01 -7.773444801568984985e-02 -1.373165100812911987e-01 -6.451528519392013550e-02 -4.611901044845581055e-01
2.838000000000000000e+03 6.674363613128662109e+00 -6.898640632629394531e+00 1.275554823223501444e-04 1.113570615416392684e-04 7.167376315919682384e-05 1.372706319671124220e-04
2.839000000000000000e+03 4.699794387817382812e+01 2.595982360839843750e+01 9.009879082441329956e-02 4.647996127605438232e-01 1.664695292711257935e-01 2.013738155364990234e-01
2.840000000000000000e+03 8.125487327575683594e+00 7.562346458435058594e+00 -6.924809713382273912e-05 1.446581063646590337e-05 -1.643468567635864019e-05 5.732180397899355739e-06
2.841000000000000000e+03 6.961195373535156250e+01 -3.926617145538330078e+00 -1.204934343695640564e-01 7.478466987609863281e+00 2.207391977310180664e+00 -1.287489831447601318e-01
2.842000000000000000e+03 6.837628936767578125e+01 -5.031039714813232422e+00 -1.180093884468078613e-01 7.280916213989257812e+00 2.148872137069702148e+00 -1.005467996001243591e-01
2.843000000000000000e+03 6.775778961181640625e+01 -1.276516246795654297e+01 -5.580849945545196533e-02 7.111324787139892578e+00 2.116654872894287109e+00 -3.555104881525039673e-02
2.844000000000000000e+03 5.803183746337890625e+01 3.545732116699218750e+01 -9.357688426971435547e-01 1.186378383636474609e+01 3.278404474258422852e+00 -2.638268232345581055e+00
2.845000000000000000e+03 5.818949127197265625e+01 3.779274749755859375e+01 -1.303048610687255859e+00 1.045066738128662109e+01 2.744285821914672852e+00 -1.614017605781555176e+00
2.846000000000000000e+03 7.343789577484130859e+00 1.071145343780517578e+01 6.331388431135565042e-05 -2.494031832611653954e-05 1.151206924987491220e-05 -1.765371052897535264e-05
2.847000000000000000e+03 3.038543128967285156e+01 1.917590141296386719e+01 7.340912520885467529e-02 -1.733466088771820068e-01 -2.998124621808528900e-02 -4.523079693317413330e-01
2.848000000000000000e+03 2.927568435668945312e+01 1.779661369323730469e+01 7.953129708766937256e-02 -2.750482857227325439e-01 -5.865509435534477234e-02 -4.181035757064819336e-01
2.849000000000000000e+03 3.140819168090820312e+01 -2.795046567916870117e+00 5.144952982664108276e-02 1.282839328050613403e-01 5.392003804445266724e-02 -4.586427286267280579e-02
2.850000000000000000e+03 8.708603858947753906e+00 1.338482379913330078e+01 3.990453114965930581e-05 4.411253758007660508e-05 2.520512134651653469e-05 1.182680261990753934e-05
2.851000000000000000e+03 6.835522460937500000e+01 -1.868329048156738281e+01 -2.416201122105121613e-02 7.215548038482666016e+00 2.157415866851806641e+00 -1.814368925988674164e-02
2.852000000000000000e+03 6.911315917968750000e+01 -1.963905525207519531e+01 -3.655568882822990417e-02 7.354487895965576172e+00 2.195379495620727539e+00 -1.397887524217367172e-02
2.853000000000000000e+03 6.487689971923828125e+00 6.811046600341796875e+00 -2.617709469632245600e-05 5.577098363573895767e-06 -6.179998763400362805e-06 -1.833391434047371149e-05
2.854000000000000000e+03 3.085777854919433594e+01 1.238542747497558594e+01 1.420374065637588501e-01 -1.193439885973930359e-01 6.808025762438774109e-03 -3.043887317180633545e-01
2.855000000000000000e+03 2.934466743469238281e+01 1.643665313720703125e+01 9.703840315341949463e-02 -2.834757268428802490e-01 -5.593119561672210693e-02 -3.945307433605194092e-01
2.856000000000000000e+03 3.050552368164062500e+01 1.653864860534667969e+01 1.178874000906944275e-01 -1.732756644487380981e-01 -1.661647856235504150e-02 -4.022443294525146484e-01
2.857000000000000000e+03 7.110982513427734375e+01 1.971992111206054688e+01 -2.186369448900222778e-01 7.866225719451904297e+00 2.294276475906372070e+00 -1.195125102996826172e+00
2.858000000000000000e+03 2.934766769409179688e+01 2.305116653442382812e+01 -3.885339945554733276e-02 -1.784095615148544312e-01 -6.517889350652694702e-02 -4.614326059818267822e-01
2.859000000000000000e+03 3.177849388122558594e+01 2.670807456970214844e+01 -2.312664538621902466e-01 -1.141058001667261124e-02 -7.280310988426208496e-02 -4.504553973674774170e-01
2.860000000000000000e+03 7.113636779785156250e+01 1.264315986633300781e+01 -3.699924647808074951e-01 7.834805965423583984e+00 2.239444017410278320e+00 -7.366943359375000000e-01
2.861000000000000000e+03 2.973937225341796875e+01 9.406804084777832031e+00 1.010205075144767761e-01 -2.499676346778869629e-01 -4.468413814902305603e-02 -2.451058030128479004e-01
2.862000000000000000e+03 3.103728485107421875e+01 9.520199775695800781e+00 1.315132677555084229e-01 -6.898601353168487549e-02 1.875817403197288513e-02 -2.377980798482894897e-01
2.863000000000000000e+03 7.001229858398437500e+01 2.236773109436035156e+01 -7.100334390997886658e-03 8.092818260192871094e+00 2.425715446472167969e+00 -1.317950010299682617e+00
2.864000000000000000e+03 6.981717681884765625e+01 1.586916351318359375e+01 -4.579182267189025879e-01 7.966132640838623047e+00 2.252464294433593750e+00 -9.113941192626953125e-01
2.865000000000000000e+03 6.641397857666015625e+01 -2.478996276855468750e+01 -1.821518503129482269e-02 6.871456146240234375e+00 2.055972337722778320e+00 2.440962009131908417e-03
2.866000000000000000e+03 6.840858459472656250e+01 -2.307689285278320312e+01 -1.587376184761524200e-02 7.243273258209228516e+00 2.168219804763793945e+00 -3.340814495459198952e-03
2.867000000000000000e+03 7.099838256835937500e+01 -7.786499023437500000e+00 -6.733903288841247559e-02 7.728616237640380859e+00 2.298383235931396484e+00 -8.206059038639068604e-02
2.868000000000000000e+03 6.873313140869140625e+01 -1.009528541564941406e+01 -6.570063531398773193e-02 7.324439048767089844e+00 2.177621603012084961e+00 -6.306163966655731201e-02
2.869000000000000000e+03 7.064736843109130859e+00 -2.133158493041992188e+01 4.593918129103258252e-05 3.120182664133608341e-04 1.073872408596798778e-04 4.790934035554528236e-04
2.870000000000000000e+03 7.860460758209228516e+00 -1.647899627685546875e+01 -3.589597181417047977e-04 -1.552464382257312536e-04 -1.542618410894647241e-04 1.571357279317453504e-04
2.871000000000000000e+03 8.940491676330566406e+00 -1.661845016479492188e+01 4.188871535006910563e-04 1.666083408053964376e-04 1.756486599333584309e-04 4.775457637151703238e-05
2.872000000000000000e+03 3.009169006347656250e+01 -1.426441097259521484e+01 1.131796371191740036e-02 -1.029496174305677414e-02 3.069007652811706066e-04 -2.390027791261672974e-02
2.873000000000000000e+03 6.839268493652343750e+01 -1.539830303192138672e+01 -3.938126936554908752e-02 7.223666191101074219e+00 2.155285358428955078e+00 -2.844533510506153107e-02
2.874000000000000000e+03 7.141716766357421875e+01 -1.372903823852539062e+01 -4.275746643543243408e-02 7.783889770507812500e+00 2.322339773178100586e+00 -3.432976454496383667e-02
2.875000000000000000e+03 7.109600830078125000e+01 6.650505065917968750e+00 -2.641500532627105713e-01 7.771477222442626953e+00 2.252198219299316406e+00 -4.202711880207061768e-01
2.876000000000000000e+03 7.075299835205078125e+01 2.640996360778808594e+01 6.185692548751831055e-01 7.715413570404052734e+00 2.500194787979125977e+00 -1.157532691955566406e+00
2.877000000000000000e+03 7.171773529052734375e+01 2.988621139526367188e+01 8.017120957374572754e-01 7.240824699401855469e+00 2.412760972976684570e+00 -5.744048357009887695e-01
2.878000000000000000e+03 7.134645843505859375e+01 2.875400161743164062e+01 8.263796567916870117e-01 7.397761344909667969e+00 2.467242240905761719e+00 -8.132802844047546387e-01
2.879000000000000000e+03 7.001813507080078125e+01 1.868575668334960938e+01 -3.591841161251068115e-01 8.055290222167968750e+00 2.308831930160522461e+00 -1.120743632316589355e+00
2.880000000000000000e+03 3.008896446228027344e+01 -3.145204544067382812e+00 4.603802785277366638e-02 -1.031895726919174194e-01 -1.714546419680118561e-02 -6.041898578405380249e-02
2.881000000000000000e+03 6.996823120117187500e+01 1.013878345489501953e+01 -3.951835036277770996e-01 7.752513885498046875e+00 2.207199096679687500e+00 -5.645582079887390137e-01
2.882000000000000000e+03 3.199107933044433594e+01 -1.773559761047363281e+01 9.143788367509841919e-03 3.574741184711456299e-01 1.099853739142417908e-01 -1.133645791560411453e-02
2.883000000000000000e+03 2.884393692016601562e+01 -1.954677200317382812e+01 1.368635427206754684e-02 -2.387596666812896729e-01 -6.752199679613113403e-02 -2.479606680572032928e-02
2.884000000000000000e+03 6.866959381103515625e+01 -2.773547363281250000e+01 -3.808538895100355148e-03 7.278838157653808594e+00 2.182508945465087891e+00 1.384951733052730560e-02
2.885000000000000000e+03 3.073182678222656250e+01 1.378836631774902344e+01 1.412463784217834473e-01 -1.438720822334289551e-01 -7.877114694565534592e-04 -3.395670354366302490e-01
2.886000000000000000e+03 3.117923927307128906e+01 3.799016237258911133e+00 8.497959375381469727e-02 1.750745438039302826e-02 3.074611350893974304e-02 -1.228386536240577698e-01
2.887000000000000000e+03 3.115807533264160156e+01 5.201465129852294922e+00 9.583401679992675781e-02 -1.236559590324759483e-03 2.837923727929592133e-02 -1.479403227567672729e-01
2.888000000000000000e+03 7.669366359710693359e+00 -3.078883743286132812e+01 4.035287536680698395e-03 -1.138061517849564552e-03 8.691678522154688835e-04 -2.942532300949096680e-04
2.889000000000000000e+03 3.012229728698730469e+01 -1.661591720581054688e+01 1.336963940411806107e-02 -3.061553277075290680e-02 -5.173767916858196259e-03 -2.223456837236881256e-02
2.890000000000000000e+03 3.042930412292480469e+01 2.163266754150390625e+01 8.087023161351680756e-03 -1.441235095262527466e-01 -4.081094637513160706e-02 -4.785922467708587646e-01
2.891000000000000000e+03 7.087796783447265625e+01 1.464279747009277344e+01 -4.036467075347900391e-01 7.878896713256835938e+00 2.242574930191040039e+00 -8.590945601463317871e-01
2.892000000000000000e+03 7.045127868652343750e+01 1.536372947692871094e+01 -4.257363677024841309e-01 7.915598869323730469e+00 2.246958732604980469e+00 -8.946983814239501953e-01
2.893000000000000000e+03 3.254907226562500000e+01 3.870629549026489258e+00 1.062220260500907898e-01 2.431483417749404907e-01 1.048111096024513245e-01 -1.084581315517425537e-01
2.894000000000000000e+03 9.007206916809082031e+00 1.623727035522460938e+01 1.026052086672279984e-05 -2.676247731869807467e-06 2.275281758556957357e-06 -6.907156375746126287e-07
2.895000000000000000e+03 7.063369750976562500e+01 2.163832855224609375e+01 -6.971582025289535522e-02 7.966766357421875000e+00 2.369115114212036133e+00 -1.284431099891662598e+00
2.896000000000000000e+03 6.980895996093750000e+01 2.111476135253906250e+01 -1.565378159284591675e-01 8.139642715454101562e+00 2.394931554794311523e+00 -1.275081634521484375e+00
2.897000000000000000e+03 8.743591308593750000e+00 -2.869706916809082031e+01 1.241572201251983643e-03 2.258094318676739931e-04 4.402144695632159710e-04 -3.130255499854683876e-04
2.898000000000000000e+03 2.659129524230957031e+01 -3.047532272338867188e+01 -3.287585824728012085e-02 -5.686724185943603516e-01 -1.804644763469696045e-01 -5.476897954940795898e-02
2.899000000000000000e+03 3.071073722839355469e+01 -3.194942665100097656e+01 -2.393513685092329979e-03 2.214571833610534668e-01 6.571909785270690918e-02 2.908264286816120148e-03
2.900000000000000000e+03 6.992189025878906250e+01 -5.004915595054626465e-01 -1.567185521125793457e-01 7.567102432250976562e+00 2.223115205764770508e+00 -1.923836171627044678e-01
2.901000000000000000e+03 2.407155036926269531e+01 -3.724056625366210938e+01 3.936535213142633438e-03 -1.022732019424438477e+00 -3.056386411190032959e-01 1.032711789011955261e-01
2.902000000000000000e+03 6.889098358154296875e+01 2.444855928421020508e+00 -2.480430603027343750e-01 7.438246726989746094e+00 2.157061100006103516e+00 -2.396288067102432251e-01
2.903000000000000000e+03 7.100129699707031250e+01 5.436733245849609375e+00 -2.435129880905151367e-01 7.756332397460937500e+00 2.253845691680908203e+00 -3.707591593265533447e-01
2.904000000000000000e+03 5.940708160400390625e+01 2.820435523986816406e+01 6.994575858116149902e-01 1.537620735168457031e+01 4.822699546813964844e+00 5.137079358100891113e-01
2.905000000000000000e+03 5.923377609252929688e+01 2.856824111938476562e+01 1.024898052215576172e+00 1.627423477172851562e+01 5.189739704132080078e+00 5.553537607192993164e-01
2.906000000000000000e+03 5.994398117065429688e+01 2.883383369445800781e+01 2.311042547225952148e+00 1.570310783386230469e+01 5.404244899749755859e+00 -9.306519627571105957e-01
2.907000000000000000e+03 5.695337295532226562e+01 2.782237434387207031e+01 1.086279511451721191e+00 9.238090515136718750e+00 3.097311019897460938e+00 4.981779098510742188e+00
2.908000000000000000e+03 5.680264663696289062e+01 2.809483909606933594e+01 1.492018818855285645e+00 8.663492202758789062e+00 3.046653270721435547e+00 5.324582099914550781e+00
2.909000000000000000e+03 5.669630432128906250e+01 2.778310394287109375e+01 1.297685503959655762e+00 8.262639045715332031e+00 2.868097305297851562e+00 4.984403133392333984e+00
2.910000000000000000e+03 5.471895980834960938e+01 2.744838905334472656e+01 1.638078451156616211e+00 3.293214797973632812e+00 1.479387998580932617e+00 3.393509387969970703e+00
2.911000000000000000e+03 5.489877319335937500e+01 2.635580444335937500e+01 1.265706777572631836e+00 4.399837493896484375e+00 1.699663281440734863e+00 3.488216161727905273e+00
2.912000000000000000e+03 5.839465713500976562e+01 2.777040290832519531e+01 4.110745713114738464e-02 1.375938510894775391e+01 4.140147686004638672e+00 2.972430467605590820e+00
2.913000000000000000e+03 5.817021560668945312e+01 3.479410934448242188e+01 -7.961128354072570801e-01 1.310275554656982422e+01 3.691992759704589844e+00 -2.749244451522827148e+00
2.914000000000000000e+03 5.806164169311523438e+01 3.651555633544921875e+01 -1.146474719047546387e+00 1.089031887054443359e+01 2.923153400421142578e+00 -2.098528146743774414e+00
2.915000000000000000e+03 6.078120803833007812e+01 3.474970245361328125e+01 2.157990783452987671e-01 1.392665481567382812e+01 4.242736339569091797e+00 1.227862715721130371e+00
2.916000000000000000e+03 6.140517425537109375e+01 3.031679153442382812e+01 5.587061405181884766e+00 1.258121204376220703e+01 5.450482368469238281e+00 -7.692052125930786133e-01
2.917000000000000000e+03 5.943548583984375000e+01 3.509822463989257812e+01 -8.949680924415588379e-01 1.410295867919921875e+01 3.962397336959838867e+00 -5.472992062568664551e-01
2.918000000000000000e+03 6.167108154296875000e+01 3.064891052246093750e+01 5.447876453399658203e+00 1.211833286285400391e+01 5.269863128662109375e+00 -3.541342914104461670e-01
2.919000000000000000e+03 5.988007354736328125e+01 3.584513854980468750e+01 -1.009034037590026855e+00 1.318276691436767578e+01 3.652119636535644531e+00 -2.600961029529571533e-01
2.920000000000000000e+03 5.374949645996093750e+01 2.709000396728515625e+01 1.369245529174804688e+00 2.327001094818115234e+00 1.108874082565307617e+00 2.617302417755126953e+00
2.921000000000000000e+03 5.419615554809570312e+01 2.702577590942382812e+01 1.454715371131896973e+00 2.862831830978393555e+00 1.295264124870300293e+00 2.959601163864135742e+00
2.922000000000000000e+03 6.042963027954101562e+01 3.529183959960937500e+01 -4.218543767929077148e-01 1.370123767852783203e+01 3.983815193176269531e+00 6.362514495849609375e-01
2.923000000000000000e+03 6.114114379882812500e+01 3.433949279785156250e+01 1.048597693443298340e+00 1.368936824798583984e+01 4.421390056610107422e+00 1.681067705154418945e+00
2.924000000000000000e+03 5.684291458129882812e+01 2.713373565673828125e+01 7.489989399909973145e-01 8.685956954956054688e+00 2.830486774444580078e+00 4.463768482208251953e+00
2.925000000000000000e+03 5.104901504516601562e+01 2.639293479919433594e+01 7.216524481773376465e-01 1.075650334358215332e+00 5.391908288002014160e-01 1.233567118644714355e+00
2.926000000000000000e+03 5.257299041748046875e+01 2.623219871520996094e+01 1.090782284736633301e+00 1.915484905242919922e+00 9.018801450729370117e-01 2.030076980590820312e+00
2.927000000000000000e+03 5.695252990722656250e+01 3.635154342651367188e+01 -5.524500608444213867e-01 8.943539619445800781e+00 2.517326831817626953e+00 -2.733631849288940430e+00
2.928000000000000000e+03 6.539308929443359375e+01 3.383044815063476562e+01 1.673040270805358887e+00 1.006390571594238281e+01 3.521083831787109375e+00 9.930638074874877930e-01
2.929000000000000000e+03 6.135783767700195312e+01 3.495650482177734375e+01 4.210126101970672607e-01 1.331461143493652344e+01 4.120687007904052734e+00 1.439664006233215332e+00
2.930000000000000000e+03 6.187294387817382812e+01 3.347690200805664062e+01 2.675713539123535156e+00 1.275158023834228516e+01 4.628188133239746094e+00 1.945430040359497070e+00
2.931000000000000000e+03 6.313913726806640625e+01 3.208566665649414062e+01 3.742859363555908203e+00 1.097947311401367188e+01 4.416699886322021484e+00 9.150005578994750977e-01
2.932000000000000000e+03 6.304064559936523438e+01 3.275490188598632812e+01 3.244575977325439453e+00 1.124581146240234375e+01 4.347115993499755859e+00 1.327430129051208496e+00
2.933000000000000000e+03 5.046949768066406250e+01 2.636075401306152344e+01 5.925751328468322754e-01 9.042611718177795410e-01 4.490509033203125000e-01 1.010150790214538574e+00
2.934000000000000000e+03 5.154579925537109375e+01 2.591043472290039062e+01 9.109035730361938477e-01 1.494083046913146973e+00 7.214959859848022461e-01 1.576100707054138184e+00
2.935000000000000000e+03 3.318435287475585938e+01 2.763257408142089844e+01 -3.251039683818817139e-01 3.918849676847457886e-02 -8.577463775873184204e-02 -4.416899681091308594e-01
2.936000000000000000e+03 2.965148544311523438e+01 2.633301734924316406e+01 -1.557841002941131592e-01 -8.612452447414398193e-02 -7.257258892059326172e-02 -4.265294075012207031e-01
2.937000000000000000e+03 2.898783493041992188e+01 2.623117256164550781e+01 -1.330292522907257080e-01 -1.190364882349967957e-01 -7.561971992254257202e-02 -4.112161695957183838e-01
2.938000000000000000e+03 3.629979324340820312e+01 2.594257164001464844e+01 -2.600916028022766113e-01 1.161706596612930298e-01 -4.317628592252731323e-02 -4.873665869235992432e-01
2.939000000000000000e+03 4.087835693359375000e+01 2.609523010253906250e+01 -2.873359918594360352e-01 2.181104719638824463e-01 -2.076765336096286774e-02 -3.729999363422393799e-01
2.940000000000000000e+03 2.863117218017578125e+01 2.789620971679687500e+01 -1.748301237821578979e-01 -8.469390124082565308e-02 -7.785720378160476685e-02 -3.539420664310455322e-01
2.941000000000000000e+03 2.881712722778320312e+01 2.494199752807617188e+01 -9.120561182498931885e-02 -1.569263041019439697e-01 -7.443957775831222534e-02 -4.318149983882904053e-01
2.942000000000000000e+03 2.800526237487792969e+01 2.694461631774902344e+01 -1.306042373180389404e-01 -1.316894143819808960e-01 -7.868809998035430908e-02 -3.629281520843505859e-01
2.943000000000000000e+03 4.279435729980468750e+01 2.476082992553710938e+01 9.909825399518013000e-03 3.640954792499542236e-01 1.122015938162803650e-01 -2.065993696451187134e-01
2.944000000000000000e+03 3.550601577758789062e+01 2.610382652282714844e+01 -2.654951214790344238e-01 9.251161664724349976e-02 -5.189505219459533691e-02 -4.901960492134094238e-01
2.945000000000000000e+03 4.620615386962890625e+01 2.574933624267578125e+01 5.877870321273803711e-02 4.321942925453186035e-01 1.472918987274169922e-01 9.657615423202514648e-02
2.946000000000000000e+03 3.486750411987304688e+01 2.640405082702636719e+01 -2.777380049228668213e-01 7.515094429254531860e-02 -6.077611446380615234e-02 -4.860746264457702637e-01
2.947000000000000000e+03 4.211566925048828125e+01 2.503145027160644531e+01 -7.299546897411346436e-02 3.134519755840301514e-01 7.213694602251052856e-02 -2.749156653881072998e-01
2.948000000000000000e+03 4.028007888793945312e+01 2.693513298034667969e+01 -4.346716105937957764e-01 1.751969158649444580e-01 -7.784241437911987305e-02 -3.980448842048645020e-01
2.949000000000000000e+03 3.942664718627929688e+01 2.630080795288085938e+01 -3.289162814617156982e-01 1.789133697748184204e-01 -4.500087350606918335e-02 -4.265114665031433105e-01
2.950000000000000000e+03 5.159121704101562500e+01 2.638329887390136719e+01 8.596667051315307617e-01 1.297804594039916992e+00 6.472414135932922363e-01 1.481451272964477539e+00
2.951000000000000000e+03 4.848406982421875000e+01 2.617743110656738281e+01 2.502945363521575928e-01 5.818368792533874512e-01 2.496394217014312744e-01 4.694948792457580566e-01
2.952000000000000000e+03 4.862972259521484375e+01 2.556790733337402344e+01 4.254105389118194580e-01 7.561109066009521484e-01 3.544564247131347656e-01 6.072777509689331055e-01
2.953000000000000000e+03 3.884243774414062500e+01 2.716879272460937500e+01 -4.509979188442230225e-01 1.485294103622436523e-01 -9.074055403470993042e-02 -4.302150309085845947e-01
2.954000000000000000e+03 4.994021606445312500e+01 2.573891639709472656e+01 6.194959878921508789e-01 9.767841100692749023e-01 4.788840115070343018e-01 9.632691144943237305e-01
2.955000000000000000e+03 4.725267028808593750e+01 2.530610466003417969e+01 2.836986184120178223e-01 6.148016452789306641e-01 2.695500850677490234e-01 3.376695513725280762e-01
2.956000000000000000e+03 6.992570495605468750e+01 1.130720520019531250e+01 -4.248507022857666016e-01 7.789353847503662109e+00 2.209351062774658203e+00 -6.244013309478759766e-01
2.957000000000000000e+03 6.948207855224609375e+01 3.298202753067016602e+00 -2.424325048923492432e-01 7.557590484619140625e+00 2.194547414779663086e+00 -2.838045060634613037e-01
2.958000000000000000e+03 6.982938385009765625e+01 1.781002807617187500e+01 -4.126080870628356934e-01 8.053610801696777344e+00 2.292300939559936523e+00 -1.056548714637756348e+00
2.959000000000000000e+03 3.255163192749023438e+01 2.777276992797851562e+01 -3.088026940822601318e-01 2.477140352129936218e-02 -8.520938456058502197e-02 -4.308271706104278564e-01
2.960000000000000000e+03 3.192009735107421875e+01 2.352685546875000000e+01 -6.664407998323440552e-02 -4.433620348572731018e-02 -3.329408541321754456e-02 -5.018004179000854492e-01
2.961000000000000000e+03 6.714733123779296875e+01 -1.135325431823730469e+01 -6.921028345823287964e-02 6.987746238708496094e+00 2.075560808181762695e+00 -4.249903559684753418e-02
2.962000000000000000e+03 3.088688468933105469e+01 2.377653884887695312e+01 -7.188061624765396118e-02 -9.013532102108001709e-02 -4.860478267073631287e-02 -4.880785048007965088e-01
2.963000000000000000e+03 6.856433105468750000e+01 -1.369313359260559082e+00 -1.761983186006546021e-01 7.333282470703125000e+00 2.147125244140625000e+00 -1.535807847976684570e-01
2.964000000000000000e+03 7.006539154052734375e+01 -3.080607652664184570e+00 -1.201516687870025635e-01 7.561479568481445312e+00 2.232398509979248047e+00 -1.492412835359573364e-01
2.965000000000000000e+03 6.873127746582031250e+01 6.574728488922119141e+00 -3.549269437789916992e-01 7.545800209045410156e+00 2.157262086868286133e+00 -3.670293688774108887e-01
2.966000000000000000e+03 3.707636642456054688e+01 2.580211639404296875e+01 -2.520186901092529297e-01 1.382238268852233887e-01 -3.413845971226692200e-02 -4.790824353694915771e-01
2.967000000000000000e+03 3.798801040649414062e+01 2.650134658813476562e+01 -3.459951281547546387e-01 1.473752111196517944e-01 -5.958597734570503235e-02 -4.567146301269531250e-01
2.968000000000000000e+03 3.158076667785644531e+01 1.795681571960449219e+01 1.220292523503303528e-01 -8.141692727804183960e-02 1.218369603157043457e-02 -4.326695203781127930e-01
2.969000000000000000e+03 2.945697784423828125e+01 2.713946533203125000e+01 -1.800788044929504395e-01 -7.467773556709289551e-02 -7.642696052789688110e-02 -4.000015556812286377e-01
2.970000000000000000e+03 3.060868453979492188e+01 1.517519283294677734e+01 1.337955743074417114e-01 -1.613974422216415405e-01 -8.280559442937374115e-03 -3.727587163448333740e-01
2.971000000000000000e+03 3.165964889526367188e+01 1.665103530883789062e+01 1.442539244890213013e-01 -6.818908452987670898e-02 2.281945198774337769e-02 -3.999687731266021729e-01
2.972000000000000000e+03 3.230097961425781250e+01 1.109508037567138672e+01 1.699940711259841919e-01 7.838484644889831543e-02 7.451367378234863281e-02 -2.560436725616455078e-01
2.973000000000000000e+03 6.909553527832031250e+01 2.416292572021484375e+01 3.113242983818054199e-01 8.332703590393066406e+00 2.593208312988281250e+00 -1.350810885429382324e+00
2.974000000000000000e+03 3.108937835693359375e+01 8.067608833312988281e+00 1.214927509427070618e-01 -4.370335116982460022e-02 2.333681844174861908e-02 -2.046918123960494995e-01
2.975000000000000000e+03 3.237116622924804688e+01 9.622690200805664062e+00 1.630622148513793945e-01 1.195921897888183594e-01 8.479632437229156494e-02 -2.198214083909988403e-01
2.976000000000000000e+03 3.037787437438964844e+01 2.042955589294433594e+01 4.295745864510536194e-02 -1.629282981157302856e-01 -3.599125146865844727e-02 -4.671186804771423340e-01
2.977000000000000000e+03 6.984015655517578125e+01 5.477102279663085938e+00 -2.871507406234741211e-01 7.631029605865478516e+00 2.203163623809814453e+00 -3.594797253608703613e-01
2.978000000000000000e+03 5.947894096374511719e+00 -3.012235260009765625e+01 1.827444881200790405e-03 1.432015505997696891e-05 5.525295273400843143e-04 9.311891044490039349e-04
2.979000000000000000e+03 6.938667297363281250e+01 2.297620582580566406e+01 6.738987565040588379e-02 8.238087654113769531e+00 2.491643190383911133e+00 -1.341323614120483398e+00
2.980000000000000000e+03 6.209893417358398438e+01 -2.201019477844238281e+01 -2.429209835827350616e-02 6.034482002258300781e+00 1.803056955337524414e+00 2.592358505353331566e-03
2.981000000000000000e+03 6.492601776123046875e+01 -2.561285018920898438e+01 -1.873631216585636139e-02 6.585556983947753906e+00 1.970046281814575195e+00 -5.990770179778337479e-03
2.982000000000000000e+03 6.995062255859375000e+01 1.346507835388183594e+01 -4.661743342876434326e-01 7.874446392059326172e+00 2.222481727600097656e+00 -7.502217292785644531e-01
2.983000000000000000e+03 6.995362854003906250e+01 1.423069477081298828e+01 -4.554204344749450684e-01 7.908606529235839844e+00 2.235955715179443359e+00 -8.147998452186584473e-01
2.984000000000000000e+03 5.227505207061767578e+00 2.225780677795410156e+01 -3.624112650868482888e-05 -1.346965291304513812e-05 -1.491323382651899010e-05 -7.731321238679811358e-05
2.985000000000000000e+03 3.026143455505371094e+01 -4.473319530487060547e+00 3.799596428871154785e-02 -7.092197984457015991e-02 -9.877804666757583618e-03 -5.246533453464508057e-02
2.986000000000000000e+03 9.641988754272460938e+00 -2.751931762695312500e+01 1.337682246230542660e-03 1.571501925354823470e-04 4.484497185330837965e-04 -8.548356709070503712e-04
2.987000000000000000e+03 6.967373657226562500e+01 3.233929443359375000e+01 1.126181125640869141e+00 8.024028778076171875e+00 2.745063066482543945e+00 -2.519195713102817535e-02
2.988000000000000000e+03 6.980993652343750000e+01 2.691908073425292969e+01 8.235824108123779297e-01 7.987957477569580078e+00 2.643461942672729492e+00 -1.152071475982666016e+00
2.989000000000000000e+03 3.246701049804687500e+01 6.699704647064208984e+00 1.355869323015213013e-01 1.857894659042358398e-01 9.641291946172714233e-02 -1.581540256738662720e-01
2.990000000000000000e+03 3.154516601562500000e+01 1.921963882446289062e+01 9.148819744586944580e-02 -8.760291337966918945e-02 1.165583496913313866e-03 -4.567581415176391602e-01
2.991000000000000000e+03 2.987138938903808594e+01 9.212182760238647461e-01 4.929926246404647827e-02 -1.810819506645202637e-01 -3.953480720520019531e-02 -9.247874468564987183e-02
2.992000000000000000e+03 3.118952560424804688e+01 2.415568113327026367e+00 7.542455941438674927e-02 3.095377609133720398e-02 3.191350027918815613e-02 -1.037875264883041382e-01
2.993000000000000000e+03 7.475005149841308594e+00 1.633123016357421875e+01 -7.112891580618452281e-06 1.431582973054901231e-06 -1.704392616375116631e-06 2.338317972316872329e-05
2.994000000000000000e+03 7.002638244628906250e+01 1.730679392814636230e+00 -1.999370902776718140e-01 7.595495223999023438e+00 2.218667507171630859e+00 -2.406886070966720581e-01
2.995000000000000000e+03 6.970453643798828125e+01 4.356346130371093750e+00 -2.667935788631439209e-01 7.600669860839843750e+00 2.200162887573242188e+00 -3.188829123973846436e-01
2.996000000000000000e+03 3.058480453491210938e+01 2.276256942749023438e+01 -3.029921650886535645e-02 -1.182401701807975769e-01 -4.456181451678276062e-02 -4.863416552543640137e-01
2.997000000000000000e+03 3.249995422363281250e+01 2.532940673828125000e+01 -1.630670279264450073e-01 -5.774572491645812988e-03 -5.065247789025306702e-02 -4.913868904113769531e-01
2.998000000000000000e+03 3.251323318481445312e+01 5.273186683654785156e+00 1.207291707396507263e-01 2.173762321472167969e-01 1.014316156506538391e-01 -1.300899535417556763e-01
2.999000000000000000e+03 3.195375442504882812e+01 1.394552898406982422e+01 1.729561239480972290e-01 -3.678255714476108551e-03 5.078336223959922791e-02 -3.327126204967498779e-01
3.000000000000000000e+03 3.112948989868164062e+01 6.622765064239501953e+00 1.087742298841476440e-01 -1.966225728392601013e-02 2.673359215259552002e-02 -1.737980842590332031e-01
3.001000000000000000e+03 3.034656906127929688e+01 -1.294190883636474609e+01 8.064341731369495392e-03 1.973929814994335175e-02 8.341092616319656372e-03 -2.302052639424800873e-02
3.002000000000000000e+03 2.856321525573730469e+01 -1.431540584564208984e+01 6.638370919972658157e-03 -3.118155598640441895e-01 -9.155315905809402466e-02 -2.747363783419132233e-02
3.003000000000000000e+03 6.833425903320312500e+01 2.954586410522460938e+01 1.527662277221679688e+00 8.358841896057128906e+00 2.965951204299926758e+00 -7.152758240699768066e-01
3.004000000000000000e+03 6.820657348632812500e+01 3.234877777099609375e+01 1.456829428672790527e+00 8.544070243835449219e+00 3.000269889831542969e+00 9.394152462482452393e-02
3.005000000000000000e+03 3.255880355834960938e+01 2.493749618530273438e+00 9.340366721153259277e-02 2.648364603519439697e-01 1.074720397591590881e-01 -8.916436880826950073e-02
3.006000000000000000e+03 1.029345798492431641e+01 -3.543056869506835938e+01 2.796606719493865967e-02 -1.840204559266567230e-02 2.869206480681896210e-03 3.487416775897145271e-03
3.007000000000000000e+03 6.943380737304687500e+01 -2.404003143310546875e+01 -8.113912306725978851e-03 7.421312808990478516e+00 2.223959684371948242e+00 3.367260564118623734e-03
3.008000000000000000e+03 3.060065650939941406e+01 -2.032172775268554688e+01 9.839585982263088226e-03 1.258911192417144775e-01 4.071921110153198242e-02 -1.412773970514535904e-02
3.009000000000000000e+03 6.877346038818359375e+01 3.518857955932617188e+01 6.500585079193115234e-01 8.721026420593261719e+00 2.811325550079345703e+00 4.988740384578704834e-01
3.010000000000000000e+03 2.916894340515136719e+01 -2.654039573669433594e+01 3.171185730025172234e-03 -9.428229182958602905e-02 -2.733333036303520203e-02 -2.956854552030563354e-02
3.011000000000000000e+03 7.108349609375000000e+01 2.758857345581054688e+01 7.450837492942810059e-01 7.541243553161621094e+00 2.485898256301879883e+00 -9.816868305206298828e-01
3.012000000000000000e+03 6.998117828369140625e+01 8.959838867187500000e+00 -3.669631481170654297e-01 7.721530437469482422e+00 2.206370115280151367e+00 -5.061275362968444824e-01
3.013000000000000000e+03 5.999494552612304688e+01 2.836862945556640625e+01 1.527851462364196777e+00 1.494827461242675781e+01 4.942837715148925781e+00 -5.732253789901733398e-01
3.014000000000000000e+03 5.973806381225585938e+01 2.857888793945312500e+01 1.591945528984069824e+00 1.571339035034179688e+01 5.191600799560546875e+00 -3.634270727634429932e-01
3.015000000000000000e+03 5.710997009277343750e+01 2.746583747863769531e+01 7.226599454879760742e-01 9.691203117370605469e+00 3.124158859252929688e+00 4.603752136230468750e+00
3.016000000000000000e+03 6.020984649658203125e+01 2.904456520080566406e+01 3.052834033966064453e+00 1.527815818786621094e+01 5.499297618865966797e+00 -1.381407260894775391e+00
3.017000000000000000e+03 5.799541091918945312e+01 2.792561721801757812e+01 2.472173124551773071e-01 1.310436248779296875e+01 4.005474090576171875e+00 3.869872331619262695e+00
3.018000000000000000e+03 5.544000244140625000e+01 2.788440704345703125e+01 1.918192863464355469e+00 4.259767532348632812e+00 1.853388071060180664e+00 4.155447959899902344e+00
3.019000000000000000e+03 5.547568893432617188e+01 2.821572685241699219e+01 2.113538265228271484e+00 3.892896652221679688e+00 1.801930546760559082e+00 4.135221958160400391e+00
3.020000000000000000e+03 5.888363647460937500e+01 2.800829124450683594e+01 1.971442848443984985e-01 1.490144062042236328e+01 4.529575824737548828e+00 1.858670234680175781e+00
3.021000000000000000e+03 6.112995910644531250e+01 3.575743103027343750e+01 -4.508112370967864990e-01 1.307198333740234375e+01 3.786351680755615234e+00 9.123531579971313477e-01
3.022000000000000000e+03 5.463140487670898438e+01 2.694790458679199219e+01 1.474102377891540527e+00 3.661781311035156250e+00 1.540765166282653809e+00 3.383391857147216797e+00
3.023000000000000000e+03 6.058253860473632812e+01 3.660511016845703125e+01 -1.065453767776489258e+00 1.255443954467773438e+01 3.446695804595947266e+00 2.336672544479370117e-01
3.024000000000000000e+03 6.148848342895507812e+01 2.947149848937988281e+01 4.202676296234130859e+00 1.275590419769287109e+01 5.087574005126953125e+00 -1.395307540893554688e+00
3.025000000000000000e+03 6.117578887939453125e+01 2.924777603149414062e+01 3.845616340637207031e+00 1.334342193603515625e+01 5.156711578369140625e+00 -1.506486654281616211e+00
3.026000000000000000e+03 6.125261306762695312e+01 2.982443046569824219e+01 4.983814716339111328e+00 1.302244758605957031e+01 5.401878833770751953e+00 -1.321452856063842773e+00
3.027000000000000000e+03 6.202444458007812500e+01 3.077426528930664062e+01 5.072257041931152344e+00 1.172915649414062500e+01 5.040423870086669922e+00 -2.326443344354629517e-01
3.028000000000000000e+03 5.476942062377929688e+01 2.793653869628906250e+01 1.758234858512878418e+00 2.815394401550292969e+00 1.372088789939880371e+00 3.296364307403564453e+00
3.029000000000000000e+03 5.199853897094726562e+01 2.585141944885253906e+01 1.004734039306640625e+00 1.759862661361694336e+00 8.293790221214294434e-01 1.793942332267761230e+00
3.030000000000000000e+03 5.242011642456054688e+01 2.573978042602539062e+01 1.068765163421630859e+00 2.086651325225830078e+00 9.466249346733093262e-01 2.027248859405517578e+00
3.031000000000000000e+03 6.339636230468750000e+01 3.613875198364257812e+01 5.724738165736198425e-02 1.164833736419677734e+01 3.511675596237182617e+00 1.309598207473754883e+00
3.032000000000000000e+03 3.127942085266113281e+01 2.733920669555664062e+01 -2.446394264698028564e-01 -1.488842163234949112e-02 -7.785835117101669312e-02 -4.273890554904937744e-01
3.033000000000000000e+03 6.322119903564453125e+01 3.036750221252441406e+01 3.994742870330810547e+00 1.076824569702148438e+01 4.428896427154541016e+00 -4.646248817443847656e-01
3.034000000000000000e+03 2.949642753601074219e+01 2.560365295410156250e+01 -1.265189796686172485e-01 -1.089992895722389221e-01 -7.065548002719879150e-02 -4.378028213977813721e-01
3.035000000000000000e+03 2.875766754150390625e+01 2.704998207092285156e+01 -1.534450948238372803e-01 -1.049898862838745117e-01 -7.753049582242965698e-02 -3.846190869808197021e-01
3.036000000000000000e+03 3.030878257751464844e+01 2.645552062988281250e+01 -1.755470782518386841e-01 -6.317701190710067749e-02 -7.161722332239151001e-02 -4.361661672592163086e-01
3.037000000000000000e+03 3.609288406372070312e+01 2.508876800537109375e+01 -1.790828555822372437e-01 1.197929456830024719e-01 -1.778697408735752106e-02 -4.937171041965484619e-01
3.038000000000000000e+03 3.689021301269531250e+01 2.495774841308593750e+01 -1.657688766717910767e-01 1.454232335090637207e-01 -6.103695370256900787e-03 -4.827076792716979980e-01
3.039000000000000000e+03 4.125576019287109375e+01 2.459640121459960938e+01 -4.340144619345664978e-02 3.095152378082275391e-01 7.983413338661193848e-02 -3.141106665134429932e-01
3.040000000000000000e+03 6.246950912475585938e+01 3.319940185546875000e+01 2.958616495132446289e+00 1.199079322814941406e+01 4.484822750091552734e+00 1.676709651947021484e+00
3.041000000000000000e+03 6.210193252563476562e+01 3.607550430297851562e+01 -2.643814086914062500e-01 1.241017246246337891e+01 3.643737316131591797e+00 1.138928413391113281e+00
3.042000000000000000e+03 3.431767272949218750e+01 2.665669822692871094e+01 -2.915240228176116943e-01 5.664045736193656921e-02 -7.046506553888320923e-02 -4.752936959266662598e-01
3.043000000000000000e+03 3.523957824707031250e+01 2.518787765502929688e+01 -1.851411908864974976e-01 8.903165906667709351e-02 -2.883285842835903168e-02 -5.011331439018249512e-01
3.044000000000000000e+03 5.105834960937500000e+01 2.590329170227050781e+01 8.071277737617492676e-01 1.298750638961791992e+00 6.317635178565979004e-01 1.343362927436828613e+00
3.045000000000000000e+03 5.149770355224609375e+01 2.547725868225097656e+01 9.379138350486755371e-01 1.713281035423278809e+00 7.953584194183349609e-01 1.660278797149658203e+00
3.046000000000000000e+03 3.368145370483398438e+01 2.676554107666015625e+01 -2.850632369518280029e-01 4.488439485430717468e-02 -7.205364853143692017e-02 -4.717716276645660400e-01
3.047000000000000000e+03 4.143874740600585938e+01 2.525248718261718750e+01 -1.331755816936492920e-01 2.755197286605834961e-01 4.270324110984802246e-02 -3.262725472450256348e-01
3.048000000000000000e+03 4.151834487915039062e+01 2.365859413146972656e+01 9.557788074016571045e-02 3.822286128997802734e-01 1.433419436216354370e-01 -2.513135671615600586e-01
3.049000000000000000e+03 4.660476303100585938e+01 2.508226394653320312e+01 2.560958266258239746e-01 5.960882306098937988e-01 2.556552290916442871e-01 2.401074022054672241e-01
3.050000000000000000e+03 3.430072784423828125e+01 2.599429512023925781e+01 -2.361781001091003418e-01 5.791767686605453491e-02 -5.347812548279762268e-02 -4.943317770957946777e-01
3.051000000000000000e+03 6.250404357910156250e+01 3.227861404418945312e+01 4.152893066406250000e+00 1.166156768798828125e+01 4.744338512420654297e+00 1.263146042823791504e+00
3.052000000000000000e+03 4.514822006225585938e+01 2.456967353820800781e+01 1.973664462566375732e-01 5.333414077758789062e-01 2.192123681306838989e-01 6.034007295966148376e-02
3.053000000000000000e+03 4.607087707519531250e+01 2.474807929992675781e+01 2.616124153137207031e-01 5.765381455421447754e-01 2.514451742172241211e-01 1.875095069408416748e-01
3.054000000000000000e+03 4.794186782836914062e+01 2.545876693725585938e+01 3.439464271068572998e-01 6.722403168678283691e-01 3.048560321331024170e-01 4.582603871822357178e-01
3.055000000000000000e+03 6.322420501708984375e+01 3.489931869506835938e+01 1.055750966072082520e+00 1.169990062713623047e+01 3.826695442199707031e+00 1.533595561981201172e+00
3.056000000000000000e+03 4.186406707763671875e+01 2.433416175842285156e+01 2.690734900534152985e-02 3.523509204387664795e-01 1.137774810194969177e-01 -2.577678859233856201e-01
3.057000000000000000e+03 3.382822418212890625e+01 2.748898124694824219e+01 -3.365338742733001709e-01 5.013730376958847046e-02 -8.591897785663604736e-02 -4.495997726917266846e-01
3.058000000000000000e+03 3.244875335693359375e+01 2.710947227478027344e+01 -2.686024010181427002e-01 1.574725471436977386e-02 -7.585654407739639282e-02 -4.528819620609283447e-01
3.059000000000000000e+03 4.003324890136718750e+01 2.548217391967773438e+01 -2.013094276189804077e-01 2.229047268629074097e-01 6.478590425103902817e-03 -3.983983397483825684e-01
3.060000000000000000e+03 5.283731842041015625e+01 2.558813476562500000e+01 1.106519341468811035e+00 2.466429471969604492e+00 1.071884632110595703e+00 2.274271249771118164e+00
3.061000000000000000e+03 4.945529174804687500e+01 2.505158615112304688e+01 6.528002023696899414e-01 1.077260613441467285e+00 5.190182328224182129e-01 9.273204207420349121e-01
3.062000000000000000e+03 5.008440780639648438e+01 2.515687942504882812e+01 7.388064861297607422e-01 1.227196216583251953e+00 5.898007750511169434e-01 1.116643071174621582e+00
3.063000000000000000e+03 4.880738449096679688e+01 2.495646667480468750e+01 5.684724450111389160e-01 9.580135345458984375e-01 4.579457938671112061e-01 7.550143003463745117e-01
3.064000000000000000e+03 5.065713119506835938e+01 2.529704093933105469e+01 8.121291399002075195e-01 1.355463504791259766e+00 6.502777934074401855e-01 1.300336241722106934e+00
3.065000000000000000e+03 3.783317947387695312e+01 2.567082977294921875e+01 -2.413590997457504272e-01 1.606137007474899292e-01 -2.422362193465232849e-02 -4.673095047473907471e-01
3.066000000000000000e+03 3.154263496398925781e+01 2.042063140869140625e+01 5.658720061182975769e-02 -8.531805127859115601e-02 -8.619256317615509033e-03 -4.768497645854949951e-01
3.067000000000000000e+03 4.074652862548828125e+01 2.540204429626464844e+01 -1.759179830551147461e-01 2.428772300481796265e-01 2.008777484297752380e-02 -3.680265545845031738e-01
3.068000000000000000e+03 4.692382431030273438e+01 2.447885322570800781e+01 4.090541899204254150e-01 7.479943037033081055e-01 3.471145331859588623e-01 3.796493411064147949e-01
3.069000000000000000e+03 4.751978302001953125e+01 2.468001747131347656e+01 4.434375762939453125e-01 7.798121571540832520e-01 3.669749200344085693e-01 4.690845310688018799e-01
3.070000000000000000e+03 6.859622955322265625e+01 4.423954010009765625e+00 -3.053310215473175049e-01 7.449494838714599609e+00 2.143249034881591797e+00 -2.945172786712646484e-01
3.071000000000000000e+03 3.032830810546875000e+01 2.510024261474609375e+01 -1.237984523177146912e-01 -8.893195539712905884e-02 -6.381912529468536377e-02 -4.614938795566558838e-01
3.072000000000000000e+03 3.222759628295898438e+01 2.442716407775878906e+01 -1.128776669502258301e-01 -2.631660923361778259e-02 -4.175828397274017334e-02 -4.976541996002197266e-01
3.073000000000000000e+03 6.926118469238281250e+01 2.164776992797851562e+01 -1.224896684288978577e-01 8.271225929260253906e+00 2.444620847702026367e+00 -1.290778756141662598e+00
3.074000000000000000e+03 7.003452301025390625e+01 1.958339691162109375e+01 -2.952207326889038086e-01 8.085996627807617188e+00 2.337232828140258789e+00 -1.182921648025512695e+00
3.075000000000000000e+03 6.902462005615234375e+01 1.868714332580566406e+01 -4.314887821674346924e-01 8.206264495849609375e+00 2.332432746887207031e+00 -1.078595995903015137e+00
3.076000000000000000e+03 6.970117187500000000e+01 1.482526397705078125e+01 -4.718099236488342285e-01 7.928514480590820312e+00 2.237011432647705078e+00 -8.344694375991821289e-01
3.077000000000000000e+03 6.985960388183593750e+01 1.245646667480468750e+01 -4.500212669372558594e-01 7.831679344177246094e+00 2.214497327804565430e+00 -6.910550594329833984e-01
3.078000000000000000e+03 3.387204742431640625e+01 1.693703651428222656e+01 1.964747458696365356e-01 1.325198113918304443e-01 9.869836270809173584e-02 -3.760696947574615479e-01
3.079000000000000000e+03 3.270912551879882812e+01 1.804694747924804688e+01 1.450084745883941650e-01 1.211942173540592194e-02 4.713837057352066040e-02 -4.243608415126800537e-01
3.080000000000000000e+03 6.757749938964843750e+01 1.081961727142333984e+01 -5.295765995979309082e-01 7.665003299713134766e+00 2.140627861022949219e+00 -4.790923893451690674e-01
3.081000000000000000e+03 3.157417106628417969e+01 2.154194450378417969e+01 2.010940574109554291e-02 -7.729670405387878418e-02 -1.715618930757045746e-02 -4.895279407501220703e-01
3.082000000000000000e+03 3.376264190673828125e+01 8.200762748718261719e+00 1.750110238790512085e-01 3.551786839962005615e-01 1.590569019317626953e-01 -1.611806899309158325e-01
3.083000000000000000e+03 6.896202850341796875e+01 2.552312088012695312e+01 5.519188046455383301e-01 8.333407402038574219e+00 2.665597915649414062e+00 -1.329219937324523926e+00
3.084000000000000000e+03 6.913043212890625000e+01 2.824670600891113281e+01 1.175682067871093750e+00 8.148045539855957031e+00 2.797118425369262695e+00 -9.836786389350891113e-01
3.085000000000000000e+03 3.269227218627929688e+01 1.928065299987792969e+01 1.136621534824371338e-01 -2.665706211701035500e-03 3.329893574118614197e-02 -4.544636309146881104e-01
3.086000000000000000e+03 3.349343109130859375e+01 1.276180553436279297e+01 2.115506529808044434e-01 2.073586285114288330e-01 1.256727874279022217e-01 -2.682228386402130127e-01
3.087000000000000000e+03 3.215163421630859375e+01 1.253960418701171875e+01 1.740608960390090942e-01 3.771568834781646729e-02 6.353297829627990723e-02 -2.939962148666381836e-01
3.088000000000000000e+03 6.996516418457031250e+01 7.783694267272949219e+00 -3.382840454578399658e-01 7.691856861114501953e+00 2.206071853637695312e+00 -4.516178965568542480e-01
3.089000000000000000e+03 3.178554344177246094e+01 1.531439399719238281e+01 1.569460183382034302e-01 -4.135997593402862549e-02 3.467581048607826233e-02 -3.677869141101837158e-01
3.090000000000000000e+03 6.786111450195312500e+01 -2.536653578281402588e-01 -2.057573348283767700e-01 7.244697093963623047e+00 2.111681938171386719e+00 -1.613364219665527344e-01
3.091000000000000000e+03 3.242002105712890625e+01 8.149841308593750000e+00 1.498795896768569946e-01 1.553603559732437134e-01 9.157197922468185425e-02 -1.869774013757705688e-01
3.092000000000000000e+03 3.373031234741210938e+01 9.684999465942382812e+00 1.938764601945877075e-01 3.143036365509033203e-01 1.524540334939956665e-01 -1.909789144992828369e-01
3.093000000000000000e+03 6.904617309570312500e+01 -1.369995021820068359e+01 -4.986298084259033203e-02 7.349386692047119141e+00 2.189857006072998047e+00 -3.459387645125389099e-02
3.094000000000000000e+03 6.843302154541015625e+01 -1.154369926452636719e+01 -5.857601389288902283e-02 7.263944149017333984e+00 2.161610603332519531e+00 -4.706598818302154541e-02
3.095000000000000000e+03 3.178905868530273438e+01 -4.066753864288330078e+00 4.634339734911918640e-02 2.157061845064163208e-01 7.861487567424774170e-02 -3.997638449072837830e-02
3.096000000000000000e+03 3.254894256591796875e+01 -2.299365758895874023e+00 5.794623866677284241e-02 3.174457848072052002e-01 1.126176118850708008e-01 -4.514598846435546875e-02
3.097000000000000000e+03 3.036736679077148438e+01 -7.260005950927734375e+00 2.586561255156993866e-02 -2.340304106473922729e-02 7.387714576907455921e-04 -3.948614373803138733e-02
3.098000000000000000e+03 3.036582946777343750e+01 -5.833990097045898438e+00 2.823375351727008820e-02 -4.391514509916305542e-02 -4.704418126493692398e-03 -4.576440528035163879e-02
3.099000000000000000e+03 6.873378753662109375e+01 2.338582801818847656e+01 1.375786960124969482e-01 8.435392379760742188e+00 2.571891307830810547e+00 -1.350840210914611816e+00
3.100000000000000000e+03 6.873729705810546875e+01 2.099579048156738281e+01 -2.522177994251251221e-01 8.381012916564941406e+00 2.438638448715209961e+00 -1.224606990814208984e+00
3.101000000000000000e+03 3.118300819396972656e+01 1.061233162879943848e+00 6.638187915086746216e-02 4.040070995688438416e-02 3.203477710485458374e-02 -8.405529707670211792e-02
3.102000000000000000e+03 3.117230606079101562e+01 -2.569251060485839844e-01 5.819217860698699951e-02 5.303175374865531921e-02 3.336717933416366577e-02 -7.013095170259475708e-02
3.103000000000000000e+03 3.121078491210937500e+01 -1.540724277496337891e+00 5.600177124142646790e-02 7.551765441894531250e-02 3.945582732558250427e-02 -5.899789929389953613e-02
3.104000000000000000e+03 2.876861763000488281e+01 -1.029298305511474609e+01 9.764411486685276031e-03 -2.934224307537078857e-01 -8.509740233421325684e-02 -4.669880121946334839e-02
3.105000000000000000e+03 3.033148002624511719e+01 -1.152163791656494141e+01 1.367748808115720749e-02 1.109588425606489182e-02 7.432011887431144714e-03 -2.871108800172805786e-02
3.106000000000000000e+03 6.371029663085937500e+01 3.343308639526367188e+01 2.430838823318481445e+00 1.098839759826660156e+01 4.025770664215087891e+00 1.335912823677062988e+00
3.107000000000000000e+03 3.314673614501953125e+01 1.416322135925292969e+01 1.992330849170684814e-01 1.184259355068206787e-01 9.529770910739898682e-02 -3.165989816188812256e-01
3.108000000000000000e+03 6.407119750976562500e+00 -3.142605400085449219e+01 6.789336446672677994e-03 -2.409736625850200653e-03 1.313879853114485741e-03 1.548057422041893005e-03
3.109000000000000000e+03 6.889212131500244141e+00 -3.309541702270507812e+01 8.173866197466850281e-03 -4.282835405319929123e-03 1.167309237644076347e-03 3.223384497687220573e-03
3.110000000000000000e+03 6.931333160400390625e+01 2.941655349731445312e+01 1.265831470489501953e+00 8.037484169006347656e+00 2.790994644165039062e+00 -7.208185791969299316e-01
3.111000000000000000e+03 3.213629150390625000e+01 -1.268030071258544922e+01 1.266346871852874756e-02 3.428231775760650635e-01 1.066459938883781433e-01 -1.371942367404699326e-02
3.112000000000000000e+03 3.192968940734863281e+01 -1.127573013305664062e+01 1.738866791129112244e-02 2.950531244277954102e-01 9.373254328966140747e-02 -1.520143635571002960e-02
3.113000000000000000e+03 3.169191169738769531e+01 -1.620817565917968750e+01 1.343206781893968582e-02 3.069739043712615967e-01 9.612178802490234375e-02 -7.253581192344427109e-03
3.114000000000000000e+03 6.718705749511718750e+01 -2.097151184082031250e+01 -2.395171485841274261e-02 7.014042377471923828e+00 2.097027301788330078e+00 -7.866315543651580811e-03
3.115000000000000000e+03 3.550661087036132812e+01 2.471331596374511719e+00 1.257378309965133667e-01 7.698723673820495605e-01 2.686830759048461914e-01 -3.488446399569511414e-02
3.116000000000000000e+03 3.397319412231445312e+01 3.905526876449584961e+00 1.269822120666503906e-01 4.818288087844848633e-01 1.826433092355728149e-01 -8.259935677051544189e-02
3.117000000000000000e+03 8.367726325988769531e+00 -3.928285217285156250e+01 -2.043337933719158173e-02 -8.864771574735641479e-03 -8.789445273578166962e-03 2.649993635714054108e-02
3.118000000000000000e+03 6.864566802978515625e+01 1.551636600494384766e+01 -5.348581671714782715e-01 8.021422386169433594e+00 2.245969295501708984e+00 -8.341033458709716797e-01
3.119000000000000000e+03 6.815309143066406250e+01 1.486959171295166016e+01 -5.824652910232543945e-01 7.986083984375000000e+00 2.221085548400878906e+00 -7.328419685363769531e-01
3.120000000000000000e+03 3.026395797729492188e+01 -1.790611839294433594e+01 -4.646955057978630066e-04 -1.936951768584549427e-03 -7.204941939562559128e-04 -1.138810068368911743e-02
3.121000000000000000e+03 3.169050216674804688e+01 -1.927392387390136719e+01 4.041425883769989014e-03 3.179267644882202148e-01 9.659045189619064331e-02 -2.633793745189905167e-03
3.122000000000000000e+03 7.150312042236328125e+01 3.839806365966796875e+01 -3.505413234233856201e-02 7.610884666442871094e+00 2.272749185562133789e+00 3.041481971740722656e-01
3.123000000000000000e+03 6.929309844970703125e+01 -2.391729116439819336e+00 -1.417355239391326904e-01 7.430752754211425781e+00 2.186705112457275391e+00 -1.437493413686752319e-01
3.124000000000000000e+03 7.008514404296875000e+01 2.796095848083496094e+01 9.470274448394775391e-01 7.843216419219970703e+00 2.637073040008544922e+00 -9.927359223365783691e-01
3.125000000000000000e+03 6.553980255126953125e+01 -2.124105262756347656e+01 -2.530002780258655548e-02 6.681881904602050781e+00 1.996974587440490723e+00 -5.537000950425863266e-03
3.126000000000000000e+03 6.762351226806640625e+01 -2.404485321044921875e+01 -1.891040429472923279e-02 7.080066680908203125e+00 2.118346929550170898e+00 -4.609494004398584366e-03
3.127000000000000000e+03 6.738565826416015625e+01 -2.635923767089843750e+01 -8.253720588982105255e-03 7.037742137908935547e+00 2.108846664428710938e+00 2.537441672757267952e-03
3.128000000000000000e+03 2.838211822509765625e+01 -2.485661506652832031e+01 3.644939512014389038e-03 -2.750684916973114014e-01 -8.142706751823425293e-02 -5.459618940949440002e-02
3.129000000000000000e+03 6.966950225830078125e+01 -7.128972053527832031e+00 -8.212251961231231689e-02 7.491723060607910156e+00 2.222880125045776367e+00 -8.638011664152145386e-02
3.130000000000000000e+03 6.040259170532226562e+01 2.880353546142578125e+01 2.706696987152099609e+00 1.474585533142089844e+01 5.235765933990478516e+00 -1.303499460220336914e+00
3.131000000000000000e+03 5.653818130493164062e+01 2.701238822937011719e+01 8.869317173957824707e-01 7.847172260284423828e+00 2.620231151580810547e+00 4.363072395324707031e+00
3.132000000000000000e+03 5.599307632446289062e+01 2.769238281250000000e+01 1.657359838485717773e+00 5.938904762268066406e+00 2.278879404067993164e+00 4.562674999237060547e+00
3.133000000000000000e+03 5.936193466186523438e+01 2.787324142456054688e+01 3.635795116424560547e-01 1.475512409210205078e+01 4.535611152648925781e+00 8.524618148803710938e-01
3.134000000000000000e+03 6.171390151977539062e+01 3.035887145996093750e+01 5.194530963897705078e+00 1.210786247253417969e+01 5.190717697143554688e+00 -6.352750658988952637e-01
3.135000000000000000e+03 6.250357818603515625e+01 3.094349098205566406e+01 4.635865211486816406e+00 1.125573253631591797e+01 4.767479419708251953e+00 -2.536981552839279175e-02
3.136000000000000000e+03 5.367549514770507812e+01 2.651898574829101562e+01 1.299379348754882812e+00 2.690393924713134766e+00 1.196932077407836914e+00 2.685314655303955078e+00
3.137000000000000000e+03 6.151486968994140625e+01 2.911979675292968750e+01 3.492011785507202148e+00 1.273195934295654297e+01 4.867191314697265625e+00 -1.442544937133789062e+00
3.138000000000000000e+03 5.639268493652343750e+01 2.650482749938964844e+01 7.181181311607360840e-01 7.430639266967773438e+00 2.444627285003662109e+00 4.074021816253662109e+00
3.139000000000000000e+03 5.605215835571289062e+01 2.677487564086914062e+01 1.059852600097656250e+00 6.422462940216064453e+00 2.244694709777832031e+00 4.211050987243652344e+00
3.140000000000000000e+03 6.287168121337890625e+01 3.136600303649902344e+01 4.363763332366943359e+00 1.102039241790771484e+01 4.615246772766113281e+00 3.664364516735076904e-01
3.141000000000000000e+03 3.431791687011718750e+01 2.517465400695800781e+01 -1.788032799959182739e-01 5.725409835577011108e-02 -3.646475449204444885e-02 -5.024068355560302734e-01
3.142000000000000000e+03 3.128829765319824219e+01 2.679072570800781250e+01 -2.207809537649154663e-01 -2.074063569307327271e-02 -7.245647907257080078e-02 -4.454923570156097412e-01
3.143000000000000000e+03 5.221410369873046875e+01 2.526370429992675781e+01 1.002998113632202148e+00 2.230931043624877930e+00 9.701787233352661133e-01 1.982730746269226074e+00
3.144000000000000000e+03 5.908704757690429688e+01 3.630786514282226562e+01 -1.301845073699951172e+00 1.242477512359619141e+01 3.336879014968872070e+00 -1.183350443840026855e+00
3.145000000000000000e+03 3.592736053466796875e+01 2.425202178955078125e+01 -1.061774417757987976e-01 1.237521618604660034e-01 5.272415000945329666e-03 -4.933236837387084961e-01
3.146000000000000000e+03 3.766315460205078125e+01 2.480405044555664062e+01 -1.443384885787963867e-01 1.735477000474929810e-01 8.762765675783157349e-03 -4.659953713417053223e-01
3.147000000000000000e+03 3.511672973632812500e+01 2.427398300170898438e+01 -1.093724668025970459e-01 9.239529818296432495e-02 -5.093150306493043900e-03 -5.035593509674072266e-01
3.148000000000000000e+03 3.304202651977539062e+01 2.692201232910156250e+01 -2.754801809787750244e-01 2.911806292831897736e-02 -7.390863448381423950e-02 -4.632140398025512695e-01
3.149000000000000000e+03 3.222477340698242188e+01 2.647383689880371094e+01 -2.227760702371597290e-01 -1.089133438654243946e-03 -6.715956330299377441e-02 -4.665901660919189453e-01
3.150000000000000000e+03 4.416489410400390625e+01 2.414117240905761719e+01 1.885942071676254272e-01 5.113527774810791016e-01 2.099840939044952393e-01 -2.456725202500820160e-02
3.151000000000000000e+03 4.636605834960937500e+01 2.421614646911621094e+01 3.770959079265594482e-01 7.341098785400390625e-01 3.333617448806762695e-01 3.007087409496307373e-01
3.152000000000000000e+03 4.211466979980468750e+01 2.325480461120605469e+01 1.724984347820281982e-01 4.531726837158203125e-01 1.877013295888900757e-01 -1.809453368186950684e-01
3.153000000000000000e+03 4.249726486206054688e+01 2.400789070129394531e+01 1.039590761065483093e-01 4.123014509677886963e-01 1.548781543970108032e-01 -1.904411017894744873e-01
3.154000000000000000e+03 4.558379364013671875e+01 2.351358985900878906e+01 3.849183022975921631e-01 7.316622138023376465e-01 3.349741399288177490e-01 2.234437912702560425e-01
3.155000000000000000e+03 4.485319137573242188e+01 2.381941032409667969e+01 2.841630876064300537e-01 6.062586903572082520e-01 2.671265304088592529e-01 8.247893303632736206e-02
3.156000000000000000e+03 4.316371154785156250e+01 2.365197944641113281e+01 1.886608004570007324e-01 4.980297982692718506e-01 2.060071676969528198e-01 -1.023865938186645508e-01
3.157000000000000000e+03 3.997038269042968750e+01 2.477636718750000000e+01 -1.039275527000427246e-01 2.466970831155776978e-01 4.283085837960243225e-02 -3.870017826557159424e-01
3.158000000000000000e+03 4.063423538208007812e+01 2.474813652038574219e+01 -8.397538214921951294e-02 2.699212431907653809e-01 5.578375607728958130e-02 -3.574276566505432129e-01
3.159000000000000000e+03 6.290119552612304688e+01 3.391978836059570312e+01 1.994464516639709473e+00 1.177820682525634766e+01 4.131801128387451172e+00 1.694018602371215820e+00
3.160000000000000000e+03 5.111862182617187500e+01 2.544809532165527344e+01 8.680183291435241699e-01 1.511297345161437988e+00 7.137947082519531250e-01 1.432308316230773926e+00
3.161000000000000000e+03 5.251485443115234375e+01 2.465438652038574219e+01 9.906116127967834473e-01 2.698534727096557617e+00 1.106743931770324707e+00 2.182654619216918945e+00
3.162000000000000000e+03 6.229602050781250000e+01 3.138209533691406250e+01 4.828945636749267578e+00 1.153340816497802734e+01 4.908706188201904297e+00 5.209912061691284180e-01
3.163000000000000000e+03 4.899329376220703125e+01 2.435188102722167969e+01 6.665105223655700684e-01 1.171603441238403320e+00 5.514341592788696289e-01 8.856858611106872559e-01
3.164000000000000000e+03 5.091492080688476562e+01 2.477002525329589844e+01 8.832704424858093262e-01 1.703572750091552734e+00 7.760529518127441406e-01 1.484284639358520508e+00
3.165000000000000000e+03 4.815550994873046875e+01 2.483999443054199219e+01 4.933276474475860596e-01 8.578442335128784180e-01 4.053515791893005371e-01 5.973778963088989258e-01
3.166000000000000000e+03 4.777527618408203125e+01 2.406430244445800781e+01 5.530487298965454102e-01 9.632227420806884766e-01 4.548814296722412109e-01 5.991258025169372559e-01
3.167000000000000000e+03 5.181384277343750000e+01 2.498486709594726562e+01 9.750933647155761719e-01 2.076223373413085938e+00 9.153950214385986328e-01 1.832137942314147949e+00
3.168000000000000000e+03 5.028036117553710938e+01 2.456147193908691406e+01 8.118683099746704102e-01 1.507833242416381836e+00 6.959104537963867188e-01 1.271711230278015137e+00
3.169000000000000000e+03 6.904723358154296875e+01 1.938454246520996094e+01 -3.727464079856872559e-01 8.248758316040039062e+00 2.362803459167480469e+00 -1.140283226966857910e+00
3.170000000000000000e+03 6.693459320068359375e+01 3.180485916137695312e+01 1.954072952270507812e+00 9.004423141479492188e+00 3.287548780441284180e+00 9.274426847696304321e-02
3.171000000000000000e+03 6.432731628417968750e+01 3.450309371948242188e+01 1.363060951232910156e+00 1.084326744079589844e+01 3.661898612976074219e+00 1.360762238502502441e+00
3.172000000000000000e+03 4.666909027099609375e+01 2.367586898803710938e+01 4.686639308929443359e-01 8.479803800582885742e-01 3.949933052062988281e-01 3.991123735904693604e-01
3.173000000000000000e+03 5.610753631591796875e+01 3.901950836181640625e+01 -5.330049991607666016e-01 7.271527767181396484e+00 2.021556854248046875e+00 -1.281160712242126465e+00
3.174000000000000000e+03 6.854794311523437500e+01 1.218830871582031250e+01 -5.169745683670043945e-01 7.798136711120605469e+00 2.184348583221435547e+00 -6.120950579643249512e-01
3.175000000000000000e+03 6.890191650390625000e+01 2.719288063049316406e+01 9.881604909896850586e-01 8.266571044921875000e+00 2.776419401168823242e+00 -1.173340797424316406e+00
3.176000000000000000e+03 6.856134796142578125e+01 -3.569850921630859375e+00 -1.405108422040939331e-01 7.316805839538574219e+00 2.152888536453247070e+00 -1.163832396268844604e-01
3.177000000000000000e+03 3.857722091674804688e+01 2.556842231750488281e+01 -2.316576093435287476e-01 1.799749433994293213e-01 -1.550479792058467865e-02 -4.483245313167572021e-01
3.178000000000000000e+03 3.924333190917968750e+01 2.467085075378417969e+01 -1.068371310830116272e-01 2.320349663496017456e-01 3.755934908986091614e-02 -4.163624346256256104e-01
3.179000000000000000e+03 6.887561798095703125e+01 1.795474433898925781e+01 -4.752379655838012695e-01 8.182775497436523438e+00 2.312261104583740234e+00 -1.021477341651916504e+00
3.180000000000000000e+03 6.878667449951171875e+01 9.965054512023925781e+00 -4.489483237266540527e-01 7.684367179870605469e+00 2.170625686645507812e+00 -5.107289552688598633e-01
3.181000000000000000e+03 6.878024291992187500e+01 7.695545673370361328e+00 -3.864119350910186768e-01 7.588882923126220703e+00 2.160741329193115234e+00 -4.130827188491821289e-01
3.182000000000000000e+03 6.912854003906250000e+01 -8.609403610229492188e+00 -8.500587195158004761e-02 7.386341571807861328e+00 2.190400838851928711e+00 -7.022530585527420044e-02
3.183000000000000000e+03 6.911985015869140625e+01 1.381777667999267578e+01 -5.127313137054443359e-01 7.899823665618896484e+00 2.216127634048461914e+00 -7.342589497566223145e-01
3.184000000000000000e+03 6.893942260742187500e+01 1.458424282073974609e+01 -5.355013012886047363e-01 7.942312240600585938e+00 2.222043275833129883e+00 -7.640060186386108398e-01
3.185000000000000000e+03 3.270294570922851562e+01 2.046547889709472656e+01 7.246934622526168823e-02 -1.021382585167884827e-02 1.867665536701679230e-02 -4.770150184631347656e-01
3.186000000000000000e+03 3.168005943298339844e+01 2.257836723327636719e+01 -1.784184761345386505e-02 -6.461121886968612671e-02 -2.473592013120651245e-02 -4.989781379699707031e-01
3.187000000000000000e+03 3.430864715576171875e+01 2.317082023620605469e+01 -4.124380648136138916e-02 6.180730089545249939e-02 6.169048137962818146e-03 -5.041148066520690918e-01
3.188000000000000000e+03 6.814170074462890625e+01 2.439843750000000000e+01 3.640212714672088623e-01 8.598445892333984375e+00 2.688740015029907227e+00 -1.373328328132629395e+00
3.189000000000000000e+03 6.789846038818359375e+01 2.355778312683105469e+01 1.377295404672622681e-01 8.667716979980468750e+00 2.641633749008178711e+00 -1.338942408561706543e+00
3.190000000000000000e+03 6.927307128906250000e+01 1.523004150390625000e+01 -5.083907842636108398e-01 7.977222919464111328e+00 2.240649700164794922e+00 -8.406010270118713379e-01
3.191000000000000000e+03 3.081814956665039062e+01 2.582820320129394531e+01 -1.602054238319396973e-01 -5.864445120096206665e-02 -6.565496325492858887e-02 -4.575075805187225342e-01
3.192000000000000000e+03 3.127360725402832031e+01 2.468293762207031250e+01 -1.162625178694725037e-01 -6.042128801345825195e-02 -5.300514027476310730e-02 -4.845376610755920410e-01
3.193000000000000000e+03 6.867417907714843750e+01 5.487242698669433594e+00 -3.237161040306091309e-01 7.502288341522216797e+00 2.153571605682373047e+00 -3.282143175601959229e-01
3.194000000000000000e+03 6.877221679687500000e+01 2.627724075317382812e+01 7.984239459037780762e-01 8.375871658325195312e+00 2.752288818359375000e+00 -1.267964363098144531e+00
3.195000000000000000e+03 3.162490653991699219e+01 2.552018547058105469e+01 -1.615171581506729126e-01 -3.540910780429840088e-02 -5.907787755131721497e-02 -4.769822955131530762e-01
3.196000000000000000e+03 3.264313125610351562e+01 2.249537658691406250e+01 -8.953465148806571960e-03 -1.397210638970136642e-02 -6.877671461552381516e-03 -5.034887194633483887e-01
3.197000000000000000e+03 3.668159484863281250e+01 2.411392974853515625e+01 -8.907589316368103027e-02 1.533337384462356567e-01 1.927735283970832825e-02 -4.802281260490417480e-01
3.198000000000000000e+03 3.379480743408203125e+01 1.933931159973144531e+01 1.385387331247329712e-01 8.097267150878906250e-02 6.585341691970825195e-02 -4.415726065635681152e-01
3.199000000000000000e+03 3.378406906127929688e+01 1.813940620422363281e+01 1.694055497646331787e-01 9.986689686775207520e-02 8.078173547983169556e-02 -4.120692014694213867e-01
3.200000000000000000e+03 3.353316116333007812e+01 2.600617599487304688e+01 -2.212102264165878296e-01 3.504584729671478271e-02 -5.584931373596191406e-02 -4.905161261558532715e-01
3.201000000000000000e+03 6.553987884521484375e+01 3.391447305679321289e+00 -3.475681543350219727e-01 7.013327598571777344e+00 1.999727845191955566e+00 -1.565392464399337769e-01
3.202000000000000000e+03 6.793435668945312500e+01 1.617269873619079590e+00 -2.462268620729446411e-01 7.297490119934082031e+00 2.115379095077514648e+00 -2.025297433137893677e-01
3.203000000000000000e+03 3.410436630249023438e+01 1.569171428680419922e+01 2.178482413291931152e-01 1.921736150979995728e-01 1.230065599083900452e-01 -3.360483646392822266e-01
3.204000000000000000e+03 3.515016555786132812e+01 1.608247184753417969e+01 2.422742098569869995e-01 2.904310226440429688e-01 1.598115712404251099e-01 -3.146848380565643311e-01
3.205000000000000000e+03 6.823851013183593750e+01 2.843187332153320312e+01 1.359624981880187988e+00 8.414604187011718750e+00 2.932268857955932617e+00 -9.819359183311462402e-01
3.206000000000000000e+03 3.519172286987304688e+01 1.113682842254638672e+01 2.407872825860977173e-01 4.659128785133361816e-01 2.120100557804107666e-01 -1.825995743274688721e-01
3.207000000000000000e+03 6.906684112548828125e+01 6.282770037651062012e-01 -1.975022852420806885e-01 7.455104827880859375e+00 2.177280664443969727e+00 -2.053182721138000488e-01
3.208000000000000000e+03 6.680566406250000000e+01 -9.598962664604187012e-01 -2.087933272123336792e-01 7.086409091949462891e+00 2.063284635543823242e+00 -1.296071112155914307e-01
3.209000000000000000e+03 6.847209930419921875e+01 3.357956171035766602e+00 -2.819555699825286865e-01 7.400903224945068359e+00 2.135684251785278320e+00 -2.568292915821075439e-01
3.210000000000000000e+03 3.382305526733398438e+01 6.754118919372558594e+00 1.624041497707366943e-01 3.989487588405609131e-01 1.684058755636215210e-01 -1.330116242170333862e-01
3.211000000000000000e+03 3.510460281372070312e+01 8.210811614990234375e+00 2.030889689922332764e-01 5.564212799072265625e-01 2.278530746698379517e-01 -1.239964962005615234e-01
3.212000000000000000e+03 3.463391494750976562e+01 1.329722118377685547e+01 2.390365600585937500e-01 3.254184722900390625e-01 1.693365126848220825e-01 -2.525819540023803711e-01
3.213000000000000000e+03 3.426986312866210938e+01 1.444012069702148438e+01 2.266978919506072998e-01 2.352213710546493530e-01 1.385757774114608765e-01 -3.012062907218933105e-01
3.214000000000000000e+03 6.833795928955078125e+01 3.082196807861328125e+01 1.559319615364074707e+00 8.343862533569335938e+00 2.970954656600952148e+00 -3.703373968601226807e-01
3.215000000000000000e+03 6.752412414550781250e+01 3.386094284057617188e+01 1.222925424575805664e+00 9.028529167175292969e+00 3.075436353683471680e+00 5.658863782882690430e-01
3.216000000000000000e+03 2.872280693054199219e+01 -1.167236900329589844e+01 5.918349139392375946e-03 -2.962943613529205322e-01 -8.711279928684234619e-02 -4.025654494762420654e-02
3.217000000000000000e+03 6.722116851806640625e+01 -9.735797882080078125e+00 -8.523835986852645874e-02 7.022418975830078125e+00 2.081154108047485352e+00 -5.359719693660736084e-02
3.218000000000000000e+03 6.588253784179687500e+01 -1.181559181213378906e+01 -7.467745244503021240e-02 6.797558307647705078e+00 2.016864299774169922e+00 -2.771630883216857910e-02
3.219000000000000000e+03 3.245605468750000000e+01 -1.478463560342788696e-01 7.083377242088317871e-02 2.695108652114868164e-01 1.021033972501754761e-01 -6.242504343390464783e-02
3.220000000000000000e+03 3.252989959716796875e+01 1.144796252250671387e+00 8.323512971401214600e-02 2.755402326583862305e-01 1.076326072216033936e-01 -7.574545592069625854e-02
3.221000000000000000e+03 3.377742385864257812e+01 -2.427947223186492920e-01 8.351590484380722046e-02 5.280107259750366211e-01 1.834579855203628540e-01 -4.560298472642898560e-02
3.222000000000000000e+03 3.312025070190429688e+01 -3.250871658325195312e+00 5.624949187040328979e-02 4.276590645313262939e-01 1.451725661754608154e-01 -3.292112797498703003e-02
3.223000000000000000e+03 3.356052017211914062e+01 -5.439598083496093750e+00 4.423395171761512756e-02 5.356226563453674316e-01 1.739569902420043945e-01 -1.832195743918418884e-02
3.224000000000000000e+03 3.336552047729492188e+01 -1.467180967330932617e+00 6.919111311435699463e-02 4.753520190715789795e-01 1.633629500865936279e-01 -4.486820474267005920e-02
3.225000000000000000e+03 6.785147094726562500e+01 1.952170181274414062e+01 -4.635510444641113281e-01 8.438062667846679688e+00 2.392353534698486328e+00 -1.051799774169921875e+00
3.226000000000000000e+03 6.817709350585937500e+01 1.647793579101562500e+01 -5.702742338180541992e-01 8.119440078735351562e+00 2.264749765396118164e+00 -8.524235486984252930e-01
3.227000000000000000e+03 6.859104156494140625e+01 2.268740081787109375e+01 -1.935796998441219330e-02 8.452242851257324219e+00 2.529865503311157227e+00 -1.315479040145874023e+00
3.228000000000000000e+03 6.866569519042968750e+01 1.997956657409667969e+01 -3.541805148124694824e-01 8.329499244689941406e+00 2.392595529556274414e+00 -1.155705928802490234e+00
3.229000000000000000e+03 6.488816833496093750e+01 -1.380805778503417969e+01 -6.356951594352722168e-02 6.575594425201416016e+00 1.953607439994812012e+00 -1.923235133290290833e-02
3.230000000000000000e+03 6.866970062255859375e+01 -2.089725494384765625e+01 -9.712668135762214661e-03 7.281851291656494141e+00 2.181641578674316406e+00 -1.093134004622697830e-02
3.231000000000000000e+03 6.630974578857421875e+01 3.292080688476562500e+01 1.935468792915344238e+00 9.407227516174316406e+00 3.402808904647827148e+00 5.548425316810607910e-01
3.232000000000000000e+03 3.265388488769531250e+01 -1.411215400695800781e+01 1.343297213315963745e-02 4.493218958377838135e-01 1.388264596462249756e-01 -1.026797015219926834e-02
3.233000000000000000e+03 6.760037994384765625e+01 7.616412639617919922e+00 -4.282363057136535645e-01 7.470503330230712891e+00 2.112680196762084961e+00 -3.574021756649017334e-01
3.234000000000000000e+03 6.736845397949218750e+01 3.477179050445556641e+00 -3.102459013462066650e-01 7.264354705810546875e+00 2.086232662200927734e+00 -2.199198007583618164e-01
3.235000000000000000e+03 3.033528137207031250e+01 -8.697428703308105469e+00 1.875413767993450165e-02 -1.423521526157855988e-02 1.355676911771297455e-03 -3.748682886362075806e-02
3.236000000000000000e+03 3.143012428283691406e+01 -2.800034904479980469e+01 -7.044153288006782532e-03 2.864935398101806641e-01 8.383481949567794800e-02 -2.565693110227584839e-02
3.237000000000000000e+03 3.086494255065917969e+01 -2.584339714050292969e+01 5.029513500630855560e-03 1.605506241321563721e-01 4.967403784394264221e-02 -2.040133997797966003e-02
3.238000000000000000e+03 6.063261795043945312e+01 2.863271331787109375e+01 2.417440176010131836e+00 1.415767765045166016e+01 4.972535133361816406e+00 -1.274641156196594238e+00
3.239000000000000000e+03 5.444640731811523438e+01 2.536939048767089844e+01 1.009988665580749512e+00 4.328000545501708984e+00 1.601396679878234863e+00 3.098714113235473633e+00
3.240000000000000000e+03 5.795718765258789062e+01 2.747129821777343750e+01 8.786235004663467407e-02 1.217623329162597656e+01 3.679228782653808594e+00 3.715281963348388672e+00
3.241000000000000000e+03 5.734696960449218750e+01 2.714147567749023438e+01 3.643538057804107666e-01 1.022625637054443359e+01 3.177182912826538086e+00 4.182828903198242188e+00
3.242000000000000000e+03 5.828748321533203125e+01 2.738668060302734375e+01 -8.876201510429382324e-02 1.277970409393310547e+01 3.807282447814941406e+00 3.076408147811889648e+00
3.243000000000000000e+03 5.413290405273437500e+01 2.651062774658203125e+01 1.339354872703552246e+00 3.233503580093383789e+00 1.371857523918151855e+00 2.995006322860717773e+00
3.244000000000000000e+03 5.513097000122070312e+01 2.746239280700683594e+01 1.675050139427185059e+00 4.013056755065917969e+00 1.706431984901428223e+00 3.799860715866088867e+00
3.245000000000000000e+03 5.710431289672851562e+01 2.674856185913085938e+01 3.862390816211700439e-01 9.240741729736328125e+00 2.888094425201416016e+00 4.086437225341796875e+00
3.246000000000000000e+03 5.500394821166992188e+01 2.677076148986816406e+01 1.431316494941711426e+00 4.314763545989990234e+00 1.723824024200439453e+00 3.651849746704101562e+00
3.247000000000000000e+03 5.590830993652343750e+01 2.730379104614257812e+01 1.446438908576965332e+00 5.924988746643066406e+00 2.211428403854370117e+00 4.400005817413330078e+00
3.248000000000000000e+03 5.881867218017578125e+01 2.747656440734863281e+01 -1.010822057723999023e-01 1.368658447265625000e+01 4.075650691986083984e+00 2.062724590301513672e+00
3.249000000000000000e+03 5.762334823608398438e+01 2.690906715393066406e+01 1.174887567758560181e-01 1.068046188354492188e+01 3.239385128021240234e+00 3.791843652725219727e+00
3.250000000000000000e+03 6.201782226562500000e+01 2.994232177734375000e+01 4.636291027069091797e+00 1.190697479248046875e+01 4.962979793548583984e+00 -9.574899077415466309e-01
3.251000000000000000e+03 6.240013504028320312e+01 2.943379020690917969e+01 3.809970617294311523e+00 1.157498741149902344e+01 4.615487575531005859e+00 -1.168621540069580078e+00
3.252000000000000000e+03 5.528430557250976562e+01 2.706838226318359375e+01 1.486631274223327637e+00 4.616020679473876953e+00 1.830795645713806152e+00 3.869292736053466797e+00
3.253000000000000000e+03 6.190029525756835938e+01 2.907742881774902344e+01 3.417941093444824219e+00 1.227061271667480469e+01 4.706565856933593750e+00 -1.392760396003723145e+00
3.254000000000000000e+03 5.845342254638671875e+01 3.941091537475585938e+01 -1.406785726547241211e+00 9.958360671997070312e+00 2.565472602844238281e+00 -1.038701772689819336e+00
3.255000000000000000e+03 5.325956726074218750e+01 2.538934898376464844e+01 1.091336846351623535e+00 2.981109619140625000e+00 1.221733927726745605e+00 2.500961303710937500e+00
3.256000000000000000e+03 6.252920150756835938e+01 2.989090347290039062e+01 4.122010707855224609e+00 1.134001445770263672e+01 4.638607501983642578e+00 -8.918958902359008789e-01
3.257000000000000000e+03 5.564017105102539062e+01 2.530263900756835938e+01 6.670414805412292480e-01 6.065137386322021484e+00 2.019653797149658203e+00 3.493376970291137695e+00
3.258000000000000000e+03 5.294812774658203125e+01 2.492261886596679688e+01 1.029610157012939453e+00 2.927944183349609375e+00 1.187266349792480469e+00 2.366245746612548828e+00
3.259000000000000000e+03 3.576815795898437500e+01 2.348897933959960938e+01 -4.640997946262359619e-02 1.286136358976364136e-01 2.466109953820705414e-02 -4.891701936721801758e-01
3.260000000000000000e+03 3.742141723632812500e+01 2.391724395751953125e+01 -6.481888890266418457e-02 1.849744915962219238e-01 3.604668006300926208e-02 -4.624143540859222412e-01
3.261000000000000000e+03 3.420511627197265625e+01 2.417192649841308594e+01 -1.038248389959335327e-01 5.320041626691818237e-02 -1.518732495605945587e-02 -5.088088512420654297e-01
3.262000000000000000e+03 4.533823776245117188e+01 2.275559234619140625e+01 4.459359347820281982e-01 8.345648646354675293e-01 3.841502368450164795e-01 2.468485534191131592e-01
3.263000000000000000e+03 6.321645355224609375e+01 2.904020118713378906e+01 3.019121885299682617e+00 1.089583015441894531e+01 4.174485683441162109e+00 -1.166401147842407227e+00
3.264000000000000000e+03 5.189611816406250000e+01 2.448009300231933594e+01 9.451649188995361328e-01 2.369391918182373047e+00 9.943670630455017090e-01 1.894838213920593262e+00
3.265000000000000000e+03 4.433340072631835938e+01 2.209434127807617188e+01 4.277902841567993164e-01 7.954826951026916504e-01 3.669818937778472900e-01 1.463581770658493042e-01
3.266000000000000000e+03 4.385586929321289062e+01 2.329924774169921875e+01 2.789703607559204102e-01 5.869809389114379883e-01 2.597853839397430420e-01 5.748115945607423782e-04
3.267000000000000000e+03 4.278049850463867188e+01 2.281900978088378906e+01 2.593928575515747070e-01 5.495803356170654297e-01 2.426919490098953247e-01 -9.201983362436294556e-02
3.268000000000000000e+03 4.102488327026367188e+01 2.400405883789062500e+01 3.254260495305061340e-02 3.419738113880157471e-01 1.123549193143844604e-01 -2.995864152908325195e-01
3.269000000000000000e+03 3.287150955200195312e+01 2.331230545043945312e+01 -5.601545795798301697e-02 -1.496661803685128689e-03 -1.725363545119762421e-02 -5.075583457946777344e-01
3.270000000000000000e+03 4.630720520019531250e+01 2.316126823425292969e+01 4.867839515209197998e-01 8.951121568679809570e-01 4.145688414573669434e-01 3.851130902767181396e-01
3.271000000000000000e+03 5.208123397827148438e+01 2.394820213317871094e+01 8.891788721084594727e-01 2.695386409759521484e+00 1.075369596481323242e+00 1.977015495300292969e+00
3.272000000000000000e+03 4.818726348876953125e+01 2.238178825378417969e+01 6.955754756927490234e-01 1.442213296890258789e+00 6.413366198539733887e-01 8.549501895904541016e-01
3.273000000000000000e+03 4.855974960327148438e+01 2.372675895690917969e+01 6.606780886650085449e-01 1.221994757652282715e+00 5.648018717765808105e-01 8.255106210708618164e-01
3.274000000000000000e+03 6.765678405761718750e+01 9.788192749023437500e+00 -4.933369159698486328e-01 7.599455356597900391e+00 2.131835699081420898e+00 -4.420166611671447754e-01
3.275000000000000000e+03 6.737897491455078125e+01 1.178816699981689453e+01 -5.711878538131713867e-01 7.725735664367675781e+00 2.146364450454711914e+00 -5.056076049804687500e-01
3.276000000000000000e+03 6.927155303955078125e+01 2.055503845214843750e+01 -2.613449692726135254e-01 8.259963035583496094e+00 2.399585485458374023e+00 -1.224299907684326172e+00
3.277000000000000000e+03 6.672016906738281250e+01 1.795108795166015625e+01 -6.386929154396057129e-01 8.392070770263671875e+00 2.326013326644897461e+00 -8.103210926055908203e-01
3.278000000000000000e+03 6.734848022460937500e+01 1.416879844665527344e+01 -6.216790676116943359e-01 7.934259891510009766e+00 2.193774223327636719e+00 -6.305279731750488281e-01
3.279000000000000000e+03 4.980478286743164062e+01 2.379206275939941406e+01 7.823490500450134277e-01 1.595705866813659668e+00 7.134164571762084961e-01 1.200161218643188477e+00
3.280000000000000000e+03 4.697421264648437500e+01 2.282438468933105469e+01 5.916071534156799316e-01 1.093250274658203125e+00 5.054572224617004395e-01 5.614776611328125000e-01
3.281000000000000000e+03 4.720232772827148438e+01 2.336559295654296875e+01 5.569686889648437500e-01 1.021900296211242676e+00 4.736607074737548828e-01 5.555909872055053711e-01
3.282000000000000000e+03 4.810051345825195312e+01 2.354849052429199219e+01 6.276594400405883789e-01 1.146041631698608398e+00 5.321103334426879883e-01 7.240083217620849609e-01
3.283000000000000000e+03 3.930803680419921875e+01 2.551623153686523438e+01 -2.209089398384094238e-01 1.987296491861343384e-01 -6.653788499534130096e-03 -4.276804327964782715e-01
3.284000000000000000e+03 5.119163894653320312e+01 2.420367622375488281e+01 8.852980732917785645e-01 2.051325321197509766e+00 8.809870481491088867e-01 1.626448512077331543e+00
3.285000000000000000e+03 5.135016632080078125e+01 2.508639907836914062e+01 9.255045652389526367e-01 1.824293494224548340e+00 8.249394297599792480e-01 1.615080952644348145e+00
3.286000000000000000e+03 3.399011993408203125e+01 2.512803792953491211e+00 1.083060503005981445e-01 5.110501646995544434e-01 1.858068704605102539e-01 -6.765668094158172607e-02
3.287000000000000000e+03 3.268055725097656250e+01 2.155390357971191406e+01 3.180233389139175415e-02 -1.505800895392894745e-02 5.023297388106584549e-03 -4.934171736240386963e-01
3.288000000000000000e+03 6.947576904296875000e+01 2.609101676940917969e+01 6.821100115776062012e-01 8.099685668945312500e+00 2.634538650512695312e+00 -1.247833490371704102e+00
3.289000000000000000e+03 6.870926666259765625e+01 1.108414459228515625e+01 -4.813298881053924561e-01 7.735855102539062500e+00 2.176357507705688477e+00 -5.623046159744262695e-01
3.290000000000000000e+03 6.593959045410156250e+01 3.919916915893554688e+01 -8.153793811798095703e-01 1.047250270843505859e+01 2.897136926651000977e+00 7.003349661827087402e-01
3.291000000000000000e+03 6.537173461914062500e+01 3.734922027587890625e+01 -2.589240670204162598e-01 1.059060192108154297e+01 3.099503517150878906e+00 1.019437432289123535e+00
3.292000000000000000e+03 6.391775131225585938e+01 3.186877059936523438e+01 3.399257183074951172e+00 1.043025875091552734e+01 4.148854732513427734e+00 5.930473208427429199e-01
3.293000000000000000e+03 6.349073791503906250e+01 3.107023048400878906e+01 3.891728401184082031e+00 1.055700778961181641e+01 4.334620952606201172e+00 8.595011383295059204e-02
3.294000000000000000e+03 6.880434417724609375e+01 8.831392288208007812e+00 -4.166707396507263184e-01 7.633985042572021484e+00 2.165194272994995117e+00 -4.610027968883514404e-01
3.295000000000000000e+03 6.740156555175781250e+01 2.851989746093750000e+01 1.568542718887329102e+00 8.722218513488769531e+00 3.087228298187255859e+00 -1.003307104110717773e+00
3.296000000000000000e+03 3.482174682617187500e+01 1.933817863464355469e+01 1.629056930541992188e-01 1.555700451135635376e-01 9.554272145032882690e-02 -4.215801358222961426e-01
3.297000000000000000e+03 6.455355834960937500e+01 3.279584884643554688e+01 2.615413188934326172e+00 1.027822113037109375e+01 3.868090391159057617e+00 9.131155014038085938e-01
3.298000000000000000e+03 3.810964965820312500e+01 1.176935768127441406e+01 3.093963265419006348e-01 8.736557960510253906e-01 3.549156188964843750e-01 -6.326138973236083984e-02
3.299000000000000000e+03 3.563281631469726562e+01 1.250738525390625000e+01 2.581392526626586914e-01 4.697051644325256348e-01 2.183533161878585815e-01 -1.986855864524841309e-01
3.300000000000000000e+03 6.288779067993164062e+01 3.946040725708007812e+01 -1.454526185989379883e+00 1.132969760894775391e+01 2.962551593780517578e+00 4.415085315704345703e-01
3.301000000000000000e+03 6.333591842651367188e+01 3.764502716064453125e+01 -7.680242657661437988e-01 1.159258937835693359e+01 3.247369527816772461e+00 8.916292786598205566e-01
3.302000000000000000e+03 3.117413330078125000e+01 2.632980537414550781e+01 -1.922543346881866455e-01 -3.442380577325820923e-02 -6.800343841314315796e-02 -4.566254913806915283e-01
3.303000000000000000e+03 4.054882049560546875e+01 2.415619850158691406e+01 -1.997585967183113098e-02 2.938471734523773193e-01 8.216138929128646851e-02 -3.457463979721069336e-01
3.304000000000000000e+03 6.903620910644531250e+01 1.622124481201171875e+01 -5.114231705665588379e-01 8.036840438842773438e+00 2.257625102996826172e+00 -8.967446088790893555e-01
3.305000000000000000e+03 6.751540374755859375e+01 4.444342613220214844e+00 -3.351918458938598633e-01 7.340359210968017578e+00 2.101550102233886719e+00 -2.556338906288146973e-01
3.306000000000000000e+03 6.752230072021484375e+01 6.515953063964843750e+00 -3.957223296165466309e-01 7.410991191864013672e+00 2.104580640792846680e+00 -3.187586367130279541e-01
3.307000000000000000e+03 3.527064132690429688e+01 1.425313949584960938e+01 2.589027583599090576e-01 3.779301345348358154e-01 1.910498589277267456e-01 -2.570455372333526611e-01
3.308000000000000000e+03 6.769264984130859375e+01 2.278343009948730469e+01 -5.213550105690956116e-02 8.716628074645996094e+00 2.599347591400146484e+00 -1.284731507301330566e+00
3.309000000000000000e+03 6.818553924560546875e+01 2.526908111572265625e+01 5.529664158821105957e-01 8.575346946716308594e+00 2.738494157791137695e+00 -1.364508986473083496e+00
3.310000000000000000e+03 5.806006622314453125e+01 4.140821456909179688e+01 -1.221547603607177734e+00 8.907967567443847656e+00 2.305925846099853516e+00 -3.447095453739166260e-01
3.311000000000000000e+03 6.726701354980468750e+01 -1.933978796005249023e+00 -1.840440928936004639e-01 7.138151168823242188e+00 2.086232185363769531e+00 -1.282742321491241455e-01
3.312000000000000000e+03 3.658080673217773438e+01 1.083189105987548828e+01 2.695371806621551514e-01 6.861316561698913574e-01 2.867006659507751465e-01 -1.173983961343765259e-01
3.313000000000000000e+03 3.731029129028320312e+01 1.324825382232666016e+01 3.043088614940643311e-01 6.704047322273254395e-01 2.924140691757202148e-01 -1.443920731544494629e-01
3.314000000000000000e+03 6.818732452392578125e+01 2.047062873840332031e+01 -3.471666574478149414e-01 8.456220626831054688e+00 2.432716369628906250e+00 -1.155699253082275391e+00
3.315000000000000000e+03 3.439762115478515625e+01 -1.334268093109130859e+01 1.656927727162837982e-02 7.713899016380310059e-01 2.363877594470977783e-01 3.064963268116116524e-03
3.316000000000000000e+03 3.323060226440429688e+01 -9.639728546142578125e+00 2.746399864554405212e-02 5.208102464675903320e-01 1.644822806119918823e-01 -1.060604769736528397e-02
3.317000000000000000e+03 6.739604187011718750e+01 2.951144409179687500e+01 1.758617043495178223e+00 8.667367935180664062e+00 3.127795457839965820e+00 -7.447250485420227051e-01
3.318000000000000000e+03 6.729080200195312500e+01 2.765109252929687500e+01 1.366611480712890625e+00 8.809341430664062500e+00 3.052785873413085938e+00 -1.197954535484313965e+00
3.319000000000000000e+03 6.766093444824218750e+01 -8.127949714660644531e+00 -9.199666231870651245e-02 7.125333786010742188e+00 2.110001087188720703e+00 -6.826968491077423096e-02
3.320000000000000000e+03 6.599974060058593750e+01 -1.560080945491790771e-01 -2.370201945304870605e-01 6.985281944274902344e+00 2.024478435516357422e+00 -1.273696720600128174e-01
3.321000000000000000e+03 6.603630828857421875e+01 -1.754654884338378906e+00 -1.977291107177734375e-01 6.925090789794921875e+00 2.018208503723144531e+00 -1.045544520020484924e-01
3.322000000000000000e+03 6.656434631347656250e+01 -6.141604423522949219e+00 -1.249689832329750061e-01 6.949463367462158203e+00 2.047348260879516602e+00 -6.905627995729446411e-02
3.323000000000000000e+03 3.393066024780273438e+01 1.130805134773254395e+00 9.701789915561676025e-02 5.273681282997131348e-01 1.873157918453216553e-01 -5.504542216658592224e-02
3.324000000000000000e+03 3.666506195068359375e+01 -6.281563043594360352e-01 9.801872074604034424e-02 1.047656893730163574e+00 3.437026739120483398e-01 7.318235933780670166e-03
3.325000000000000000e+03 6.643431091308593750e+01 -1.349622154235839844e+01 -5.813144519925117493e-02 6.901905059814453125e+00 2.053132057189941406e+00 -2.495191246271133423e-02
3.326000000000000000e+03 6.693766021728515625e+01 7.012751698493957520e-01 -2.435600310564041138e-01 7.142190456390380859e+00 2.069589138031005859e+00 -1.600492149591445923e-01
3.327000000000000000e+03 6.628132629394531250e+01 3.501412963867187500e+01 8.975470662117004395e-01 9.834908485412597656e+00 3.219736576080322266e+00 9.667501449584960938e-01
3.328000000000000000e+03 3.197674560546875000e+01 -5.511194705963134766e+00 3.762940317392349243e-02 2.579678595066070557e-01 8.867917954921722412e-02 -3.444145619869232178e-02
3.329000000000000000e+03 3.408347320556640625e+01 -3.971534013748168945e+00 5.557718500494956970e-02 6.206579804420471191e-01 2.028705477714538574e-01 -1.673734374344348907e-02
3.330000000000000000e+03 3.597251892089843750e+01 1.660327720642089844e+01 2.679121494293212891e-01 3.736658394336700439e-01 1.924733966588973999e-01 -2.919335067272186279e-01
3.331000000000000000e+03 6.699796295166015625e+01 1.267395973205566406e+01 -6.134920120239257812e-01 7.783153533935546875e+00 2.150898456573486328e+00 -5.115123987197875977e-01
3.332000000000000000e+03 6.810919952392578125e+01 1.324102497100830078e+01 -5.631082653999328613e-01 7.860340118408203125e+00 2.189169645309448242e+00 -6.403009295463562012e-01
3.333000000000000000e+03 6.688096618652343750e+01 4.134657287597656250e+01 -9.255446195602416992e-01 1.005335712432861328e+01 2.738343715667724609e+00 1.926962882280349731e-01
3.334000000000000000e+03 6.721190643310546875e+01 3.645725250244140625e+01 2.396556138992309570e-01 9.677407264709472656e+00 2.975118875503540039e+00 8.498058319091796875e-01
3.335000000000000000e+03 7.038039398193359375e+01 -1.443203639984130859e+01 -3.343957290053367615e-02 7.609296321868896484e+00 2.272757053375244141e+00 -3.092193603515625000e-02
3.336000000000000000e+03 6.672756958007812500e+01 -1.533145618438720703e+01 -4.640541970729827881e-02 6.930873870849609375e+00 2.065340518951416016e+00 -2.177070081233978271e-02
3.337000000000000000e+03 6.412683868408203125e+01 -8.488921165466308594e+00 -1.101605817675590515e-01 6.490380287170410156e+00 1.914065837860107422e+00 -2.553064934909343719e-02
3.338000000000000000e+03 6.479631042480468750e+01 5.394383907318115234e+00 -4.173590242862701416e-01 7.002802371978759766e+00 1.975632905960083008e+00 -1.463414281606674194e-01
3.339000000000000000e+03 3.128494071960449219e+01 -2.153691864013671875e+01 4.027423274237662554e-04 2.254009544849395752e-01 6.774111092090606689e-02 -1.246713660657405853e-02
3.340000000000000000e+03 3.467967605590820312e+01 -1.905217742919921875e+01 1.419889926910400391e-02 8.447412252426147461e-01 2.576820254325866699e-01 5.726586561650037766e-03
3.341000000000000000e+03 6.813709259033203125e+01 -6.564641475677490234e+00 -1.030361801385879517e-01 7.227023601531982422e+00 2.137196302413940430e+00 -8.254823833703994751e-02
3.342000000000000000e+03 6.583612823486328125e+01 -2.307055664062500000e+01 -1.897723414003849030e-02 6.755938529968261719e+00 2.021088361740112305e+00 -1.484650303609669209e-03
3.343000000000000000e+03 6.250509262084960938e+01 -2.420038414001464844e+01 -1.822450011968612671e-02 6.115890502929687500e+00 1.829299807548522949e+00 4.567127209156751633e-03
3.344000000000000000e+03 3.272639083862304688e+01 -2.489033699035644531e+01 -4.333508200943470001e-03 5.256593823432922363e-01 1.563977599143981934e-01 -1.130782254040241241e-02
3.345000000000000000e+03 3.200038528442382812e+01 -2.307101821899414062e+01 6.921224296092987061e-03 3.648033738136291504e-01 1.115173771977424622e-01 -9.366667829453945160e-03
3.346000000000000000e+03 6.026472091674804688e+01 2.808806991577148438e+01 1.335084557533264160e+00 1.437713336944580078e+01 4.713665485382080078e+00 -6.216186881065368652e-01
3.347000000000000000e+03 6.732973480224609375e+01 2.527363014221191406e+01 5.861428976058959961e-01 8.884091377258300781e+00 2.841070413589477539e+00 -1.375268697738647461e+00
3.348000000000000000e+03 5.731803512573242188e+01 2.594847679138183594e+01 1.582342758774757385e-02 9.328957557678222656e+00 2.803434371948242188e+00 3.446197748184204102e+00
3.349000000000000000e+03 5.431938552856445312e+01 2.611363410949707031e+01 1.213220715522766113e+00 3.681047916412353516e+00 1.468280553817749023e+00 3.093990802764892578e+00
3.350000000000000000e+03 5.367149734497070312e+01 2.512341117858886719e+01 1.038414478302001953e+00 3.519968748092651367e+00 1.367514967918395996e+00 2.704804897308349609e+00
3.351000000000000000e+03 5.999947357177734375e+01 2.783861732482910156e+01 7.386147975921630859e-01 1.440735435485839844e+01 4.543790817260742188e+00 -7.680594921112060547e-02
3.352000000000000000e+03 5.560963821411132812e+01 2.727055931091308594e+01 1.502118349075317383e+00 5.243942260742187500e+00 2.023818254470825195e+00 4.180140018463134766e+00
3.353000000000000000e+03 6.068005752563476562e+01 2.893503570556640625e+01 3.167843580245971680e+00 1.420399856567382812e+01 5.211552619934082031e+00 -1.477509260177612305e+00
3.354000000000000000e+03 5.816684722900390625e+01 2.689637756347656250e+01 -1.747474074363708496e-01 1.171617794036865234e+01 3.462429046630859375e+00 3.055907487869262695e+00
3.355000000000000000e+03 6.229698562622070312e+01 2.901316452026367188e+01 3.280219554901123047e+00 1.181550312042236328e+01 4.528717041015625000e+00 -1.363293170928955078e+00
3.356000000000000000e+03 6.283058166503906250e+01 2.929475975036621094e+01 3.405674695968627930e+00 1.120985698699951172e+01 4.384659767150878906e+00 -1.129190921783447266e+00
3.357000000000000000e+03 5.553039550781250000e+01 2.674209785461425781e+01 1.214316129684448242e+00 5.553858280181884766e+00 2.030452251434326172e+00 3.952243089675903320e+00
3.358000000000000000e+03 5.352457046508789062e+01 2.593317222595214844e+01 1.193274259567260742e+00 2.924982309341430664e+00 1.235476970672607422e+00 2.643874883651733398e+00
3.359000000000000000e+03 5.271652984619140625e+01 2.421139144897460938e+01 9.259797334671020508e-01 3.045662164688110352e+00 1.191492557525634766e+00 2.250369548797607422e+00
3.360000000000000000e+03 6.304040145874023438e+01 2.976164627075195312e+01 3.783885002136230469e+00 1.096344852447509766e+01 4.424200057983398438e+00 -8.687003254890441895e-01
3.361000000000000000e+03 6.184247207641601562e+01 2.865991973876953125e+01 2.817493677139282227e+00 1.237541484832763672e+01 4.557872295379638672e+00 -1.413509964942932129e+00
3.362000000000000000e+03 5.661344146728515625e+01 2.556858825683593750e+01 3.085057437419891357e-01 7.729211807250976562e+00 2.411315202713012695e+00 3.592274904251098633e+00
3.363000000000000000e+03 3.386598587036132812e+01 2.057408523559570312e+01 9.126053750514984131e-02 6.709284335374832153e-02 4.750601202249526978e-02 -4.697347879409790039e-01
3.364000000000000000e+03 3.639838027954101562e+01 2.328039550781250000e+01 -2.496882528066635132e-02 1.567119807004928589e-01 3.952294588088989258e-02 -4.759900569915771484e-01
3.365000000000000000e+03 4.516743087768554688e+01 2.197680854797363281e+01 4.992179870605468750e-01 9.312050938606262207e-01 4.291269183158874512e-01 2.808167040348052979e-01
3.366000000000000000e+03 4.457987976074218750e+01 2.300826072692871094e+01 3.598283529281616211e-01 6.872947812080383301e-01 3.141369521617889404e-01 1.084711775183677673e-01
3.367000000000000000e+03 4.592888259887695312e+01 2.175216865539550781e+01 5.626968145370483398e-01 1.101630330085754395e+00 4.992981553077697754e-01 4.275505840778350830e-01
3.368000000000000000e+03 4.608541488647460938e+01 2.247324752807617188e+01 5.350508689880371094e-01 9.931396842002868652e-01 4.584571719169616699e-01 4.048968255519866943e-01
3.369000000000000000e+03 4.229471588134765625e+01 2.200663948059082031e+01 3.062655031681060791e-01 5.855720043182373047e-01 2.675512433052062988e-01 -9.333593398332595825e-02
3.370000000000000000e+03 6.380878067016601562e+01 3.011234283447265625e+01 3.455450296401977539e+00 1.037187385559082031e+01 4.148197174072265625e+00 -5.778024196624755859e-01
3.371000000000000000e+03 6.262667465209960938e+01 3.043661308288574219e+01 4.483199596405029297e+00 1.120313072204589844e+01 4.705899238586425781e+00 -4.239911437034606934e-01
3.372000000000000000e+03 4.099919128417968750e+01 2.302871322631835938e+01 1.431385725736618042e-01 3.976881802082061768e-01 1.622480303049087524e-01 -2.609838247299194336e-01
3.373000000000000000e+03 3.944255065917968750e+01 2.393136024475097656e+01 -1.586150005459785461e-02 2.691774070262908936e-01 7.599476724863052368e-02 -3.918116390705108643e-01
3.374000000000000000e+03 5.230755615234375000e+01 2.351161766052246094e+01 8.663185238838195801e-01 2.948455095291137695e+00 1.144432067871093750e+00 2.067114114761352539e+00
3.375000000000000000e+03 6.752745056152343750e+01 2.203806686401367188e+01 -1.872896999120712280e-01 8.718775749206542969e+00 2.559445858001708984e+00 -1.227131009101867676e+00
3.376000000000000000e+03 6.846292114257812500e+01 2.197170257568359375e+01 -1.277062743902206421e-01 8.459524154663085938e+00 2.499545574188232422e+00 -1.279489994049072266e+00
3.377000000000000000e+03 6.509983062744140625e+01 3.064161300659179688e+01 2.819568395614624023e+00 9.666205406188964844e+00 3.745732307434082031e+00 -2.678932249546051025e-01
3.378000000000000000e+03 4.780174636840820312e+01 2.312313461303710938e+01 6.298599839210510254e-01 1.173131823539733887e+00 5.408975481986999512e-01 7.027963399887084961e-01
3.379000000000000000e+03 3.581371688842773438e+01 1.522963809967041016e+01 2.689416408538818359e-01 3.930645287036895752e-01 1.986018419265747070e-01 -2.669097185134887695e-01
3.380000000000000000e+03 3.845551300048828125e+01 2.465282821655273438e+01 -1.183097288012504578e-01 2.042558640241622925e-01 2.578384056687355042e-02 -4.437369406223297119e-01
3.381000000000000000e+03 4.748113632202148438e+01 2.199197578430175781e+01 6.599395871162414551e-01 1.373450517654418945e+00 6.100170612335205078e-01 7.239027023315429688e-01
3.382000000000000000e+03 5.049567413330078125e+01 2.393407630920410156e+01 8.316330313682556152e-01 1.795474052429199219e+00 7.881321310997009277e-01 1.395573973655700684e+00
3.383000000000000000e+03 4.914289855957031250e+01 2.375139808654785156e+01 7.194712758064270020e-01 1.403586149215698242e+00 6.369172334671020508e-01 9.917743206024169922e-01
3.384000000000000000e+03 4.760605621337890625e+01 2.258321571350097656e+01 6.424910426139831543e-01 1.273446083068847656e+00 5.747811794281005859e-01 7.031093239784240723e-01
3.385000000000000000e+03 5.282434844970703125e+01 2.372499847412109375e+01 8.438383936882019043e-01 3.297430515289306641e+00 1.242380738258361816e+00 2.251374006271362305e+00
3.386000000000000000e+03 4.917803192138671875e+01 2.314599418640136719e+01 7.343134880065917969e-01 1.585376501083374023e+00 6.959069967269897461e-01 1.044960618019104004e+00
3.387000000000000000e+03 4.992926406860351562e+01 2.306773567199707031e+01 7.849493026733398438e-01 1.885036706924438477e+00 8.009958267211914062e-01 1.288574218750000000e+00
3.388000000000000000e+03 3.707985305786132812e+01 2.303484153747558594e+01 1.010266225785017014e-02 1.939691305160522461e-01 6.122153997421264648e-02 -4.550165235996246338e-01
3.389000000000000000e+03 6.806505584716796875e+01 2.610117340087890625e+01 7.986506819725036621e-01 8.587290763854980469e+00 2.815782546997070312e+00 -1.328647375106811523e+00
3.390000000000000000e+03 6.265842437744140625e+01 2.892351531982421875e+01 3.109662771224975586e+00 1.143011760711669922e+01 4.361934185028076172e+00 -1.326831698417663574e+00
3.391000000000000000e+03 6.654638671875000000e+01 1.058420276641845703e+01 -5.621480941772460938e-01 7.571609497070312500e+00 2.102838516235351562e+00 -3.902258872985839844e-01
3.392000000000000000e+03 4.000437164306640625e+01 2.414472961425781250e+01 -3.423630818724632263e-02 2.721614241600036621e-01 7.137753069400787354e-02 -3.652032017707824707e-01
3.393000000000000000e+03 4.162985992431640625e+01 2.252000617980957031e+01 2.251363694667816162e-01 4.866952896118164062e-01 2.135494947433471680e-01 -1.830334216356277466e-01
3.394000000000000000e+03 3.346980285644531250e+01 2.273587226867675781e+01 -2.309584990143775940e-02 2.549613267183303833e-02 7.200847030617296696e-04 -5.040599703788757324e-01
3.395000000000000000e+03 3.320917129516601562e+01 2.420829391479492188e+01 -1.055672541260719299e-01 1.344800461083650589e-02 -2.763577364385128021e-02 -5.050419569015502930e-01
3.396000000000000000e+03 3.538701248168945312e+01 2.159878730773925781e+01 7.271475344896316528e-02 1.417194902896881104e-01 6.433027237653732300e-02 -4.657105207443237305e-01
3.397000000000000000e+03 6.755926513671875000e+01 1.843884277343750000e+01 -5.583220124244689941e-01 8.372166633605957031e+00 2.344153404235839844e+00 -9.386698603630065918e-01
3.398000000000000000e+03 6.699494171142578125e+01 1.574743175506591797e+01 -6.551749706268310547e-01 8.096405982971191406e+00 2.232369422912597656e+00 -6.865766048431396484e-01
3.399000000000000000e+03 6.789608764648437500e+01 1.561657428741455078e+01 -5.956505537033081055e-01 8.044389724731445312e+00 2.234621763229370117e+00 -7.589629888534545898e-01
3.400000000000000000e+03 6.726166534423828125e+01 3.062003517150878906e+01 1.878855586051940918e+00 8.754902839660644531e+00 3.190127372741699219e+00 -3.948339819908142090e-01
3.401000000000000000e+03 6.591850280761718750e+01 3.121304321289062500e+01 2.438676595687866211e+00 9.342735290527343750e+00 3.534423589706420898e+00 -4.885168001055717468e-02
3.402000000000000000e+03 3.518703460693359375e+01 6.791717529296875000e+00 1.821096837520599365e-01 6.153966188430786133e-01 2.392518818378448486e-01 -9.760084748268127441e-02
3.403000000000000000e+03 3.644136810302734375e+01 9.527299880981445312e+00 2.425757199525833130e-01 7.145158052444458008e-01 2.871274650096893311e-01 -9.932536631822586060e-02
3.404000000000000000e+03 3.689370346069335938e+01 1.207433032989501953e+01 2.883243560791015625e-01 6.773397922515869141e-01 2.896992564201354980e-01 -1.320540308952331543e-01
3.405000000000000000e+03 6.641123962402343750e+01 1.345704460144042969e+01 -6.583132147789001465e-01 7.834478378295898438e+00 2.152849674224853516e+00 -4.912633895874023438e-01
3.406000000000000000e+03 3.486549377441406250e+01 1.714191055297851562e+01 2.203207612037658691e-01 2.199016809463500977e-01 1.320667266845703125e-01 -3.593105673789978027e-01
3.407000000000000000e+03 6.504585266113281250e+01 5.994935035705566406e-01 -2.651317715644836426e-01 6.823070049285888672e+00 1.967381358146667480e+00 -1.084723845124244690e-01
3.408000000000000000e+03 6.436258697509765625e+01 -3.360119163990020752e-01 -2.538133859634399414e-01 6.683997154235839844e+00 1.929055213928222656e+00 -7.344377785921096802e-02
3.409000000000000000e+03 6.747521209716796875e+01 5.444606781005859375e+00 -3.588704466819763184e-01 7.368522167205810547e+00 2.102895498275756836e+00 -2.845858335494995117e-01
3.410000000000000000e+03 6.617935180664062500e+01 5.303464889526367188e+00 -3.899244964122772217e-01 7.179347991943359375e+00 2.036827087402343750e+00 -2.208679616451263428e-01
3.411000000000000000e+03 3.478900909423828125e+01 1.821825981140136719e+01 1.954272836446762085e-01 1.831490248441696167e-01 1.135728955268859863e-01 -3.913836181163787842e-01
3.412000000000000000e+03 3.496086502075195312e+01 2.052162170410156250e+01 1.192179843783378601e-01 1.410429328680038452e-01 7.807827740907669067e-02 -4.518947601318359375e-01
3.413000000000000000e+03 6.502337646484375000e+01 -1.555515670776367188e+01 -5.036331340670585632e-02 6.612257480621337891e+00 1.968568205833435059e+00 -1.058376859873533249e-02
3.414000000000000000e+03 6.824847412109375000e+01 -1.712533187866210938e+01 -3.662726655602455139e-02 7.185307502746582031e+00 2.144604206085205078e+00 -2.135508321225643158e-02
3.415000000000000000e+03 3.540573120117187500e+01 1.031079769134521484e+00 1.062773317098617554e-01 7.866395115852355957e-01 2.678750753402709961e-01 -2.395000308752059937e-02
3.416000000000000000e+03 3.624278640747070312e+01 1.366895484924316406e+01 2.898950576782226562e-01 5.114044547080993652e-01 2.403898537158966064e-01 -2.007069140672683716e-01
3.417000000000000000e+03 6.607369232177734375e+01 1.219208145141601562e+01 -6.387718319892883301e-01 7.681415557861328125e+00 2.112792968750000000e+00 -4.013112187385559082e-01
3.418000000000000000e+03 6.534133911132812500e+01 3.208045578002929688e+01 2.548982143402099609e+00 9.708601951599121094e+00 3.677275180816650391e+00 4.196800887584686279e-01
3.419000000000000000e+03 6.830159759521484375e+01 1.896110534667968750e+01 -4.696938395500183105e-01 8.335429191589355469e+00 2.359720468521118164e+00 -1.044918298721313477e+00
3.420000000000000000e+03 6.750598144531250000e+01 2.007788085937500000e+01 -4.365244209766387939e-01 8.522198677062988281e+00 2.425702095031738281e+00 -1.070977926254272461e+00
3.421000000000000000e+03 3.519031906127929688e+01 -3.985234200954437256e-01 9.506728500127792358e-02 7.773458957672119141e-01 2.617239654064178467e-01 -1.779767498373985291e-02
3.422000000000000000e+03 3.182523536682128906e+01 -9.896712303161621094e+00 2.168226800858974457e-02 2.676396965980529785e-01 8.679658919572830200e-02 -2.193269319832324982e-02
3.423000000000000000e+03 3.189216041564941406e+01 -7.043533802032470703e+00 2.953937835991382599e-02 2.566305994987487793e-01 8.585099130868911743e-02 -3.002720512449741364e-02
3.424000000000000000e+03 6.460145568847656250e+01 -1.215656852722167969e+01 -7.033392786979675293e-02 6.528542995452880859e+00 1.937462687492370605e+00 -2.304253354668617249e-02
3.425000000000000000e+03 6.804623413085937500e+01 2.742547035217285156e+01 1.184277057647705078e+00 8.549745559692382812e+00 2.920207023620605469e+00 -1.187687277793884277e+00
3.426000000000000000e+03 6.563507080078125000e+01 -9.232872009277343750e+00 -9.781239181756973267e-02 6.752109050750732422e+00 1.996289014816284180e+00 -3.594604134559631348e-02
3.427000000000000000e+03 6.614810180664062500e+01 -7.641923904418945312e+00 -1.021066457033157349e-01 6.865364551544189453e+00 2.028977394104003906e+00 -5.364007502794265747e-02
3.428000000000000000e+03 6.166097259521484375e+01 3.729701995849609375e+01 -1.058295607566833496e+00 1.217640876770019531e+01 3.335433959960937500e+00 6.306484937667846680e-01
3.429000000000000000e+03 3.533183670043945312e+01 -4.304900646209716797e+00 4.953886568546295166e-02 8.699149489402770996e-01 2.758361399173736572e-01 -1.402377989143133163e-02
3.430000000000000000e+03 5.490830612182617188e+01 4.061982727050781250e+01 -8.408772945404052734e-02 5.537014007568359375e+00 1.635877847671508789e+00 -5.461746454238891602e-01
3.431000000000000000e+03 6.765550994873046875e+01 8.713620185852050781e+00 -4.600870609283447266e-01 7.536598682403564453e+00 2.122953414916992188e+00 -3.997032940387725830e-01
3.432000000000000000e+03 6.429146575927734375e+01 4.167212009429931641e+00 -3.835062682628631592e-01 6.858494758605957031e+00 1.942496538162231445e+00 -1.085880398750305176e-01
3.433000000000000000e+03 6.586916351318359375e+01 1.553977966308593750e+00 -2.854005098342895508e-01 7.004384517669677734e+00 2.015695095062255859e+00 -1.457436829805374146e-01
3.434000000000000000e+03 6.629570770263671875e+01 6.483698844909667969e+00 -4.296672940254211426e-01 7.257894515991210938e+00 2.048468112945556641e+00 -2.506848275661468506e-01
3.435000000000000000e+03 6.061179351806640625e+01 3.867530059814453125e+01 -1.521937131881713867e+00 1.134226226806640625e+01 2.946097612380981445e+00 -8.156448602676391602e-02
3.436000000000000000e+03 3.511356735229492188e+01 -1.471815967559814453e+01 9.822755120694637299e-03 9.075113534927368164e-01 2.752002179622650146e-01 2.618451602756977081e-03
3.437000000000000000e+03 3.466165924072265625e+01 -1.039584636688232422e+01 2.388602867722511292e-02 8.081337809562683105e-01 2.496059387922286987e-01 -2.834420884028077126e-04
3.438000000000000000e+03 3.381338882446289062e+01 -1.208948802947998047e+01 1.622744463384151459e-02 6.680687069892883301e-01 2.052888423204421997e-01 -5.916853900998830795e-03
3.439000000000000000e+03 6.646270751953125000e+01 2.456659507751464844e+01 3.350783884525299072e-01 9.197751998901367188e+00 2.859849214553833008e+00 -1.341428875923156738e+00
3.440000000000000000e+03 5.941975021362304688e+01 2.730142974853515625e+01 -1.943104900419712067e-02 1.365767097473144531e+01 4.091472148895263672e+00 1.128116011619567871e+00
3.441000000000000000e+03 5.790939331054687500e+01 2.640936660766601562e+01 -1.764889061450958252e-01 1.073610019683837891e+01 3.167883396148681641e+00 3.190538644790649414e+00
3.442000000000000000e+03 5.749692153930664062e+01 2.648008918762207031e+01 3.803191706538200378e-02 9.978296279907226562e+00 3.004898548126220703e+00 3.639043569564819336e+00
3.443000000000000000e+03 5.577919769287109375e+01 2.699999046325683594e+01 1.262735605239868164e+00 5.854547023773193359e+00 2.135184764862060547e+00 4.221007347106933594e+00
3.444000000000000000e+03 6.143716430664062500e+01 2.874990653991699219e+01 2.974246263504028320e+00 1.287596893310546875e+01 4.755064487457275391e+00 -1.460912346839904785e+00
3.445000000000000000e+03 5.524273681640625000e+01 2.563847923278808594e+01 8.870637416839599609e-01 5.329694747924804688e+00 1.865027546882629395e+00 3.472399234771728516e+00
3.446000000000000000e+03 5.911528015136718750e+01 2.762519454956054688e+01 3.811286389827728271e-02 1.419172668457031250e+01 4.268951892852783203e+00 1.486030578613281250e+00
3.447000000000000000e+03 5.829349136352539062e+01 2.714201164245605469e+01 -1.551569849252700806e-01 1.235937976837158203e+01 3.661266803741455078e+00 2.937254905700683594e+00
3.448000000000000000e+03 5.887598800659179688e+01 2.702707099914550781e+01 -2.553706169128417969e-01 1.300505828857421875e+01 3.824906349182128906e+00 2.020026206970214844e+00
3.449000000000000000e+03 6.739791107177734375e+01 2.601029777526855469e+01 7.926499247550964355e-01 8.852755546569824219e+00 2.893621444702148438e+00 -1.354558348655700684e+00
3.450000000000000000e+03 5.475998687744140625e+01 2.588076400756835938e+01 1.087548136711120605e+00 4.478523254394531250e+00 1.669821500778198242e+00 3.343973159790039062e+00
3.451000000000000000e+03 6.441784667968750000e+01 3.017010498046875000e+01 3.126429796218872070e+00 1.003259468078613281e+01 3.947707414627075195e+00 -5.314634442329406738e-01
3.452000000000000000e+03 6.080357742309570312e+01 2.816949653625488281e+01 1.833283662796020508e+00 1.368153953552246094e+01 4.654447078704833984e+00 -1.084454536437988281e+00
3.453000000000000000e+03 6.178624725341796875e+01 2.823869132995605469e+01 2.260993719100952148e+00 1.243849658966064453e+01 4.409846782684326172e+00 -1.395753383636474609e+00
3.454000000000000000e+03 5.598678207397460938e+01 2.611285972595214844e+01 7.711867690086364746e-01 6.616064071655273438e+00 2.216175317764282227e+00 3.829804658889770508e+00
3.455000000000000000e+03 3.597209167480468750e+01 2.246756935119628906e+01 3.009930811822414398e-02 1.530284881591796875e-01 5.493833869695663452e-02 -4.705308973789215088e-01
3.456000000000000000e+03 3.894256591796875000e+01 2.328882217407226562e+01 2.821500971913337708e-02 2.727290689945220947e-01 9.028322994709014893e-02 -3.943383991718292236e-01
3.457000000000000000e+03 6.650460815429687500e+01 2.932710075378417969e+01 1.989269733428955078e+00 9.040801048278808594e+00 3.309021234512329102e+00 -8.204173445701599121e-01
3.458000000000000000e+03 4.299311447143554688e+01 2.144898223876953125e+01 3.911341726779937744e-01 7.258573770523071289e-01 3.350974619388580322e-01 1.849436573684215546e-02
3.459000000000000000e+03 6.661311340332031250e+01 2.847229576110839844e+01 1.745900869369506836e+00 9.014759063720703125e+00 3.228198051452636719e+00 -1.063659429550170898e+00
3.460000000000000000e+03 5.368859863281250000e+01 2.425352478027343750e+01 8.574311137199401855e-01 3.858300685882568359e+00 1.414719581604003906e+00 2.605461359024047852e+00
3.461000000000000000e+03 4.511587524414062500e+01 2.124753570556640625e+01 5.252935886383056641e-01 1.017646670341491699e+00 4.628820717334747314e-01 3.188719153404235840e-01
3.462000000000000000e+03 3.540095520019531250e+01 2.286240768432617188e+01 -4.830691032111644745e-03 1.229320317506790161e-01 3.543040156364440918e-02 -4.863022863864898682e-01
3.463000000000000000e+03 4.235937118530273438e+01 2.064803886413574219e+01 4.003347456455230713e-01 7.457632422447204590e-01 3.438293933868408203e-01 -9.637370705604553223e-03
3.464000000000000000e+03 4.351239395141601562e+01 2.236374092102050781e+01 3.514717221260070801e-01 6.743654012680053711e-01 3.077511191368103027e-01 2.395326271653175354e-02
3.465000000000000000e+03 3.511725234985351562e+01 2.346436691284179688e+01 -5.261196941137313843e-02 1.013932228088378906e-01 1.463437639176845551e-02 -4.998661875724792480e-01
3.466000000000000000e+03 6.726477050781250000e+01 2.060182762145996094e+01 -3.982171416282653809e-01 8.604038238525390625e+00 2.461746215820312500e+00 -1.093858599662780762e+00
3.467000000000000000e+03 6.528663635253906250e+01 1.666827583312988281e+01 -7.652592062950134277e-01 8.252807617187500000e+00 2.246264457702636719e+00 -4.979356229305267334e-01
3.468000000000000000e+03 6.467263793945312500e+01 2.941255187988281250e+01 2.722773551940917969e+00 9.933275222778320312e+00 3.796814680099487305e+00 -8.535045981407165527e-01
3.469000000000000000e+03 4.667174911499023438e+01 2.148211860656738281e+01 6.180289983749389648e-01 1.296921253204345703e+00 5.744850635528564453e-01 5.838417410850524902e-01
3.470000000000000000e+03 3.998350524902343750e+01 2.353664588928222656e+01 5.268372967839241028e-02 3.169820904731750488e-01 1.108997464179992676e-01 -3.440336287021636963e-01
3.471000000000000000e+03 4.060352706909179688e+01 2.358398056030273438e+01 6.668952852487564087e-02 3.425846099853515625e-01 1.227822452783584595e-01 -3.098682165145874023e-01
3.472000000000000000e+03 6.460006713867187500e+01 3.133669853210449219e+01 3.117084026336669922e+00 9.975863456726074219e+00 3.927884101867675781e+00 1.514784544706344604e-01
3.473000000000000000e+03 6.406882476806640625e+01 3.072385215759277344e+01 3.469287633895874023e+00 1.022003936767578125e+01 4.106798171997070312e+00 -1.696446985006332397e-01
3.474000000000000000e+03 3.575858688354492188e+01 1.825524902343750000e+01 2.192695885896682739e-01 2.689502835273742676e-01 1.464659571647644043e-01 -3.623811900615692139e-01
3.475000000000000000e+03 3.779072570800781250e+01 2.275930404663085938e+01 4.820025712251663208e-02 2.419795095920562744e-01 8.705393224954605103e-02 -4.250296354293823242e-01
3.476000000000000000e+03 5.231991577148437500e+01 2.276128005981445312e+01 7.344049811363220215e-01 3.247920274734497070e+00 1.194697499275207520e+00 2.005200624465942383e+00
3.477000000000000000e+03 6.681966400146484375e+01 2.289482879638671875e+01 -8.575595915317535400e-02 8.952690124511718750e+00 2.660080194473266602e+00 -1.242991089820861816e+00
3.478000000000000000e+03 6.609812164306640625e+01 1.616772842407226562e+01 -7.149184942245483398e-01 8.173683166503906250e+00 2.237629413604736328e+00 -5.985822081565856934e-01
3.479000000000000000e+03 6.658350372314453125e+01 1.685694885253906250e+01 -6.770799756050109863e-01 8.245374679565429688e+00 2.270488500595092773e+00 -7.007114887237548828e-01
3.480000000000000000e+03 4.679758071899414062e+01 2.219651794433593750e+01 6.013507246971130371e-01 1.182964086532592773e+00 5.352944731712341309e-01 5.703479647636413574e-01
3.481000000000000000e+03 3.278920364379882812e+01 2.617047500610351562e+01 -2.204695641994476318e-01 1.269961055368185043e-02 -6.233098357915878296e-02 -4.798322319984436035e-01
3.482000000000000000e+03 4.173889160156250000e+01 2.123949432373046875e+01 3.375416994094848633e-01 6.150984764099121094e-01 2.857920527458190918e-01 -1.054221093654632568e-01
3.483000000000000000e+03 3.819726943969726562e+01 2.368481063842773438e+01 -2.430811151862144470e-02 2.248138636350631714e-01 6.015172600746154785e-02 -4.318645596504211426e-01
3.484000000000000000e+03 4.811243057250976562e+01 2.190046501159667969e+01 6.949565410614013672e-01 1.568567633628845215e+00 6.790572404861450195e-01 8.627567887306213379e-01
3.485000000000000000e+03 4.866059875488281250e+01 2.206277275085449219e+01 7.197088599205017090e-01 1.701058149337768555e+00 7.262300848960876465e-01 9.983851909637451172e-01
3.486000000000000000e+03 4.840016555786132812e+01 2.282773399353027344e+01 6.903967261314392090e-01 1.406892657279968262e+00 6.291868090629577637e-01 8.705122470855712891e-01
3.487000000000000000e+03 6.779523468017578125e+01 2.090744972229003906e+01 -3.419210612773895264e-01 8.551271438598632812e+00 2.462805271148681641e+00 -1.149838328361511230e+00
3.488000000000000000e+03 6.694569396972656250e+01 2.105387496948242188e+01 -3.753654360771179199e-01 8.761731147766113281e+00 2.515909671783447266e+00 -1.108862638473510742e+00
3.489000000000000000e+03 3.676303482055664062e+01 1.819705390930175781e+01 2.625203430652618408e-01 3.769150376319885254e-01 1.918306201696395874e-01 -3.115140795707702637e-01
3.490000000000000000e+03 6.768406677246093750e+01 2.664900779724121094e+01 9.822325110435485840e-01 8.711080551147460938e+00 2.907993793487548828e+00 -1.298539876937866211e+00
3.491000000000000000e+03 6.104173278808593750e+01 2.888565063476562500e+01 3.163868665695190430e+00 1.358933448791503906e+01 5.025960922241210938e+00 -1.503209471702575684e+00
3.492000000000000000e+03 6.705028533935546875e+01 2.367584037780761719e+01 1.161407530307769775e-01 8.952824592590332031e+00 2.720689773559570312e+00 -1.313548445701599121e+00
3.493000000000000000e+03 4.980023956298828125e+01 2.230867004394531250e+01 7.577031254768371582e-01 2.054324388504028320e+00 8.436082005500793457e-01 1.273659229278564453e+00
3.494000000000000000e+03 5.056043624877929688e+01 2.195263671875000000e+01 7.502447962760925293e-01 2.474182844161987305e+00 9.673283100128173828e-01 1.496790647506713867e+00
3.495000000000000000e+03 5.118055343627929688e+01 2.251690673828125000e+01 7.782030701637268066e-01 2.612360239028930664e+00 1.017168998718261719e+00 1.666331648826599121e+00
3.496000000000000000e+03 3.376103210449218750e+01 2.174034881591796875e+01 3.904554247856140137e-02 5.138810351490974426e-02 2.713009342551231384e-02 -4.911828041076660156e-01
3.497000000000000000e+03 3.575632858276367188e+01 1.733779525756835938e+01 2.458904981613159180e-01 3.026745319366455078e-01 1.645695120096206665e-01 -3.360411524772644043e-01
3.498000000000000000e+03 6.654719543457031250e+01 8.638124465942382812e+00 -4.972423315048217773e-01 7.427224636077880859e+00 2.078994750976562500e+00 -3.279389441013336182e-01
3.499000000000000000e+03 3.697484207153320312e+01 8.139569163322448730e-01 1.149381995201110840e-01 1.072753190994262695e+00 3.563074171543121338e-01 5.665775388479232788e-03
3.500000000000000000e+03 6.644566345214843750e+01 1.487695693969726562e+01 -6.840023398399353027e-01 8.005773544311523438e+00 2.196531295776367188e+00 -5.758617520332336426e-01
3.501000000000000000e+03 6.533572387695312500e+01 1.175780010223388672e+01 -6.479230523109436035e-01 7.576859474182128906e+00 2.078680992126464844e+00 -3.103137314319610596e-01
3.502000000000000000e+03 3.643294525146484375e+01 8.195415496826171875e+00 2.226076722145080566e-01 7.650750279426574707e-01 2.963047921657562256e-01 -7.996474951505661011e-02
3.503000000000000000e+03 3.843486404418945312e+01 1.294606399536132812e+01 3.340120613574981689e-01 8.547549247741699219e-01 3.566301167011260986e-01 -6.982652842998504639e-02
3.504000000000000000e+03 6.664383697509765625e+01 2.774882888793945312e+01 1.495816349983215332e+00 9.054479598999023438e+00 3.165088653564453125e+00 -1.206028342247009277e+00
3.505000000000000000e+03 3.787476348876953125e+01 1.058900547027587891e+01 2.874419689178466797e-01 8.972435593605041504e-01 3.554056584835052490e-01 -5.916791781783103943e-02
3.506000000000000000e+03 3.672207641601562500e+01 5.467826366424560547e+00 1.856167763471603394e-01 9.117593169212341309e-01 3.292128443717956543e-01 -3.034060262143611908e-02
3.507000000000000000e+03 6.556561279296875000e+01 9.574922561645507812e+00 -5.556260943412780762e-01 7.401140213012695312e+00 2.053654193878173828e+00 -2.781644165515899658e-01
3.508000000000000000e+03 6.252075195312500000e+01 4.147648239135742188e+01 -1.792550683021545410e+00 1.142452907562255859e+01 2.889593362808227539e+00 1.442270874977111816e-01
3.509000000000000000e+03 3.479880142211914062e+01 -2.745347738265991211e+00 6.927901506423950195e-02 7.564380764961242676e-01 2.477151304483413696e-01 -1.373172271996736526e-02
3.510000000000000000e+03 6.549250030517578125e+01 8.635236740112304688e+00 -5.269886851310729980e-01 7.314980506896972656e+00 2.036397457122802734e+00 -2.491225153207778931e-01
3.511000000000000000e+03 6.722892761230468750e+01 1.731746482849121094e+01 -6.248931884765625000e-01 8.278545379638671875e+00 2.296095609664916992e+00 -8.211060166358947754e-01
3.512000000000000000e+03 6.340491485595703125e+01 -9.884251594543457031e+00 -1.000592261552810669e-01 6.357412338256835938e+00 1.877205967903137207e+00 -1.155455224215984344e-02
3.513000000000000000e+03 6.567281341552734375e+01 1.412175655364990234e+01 -7.063736319541931152e-01 7.882372379302978516e+00 2.152799606323242188e+00 -4.354099333286285400e-01
3.514000000000000000e+03 6.555715942382812500e+01 1.284545803070068359e+01 -6.776225566864013672e-01 7.717319488525390625e+00 2.111909151077270508e+00 -3.678854405879974365e-01
3.515000000000000000e+03 3.531994247436523438e+01 5.368367671966552734e+00 1.694893687963485718e-01 6.804996132850646973e-01 2.549966871738433838e-01 -7.408720999956130981e-02
3.516000000000000000e+03 3.652769470214843750e+01 6.845501422882080078e+00 2.051531374454498291e-01 8.288910984992980957e-01 3.102132678031921387e-01 -5.614013969898223877e-02
3.517000000000000000e+03 3.408243560791015625e+01 -2.146004676818847656e+00 7.605594396591186523e-02 6.197288036346435547e-01 2.087354212999343872e-01 -2.260893210768699646e-02
3.518000000000000000e+03 3.502487182617187500e+01 -5.607258796691894531e+00 5.358396098017692566e-02 8.221241235733032227e-01 2.627124190330505371e-01 -8.870134130120277405e-03
3.519000000000000000e+03 3.769860076904296875e+01 1.436564350128173828e+01 3.276529312133789062e-01 6.670637726783752441e-01 2.984150052070617676e-01 -1.484851092100143433e-01
3.520000000000000000e+03 3.664913940429687500e+01 1.923740959167480469e+01 2.229775339365005493e-01 3.115902841091156006e-01 1.603703498840332031e-01 -3.586759269237518311e-01
3.521000000000000000e+03 6.242632293701171875e+01 -1.107339572906494141e+01 -7.840187847614288330e-02 6.179282665252685547e+00 1.830264210700988770e+00 -1.293864566832780838e-02
3.522000000000000000e+03 6.538222503662109375e+01 -4.291722297668457031e+00 -1.629111021757125854e-01 6.774138927459716797e+00 1.983368396759033203e+00 -6.753724068403244019e-02
3.523000000000000000e+03 3.325154113769531250e+01 -8.325602531433105469e+00 2.710534259676933289e-02 5.084593892097473145e-01 1.606694310903549194e-01 -1.553425192832946777e-02
3.524000000000000000e+03 3.588858032226562500e+01 -1.625107002258300781e+01 1.460958365350961685e-02 1.075118660926818848e+00 3.269184827804565430e-01 6.722112186253070831e-03
3.525000000000000000e+03 6.338272476196289062e+01 -1.391307544708251953e+01 -7.068625837564468384e-02 6.310433387756347656e+00 1.871924042701721191e+00 -5.424141883850097656e-03
3.526000000000000000e+03 6.038805770874023438e+01 2.749335670471191406e+01 6.926602125167846680e-01 1.353952693939208984e+01 4.269656181335449219e+00 -3.094435930252075195e-01
3.527000000000000000e+03 6.062487792968750000e+01 2.781851959228515625e+01 1.182506918907165527e+00 1.366288661956787109e+01 4.453618049621582031e+00 -7.532433867454528809e-01
3.528000000000000000e+03 5.681997680664062500e+01 2.621520805358886719e+01 3.999577462673187256e-01 8.343625068664550781e+00 2.623074769973754883e+00 3.875823497772216797e+00
3.529000000000000000e+03 5.971998214721679688e+01 2.710258102416992188e+01 -1.898034242913126945e-04 1.352524471282958984e+01 4.057516574859619141e+00 6.753803491592407227e-01
3.530000000000000000e+03 5.578618240356445312e+01 2.646246337890625000e+01 1.054503083229064941e+00 6.168020725250244141e+00 2.166757106781005859e+00 4.032810688018798828e+00
3.531000000000000000e+03 5.524586105346679688e+01 2.645083236694335938e+01 1.209143042564392090e+00 5.035511970520019531e+00 1.873396515846252441e+00 3.690577268600463867e+00
3.532000000000000000e+03 5.828426742553710938e+01 2.634873390197753906e+01 -3.286849260330200195e-01 1.137150192260742188e+01 3.312844991683959961e+00 2.771244287490844727e+00
3.533000000000000000e+03 5.400077438354492188e+01 2.567474174499511719e+01 1.138648509979248047e+00 3.588801860809326172e+00 1.418235063552856445e+00 2.911159992218017578e+00
3.534000000000000000e+03 6.134656906127929688e+01 2.834709358215332031e+01 2.308469057083129883e+00 1.303262996673583984e+01 4.602329730987548828e+00 -1.386503219604492188e+00
3.535000000000000000e+03 5.326688385009765625e+01 2.458539581298828125e+01 9.564070105552673340e-01 3.348492383956909180e+00 1.291469812393188477e+00 2.483937025070190430e+00
3.536000000000000000e+03 6.101840591430664062e+01 2.766823005676269531e+01 1.202166914939880371e+00 1.311859512329101562e+01 4.296228885650634766e+00 -8.842432498931884766e-01
3.537000000000000000e+03 6.520932769775390625e+01 2.788978385925292969e+01 1.804033756256103516e+00 9.742881774902343750e+00 3.464074611663818359e+00 -1.259379625320434570e+00
3.538000000000000000e+03 6.224733352661132812e+01 2.859989547729492188e+01 2.741317510604858398e+00 1.189363670349121094e+01 4.390486240386962891e+00 -1.408466339111328125e+00
3.539000000000000000e+03 6.117081832885742188e+01 2.799809646606445312e+01 1.770745992660522461e+00 1.310948085784912109e+01 4.464067935943603516e+00 -1.165844559669494629e+00
3.540000000000000000e+03 5.553164672851562500e+01 2.612701034545898438e+01 9.785118103027343750e-01 5.730649471282958984e+00 2.012748241424560547e+00 3.705766439437866211e+00
3.541000000000000000e+03 6.357304382324218750e+01 2.949697113037109375e+01 3.291298151016235352e+00 1.057817840576171875e+01 4.160842895507812500e+00 -9.493270516395568848e-01
3.542000000000000000e+03 5.309016036987304688e+01 2.307256889343261719e+01 6.979425549507141113e-01 3.726484298706054688e+00 1.327328085899353027e+00 2.245510101318359375e+00
3.543000000000000000e+03 6.628919219970703125e+01 3.026376152038574219e+01 2.222409486770629883e+00 9.144687652587890625e+00 3.410129308700561523e+00 -4.691001176834106445e-01
3.544000000000000000e+03 4.117370223999023438e+01 2.049025344848632812e+01 3.491311371326446533e-01 6.267598271369934082e-01 2.927672863006591797e-01 -1.168092191219329834e-01
3.545000000000000000e+03 4.406375503540039062e+01 1.996030807495117188e+01 5.106136798858642578e-01 1.072617053985595703e+00 4.749692082405090332e-01 2.433597594499588013e-01
3.546000000000000000e+03 4.109320068359375000e+01 2.178888893127441406e+01 2.628166377544403076e-01 5.064775943756103516e-01 2.307882606983184814e-01 -1.910628527402877808e-01
3.547000000000000000e+03 4.294722747802734375e+01 1.997990417480468750e+01 4.507388770580291748e-01 8.856065869331359863e-01 4.009036421775817871e-01 8.351119607686996460e-02
3.548000000000000000e+03 3.968341064453125000e+01 2.281688880920410156e+01 1.096815988421440125e-01 3.412706255912780762e-01 1.352856755256652832e-01 -3.352889418601989746e-01
3.549000000000000000e+03 4.467279052734375000e+01 2.038471794128417969e+01 5.304446816444396973e-01 1.108024835586547852e+00 4.915408790111541748e-01 3.051721751689910889e-01
3.550000000000000000e+03 4.534297180175781250e+01 2.060605430603027344e+01 5.589252710342407227e-01 1.176561951637268066e+00 5.206461548805236816e-01 3.984684050083160400e-01
3.551000000000000000e+03 3.892638397216796875e+01 1.999165534973144531e+01 2.752592265605926514e-01 4.598264992237091064e-01 2.205257266759872437e-01 -2.604231536388397217e-01
3.552000000000000000e+03 3.577938842773437500e+01 1.927934837341308594e+01 1.961141824722290039e-01 2.396846413612365723e-01 1.307396441698074341e-01 -3.924745619297027588e-01
3.553000000000000000e+03 4.042271423339843750e+01 2.233576774597167969e+01 1.821396350860595703e-01 4.162464439868927002e-01 1.795158237218856812e-01 -2.703641057014465332e-01
3.554000000000000000e+03 6.487213134765625000e+01 1.469718647003173828e+01 -7.529955506324768066e-01 7.917559623718261719e+00 2.149369239807128906e+00 -3.471157848834991455e-01
3.555000000000000000e+03 5.317799758911132812e+01 2.229474258422851562e+01 5.904724001884460449e-01 3.976124286651611328e+00 1.369979023933410645e+00 2.177896738052368164e+00
3.556000000000000000e+03 6.702703857421875000e+01 2.690661811828613281e+01 1.151604890823364258e+00 8.955567359924316406e+00 3.032151699066162109e+00 -1.300038218498229980e+00
3.557000000000000000e+03 6.752680206298828125e+01 2.139020919799804688e+01 -2.853355705738067627e-01 8.659979820251464844e+00 2.512393236160278320e+00 -1.177073240280151367e+00
3.558000000000000000e+03 6.633753204345703125e+01 2.136281585693359375e+01 -3.897434473037719727e-01 8.924619674682617188e+00 2.560462951660156250e+00 -1.062048912048339844e+00
3.559000000000000000e+03 6.650682830810546875e+01 2.537446403503417969e+01 6.214253306388854980e-01 9.202971458435058594e+00 2.947319030761718750e+00 -1.379598617553710938e+00
3.560000000000000000e+03 6.669381713867187500e+01 1.982955360412597656e+01 -5.483548045158386230e-01 8.648617744445800781e+00 2.430078744888305664e+00 -9.505509138107299805e-01
3.561000000000000000e+03 6.698898315429687500e+01 1.911499214172363281e+01 -5.676399469375610352e-01 8.523428916931152344e+00 2.386736869812011719e+00 -9.292051196098327637e-01
3.562000000000000000e+03 3.646304321289062500e+01 1.599785804748535156e+01 2.763206362724304199e-01 4.200025498867034912e-01 2.088969647884368896e-01 -2.671260237693786621e-01
3.563000000000000000e+03 4.002496337890625000e+01 2.028243064880371094e+01 3.060245811939239502e-01 5.322001576423645020e-01 2.514674365520477295e-01 -2.021685689687728882e-01
3.564000000000000000e+03 3.470539093017578125e+01 2.223825836181640625e+01 2.804432436823844910e-02 9.500399976968765259e-02 3.691449761390686035e-02 -4.890047311782836914e-01
3.565000000000000000e+03 3.591501617431640625e+01 2.031605911254882812e+01 1.532466858625411987e-01 2.141976654529571533e-01 1.102333068847656250e-01 -4.195408225059509277e-01
3.566000000000000000e+03 3.792246246337890625e+01 1.974874496459960938e+01 2.440372109413146973e-01 3.975113034248352051e-01 1.924645453691482544e-01 -3.168240785598754883e-01
3.567000000000000000e+03 4.820481491088867188e+01 2.127500343322753906e+01 6.766358017921447754e-01 1.711524605751037598e+00 7.164481282234191895e-01 9.000827670097351074e-01
3.568000000000000000e+03 4.892284011840820312e+01 2.147283172607421875e+01 7.098259329795837402e-01 1.930632472038269043e+00 7.921375036239624023e-01 1.073451995849609375e+00
3.569000000000000000e+03 4.972870254516601562e+01 2.103470230102539062e+01 6.696882247924804688e-01 2.348460435867309570e+00 9.054446220397949219e-01 1.235688328742980957e+00
3.570000000000000000e+03 4.903234481811523438e+01 2.253992652893066406e+01 7.359977960586547852e-01 1.684196591377258301e+00 7.260583043098449707e-01 1.045605778694152832e+00
3.571000000000000000e+03 6.397040939331054688e+01 1.636866760253906250e+01 -8.193398714065551758e-01 8.144865989685058594e+00 2.197657823562622070e+00 -2.584517300128936768e-01
3.572000000000000000e+03 5.111544418334960938e+01 2.132578277587890625e+01 6.724451184272766113e-01 2.910467386245727539e+00 1.074873805046081543e+00 1.607616424560546875e+00
3.573000000000000000e+03 3.863246154785156250e+01 4.054193794727325439e-01 1.145392507314682007e-01 1.403259992599487305e+00 4.553397595882415771e-01 4.120092839002609253e-02
3.574000000000000000e+03 6.568718719482421875e+01 2.901670646667480469e+01 2.188600063323974609e+00 9.427886962890625000e+00 3.484946250915527344e+00 -9.476141333580017090e-01
3.575000000000000000e+03 6.224266815185546875e+01 2.818680953979492188e+01 2.228490352630615234e+00 1.191236591339111328e+01 4.242256641387939453e+00 -1.385271787643432617e+00
3.576000000000000000e+03 6.639850616455078125e+01 1.143932151794433594e+01 -6.003913283348083496e-01 7.633878707885742188e+00 2.110046148300170898e+00 -4.058334231376647949e-01
3.577000000000000000e+03 6.661515045166015625e+01 2.211923599243164062e+01 -2.437625974416732788e-01 8.936842918395996094e+00 2.607924222946166992e+00 -1.166775703430175781e+00
3.578000000000000000e+03 3.876230621337890625e+01 1.412343502044677734e+01 3.470506668090820312e-01 8.216755390167236328e-01 3.506178557872772217e-01 -8.421143889427185059e-02
3.579000000000000000e+03 6.467678070068359375e+01 1.044391059875488281e+01 -6.092231869697570801e-01 7.368699073791503906e+00 2.027842760086059570e+00 -2.167300879955291748e-01
3.580000000000000000e+03 6.456548309326171875e+01 9.575362205505371094e+00 -5.785685777664184570e-01 7.288943290710449219e+00 2.013112545013427734e+00 -1.940301209688186646e-01
3.581000000000000000e+03 6.472298431396484375e+01 2.332101821899414062e+00 -3.189287483692169189e-01 6.834141254425048828e+00 1.954563736915588379e+00 -1.099653840065002441e-01
3.582000000000000000e+03 3.623059844970703125e+01 2.127964019775390625e+01 1.148541495203971863e-01 2.024990916252136230e-01 9.520597010850906372e-02 -4.351717531681060791e-01
3.583000000000000000e+03 3.737973403930664062e+01 2.188486671447753906e+01 1.057000458240509033e-01 2.493598163127899170e-01 1.065179556608200073e-01 -4.138137996196746826e-01
3.584000000000000000e+03 3.775742721557617188e+01 9.389632225036621094e+00 2.651900649070739746e-01 9.289143681526184082e-01 3.582313358783721924e-01 -4.345735907554626465e-02
3.585000000000000000e+03 3.910178375244140625e+01 1.039392280578613281e+01 3.033448457717895508e-01 1.105979919433593750e+00 4.227974414825439453e-01 1.026000827550888062e-02
3.586000000000000000e+03 6.452861022949218750e+01 8.705001831054687500e+00 -5.471939444541931152e-01 7.212041854858398438e+00 1.999454498291015625e+00 -1.715611815452575684e-01
3.587000000000000000e+03 3.773875427246093750e+01 8.169242858886718750e+00 2.365625500679016113e-01 9.782440066337585449e-01 3.644419610500335693e-01 -2.579191885888576508e-02
3.588000000000000000e+03 6.506343078613281250e+01 6.592371463775634766e+00 -4.550192058086395264e-01 7.117060661315917969e+00 1.998612403869628906e+00 -1.825085580348968506e-01
3.589000000000000000e+03 6.644161224365234375e+01 7.583265781402587891e+00 -4.637099802494049072e-01 7.347046375274658203e+00 2.065000772476196289e+00 -2.886390686035156250e-01
3.590000000000000000e+03 3.627098846435546875e+01 -1.886603355407714844e+00 9.164204448461532593e-02 9.954633116722106934e-01 3.261316120624542236e-01 6.548830773681402206e-03
3.591000000000000000e+03 6.489656066894531250e+01 1.343598842620849609e+01 -7.164790034294128418e-01 7.738261222839355469e+00 2.106534719467163086e+00 -3.077247142791748047e-01
3.592000000000000000e+03 6.516399383544921875e+01 -1.017946839332580566e+00 -2.239961326122283936e-01 6.804653644561767578e+00 1.974197268486022949e+00 -9.706727415323257446e-02
3.593000000000000000e+03 3.702127456665039062e+01 3.985996723175048828e+00 1.614391356706619263e-01 1.019177556037902832e+00 3.541849851608276367e-01 -1.035541947931051254e-02
3.594000000000000000e+03 6.204940795898437500e+01 -8.931219100952148438e+00 -1.143515631556510925e-01 6.093887329101562500e+00 1.793860673904418945e+00 -4.772766493260860443e-03
3.595000000000000000e+03 6.329266357421875000e+01 -1.240182876586914062e+01 -7.185894250869750977e-02 6.327857017517089844e+00 1.876799464225769043e+00 -1.017728634178638458e-02
3.596000000000000000e+03 3.650701522827148438e+01 -4.521681785583496094e+00 5.552319437265396118e-02 1.052321910858154297e+00 3.323535323143005371e-01 1.678136177361011505e-02
3.597000000000000000e+03 3.581069946289062500e+01 -3.061604976654052734e+00 5.783896893262863159e-02 9.187510013580322266e-01 2.929770052433013916e-01 5.633888766169548035e-03
3.598000000000000000e+03 6.325467300415039062e+01 1.742213219404220581e-01 -2.673200368881225586e-01 6.519143104553222656e+00 1.875546932220458984e+00 -4.372660070657730103e-02
3.599000000000000000e+03 6.531188964843750000e+01 -1.933786582946777344e+01 -3.169560432434082031e-02 6.653733253479003906e+00 1.986611366271972656e+00 -8.110693655908107758e-03
3.600000000000000000e+03 6.695569610595703125e+01 -1.907257461547851562e+01 -3.016389347612857819e-02 6.967007160186767578e+00 2.081053018569946289e+00 -1.018512621521949768e-02
3.601000000000000000e+03 6.224666976928710938e+01 -1.325073051452636719e+01 -7.434944808483123779e-02 6.096808910369873047e+00 1.806737780570983887e+00 -1.118994434364140034e-03
3.602000000000000000e+03 3.337371063232421875e+01 -6.935010433197021484e+00 3.233346715569496155e-02 5.131461024284362793e-01 1.636438667774200439e-01 -1.649565622210502625e-02
3.603000000000000000e+03 3.797879409790039062e+01 1.547750949859619141e+01 3.328797519207000732e-01 6.426331400871276855e-01 2.926538586616516113e-01 -1.629359871149063110e-01
3.604000000000000000e+03 3.714636230468750000e+01 1.657485198974609375e+01 3.011861145496368408e-01 4.817853271961212158e-01 2.348914295434951782e-01 -2.464485019445419312e-01
3.605000000000000000e+03 6.466413116455078125e+01 -7.087634086608886719e+00 -1.206633299589157104e-01 6.604205608367919922e+00 1.945062637329101562e+00 -4.091059789061546326e-02
3.606000000000000000e+03 6.274643325805664062e+01 -7.751608371734619141e+00 -1.215223297476768494e-01 6.259229660034179688e+00 1.841312170028686523e+00 -1.342740282416343689e-02
3.607000000000000000e+03 3.287452697753906250e+01 -2.031937217712402344e+01 2.582043875008821487e-03 5.235919952392578125e-01 1.578522026538848877e-01 1.261527882888913155e-03
3.608000000000000000e+03 3.376797866821289062e+01 -2.198009872436523438e+01 -1.788220950402319431e-03 7.101369500160217285e-01 2.125046104192733765e-01 5.074855871498584747e-03
3.609000000000000000e+03 3.738850402832031250e+01 -1.119722366333007812e+01 1.985893584787845612e-02 1.325898289680480957e+00 4.037271738052368164e-01 2.097425237298011780e-02
3.610000000000000000e+03 6.687674713134765625e+01 -4.687482357025146484e+00 -1.391751468181610107e-01 7.026617527008056641e+00 2.066232681274414062e+00 -8.859234303236007690e-02
3.611000000000000000e+03 6.563661193847656250e+01 -2.921971321105957031e+00 -1.885966509580612183e-01 6.836978435516357422e+00 1.994514584541320801e+00 -8.554958552122116089e-02
3.612000000000000000e+03 5.711692047119140625e+01 2.537595748901367188e+01 -1.473684888333082199e-02 8.622801780700683594e+00 2.582419395446777344e+00 3.276437997817993164e+00
3.613000000000000000e+03 6.503796386718750000e+01 2.498048400878906250e+01 3.768687546253204346e-01 9.777778625488281250e+00 3.046394109725952148e+00 -1.270824074745178223e+00
3.614000000000000000e+03 5.608701324462890625e+01 2.560145950317382812e+01 5.568113327026367188e-01 6.848197937011718750e+00 2.221502780914306641e+00 3.609726428985595703e+00
3.615000000000000000e+03 5.409002685546875000e+01 2.482958221435546875e+01 9.276099205017089844e-01 4.074965953826904297e+00 1.500772833824157715e+00 2.855976581573486328e+00
3.616000000000000000e+03 6.595452117919921875e+01 2.306331062316894531e+01 -1.255540847778320312e-01 9.221716880798339844e+00 2.728848934173583984e+00 -1.167396783828735352e+00
3.617000000000000000e+03 5.926533889770507812e+01 2.691413307189941406e+01 -2.275578081607818604e-01 1.308308124542236328e+01 3.856657028198242188e+00 1.452078104019165039e+00
3.618000000000000000e+03 6.571882629394531250e+01 2.530411148071289062e+01 5.590958595275878906e-01 9.485837936401367188e+00 3.013480186462402344e+00 -1.349750161170959473e+00
3.619000000000000000e+03 6.262591171264648438e+01 2.857643699645996094e+01 2.712379693984985352e+00 1.152651500701904297e+01 4.271668434143066406e+00 -1.393077850341796875e+00
3.620000000000000000e+03 6.017290878295898438e+01 2.722726058959960938e+01 2.634812593460083008e-01 1.345189571380615234e+01 4.114613056182861328e+00 1.251079440116882324e-01
3.621000000000000000e+03 5.879229354858398438e+01 2.658339500427246094e+01 -3.621102869510650635e-01 1.221426582336425781e+01 3.555646657943725586e+00 2.133919477462768555e+00
3.622000000000000000e+03 5.384769058227539062e+01 2.340260505676269531e+01 6.526507735252380371e-01 4.294242858886718750e+00 1.484068036079406738e+00 2.532830476760864258e+00
3.623000000000000000e+03 6.070165252685546875e+01 2.712207794189453125e+01 5.445066094398498535e-01 1.301301574707031250e+01 4.067256927490234375e+00 -4.270396828651428223e-01
3.624000000000000000e+03 6.140687942504882812e+01 2.770593833923339844e+01 1.504444837570190430e+00 1.270498371124267578e+01 4.262828826904296875e+00 -1.155855178833007812e+00
3.625000000000000000e+03 6.588578033447265625e+01 2.825255012512207031e+01 1.820090174674987793e+00 9.374537467956542969e+00 3.358388185501098633e+00 -1.155214071273803711e+00
3.626000000000000000e+03 6.292981719970703125e+01 2.871755027770996094e+01 2.821292161941528320e+00 1.123374938964843750e+01 4.216512680053710938e+00 -1.311105847358703613e+00
3.627000000000000000e+03 5.181471633911132812e+01 2.305041313171386719e+01 8.165778517723083496e-01 2.826909303665161133e+00 1.093046188354492188e+00 1.878584027290344238e+00
3.628000000000000000e+03 6.351690292358398438e+01 2.863627433776855469e+01 2.651282787322998047e+00 1.071146488189697266e+01 4.008824348449707031e+00 -1.244938969612121582e+00
3.629000000000000000e+03 6.601757049560546875e+01 2.065392684936523438e+01 -5.278698205947875977e-01 8.855458259582519531e+00 2.498276710510253906e+00 -9.292348027229309082e-01
3.630000000000000000e+03 5.335810852050781250e+01 2.364381408691406250e+01 7.806407213211059570e-01 3.739723682403564453e+00 1.356109380722045898e+00 2.421776056289672852e+00
3.631000000000000000e+03 5.444609832763671875e+01 2.228160095214843750e+01 3.415747284889221191e-01 5.038775444030761719e+00 1.614105105400085449e+00 2.397774457931518555e+00
3.632000000000000000e+03 5.487804412841796875e+01 2.508662796020507812e+01 8.297351598739624023e-01 4.963974475860595703e+00 1.738112926483154297e+00 3.169884681701660156e+00
3.633000000000000000e+03 6.495057678222656250e+01 2.862705802917480469e+01 2.226615190505981445e+00 9.818174362182617188e+00 3.613436698913574219e+00 -1.127711415290832520e+00
3.634000000000000000e+03 5.276456069946289062e+01 2.179906654357910156e+01 5.658100843429565430e-01 3.769483327865600586e+00 1.300588011741638184e+00 2.016421079635620117e+00
3.635000000000000000e+03 5.277485656738281250e+01 2.258373832702636719e+01 6.823540329933166504e-01 3.663186311721801758e+00 1.303662061691284180e+00 2.139399290084838867e+00
3.636000000000000000e+03 5.529323577880859375e+01 2.478656959533691406e+01 6.362541913986206055e-01 5.612962722778320312e+00 1.874765038490295410e+00 3.229009151458740234e+00
3.637000000000000000e+03 6.579582214355468750e+01 1.992862510681152344e+01 -6.080510616302490234e-01 8.761585235595703125e+00 2.446060180664062500e+00 -8.328781723976135254e-01
3.638000000000000000e+03 6.614714813232421875e+01 1.862222480773925781e+01 -6.539285182952880859e-01 8.524495124816894531e+00 2.361170053482055664e+00 -7.844302058219909668e-01
3.639000000000000000e+03 6.543987274169921875e+01 2.983908653259277344e+01 2.514666318893432617e+00 9.505436897277832031e+00 3.606030941009521484e+00 -6.427769660949707031e-01
3.640000000000000000e+03 4.236301040649414062e+01 1.921513175964355469e+01 4.460149407386779785e-01 8.959795236587524414e-01 4.025983512401580811e-01 5.679192766547203064e-02
3.641000000000000000e+03 4.652722167968750000e+01 2.069344329833984375e+01 6.065694689750671387e-01 1.405093669891357422e+00 6.034989356994628906e-01 5.880732536315917969e-01
3.642000000000000000e+03 4.176964950561523438e+01 1.988936042785644531e+01 3.990310132503509521e-01 7.494561672210693359e-01 3.445461690425872803e-01 -3.634788468480110168e-02
3.643000000000000000e+03 6.481420135498046875e+01 1.223674106597900391e+01 -6.754577755928039551e-01 7.580611228942871094e+00 2.071546077728271484e+00 -2.659918069839477539e-01
3.644000000000000000e+03 4.055706405639648438e+01 2.103924751281738281e+01 2.896949946880340576e-01 5.217487215995788574e-01 2.434331029653549194e-01 -1.969148218631744385e-01
3.645000000000000000e+03 6.628431701660156250e+01 2.381517791748046875e+01 1.081542223691940308e-01 9.206436157226562500e+00 2.794377088546752930e+00 -1.277719616889953613e+00
3.646000000000000000e+03 3.941827392578125000e+01 2.076800537109375000e+01 2.553525269031524658e-01 4.485717713832855225e-01 2.111772894859313965e-01 -2.642407417297363281e-01
3.647000000000000000e+03 3.850693511962890625e+01 2.241957664489746094e+01 9.921130537986755371e-02 2.904064059257507324e-01 1.168853193521499634e-01 -3.838525712490081787e-01
3.648000000000000000e+03 6.645495605468750000e+01 2.716558456420898438e+01 1.285200119018554688e+00 9.153170585632324219e+00 3.131511211395263672e+00 -1.304983139038085938e+00
3.649000000000000000e+03 6.374990844726562500e+01 1.060615062713623047e+01 -6.286146044731140137e-01 7.259238243103027344e+00 1.989187121391296387e+00 -1.159502342343330383e-01
3.650000000000000000e+03 3.835134506225585938e+01 1.781433486938476562e+01 3.249576985836029053e-01 5.432584285736083984e-01 2.604648470878601074e-01 -2.209943234920501709e-01
3.651000000000000000e+03 4.061191558837890625e+01 1.974867630004882812e+01 3.539502620697021484e-01 6.336203813552856445e-01 2.962711751461029053e-01 -1.329353749752044678e-01
3.652000000000000000e+03 6.273441314697265625e+01 2.815147781372070312e+01 2.272369623184204102e+00 1.145462799072265625e+01 4.118099212646484375e+00 -1.397903800010681152e+00
3.653000000000000000e+03 6.609226989746093750e+01 2.760297584533691406e+01 1.524636626243591309e+00 9.298042297363281250e+00 3.246803522109985352e+00 -1.247660279273986816e+00
3.654000000000000000e+03 3.911349105834960938e+01 1.649647521972656250e+01 3.687955141067504883e-01 7.255748510360717773e-01 3.283111155033111572e-01 -1.233594492077827454e-01
3.655000000000000000e+03 3.991115951538085938e+01 2.154927825927734375e+01 2.225935608148574829e-01 4.340811371803283691e-01 1.970024108886718750e-01 -2.676167786121368408e-01
3.656000000000000000e+03 6.667883300781250000e+01 2.618126487731933594e+01 8.665009140968322754e-01 9.121518135070800781e+00 2.996405839920043945e+00 -1.369700193405151367e+00
3.657000000000000000e+03 6.558461761474609375e+01 2.154727172851562500e+01 -4.426904618740081787e-01 9.095810890197753906e+00 2.595936298370361328e+00 -9.733072519302368164e-01
3.658000000000000000e+03 6.528516387939453125e+01 2.094191551208496094e+01 -5.620199441909790039e-01 9.026233673095703125e+00 2.539263963699340820e+00 -8.338503837585449219e-01
3.659000000000000000e+03 6.383191680908203125e+01 6.929718494415283203e+00 -4.801501333713531494e-01 6.953792095184326172e+00 1.942092657089233398e+00 -1.029190272092819214e-01
3.660000000000000000e+03 3.666211318969726562e+01 2.216535949707031250e+01 6.337524950504302979e-02 1.979399770498275757e-01 7.839456945657730103e-02 -4.454719126224517822e-01
3.661000000000000000e+03 4.837464904785156250e+01 2.046281814575195312e+01 6.610698699951171875e-01 1.964158058166503906e+00 7.875683903694152832e-01 9.674311876296997070e-01
3.662000000000000000e+03 4.353080368041992188e+01 1.928450584411621094e+01 4.970587491989135742e-01 1.069743037223815918e+00 4.700405299663543701e-01 1.941271275281906128e-01
3.663000000000000000e+03 3.659566879272460938e+01 1.724113845825195312e+01 2.799530625343322754e-01 4.046569168567657471e-01 2.053830027580261230e-01 -2.861715853214263916e-01
3.664000000000000000e+03 5.137496566772460938e+01 2.061689758300781250e+01 5.748111009597778320e-01 3.228962898254394531e+00 1.141132235527038574e+00 1.619140386581420898e+00
3.665000000000000000e+03 4.560444259643554688e+01 1.991666603088378906e+01 5.733001828193664551e-01 1.326633453369140625e+00 5.699800848960876465e-01 4.545598626136779785e-01
3.666000000000000000e+03 6.488922882080078125e+01 1.120770454406738281e+01 -6.374341845512390137e-01 7.467104911804199219e+00 2.048901319503784180e+00 -2.463164776563644409e-01
3.667000000000000000e+03 6.270718383789062500e+01 1.244073104858398438e+01 -7.010629773139953613e-01 7.320679187774658203e+00 1.985884904861450195e+00 -1.924754236824810505e-03
3.668000000000000000e+03 6.425618743896484375e+01 7.887913227081298828e+00 -5.186286568641662598e-01 7.085467338562011719e+00 1.970051646232604980e+00 -1.338076293468475342e-01
3.669000000000000000e+03 6.531822204589843750e+01 7.648534774780273438e+00 -4.940883219242095947e-01 7.212000846862792969e+00 2.015373706817626953e+00 -2.130218446254730225e-01
3.670000000000000000e+03 5.054324722290039062e+01 2.095497703552246094e+01 6.746327877044677734e-01 2.670911550521850586e+00 1.003663301467895508e+00 1.455897569656372070e+00
3.671000000000000000e+03 6.445977020263671875e+01 1.705250930786132812e+01 -8.014185428619384766e-01 8.297583580017089844e+00 2.248849630355834961e+00 -3.799059092998504639e-01
3.672000000000000000e+03 6.472273254394531250e+01 1.592013931274414062e+01 -7.858696579933166504e-01 8.103369712829589844e+00 2.195250034332275391e+00 -3.669781684875488281e-01
3.673000000000000000e+03 3.926854705810546875e+01 1.152443122863769531e+01 3.226904273033142090e-01 1.070275068283081055e+00 4.178896248340606689e-01 -2.400230732746422291e-04
3.674000000000000000e+03 6.354435729980468750e+01 3.029347658157348633e+00 -3.481272459030151367e-01 6.680017471313476562e+00 1.899567008018493652e+00 -6.514170765876770020e-02
3.675000000000000000e+03 3.903998565673828125e+01 9.262973785400390625e+00 2.774595916271209717e-01 1.158010959625244141e+00 4.306411445140838623e-01 1.609886251389980316e-02
3.676000000000000000e+03 6.363785552978515625e+01 -5.227006435394287109e+00 -1.546781659126281738e-01 6.447095394134521484e+00 1.887725114822387695e+00 -3.482249751687049866e-02
3.677000000000000000e+03 3.815928268432617188e+01 -1.223576545715332031e+00 8.909492939710617065e-02 1.340743184089660645e+00 4.289514422416687012e-01 3.117866255342960358e-02
3.678000000000000000e+03 6.279634475708007812e+01 1.925536274909973145e+00 -3.169324994087219238e-01 6.504937171936035156e+00 1.856401443481445312e+00 -3.064374811947345734e-02
3.679000000000000000e+03 6.394682312011718750e+01 1.276588678359985352e+00 -2.930001616477966309e-01 6.671885013580322266e+00 1.913665533065795898e+00 -7.017997652292251587e-02
3.680000000000000000e+03 3.714817047119140625e+01 2.384369611740112305e+00 1.361591815948486328e-01 1.075639605522155762e+00 3.635396361351013184e-01 -9.353692294098436832e-04
3.681000000000000000e+03 3.781926345825195312e+01 6.931867599487304688e+00 2.226110547780990601e-01 1.047768354415893555e+00 3.811138272285461426e-01 -1.178257726132869720e-02
3.682000000000000000e+03 6.411512756347656250e+01 -1.346027016639709473e+00 -2.217721939086914062e-01 6.627074718475341797e+00 1.921590805053710938e+00 -6.246779114007949829e-02
3.683000000000000000e+03 6.392017745971679688e+01 -3.907315731048583984e+00 -1.800897866487503052e-01 6.521980762481689453e+00 1.902567267417907715e+00 -4.464481025934219360e-02
3.684000000000000000e+03 3.672931671142578125e+01 2.016774749755859375e+01 1.855472922325134277e-01 2.759652137756347656e-01 1.384537518024444580e-01 -3.847640454769134521e-01
3.685000000000000000e+03 3.873947906494140625e+01 -1.671687889099121094e+01 1.066459994763135910e-02 1.611954450607299805e+00 4.867857098579406738e-01 2.109280042350292206e-02
3.686000000000000000e+03 3.646140670776367188e+01 -5.649617195129394531e+00 6.076523289084434509e-02 1.096837520599365234e+00 3.472808301448822021e-01 1.342949084937572479e-02
3.687000000000000000e+03 6.675033569335937500e+01 -1.722332191467285156e+01 -3.814652189612388611e-02 6.931648254394531250e+00 2.068050384521484375e+00 -1.675328612327575684e-02
3.688000000000000000e+03 3.447470474243164062e+01 -9.433097839355468750e+00 2.532539889216423035e-02 7.567731142044067383e-01 2.346295416355133057e-01 -2.332347678020596504e-03
3.689000000000000000e+03 3.897924804687500000e+01 1.530948066711425781e+01 3.619762063026428223e-01 7.760850787162780762e-01 3.414183855056762695e-01 -9.806515276432037354e-02
3.690000000000000000e+03 6.109480667114257812e+01 -1.004105186462402344e+01 -9.447551518678665161e-02 5.898422241210937500e+00 1.741183996200561523e+00 4.970935173332691193e-03
3.691000000000000000e+03 6.717711639404296875e+01 -3.236434459686279297e+00 -1.617918610572814941e-01 7.115891456604003906e+00 2.086230039596557617e+00 -1.133152991533279419e-01
3.692000000000000000e+03 3.775970077514648438e+01 -1.508228206634521484e+01 1.103697158396244049e-02 1.418021917343139648e+00 4.287176728248596191e-01 2.038918808102607727e-02
3.693000000000000000e+03 6.786368560791015625e+01 -3.259116744995117188e+01 -5.557348486036062241e-04 7.091894626617431641e+00 2.127401590347290039e+00 2.216234803199768066e-02
3.694000000000000000e+03 5.781217956542968750e+01 2.565545845031738281e+01 -2.647908031940460205e-01 9.939344406127929688e+00 2.902366161346435547e+00 2.961346387863159180e+00
3.695000000000000000e+03 5.417215728759765625e+01 2.397933387756347656e+01 7.156934142112731934e-01 4.461198806762695312e+00 1.553067684173583984e+00 2.718825101852416992e+00
3.696000000000000000e+03 5.918931198120117188e+01 2.645705223083496094e+01 -3.905939757823944092e-01 1.236326217651367188e+01 3.591800689697265625e+00 1.640522599220275879e+00
3.697000000000000000e+03 5.966008758544921875e+01 2.676973342895507812e+01 -1.789486110210418701e-01 1.295736217498779297e+01 3.833523988723754883e+00 9.254894256591796875e-01
3.698000000000000000e+03 6.459042358398437500e+01 2.294463539123535156e+01 -3.028831183910369873e-01 9.581645965576171875e+00 2.783628940582275391e+00 -9.399806261062622070e-01
3.699000000000000000e+03 5.866641235351562500e+01 2.616429710388183594e+01 -4.243426322937011719e-01 1.156898784637451172e+01 3.343393564224243164e+00 2.262209653854370117e+00
3.700000000000000000e+03 6.358073806762695312e+01 2.806699752807617188e+01 2.152197837829589844e+00 1.076089954376220703e+01 3.873929262161254883e+00 -1.356154084205627441e+00
3.701000000000000000e+03 6.180142974853515625e+01 2.781298255920410156e+01 1.764381170272827148e+00 1.236443138122558594e+01 4.238643646240234375e+00 -1.286627531051635742e+00
3.702000000000000000e+03 6.106116104125976562e+01 2.726297378540039062e+01 8.596980571746826172e-01 1.288017177581787109e+01 4.121961116790771484e+00 -6.984996795654296875e-01
3.703000000000000000e+03 6.143594360351562500e+01 2.731671142578125000e+01 1.170554399490356445e+00 1.252550315856933594e+01 4.108817577362060547e+00 -9.939023852348327637e-01
3.704000000000000000e+03 6.401219940185546875e+01 2.897543334960937500e+01 2.779155015945434570e+00 1.037800788879394531e+01 3.947149038314819336e+00 -1.101776003837585449e+00
3.705000000000000000e+03 6.329836654663085938e+01 2.738878822326660156e+01 1.608420372009277344e+00 1.094067764282226562e+01 3.764729499816894531e+00 -1.363884329795837402e+00
3.706000000000000000e+03 5.431499862670898438e+01 2.313794708251953125e+01 5.214191079139709473e-01 4.794885158538818359e+00 1.594891309738159180e+00 2.579705953598022461e+00
3.707000000000000000e+03 5.326552581787109375e+01 2.145232963562011719e+01 4.467498064041137695e-01 4.205759525299072266e+00 1.395752787590026855e+00 2.059476375579833984e+00
3.708000000000000000e+03 5.353329086303710938e+01 2.283347320556640625e+01 6.238012909889221191e-01 4.132205486297607422e+00 1.426802039146423340e+00 2.356863498687744141e+00
3.709000000000000000e+03 5.363238525390625000e+01 2.199787902832031250e+01 4.648404717445373535e-01 4.382693290710449219e+00 1.454260230064392090e+00 2.221110343933105469e+00
3.710000000000000000e+03 5.538761520385742188e+01 2.395779609680175781e+01 3.927868008613586426e-01 5.851783275604248047e+00 1.873371005058288574e+00 2.928342819213867188e+00
3.711000000000000000e+03 5.452227020263671875e+01 2.454024124145507812e+01 7.696459293365478516e-01 4.685754299163818359e+00 1.636620044708251953e+00 2.940878868103027344e+00
3.712000000000000000e+03 5.744471359252929688e+01 2.459483528137207031e+01 -2.699868977069854736e-01 8.736885070800781250e+00 2.540069341659545898e+00 2.783403158187866211e+00
3.713000000000000000e+03 5.231775665283203125e+01 2.127478599548339844e+01 5.572355985641479492e-01 3.616018772125244141e+00 1.251976370811462402e+00 1.862804174423217773e+00
3.714000000000000000e+03 5.175006866455078125e+01 2.182451057434082031e+01 6.723457574844360352e-01 3.167645215988159180e+00 1.151997327804565430e+00 1.787931680679321289e+00
3.715000000000000000e+03 6.570350646972656250e+01 2.227892494201660156e+01 -3.070176541805267334e-01 9.183405876159667969e+00 2.662916421890258789e+00 -1.062753677368164062e+00
3.716000000000000000e+03 6.492710113525390625e+01 2.031489372253417969e+01 -6.671379804611206055e-01 8.951766014099121094e+00 2.485388517379760742e+00 -6.897308826446533203e-01
3.717000000000000000e+03 6.315277481079101562e+01 2.833882522583007812e+01 2.402935504913330078e+00 1.105438041687011719e+01 4.037194728851318359e+00 -1.334897160530090332e+00
3.718000000000000000e+03 6.542059326171875000e+01 1.922845649719238281e+01 -6.921673417091369629e-01 8.687755584716796875e+00 2.398676395416259766e+00 -7.004113197326660156e-01
3.719000000000000000e+03 4.639576339721679688e+01 1.985096740722656250e+01 5.967339277267456055e-01 1.522432208061218262e+00 6.357498764991760254e-01 5.927323698997497559e-01
3.720000000000000000e+03 4.502737808227539062e+01 1.915515136718750000e+01 5.650254487991333008e-01 1.338369250297546387e+00 5.710183978080749512e-01 4.164093434810638428e-01
3.721000000000000000e+03 4.745586395263671875e+01 2.044573402404785156e+01 6.408018469810485840e-01 1.706581115722656250e+00 7.042148709297180176e-01 7.836423516273498535e-01
3.722000000000000000e+03 4.882917404174804688e+01 1.960229682922363281e+01 6.128761768341064453e-01 2.285085678100585938e+00 8.693885803222656250e-01 1.042500257492065430e+00
3.723000000000000000e+03 3.948898315429687500e+01 1.952009773254394531e+01 3.191830813884735107e-01 5.352436900138854980e-01 2.563280165195465088e-01 -2.077273428440093994e-01
3.724000000000000000e+03 6.538321685791015625e+01 1.803463363647460938e+01 -7.452789545059204102e-01 8.473896026611328125e+00 2.318584918975830078e+00 -5.916777253150939941e-01
3.725000000000000000e+03 6.290316009521484375e+01 1.102624130249023438e+01 -6.480288505554199219e-01 7.179578304290771484e+00 1.959464788436889648e+00 -2.897935919463634491e-02
3.726000000000000000e+03 3.770705795288085938e+01 2.077879142761230469e+01 1.850149780511856079e-01 3.200883269309997559e-01 1.515309959650039673e-01 -3.648957610130310059e-01
3.727000000000000000e+03 4.730999755859375000e+01 1.955478286743164062e+01 6.172543168067932129e-01 1.821955919265747070e+00 7.317630648612976074e-01 7.825465202331542969e-01
3.728000000000000000e+03 6.355154037475585938e+01 9.580459594726562500e+00 -5.897893309593200684e-01 7.125098705291748047e+00 1.960592865943908691e+00 -8.885993808507919312e-02
3.729000000000000000e+03 3.808984375000000000e+01 2.157767677307128906e+01 1.488527506589889526e-01 3.101620972156524658e-01 1.377044618129730225e-01 -3.739825785160064697e-01
3.730000000000000000e+03 6.421544647216796875e+01 1.151346778869628906e+01 -6.618587970733642578e-01 7.426624298095703125e+00 2.029429674148559570e+00 -1.808117926120758057e-01
3.731000000000000000e+03 6.601743316650390625e+01 2.658290100097656250e+01 1.060240983963012695e+00 9.386888504028320312e+00 3.134138822555541992e+00 -1.360764741897583008e+00
3.732000000000000000e+03 6.539746856689453125e+01 2.604995155334472656e+01 8.397141098976135254e-01 9.664367675781250000e+00 3.151224613189697266e+00 -1.371368408203125000e+00
3.733000000000000000e+03 6.416051483154296875e+01 1.273412799835205078e+01 -7.075364589691162109e-01 7.569764614105224609e+00 2.058668375015258789e+00 -1.953327655792236328e-01
3.734000000000000000e+03 6.210419082641601562e+01 1.158106040954589844e+01 -6.716210842132568359e-01 7.118241310119628906e+00 1.933986067771911621e+00 8.074935525655746460e-02
3.735000000000000000e+03 3.838732910156250000e+01 1.922911453247070312e+01 2.890148460865020752e-01 4.714517891407012939e-01 2.281399816274642944e-01 -2.635813653469085693e-01
3.736000000000000000e+03 6.408966064453125000e+01 1.522783565521240234e+01 -7.936379313468933105e-01 7.944995403289794922e+00 2.145407199859619141e+00 -2.388685643672943115e-01
3.737000000000000000e+03 6.415059661865234375e+01 1.399514675140380859e+01 -7.525030970573425293e-01 7.748945236206054688e+00 2.098932504653930664e+00 -2.188607305288314819e-01
3.738000000000000000e+03 4.914231872558593750e+01 2.074632644653320312e+01 6.672217845916748047e-01 2.200378417968750000e+00 8.602800369262695312e-01 1.132240056991577148e+00
3.739000000000000000e+03 4.959344863891601562e+01 2.003928947448730469e+01 6.242356300354003906e-01 2.491823196411132812e+00 9.348176121711730957e-01 1.206978082656860352e+00
3.740000000000000000e+03 6.432423400878906250e+01 1.824725914001464844e+01 -7.957826256752014160e-01 8.533337593078613281e+00 2.321266412734985352e+00 -4.248366653919219971e-01
3.741000000000000000e+03 6.395056915283203125e+01 1.785984802246093750e+01 -8.312407732009887695e-01 8.405237197875976562e+00 2.272198915481567383e+00 -2.931524515151977539e-01
3.742000000000000000e+03 4.026664733886718750e+01 1.025448703765869141e+01 3.099521100521087646e-01 1.318590044975280762e+00 4.885626435279846191e-01 7.408881932497024536e-02
3.743000000000000000e+03 4.417206573486328125e+01 1.870332145690917969e+01 5.296965837478637695e-01 1.252405762672424316e+00 5.346307158470153809e-01 3.055784106254577637e-01
3.744000000000000000e+03 4.561701965332031250e+01 1.917479515075683594e+01 5.786647796630859375e-01 1.430075526237487793e+00 6.026220917701721191e-01 4.842312932014465332e-01
3.745000000000000000e+03 6.298331451416015625e+01 4.716981410980224609e+00 -4.068464636802673340e-01 6.670754909515380859e+00 1.879172563552856445e+00 -3.688920661807060242e-02
3.746000000000000000e+03 3.882630920410156250e+01 2.069650650024414062e+00 1.352767944335937500e-01 1.396873116493225098e+00 4.596449732780456543e-01 5.076177418231964111e-02
3.747000000000000000e+03 6.409552001953125000e+01 -2.567717075347900391e+00 -2.062417566776275635e-01 6.592942237854003906e+00 1.916010141372680664e+00 -5.503593757748603821e-02
3.748000000000000000e+03 6.324306106567382812e+01 -6.507039070129394531e+00 -1.356176137924194336e-01 6.362068176269531250e+00 1.867935180664062500e+00 -2.225477434694766998e-02
3.749000000000000000e+03 3.903549957275390625e+01 8.118528366088867188e+00 2.499900311231613159e-01 1.198506355285644531e+00 4.345489144325256348e-01 2.355121821165084839e-02
3.750000000000000000e+03 3.874232482910156250e+01 -5.600695133209228516e+00 5.016604810953140259e-02 1.516129255294799805e+00 4.698885977268218994e-01 4.042925313115119934e-02
3.751000000000000000e+03 6.347041320800781250e+01 5.808337211608886719e+00 -4.449570477008819580e-01 6.807322025299072266e+00 1.908709526062011719e+00 -6.683596223592758179e-02
3.752000000000000000e+03 6.272309112548828125e+01 -1.012048363685607910e+00 -2.380008399486541748e-01 6.376392841339111328e+00 1.841517567634582520e+00 -2.500541694462299347e-02
3.753000000000000000e+03 6.206029891967773438e+01 7.941842675209045410e-01 -2.804088890552520752e-01 6.332869052886962891e+00 1.815737962722778320e+00 -6.275996565818786621e-03
3.754000000000000000e+03 6.125138092041015625e+01 -2.366617679595947266e+00 -2.083721607923507690e-01 6.104772090911865234e+00 1.768919944763183594e+00 1.221167948096990585e-02
3.755000000000000000e+03 6.235185623168945312e+01 3.648612260818481445e+00 -3.683063685894012451e-01 6.505225181579589844e+00 1.841075539588928223e+00 -9.640677832067012787e-03
3.756000000000000000e+03 3.763299942016601562e+01 -1.971950912475585938e+01 1.598005555570125580e-02 1.405763030052185059e+00 4.265229105949401855e-01 1.766636595129966736e-02
3.757000000000000000e+03 4.064016342163085938e+01 -1.535595035552978516e+01 7.663614582270383835e-03 1.963444828987121582e+00 5.913325548171997070e-01 3.347132727503776550e-02
3.758000000000000000e+03 6.146080780029296875e+01 -1.202752780914306641e+01 -8.257130533456802368e-02 5.962534904479980469e+00 1.763989090919494629e+00 1.836500247009098530e-03
3.759000000000000000e+03 3.845858001708984375e+01 4.389495849609375000e+00 1.775256246328353882e-01 1.254994869232177734e+00 4.297561645507812500e-01 3.204191103577613831e-02
3.760000000000000000e+03 6.094533920288085938e+01 -8.075384140014648438e+00 -1.141962110996246338e-01 5.920880794525146484e+00 1.742005348205566406e+00 1.085434015840291977e-02
3.761000000000000000e+03 5.992775726318359375e+01 -8.922753334045410156e+00 -1.067403182387351990e-01 5.717979431152343750e+00 1.683371663093566895e+00 2.923281677067279816e-02
3.762000000000000000e+03 6.040234375000000000e+01 -1.125539779663085938e+01 -8.059217035770416260e-02 5.769223690032958984e+00 1.706589460372924805e+00 1.570576801896095276e-02
3.763000000000000000e+03 3.641154861450195312e+01 -1.028167819976806641e+01 2.642524801194667816e-02 1.136636972427368164e+00 3.489186763763427734e-01 1.246081665158271790e-02
3.764000000000000000e+03 3.730934143066406250e+01 -8.950122833251953125e+00 2.817052230238914490e-02 1.288990378379821777e+00 3.951482772827148438e-01 2.117380872368812561e-02
3.765000000000000000e+03 3.182314872741699219e+01 -8.494357109069824219e+00 2.281684987246990204e-02 2.534159719944000244e-01 8.286984264850616455e-02 -2.685437165200710297e-02
3.766000000000000000e+03 5.827627563476562500e+01 2.535789489746093750e+01 -4.642792642116546631e-01 1.034317493438720703e+01 2.963668823242187500e+00 2.493741512298583984e+00
3.767000000000000000e+03 5.398384857177734375e+01 2.256450653076171875e+01 4.908869564533233643e-01 4.586459636688232422e+00 1.523203969001770020e+00 2.396251678466796875e+00
3.768000000000000000e+03 6.203871536254882812e+01 2.748368644714355469e+01 1.504946589469909668e+00 1.208641719818115234e+01 4.077409267425537109e+00 -1.229560852050781250e+00
3.769000000000000000e+03 6.011217117309570312e+01 2.628462982177734375e+01 -2.141434848308563232e-01 1.243540000915527344e+01 3.666376829147338867e+00 5.287151336669921875e-01
3.770000000000000000e+03 5.962516784667968750e+01 2.634429931640625000e+01 -3.510860204696655273e-01 1.247003459930419922e+01 3.635684490203857422e+00 1.089701175689697266e+00
3.771000000000000000e+03 5.909388732910156250e+01 2.600070953369140625e+01 -4.792892038822174072e-01 1.174403190612792969e+01 3.379422903060913086e+00 1.744349241256713867e+00
3.772000000000000000e+03 6.424481964111328125e+01 2.821992683410644531e+01 2.147885799407958984e+00 1.028416919708251953e+01 3.729616641998291016e+00 -1.274198889732360840e+00
3.773000000000000000e+03 6.411946868896484375e+01 2.518043327331542969e+01 3.441351950168609619e-01 1.019941139221191406e+01 3.163063764572143555e+00 -1.182183146476745605e+00
3.774000000000000000e+03 6.040808486938476562e+01 2.690660095214843750e+01 1.970472633838653564e-01 1.297851753234863281e+01 3.952669620513916016e+00 1.117030717432498932e-02
3.775000000000000000e+03 5.849322509765625000e+01 2.576193618774414062e+01 -4.650676548480987549e-01 1.086981964111328125e+01 3.121425628662109375e+00 2.408674240112304688e+00
3.776000000000000000e+03 5.956351089477539062e+01 2.587377929687500000e+01 -4.861578941345214844e-01 1.189365291595458984e+01 3.422248363494873047e+00 1.245687484741210938e+00
3.777000000000000000e+03 5.463410568237304688e+01 2.370012855529785156e+01 5.466082692146301270e-01 5.023398876190185547e+00 1.671002149581909180e+00 2.765741586685180664e+00
3.778000000000000000e+03 6.493679046630859375e+01 2.675257873535156250e+01 1.200273156166076660e+00 9.925913810729980469e+00 3.337856054306030273e+00 -1.367322325706481934e+00
3.779000000000000000e+03 6.270250320434570312e+01 2.764482688903808594e+01 1.818191528320312500e+00 1.147958755493164062e+01 3.989333629608154297e+00 -1.358509659767150879e+00
3.780000000000000000e+03 6.180939483642578125e+01 2.720274543762207031e+01 1.153730511665344238e+00 1.214276504516601562e+01 3.988948583602905273e+00 -1.064111828804016113e+00
3.781000000000000000e+03 6.172023391723632812e+01 2.687260055541992188e+01 7.587790489196777344e-01 1.206103515625000000e+01 3.845944404602050781e+00 -8.904334902763366699e-01
3.782000000000000000e+03 5.376856994628906250e+01 2.112680053710937500e+01 3.195781707763671875e-01 4.623571395874023438e+00 1.482944965362548828e+00 2.082272052764892578e+00
3.783000000000000000e+03 5.626921844482421875e+01 2.368333244323730469e+01 1.784382574260234833e-02 6.984791755676269531e+00 2.100790739059448242e+00 2.787297248840332031e+00
3.784000000000000000e+03 5.601373291015625000e+01 2.503023147583007812e+01 3.846122324466705322e-01 6.798949718475341797e+00 2.155068635940551758e+00 3.348490238189697266e+00
3.785000000000000000e+03 6.525480651855468750e+01 2.343109703063964844e+01 -1.018876433372497559e-01 9.462914466857910156e+00 2.808307886123657227e+00 -1.121033549308776855e+00
3.786000000000000000e+03 4.699100112915039062e+01 1.869025039672851562e+01 5.873671174049377441e-01 1.897335290908813477e+00 7.454107403755187988e-01 7.286787629127502441e-01
3.787000000000000000e+03 6.281301116943359375e+01 2.677991104125976562e+01 9.865919947624206543e-01 1.124832057952880859e+01 3.670473814010620117e+00 -1.203004240989685059e+00
3.788000000000000000e+03 6.554544830322265625e+01 2.720711135864257812e+01 1.409164905548095703e+00 9.612395286560058594e+00 3.306468009948730469e+00 -1.343765974044799805e+00
3.789000000000000000e+03 6.276004028320312500e+01 2.565800666809082031e+01 3.148519992828369141e-01 1.101683902740478516e+01 3.399507284164428711e+00 -9.458647370338439941e-01
3.790000000000000000e+03 6.479973602294921875e+01 2.221889495849609375e+01 -4.205953478813171387e-01 9.367106437683105469e+00 2.683953285217285156e+00 -8.967179656028747559e-01
3.791000000000000000e+03 6.460823822021484375e+01 1.966606521606445312e+01 -7.426500916481018066e-01 8.832092285156250000e+00 2.426832675933837891e+00 -5.638558268547058105e-01
3.792000000000000000e+03 6.530303192138671875e+01 2.440163803100585938e+01 1.967922151088714600e-01 9.579280853271484375e+00 2.932821989059448242e+00 -1.235205650329589844e+00
3.793000000000000000e+03 3.806815719604492188e+01 1.668217658996582031e+01 3.297702670097351074e-01 5.685221552848815918e-01 2.694877088069915771e-01 -2.013816535472869873e-01
3.794000000000000000e+03 3.738235855102539062e+01 1.933504104614257812e+01 2.381385713815689087e-01 3.617680370807647705e-01 1.799719929695129395e-01 -3.301883339881896973e-01
3.795000000000000000e+03 3.768988800048828125e+01 1.849415588378906250e+01 2.858853340148925781e-01 4.401063323020935059e-01 2.177975028753280640e-01 -2.802461385726928711e-01
3.796000000000000000e+03 4.009885787963867188e+01 1.519112682342529297e+01 3.924638628959655762e-01 9.524712562561035156e-01 4.034805595874786377e-01 -1.369218155741691589e-02
3.797000000000000000e+03 4.376048278808593750e+01 1.775760269165039062e+01 5.115856528282165527e-01 1.298036694526672363e+00 5.428867340087890625e-01 2.821663022041320801e-01
3.798000000000000000e+03 4.118693161010742188e+01 1.915302276611328125e+01 3.991904556751251221e-01 7.474931478500366211e-01 3.440050780773162842e-01 -5.695513263344764709e-02
3.799000000000000000e+03 5.069895935058593750e+01 2.038603591918945312e+01 6.110906600952148438e-01 2.863988637924194336e+00 1.042523860931396484e+00 1.448194503784179688e+00
3.800000000000000000e+03 4.123233413696289062e+01 1.546539402008056641e+01 4.228172302246093750e-01 1.104515075683593750e+00 4.581996798515319824e-01 7.252402603626251221e-02
3.801000000000000000e+03 4.176600646972656250e+01 1.847633934020996094e+01 4.328242540359497070e-01 8.897889256477355957e-01 3.967839479446411133e-01 2.270580641925334930e-02
3.802000000000000000e+03 4.005236816406250000e+01 1.902090644836425781e+01 3.545840680599212646e-01 6.293112039566040039e-01 2.951685786247253418e-01 -1.511538773775100708e-01
3.803000000000000000e+03 4.299831008911132812e+01 1.848696708679199219e+01 4.805915355682373047e-01 1.066412925720214844e+00 4.641013443470001221e-01 1.546893268823623657e-01
3.804000000000000000e+03 6.221321487426757812e+01 1.028301048278808594e+01 -6.225833296775817871e-01 6.999145030975341797e+00 1.912968516349792480e+00 4.232265427708625793e-02
3.805000000000000000e+03 4.885764312744140625e+01 1.829877853393554688e+01 5.388040542602539062e-01 2.549546718597412109e+00 9.265052676200866699e-01 1.027137756347656250e+00
3.806000000000000000e+03 6.385281753540039062e+01 2.690484046936035156e+01 1.301062941551208496e+00 1.056749820709228516e+01 3.560568332672119141e+00 -1.353781223297119141e+00
3.807000000000000000e+03 5.342679214477539062e+01 2.056388092041015625e+01 3.160629272460937500e-01 4.469642639160156250e+00 1.435711622238159180e+00 1.940745830535888672e+00
3.808000000000000000e+03 5.291341400146484375e+01 2.091983413696289062e+01 4.389548599720001221e-01 4.059644699096679688e+00 1.349579930305480957e+00 1.921686649322509766e+00
3.809000000000000000e+03 6.485276794433593750e+01 1.866057014465332031e+01 -7.594632506370544434e-01 8.605237960815429688e+00 2.353732585906982422e+00 -5.428757667541503906e-01
3.810000000000000000e+03 6.291685485839843750e+01 1.775776672363281250e+01 -8.752025961875915527e-01 8.346455574035644531e+00 2.241375684738159180e+00 -5.675636231899261475e-02
3.811000000000000000e+03 3.919645309448242188e+01 3.375785112380981445e+00 1.605227291584014893e-01 1.407354354858398438e+00 4.703631401062011719e-01 5.923023447394371033e-02
3.812000000000000000e+03 6.262329483032226562e+01 8.321247100830078125e+00 -5.363826155662536621e-01 6.877219200134277344e+00 1.902251005172729492e+00 -9.050946682691574097e-03
3.813000000000000000e+03 6.365387725830078125e+01 8.559044837951660156e+00 -5.446660518646240234e-01 7.048469543457031250e+00 1.951140999794006348e+00 -9.665369242429733276e-02
3.814000000000000000e+03 3.834477615356445312e+01 2.043243217468261719e+01 2.288779020309448242e-01 3.933148086071014404e-01 1.866578161716461182e-01 -3.157375752925872803e-01
3.815000000000000000e+03 3.700204849243164062e+01 2.103595542907714844e+01 1.486143469810485840e-01 2.578345537185668945e-01 1.219346672296524048e-01 -4.024893045425415039e-01
3.816000000000000000e+03 4.492673110961914062e+01 1.837403488159179688e+01 5.515575408935546875e-01 1.444756746292114258e+00 5.988942980766296387e-01 4.179549515247344971e-01
3.817000000000000000e+03 3.903316497802734375e+01 7.027639389038085938e+00 2.327303141355514526e-01 1.238346338272094727e+00 4.413229823112487793e-01 3.635438159108161926e-02
3.818000000000000000e+03 3.805562210083007812e+01 5.688636779785156250e+00 2.004832625389099121e-01 1.128556728363037109e+00 3.987120091915130615e-01 4.389859735965728760e-03
3.819000000000000000e+03 6.338302993774414062e+01 1.825638389587402344e+01 -8.581224679946899414e-01 8.510714530944824219e+00 2.295777559280395508e+00 -1.955269724130630493e-01
3.820000000000000000e+03 6.339002990722656250e+01 1.454778861999511719e+01 -7.830625176429748535e-01 7.751157283782958984e+00 2.090428352355957031e+00 -1.079347580671310425e-01
3.821000000000000000e+03 6.231174468994140625e+01 -4.790772438049316406e+00 -1.718579977750778198e-01 6.216681003570556641e+00 1.813446998596191406e+00 -6.898529827594757080e-03
3.822000000000000000e+03 4.154197692871093750e+01 9.209225654602050781e+00 2.887239754199981689e-01 1.613338708877563477e+00 5.706188082695007324e-01 1.532618552446365356e-01
3.823000000000000000e+03 3.993387222290039062e+01 1.391967964172363281e+01 3.764055669307708740e-01 1.016410350799560547e+00 4.178447723388671875e-01 7.122916635125875473e-03
3.824000000000000000e+03 5.859638977050781250e+01 2.992812156677246094e+00 -2.957383990287780762e-01 5.718169212341308594e+00 1.626729249954223633e+00 1.658779680728912354e-01
3.825000000000000000e+03 6.134151077270507812e+01 -3.924887776374816895e-01 -2.529688179492950439e-01 6.151192665100097656e+00 1.769467234611511230e+00 1.912510581314563751e-02
3.826000000000000000e+03 6.256246948242187500e+01 -2.304727077484130859e+00 -2.112306058406829834e-01 6.313100814819335938e+00 1.830561041831970215e+00 -1.859290339052677155e-02
3.827000000000000000e+03 6.147900390625000000e+01 -7.098512649536132812e+00 -1.325743347406387329e-01 6.028070449829101562e+00 1.768648862838745117e+00 3.441262291744351387e-03
3.828000000000000000e+03 4.028762054443359375e+01 9.175163269042968750e+00 2.857757806777954102e-01 1.376743674278259277e+00 4.987558424472808838e-01 8.367794752120971680e-02
3.829000000000000000e+03 6.336267471313476562e+01 1.574898242950439453e+01 -8.270388245582580566e-01 7.964312553405761719e+00 2.141182184219360352e+00 -1.172081157565116882e-01
3.830000000000000000e+03 6.228251266479492188e+01 6.204887390136718750e+00 -4.557226598262786865e-01 6.640963077545166016e+00 1.855572104454040527e+00 1.259317807853221893e-02
3.831000000000000000e+03 4.029304885864257812e+01 -2.128911167383193970e-01 1.017068102955818176e-01 1.726462125778198242e+00 5.484506487846374512e-01 7.992750406265258789e-02
3.832000000000000000e+03 6.513217926025390625e+01 -1.742258834838867188e+01 -4.044002667069435120e-02 6.629261493682861328e+00 1.976646542549133301e+00 -7.873072288930416107e-03
3.833000000000000000e+03 3.801877975463867188e+01 -7.354479789733886719e+00 3.742978349328041077e-02 1.405425548553466797e+00 4.328566193580627441e-01 2.833180688321590424e-02
3.834000000000000000e+03 3.751742172241210938e+01 -4.954605579376220703e+00 5.446004122495651245e-02 1.285493373870849609e+00 4.019860029220581055e-01 2.606844529509544373e-02
3.835000000000000000e+03 3.976874160766601562e+01 -1.916299223899841309e+00 7.873746752738952637e-02 1.654315114021301270e+00 5.199157595634460449e-01 5.960783734917640686e-02
3.836000000000000000e+03 3.745970535278320312e+01 -2.438760280609130859e+00 7.646730542182922363e-02 1.239713311195373535e+00 3.948541879653930664e-01 1.231443602591753006e-02
3.837000000000000000e+03 5.922425460815429688e+01 -7.631869792938232422e+00 -1.214564666152000427e-01 5.574349880218505859e+00 1.635867953300476074e+00 4.577177762985229492e-02
3.838000000000000000e+03 6.105768203735351562e+01 -1.406240558624267578e+01 -6.818427145481109619e-02 5.870460510253906250e+00 1.740682959556579590e+00 1.233637332916259766e-02
3.839000000000000000e+03 6.342821502685546875e+01 -1.763575172424316406e+01 -4.141797125339508057e-02 6.294536590576171875e+00 1.875935554504394531e+00 -1.945546944625675678e-03
3.840000000000000000e+03 6.123170089721679688e+01 6.557679176330566406e+00 -4.505206644535064697e-01 6.463533878326416016e+00 1.803903937339782715e+00 8.434677869081497192e-02
3.841000000000000000e+03 3.524863815307617188e+01 -1.131968021392822266e+01 2.104483544826507568e-02 9.154621362686157227e-01 2.809520959854125977e-01 7.715844549238681793e-03
3.842000000000000000e+03 6.047489547729492188e+01 -1.258890247344970703e+01 -8.750222623348236084e-02 5.748470783233642578e+00 1.698290586471557617e+00 1.818094216287136078e-02
3.843000000000000000e+03 6.135260009765625000e+01 9.166308403015136719e+00 -5.569993853569030762e-01 6.707493305206298828e+00 1.845148205757141113e+00 1.143082082271575928e-01
3.844000000000000000e+03 3.645158386230468750e+01 -2.271093750000000000e+01 -1.873876433819532394e-03 1.196340203285217285e+00 3.583399057388305664e-01 2.450044825673103333e-02
3.845000000000000000e+03 3.459137725830078125e+01 -2.382130813598632812e+01 -4.040566273033618927e-03 8.741992115974426270e-01 2.610475718975067139e-01 4.651373252272605896e-03
3.846000000000000000e+03 5.847567749023437500e+01 2.469129753112792969e+01 -5.669568181037902832e-01 9.978550910949707031e+00 2.823478221893310547e+00 2.194867134094238281e+00
3.847000000000000000e+03 5.645923233032226562e+01 2.437537384033203125e+01 1.026751846075057983e-01 7.231336116790771484e+00 2.200203418731689453e+00 3.036499738693237305e+00
3.848000000000000000e+03 5.609123229980468750e+01 2.273011589050292969e+01 -4.433044418692588806e-02 6.650884151458740234e+00 1.981966137886047363e+00 2.535277128219604492e+00
3.849000000000000000e+03 5.806743621826171875e+01 2.489679336547851562e+01 -4.607188403606414795e-01 9.759649276733398438e+00 2.789679050445556641e+00 2.511862516403198242e+00
3.850000000000000000e+03 5.571590423583984375e+01 2.448672103881835938e+01 3.723402023315429688e-01 6.350200653076171875e+00 2.016762256622314453e+00 3.165855407714843750e+00
3.851000000000000000e+03 5.559530258178710938e+01 2.312127113342285156e+01 1.656854748725891113e-01 6.161665439605712891e+00 1.898205280303955078e+00 2.691318035125732422e+00
3.852000000000000000e+03 5.697130584716796875e+01 2.481154632568359375e+01 -3.978017717599868774e-02 8.117456436157226562e+00 2.423302888870239258e+00 3.091964006423950195e+00
3.853000000000000000e+03 5.648398971557617188e+01 2.492646789550781250e+01 2.017055153846740723e-01 7.350175380706787109e+00 2.265564203262329102e+00 3.245275735855102539e+00
3.854000000000000000e+03 6.120556259155273438e+01 2.658295631408691406e+01 3.374185860157012939e-01 1.225819969177246094e+01 3.778685569763183594e+00 -4.904516041278839111e-01
3.855000000000000000e+03 6.006211471557617188e+01 2.578162574768066406e+01 -4.231530725955963135e-01 1.189333057403564453e+01 3.441053152084350586e+00 7.128090262413024902e-01
3.856000000000000000e+03 5.873194122314453125e+01 2.508962059020996094e+01 -5.710555911064147949e-01 1.049747562408447266e+01 2.977925777435302734e+00 2.033301115036010742e+00
3.857000000000000000e+03 5.895878601074218750e+01 2.553028106689453125e+01 -5.589714646339416504e-01 1.112883090972900391e+01 3.170957803726196289e+00 1.871991395950317383e+00
3.858000000000000000e+03 6.132981872558593750e+01 2.697739601135253906e+01 6.513622999191284180e-01 1.244615268707275391e+01 3.929254531860351562e+00 -7.305625677108764648e-01
3.859000000000000000e+03 6.471154785156250000e+01 2.561974716186523438e+01 5.983912944793701172e-01 9.977737426757812500e+00 3.172838449478149414e+00 -1.294187784194946289e+00
3.860000000000000000e+03 6.170805358886718750e+01 2.647600364685058594e+01 4.405536055564880371e-01 1.190282630920410156e+01 3.703014135360717773e+00 -7.324104309082031250e-01
3.861000000000000000e+03 5.947451019287109375e+01 2.537462615966796875e+01 -5.890942811965942383e-01 1.130215167999267578e+01 3.213917255401611328e+00 1.360809326171875000e+00
3.862000000000000000e+03 6.446121978759765625e+01 2.458412551879882812e+01 1.525840163230895996e-01 9.959628105163574219e+00 3.033663749694824219e+00 -1.139788269996643066e+00
3.863000000000000000e+03 6.062609863281250000e+01 2.621334075927734375e+01 -8.383725583553314209e-02 1.226960849761962891e+01 3.655731439590454102e+00 5.866977199912071228e-02
3.864000000000000000e+03 6.056509017944335938e+01 2.569272422790527344e+01 -3.205217421054840088e-01 1.181854057312011719e+01 3.449405908584594727e+00 2.885204851627349854e-01
3.865000000000000000e+03 6.221767807006835938e+01 2.589980125427246094e+01 3.083568215370178223e-01 1.132949542999267578e+01 3.491355657577514648e+00 -8.277589082717895508e-01
3.866000000000000000e+03 6.242842483520507812e+01 2.720060729980468750e+01 1.278875589370727539e+00 1.163643836975097656e+01 3.874594211578369141e+00 -1.228947162628173828e+00
3.867000000000000000e+03 5.426710128784179688e+01 2.081084442138671875e+01 1.912075579166412354e-01 5.013354301452636719e+00 1.561368465423583984e+00 2.067664861679077148e+00
3.868000000000000000e+03 6.480467987060546875e+01 2.399121284484863281e+01 4.948560614138841629e-03 9.732804298400878906e+00 2.921325922012329102e+00 -1.116627335548400879e+00
3.869000000000000000e+03 6.043364334106445312e+01 2.464272308349609375e+01 -6.297954916954040527e-01 1.097500610351562500e+01 3.103563070297241211e+00 6.074649691581726074e-01
3.870000000000000000e+03 3.877497863769531250e+01 2.120577812194824219e+01 1.992805749177932739e-01 3.747223615646362305e-01 1.722008883953094482e-01 -3.221531510353088379e-01
3.871000000000000000e+03 5.502338409423828125e+01 1.956594276428222656e+01 -6.875309348106384277e-02 5.546643257141113281e+00 1.643367052078247070e+00 1.827722668647766113e+00
3.872000000000000000e+03 6.351415252685546875e+01 1.944388008117675781e+01 -8.212994337081909180e-01 8.780117034912109375e+00 2.387645244598388672e+00 -3.035852611064910889e-01
3.873000000000000000e+03 6.486455535888671875e+01 2.147006034851074219e+01 -5.342076420783996582e-01 9.186086654663085938e+00 2.595563650131225586e+00 -8.114312887191772461e-01
3.874000000000000000e+03 6.136397552490234375e+01 1.003469181060791016e+01 -5.871587395668029785e-01 6.774888515472412109e+00 1.856318950653076172e+00 1.367008984088897705e-01
3.875000000000000000e+03 6.079814910888671875e+01 1.107016658782958984e+01 -6.154304742813110352e-01 6.792804241180419922e+00 1.853212118148803711e+00 2.247337549924850464e-01
3.876000000000000000e+03 5.147502899169921875e+01 1.995475196838378906e+01 5.047671794891357422e-01 3.404521942138671875e+00 1.172786712646484375e+00 1.576460003852844238e+00
3.877000000000000000e+03 3.951425170898437500e+01 1.831683921813964844e+01 3.458227813243865967e-01 6.201502084732055664e-01 2.897918820381164551e-01 -1.623545289039611816e-01
3.878000000000000000e+03 6.451805877685546875e+01 2.746052932739257812e+01 1.639014959335327148e+00 1.015597534179687500e+01 3.538496971130371094e+00 -1.353873729705810547e+00
3.879000000000000000e+03 5.699556350708007812e+01 2.264262962341308594e+01 -3.088731467723846436e-01 7.459350109100341797e+00 2.145143032073974609e+00 2.298706054687500000e+00
3.880000000000000000e+03 5.477956771850585938e+01 2.285446548461914062e+01 3.579695522785186768e-01 5.306326866149902344e+00 1.699288845062255859e+00 2.575133323669433594e+00
3.881000000000000000e+03 4.167153549194335938e+01 1.702002143859863281e+01 4.441865384578704834e-01 1.028196334838867188e+00 4.417148530483245850e-01 6.733348220586776733e-02
3.882000000000000000e+03 6.263000869750976562e+01 1.381855010986328125e+01 -7.612974047660827637e-01 7.525730133056640625e+00 2.029329776763916016e+00 1.881126314401626587e-02
3.883000000000000000e+03 6.341316604614257812e+01 1.325791645050048828e+01 -7.381999492645263672e-01 7.548051357269287109e+00 2.042955398559570312e+00 -9.751436114311218262e-02
3.884000000000000000e+03 4.818003082275390625e+01 1.903973007202148438e+01 5.968043804168701172e-01 2.163394451141357422e+00 8.280596733093261719e-01 9.227266311645507812e-01
3.885000000000000000e+03 4.623926544189453125e+01 1.901923561096191406e+01 5.811592340469360352e-01 1.664068102836608887e+00 6.735681891441345215e-01 5.913450121879577637e-01
3.886000000000000000e+03 4.043602371215820312e+01 1.715392875671386719e+01 4.085061848163604736e-01 8.289489746093750000e-01 3.712365329265594482e-01 -4.616836085915565491e-02
3.887000000000000000e+03 5.204421234130859375e+01 2.062760353088378906e+01 5.115677714347839355e-01 3.599356651306152344e+00 1.233277320861816406e+00 1.742258787155151367e+00
3.888000000000000000e+03 5.304552078247070312e+01 2.002535820007324219e+01 3.186447620391845703e-01 4.268959522247314453e+00 1.376281261444091797e+00 1.807374119758605957e+00
3.889000000000000000e+03 5.015778350830078125e+01 1.929538154602050781e+01 5.496407151222229004e-01 2.854779720306396484e+00 1.021326184272766113e+00 1.286651730537414551e+00
3.890000000000000000e+03 5.086360931396484375e+01 1.969186973571777344e+01 5.428709983825683594e-01 3.103676557540893555e+00 1.093964219093322754e+00 1.452144980430603027e+00
3.891000000000000000e+03 6.266363143920898438e+01 1.513415241241455078e+01 -8.078654408454895020e-01 7.754023075103759766e+00 2.083847284317016602e+00 1.278967037796974182e-02
3.892000000000000000e+03 6.248717498779296875e+01 9.398783683776855469e+00 -5.863752365112304688e-01 6.964777946472167969e+00 1.913520812988281250e+00 1.332867704331874847e-02
3.893000000000000000e+03 6.272845077514648438e+01 1.632931327819824219e+01 -8.510508537292480469e-01 8.004505157470703125e+00 2.146036386489868164e+00 1.133121643215417862e-02
3.894000000000000000e+03 3.921850204467773438e+01 1.752981185913085938e+01 3.650050759315490723e-01 6.647210717201232910e-01 3.089178502559661865e-01 -1.485460251569747925e-01
3.895000000000000000e+03 4.470508956909179688e+01 1.734665298461914062e+01 5.199053883552551270e-01 1.533718943595886230e+00 6.160873174667358398e-01 4.046743512153625488e-01
3.896000000000000000e+03 6.461866760253906250e+01 1.772342872619628906e+01 -7.938734889030456543e-01 8.416500091552734375e+00 2.286787986755371094e+00 -4.472234249114990234e-01
3.897000000000000000e+03 6.390933990478515625e+01 1.997541809082031250e+01 -7.757898569107055664e-01 8.915058135986328125e+00 2.441780567169189453e+00 -4.350358545780181885e-01
3.898000000000000000e+03 6.260119247436523438e+01 7.237061023712158203e+00 -4.978548288345336914e-01 6.782659053802490234e+00 1.885441303253173828e+00 -9.789632633328437805e-03
3.899000000000000000e+03 4.060448074340820312e+01 1.238304233551025391e+01 3.533453345298767090e-01 1.221486806869506836e+00 4.724496603012084961e-01 7.303240895271301270e-02
3.900000000000000000e+03 4.104390335083007812e+01 1.350592422485351562e+01 3.890074491500854492e-01 1.224884271621704102e+00 4.841675162315368652e-01 9.075186401605606079e-02
3.901000000000000000e+03 5.643676757812500000e+01 -8.558308601379394531e+00 -9.390114247798919678e-02 5.061190605163574219e+00 1.490186810493469238e+00 6.802447885274887085e-02
3.902000000000000000e+03 6.361282730102539062e+01 -1.962091064453125000e+01 -3.043679520487785339e-02 6.325528621673583984e+00 1.888527512550354004e+00 -6.297386134974658489e-04
3.903000000000000000e+03 5.941553115844726562e+01 3.963896989822387695e+00 -3.425689041614532471e-01 5.957878112792968750e+00 1.684592843055725098e+00 1.474322974681854248e-01
3.904000000000000000e+03 5.973295974731445312e+01 2.228173494338989258e+00 -3.005819320678710938e-01 5.935231685638427734e+00 1.690394878387451172e+00 9.698843210935592651e-02
3.905000000000000000e+03 6.411182403564453125e+01 2.054433059692382812e+01 -7.135952115058898926e-01 9.074625015258789062e+00 2.508308887481689453e+00 -5.446326136589050293e-01
3.906000000000000000e+03 4.139056015014648438e+01 1.024092769622802734e+01 3.177313804626464844e-01 1.530537366867065430e+00 5.544806122779846191e-01 1.489381939172744751e-01
3.907000000000000000e+03 6.180420303344726562e+01 5.222671985626220703e+00 -4.175489842891693115e-01 6.489054679870605469e+00 1.821451783180236816e+00 2.996096573770046234e-02
3.908000000000000000e+03 6.011238479614257812e+01 4.881367683410644531e+00 -3.841719031333923340e-01 6.142034530639648438e+00 1.727358818054199219e+00 1.302840560674667358e-01
3.909000000000000000e+03 4.034246063232421875e+01 7.985922813415527344e+00 2.601230740547180176e-01 1.466286778450012207e+00 5.179229378700256348e-01 9.717611223459243774e-02
3.910000000000000000e+03 6.088674926757812500e+01 1.494395256042480469e+00 -2.949576079845428467e-01 6.133373737335205078e+00 1.751524806022644043e+00 4.363818094134330750e-02
3.911000000000000000e+03 4.112784194946289062e+01 1.778823280334472656e+01 4.234490394592285156e-01 8.609111905097961426e-01 3.853080570697784424e-01 -1.012991555035114288e-02
3.912000000000000000e+03 4.947609329223632812e+01 1.880153846740722656e+01 5.430753827095031738e-01 2.684206724166870117e+00 9.681846499443054199e-01 1.134772062301635742e+00
3.913000000000000000e+03 4.609323883056640625e+01 1.773907089233398438e+01 5.423699617385864258e-01 1.788281202316284180e+00 6.991953253746032715e-01 5.766956806182861328e-01
3.914000000000000000e+03 6.119498062133789062e+01 -4.333732128143310547e+00 -1.802090257406234741e-01 6.023995876312255859e+00 1.753136038780212402e+00 1.624198071658611298e-02
3.915000000000000000e+03 6.256031799316406250e+01 -3.598756074905395508e+00 -1.890300959348678589e-01 6.290431499481201172e+00 1.830420494079589844e+00 -2.143738418817520142e-02
3.916000000000000000e+03 4.091657257080078125e+01 1.084135651588439941e+00 1.218112334609031677e-01 1.815040469169616699e+00 5.810555219650268555e-01 1.026945635676383972e-01
3.917000000000000000e+03 3.598974227905273438e+01 -1.239140415191650391e+01 1.776882261037826538e-02 1.066061496734619141e+00 3.251490890979766846e-01 8.097014389932155609e-03
3.918000000000000000e+03 6.151044082641601562e+01 -1.586719512939453125e+01 -5.564432963728904724e-02 5.947610378265380859e+00 1.767589807510375977e+00 7.676856592297554016e-03
3.919000000000000000e+03 6.185745239257812500e+01 -1.990321922302246094e+01 -3.137565776705741882e-02 5.998339653015136719e+00 1.790089130401611328e+00 4.665913060307502747e-03
3.920000000000000000e+03 4.007393264770507812e+01 3.979651927947998047e+00 1.706561446189880371e-01 1.567635893821716309e+00 5.214875936508178711e-01 8.110404014587402344e-02
3.921000000000000000e+03 4.183956146240234375e+01 1.444398212432861328e+01 4.201381504535675049e-01 1.288935422897338867e+00 5.127220749855041504e-01 1.393780708312988281e-01
3.922000000000000000e+03 4.257820892333984375e+01 -4.865893840789794922e+00 3.745902329683303833e-02 2.282358884811401367e+00 6.959453821182250977e-01 1.007480397820472717e-01
3.923000000000000000e+03 6.119533538818359375e+01 1.203788089752197266e+01 -6.730389595031738281e-01 7.004609107971191406e+00 1.899471044540405273e+00 2.087607681751251221e-01
3.924000000000000000e+03 4.187753677368164062e+01 -7.880151271820068359e-01 8.487628400325775146e-02 2.064943075180053711e+00 6.449458003044128418e-01 1.092374101281166077e-01
3.925000000000000000e+03 5.853113937377929688e+01 -9.595956802368164062e+00 -9.311613440513610840e-02 5.445181846618652344e+00 1.605619788169860840e+00 4.326681792736053467e-02
3.926000000000000000e+03 6.185258483886718750e+01 -5.943139076232910156e+00 -1.422629207372665405e-01 6.114295482635498047e+00 1.791609883308410645e+00 -3.388641402125358582e-03
3.927000000000000000e+03 5.930376815795898438e+01 -7.450587749481201172e-01 -2.291612625122070312e-01 5.752873897552490234e+00 1.657113790512084961e+00 7.763914763927459717e-02
3.928000000000000000e+03 6.046783065795898438e+01 -3.633140325546264648e+00 -1.913481950759887695e-01 5.878554821014404297e+00 1.706161975860595703e+00 3.638252615928649902e-02
3.929000000000000000e+03 6.113277053833007812e+01 2.610303497314453125e+01 4.062137380242347717e-02 1.200890922546386719e+01 3.614859104156494141e+00 -2.973982989788055420e-01
3.930000000000000000e+03 5.877510452270507812e+01 2.439364051818847656e+01 -6.405154466629028320e-01 9.981025695800781250e+00 2.802153110504150391e+00 1.909538030624389648e+00
3.931000000000000000e+03 5.698939132690429688e+01 2.357430839538574219e+01 -2.150225937366485596e-01 7.752757072448730469e+00 2.261320352554321289e+00 2.624079227447509766e+00
3.932000000000000000e+03 5.685621643066406250e+01 2.431622886657714844e+01 -8.263156563043594360e-02 7.808449268341064453e+00 2.317745208740234375e+00 2.926786661148071289e+00
3.933000000000000000e+03 5.791840362548828125e+01 2.436754608154296875e+01 -4.559092521667480469e-01 9.193337440490722656e+00 2.621228456497192383e+00 2.454304695129394531e+00
3.934000000000000000e+03 5.907037734985351562e+01 2.475564575195312500e+01 -6.549628376960754395e-01 1.055313396453857422e+01 2.969451427459716797e+00 1.686249375343322754e+00
3.935000000000000000e+03 5.509579467773437500e+01 2.341318130493164062e+01 3.727497160434722900e-01 5.567028522491455078e+00 1.781933546066284180e+00 2.760826349258422852e+00
3.936000000000000000e+03 5.491172409057617188e+01 2.198605155944824219e+01 1.883486360311508179e-01 5.472546100616455078e+00 1.698268413543701172e+00 2.353852033615112305e+00
3.937000000000000000e+03 5.999877929687500000e+01 2.527906990051269531e+01 -5.560461282730102539e-01 1.141798114776611328e+01 3.258580446243286133e+00 8.632879257202148438e-01
3.938000000000000000e+03 6.225775146484375000e+01 2.648350143432617188e+01 6.581484079360961914e-01 1.152962589263916016e+01 3.656332254409790039e+00 -9.958304762840270996e-01
3.939000000000000000e+03 6.430599975585937500e+01 2.626856040954589844e+01 9.015769362449645996e-01 1.023391437530517578e+01 3.340647220611572266e+00 -1.325884699821472168e+00
3.940000000000000000e+03 6.322270202636718750e+01 2.525054168701171875e+01 2.164653539657592773e-01 1.065612506866455078e+01 3.261776924133300781e+00 -9.915271997451782227e-01
3.941000000000000000e+03 5.444948959350585938e+01 1.988091850280761719e+01 7.159822434186935425e-02 5.170667171478271484e+00 1.572679638862609863e+00 1.895336031913757324e+00
3.942000000000000000e+03 5.478735733032226562e+01 2.050412368774414062e+01 6.003344431519508362e-02 5.390758037567138672e+00 1.635237455368041992e+00 2.024078607559204102e+00
3.943000000000000000e+03 6.360137176513671875e+01 2.476004409790039062e+01 8.579880744218826294e-02 1.033320426940917969e+01 3.125700950622558594e+00 -9.933295845985412598e-01
3.944000000000000000e+03 6.208578872680664062e+01 2.692777252197265625e+01 9.633250236511230469e-01 1.181525516510009766e+01 3.833574056625366211e+00 -1.077553629875183105e+00
3.945000000000000000e+03 5.132997512817382812e+01 1.901750564575195312e+01 4.269900918006896973e-01 3.455486536026000977e+00 1.164742946624755859e+00 1.452936887741088867e+00
3.946000000000000000e+03 6.422323608398437500e+01 2.358882522583007812e+01 -1.912879198789596558e-01 9.860432624816894531e+00 2.900743484497070312e+00 -9.610857367515563965e-01
3.947000000000000000e+03 6.391047668457031250e+01 2.419408226013183594e+01 -5.819144845008850098e-02 1.007745742797851562e+01 3.005779981613159180e+00 -9.932608008384704590e-01
3.948000000000000000e+03 5.007828903198242188e+01 1.803125953674316406e+01 4.640309512615203857e-01 3.057483911514282227e+00 1.056454539299011230e+00 1.205582737922668457e+00
3.949000000000000000e+03 5.198803710937500000e+01 1.998519515991210938e+01 4.508069753646850586e-01 3.670945882797241211e+00 1.236525893211364746e+00 1.643247485160827637e+00
3.950000000000000000e+03 5.262820053100585938e+01 2.039674758911132812e+01 4.295768439769744873e-01 3.971789360046386719e+00 1.320409893989562988e+00 1.842134714126586914e+00
3.951000000000000000e+03 4.377594757080078125e+01 1.578920936584472656e+01 4.789365530014038086e-01 1.527847886085510254e+00 6.020353436470031738e-01 3.169053196907043457e-01
3.952000000000000000e+03 4.436270141601562500e+01 1.466707706451416016e+01 4.445566534996032715e-01 1.790644049644470215e+00 6.705602407455444336e-01 3.838535845279693604e-01
3.953000000000000000e+03 6.325106811523437500e+01 2.627950286865234375e+01 7.631341814994812012e-01 1.090231418609619141e+01 3.499634504318237305e+00 -1.197594881057739258e+00
3.954000000000000000e+03 5.894598770141601562e+01 2.360251617431640625e+01 -7.225476503372192383e-01 9.643987655639648438e+00 2.676432132720947266e+00 1.653222441673278809e+00
3.955000000000000000e+03 5.537762069702148438e+01 2.168478775024414062e+01 3.847987949848175049e-02 5.872282981872558594e+00 1.773228883743286133e+00 2.276817321777343750e+00
3.956000000000000000e+03 3.996221160888671875e+01 1.777088737487792969e+01 3.827468454837799072e-01 7.277152538299560547e-01 3.331386148929595947e-01 -1.014922931790351868e-01
3.957000000000000000e+03 4.059407806396484375e+01 1.844452857971191406e+01 3.901014924049377441e-01 7.484521865844726562e-01 3.415661156177520752e-01 -7.716072350740432739e-02
3.958000000000000000e+03 4.238568496704101562e+01 1.770683288574218750e+01 4.666484296321868896e-01 1.061338901519775391e+00 4.583961963653564453e-01 1.194604784250259399e-01
3.959000000000000000e+03 4.765721130371093750e+01 1.766074943542480469e+01 5.361016392707824707e-01 2.238065719604492188e+00 8.322502374649047852e-01 8.206370472908020020e-01
3.960000000000000000e+03 4.573138046264648438e+01 1.845340538024902344e+01 5.630372166633605957e-01 1.617881059646606445e+00 6.542754769325256348e-01 5.330996513366699219e-01
3.961000000000000000e+03 6.382825469970703125e+01 2.265900993347167969e+01 -4.802133738994598389e-01 9.743560791015625000e+00 2.779004335403442383e+00 -7.163203358650207520e-01
3.962000000000000000e+03 6.382031250000000000e+01 1.863290214538574219e+01 -8.126586079597473145e-01 8.605401039123535156e+00 2.337822675704956055e+00 -3.463136553764343262e-01
3.963000000000000000e+03 6.329226684570312500e+01 1.678510093688964844e+01 -8.469925522804260254e-01 8.194794654846191406e+00 2.204340457916259766e+00 -1.479095816612243652e-01
3.964000000000000000e+03 6.176977157592773438e+01 1.727525329589843750e+01 -8.700879216194152832e-01 8.063009262084960938e+00 2.157876491546630859e+00 2.112169712781906128e-01
3.965000000000000000e+03 6.365367126464843750e+01 1.735511398315429688e+01 -8.438600897789001465e-01 8.308210372924804688e+00 2.239305257797241211e+00 -2.294310778379440308e-01
3.966000000000000000e+03 6.160523605346679688e+01 1.079165744781494141e+01 -6.311266422271728516e-01 6.933146476745605469e+00 1.890606045722961426e+00 1.303736567497253418e-01
3.967000000000000000e+03 6.181930923461914062e+01 1.299180698394775391e+01 -7.185381054878234863e-01 7.243832111358642578e+00 1.957588195800781250e+00 1.428913027048110962e-01
3.968000000000000000e+03 6.399397277832031250e+01 2.127409362792968750e+01 -6.595463752746582031e-01 9.285958290100097656e+00 2.587923526763916016e+00 -5.852700471878051758e-01
3.969000000000000000e+03 6.320728683471679688e+01 1.882488059997558594e+01 -8.500798344612121582e-01 8.623584747314453125e+00 2.332051515579223633e+00 -1.968823969364166260e-01
3.970000000000000000e+03 6.356093597412109375e+01 2.326332664489746094e+01 -3.803927302360534668e-01 9.917739868164062500e+00 2.861203908920288086e+00 -7.543859481811523438e-01
3.971000000000000000e+03 6.189098358154296875e+01 1.445058822631835938e+01 -7.783082127571105957e-01 7.512478351593017578e+00 2.020251035690307617e+00 1.424004584550857544e-01
3.972000000000000000e+03 4.099438095092773438e+01 5.094198226928710938e+00 1.997207403182983398e-01 1.699188470840454102e+00 5.696727633476257324e-01 1.196004524827003479e-01
3.973000000000000000e+03 6.102708053588867188e+01 1.370356082916259766e+01 -7.302910685539245605e-01 7.197646141052246094e+00 1.940206527709960938e+00 2.797297239303588867e-01
3.974000000000000000e+03 6.124618911743164062e+01 1.649757957458496094e+01 -8.365198969841003418e-01 7.769140720367431641e+00 2.079786300659179688e+00 3.166364431381225586e-01
3.975000000000000000e+03 6.127116775512695312e+01 1.840122413635253906e+01 -8.844408988952636719e-01 8.252736091613769531e+00 2.210488796234130859e+00 3.408123552799224854e-01
3.976000000000000000e+03 4.157778549194335938e+01 1.202497673034667969e+01 3.680891692638397217e-01 1.419070482254028320e+00 5.361478924751281738e-01 1.489859968423843384e-01
3.977000000000000000e+03 4.258300018310546875e+01 1.354919624328613281e+01 4.058178961277008057e-01 1.526333570480346680e+00 5.796454548835754395e-01 2.206077724695205688e-01
3.978000000000000000e+03 3.985681915283203125e+01 -1.082687377929687500e+01 1.880053989589214325e-02 1.795481681823730469e+00 5.442846417427062988e-01 3.704027086496353149e-02
3.979000000000000000e+03 4.942702102661132812e+01 1.750878524780273438e+01 4.653213322162628174e-01 2.873152732849121094e+00 1.001542210578918457e+00 1.071547865867614746e+00
3.980000000000000000e+03 4.776683425903320312e+01 1.837594795227050781e+01 5.641187429428100586e-01 2.147762060165405273e+00 8.135642409324645996e-01 8.423411250114440918e-01
3.981000000000000000e+03 6.034063339233398438e+01 -7.087529659271240234e+00 -1.319385766983032227e-01 5.823976993560791016e+00 1.707611560821533203e+00 2.263070270419120789e-02
3.982000000000000000e+03 5.954586791992187500e+01 -1.442027568817138672e+01 -6.539101153612136841e-02 5.578147411346435547e+00 1.653826951980590820e+00 1.331819407641887665e-02
3.983000000000000000e+03 6.168922805786132812e+01 -1.786601829528808594e+01 -3.879129886627197266e-02 5.973581314086914062e+00 1.780436992645263672e+00 6.741787772625684738e-03
3.984000000000000000e+03 3.893378448486328125e+01 1.872305679321289062e+01 3.224844038486480713e-01 5.380787253379821777e-01 2.581689357757568359e-01 -2.124551683664321899e-01
3.985000000000000000e+03 4.556104278564453125e+01 1.712211418151855469e+01 5.302605032920837402e-01 1.760870218276977539e+00 6.873392462730407715e-01 5.274024009704589844e-01
3.986000000000000000e+03 4.721066665649414062e+01 1.654096412658691406e+01 4.932825565338134766e-01 2.235778808593750000e+00 8.187184333801269531e-01 7.195296287536621094e-01
3.987000000000000000e+03 3.975050354003906250e+01 4.980102062225341797e+00 2.019795477390289307e-01 1.487186193466186523e+00 5.067496895790100098e-01 7.900661975145339966e-02
3.988000000000000000e+03 4.144130706787109375e+01 -2.460966348648071289e+00 6.511226296424865723e-02 2.008110046386718750e+00 6.219667196273803711e-01 9.438531845808029175e-02
3.989000000000000000e+03 4.132240295410156250e+01 2.121488094329833984e+00 1.458763331174850464e-01 1.886807203292846680e+00 6.098050475120544434e-01 1.269139200448989868e-01
3.990000000000000000e+03 4.089329147338867188e+01 1.646790885925292969e+01 4.248433709144592285e-01 9.586867690086364746e-01 4.150590300559997559e-01 1.438210811465978622e-02
3.991000000000000000e+03 4.222975921630859375e+01 1.611809349060058594e+01 4.595297574996948242e-01 1.221362948417663574e+00 5.042678117752075195e-01 1.538405120372772217e-01
3.992000000000000000e+03 6.042469024658203125e+01 7.111295223236083984e+00 -4.564493596553802490e-01 6.335055351257324219e+00 1.763581871986389160e+00 1.591519117355346680e-01
3.993000000000000000e+03 6.010719299316406250e+01 -2.587007284164428711e+00 -2.074610143899917603e-01 5.835676193237304688e+00 1.688464522361755371e+00 4.678124189376831055e-02
3.994000000000000000e+03 4.283829498291015625e+01 9.103332519531250000e+00 2.793759107589721680e-01 1.896243214607238770e+00 6.526857614517211914e-01 2.349738031625747681e-01
3.995000000000000000e+03 4.132714080810546875e+01 1.112572574615478516e+01 3.370842635631561279e-01 1.435636401176452637e+00 5.318161845207214355e-01 1.424488723278045654e-01
3.996000000000000000e+03 5.973669052124023438e+01 6.381090164184570312e+00 -4.260059297084808350e-01 6.171033859252929688e+00 1.723508358001708984e+00 1.917041093111038208e-01
3.997000000000000000e+03 6.072315979003906250e+01 5.749001502990722656e+00 -4.238711297512054443e-01 6.333872318267822266e+00 1.773000359535217285e+00 1.037700250744819641e-01
3.998000000000000000e+03 4.032770538330078125e+01 -6.261988639831542969e+00 4.175583273172378540e-02 1.828993082046508789e+00 5.612246990203857422e-01 5.454464256763458252e-02
3.999000000000000000e+03 3.954856872558593750e+01 -8.104852676391601562e+00 2.939560264348983765e-02 1.709759593009948730e+00 5.217465758323669434e-01 4.601193591952323914e-02
4.000000000000000000e+03 3.642795944213867188e+01 -7.004382133483886719e+00 3.736769407987594604e-02 1.107438087463378906e+00 3.434417545795440674e-01 1.251387130469083786e-02
4.001000000000000000e+03 3.601151657104492188e+01 -8.446574211120605469e+00 3.259368985891342163e-02 1.048314809799194336e+00 3.242725729942321777e-01 9.341767989099025726e-03
4.002000000000000000e+03 5.793437957763671875e+01 -8.111680030822753906e+00 -1.100739240646362305e-01 5.346838951110839844e+00 1.571029543876647949e+00 5.526434630155563354e-02
4.003000000000000000e+03 5.441836929321289062e+01 -1.306320667266845703e+01 -5.496802926063537598e-02 4.618072986602783203e+00 1.368931531906127930e+00 5.801441892981529236e-02
4.004000000000000000e+03 3.683746337890625000e+01 -1.364396572113037109e+01 1.310614962130784988e-02 1.238173127174377441e+00 3.753837943077087402e-01 1.240846049040555954e-02
4.005000000000000000e+03 6.386634826660156250e+01 -2.161590766906738281e+01 -2.804062329232692719e-02 6.377316951751708984e+00 1.904782891273498535e+00 -1.495835836976766586e-03
4.006000000000000000e+03 4.226525497436523438e+01 6.616936326026916504e-01 9.536314755678176880e-02 2.097080945968627930e+00 6.577332019805908203e-01 1.263435930013656616e-01
4.007000000000000000e+03 6.425975799560546875e+01 -2.361712265014648438e+01 -1.518317405134439468e-02 6.440865516662597656e+00 1.927704691886901855e+00 -1.881305477581918240e-03
4.008000000000000000e+03 5.582843780517578125e+01 2.368040084838867188e+01 1.838812530040740967e-01 6.436292648315429688e+00 1.986052274703979492e+00 2.870348215103149414e+00
4.009000000000000000e+03 5.839101028442382812e+01 2.423507308959960938e+01 -5.893914103507995605e-01 9.599692344665527344e+00 2.703090429306030273e+00 2.145825386047363281e+00
4.010000000000000000e+03 5.913204193115234375e+01 2.407209396362304688e+01 -7.171495556831359863e-01 1.003232097625732422e+01 2.794551610946655273e+00 1.584849953651428223e+00
4.011000000000000000e+03 5.945072555541992188e+01 2.489189529418945312e+01 -6.553025841712951660e-01 1.085401821136474609e+01 3.059614896774291992e+00 1.392840623855590820e+00
4.012000000000000000e+03 5.655197143554687500e+01 2.316775512695312500e+01 -1.197574511170387268e-01 7.177640914916992188e+00 2.117365121841430664e+00 2.591113090515136719e+00
4.013000000000000000e+03 6.050671768188476562e+01 2.517091560363769531e+01 -4.932840168476104736e-01 1.139786911010742188e+01 3.271375417709350586e+00 4.652207195758819580e-01
4.014000000000000000e+03 5.961904525756835938e+01 2.382673645019531250e+01 -7.475508451461791992e-01 1.009437561035156250e+01 2.804047584533691406e+00 1.203966259956359863e+00
4.015000000000000000e+03 6.391747283935546875e+01 2.202523231506347656e+01 -5.854042172431945801e-01 9.510863304138183594e+00 2.677637815475463867e+00 -6.332823038101196289e-01
4.016000000000000000e+03 6.314018249511718750e+01 2.441508102416992188e+01 -1.272917836904525757e-01 1.042272949218750000e+01 3.088631153106689453e+00 -8.030825257301330566e-01
4.017000000000000000e+03 5.992934799194335938e+01 2.478267478942871094e+01 -6.614099740982055664e-01 1.100378131866455078e+01 3.102711439132690430e+00 9.883233308792114258e-01
4.018000000000000000e+03 5.664472579956054688e+01 2.395642089843750000e+01 -6.544015556573867798e-02 7.414019584655761719e+00 2.204573869705200195e+00 2.803497552871704102e+00
4.019000000000000000e+03 5.570192337036132812e+01 2.222239303588867188e+01 1.464962959289550781e-02 6.199136734008789062e+00 1.864135861396789551e+00 2.408019304275512695e+00
4.020000000000000000e+03 5.509138107299804688e+01 2.110786628723144531e+01 4.467801377177238464e-02 5.617368221282958984e+00 1.698613882064819336e+00 2.150056838989257812e+00
4.021000000000000000e+03 5.727323532104492188e+01 2.406015586853027344e+01 -2.680514454841613770e-01 8.215776443481445312e+00 2.384317398071289062e+00 2.690178155899047852e+00
4.022000000000000000e+03 5.535115814208984375e+01 2.020118713378906250e+01 -8.414460718631744385e-02 5.798067569732666016e+00 1.714176893234252930e+00 1.948876380920410156e+00
4.023000000000000000e+03 5.563676452636718750e+01 2.082991218566894531e+01 -1.002549976110458374e-01 6.022513389587402344e+00 1.776677489280700684e+00 2.075751066207885742e+00
4.024000000000000000e+03 6.165365600585937500e+01 2.600292587280273438e+01 1.700927913188934326e-01 1.172524261474609375e+01 3.568600654602050781e+00 -5.626336932182312012e-01
4.025000000000000000e+03 6.106160736083984375e+01 2.560093498229980469e+01 -1.908558160066604614e-01 1.168233966827392578e+01 3.447445154190063477e+00 -8.731909841299057007e-02
4.026000000000000000e+03 6.154169082641601562e+01 2.504378128051757812e+01 -2.934630513191223145e-01 1.117243099212646484e+01 3.263690471649169922e+00 -2.295469939708709717e-01
4.027000000000000000e+03 6.013112640380859375e+01 2.356980514526367188e+01 -7.781249284744262695e-01 1.018456077575683594e+01 2.821930885314941406e+00 8.888550400733947754e-01
4.028000000000000000e+03 6.371938323974609375e+01 2.575607490539550781e+01 5.561871528625488281e-01 1.051457691192626953e+01 3.321229219436645508e+00 -1.194979667663574219e+00
4.029000000000000000e+03 5.072671890258789062e+01 1.853491401672363281e+01 4.505096077919006348e-01 3.266546010971069336e+00 1.115116715431213379e+00 1.339159607887268066e+00
4.030000000000000000e+03 6.002344894409179688e+01 1.315470981597900391e+01 -6.697456240653991699e-01 6.890901565551757812e+00 1.866346836090087891e+00 3.943604826927185059e-01
4.031000000000000000e+03 6.197874832153320312e+01 1.582231521606445312e+01 -8.282364606857299805e-01 7.781453132629394531e+00 2.085964918136596680e+00 1.471783071756362915e-01
4.032000000000000000e+03 6.120755386352539062e+01 1.514925098419189453e+01 -7.881813049316406250e-01 7.480874538421630859e+00 2.007807970046997070e+00 2.922860085964202881e-01
4.033000000000000000e+03 5.409025955200195312e+01 1.923628616333007812e+01 7.530253380537033081e-02 4.965075969696044922e+00 1.512113451957702637e+00 1.759074687957763672e+00
4.034000000000000000e+03 5.349797439575195312e+01 1.958162498474121094e+01 2.112660408020019531e-01 4.584555149078369141e+00 1.438746333122253418e+00 1.792813658714294434e+00
4.035000000000000000e+03 6.333698654174804688e+01 2.387558746337890625e+01 -2.513584494590759277e-01 1.016379165649414062e+01 2.973729848861694336e+00 -7.645260095596313477e-01
4.036000000000000000e+03 6.281591796875000000e+01 1.982520675659179688e+01 -8.641157150268554688e-01 8.916596412658691406e+00 2.415744066238403320e+00 -1.145058497786521912e-01
4.037000000000000000e+03 5.469277191162109375e+01 1.893734550476074219e+01 -5.223175510764122009e-02 5.336911201477050781e+00 1.585403800010681152e+00 1.718304395675659180e+00
4.038000000000000000e+03 6.240262985229492188e+01 1.903166961669921875e+01 -8.950743079185485840e-01 8.645594596862792969e+00 2.325155973434448242e+00 3.821141272783279419e-02
4.039000000000000000e+03 6.341886138916015625e+01 2.035752677917480469e+01 -7.958832979202270508e-01 9.093904495239257812e+00 2.489406347274780273e+00 -3.385901451110839844e-01
4.040000000000000000e+03 6.212097167968750000e+01 1.813937377929687500e+01 -8.894204497337341309e-01 8.350769996643066406e+00 2.238404750823974609e+00 1.256717890501022339e-01
4.041000000000000000e+03 4.472294616699218750e+01 1.619021415710449219e+01 4.937376379966735840e-01 1.679238796234130859e+00 6.518929004669189453e-01 4.175220727920532227e-01
4.042000000000000000e+03 4.310327529907226562e+01 1.684358978271484375e+01 4.860821068286895752e-01 1.287651896476745605e+00 5.321202278137207031e-01 2.313476651906967163e-01
4.043000000000000000e+03 5.992393112182617188e+01 1.127425670623779297e+01 -5.900744199752807617e-01 6.632768154144287109e+00 1.812808156013488770e+00 3.146612942218780518e-01
4.044000000000000000e+03 6.144791412353515625e+01 7.350424766540527344e+00 -4.986120462417602539e-01 6.580472469329833984e+00 1.824558138847351074e+00 9.370495378971099854e-02
4.045000000000000000e+03 4.283647537231445312e+01 1.513305854797363281e+01 4.471185505390167236e-01 1.400827050209045410e+00 5.543836951255798340e-01 2.235496789216995239e-01
4.046000000000000000e+03 5.003087615966796875e+01 1.673596191406250000e+01 3.768034279346466064e-01 3.188558816909790039e+00 1.069608688354492188e+00 1.105282425880432129e+00
4.047000000000000000e+03 5.896772766113281250e+01 1.164463758468627930e+00 -2.626948058605194092e-01 5.741544246673583984e+00 1.643654823303222656e+00 1.121837645769119263e-01
4.048000000000000000e+03 5.701327896118164062e+01 -2.360600709915161133e+00 -1.734729260206222534e-01 5.239448547363281250e+00 1.519792675971984863e+00 1.184494346380233765e-01
4.049000000000000000e+03 4.250318527221679688e+01 2.028762817382812500e+00 1.267969757318496704e-01 2.106182813644409180e+00 6.698939204216003418e-01 1.536907404661178589e-01
4.050000000000000000e+03 4.139020156860351562e+01 6.164529323577880859e+00 2.194852679967880249e-01 1.728127241134643555e+00 5.842837691307067871e-01 1.394809335470199585e-01
4.051000000000000000e+03 4.494224929809570312e+01 -1.278037548065185547e+00 4.186470434069633484e-02 2.664130926132202148e+00 8.117986917495727539e-01 1.564174294471740723e-01
4.052000000000000000e+03 4.016675949096679688e+01 6.789215564727783203e+00 2.289598286151885986e-01 1.500736117362976074e+00 5.189087986946105957e-01 9.352712333202362061e-02
4.053000000000000000e+03 4.249717712402343750e+01 1.166491222381591797e+01 3.535283207893371582e-01 1.676782608032226562e+00 6.090933084487915039e-01 2.189028710126876831e-01
4.054000000000000000e+03 4.790836334228515625e+01 1.680025482177734375e+01 4.876651763916015625e-01 2.431159973144531250e+00 8.756475448608398438e-01 8.295207619667053223e-01
4.055000000000000000e+03 4.872287368774414062e+01 1.700942802429199219e+01 4.696855247020721436e-01 2.674231290817260742e+00 9.431750774383544922e-01 9.593846201896667480e-01
4.056000000000000000e+03 4.664589691162109375e+01 1.599089908599853516e+01 4.774656295776367188e-01 2.173490524291992188e+00 7.952868342399597168e-01 6.480289101600646973e-01
4.057000000000000000e+03 4.687042617797851562e+01 1.782786941528320312e+01 5.414413213729858398e-01 1.995184779167175293e+00 7.609878778457641602e-01 6.968712210655212402e-01
4.058000000000000000e+03 5.908066177368164062e+01 5.581165313720703125e+00 -3.745688199996948242e-01 5.950980663299560547e+00 1.672923445701599121e+00 2.039593756198883057e-01
4.059000000000000000e+03 4.830237960815429688e+01 1.783967399597167969e+01 5.370317697525024414e-01 2.403358697891235352e+00 8.821170926094055176e-01 9.284780621528625488e-01
4.060000000000000000e+03 4.107929611206054688e+01 4.160586833953857422e+00 1.649975627660751343e-01 1.751017332077026367e+00 5.748044848442077637e-01 1.042704135179519653e-01
4.061000000000000000e+03 6.049991989135742188e+01 3.253181695938110352e+00 -3.413519263267517090e-01 6.133185386657714844e+00 1.737550020217895508e+00 8.122343569993972778e-02
4.062000000000000000e+03 6.120028686523437500e+01 4.249038219451904297e+00 -3.805078566074371338e-01 6.330707073211669922e+00 1.785059809684753418e+00 5.419277399778366089e-02
4.063000000000000000e+03 4.308847045898437500e+01 -2.892295837402343750e+00 5.378161370754241943e-02 2.338420152664184570e+00 7.176605463027954102e-01 1.185219138860702515e-01
4.064000000000000000e+03 5.879169845581054688e+01 -6.423722743988037109e+00 -1.381188631057739258e-01 5.510846614837646484e+00 1.611818432807922363e+00 5.697476118803024292e-02
4.065000000000000000e+03 5.980313110351562500e+01 -6.009252548217773438e+00 -1.433672159910202026e-01 5.749662399291992188e+00 1.681888580322265625e+00 3.231287002563476562e-02
4.066000000000000000e+03 4.113724517822265625e+01 -1.219209861755371094e+01 8.423434570431709290e-03 2.035615205764770508e+00 6.132115721702575684e-01 4.081414639949798584e-02
4.067000000000000000e+03 5.959455108642578125e+01 1.037661743164062500e+01 -5.505303740501403809e-01 6.467673778533935547e+00 1.775143027305603027e+00 3.156753480434417725e-01
4.068000000000000000e+03 5.755788421630859375e+01 -6.653788089752197266e+00 -1.268061399459838867e-01 5.293857574462890625e+00 1.550115466117858887e+00 6.408211588859558105e-02
4.069000000000000000e+03 5.476413345336914062e+01 -9.054490089416503906e+00 -7.639169692993164062e-02 4.732585430145263672e+00 1.396858096122741699e+00 7.854153960943222046e-02
4.070000000000000000e+03 3.857278060913085938e+01 -9.754768371582031250e+00 2.696266211569309235e-02 1.541150689125061035e+00 4.704340100288391113e-01 3.153113275766372681e-02
4.071000000000000000e+03 4.115088653564453125e+01 -9.064157485961914062e+00 1.904260180890560150e-02 2.032965660095214844e+00 6.156024932861328125e-01 5.194509029388427734e-02
4.072000000000000000e+03 5.634849166870117188e+01 -1.617812538146972656e+01 -4.997731745243072510e-02 4.975448608398437500e+00 1.477641344070434570e+00 3.300387784838676453e-02
4.073000000000000000e+03 5.826120376586914062e+01 -1.741955637931823730e+00 -2.026931196451187134e-01 5.514956474304199219e+00 1.593679070472717285e+00 1.012457013130187988e-01
4.074000000000000000e+03 5.882340240478515625e+01 -3.034777879714965820e+00 -1.896197050809860229e-01 5.596090793609619141e+00 1.621941328048706055e+00 7.086169719696044922e-02
4.075000000000000000e+03 6.000514984130859375e+01 -2.013942337036132812e+01 -3.071555867791175842e-02 5.648861408233642578e+00 1.685443758964538574e+00 1.227896753698587418e-02
4.076000000000000000e+03 6.054224777221679688e+01 -2.473722839355468750e+01 -1.983450725674629211e-02 5.735690593719482422e+00 1.714756727218627930e+00 9.122382849454879761e-03
4.077000000000000000e+03 6.019482040405273438e+01 -2.235513877868652344e+01 -2.248405292630195618e-02 5.678966999053955078e+00 1.696944832801818848e+00 1.157759875059127808e-02
4.078000000000000000e+03 5.980966567993164062e+01 2.429415130615234375e+01 -7.264793515205383301e-01 1.052191638946533203e+01 2.938631057739257812e+00 1.111835837364196777e+00
4.079000000000000000e+03 5.838047790527343750e+01 2.361513900756835938e+01 -6.140001416206359863e-01 9.174282073974609375e+00 2.568084478378295898e+00 2.008138179779052734e+00
4.080000000000000000e+03 5.987251663208007812e+01 2.304024314880371094e+01 -8.085566759109497070e-01 9.758077621459960938e+00 2.684856414794921875e+00 1.032839894294738770e+00
4.081000000000000000e+03 5.611374282836914062e+01 2.183924293518066406e+01 -1.417623758316040039e-01 6.576854705810546875e+00 1.930527687072753906e+00 2.274795055389404297e+00
4.082000000000000000e+03 6.285438537597656250e+01 2.298645401000976562e+01 -5.691620111465454102e-01 9.945436477661132812e+00 2.812882423400878906e+00 -4.163506627082824707e-01
4.083000000000000000e+03 6.273653030395507812e+01 2.369491195678710938e+01 -4.257424771785736084e-01 1.028840255737304688e+01 2.958798170089721680e+00 -5.006190538406372070e-01
4.084000000000000000e+03 6.195361709594726562e+01 2.531719779968261719e+01 -8.351064473390579224e-02 1.117716026306152344e+01 3.328094720840454102e+00 -5.160907506942749023e-01
4.085000000000000000e+03 6.154001235961914062e+01 2.552033805847167969e+01 -8.967761695384979248e-02 1.150170326232910156e+01 3.423607587814331055e+00 -3.666831254959106445e-01
4.086000000000000000e+03 5.778234100341796875e+01 2.374732589721679688e+01 -4.650371074676513672e-01 8.695954322814941406e+00 2.469274997711181641e+00 2.352698564529418945e+00
4.087000000000000000e+03 6.087467193603515625e+01 2.393096733093261719e+01 -6.866493821144104004e-01 1.055065822601318359e+01 2.959202766418457031e+00 4.103019237518310547e-01
4.088000000000000000e+03 5.746855926513671875e+01 2.313773727416992188e+01 -4.125626385211944580e-01 8.121174812316894531e+00 2.312583446502685547e+00 2.305226087570190430e+00
4.089000000000000000e+03 5.595418548583984375e+01 1.989656257629394531e+01 -2.388297170400619507e-01 6.195151805877685547e+00 1.786896586418151855e+00 1.822271823883056641e+00
4.090000000000000000e+03 5.238936233520507812e+01 1.916268157958984375e+01 3.232681155204772949e-01 3.996798753738403320e+00 1.296020030975341797e+00 1.620406746864318848e+00
4.091000000000000000e+03 6.320265579223632812e+01 2.228405380249023438e+01 -6.277807950973510742e-01 9.675786972045898438e+00 2.714401721954345703e+00 -4.609261155128479004e-01
4.092000000000000000e+03 6.258709335327148438e+01 2.171441459655761719e+01 -7.618360519409179688e-01 9.517950057983398438e+00 2.626834154129028320e+00 -1.938877105712890625e-01
4.093000000000000000e+03 6.307554244995117188e+01 2.098791694641113281e+01 -7.794367671012878418e-01 9.289553642272949219e+00 2.553035020828247070e+00 -2.984205186367034912e-01
4.094000000000000000e+03 5.917168045043945312e+01 1.216500568389892578e+01 -5.888091325759887695e-01 6.524975776672363281e+00 1.780850052833557129e+00 4.562292695045471191e-01
4.095000000000000000e+03 6.053090667724609375e+01 1.585268211364746094e+01 -7.874828577041625977e-01 7.467898368835449219e+00 2.004124641418457031e+00 4.402667880058288574e-01
4.096000000000000000e+03 6.060838699340820312e+01 1.928176879882812500e+01 -8.816397786140441895e-01 8.367763519287109375e+00 2.245837211608886719e+00 5.925728678703308105e-01
4.097000000000000000e+03 6.045335769653320312e+01 1.856051063537597656e+01 -8.618423938751220703e-01 8.098914146423339844e+00 2.171121597290039062e+00 6.081622838973999023e-01
4.098000000000000000e+03 6.258266448974609375e+01 1.702852630615234375e+01 -8.654401898384094238e-01 8.123427391052246094e+00 2.177396059036254883e+00 3.466372936964035034e-02
4.099000000000000000e+03 5.907761383056640625e+01 1.718537712097167969e+01 -7.375633716583251953e-01 7.322963237762451172e+00 1.975619912147521973e+00 8.327760100364685059e-01
4.100000000000000000e+03 5.135209274291992188e+01 1.782915687561035156e+01 3.315559327602386475e-01 3.650436639785766602e+00 1.194597721099853516e+00 1.345683455467224121e+00
4.101000000000000000e+03 5.273115921020507812e+01 1.803270530700683594e+01 1.993790566921234131e-01 4.250817775726318359e+00 1.335059046745300293e+00 1.491379976272583008e+00
4.102000000000000000e+03 5.308162689208984375e+01 1.885412406921386719e+01 2.154968976974487305e-01 4.380185127258300781e+00 1.378704667091369629e+00 1.647103190422058105e+00
4.103000000000000000e+03 4.520247650146484375e+01 1.512140750885009766e+01 4.553703069686889648e-01 1.915156364440917969e+00 7.111579775810241699e-01 4.722528159618377686e-01
4.104000000000000000e+03 4.260568237304687500e+01 8.016230583190917969e+00 2.564128637313842773e-01 1.915856242179870605e+00 6.516807079315185547e-01 2.140918374061584473e-01
4.105000000000000000e+03 4.348158264160156250e+01 1.407698345184326172e+01 4.290227890014648438e-01 1.634139895439147949e+00 6.189488172531127930e-01 3.016807436943054199e-01
4.106000000000000000e+03 4.248301696777343750e+01 3.392983675003051758e+00 1.490113586187362671e-01 2.078812837600708008e+00 6.683472990989685059e-01 1.720380932092666626e-01
4.107000000000000000e+03 6.016322708129882812e+01 1.222008991241455078e+01 -6.439067721366882324e-01 6.808643817901611328e+00 1.849421143531799316e+00 3.371369242668151855e-01
4.108000000000000000e+03 5.826018142700195312e+01 8.781887054443359375e+00 -4.392023682594299316e-01 5.993232250213623047e+00 1.666208982467651367e+00 3.604268133640289307e-01
4.109000000000000000e+03 5.768423461914062500e+01 3.893034219741821289e+00 -2.887718975543975830e-01 5.546856880187988281e+00 1.577425479888916016e+00 2.165834754705429077e-01
4.110000000000000000e+03 4.597723388671875000e+01 1.552226257324218750e+01 4.675500392913818359e-01 2.047185182571411133e+00 7.544205784797668457e-01 5.680499076843261719e-01
4.111000000000000000e+03 4.555123519897460938e+01 1.633503150939941406e+01 5.013293027877807617e-01 1.846854329109191895e+00 7.044550776481628418e-01 5.256287455558776855e-01
4.112000000000000000e+03 4.934670257568359375e+01 1.612194442749023438e+01 3.871248066425323486e-01 2.984002351760864258e+00 1.011338114738464355e+00 9.784659743309020996e-01
4.113000000000000000e+03 5.066640090942382812e+01 1.731077384948730469e+01 3.618152439594268799e-01 3.390313148498535156e+00 1.125638484954833984e+00 1.213180780410766602e+00
4.114000000000000000e+03 4.380880355834960938e+01 1.976606965065002441e+00 1.061695069074630737e-01 2.375556707382202148e+00 7.445178627967834473e-01 1.736645549535751343e-01
4.115000000000000000e+03 4.379330825805664062e+01 3.479354143142700195e+00 1.317318528890609741e-01 2.332717895507812500e+00 7.393348813056945801e-01 1.989695280790328979e-01
4.116000000000000000e+03 4.154200744628906250e+01 8.043848037719726562e+00 2.614074349403381348e-01 1.687736392021179199e+00 5.847431421279907227e-01 1.527778953313827515e-01
4.117000000000000000e+03 4.209435653686523438e+01 7.130930423736572266e+00 2.335219085216522217e-01 1.834045886993408203e+00 6.202703118324279785e-01 1.742143183946609497e-01
4.118000000000000000e+03 5.824453735351562500e+01 9.668772667646408081e-02 -2.323900163173675537e-01 5.547501087188720703e+00 1.594533324241638184e+00 1.211055964231491089e-01
4.119000000000000000e+03 4.661753845214843750e+01 1.153863048553466797e+01 2.924519181251525879e-01 2.597367286682128906e+00 8.669457435607910156e-01 5.224543213844299316e-01
4.120000000000000000e+03 4.216386032104492188e+01 1.073706817626953125e+01 3.223841190338134766e-01 1.645185828208923340e+00 5.902709960937500000e-01 1.912028491497039795e-01
4.121000000000000000e+03 4.785022735595703125e+01 1.597736263275146484e+01 4.525749087333679199e-01 2.531708717346191406e+00 8.952850699424743652e-01 8.115245103836059570e-01
4.122000000000000000e+03 4.340328979492187500e+01 -1.115555405616760254e+00 6.688573211431503296e-02 2.367161273956298828e+00 7.302141189575195312e-01 1.404395252466201782e-01
4.123000000000000000e+03 6.014185714721679688e+01 9.130987167358398438e+00 -5.240706205368041992e-01 6.425790309906005859e+00 1.770515918731689453e+00 2.316282540559768677e-01
4.124000000000000000e+03 5.881728363037109375e+01 1.065210819244384766e+01 -5.211066007614135742e-01 6.283544063568115234e+00 1.728731155395507812e+00 4.168834090232849121e-01
4.125000000000000000e+03 4.613346862792968750e+01 1.664786720275878906e+01 5.110520124435424805e-01 1.982789397239685059e+00 7.481524348258972168e-01 6.048067212104797363e-01
4.126000000000000000e+03 5.666944885253906250e+01 -3.517921268939971924e-01 -2.048896551132202148e-01 5.212316989898681641e+00 1.502228140830993652e+00 1.663300096988677979e-01
4.127000000000000000e+03 5.593457412719726562e+01 -5.410681247711181641e+00 -1.288107186555862427e-01 4.981247901916503906e+00 1.455731153488159180e+00 9.462007880210876465e-02
4.128000000000000000e+03 4.467719268798828125e+01 -2.949628114700317383e+00 4.082198813557624817e-02 2.641704320907592773e+00 8.047578930854797363e-01 1.327905356884002686e-01
4.129000000000000000e+03 5.691422271728515625e+01 -1.007191753387451172e+01 -8.173906803131103516e-02 5.128222465515136719e+00 1.513945102691650391e+00 5.488722398877143860e-02
4.130000000000000000e+03 5.661924743652343750e+01 2.347895383834838867e+00 -2.414191961288452148e-01 5.305150508880615234e+00 1.519119381904602051e+00 2.195157110691070557e-01
4.131000000000000000e+03 5.587778854370117188e+01 -1.212029743194580078e+01 -6.871643662452697754e-02 4.913365364074707031e+00 1.453394651412963867e+00 5.395229533314704895e-02
4.132000000000000000e+03 3.842658233642578125e+01 -1.235057735443115234e+01 1.388251967728137970e-02 1.528367400169372559e+00 4.626749753952026367e-01 2.708416432142257690e-02
4.133000000000000000e+03 5.989822769165039062e+01 -1.808223533630371094e+01 -3.554536029696464539e-02 5.634780406951904297e+00 1.679770469665527344e+00 1.435420289635658264e-02
4.134000000000000000e+03 5.588058471679687500e+01 -2.024375152587890625e+01 -2.811819314956665039e-02 4.882946968078613281e+00 1.456448674201965332e+00 3.078494966030120850e-02
4.135000000000000000e+03 5.801756668090820312e+01 -1.818132209777832031e+01 -3.606043756008148193e-02 5.280699253082275391e+00 1.573391675949096680e+00 2.234292402863502502e-02
4.136000000000000000e+03 4.401025009155273438e+01 -5.505585193634033203e+00 1.670266129076480865e-02 2.532549619674682617e+00 7.647756338119506836e-01 9.699022024869918823e-02
4.137000000000000000e+03 4.364030456542968750e+01 -7.238963127136230469e+00 1.760917156934738159e-02 2.470977783203125000e+00 7.465760707855224609e-01 8.602282404899597168e-02
4.138000000000000000e+03 4.431361770629882812e+01 -9.057072639465332031e+00 -1.782341569196432829e-04 2.630544185638427734e+00 7.891097664833068848e-01 7.834985107183456421e-02
4.139000000000000000e+03 6.422734832763671875e+01 -2.875259017944335938e+01 -1.284667383879423141e-02 6.451931953430175781e+00 1.931725621223449707e+00 -1.096619106829166412e-02
4.140000000000000000e+03 6.662342834472656250e+01 -3.490721511840820312e+01 -3.862195182591676712e-03 6.861429214477539062e+00 2.057270050048828125e+00 1.364860590547323227e-02
4.141000000000000000e+03 6.983859252929687500e+01 -3.580239105224609375e+01 -9.520404972136020660e-03 7.481204032897949219e+00 2.241505146026611328e+00 -6.611448479816317558e-04
4.142000000000000000e+03 6.156972885131835938e+01 2.445897102355957031e+01 -4.537671804428100586e-01 1.083904170989990234e+01 3.115582466125488281e+00 -1.125778034329414368e-01
4.143000000000000000e+03 6.238611984252929688e+01 2.502739906311035156e+01 -9.015084803104400635e-02 1.092643928527832031e+01 3.250886440277099609e+00 -6.333096027374267578e-01
4.144000000000000000e+03 5.939949417114257812e+01 2.339983749389648438e+01 -7.698992490768432617e-01 9.790645599365234375e+00 2.706223964691162109e+00 1.337792277336120605e+00
4.145000000000000000e+03 5.652952575683593750e+01 2.221009635925292969e+01 -2.219939529895782471e-01 6.970697402954101562e+00 2.024610996246337891e+00 2.315085411071777344e+00
4.146000000000000000e+03 5.736664962768554688e+01 2.096026039123535156e+01 -4.885029494762420654e-01 7.339348316192626953e+00 2.055253505706787109e+00 1.815502882003784180e+00
4.147000000000000000e+03 5.905622482299804688e+01 2.311104393005371094e+01 -7.556489109992980957e-01 9.421731948852539062e+00 2.599824905395507812e+00 1.544277071952819824e+00
4.148000000000000000e+03 6.210531616210937500e+01 2.295046234130859375e+01 -6.777089834213256836e-01 1.002229309082031250e+01 2.803375244140625000e+00 -1.180703490972518921e-01
4.149000000000000000e+03 6.216522598266601562e+01 2.437992286682128906e+01 -3.561690151691436768e-01 1.069785690307617188e+01 3.102506160736083984e+00 -3.878847658634185791e-01
4.150000000000000000e+03 5.851906585693359375e+01 2.292257499694824219e+01 -6.672123074531555176e-01 8.907955169677734375e+00 2.472222805023193359e+00 1.791165947914123535e+00
4.151000000000000000e+03 5.584350585937500000e+01 2.140628433227539062e+01 -9.904354810714721680e-02 6.216301441192626953e+00 1.835177302360534668e+00 2.176035881042480469e+00
4.152000000000000000e+03 6.227281188964843750e+01 2.046142959594726562e+01 -8.743684887886047363e-01 9.080378532409667969e+00 2.461802959442138672e+00 3.149762749671936035e-02
4.153000000000000000e+03 5.181265640258789062e+01 1.709059715270996094e+01 2.382299751043319702e-01 3.922798871994018555e+00 1.248308658599853516e+00 1.327927827835083008e+00
4.154000000000000000e+03 6.147182464599609375e+01 1.924142456054687500e+01 -8.962005376815795898e-01 8.547379493713378906e+00 2.295353651046752930e+00 3.036922812461853027e-01
4.155000000000000000e+03 5.584886932373046875e+01 1.824561882019042969e+01 -2.837429046630859375e-01 5.957891941070556641e+00 1.702244758605957031e+00 1.521492004394531250e+00
4.156000000000000000e+03 6.148574447631835938e+01 2.378795433044433594e+01 -6.215289235115051270e-01 1.044882297515869141e+01 2.948188066482543945e+00 6.950099766254425049e-02
4.157000000000000000e+03 5.502804946899414062e+01 1.598982715606689453e+01 -2.263916581869125366e-01 5.424190998077392578e+00 1.559339761734008789e+00 1.239282608032226562e+00
4.158000000000000000e+03 5.376185607910156250e+01 1.854164505004882812e+01 7.557062804698944092e-02 4.812663555145263672e+00 1.466470241546630859e+00 1.627228856086730957e+00
4.159000000000000000e+03 6.039393615722656250e+01 1.451064968109130859e+01 -7.362810969352722168e-01 7.184826374053955078e+00 1.934563517570495605e+00 4.123694300651550293e-01
4.160000000000000000e+03 5.073850250244140625e+01 1.604747772216796875e+01 2.790998518466949463e-01 3.520657062530517578e+00 1.139927029609680176e+00 1.120980620384216309e+00
4.161000000000000000e+03 5.258769607543945312e+01 1.717021751403808594e+01 1.648886501789093018e-01 4.218256473541259766e+00 1.314943552017211914e+00 1.371261835098266602e+00
4.162000000000000000e+03 5.196387481689453125e+01 1.843368721008300781e+01 3.178444206714630127e-01 3.859846591949462891e+00 1.253307223320007324e+00 1.475874423980712891e+00
4.163000000000000000e+03 5.543455886840820312e+01 1.774170112609863281e+01 -2.330636531114578247e-01 5.703207969665527344e+00 1.641043305397033691e+00 1.483601093292236328e+00
4.164000000000000000e+03 4.580639648437500000e+01 1.418325614929199219e+01 4.145733118057250977e-01 2.160825967788696289e+00 7.726197838783264160e-01 5.280179381370544434e-01
4.165000000000000000e+03 5.897733306884765625e+01 1.471410846710205078e+01 -6.578792929649353027e-01 6.833057880401611328e+00 1.852553606033325195e+00 6.555251479148864746e-01
4.166000000000000000e+03 5.900831985473632812e+01 1.140735721588134766e+01 -5.555121302604675293e-01 6.444659709930419922e+00 1.766744375228881836e+00 4.262081086635589600e-01
4.167000000000000000e+03 4.727546310424804688e+01 1.529822158813476562e+01 4.347372651100158691e-01 2.440756320953369141e+00 8.626480698585510254e-01 7.199010252952575684e-01
4.168000000000000000e+03 4.363198852539062500e+01 1.232416534423828125e+01 3.737871050834655762e-01 1.816326141357421875e+00 6.570339798927307129e-01 3.146691024303436279e-01
4.169000000000000000e+03 4.421263504028320312e+01 1.311348056793212891e+01 3.930219113826751709e-01 1.887285947799682617e+00 6.840923428535461426e-01 3.549247980117797852e-01
4.170000000000000000e+03 4.266378021240234375e+01 5.415215492248535156e+00 1.889343559741973877e-01 2.054308891296386719e+00 6.729729771614074707e-01 1.852523982524871826e-01
4.171000000000000000e+03 4.319356536865234375e+01 6.526489734649658203e+00 2.062545418739318848e-01 2.101575374603271484e+00 6.923490166664123535e-01 2.205326259136199951e-01
4.172000000000000000e+03 5.490594482421875000e+01 1.753420639038085938e+01 -1.593622863292694092e-01 5.436038494110107422e+00 1.583002805709838867e+00 1.479137182235717773e+00
4.173000000000000000e+03 5.441126251220703125e+01 1.829499244689941406e+01 -4.692121595144271851e-02 5.185299873352050781e+00 1.541513562202453613e+00 1.606423020362854004e+00
4.174000000000000000e+03 5.714162063598632812e+01 8.690775871276855469e+00 -3.744976520538330078e-01 5.681281566619873047e+00 1.592035174369812012e+00 4.436328709125518799e-01
4.175000000000000000e+03 5.860700225830078125e+01 6.540553092956542969e+00 -3.937290906906127930e-01 5.930051803588867188e+00 1.660896778106689453e+00 2.473410516977310181e-01
4.176000000000000000e+03 5.713004684448242188e+01 6.273937225341796875e+00 -3.323975205421447754e-01 5.547241210937500000e+00 1.564453125000000000e+00 3.371003568172454834e-01
4.177000000000000000e+03 5.440173721313476562e+01 -2.759529590606689453e+00 -1.282775104045867920e-01 4.714444160461425781e+00 1.375849962234497070e+00 1.509505212306976318e-01
4.178000000000000000e+03 5.582929229736328125e+01 -3.964087009429931641e+00 -1.384875476360321045e-01 4.976585865020751953e+00 1.451429486274719238e+00 1.101256534457206726e-01
4.179000000000000000e+03 5.735417556762695312e+01 -3.654633998870849609e+00 -1.653281003236770630e-01 5.287756443023681641e+00 1.536728620529174805e+00 9.664082527160644531e-02
4.180000000000000000e+03 5.723184585571289062e+01 4.994681835174560547e+00 -3.068827390670776367e-01 5.517664909362792969e+00 1.563234567642211914e+00 2.802101969718933105e-01
4.181000000000000000e+03 5.527377319335937500e+01 4.795619249343872070e-01 -1.779239922761917114e-01 4.960295677185058594e+00 1.434711456298828125e+00 2.097567319869995117e-01
4.182000000000000000e+03 4.345800018310546875e+01 1.136601734161376953e+01 3.462406694889068604e-01 1.874202251434326172e+00 6.661328673362731934e-01 2.932949960231781006e-01
4.183000000000000000e+03 4.276289749145507812e+01 1.262017059326171875e+01 3.847049176692962646e-01 1.643643379211425781e+00 6.085044741630554199e-01 2.475516945123672485e-01
4.184000000000000000e+03 4.520726776123046875e+01 1.963886618614196777e+00 8.347669243812561035e-02 2.679061174392700195e+00 8.287613391876220703e-01 2.167489826679229736e-01
4.185000000000000000e+03 5.779762649536132812e+01 1.886966586112976074e+00 -2.541853487491607666e-01 5.509243011474609375e+00 1.576517343521118164e+00 1.658356338739395142e-01
4.186000000000000000e+03 5.564491653442382812e+01 -1.519632816314697266e+00 -1.647438257932662964e-01 4.988863468170166016e+00 1.447235941886901855e+00 1.499354392290115356e-01
4.187000000000000000e+03 4.867482757568359375e+01 1.537438011169433594e+01 3.819233775138854980e-01 2.842921733856201172e+00 9.674535393714904785e-01 8.639521598815917969e-01
4.188000000000000000e+03 4.953527832031250000e+01 1.457800960540771484e+01 2.868813872337341309e-01 3.230555057525634766e+00 1.055230975151062012e+00 9.045191407203674316e-01
4.189000000000000000e+03 4.657927703857421875e+01 1.470584869384765625e+01 4.179344177246093750e-01 2.310659646987915039e+00 8.185781836509704590e-01 6.203657388687133789e-01
4.190000000000000000e+03 4.513236236572265625e+01 3.650308549404144287e-01 6.672956049442291260e-02 2.698590040206909180e+00 8.295958638191223145e-01 1.819716095924377441e-01
4.191000000000000000e+03 4.366869735717773438e+01 4.590523242950439453e-01 8.450938016176223755e-02 2.378840208053588867e+00 7.390049099922180176e-01 1.622956693172454834e-01
4.192000000000000000e+03 4.367739105224609375e+01 7.599579334259033203e+00 2.305663973093032837e-01 2.139516115188598633e+00 7.110247611999511719e-01 2.621901333332061768e-01
4.193000000000000000e+03 5.740008163452148438e+01 -1.155869770050048828e+01 -7.195348292589187622e-02 5.202403545379638672e+00 1.539135098457336426e+00 4.720181971788406372e-02
4.194000000000000000e+03 5.648401260375976562e+01 -1.339607143402099609e+01 -6.089516356587409973e-02 5.011497497558593750e+00 1.485180735588073730e+00 5.218556523323059082e-02
4.195000000000000000e+03 5.523599624633789062e+01 -1.067661190032958984e+01 -6.756835430860519409e-02 4.811499118804931641e+00 1.423179268836975098e+00 6.483230739831924438e-02
4.196000000000000000e+03 3.951153945922851562e+01 -1.373346519470214844e+01 1.072038989514112473e-02 1.742424368858337402e+00 5.259433984756469727e-01 2.813880518078804016e-02
4.197000000000000000e+03 5.610362625122070312e+01 -6.977690219879150391e+00 -1.157635226845741272e-01 5.016251087188720703e+00 1.470146179199218750e+00 8.427423983812332153e-02
4.198000000000000000e+03 5.747430419921875000e+01 -5.145731449127197266e+00 -1.430760771036148071e-01 5.305188179016113281e+00 1.548633575439453125e+00 7.997140288352966309e-02
4.199000000000000000e+03 5.805387496948242188e+01 -1.460803031921386719e+01 -6.599186360836029053e-02 5.300800800323486328e+00 1.570442676544189453e+00 2.826348505914211273e-02
4.200000000000000000e+03 4.390980911254882812e+01 4.860061168670654297e+00 1.649815291166305542e-01 2.315242290496826172e+00 7.440671920776367188e-01 2.284162789583206177e-01
4.201000000000000000e+03 4.199357223510742188e+01 4.519289016723632812e+00 1.680246889591217041e-01 1.949826240539550781e+00 6.353552341461181641e-01 1.572771966457366943e-01
4.202000000000000000e+03 4.509134292602539062e+01 -4.308546066284179688e+00 1.485516224056482315e-02 2.745424509048461914e+00 8.280839323997497559e-01 1.196448728442192078e-01
4.203000000000000000e+03 5.812409210205078125e+01 -2.259552001953125000e+01 -2.409589476883411407e-02 5.289460659027099609e+00 1.579609394073486328e+00 1.859116740524768829e-02
4.204000000000000000e+03 5.836062240600585938e+01 -2.514760208129882812e+01 -1.946219056844711304e-02 5.326602458953857422e+00 1.592142105102539062e+00 2.046008594334125519e-02
4.205000000000000000e+03 6.097509765625000000e+01 2.452107620239257812e+01 -5.724736452102661133e-01 1.093374729156494141e+01 3.108381986618041992e+00 2.510243952274322510e-01
4.206000000000000000e+03 6.031339645385742188e+01 2.410430908203125000e+01 -7.315072417259216309e-01 1.058022212982177734e+01 2.954614639282226562e+00 7.486854195594787598e-01
4.207000000000000000e+03 5.943470764160156250e+01 2.262349319458007812e+01 -8.085944652557373047e-01 9.334199905395507812e+00 2.557681798934936523e+00 1.262197971343994141e+00
4.208000000000000000e+03 5.794966888427734375e+01 2.257249259948730469e+01 -5.683173537254333496e-01 8.329398155212402344e+00 2.328324317932128906e+00 1.978798151016235352e+00
4.209000000000000000e+03 5.887767028808593750e+01 2.232093811035156250e+01 -7.391959428787231445e-01 8.807824134826660156e+00 2.420588493347167969e+00 1.515614986419677734e+00
4.210000000000000000e+03 5.835990142822265625e+01 2.196316146850585938e+01 -6.699602007865905762e-01 8.372286796569824219e+00 2.310698032379150391e+00 1.667985558509826660e+00
4.211000000000000000e+03 5.787047958374023438e+01 2.150335884094238281e+01 -5.869393348693847656e-01 7.883315563201904297e+00 2.188912868499755859e+00 1.786432266235351562e+00
4.212000000000000000e+03 5.626531982421875000e+01 2.060968399047851562e+01 -2.710908353328704834e-01 6.517471790313720703e+00 1.873914361000061035e+00 1.952061176300048828e+00
4.213000000000000000e+03 5.691019439697265625e+01 2.158057212829589844e+01 -3.612242937088012695e-01 7.140754222869873047e+00 2.033859014511108398e+00 2.046503782272338867e+00
4.214000000000000000e+03 6.101872634887695312e+01 2.507695579528808594e+01 -4.115037918090820312e-01 1.127660655975341797e+01 3.259530782699584961e+00 1.116416081786155701e-01
4.215000000000000000e+03 6.140184783935546875e+01 2.011411285400390625e+01 -8.936259746551513672e-01 8.807619094848632812e+00 2.374197959899902344e+00 3.374215066432952881e-01
4.216000000000000000e+03 6.052390670776367188e+01 1.709959411621093750e+01 -8.327410221099853516e-01 7.740934371948242188e+00 2.072458028793334961e+00 5.196135044097900391e-01
4.217000000000000000e+03 6.027740097045898438e+01 1.779878234863281250e+01 -8.365312218666076660e-01 7.833756923675537109e+00 2.099167585372924805e+00 6.056180000305175781e-01
4.218000000000000000e+03 5.853148269653320312e+01 2.002260017395019531e+01 -7.111418247222900391e-01 7.796312808990478516e+00 2.125551223754882812e+00 1.308752655982971191e+00
4.219000000000000000e+03 6.049781036376953125e+01 2.275139427185058594e+01 -8.313938379287719727e-01 9.799542427062988281e+00 2.690444469451904297e+00 7.055744528770446777e-01
4.220000000000000000e+03 5.657312393188476562e+01 1.955054283142089844e+01 -3.759255111217498779e-01 6.536104202270507812e+00 1.848053574562072754e+00 1.677017331123352051e+00
4.221000000000000000e+03 6.190510177612304688e+01 2.225454330444335938e+01 -7.754284143447875977e-01 9.740413665771484375e+00 2.689495563507080078e+00 3.450181707739830017e-02
4.222000000000000000e+03 5.984529876708984375e+01 1.656541061401367188e+01 -7.752785086631774902e-01 7.447524547576904297e+00 2.001673698425292969e+00 6.249749064445495605e-01
4.223000000000000000e+03 5.122830581665039062e+01 1.667418670654296875e+01 2.780590951442718506e-01 3.663255214691162109e+00 1.182394266128540039e+00 1.211102485656738281e+00
4.224000000000000000e+03 5.424784088134765625e+01 1.761528778076171875e+01 -5.801643431186676025e-02 5.109900951385498047e+00 1.515565395355224609e+00 1.486974596977233887e+00
4.225000000000000000e+03 5.017061996459960938e+01 1.534773826599121094e+01 2.794808745384216309e-01 3.392381191253662109e+00 1.101558566093444824e+00 1.014315724372863770e+00
4.226000000000000000e+03 5.189149093627929688e+01 1.629583549499511719e+01 1.655749976634979248e-01 4.038272380828857422e+00 1.261154174804687500e+00 1.236967086791992188e+00
4.227000000000000000e+03 5.951939010620117188e+01 1.397141647338867188e+01 -6.725646853446960449e-01 6.884146690368652344e+00 1.863474607467651367e+00 5.253548026084899902e-01
4.228000000000000000e+03 5.860847854614257812e+01 1.350539684295654297e+01 -5.916583538055419922e-01 6.556261062622070312e+00 1.789380788803100586e+00 6.092677712440490723e-01
4.229000000000000000e+03 5.561977386474609375e+01 1.923753738403320312e+01 -2.035342752933502197e-01 5.907680988311767578e+00 1.711243987083435059e+00 1.726151823997497559e+00
4.230000000000000000e+03 5.499140548706054688e+01 1.808561706542968750e+01 -1.504275351762771606e-01 5.494995117187500000e+00 1.603370308876037598e+00 1.568322300910949707e+00
4.231000000000000000e+03 4.559308242797851562e+01 1.279561233520507812e+01 3.608933389186859131e-01 2.268501996994018555e+00 7.888185977935791016e-01 4.789893031120300293e-01
4.232000000000000000e+03 6.189872360229492188e+01 2.118933486938476562e+01 -8.619456887245178223e-01 9.275902748107910156e+00 2.524187088012695312e+00 1.357083469629287720e-01
4.233000000000000000e+03 5.352260208129882812e+01 1.780011558532714844e+01 6.600077450275421143e-02 4.700711250305175781e+00 1.430013537406921387e+00 1.503414869308471680e+00
4.234000000000000000e+03 5.904705047607421875e+01 1.284068679809570312e+01 -6.035198569297790527e-01 6.565057277679443359e+00 1.788461208343505859e+00 5.277614593505859375e-01
4.235000000000000000e+03 5.832730865478515625e+01 1.233654689788818359e+01 -5.344738364219665527e-01 6.288459300994873047e+00 1.726195573806762695e+00 5.712418556213378906e-01
4.236000000000000000e+03 5.262418365478515625e+01 1.630755233764648438e+01 9.952700883150100708e-02 4.295152187347412109e+00 1.318403720855712891e+00 1.259921908378601074e+00
4.237000000000000000e+03 5.339551925659179688e+01 1.703788948059082031e+01 3.602748736739158630e-02 4.669840335845947266e+00 1.411760330200195312e+00 1.396586656570434570e+00
4.238000000000000000e+03 4.430617141723632812e+01 6.039026260375976562e+00 1.823387891054153442e-01 2.357506752014160156e+00 7.619537115097045898e-01 2.682965695858001709e-01
4.239000000000000000e+03 4.523657608032226562e+01 8.208398818969726562e+00 2.199750393629074097e-01 2.451844930648803711e+00 8.015460371971130371e-01 3.530676960945129395e-01
4.240000000000000000e+03 4.322044372558593750e+01 1.027381324768066406e+01 3.125310540199279785e-01 1.891243577003479004e+00 6.611323952674865723e-01 2.682383954524993896e-01
4.241000000000000000e+03 4.499887466430664062e+01 1.369352245330810547e+01 4.069752693176269531e-01 2.025296688079833984e+00 7.296816110610961914e-01 4.382887184619903564e-01
4.242000000000000000e+03 5.572590637207031250e+01 -2.673627853393554688e+00 -1.495624780654907227e-01 4.979425907135009766e+00 1.448958992958068848e+00 1.339196413755416870e-01
4.243000000000000000e+03 5.606475067138671875e+01 1.238045811653137207e+00 -2.107421606779098511e-01 5.135558128356933594e+00 1.477444767951965332e+00 2.170712351799011230e-01
4.244000000000000000e+03 5.753945541381835938e+01 -8.210465312004089355e-01 -2.134787589311599731e-01 5.401531219482421875e+00 1.556415677070617676e+00 1.328786015510559082e-01
4.245000000000000000e+03 4.517778396606445312e+01 3.441888809204101562e+00 1.072623878717422485e-01 2.630792856216430664e+00 8.214166164398193359e-01 2.423663735389709473e-01
4.246000000000000000e+03 4.511371994018554688e+01 4.663503646850585938e+00 1.343778222799301147e-01 2.595442056655883789e+00 8.189460039138793945e-01 2.614184021949768066e-01
4.247000000000000000e+03 5.911191177368164062e+01 9.468154907226562500e+00 -4.974001944065093994e-01 6.220538139343261719e+00 1.716941475868225098e+00 3.352608680725097656e-01
4.248000000000000000e+03 5.802566909790039062e+01 1.067972850799560547e+01 -4.777342677116394043e-01 6.064216613769531250e+00 1.675944685935974121e+00 5.100489854812622070e-01
4.249000000000000000e+03 5.801643371582031250e+01 -2.027238655090332031e+01 -2.662055753171443939e-02 5.276526927947998047e+00 1.574971795082092285e+00 2.043618075549602509e-02
4.250000000000000000e+03 4.498687744140625000e+01 -6.551860332489013672e+00 8.272416889667510986e-03 2.791711330413818359e+00 8.399950861930847168e-01 8.889809250831604004e-02
4.251000000000000000e+03 4.477312088012695312e+01 7.120312690734863281e+00 1.969196349382400513e-01 2.409787178039550781e+00 7.820120453834533691e-01 3.118729591369628906e-01
4.252000000000000000e+03 5.609657669067382812e+01 4.441049575805664062e+00 -2.599233388900756836e-01 5.258486270904541016e+00 1.499568819999694824e+00 3.061566650867462158e-01
4.253000000000000000e+03 5.664384841918945312e+01 -1.465256881713867188e+01 -5.237641558051109314e-02 5.035333633422851562e+00 1.494887113571166992e+00 3.711692616343498230e-02
4.254000000000000000e+03 5.780837631225585938e+01 -1.305637073516845703e+01 -6.598113477230072021e-02 5.267947196960449219e+00 1.560589790344238281e+00 3.948570787906646729e-02
4.255000000000000000e+03 5.668509674072265625e+01 3.417075157165527344e+00 -2.618129253387451172e-01 5.387145519256591797e+00 1.537599802017211914e+00 2.383700758218765259e-01
4.256000000000000000e+03 5.341592025756835938e+01 3.085281133651733398e+00 -1.520019322633743286e-01 4.577500820159912109e+00 1.327649712562561035e+00 3.136015534400939941e-01
4.257000000000000000e+03 5.385644531250000000e+01 -1.763425254821777344e+01 -2.993769943714141846e-02 4.495221614837646484e+00 1.339585185050964355e+00 4.283015802502632141e-02
4.258000000000000000e+03 4.268046569824218750e+01 -1.048331546783447266e+01 1.072461996227502823e-02 2.330607891082763672e+00 7.023997306823730469e-01 5.691714584827423096e-02
4.259000000000000000e+03 6.119659423828125000e+01 2.254984092712402344e+01 -8.116804361343383789e-01 9.830302238464355469e+00 2.705586433410644531e+00 3.495337665081024170e-01
4.260000000000000000e+03 5.921969223022460938e+01 2.180592155456542969e+01 -7.917481064796447754e-01 8.790649414062500000e+00 2.399670600891113281e+00 1.312350273132324219e+00
4.261000000000000000e+03 5.919142913818359375e+01 2.101414489746093750e+01 -7.989964485168457031e-01 8.464881896972656250e+00 2.299765825271606445e+00 1.218896746635437012e+00
4.262000000000000000e+03 5.635856246948242188e+01 2.130867958068847656e+01 -2.562208771705627441e-01 6.694957733154296875e+00 1.931621074676513672e+00 2.085962057113647461e+00
4.263000000000000000e+03 5.743278884887695312e+01 2.207278442382812500e+01 -4.646106958389282227e-01 7.703446865081787109e+00 2.171650886535644531e+00 2.040107488632202148e+00
4.264000000000000000e+03 6.101900100708007812e+01 2.202870750427246094e+01 -8.530451655387878418e-01 9.587450981140136719e+00 2.620321989059448242e+00 4.488775134086608887e-01
4.265000000000000000e+03 5.800814056396484375e+01 1.152302455902099609e+01 -4.958044588565826416e-01 6.130233287811279297e+00 1.690328598022460938e+00 5.555252432823181152e-01
4.266000000000000000e+03 5.458168411254882812e+01 1.100552845001220703e+01 -2.306047379970550537e-01 5.055869102478027344e+00 1.447579264640808105e+00 7.203158736228942871e-01
4.267000000000000000e+03 6.117873001098632812e+01 2.089882469177246094e+01 -8.939498662948608398e-01 9.067763328552246094e+00 2.452144145965576172e+00 4.251986742019653320e-01
4.268000000000000000e+03 5.684394454956054688e+01 1.844673347473144531e+01 -4.525343477725982666e-01 6.545277118682861328e+00 1.827822923660278320e+00 1.434645175933837891e+00
4.269000000000000000e+03 6.061378097534179688e+01 1.995812988281250000e+01 -8.883906006813049316e-01 8.571190834045410156e+00 2.304839849472045898e+00 6.214280128479003906e-01
4.270000000000000000e+03 5.890769195556640625e+01 1.902843666076660156e+01 -7.484447956085205078e-01 7.686462402343750000e+00 2.081405401229858398e+00 1.070576906204223633e+00
4.271000000000000000e+03 5.944264984130859375e+01 1.795610809326171875e+01 -7.857970595359802246e-01 7.626178741455078125e+00 2.052114486694335938e+00 8.263990879058837891e-01
4.272000000000000000e+03 5.966229629516601562e+01 1.873580932617187500e+01 -8.183011412620544434e-01 7.914924144744873047e+00 2.128986835479736328e+00 8.430405855178833008e-01
4.273000000000000000e+03 5.977740859985351562e+01 1.525159740447998047e+01 -7.348585724830627441e-01 7.164151668548583984e+00 1.928787946701049805e+00 5.643898248672485352e-01
4.274000000000000000e+03 5.687993621826171875e+01 1.142658138275146484e+01 -4.192193448543548584e-01 5.793961524963378906e+00 1.612422585487365723e+00 6.416574716567993164e-01
4.275000000000000000e+03 6.137120056152343750e+01 2.314279747009277344e+01 -7.420402169227600098e-01 1.010868072509765625e+01 2.809992074966430664e+00 2.287726849317550659e-01
4.276000000000000000e+03 4.801562118530273438e+01 1.457543277740478516e+01 3.660913407802581787e-01 2.727745056152343750e+00 9.281508922576904297e-01 7.613846659660339355e-01
4.277000000000000000e+03 6.046986007690429688e+01 2.092337799072265625e+01 -8.778832554817199707e-01 8.878500938415527344e+00 2.400185346603393555e+00 6.891537308692932129e-01
4.278000000000000000e+03 6.150719451904296875e+01 2.174335861206054688e+01 -8.427039384841918945e-01 9.466655731201171875e+00 2.587185621261596680e+00 2.420309633016586304e-01
4.279000000000000000e+03 5.042783737182617188e+01 1.384100914001464844e+01 1.853263378143310547e-01 3.606615543365478516e+00 1.137582540512084961e+00 9.213057160377502441e-01
4.280000000000000000e+03 4.644199752807617188e+01 1.324048423767089844e+01 3.601834774017333984e-01 2.430353641510009766e+00 8.371611833572387695e-01 5.727539062500000000e-01
4.281000000000000000e+03 4.726679611206054688e+01 1.388450813293457031e+01 3.657731413841247559e-01 2.585534572601318359e+00 8.853923082351684570e-01 6.715029478073120117e-01
4.282000000000000000e+03 5.331756591796875000e+01 1.629547309875488281e+01 1.454770565032958984e-02 4.633646011352539062e+00 1.394458055496215820e+00 1.297093272209167480e+00
4.283000000000000000e+03 5.709715652465820312e+01 1.723809623718261719e+01 -4.982514679431915283e-01 6.500442981719970703e+00 1.800657510757446289e+00 1.221407890319824219e+00
4.284000000000000000e+03 5.419027328491210938e+01 1.688603782653808594e+01 -7.499309629201889038e-02 5.043708801269531250e+00 1.490614652633666992e+00 1.383363723754882812e+00
4.285000000000000000e+03 5.371395874023437500e+01 -1.391593575477600098e+00 -1.258001178503036499e-01 4.571627616882324219e+00 1.333748340606689453e+00 1.950652003288269043e-01
4.286000000000000000e+03 5.410280990600585938e+01 1.609622764587402344e+01 -9.278345853090286255e-02 4.990912914276123047e+00 1.469438791275024414e+00 1.287451744079589844e+00
4.287000000000000000e+03 5.751614761352539062e+01 1.801747703552246094e+01 -5.615940093994140625e-01 6.835533618927001953e+00 1.882181882858276367e+00 1.268338322639465332e+00
4.288000000000000000e+03 5.158630752563476562e+01 1.549515438079833984e+01 1.604484021663665771e-01 3.945585012435913086e+00 1.231809973716735840e+00 1.132820844650268555e+00
4.289000000000000000e+03 4.430838012695312500e+01 1.162287902832031250e+01 3.429718017578125000e-01 2.034246206283569336e+00 7.131654620170593262e-01 3.584891259670257568e-01
4.290000000000000000e+03 4.534510040283203125e+01 5.620906829833984375e+00 1.496933400630950928e-01 2.604846000671386719e+00 8.263618350028991699e-01 2.998663783073425293e-01
4.291000000000000000e+03 5.451493072509765625e+01 -7.835212349891662598e-01 -1.443282365798950195e-01 4.757186889648437500e+00 1.383857607841491699e+00 1.962405443191528320e-01
4.292000000000000000e+03 5.559918212890625000e+01 6.328447818756103516e+00 -2.684986293315887451e-01 5.172242641448974609e+00 1.471123218536376953e+00 3.910113871097564697e-01
4.293000000000000000e+03 5.513383102416992188e+01 5.128435611724853516e+00 -2.312415838241577148e-01 5.029713153839111328e+00 1.439541459083557129e+00 3.579566776752471924e-01
4.294000000000000000e+03 5.291846084594726562e+01 -7.575713157653808594e+00 -7.589971274137496948e-02 4.341378211975097656e+00 1.279643535614013672e+00 1.023426502943038940e-01
4.295000000000000000e+03 5.415114212036132812e+01 1.989056542515754700e-02 -1.432191282510757446e-01 4.704197406768798828e+00 1.368293404579162598e+00 2.213280498981475830e-01
4.296000000000000000e+03 5.712724685668945312e+01 7.556386470794677734e+00 -3.603756427764892578e-01 5.595670223236083984e+00 1.570588350296020508e+00 3.982558846473693848e-01
4.297000000000000000e+03 4.490892410278320312e+01 1.233725833892822266e+01 3.569537401199340820e-01 2.121204137802124023e+00 7.434473633766174316e-01 4.050454795360565186e-01
4.298000000000000000e+03 4.408421325683593750e+01 8.699543952941894531e+00 2.577199041843414307e-01 2.180756092071533203e+00 7.315427660942077637e-01 3.073309957981109619e-01
4.299000000000000000e+03 5.430789947509765625e+01 -4.118225574493408203e+00 -1.150906085968017578e-01 4.679445266723632812e+00 1.369306445121765137e+00 1.357721835374832153e-01
4.300000000000000000e+03 5.451395034790039062e+01 -7.322643756866455078e+00 -9.854740649461746216e-02 4.671952724456787109e+00 1.372021555900573730e+00 8.961705863475799561e-02
4.301000000000000000e+03 5.856729507446289062e+01 7.743010520935058594e+00 -4.281273782253265381e-01 5.981195449829101562e+00 1.665920376777648926e+00 2.997346520423889160e-01
4.302000000000000000e+03 5.578376007080078125e+01 7.593058586120605469e+00 -2.924928963184356689e-01 5.281209468841552734e+00 1.496614933013916016e+00 4.460341632366180420e-01
4.303000000000000000e+03 5.106155014038085938e+01 -9.517481803894042969e+00 -5.103383958339691162e-02 4.009180545806884766e+00 1.187443971633911133e+00 8.561040461063385010e-02
4.304000000000000000e+03 4.405760955810546875e+01 -1.221674251556396484e+01 1.028581638820469379e-03 2.623596191406250000e+00 7.873874306678771973e-01 5.311340466141700745e-02
4.305000000000000000e+03 5.340375137329101562e+01 -1.153505420684814453e+01 -5.784072726964950562e-02 4.437175273895263672e+00 1.313800334930419922e+00 7.001765817403793335e-02
4.306000000000000000e+03 5.464731979370117188e+01 -1.562689113616943359e+01 -4.549385234713554382e-02 4.649313449859619141e+00 1.381145834922790527e+00 4.903622344136238098e-02
4.307000000000000000e+03 5.359870147705078125e+01 -2.006732559204101562e+01 -2.979041077196598053e-02 4.437953472137451172e+00 1.322448968887329102e+00 4.165104404091835022e-02
4.308000000000000000e+03 5.601971435546875000e+01 -1.805775070190429688e+01 -3.395152464509010315e-02 4.918282985687255859e+00 1.465299367904663086e+00 2.946225740015506744e-02
4.309000000000000000e+03 6.045352554321289062e+01 2.152767372131347656e+01 -8.722863197326660156e-01 9.155430793762207031e+00 2.484943389892578125e+00 7.094870209693908691e-01
4.310000000000000000e+03 5.976018524169921875e+01 2.207261276245117188e+01 -8.373312950134277344e-01 9.206055641174316406e+00 2.510617256164550781e+00 1.051476359367370605e+00
4.311000000000000000e+03 6.071316909790039062e+01 2.334034538269042969e+01 -7.822198867797851562e-01 1.018531322479248047e+01 2.820928096771240234e+00 5.634046196937561035e-01
4.312000000000000000e+03 6.039712524414062500e+01 2.213722419738769531e+01 -8.557107448577880859e-01 9.461050033569335938e+00 2.581601858139038086e+00 7.565015554428100586e-01
4.313000000000000000e+03 5.821041107177734375e+01 1.940632820129394531e+01 -6.632137298583984375e-01 7.458977699279785156e+00 2.038729190826416016e+00 1.312361121177673340e+00
4.314000000000000000e+03 5.992171859741210938e+01 2.153788375854492188e+01 -8.452311158180236816e-01 8.976943969726562500e+00 2.439513683319091797e+00 9.406840205192565918e-01
4.315000000000000000e+03 5.876403427124023438e+01 2.144701766967773438e+01 -7.331512570381164551e-01 8.396519660949707031e+00 2.299010515213012695e+00 1.441468596458435059e+00
4.316000000000000000e+03 5.692530822753906250e+01 2.028762435913085938e+01 -4.212728738784790039e-01 6.905723571777343750e+00 1.945335149765014648e+00 1.770084381103515625e+00
4.317000000000000000e+03 5.788042449951171875e+01 1.873076248168945312e+01 -6.170535087585449219e-01 7.143362522125244141e+00 1.957892656326293945e+00 1.299068927764892578e+00
4.318000000000000000e+03 6.025822830200195312e+01 2.041542816162109375e+01 -8.686074614524841309e-01 8.629206657409667969e+00 2.328179836273193359e+00 7.398635745048522949e-01
4.319000000000000000e+03 4.565724563598632812e+01 1.187347316741943359e+01 3.326313495635986328e-01 2.348763942718505859e+00 8.044185638427734375e-01 4.703417420387268066e-01
4.320000000000000000e+03 5.986050033569335938e+01 1.940271186828613281e+01 -8.415278196334838867e-01 8.157521247863769531e+00 2.194797992706298828e+00 8.410716056823730469e-01
4.321000000000000000e+03 5.857262039184570312e+01 1.655006790161132812e+01 -6.720753312110900879e-01 7.023963451385498047e+00 1.905566334724426270e+00 8.689299225807189941e-01
4.322000000000000000e+03 5.826092147827148438e+01 1.762226295471191406e+01 -6.516635417938232422e-01 7.074115276336669922e+00 1.926735520362854004e+00 1.076969385147094727e+00
4.323000000000000000e+03 5.641793060302734375e+01 1.776204109191894531e+01 -3.914536237716674805e-01 6.228131771087646484e+00 1.751003384590148926e+00 1.376342177391052246e+00
4.324000000000000000e+03 5.622229766845703125e+01 1.886685180664062500e+01 -3.321564495563507080e-01 6.241567611694335938e+00 1.772823333740234375e+00 1.588473439216613770e+00
4.325000000000000000e+03 4.967127990722656250e+01 1.290405368804931641e+01 1.952255070209503174e-01 3.401124954223632812e+00 1.078905105590820312e+00 8.047124743461608887e-01
4.326000000000000000e+03 5.951992034912109375e+01 2.136902236938476562e+01 -8.342511653900146484e-01 8.776307106018066406e+00 2.382616758346557617e+00 1.121102213859558105e+00
4.327000000000000000e+03 6.102532196044921875e+01 2.152061080932617188e+01 -8.935409188270568848e-01 9.315045356750488281e+00 2.526451349258422852e+00 4.858247339725494385e-01
4.328000000000000000e+03 5.793698120117187500e+01 2.045938491821289062e+01 -6.155593991279602051e-01 7.588994026184082031e+00 2.092030286788940430e+00 1.553624629974365234e+00
4.329000000000000000e+03 4.451604461669921875e+01 9.840319633483886719e+00 2.829733192920684814e-01 2.210802555084228516e+00 7.481327652931213379e-01 3.493009805679321289e-01
4.330000000000000000e+03 5.843336486816406250e+01 1.543262100219726562e+01 -6.284569501876831055e-01 6.742881774902343750e+00 1.834327459335327148e+00 7.958499789237976074e-01
4.331000000000000000e+03 5.342656707763671875e+01 1.450385761260986328e+01 -7.302124798297882080e-02 4.710144042968750000e+00 1.391136884689331055e+00 1.076845169067382812e+00
4.332000000000000000e+03 5.792987060546875000e+01 1.615657997131347656e+01 -5.922952294349670410e-01 6.667514324188232422e+00 1.822565793991088867e+00 9.611550569534301758e-01
4.333000000000000000e+03 4.586025238037109375e+01 6.584423065185546875e+00 1.579035222530364990e-01 2.665612220764160156e+00 8.470547199249267578e-01 3.430315852165222168e-01
4.334000000000000000e+03 4.635184478759765625e+01 7.686117649078369141e+00 1.778208762407302856e-01 2.756795883178710938e+00 8.803850412368774414e-01 3.886392712593078613e-01
4.335000000000000000e+03 5.386639785766601562e+01 5.384855270385742188e+00 -1.813717484474182129e-01 4.713942050933837891e+00 1.359771013259887695e+00 4.012685120105743408e-01
4.336000000000000000e+03 5.250992202758789062e+01 1.498386669158935547e+01 4.744393005967140198e-02 4.339992523193359375e+00 1.316230893135070801e+00 1.131151556968688965e+00
4.337000000000000000e+03 5.625653839111328125e+01 1.339960479736328125e+01 -3.889435529708862305e-01 5.738945484161376953e+00 1.605000615119934082e+00 8.672862648963928223e-01
4.338000000000000000e+03 5.458339309692382812e+01 4.127727031707763672e+00 -1.951135247945785522e-01 4.861488342285156250e+00 1.399912476539611816e+00 3.278439640998840332e-01
4.339000000000000000e+03 4.680359649658203125e+01 8.815531730651855469e+00 1.932539194822311401e-01 2.801111698150634766e+00 8.983097076416015625e-01 4.493405520915985107e-01
4.340000000000000000e+03 4.881838607788085938e+01 1.377183246612548828e+01 2.930383384227752686e-01 3.037543058395385742e+00 9.991744160652160645e-01 7.960170507431030273e-01
4.341000000000000000e+03 4.655067825317382812e+01 3.656862974166870117e+00 8.106862008571624756e-02 2.944134235382080078e+00 9.075608849525451660e-01 2.884709835052490234e-01
4.342000000000000000e+03 5.045459747314453125e+01 9.025078773498535156e+00 3.256983682513237000e-02 3.780136108398437500e+00 1.143811821937561035e+00 5.986754894256591797e-01
4.343000000000000000e+03 5.590610504150390625e+01 1.580474567413330078e+01 -3.429148495197296143e-01 5.778583526611328125e+00 1.630700707435607910e+00 1.152327656745910645e+00
4.344000000000000000e+03 5.217022323608398438e+01 1.251935958862304688e+01 -9.556984528899192810e-03 4.247692108154296875e+00 1.271440505981445312e+00 8.704132437705993652e-01
4.345000000000000000e+03 5.706785964965820312e+01 1.034415149688720703e+01 -4.105199873447418213e-01 5.778881549835205078e+00 1.610508441925048828e+00 5.447540879249572754e-01
4.346000000000000000e+03 5.788012313842773438e+01 1.689776039123535156e+01 -5.937370657920837402e-01 6.770587921142578125e+00 1.853055357933044434e+00 1.043549656867980957e+00
4.347000000000000000e+03 5.583703231811523438e+01 1.714439773559570312e+01 -3.115955889225006104e-01 5.867393970489501953e+00 1.666739583015441895e+00 1.352615237236022949e+00
4.348000000000000000e+03 5.302394104003906250e+01 -2.516479253768920898e+00 -1.044752821326255798e-01 4.405786037445068359e+00 1.290393233299255371e+00 1.765390336513519287e-01
4.349000000000000000e+03 4.663502883911132812e+01 3.588737249374389648e-01 3.306306898593902588e-02 3.037046194076538086e+00 9.210327863693237305e-01 2.104141265153884888e-01
4.350000000000000000e+03 5.813136672973632812e+01 1.423233985900878906e+01 -5.724751353263854980e-01 6.484362602233886719e+00 1.773566246032714844e+00 7.222904562950134277e-01
4.351000000000000000e+03 5.768273544311523438e+01 1.294891262054443359e+01 -5.054435729980468750e-01 6.169888019561767578e+00 1.699333310127258301e+00 6.800465583801269531e-01
4.352000000000000000e+03 4.545418548583984375e+01 -1.387285423278808594e+01 -8.143254555761814117e-03 2.904670715332031250e+00 8.689582347869873047e-01 5.391372740268707275e-02
4.353000000000000000e+03 4.241190719604492188e+01 -1.382112693786621094e+01 6.853234022855758667e-03 2.294397592544555664e+00 6.903752088546752930e-01 4.755812138319015503e-02
4.354000000000000000e+03 4.657704544067382812e+01 -1.448350429534912109e+00 1.840529777109622955e-02 3.048505544662475586e+00 9.200732707977294922e-01 1.724918335676193237e-01
4.355000000000000000e+03 4.958897399902343750e+01 8.230997920036315918e-01 -3.621147572994232178e-02 3.674713134765625000e+00 1.091550469398498535e+00 2.539968788623809814e-01
4.356000000000000000e+03 5.137262725830078125e+01 -6.052743434906005859e+00 -7.028613239526748657e-02 4.061838150024414062e+00 1.197465658187866211e+00 1.266443282365798950e-01
4.357000000000000000e+03 5.269412231445312500e+01 -4.087374687194824219e+00 -9.082037210464477539e-02 4.340480804443359375e+00 1.274898171424865723e+00 1.537459492683410645e-01
4.358000000000000000e+03 4.795188140869140625e+01 3.854834794998168945e+00 4.746089503169059753e-02 3.251471281051635742e+00 9.896796941757202148e-01 3.242531120777130127e-01
4.359000000000000000e+03 4.560662841796875000e+01 -1.069102287292480469e+01 -1.141627132892608643e-02 2.907129049301147461e+00 8.687138557434082031e-01 7.178078591823577881e-02
4.360000000000000000e+03 4.841524887084960938e+01 -1.045867633819580078e+01 -3.303354978561401367e-02 3.466808080673217773e+00 1.030132293701171875e+00 8.605972677469253540e-02
4.361000000000000000e+03 5.458794403076171875e+01 -1.647044062614440918e+00 -1.467757076025009155e-01 4.751300811767578125e+00 1.381357431411743164e+00 1.717468053102493286e-01
4.362000000000000000e+03 5.308811187744140625e+01 -1.455266284942626953e+01 -3.799954056739807129e-02 4.390295028686523438e+00 1.305688738822937012e+00 5.322309210896492004e-02
4.363000000000000000e+03 5.291157531738281250e+01 -9.584730148315429688e+00 -5.989835783839225769e-02 4.346730232238769531e+00 1.286049604415893555e+00 7.758328318595886230e-02
4.364000000000000000e+03 3.975991821289062500e+01 -1.856716346740722656e+01 1.532353740185499191e-02 1.818551659584045410e+00 5.501625537872314453e-01 1.987228170037269592e-02
4.365000000000000000e+03 4.513148117065429688e+01 -1.737712669372558594e+01 -1.612084801308810711e-03 2.860241174697875977e+00 8.575887084007263184e-01 3.734328970313072205e-02
4.366000000000000000e+03 4.612166595458984375e+01 -5.423115253448486328e+00 -1.194380782544612885e-02 2.956298589706420898e+00 8.833064436912536621e-01 1.139067411422729492e-01
4.367000000000000000e+03 4.702651977539062500e+01 -1.217447757720947266e+01 -1.471379026770591736e-02 3.202198505401611328e+00 9.562454223632812500e-01 7.099037617444992065e-02
4.368000000000000000e+03 5.016610336303710938e+01 -1.859611892700195312e+01 -1.638103462755680084e-02 3.826813220977783203e+00 1.143129706382751465e+00 4.277565330266952515e-02
4.369000000000000000e+03 4.613664245605468750e+01 -3.138492584228515625e+00 1.868928223848342896e-02 2.990056753158569336e+00 9.026238322257995605e-01 1.503124684095382690e-01
4.370000000000000000e+03 5.834377670288085938e+01 2.099665832519531250e+01 -6.791166663169860840e-01 7.994487762451171875e+00 2.194611310958862305e+00 1.517889857292175293e+00
4.371000000000000000e+03 5.942164230346679688e+01 2.021330070495605469e+01 -8.194651603698730469e-01 8.268536567687988281e+00 2.234721422195434570e+00 1.038087010383605957e+00
4.372000000000000000e+03 5.861428070068359375e+01 1.833319091796875000e+01 -7.008699178695678711e-01 7.371133327484130859e+00 2.001079082489013672e+00 1.076299548149108887e+00
4.373000000000000000e+03 5.720840454101562500e+01 1.914714050292968750e+01 -5.085790157318115234e-01 6.871865272521972656e+00 1.908985972404479980e+00 1.502929091453552246e+00
4.374000000000000000e+03 5.885926437377929688e+01 2.056109046936035156e+01 -7.547917366027832031e-01 8.133546829223632812e+00 2.213626623153686523e+00 1.280303239822387695e+00
4.375000000000000000e+03 5.486697769165039062e+01 1.506397628784179688e+01 -2.283598482608795166e-01 5.294338703155517578e+00 1.519793629646301270e+00 1.107427716255187988e+00
4.376000000000000000e+03 5.716008758544921875e+01 1.578393840789794922e+01 -5.018764138221740723e-01 6.330948829650878906e+00 1.748721837997436523e+00 1.004998207092285156e+00
4.377000000000000000e+03 5.504198074340820312e+01 1.684079170227050781e+01 -2.034882754087448120e-01 5.474478244781494141e+00 1.581297039985656738e+00 1.356925725936889648e+00
4.378000000000000000e+03 5.577072143554687500e+01 1.506691551208496094e+01 -3.306134641170501709e-01 5.657104969024658203e+00 1.597947478294372559e+00 1.067623972892761230e+00
4.379000000000000000e+03 5.592270660400390625e+01 8.830744743347167969e+00 -3.174277842044830322e-01 5.378268718719482422e+00 1.518252372741699219e+00 5.153447985649108887e-01
4.380000000000000000e+03 5.452036285400390625e+01 7.710373401641845703e+00 -2.199962437152862549e-01 4.937686920166015625e+00 1.415307283401489258e+00 5.026062130928039551e-01
4.381000000000000000e+03 5.202544021606445312e+01 1.409177780151367188e+01 5.631367117166519165e-02 4.170144081115722656e+00 1.267937302589416504e+00 1.010869860649108887e+00
4.382000000000000000e+03 4.913486099243164062e+01 1.097743511199951172e+01 1.603134274482727051e-01 3.326545000076293945e+00 1.046057581901550293e+00 6.643018722534179688e-01
4.383000000000000000e+03 4.870796585083007812e+01 1.210167503356933594e+01 2.179175764322280884e-01 3.159638166427612305e+00 1.013266682624816895e+00 6.990161538124084473e-01
4.384000000000000000e+03 5.139476394653320312e+01 1.318930625915527344e+01 7.655531167984008789e-02 3.972995758056640625e+00 1.214865326881408691e+00 9.111919999122619629e-01
4.385000000000000000e+03 5.425697708129882812e+01 6.545123577117919922e+00 -2.048371881246566772e-01 4.820728778839111328e+00 1.384767532348632812e+00 4.496155381202697754e-01
4.386000000000000000e+03 4.713590240478515625e+01 1.240165424346923828e+01 3.082075119018554688e-01 2.667480468750000000e+00 8.927063941955566406e-01 5.996089577674865723e-01
4.387000000000000000e+03 4.510489273071289062e+01 1.091149806976318359e+01 3.093559145927429199e-01 2.263313770294189453e+00 7.718009352684020996e-01 4.050623774528503418e-01
4.388000000000000000e+03 4.569887542724609375e+01 9.310665130615234375e+00 2.429624348878860474e-01 2.518301248550415039e+00 8.283791542053222656e-01 4.008667469024658203e-01
4.389000000000000000e+03 4.763677978515625000e+01 1.155417346954345703e+01 2.452856302261352539e-01 2.884354591369628906e+00 9.388921260833740234e-01 5.927419662475585938e-01
4.390000000000000000e+03 5.765580749511718750e+01 1.498766136169433594e+01 -5.426576733589172363e-01 6.420036315917968750e+00 1.763213634490966797e+00 8.550961613655090332e-01
4.391000000000000000e+03 5.304529571533203125e+01 1.373706436157226562e+01 -5.172261968255043030e-02 4.534869194030761719e+00 1.344943881034851074e+00 9.897721409797668457e-01
4.392000000000000000e+03 4.623057937622070312e+01 1.042161750793457031e+01 2.530646324157714844e-01 2.586195468902587891e+00 8.517780303955078125e-01 4.622894823551177979e-01
4.393000000000000000e+03 4.742898559570312500e+01 7.174827098846435547e+00 1.255403012037277222e-01 3.056980133056640625e+00 9.547561407089233398e-01 4.171510934829711914e-01
4.394000000000000000e+03 4.692498397827148438e+01 5.900422096252441406e+00 1.084208190441131592e-01 2.968721151351928711e+00 9.231425523757934570e-01 3.564311265945434570e-01
4.395000000000000000e+03 5.388142776489257812e+01 1.525708198547363281e+01 -1.001280993223190308e-01 4.881921768188476562e+00 1.434538125991821289e+00 1.169018268585205078e+00
4.396000000000000000e+03 5.399080657958984375e+01 1.385906505584716797e+01 -1.559317559003829956e-01 4.935251235961914062e+00 1.433795928955078125e+00 1.000594258308410645e+00
4.397000000000000000e+03 4.817667388916015625e+01 -5.428811550140380859e+00 -2.980759367346763611e-02 3.405525922775268555e+00 1.012715458869934082e+00 1.358232349157333374e-01
4.398000000000000000e+03 4.989593887329101562e+01 -8.232749104499816895e-01 -4.430006444454193115e-02 3.768023014068603516e+00 1.117116928100585938e+00 2.207390666007995605e-01
4.399000000000000000e+03 5.230110931396484375e+01 1.609578847885131836e+00 -1.066872701048851013e-01 4.295640945434570312e+00 1.256686091423034668e+00 2.717967033386230469e-01
4.400000000000000000e+03 5.192998504638671875e+01 -1.615625381469726562e+00 -8.600337058305740356e-02 4.193962574005126953e+00 1.232387781143188477e+00 1.969722360372543335e-01
4.401000000000000000e+03 4.800153732299804688e+01 1.059728050231933594e+01 2.065522074699401855e-01 3.021200180053710938e+00 9.683257341384887695e-01 5.850841999053955078e-01
4.402000000000000000e+03 5.030146408081054688e+01 -7.035351753234863281e+00 -4.016065597534179688e-02 3.860766172409057617e+00 1.146181702613830566e+00 1.056551709771156311e-01
4.403000000000000000e+03 5.589667510986328125e+01 1.004460811614990234e+01 -3.292912840843200684e-01 5.434309005737304688e+00 1.531505227088928223e+00 5.979243516921997070e-01
4.404000000000000000e+03 5.223436355590820312e+01 4.285936355590820312e+00 -1.049705892801284790e-01 4.296283721923828125e+00 1.257393956184387207e+00 3.699219524860382080e-01
4.405000000000000000e+03 5.306698608398437500e+01 -6.453254222869873047e-01 -1.120126247406005859e-01 4.463545322418212891e+00 1.305459856986999512e+00 2.179522663354873657e-01
4.406000000000000000e+03 4.701852035522460938e+01 -9.217905998229980469e+00 -2.368524111807346344e-02 3.180758953094482422e+00 9.471220970153808594e-01 9.345146268606185913e-02
4.407000000000000000e+03 4.819686889648437500e+01 -7.737834930419921875e+00 -1.730162091553211212e-02 3.426779031753540039e+00 1.022843241691589355e+00 1.056410148739814758e-01
4.408000000000000000e+03 5.147838592529296875e+01 -7.601853847503662109e+00 -5.318639054894447327e-02 4.104966163635253906e+00 1.215533971786499023e+00 9.824937582015991211e-02
4.409000000000000000e+03 4.949244308471679688e+01 -8.712449073791503906e+00 -3.877630084753036499e-02 3.660401344299316406e+00 1.086487531661987305e+00 9.507689625024795532e-02
4.410000000000000000e+03 5.478529739379882812e+01 2.326731443405151367e+00 -1.916768252849578857e-01 4.875360965728759766e+00 1.405105352401733398e+00 2.800742387771606445e-01
4.411000000000000000e+03 5.261785888671875000e+01 5.574203968048095703e+00 -1.214842051267623901e-01 4.385256290435791016e+00 1.279131650924682617e+00 4.261887967586517334e-01
4.412000000000000000e+03 4.803356170654296875e+01 2.206277847290039062e+00 2.130125463008880615e-02 3.302121877670288086e+00 9.970269203186035156e-01 2.775552570819854736e-01
4.413000000000000000e+03 6.661090373992919922e+00 -3.687786865234375000e+01 -8.201771415770053864e-04 -6.407699547708034515e-03 -2.168362960219383240e-03 2.006327919661998749e-02
4.414000000000000000e+03 6.383188247680664062e+01 -3.279872512817382812e+01 2.667726250365376472e-03 6.370112895965576172e+00 1.911834239959716797e+00 -1.883446238934993744e-03
4.415000000000000000e+03 5.916958618164062500e+01 1.966059684753417969e+01 -7.904245853424072266e-01 7.979315757751464844e+00 2.156667470932006836e+00 1.065642595291137695e+00
4.416000000000000000e+03 5.684217071533203125e+01 1.456982994079589844e+01 -4.589096605777740479e-01 6.074095249176025391e+00 1.684555649757385254e+00 9.263306260108947754e-01
4.417000000000000000e+03 5.647526931762695312e+01 1.529703140258789062e+01 -4.246189594268798828e-01 6.010040760040283203e+00 1.675626516342163086e+00 1.050671696662902832e+00
4.418000000000000000e+03 5.066540145874023438e+01 1.223283672332763672e+01 1.034463122487068176e-01 3.733461618423461914e+00 1.151072382926940918e+00 7.952216863632202148e-01
4.419000000000000000e+03 5.313230514526367188e+01 1.282054996490478516e+01 -8.199750632047653198e-02 4.564392089843750000e+00 1.344718456268310547e+00 9.136521220207214355e-01
4.420000000000000000e+03 5.441475296020507812e+01 1.200376319885253906e+01 -2.190927118062973022e-01 5.028075218200683594e+00 1.442694664001464844e+00 8.189693093299865723e-01
4.421000000000000000e+03 5.246717071533203125e+01 1.087411880493164062e+01 -6.747627258300781250e-02 4.383228778839111328e+00 1.294725656509399414e+00 7.472431063652038574e-01
4.422000000000000000e+03 5.162483596801757812e+01 1.184055423736572266e+01 2.210379019379615784e-02 4.072533130645751953e+00 1.228391051292419434e+00 8.086369633674621582e-01
4.423000000000000000e+03 5.662847900390625000e+01 1.245952701568603516e+01 -4.124562442302703857e-01 5.795979499816894531e+00 1.615056991577148438e+00 7.422249317169189453e-01
4.424000000000000000e+03 5.723086929321289062e+01 1.377243900299072266e+01 -4.813868105411529541e-01 6.112001419067382812e+00 1.689184427261352539e+00 8.016420602798461914e-01
4.425000000000000000e+03 4.944125747680664062e+01 2.422427415847778320e+00 -1.631811447441577911e-02 3.625111579895019531e+00 1.082638025283813477e+00 3.037289381027221680e-01
4.426000000000000000e+03 4.845326614379882812e+01 6.742126464843750000e+00 7.775644958019256592e-02 3.309163570404052734e+00 1.016075968742370605e+00 4.380014240741729736e-01
4.427000000000000000e+03 5.310098648071289062e+01 6.735890388488769531e+00 -1.438130736351013184e-01 4.534027576446533203e+00 1.317064404487609863e+00 4.885003566741943359e-01
4.428000000000000000e+03 5.336559677124023438e+01 7.838855266571044922e+00 -1.566373258829116821e-01 4.622372150421142578e+00 1.339720368385314941e+00 5.443766117095947266e-01
4.429000000000000000e+03 4.724378204345703125e+01 9.899580955505371094e+00 2.176320701837539673e-01 2.847768783569335938e+00 9.196202754974365234e-01 5.095651149749755859e-01
4.430000000000000000e+03 5.351514434814453125e+01 4.237034797668457031e+00 -1.579200774431228638e-01 4.627427101135253906e+00 1.340852141380310059e+00 3.615003526210784912e-01
4.431000000000000000e+03 5.032826614379882812e+01 1.110113620758056641e+01 9.315802156925201416e-02 3.670307636260986328e+00 1.129039645195007324e+00 7.135205864906311035e-01
4.432000000000000000e+03 5.245285415649414062e+01 1.174104595184326172e+01 -4.958160966634750366e-02 4.385490894317626953e+00 1.300772786140441895e+00 8.165535926818847656e-01
4.433000000000000000e+03 4.812665557861328125e+01 5.054545998573303223e-01 -4.837551969103515148e-04 3.349854946136474609e+00 1.004811406135559082e+00 2.374173849821090698e-01
4.434000000000000000e+03 4.878040695190429688e+01 -3.127222537994384766e+00 -2.184955216944217682e-02 3.524626970291137695e+00 1.050833225250244141e+00 1.611404716968536377e-01
4.435000000000000000e+03 4.940250015258789062e+01 -4.754106998443603516e+00 -4.186299815773963928e-02 3.666917324066162109e+00 1.087516307830810547e+00 1.324784457683563232e-01
4.436000000000000000e+03 5.005693817138671875e+01 -1.162186527252197266e+01 -3.766490519046783447e-02 3.800578117370605469e+00 1.128873944282531738e+00 7.658768445253372192e-02
4.437000000000000000e+03 5.164937973022460938e+01 -1.303809165954589844e+01 -4.028485342860221863e-02 4.104393482208251953e+00 1.219232559204101562e+00 6.194877997040748596e-02
4.438000000000000000e+03 4.808714294433593750e+01 5.400041580200195312e+00 6.583882123231887817e-02 3.246652126312255859e+00 9.937472939491271973e-01 3.732495903968811035e-01
4.439000000000000000e+03 4.892381668090820312e+01 7.911444187164306641e+00 8.246191591024398804e-02 3.410864353179931641e+00 1.047997832298278809e+00 5.048301815986633301e-01
4.440000000000000000e+03 5.131712341308593750e+01 -2.275030314922332764e-01 -7.603617757558822632e-02 4.054342269897460938e+00 1.193491816520690918e+00 2.318296432495117188e-01
4.441000000000000000e+03 5.098723983764648438e+01 1.217103123664855957e+00 -6.946914643049240112e-02 3.996606826782226562e+00 1.178141236305236816e+00 2.698429822921752930e-01
4.442000000000000000e+03 4.828223419189453125e+01 -1.333437442779541016e+00 -1.142595149576663971e-02 3.412624120712280273e+00 1.020359396934509277e+00 1.957021355628967285e-01
4.443000000000000000e+03 5.495348358154296875e+01 1.410683059692382812e+01 -2.461927682161331177e-01 5.282949924468994141e+00 1.511027097702026367e+00 1.001717567443847656e+00
4.444000000000000000e+03 5.523274993896484375e+01 1.314960575103759766e+01 -2.813583314418792725e-01 5.353731155395507812e+00 1.521711826324462891e+00 8.852373361587524414e-01
4.445000000000000000e+03 5.595357513427734375e+01 1.427125930786132812e+01 -3.553695976734161377e-01 5.689100265502929688e+00 1.600119113922119141e+00 9.788079261779785156e-01
4.446000000000000000e+03 5.648216629028320312e+01 1.649527931213378906e+01 -4.128631353378295898e-01 6.110060691833496094e+00 1.709159255027770996e+00 1.188939452171325684e+00
4.447000000000000000e+03 5.337943649291992188e+01 1.187001895904541016e+01 -1.229767352342605591e-01 4.668860912322998047e+00 1.363765239715576172e+00 8.137281537055969238e-01
4.448000000000000000e+03 5.144215393066406250e+01 1.094564247131347656e+01 1.620436087250709534e-02 4.043326377868652344e+00 1.217859268188476562e+00 7.510971426963806152e-01
4.449000000000000000e+03 4.927938842773437500e+01 9.751152038574218750e+00 1.104358211159706116e-01 3.428491592407226562e+00 1.061678290367126465e+00 5.936524868011474609e-01
4.450000000000000000e+03 5.466258621215820312e+01 8.853201866149902344e+00 -2.367292940616607666e-01 5.016452789306640625e+00 1.433917045593261719e+00 5.715922713279724121e-01
4.451000000000000000e+03 5.063845062255859375e+01 5.490720272064208984e+00 -3.608464822173118591e-02 3.919437646865844727e+00 1.165005922317504883e+00 4.229989945888519287e-01
4.452000000000000000e+03 4.790922927856445312e+01 8.401280403137207031e+00 1.353352218866348267e-01 3.132885456085205078e+00 9.804661870002746582e-01 4.931826889514923096e-01
4.453000000000000000e+03 5.549502563476562500e+01 1.218632888793945312e+01 -3.109237551689147949e-01 5.398486137390136719e+00 1.526268720626831055e+00 7.892184257507324219e-01
4.454000000000000000e+03 5.035768890380859375e+01 9.979002952575683594e+00 6.129286065697669983e-02 3.723684310913085938e+00 1.135493159294128418e+00 6.467879414558410645e-01
4.455000000000000000e+03 5.217969894409179688e+01 2.920046567916870117e+00 -1.062042266130447388e-01 4.275588512420654297e+00 1.250815272331237793e+00 3.189712166786193848e-01
4.456000000000000000e+03 5.166322326660156250e+01 6.072463989257812500e+00 -7.594950497150421143e-02 4.150624752044677734e+00 1.222402572631835938e+00 4.448704421520233154e-01
4.457000000000000000e+03 5.084289169311523438e+01 2.689533233642578125e+00 -6.241301447153091431e-02 3.965059280395507812e+00 1.170793890953063965e+00 3.107552826404571533e-01
4.458000000000000000e+03 4.731155776977539062e+01 -4.141674995422363281e+00 -1.041167508810758591e-02 3.211304426193237305e+00 9.602678418159484863e-01 1.413530260324478149e-01
4.459000000000000000e+03 4.936498260498046875e+01 5.304820060729980469e+00 1.902719400823116302e-02 3.570861101150512695e+00 1.076966524124145508e+00 3.965911865234375000e-01
4.460000000000000000e+03 5.353926849365234375e+01 9.926597595214843750e+00 -1.609282493591308594e-01 4.708608150482177734e+00 1.364303946495056152e+00 6.650388240814208984e-01
4.461000000000000000e+03 4.937569808959960938e+01 3.936414957046508789e+00 1.842668862082064152e-03 3.594032526016235352e+00 1.078762531280517578e+00 3.527799844741821289e-01
4.462000000000000000e+03 5.098220062255859375e+01 -4.334519863128662109e+00 -6.457652896642684937e-02 3.993166685104370117e+00 1.178577065467834473e+00 1.563462018966674805e-01
4.463000000000000000e+03 5.047826766967773438e+01 -2.497056484222412109e+00 -6.133922562003135681e-02 3.895329952239990234e+00 1.150197267532348633e+00 1.877308338880538940e-01
4.464000000000000000e+03 4.917335891723632812e+01 -6.277836322784423828e+00 -3.086526691913604736e-02 3.627361536026000977e+00 1.078948855400085449e+00 1.246158555150032043e-01
4.465000000000000000e+03 3.461774826049804688e+01 -3.103564262390136719e+01 1.026810426265001297e-02 9.075097441673278809e-01 2.753333449363708496e-01 1.302299741655588150e-02
4.466000000000000000e+03 2.566369247436523438e+01 -3.936611938476562500e+01 1.292683631181716919e-01 -7.566900253295898438e-01 -1.882265061140060425e-01 5.565416812896728516e-02
4.467000000000000000e+03 7.969007015228271484e+00 4.132037353515625000e+01 9.516803402220830321e-06 1.448171769879991189e-05 7.199555966508341953e-06 1.541007222840562463e-04
4.468000000000000000e+03 5.245561981201171875e+01 9.938646316528320312e+00 -8.011344820261001587e-02 4.368884086608886719e+00 1.286631107330322266e+00 6.786667108535766602e-01
4.469000000000000000e+03 4.820321655273437500e+01 9.574670791625976562e+00 1.568591296672821045e-01 3.162830114364624023e+00 9.959067702293395996e-01 5.495585203170776367e-01
4.470000000000000000e+03 5.127325439453125000e+01 7.989125251770019531e+00 -3.359745815396308899e-02 4.008349895477294922e+00 1.192425727844238281e+00 5.429108738899230957e-01
4.471000000000000000e+03 5.081810379028320312e+01 4.162651538848876953e+00 -5.178389698266983032e-02 3.956340789794921875e+00 1.171367049217224121e+00 3.682589530944824219e-01
4.472000000000000000e+03 5.349991989135742188e+01 8.901435852050781250e+00 -1.632806360721588135e-01 4.677511215209960938e+00 1.354269146919250488e+00 5.966311097145080566e-01
4.473000000000000000e+03 5.467778015136718750e+01 9.955461502075195312e+00 -2.388081848621368408e-01 5.047470569610595703e+00 1.442598700523376465e+00 6.395385861396789551e-01
4.474000000000000000e+03 5.350102996826171875e+01 1.091148662567138672e+01 -1.447545886039733887e-01 4.707837581634521484e+00 1.368924975395202637e+00 7.377405166625976562e-01
4.475000000000000000e+03 5.140490722656250000e+01 9.980979919433593750e+00 -4.202645272016525269e-03 4.035147666931152344e+00 1.209283471107482910e+00 6.832217574119567871e-01
4.476000000000000000e+03 5.214294815063476562e+01 6.961661338806152344e+00 -9.700537472963333130e-02 4.303227901458740234e+00 1.261866688728332520e+00 4.966900944709777832e-01
4.477000000000000000e+03 5.230402374267578125e+01 7.949706077575683594e+00 -9.922891110181808472e-02 4.329021453857421875e+00 1.268937706947326660e+00 5.467213392257690430e-01
4.478000000000000000e+03 5.138757324218750000e+01 9.002096176147460938e+00 -2.274250611662864685e-02 4.031578063964843750e+00 1.202650666236877441e+00 6.113495826721191406e-01
4.479000000000000000e+03 5.034841918945312500e+01 6.608784675598144531e+00 -1.369760930538177490e-02 3.814649343490600586e+00 1.140285611152648926e+00 4.749986529350280762e-01
4.480000000000000000e+03 2.479589271545410156e+01 -3.392695999145507812e+01 -5.634739995002746582e-02 -8.939824104309082031e-01 -2.850989401340484619e-01 6.694430951029062271e-03
4.481000000000000000e+03 5.180947875976562500e+01 -1.657085227966308594e+01 -3.267915174365043640e-02 4.125114440917968750e+00 1.227730631828308105e+00 5.743076652288436890e-02
4.482000000000000000e+03 5.125380325317382812e+01 6.962870597839355469e+00 -4.256677627563476562e-02 4.004238128662109375e+00 1.188501477241516113e+00 4.871301651000976562e-01
4.483000000000000000e+03 5.241027069091796875e+01 8.956995010375976562e+00 -9.456763416528701782e-02 4.349543571472167969e+00 1.276492834091186523e+00 6.133714914321899414e-01
4.484000000000000000e+03 5.420566940307617188e+01 1.295430850982666016e+01 -1.906977444887161255e-01 5.003143787384033203e+00 1.443733811378479004e+00 9.146683216094970703e-01
4.485000000000000000e+03 4.943016815185546875e+01 6.465692043304443359e+00 2.780139259994029999e-02 3.569944143295288086e+00 1.079323649406433105e+00 4.434244036674499512e-01
4.486000000000000000e+03 7.265214538574218750e+01 4.142892456054687500e+01 -2.980128526687622070e-01 7.446182250976562500e+00 2.144450664520263672e+00 1.247440278530120850e-01
4.487000000000000000e+03 4.847366333007812500e+01 -1.701654243469238281e+01 -1.503349933773279190e-02 3.489959478378295898e+00 1.042477846145629883e+00 4.829712212085723877e-02
4.488000000000000000e+03 4.960999679565429688e+01 8.745491981506347656e+00 7.389974594116210938e-02 3.525582790374755859e+00 1.079844713211059570e+00 5.566042661666870117e-01
4.489000000000000000e+03 5.010049819946289062e+01 -1.503827762603759766e+01 -3.312051668763160706e-02 3.777837276458740234e+00 1.123414993286132812e+00 5.893130972981452942e-02
4.490000000000000000e+03 2.574840927124023438e+01 -2.708993721008300781e+01 -3.058855421841144562e-03 -7.824134826660156250e-01 -2.356416881084442139e-01 -5.348961055278778076e-02
4.491000000000000000e+03 4.077373886108398438e+01 -2.069916534423828125e+01 9.111557155847549438e-03 2.028209686279296875e+00 6.111963987350463867e-01 1.611783169209957123e-02
4.492000000000000000e+03 4.311018371582031250e+01 -1.932986831665039062e+01 2.780060051009058952e-03 2.455175161361694336e+00 7.373865842819213867e-01 3.077934123575687408e-02
4.493000000000000000e+03 4.834807205200195312e+01 -2.055279541015625000e+01 -1.925266161561012268e-02 3.449139595031738281e+00 1.028966069221496582e+00 3.414712846279144287e-02
4.494000000000000000e+03 4.668669128417968750e+01 -1.904887008666992188e+01 -4.360694438219070435e-03 3.152279615402221680e+00 9.443756937980651855e-01 4.027390852570533752e-02
4.495000000000000000e+03 1.195740795135498047e+01 -4.138095855712890625e+01 -7.768411189317703247e-02 -3.375052288174629211e-02 -3.343039005994796753e-02 1.550974883139133453e-02
4.496000000000000000e+03 4.372545242309570312e+01 -1.558463668823242188e+01 -4.152452107518911362e-03 2.567920923233032227e+00 7.691305279731750488e-01 3.661371767520904541e-02
4.497000000000000000e+03 4.182338333129882812e+01 -1.721094131469726562e+01 3.091241233050823212e-03 2.188651323318481445e+00 6.575227379798889160e-01 3.374141454696655273e-02
4.498000000000000000e+03 3.347665023803710938e+01 -2.688693809509277344e+01 -1.088478602468967438e-03 7.225648760795593262e-01 2.164429128170013428e-01 -1.434170058928430080e-03
4.499000000000000000e+03 3.544885635375976562e+01 -2.580339622497558594e+01 6.877013947814702988e-03 1.043226718902587891e+00 3.150311410427093506e-01 3.478061780333518982e-02
4.500000000000000000e+03 5.144734191894531250e+01 -2.042805099487304688e+01 -2.439629472792148590e-02 4.058857440948486328e+00 1.210338354110717773e+00 4.219070822000503540e-02
4.501000000000000000e+03 3.560705566406250000e+01 -2.084494209289550781e+01 1.048345118761062622e-03 1.026262402534484863e+00 3.081932365894317627e-01 1.071349158883094788e-02
4.502000000000000000e+03 5.613073730468750000e+01 -2.823092842102050781e+01 -1.308280322700738907e-02 4.924111366271972656e+00 1.473308682441711426e+00 1.700545102357864380e-02
4.503000000000000000e+03 6.829329681396484375e+01 3.819172286987304688e+01 -2.538154721260070801e-01 9.413113594055175781e+00 2.747789382934570312e+00 5.462519526481628418e-01
4.504000000000000000e+03 3.139983367919921875e+01 -3.422657012939453125e+01 1.421765703707933426e-02 3.333264291286468506e-01 1.042632311582565308e-01 3.661723807454109192e-02
4.505000000000000000e+03 2.928091812133789062e+01 -3.395437622070312500e+01 -1.776086911559104919e-02 -1.071930676698684692e-01 -3.748618066310882568e-02 8.069026283919811249e-03
4.506000000000000000e+03 4.422985458374023438e+01 3.819073104858398438e+01 2.249432653188705444e-01 -2.705735862255096436e-01 -1.368909329175949097e-02 3.621650338172912598e-01
4.507000000000000000e+03 6.628305816650390625e+01 -3.785063552856445312e+01 9.969484061002731323e-03 6.817869186401367188e+00 2.048351526260375977e+00 4.708699416369199753e-03
4.508000000000000000e+03 7.548830413818359375e+01 -3.631565475463867188e+01 -2.618521265685558319e-02 8.601855278015136719e+00 2.572700977325439453e+00 -2.109360881149768829e-03
4.509000000000000000e+03 3.840214538574218750e+01 -2.663216400146484375e+01 9.100693278014659882e-03 1.572166562080383301e+00 4.743801653385162354e-01 3.250170126557350159e-02
4.510000000000000000e+03 3.430643844604492188e+01 -2.885707473754882812e+01 1.145601086318492889e-02 8.777812123298645020e-01 2.667711675167083740e-01 2.805388346314430237e-02
4.511000000000000000e+03 7.015390396118164062e+00 3.633771133422851562e+01 5.509264155989512801e-06 -7.190317410277202725e-05 -1.991817225643899292e-05 -7.140193338273093104e-05
4.512000000000000000e+03 7.723460197448730469e+00 3.461112213134765625e+01 -5.424075425253249705e-05 1.193718562717549503e-04 1.953933133336249739e-05 9.416606917511671782e-05
4.513000000000000000e+03 4.108976364135742188e+01 -2.304738426208496094e+01 7.166255265474319458e-03 2.084295511245727539e+00 6.274385452270507812e-01 8.190499618649482727e-03
4.514000000000000000e+03 4.679778671264648438e+01 -2.280500411987304688e+01 -2.792000072076916695e-03 3.166580200195312500e+00 9.491364359855651855e-01 2.298243530094623566e-02
4.515000000000000000e+03 5.368119049072265625e+01 -2.265343093872070312e+01 -1.667299121618270874e-02 4.449573040008544922e+00 1.329870104789733887e+00 2.953106537461280823e-02
4.516000000000000000e+03 4.479695129394531250e+01 -2.127894020080566406e+01 -2.252510981634259224e-03 2.772310018539428711e+00 8.310172557830810547e-01 2.849816717207431793e-02
4.517000000000000000e+03 3.911658477783203125e+01 -2.352105712890625000e+01 5.423054099082946777e-03 1.666649222373962402e+00 5.016217231750488281e-01 2.989426255226135254e-02
4.518000000000000000e+03 6.163743019104003906e+00 3.840574645996093750e+01 -1.885751771624200046e-05 8.571526996092870831e-05 2.005732494581025094e-05 7.564458064734935760e-05
4.519000000000000000e+03 6.115415573120117188e+01 -2.727055168151855469e+01 -1.042314525693655014e-02 5.851043224334716797e+00 1.752186059951782227e+00 1.099317055195569992e-02
4.520000000000000000e+03 3.638236999511718750e+01 -2.791149520874023438e+01 5.934251472353935242e-03 1.196118474006652832e+00 3.606157898902893066e-01 2.624212205410003662e-02
4.521000000000000000e+03 4.992662429809570312e+01 -2.187927627563476562e+01 -1.047672703862190247e-02 3.739197015762329102e+00 1.118616104125976562e+00 3.944088891148567200e-02
4.522000000000000000e+03 6.985884094238281250e+01 4.018624114990234375e+01 -4.087333083152770996e-01 8.683783531188964844e+00 2.482515096664428711e+00 1.818967461585998535e-01
4.523000000000000000e+03 2.865901947021484375e+01 -4.063914871215820312e+01 1.297826617956161499e-01 -2.567660510540008545e-01 -3.809501975774765015e-02 1.659889146685600281e-02
4.524000000000000000e+03 6.178483200073242188e+01 -3.765519714355468750e+01 7.713373750448226929e-03 6.001742362976074219e+00 1.802836656570434570e+00 5.929942708462476730e-03
4.525000000000000000e+03 5.716380310058593750e+01 -3.782175445556640625e+01 7.930286228656768799e-03 5.106357097625732422e+00 1.534286141395568848e+00 5.681838840246200562e-03
4.526000000000000000e+03 3.855397796630859375e+01 -3.693048858642578125e+01 3.770994022488594055e-02 1.630123019218444824e+00 5.003498792648315430e-01 1.841174811124801636e-02
4.527000000000000000e+03 3.411091613769531250e+01 -3.730684661865234375e+01 3.815833851695060730e-02 7.643196582794189453e-01 2.407433986663818359e-01 2.386168017983436584e-02
4.528000000000000000e+03 7.154727172851562500e+01 -4.102589035034179688e+01 3.987290896475315094e-03 7.840621471405029297e+00 2.353382587432861328e+00 -6.352697964757680893e-03
4.529000000000000000e+03 6.079724502563476562e+01 -3.415694046020507812e+01 -1.439921557903289795e-03 5.827771663665771484e+00 1.747899532318115234e+00 1.251226011663675308e-02
4.530000000000000000e+03 5.881561279296875000e+01 -2.789916229248046875e+01 -1.261411421000957489e-02 5.410336971282958984e+00 1.619316935539245605e+00 1.977406814694404602e-02
4.531000000000000000e+03 4.540001296997070312e+01 -2.535879325866699219e+01 1.830056193284690380e-03 2.913253784179687500e+00 8.745251893997192383e-01 2.818875014781951904e-02
4.532000000000000000e+03 4.013758468627929688e+01 -2.507688903808593750e+01 1.976029574871063232e-02 1.896220207214355469e+00 5.747941732406616211e-01 2.036709897220134735e-02
4.533000000000000000e+03 4.180787658691406250e+01 -2.651601028442382812e+01 9.635701775550842285e-03 2.193402528762817383e+00 6.609114408493041992e-01 -6.946372799575328827e-03
4.534000000000000000e+03 5.350557708740234375e+01 -2.532369041442871094e+01 -5.527620203793048859e-03 4.431957721710205078e+00 1.327929019927978516e+00 2.395079657435417175e-02
4.535000000000000000e+03 6.217161941528320312e+01 -2.994710922241210938e+01 -1.061976142227649689e-02 6.019450187683105469e+00 1.802649140357971191e+00 3.337251488119363785e-03
4.536000000000000000e+03 5.035207748413085938e+01 -2.765119171142578125e+01 1.016837079077959061e-02 3.832304000854492188e+00 1.152741670608520508e+00 2.479952946305274963e-02
4.537000000000000000e+03 4.884117889404296875e+01 -2.406761360168457031e+01 5.411095917224884033e-04 3.550961017608642578e+00 1.065450668334960938e+00 3.401681408286094666e-02
4.538000000000000000e+03 4.164919281005859375e+01 -3.119910621643066406e+01 1.613812893629074097e-02 2.182904243469238281e+00 6.597127318382263184e-01 1.106707565486431122e-02
4.539000000000000000e+03 4.384902191162109375e+01 -2.819245529174804688e+01 1.421416178345680237e-02 2.633113384246826172e+00 7.941982746124267578e-01 1.928762719035148621e-02
4.540000000000000000e+03 4.771802520751953125e+01 -2.667709541320800781e+01 1.164765376597642899e-02 3.342501401901245117e+00 1.006244659423828125e+00 2.923925407230854034e-02
4.541000000000000000e+03 4.463516998291015625e+01 -3.312544631958007812e+01 2.753704227507114410e-02 2.712166070938110352e+00 8.219109773635864258e-01 2.342677488923072815e-02
4.542000000000000000e+03 5.958247756958007812e+01 -3.087014389038085938e+01 -6.011343561112880707e-03 5.570919036865234375e+00 1.669472336769104004e+00 1.628314889967441559e-02
4.543000000000000000e+03 5.681533432006835938e+01 -3.456060028076171875e+01 6.344254594296216965e-03 5.052119731903076172e+00 1.517539262771606445e+00 1.814131857827305794e-03
4.544000000000000000e+03 4.950566101074218750e+01 -3.071984291076660156e+01 3.261680249124765396e-03 3.648712635040283203e+00 1.095592260360717773e+00 1.987799070775508881e-02
4.545000000000000000e+03 4.638710784912109375e+01 -2.968208312988281250e+01 1.254159398376941681e-02 3.081003427505493164e+00 9.280635118484497070e-01 2.998370304703712463e-02
4.546000000000000000e+03 4.862438201904296875e+01 -3.405464935302734375e+01 1.899203099310398102e-02 3.493182897567749023e+00 1.053652405738830566e+00 8.591369725763797760e-03
4.547000000000000000e+03 5.257195281982421875e+01 -3.776590347290039062e+01 1.730240322649478912e-02 4.245454311370849609e+00 1.278826951980590820e+00 2.413425390841439366e-04
4.548000000000000000e+03 5.272327423095703125e+01 -3.451509857177734375e+01 1.265926565974950790e-02 4.273849010467529297e+00 1.285952568054199219e+00 1.595732569694519043e-02
4.549000000000000000e+03 2.060482597351074219e+01 3.400358963012695312e+01 -8.058706880547106266e-04 8.568048477172851562e-03 2.328653354197740555e-03 -1.482728286646306515e-03
4.550000000000000000e+03 2.112247657775878906e+01 3.337358856201171875e+01 -2.800608053803443909e-03 -3.163253422826528549e-03 -1.789158442988991737e-03 -5.444394890218973160e-03
4.551000000000000000e+03 5.614636993408203125e+01 3.298456573486328125e+01 1.792285680770874023e+00 3.788607358932495117e+00 1.674267888069152832e+00 -3.646384239196777344e+00
4.552000000000000000e+03 5.672126388549804688e+01 3.290939331054687500e+01 2.172713041305541992e+00 6.231378078460693359e+00 2.521227359771728516e+00 -5.185819625854492188e+00
4.553000000000000000e+03 5.691370773315429688e+01 3.294433975219726562e+01 1.909954547882080078e+00 8.034790992736816406e+00 2.983423471450805664e+00 -5.641909122467041016e+00
4.554000000000000000e+03 5.665951538085937500e+01 3.311093521118164062e+01 1.833298087120056152e+00 6.336033344268798828e+00 2.450799465179443359e+00 -4.947596549987792969e+00
4.555000000000000000e+03 5.682857131958007812e+01 3.322851562500000000e+01 1.619050264358520508e+00 8.084710121154785156e+00 2.911128044128417969e+00 -5.328672885894775391e+00
4.556000000000000000e+03 5.777137756347656250e+01 3.317001342773437500e+01 2.790850698947906494e-01 1.547789573669433594e+01 4.727094173431396484e+00 -4.610187530517578125e+00
4.557000000000000000e+03 5.980007934570312500e+01 3.059589767456054688e+01 8.677160263061523438e+00 1.619944763183593750e+01 7.462982654571533203e+00 -1.189631581306457520e+00
4.558000000000000000e+03 5.976729965209960938e+01 3.016534996032714844e+01 6.880136966705322266e+00 1.668635177612304688e+01 7.069946289062500000e+00 -1.837598204612731934e+00
4.559000000000000000e+03 5.955716705322265625e+01 3.023840904235839844e+01 7.427861690521240234e+00 1.765110015869140625e+01 7.523688793182373047e+00 -1.975072026252746582e+00
4.560000000000000000e+03 5.932559204101562500e+01 2.968080139160156250e+01 4.186810016632080078e+00 1.854318428039550781e+01 6.818998336791992188e+00 -1.365112423896789551e+00
4.561000000000000000e+03 5.870031356811523438e+01 2.971228027343750000e+01 2.727256059646606445e+00 2.111353492736816406e+01 7.152237415313720703e+00 4.138592779636383057e-01
4.562000000000000000e+03 5.889857864379882812e+01 2.938211631774902344e+01 2.098431825637817383e+00 1.911184120178222656e+01 6.363081932067871094e+00 3.830997645854949951e-01
4.563000000000000000e+03 5.809515380859375000e+01 2.951530075073242188e+01 1.348206639289855957e+00 1.928073883056640625e+01 6.188683986663818359e+00 4.497644424438476562e+00
4.564000000000000000e+03 5.788040161132812500e+01 2.948961639404296875e+01 1.542486786842346191e+00 1.751534271240234375e+01 5.717348575592041016e+00 5.773775100708007812e+00
4.565000000000000000e+03 5.772174453735351562e+01 2.904770278930664062e+01 1.221744656562805176e+00 1.460933303833007812e+01 4.749323368072509766e+00 5.711748123168945312e+00
4.566000000000000000e+03 5.714295578002929688e+01 2.930245208740234375e+01 2.679647207260131836e+00 1.054346466064453125e+01 3.966933488845825195e+00 6.878832817077636719e+00
4.567000000000000000e+03 5.698632812500000000e+01 2.936401939392089844e+01 3.158701181411743164e+00 8.855073928833007812e+00 3.604132413864135742e+00 6.924633979797363281e+00
4.568000000000000000e+03 5.582712173461914062e+01 2.972308158874511719e+01 2.546743392944335938e+00 1.925987839698791504e+00 1.341819405555725098e+00 3.437584400177001953e+00
4.569000000000000000e+03 5.543103408813476562e+01 2.946970748901367188e+01 2.198415040969848633e+00 1.755835175514221191e+00 1.186275005340576172e+00 3.129268169403076172e+00
4.570000000000000000e+03 7.519435882568359375e+01 4.082065963745117188e+01 -1.250049918889999390e-01 6.035494327545166016e+00 1.773146867752075195e+00 -1.985441595315933228e-01
4.571000000000000000e+03 1.267416000366210938e+00 2.720692634582519531e+00 8.693754352862015367e-06 -1.101922498492058367e-05 -6.976413260417757556e-07 -8.668280884194246028e-07
4.572000000000000000e+03 3.839322662353515625e+01 3.707504272460937500e+01 -8.224510401487350464e-02 -1.324186623096466064e-01 -6.439913064241409302e-02 2.063282281160354614e-01
4.573000000000000000e+03 3.546662139892578125e+01 3.799962234497070312e+01 5.087827958050183952e-05 -9.584246575832366943e-02 -2.873747609555721283e-02 9.387779235839843750e-02
4.574000000000000000e+03 2.443504571914672852e+00 2.711492061614990234e+00 -3.112837293883785605e-05 -1.264337424800032750e-05 -1.313152461079880595e-05 2.791241058730520308e-06
4.575000000000000000e+03 1.735659599304199219e+01 -3.893926239013671875e+01 -5.591460317373275757e-02 -3.976285755634307861e-01 -1.360629498958587646e-01 -4.335168600082397461e-01
4.576000000000000000e+03 3.989336013793945312e+01 3.765046691894531250e+01 -4.030743241310119629e-02 -1.860670894384384155e-01 -6.791235506534576416e-02 2.525787949562072754e-01
4.577000000000000000e+03 4.437564468383789062e+01 3.595158386230468750e+01 -2.944691181182861328e-01 -2.424033582210540771e-01 -1.610617488622665405e-01 4.658504724502563477e-01
4.578000000000000000e+03 1.881055259704589844e+01 3.829965591430664062e+01 -2.318620245205238461e-04 3.023500030394643545e-04 2.114639028150122613e-05 -3.587399551179260015e-04
4.579000000000000000e+03 1.968047714233398438e+01 3.877230834960937500e+01 7.209113100543618202e-04 5.438641528598964214e-04 3.794326330535113811e-04 -9.896431583911180496e-04
4.580000000000000000e+03 1.722478294372558594e+01 3.895279693603515625e+01 -7.042072247713804245e-04 8.042320405365899205e-05 -1.871351996669545770e-04 1.373362465528771281e-04
4.581000000000000000e+03 4.154492950439453125e+01 3.715454483032226562e+01 -3.513899818062782288e-02 -2.337550371885299683e-01 -8.066821098327636719e-02 3.024576008319854736e-01
4.582000000000000000e+03 4.120783615112304688e+01 3.641004180908203125e+01 -2.057973891496658325e-01 -1.720492988824844360e-01 -1.133540049195289612e-01 3.210397362709045410e-01
4.583000000000000000e+03 4.213236236572265625e+01 3.666416931152343750e+01 -9.912974387407302856e-02 -2.206572890281677246e-01 -9.593611210584640503e-02 3.706869184970855713e-01
4.584000000000000000e+03 4.071023559570312500e+01 3.691690063476562500e+01 -9.393905103206634521e-02 -1.897262483835220337e-01 -8.509958535432815552e-02 2.816537022590637207e-01
4.585000000000000000e+03 4.971058654785156250e+01 3.799935150146484375e+01 6.229310035705566406e-01 7.003189325332641602e-01 3.969749808311462402e-01 -1.064383462071418762e-01
4.586000000000000000e+03 2.117231369018554688e+01 -3.562078094482421875e+01 -2.163284271955490112e-01 -1.560314178466796875e+00 -5.329927802085876465e-01 -1.132235303521156311e-01
4.587000000000000000e+03 2.366849517822265625e+01 -3.262501525878906250e+01 -9.746359288692474365e-02 -1.160329937934875488e+00 -3.773380517959594727e-01 -7.201801985502243042e-02
4.588000000000000000e+03 1.253303337097167969e+01 -3.291409730911254883e+00 -2.721374330576509237e-04 6.813182699261233211e-05 -6.120168109191581607e-05 -3.356513116159476340e-05
4.589000000000000000e+03 5.626792144775390625e+01 3.364130020141601562e+01 1.427653312683105469e+00 5.697024345397949219e+00 2.137403249740600586e+00 -4.102103710174560547e+00
4.590000000000000000e+03 5.598350143432617188e+01 3.326353073120117188e+01 1.543646097183227539e+00 3.703257083892822266e+00 1.574070930480957031e+00 -3.440613985061645508e+00
4.591000000000000000e+03 7.760677337646484375e+01 3.699728775024414062e+01 2.605521865189075470e-02 4.899230480194091797e+00 1.477585673332214355e+00 9.598842263221740723e-02
4.592000000000000000e+03 5.767036437988281250e+01 3.344419479370117188e+01 1.046351417899131775e-01 1.392214012145996094e+01 4.208032608032226562e+00 -4.702071666717529297e+00
4.593000000000000000e+03 5.739065170288085938e+01 3.320436477661132812e+01 8.535941243171691895e-01 1.264966487884521484e+01 4.050977706909179688e+00 -5.677465915679931641e+00
4.594000000000000000e+03 5.720662307739257812e+01 3.328260421752929688e+01 1.137489557266235352e+00 1.062553405761718750e+01 3.528907060623168945e+00 -5.513426303863525391e+00
4.595000000000000000e+03 7.522625732421875000e+01 3.607294082641601562e+01 1.627396345138549805e-01 5.917742252349853516e+00 1.824144482612609863e+00 3.209672123193740845e-02
4.596000000000000000e+03 5.470022964477539062e+01 2.902954292297363281e+01 1.566121339797973633e+00 1.365700483322143555e+00 8.795465230941772461e-01 2.463795900344848633e+00
4.597000000000000000e+03 5.577712249755859375e+01 2.950180625915527344e+01 2.666915893554687500e+00 2.365582704544067383e+00 1.509749531745910645e+00 3.647408246994018555e+00
4.598000000000000000e+03 5.567852783203125000e+01 2.934688377380371094e+01 2.624032974243164062e+00 2.352820396423339844e+00 1.493056058883666992e+00 3.640547275543212891e+00
4.599000000000000000e+03 5.677283859252929688e+01 2.913361549377441406e+01 2.828024387359619141e+00 7.939761161804199219e+00 3.230335712432861328e+00 6.316910743713378906e+00
4.600000000000000000e+03 5.697824859619140625e+01 2.913235473632812500e+01 2.621053218841552734e+00 9.216080665588378906e+00 3.551140069961547852e+00 6.521413803100585938e+00
4.601000000000000000e+03 5.748458862304687500e+01 2.888027381896972656e+01 1.448581576347351074e+00 1.274519538879394531e+01 4.258132934570312500e+00 5.904898643493652344e+00
4.602000000000000000e+03 5.764578247070312500e+01 2.853463554382324219e+01 8.476294875144958496e-01 1.312244415283203125e+01 4.191021919250488281e+00 5.096644401550292969e+00
4.603000000000000000e+03 5.910814666748046875e+01 2.913617134094238281e+01 1.787679910659790039e+00 1.791856193542480469e+01 5.911872863769531250e+00 2.266006022691726685e-01
4.604000000000000000e+03 5.957659530639648438e+01 2.977779579162597656e+01 5.031365394592285156e+00 1.764588165283203125e+01 6.803174018859863281e+00 -1.722802996635437012e+00
4.605000000000000000e+03 5.953140640258789062e+01 2.939725685119628906e+01 3.338862895965576172e+00 1.735674285888671875e+01 6.208682060241699219e+00 -1.163283586502075195e+00
4.606000000000000000e+03 5.974233245849609375e+01 3.001871490478515625e+01 6.076071739196777344e+00 1.683388328552246094e+01 6.872986793518066406e+00 -1.806567430496215820e+00
4.607000000000000000e+03 6.003524017333984375e+01 3.040374565124511719e+01 7.466720581054687500e+00 1.553491592407226562e+01 6.900490760803222656e+00 -1.429851412773132324e+00
4.608000000000000000e+03 6.032321929931640625e+01 3.052078819274902344e+01 7.339013099670410156e+00 1.453317832946777344e+01 6.561657428741455078e+00 -9.686869978904724121e-01
4.609000000000000000e+03 6.024330902099609375e+01 3.097525978088378906e+01 8.504528045654296875e+00 1.473651504516601562e+01 6.972312927246093750e+00 3.325568512082099915e-02
4.610000000000000000e+03 6.043128585815429688e+01 3.117795944213867188e+01 8.055483818054199219e+00 1.423561096191406250e+01 6.687328338623046875e+00 5.206867456436157227e-01
4.611000000000000000e+03 5.992666625976562500e+01 3.266957855224609375e+01 4.054519653320312500e+00 1.654496765136718750e+01 6.179846286773681641e+00 2.618788719177246094e+00
4.612000000000000000e+03 6.063249969482421875e+01 3.236761093139648438e+01 5.397272586822509766e+00 1.432236766815185547e+01 5.915892124176025391e+00 2.217062950134277344e+00
4.613000000000000000e+03 5.926234436035156250e+01 3.275144195556640625e+01 2.796087026596069336e+00 1.899125671386718750e+01 6.536203384399414062e+00 1.932228326797485352e+00
4.614000000000000000e+03 5.885479736328125000e+01 3.300523757934570312e+01 8.864811658859252930e-01 1.943182563781738281e+01 6.095491886138916016e+00 1.193574070930480957e-01
4.615000000000000000e+03 5.840738296508789062e+01 3.318529129028320312e+01 -1.406726390123367310e-01 1.858099937438964844e+01 5.532097816467285156e+00 -2.230432033538818359e+00
4.616000000000000000e+03 5.815816879272460938e+01 3.340538406372070312e+01 -1.847948879003524780e-01 1.677483558654785156e+01 4.977012157440185547e+00 -3.262988805770874023e+00
4.617000000000000000e+03 5.838586807250976562e+01 3.370631790161132812e+01 -3.832125961780548096e-01 1.630235671997070312e+01 4.775743484497070312e+00 -2.313072204589843750e+00
4.618000000000000000e+03 7.702693939208984375e+01 1.642141914367675781e+01 -5.343286693096160889e-02 7.353015422821044922e+00 2.189874649047851562e+00 -5.804602503776550293e-01
4.619000000000000000e+03 1.912603950500488281e+01 3.874036788940429688e+01 4.819394962396472692e-04 7.096921326592564583e-04 3.574894799385219812e-04 -1.066962024196982384e-03
4.620000000000000000e+03 2.987800836563110352e+00 -2.972800970077514648e+00 -7.161133544286713004e-05 7.157522486522793770e-05 -1.083379785882243596e-08 -3.301717515569180250e-05
4.621000000000000000e+03 5.018209457397460938e+00 -3.643751525878906250e+01 7.185394060797989368e-04 3.839464858174324036e-03 1.367401331663131714e-03 1.026809308677911758e-02
4.622000000000000000e+03 1.287757492065429688e+01 3.353503704071044922e+00 4.636146695702336729e-05 6.784698598494287580e-06 1.594384957570582628e-05 2.547225449234247208e-05
4.623000000000000000e+03 5.282145690917968750e+01 3.662268066406250000e+01 6.596288681030273438e-01 1.891338944435119629e+00 7.652903795242309570e-01 -9.433200955390930176e-01
4.624000000000000000e+03 5.681482696533203125e+01 2.861922454833984375e+01 2.004455089569091797e+00 8.556523323059082031e+00 3.168293476104736328e+00 5.808908462524414062e+00
4.625000000000000000e+03 5.700871276855468750e+01 2.835328483581542969e+01 1.504858613014221191e+00 9.569665908813476562e+00 3.322357177734375000e+00 5.510759830474853516e+00
4.626000000000000000e+03 5.724581909179687500e+01 2.862028121948242188e+01 1.484150290489196777e+00 1.086564731597900391e+01 3.704939365386962891e+00 5.758020401000976562e+00
4.627000000000000000e+03 5.581867599487304688e+01 2.919808006286621094e+01 2.610395669937133789e+00 3.300526142120361328e+00 1.773276567459106445e+00 4.151747226715087891e+00
4.628000000000000000e+03 3.351562023162841797e+00 -3.750606298446655273e+00 4.687590990215539932e-05 -5.456745566334575415e-05 -2.307463319084490649e-06 2.401001256657764316e-04
4.629000000000000000e+03 7.672084045410156250e+01 3.542753982543945312e+01 9.115957468748092651e-02 5.224738121032714844e+00 1.594769358634948730e+00 6.036899238824844360e-02
4.630000000000000000e+03 2.336305427551269531e+01 -2.849363136291503906e+01 -1.359117124229669571e-02 -1.265443801879882812e+00 -3.837105035781860352e-01 -8.168023824691772461e-02
4.631000000000000000e+03 5.159651756286621094e+00 -3.549789905548095703e+00 -2.972660586237907410e-04 4.565189738059416413e-05 -7.548425492132082582e-05 -2.224992022092919797e-05
4.632000000000000000e+03 1.210897731781005859e+01 -2.750987625122070312e+01 5.839831428602337837e-04 8.184034959413111210e-04 4.207159799989312887e-04 -4.601810360327363014e-04
4.633000000000000000e+03 1.103935432434082031e+01 -4.083551406860351562e+00 1.509075082140043378e-04 7.541814557043835521e-05 6.789769395254552364e-05 -6.240016955416649580e-05
4.634000000000000000e+03 5.607395172119140625e+01 3.470363235473632812e+01 7.036041617393493652e-01 6.025980949401855469e+00 2.018875598907470703e+00 -3.430303335189819336e+00
4.635000000000000000e+03 5.988394927978515625e+01 3.306974792480468750e+01 2.709407091140747070e+00 1.655063056945800781e+01 5.778011322021484375e+00 2.123732805252075195e+00
4.636000000000000000e+03 5.813155746459960938e+01 3.399007797241210938e+01 -5.712374448776245117e-01 1.457172393798828125e+01 4.200145721435546875e+00 -3.140549421310424805e+00
4.637000000000000000e+03 2.415914154052734375e+01 -2.332873916625976562e+01 1.716356165707111359e-02 -1.101320028305053711e+00 -3.252469301223754883e-01 -6.186106801033020020e-02
4.638000000000000000e+03 6.487124633789062500e+01 3.579161071777343750e+01 5.063000917434692383e-01 1.076236057281494141e+01 3.380598306655883789e+00 1.220960617065429688e+00
4.639000000000000000e+03 5.832542037963867188e+01 3.423790740966796875e+01 -8.253940939903259277e-01 1.468455028533935547e+01 4.157746791839599609e+00 -2.425785779953002930e+00
4.640000000000000000e+03 5.551077651977539062e+01 2.924026679992675781e+01 2.415511131286621094e+00 2.099841117858886719e+00 1.354605674743652344e+00 3.567393779754638672e+00
4.641000000000000000e+03 5.986369323730468750e+01 3.030310440063476562e+01 7.590436458587646484e+00 1.628176116943359375e+01 7.161659240722656250e+00 -1.748868823051452637e+00
4.642000000000000000e+03 6.006132125854492188e+01 3.020328330993652344e+01 6.786926269531250000e+00 1.557760810852050781e+01 6.709360122680664062e+00 -1.656090140342712402e+00
4.643000000000000000e+03 5.868571853637695312e+01 2.839990234375000000e+01 3.480921685695648193e-01 1.581830978393554688e+01 4.849920272827148438e+00 2.241050720214843750e+00
4.644000000000000000e+03 5.946942901611328125e+01 2.901494026184082031e+01 2.096876859664916992e+00 1.677438545227050781e+01 5.661378860473632812e+00 -4.771761298179626465e-01
4.645000000000000000e+03 1.043509292602539062e+01 8.143428802490234375e+00 -1.536905074317473918e-05 -6.089634553063660860e-06 -6.437605861719930544e-06 3.430701690376736224e-05
4.646000000000000000e+03 6.067464828491210938e+01 3.272264480590820312e+01 4.095104217529296875e+00 1.452758693695068359e+01 5.586807250976562500e+00 2.322375535964965820e+00
4.647000000000000000e+03 6.101117324829101562e+01 3.297626113891601562e+01 3.584358930587768555e+00 1.394301700592041016e+01 5.258213043212890625e+00 2.277733802795410156e+00
4.648000000000000000e+03 1.012663459777832031e+01 1.404660320281982422e+01 6.952109833946451545e-05 1.388957753079012036e-05 2.502320239727851003e-05 2.720504562603309751e-05
4.649000000000000000e+03 8.394202232360839844e+00 2.290916824340820312e+01 9.827712347032502294e-05 5.035960839450126514e-06 3.099392415606416762e-05 -3.715325874509289861e-05
4.650000000000000000e+03 1.056064414978027344e+01 3.425337600708007812e+01 1.947094569914042950e-04 4.367998189991340041e-05 7.151683530537411571e-05 -8.746780804358422756e-05
4.651000000000000000e+03 5.658287048339843750e+01 2.829879951477050781e+01 1.837226986885070801e+00 7.688172340393066406e+00 2.857619762420654297e+00 5.368239402770996094e+00
4.652000000000000000e+03 5.991624450683593750e+01 3.006768417358398438e+01 6.375706195831298828e+00 1.605945014953613281e+01 6.730546951293945312e+00 -1.755362033843994141e+00
4.653000000000000000e+03 6.002720642089843750e+01 2.989361190795898438e+01 5.702585220336914062e+00 1.579018115997314453e+01 6.447829723358154297e+00 -1.714369297027587891e+00
4.654000000000000000e+03 6.861489295959472656e+00 -2.950817298889160156e+01 3.237006487324833870e-03 -6.942778127267956734e-04 7.628186140209436417e-04 1.113918260671198368e-03
4.655000000000000000e+03 5.129559707641601562e+01 3.730218887329101562e+01 6.688905358314514160e-01 1.144874811172485352e+00 5.441296100616455078e-01 -5.347512364387512207e-01
4.656000000000000000e+03 6.218413543701171875e+01 3.499570083618164062e+01 7.075201272964477539e-01 1.252503776550292969e+01 3.969767570495605469e+00 1.556597828865051270e+00
4.657000000000000000e+03 3.246916961669921875e+01 -3.017519950866699219e+01 2.173770591616630554e-02 5.055128335952758789e-01 1.581751704216003418e-01 -7.963338866829872131e-03
4.658000000000000000e+03 5.781491088867187500e+01 2.821933746337890625e+01 4.966885745525360107e-01 1.313197135925292969e+01 4.088597774505615234e+00 4.435273170471191406e+00
4.659000000000000000e+03 5.741853332519531250e+01 2.831557655334472656e+01 9.700062870979309082e-01 1.163471984863281250e+01 3.781417846679687500e+00 5.243548393249511719e+00
4.660000000000000000e+03 5.995713806152343750e+01 3.394713211059570312e+01 6.261144280433654785e-01 1.549732494354248047e+01 4.837031841278076172e+00 1.101438164710998535e+00
4.661000000000000000e+03 5.927973175048828125e+01 3.391042709350585938e+01 3.809668589383363724e-03 1.625952529907226562e+01 4.879000186920166016e+00 -2.777305431663990021e-02
4.662000000000000000e+03 5.921339416503906250e+01 3.443313598632812500e+01 -6.519899964332580566e-01 1.518100643157958984e+01 4.358705043792724609e+00 -6.250345110893249512e-01
4.663000000000000000e+03 6.056623840332031250e+01 3.015920066833496094e+01 6.166740894317626953e+00 1.415986633300781250e+01 6.097982406616210938e+00 -1.305425167083740234e+00
4.664000000000000000e+03 5.846383666992187500e+01 3.453550720214843750e+01 -9.068836569786071777e-01 1.461143589019775391e+01 4.111365795135498047e+00 -2.398126840591430664e+00
4.665000000000000000e+03 5.512705612182617188e+01 2.788294029235839844e+01 1.884996533393859863e+00 3.463831663131713867e+00 1.604648470878601074e+00 3.738556861877441406e+00
4.666000000000000000e+03 5.548818588256835938e+01 2.757909202575683594e+01 1.707590699195861816e+00 4.784021854400634766e+00 1.947483777999877930e+00 4.184519767761230469e+00
4.667000000000000000e+03 5.641777801513671875e+01 2.794224739074707031e+01 1.636545300483703613e+00 7.203502178192138672e+00 2.652014255523681641e+00 5.037827491760253906e+00
4.668000000000000000e+03 5.912206268310546875e+01 2.814167404174804688e+01 3.773610293865203857e-01 1.532103443145751953e+01 4.709518909454345703e+00 1.258014559745788574e+00
4.669000000000000000e+03 5.863875579833984375e+01 2.788369941711425781e+01 8.376938849687576294e-02 1.444120407104492188e+01 4.357491970062255859e+00 2.400358438491821289e+00
4.670000000000000000e+03 6.115698242187500000e+01 3.104262733459472656e+01 6.463159084320068359e+00 1.284397983551025391e+01 5.792141914367675781e+00 2.391830682754516602e-01
4.671000000000000000e+03 6.137648010253906250e+01 3.060968971252441406e+01 5.864124774932861328e+00 1.256727027893066406e+01 5.529418468475341797e+00 -4.580919444561004639e-01
4.672000000000000000e+03 6.181565856933593750e+01 3.112410354614257812e+01 5.447174549102783203e+00 1.198945331573486328e+01 5.230988502502441406e+00 2.843811810016632080e-01
4.673000000000000000e+03 6.021218109130859375e+01 3.364070129394531250e+01 1.614496588706970215e+00 1.528014659881591797e+01 5.068392753601074219e+00 1.736331343650817871e+00
4.674000000000000000e+03 5.622092437744140625e+01 3.411510467529296875e+01 9.308896064758300781e-01 6.302469253540039062e+00 2.170007705688476562e+00 -3.751488685607910156e+00
4.675000000000000000e+03 5.736334991455078125e+01 2.775030326843261719e+01 6.388942599296569824e-01 1.084922695159912109e+01 3.446436405181884766e+00 4.705688476562500000e+00
4.676000000000000000e+03 7.339927673339843750e+00 -1.960600662231445312e+01 1.939953799592331052e-04 4.685651219915598631e-04 1.987681462196633220e-04 2.833049511536955833e-04
4.677000000000000000e+03 5.816438674926757812e+01 2.764587020874023438e+01 7.393123209476470947e-02 1.293602371215820312e+01 3.902986526489257812e+00 3.409212827682495117e+00
4.678000000000000000e+03 7.247022151947021484e+00 -1.838540267944335938e+01 -7.772242533974349499e-04 -7.034650479909032583e-05 -2.542712318245321512e-04 -2.369143912801519036e-04
4.679000000000000000e+03 7.427835083007812500e+01 2.993843650817871094e+01 4.113505482673645020e-01 6.328061103820800781e+00 2.021823406219482422e+00 -5.178384780883789062e-01
4.680000000000000000e+03 7.677349567413330078e+00 5.563143253326416016e+00 1.620654438738711178e-05 -2.460113319102674723e-05 -2.518376959415036254e-06 1.625960430828854442e-05
4.681000000000000000e+03 8.100153923034667969e+00 5.124547004699707031e+00 -3.547928281477652490e-05 1.417110797774512321e-05 -6.392452178261009976e-06 -1.146028535004006699e-05
4.682000000000000000e+03 1.084474372863769531e+01 -2.676880836486816406e+01 7.321937591768801212e-04 1.101306988857686520e-03 5.500502302311360836e-04 -2.647420624271035194e-04
4.683000000000000000e+03 6.098138332366943359e+00 2.948400306701660156e+01 -1.206504748552106321e-04 -5.107779361424036324e-05 -5.151848017703741789e-05 1.597444861545227468e-05
4.684000000000000000e+03 6.160343551635742188e+01 3.006534385681152344e+01 5.105161190032958984e+00 1.234687900543212891e+01 5.235611915588378906e+00 -9.886760115623474121e-01
4.685000000000000000e+03 5.973529052734375000e+01 2.823020172119140625e+01 1.018875360488891602e+00 1.522966384887695312e+01 4.874561786651611328e+00 -3.170634806156158447e-02
4.686000000000000000e+03 5.620946502685546875e+01 2.715885925292968750e+01 1.201377630233764648e+00 6.827291011810302734e+00 2.408600568771362305e+00 4.402947425842285156e+00
4.687000000000000000e+03 5.660654830932617188e+01 2.741877555847167969e+01 1.118520975112915039e+00 8.031667709350585938e+00 2.745056629180908203e+00 4.754069805145263672e+00
4.688000000000000000e+03 5.852260208129882812e+01 2.743022346496582031e+01 -1.295697093009948730e-01 1.323594379425048828e+01 3.931912422180175781e+00 2.643944740295410156e+00
4.689000000000000000e+03 1.037634277343750000e+01 -1.123597145080566406e+01 2.627503999974578619e-04 4.909150447929278016e-05 9.355256770504638553e-05 -9.285717533202841878e-05
4.690000000000000000e+03 4.317645549774169922e+00 6.873149871826171875e+00 -7.485321839340031147e-05 -2.149888587155146524e-06 -2.310093077539931983e-05 -1.080413221643539146e-05
4.691000000000000000e+03 6.919858932495117188e+00 -1.654674339294433594e+01 1.187540910905227065e-04 3.939100715797394514e-04 1.537992502562701702e-04 9.640795178711414337e-05
4.692000000000000000e+03 5.570854568481445312e+01 2.782583045959472656e+01 1.813489675521850586e+00 5.153862476348876953e+00 2.090205669403076172e+00 4.409739494323730469e+00
4.693000000000000000e+03 7.229566192626953125e+01 2.840797424316406250e+01 6.559618115425109863e-01 7.132041931152343750e+00 2.336401224136352539e+00 -8.084734678268432617e-01
4.694000000000000000e+03 5.027491092681884766e+00 2.327279090881347656e+01 1.106203562812879682e-04 7.888376785558648407e-06 3.555262082954868674e-05 6.402689177775755525e-05
4.695000000000000000e+03 7.349941730499267578e+00 2.897576522827148438e+01 1.027930047712288797e-04 6.934609700692817569e-05 5.164173126104287803e-05 2.107521140715107322e-05
4.696000000000000000e+03 5.756206893920898438e+01 2.745905113220214844e+01 3.353903591632843018e-01 1.112649917602539062e+01 3.438566684722900391e+00 4.228990077972412109e+00
4.697000000000000000e+03 5.811765289306640625e+01 2.726981544494628906e+01 -2.116355113685131073e-02 1.212089920043945312e+01 3.629920721054077148e+00 3.363349676132202148e+00
4.698000000000000000e+03 5.969372940063476562e+01 2.759134483337402344e+01 3.435978889465332031e-01 1.418578243255615234e+01 4.358814239501953125e+00 4.873611032962799072e-01
4.699000000000000000e+03 5.990335845947265625e+01 2.729816436767578125e+01 2.064738869667053223e-01 1.369826030731201172e+01 4.171420097351074219e+00 3.605726659297943115e-01
4.700000000000000000e+03 5.451915359497070312e+01 2.648895645141601562e+01 1.340411663055419922e+00 3.813418149948120117e+00 1.546148896217346191e+00 3.267674207687377930e+00
4.701000000000000000e+03 6.019377517700195312e+01 2.858960342407226562e+01 2.020373582839965820e+00 1.492029380798339844e+01 5.082200050354003906e+00 -9.289072155952453613e-01
4.702000000000000000e+03 6.047142028808593750e+01 2.836085128784179688e+01 1.886771440505981445e+00 1.425020980834960938e+01 4.841094493865966797e+00 -1.001805663108825684e+00
4.703000000000000000e+03 6.193529510498046875e+01 2.950771331787109375e+01 4.111320972442626953e+00 1.211871814727783203e+01 4.869011878967285156e+00 -1.286827683448791504e+00
4.704000000000000000e+03 6.371275901794433594e+00 1.221140766143798828e+01 -3.686717536766082048e-05 -5.084754229756072164e-05 -2.631441566336434335e-05 -7.097826710378285497e-06
4.705000000000000000e+03 5.777497482299804688e+01 2.722613525390625000e+01 1.022113189101219177e-01 1.143265151977539062e+01 3.460458993911743164e+00 3.819796800613403320e+00
4.706000000000000000e+03 5.343821048736572266e+00 1.917682456970214844e+01 -1.063864547177217901e-04 1.245299608854111284e-05 -2.818003849824890494e-05 -2.093719922413583845e-05
4.707000000000000000e+03 9.642848014831542969e+00 1.542095851898193359e+01 2.416492316115181893e-05 7.707365625719830859e-07 7.480698059225687757e-06 7.976826964295469224e-06
4.708000000000000000e+03 6.210067367553710938e+01 3.037195587158203125e+01 4.917960643768310547e+00 1.168572235107421875e+01 4.981104850769042969e+00 -5.564165115356445312e-01
4.709000000000000000e+03 6.095500564575195312e+01 2.850801467895507812e+01 2.377760171890258789e+00 1.366423034667968750e+01 4.812597274780273438e+00 -1.321110367774963379e+00
4.710000000000000000e+03 3.029136466979980469e+01 -1.918218612670898438e+01 5.906507372856140137e-03 2.829090319573879242e-02 1.025922317057847977e-02 -1.526676863431930542e-02
4.711000000000000000e+03 6.724182128906250000e+01 -2.269553756713867188e+01 -1.244341209530830383e-02 7.021402359008789062e+00 2.102687597274780273e+00 -1.589287305250763893e-03
4.712000000000000000e+03 5.854179000854492188e+01 2.707451438903808594e+01 -2.383564412593841553e-01 1.268881320953369141e+01 3.735137224197387695e+00 2.566145181655883789e+00
4.713000000000000000e+03 5.842681121826171875e+01 2.671619033813476562e+01 -2.945926189422607422e-01 1.199442768096923828e+01 3.509950637817382812e+00 2.663509845733642578e+00
4.714000000000000000e+03 7.057252502441406250e+01 -2.486279106140136719e+01 -8.283971808850765228e-03 7.645474910736083984e+00 2.291157245635986328e+00 5.947372483205981553e-05
4.715000000000000000e+03 7.017459106445312500e+01 2.556130409240722656e+01 5.175235867500305176e-01 7.934885501861572266e+00 2.535722732543945312e+00 -1.253922820091247559e+00
4.716000000000000000e+03 5.997561645507812500e+01 2.706565093994140625e+01 1.162344068288803101e-01 1.321264362335205078e+01 3.998663663864135742e+00 4.010686874389648438e-01
4.717000000000000000e+03 7.277861022949218750e+01 -7.430265903472900391e+00 -4.667763411998748779e-02 8.031666755676269531e+00 2.395496606826782227e+00 -8.371745049953460693e-02
4.718000000000000000e+03 5.798309326171875000e+01 2.706567955017089844e+01 -4.143234714865684509e-02 1.167989063262939453e+01 3.491537570953369141e+00 3.506415843963623047e+00
4.719000000000000000e+03 6.007250595092773438e+01 2.674104309082031250e+01 -2.269679494202136993e-02 1.292034626007080078e+01 3.869294881820678711e+00 4.103344976902008057e-01
4.720000000000000000e+03 5.792527008056640625e+01 2.679551315307617188e+01 -9.257350116968154907e-02 1.117870521545410156e+01 3.325839757919311523e+00 3.379365921020507812e+00
4.721000000000000000e+03 7.109556579589843750e+01 -2.356941795349121094e+01 -3.724426263943314552e-03 7.731438636779785156e+00 2.318314313888549805e+00 3.933469764888286591e-03
4.722000000000000000e+03 3.118039131164550781e+01 -1.489958953857421875e+01 6.111847702413797379e-03 1.831290572881698608e-01 5.677226930856704712e-02 -1.211389992386102676e-02
4.723000000000000000e+03 3.870858001708984375e+01 2.639206314086914062e+01 -3.387298583984375000e-01 1.614820957183837891e-01 -5.317433178424835205e-02 -4.443702101707458496e-01
4.724000000000000000e+03 5.052715682983398438e+01 2.583110046386718750e+01 7.190859913825988770e-01 1.112450718879699707e+00 5.494610071182250977e-01 1.146411895751953125e+00
4.725000000000000000e+03 5.303883743286132812e+01 2.609930610656738281e+01 1.172983407974243164e+00 2.333410501480102539e+00 1.051918148994445801e+00 2.315641403198242188e+00
4.726000000000000000e+03 6.073484039306640625e+01 2.668858337402343750e+01 2.267749458551406860e-01 1.265385246276855469e+01 3.864188432693481445e+00 -2.212652564048767090e-01
4.727000000000000000e+03 5.760638809204101562e+01 2.513668441772460938e+01 -2.650938630104064941e-01 9.276483535766601562e+00 2.703417062759399414e+00 2.911856174468994141e+00
4.728000000000000000e+03 7.098355102539062500e+01 2.073018264770507812e+01 -1.449250280857086182e-01 7.891098976135253906e+00 2.323852062225341797e+00 -1.244222998619079590e+00
4.729000000000000000e+03 7.001042175292968750e+01 2.043303108215332031e+01 -2.246483713388442993e-01 8.102130889892578125e+00 2.363244771957397461e+00 -1.233182311058044434e+00
4.730000000000000000e+03 7.107905578613281250e+01 1.371009159088134766e+01 -3.847507536411285400e-01 7.850183010101318359e+00 2.239629745483398438e+00 -8.066406846046447754e-01
4.731000000000000000e+03 6.912920379638671875e+01 -2.210676002502441406e+01 -1.894306391477584839e-02 7.354995727539062500e+00 2.200815916061401367e+00 1.027539023198187351e-03
4.732000000000000000e+03 5.807932662963867188e+01 2.603004646301269531e+01 -3.172940313816070557e-01 1.063493251800537109e+01 3.095291614532470703e+00 2.918251276016235352e+00
4.733000000000000000e+03 3.334881591796875000e+01 -1.558002567291259766e+01 1.224877778440713882e-02 5.867789983749389648e-01 1.797083318233489990e-01 -5.211632233113050461e-03
4.734000000000000000e+03 5.495586395263671875e+01 2.424888038635253906e+01 5.902543663978576660e-01 5.301662921905517578e+00 1.767575144767761230e+00 2.971381902694702148e+00
4.735000000000000000e+03 4.578204345703125000e+01 2.421640777587890625e+01 3.194445371627807617e-01 6.389703750610351562e-01 2.875244617462158203e-01 1.980165392160415649e-01
4.736000000000000000e+03 5.187558364868164062e+01 2.541099929809570312e+01 9.944261908531188965e-01 1.828860402107238770e+00 8.469859957695007324e-01 1.793331980705261230e+00
4.737000000000000000e+03 6.221460342407226562e+01 2.779406929016113281e+01 1.907676815986633301e+00 1.195665931701660156e+01 4.159300804138183594e+00 -1.367328882217407227e+00
4.738000000000000000e+03 7.082038879394531250e+01 -2.615425825119018555e+00 -1.168863028287887573e-01 7.687412738800048828e+00 2.271157979965209961e+00 -1.560570299625396729e-01
4.739000000000000000e+03 6.947814178466796875e+01 1.698449325561523438e+01 -4.700624644756317139e-01 8.053439140319824219e+00 2.275012969970703125e+00 -9.760414361953735352e-01
4.740000000000000000e+03 6.860055541992187500e+01 1.724418830871582031e+01 -5.274702906608581543e-01 8.149883270263671875e+00 2.286723852157592773e+00 -9.353606104850769043e-01
4.741000000000000000e+03 6.992002868652343750e+01 6.620969772338867188e+00 -3.099936544895172119e-01 7.662467956542968750e+00 2.205742359161376953e+00 -4.023943543434143066e-01
4.742000000000000000e+03 3.009716796875000000e+01 2.722449111938476562e+01 -2.010946422815322876e-01 -5.446857959032058716e-02 -7.666896283626556396e-02 -4.088781177997589111e-01
4.743000000000000000e+03 5.258021545410156250e+01 2.510402297973632812e+01 1.042087554931640625e+00 2.534968137741088867e+00 1.073116660118103027e+00 2.183443784713745117e+00
4.744000000000000000e+03 6.802238464355468750e+01 1.774086570739746094e+01 -5.509917140007019043e-01 8.256826400756835938e+00 2.311750411987304688e+00 -9.320652484893798828e-01
4.745000000000000000e+03 4.709733581542968750e+01 -6.629041671752929688e+00 -3.153583966195583344e-03 3.188214778900146484e+00 9.555183053016662598e-01 1.202444061636924744e-01
4.746000000000000000e+03 5.545481872558593750e+01 -1.417923545837402344e+01 -4.364385828375816345e-02 4.810343265533447266e+00 1.430009841918945312e+00 4.683963954448699951e-02
4.747000000000000000e+03 5.606937789916992188e+01 2.414288520812988281e+01 1.862348467111587524e-01 6.792284965515136719e+00 2.093555927276611328e+00 3.039634227752685547e+00
4.748000000000000000e+03 6.817984008789062500e+01 2.133599090576171875e+01 -2.397395819425582886e-01 8.508132934570312500e+00 2.480517864227294922e+00 -1.227412700653076172e+00
4.749000000000000000e+03 3.484866714477539062e+01 -6.949594974517822266e+00 3.345788270235061646e-02 7.862762808799743652e-01 2.459202408790588379e-01 -3.014473943039774895e-03
4.750000000000000000e+03 3.174800491333007812e+01 2.618880844116210938e+01 -1.978923976421356201e-01 -1.917273737490177155e-02 -6.511954218149185181e-02 -4.673680365085601807e-01
4.751000000000000000e+03 3.338856124877929688e+01 2.516723251342773438e+01 -1.670262813568115234e-01 2.475328743457794189e-02 -4.268189519643783569e-02 -5.005112886428833008e-01
4.752000000000000000e+03 3.549438095092773438e+01 -9.621663093566894531e+00 2.487555891275405884e-02 9.561547040939331055e-01 2.943090796470642090e-01 7.964826188981533051e-03
4.753000000000000000e+03 4.963386917114257812e+01 2.443711662292480469e+01 7.355154156684875488e-01 1.328435897827148438e+00 6.191853880882263184e-01 1.072397232055664062e+00
4.754000000000000000e+03 5.524680709838867188e+01 2.255506515502929688e+01 1.779839992523193359e-01 5.786072254180908203e+00 1.789216876029968262e+00 2.509698152542114258e+00
4.755000000000000000e+03 5.937655639648437500e+01 2.447477912902832031e+01 -6.878478527069091797e-01 1.045585060119628906e+01 2.930400848388671875e+00 1.414003372192382812e+00
4.756000000000000000e+03 6.582135009765625000e+01 2.460008430480957031e+01 3.097577393054962158e-01 9.403186798095703125e+00 2.913883209228515625e+00 -1.308636188507080078e+00
4.757000000000000000e+03 6.568046569824218750e+01 2.401699066162109375e+01 1.112110540270805359e-01 9.392344474792480469e+00 2.851066589355468750e+00 -1.239654898643493652e+00
4.758000000000000000e+03 4.719293594360351562e+01 2.390006256103515625e+01 5.064690709114074707e-01 9.002797603607177734e-01 4.220246672630310059e-01 4.968081712722778320e-01
4.759000000000000000e+03 4.837086486816406250e+01 2.425076675415039062e+01 6.099057197570800781e-01 1.054485917091369629e+00 4.993174970149993896e-01 7.287638187408447266e-01
4.760000000000000000e+03 5.282723236083984375e+01 -5.812496662139892578e+00 -8.914590626955032349e-02 4.340676307678222656e+00 1.275459051132202148e+00 1.293813735246658325e-01
4.761000000000000000e+03 3.686671447753906250e+01 -3.411143541336059570e+00 5.124265700578689575e-02 1.094228744506835938e+00 3.436414003372192383e-01 6.661052815616130829e-03
4.762000000000000000e+03 6.669039916992187500e+01 2.049524307250976562e+01 -4.839541018009185791e-01 8.763908386230468750e+00 2.483986377716064453e+00 -1.017237067222595215e+00
4.763000000000000000e+03 3.794689178466796875e+01 -3.547446012496948242e+00 6.504818052053451538e-02 1.343054294586181641e+00 4.224307537078857422e-01 3.018613345921039581e-02
4.764000000000000000e+03 6.283988571166992188e+01 2.478017425537109375e+01 -6.598033756017684937e-02 1.066265678405761719e+01 3.179003000259399414e+00 -7.619549632072448730e-01
4.765000000000000000e+03 6.268511581420898438e+01 2.429081726074218750e+01 -2.707766294479370117e-01 1.052044296264648438e+01 3.074899911880493164e+00 -5.972363948822021484e-01
4.766000000000000000e+03 5.144018936157226562e+01 2.359917640686035156e+01 8.594631552696228027e-01 2.434194087982177734e+00 9.880971312522888184e-01 1.750777602195739746e+00
4.767000000000000000e+03 5.410746383666992188e+01 2.170064163208007812e+01 3.284733891487121582e-01 4.812478542327880859e+00 1.542285561561584473e+00 2.230833768844604492e+00
4.768000000000000000e+03 6.211706542968750000e+01 2.368654060363769531e+01 -5.437530875205993652e-01 1.036907672882080078e+01 2.947597026824951172e+00 -2.303140908479690552e-01
4.769000000000000000e+03 6.593826293945312500e+01 1.738209724426269531e+01 -7.151299715042114258e-01 8.347320556640625000e+00 2.289657115936279297e+00 -6.449707150459289551e-01
4.770000000000000000e+03 5.264644241333007812e+01 2.324996376037597656e+01 7.853497266769409180e-01 3.329699039459228516e+00 1.234514594078063965e+00 2.149691820144653320e+00
4.771000000000000000e+03 5.756042480468750000e+01 1.983374214172363281e+01 -5.599449276924133301e-01 7.223029136657714844e+00 1.998925209045410156e+00 1.544597148895263672e+00
4.772000000000000000e+03 5.073055648803710938e+01 2.322560119628906250e+01 8.253454566001892090e-01 2.154093503952026367e+00 8.938316702842712402e-01 1.519873857498168945e+00
4.773000000000000000e+03 4.857292556762695312e+01 2.327251434326171875e+01 6.930258870124816895e-01 1.356291532516479492e+00 6.147952675819396973e-01 8.781824707984924316e-01
4.774000000000000000e+03 3.922187423706054688e+01 2.201016616821289062e+01 1.595366448163986206e-01 3.586463630199432373e-01 1.554549038410186768e-01 -3.289272189140319824e-01
4.775000000000000000e+03 6.558061218261718750e+01 1.118415260314941406e+01 -6.173592209815979004e-01 7.538287162780761719e+00 2.076278209686279297e+00 -3.223191797733306885e-01
4.776000000000000000e+03 4.577360534667968750e+01 2.104228210449218750e+01 5.691073536872863770e-01 1.189072012901306152e+00 5.274538397789001465e-01 4.386046230792999268e-01
4.777000000000000000e+03 6.140687179565429688e+01 -3.437152862548828125e+00 -1.983803808689117432e-01 6.101572513580322266e+00 1.770957589149475098e+00 1.272489689290523529e-02
4.778000000000000000e+03 5.233779525756835938e+01 2.223600769042968750e+01 6.827297806739807129e-01 3.384654045104980469e+00 1.220215082168579102e+00 1.985338687896728516e+00
4.779000000000000000e+03 6.060021591186523438e+01 -5.210248947143554688e+00 -1.517628580331802368e-01 5.892019748687744141e+00 1.722077131271362305e+00 1.824474334716796875e-02
4.780000000000000000e+03 4.451927947998046875e+01 1.939754867553710938e+01 5.358445048332214355e-01 1.223597884178161621e+00 5.278327465057373047e-01 3.200742006301879883e-01
4.781000000000000000e+03 6.419860839843750000e+01 1.911466598510742188e+01 -7.844987511634826660e-01 8.706229209899902344e+00 2.376519203186035156e+00 -4.484397172927856445e-01
4.782000000000000000e+03 5.990245437622070312e+01 2.109908103942871094e+01 -8.567991852760314941e-01 8.768666267395019531e+00 2.373560190200805664e+00 9.338707327842712402e-01
4.783000000000000000e+03 5.259477233886718750e+01 3.963579535484313965e-01 -1.105720475316047668e-01 4.363061428070068359e+00 1.275746822357177734e+00 2.337982952594757080e-01
4.784000000000000000e+03 6.349623107910156250e+01 1.193667602539062500e+01 -6.827633380889892578e-01 7.386559486389160156e+00 2.011138916015625000e+00 -1.037793904542922974e-01
4.785000000000000000e+03 4.496775817871093750e+01 1.976247978210449219e+01 5.488551855087280273e-01 1.220165371894836426e+00 5.307061672210693359e-01 3.741216957569122314e-01
4.786000000000000000e+03 6.048532104492187500e+01 -1.498185276985168457e+00 -2.219679206609725952e-01 5.958549499511718750e+00 1.720974445343017578e+00 3.160794824361801147e-02
4.787000000000000000e+03 5.014767074584960938e+01 2.140436935424804688e+01 6.993377208709716797e-01 2.449374198913574219e+00 9.446135759353637695e-01 1.369096636772155762e+00
4.788000000000000000e+03 6.000814437866210938e+01 1.996548652648925781e+01 -8.564789891242980957e-01 8.364389419555664062e+00 2.252372980117797852e+00 8.182213306427001953e-01
4.789000000000000000e+03 5.968434524536132812e+01 2.068401145935058594e+01 -8.437386751174926758e-01 8.565987586975097656e+00 2.316674470901489258e+00 9.818562865257263184e-01
4.790000000000000000e+03 5.380665206909179688e+01 9.375038743019104004e-01 -1.421999782323837280e-01 4.638311862945556641e+00 1.348833560943603516e+00 2.512314319610595703e-01
4.791000000000000000e+03 5.355309677124023438e+01 1.969875216484069824e+00 -1.506455540657043457e-01 4.589769363403320312e+00 1.331737160682678223e+00 2.735284864902496338e-01
4.792000000000000000e+03 5.712761306762695312e+01 7.103685736656188965e-01 -2.258012145757675171e-01 5.338427543640136719e+00 1.533787965774536133e+00 1.690281629562377930e-01
4.793000000000000000e+03 3.672714996337890625e+01 1.470302963256835938e+01 3.028049170970916748e-01 5.271026492118835449e-01 2.489722818136215210e-01 -2.036734074354171753e-01
4.794000000000000000e+03 3.932592010498046875e+01 6.032375812530517578e+00 2.129340022802352905e-01 1.379111289978027344e+00 4.776135981082916260e-01 5.977417901158332825e-02
4.795000000000000000e+03 5.528555679321289062e+01 1.863068580627441406e+01 -1.704056710004806519e-01 5.664305686950683594e+00 1.648169994354248047e+00 1.642174124717712402e+00
4.796000000000000000e+03 4.021486282348632812e+01 3.088519334793090820e+00 1.325879395008087158e-01 1.621147751808166504e+00 5.261207222938537598e-01 6.598701328039169312e-02
4.797000000000000000e+03 4.130048370361328125e+01 3.190552473068237305e+00 1.389664709568023682e-01 1.827376246452331543e+00 5.899028182029724121e-01 1.155266463756561279e-01
4.798000000000000000e+03 5.669189071655273438e+01 -1.318942785263061523e+00 -1.814034432172775269e-01 5.188458919525146484e+00 1.502116560935974121e+00 1.420678794384002686e-01
4.799000000000000000e+03 6.138720703125000000e+01 8.229352951049804688e+00 -5.213125348091125488e-01 6.652155399322509766e+00 1.839252948760986328e+00 9.965533018112182617e-02
4.800000000000000000e+03 5.557434844970703125e+01 -4.401097893714904785e-01 -1.759463697671890259e-01 4.985706329345703125e+00 1.442927956581115723e+00 1.791112422943115234e-01
4.801000000000000000e+03 5.499591445922851562e+01 1.354926109313964844e+00 -1.832171529531478882e-01 4.916066646575927734e+00 1.419854879379272461e+00 2.488418817520141602e-01
4.802000000000000000e+03 5.448482513427734375e+01 3.244510412216186523e+00 -1.907143145799636841e-01 4.823033332824707031e+00 1.389695644378662109e+00 3.092142939567565918e-01
4.803000000000000000e+03 4.959899902343750000e+01 2.161713981628417969e+01 7.229687571525573730e-01 2.158492326736450195e+00 8.644383549690246582e-01 1.226930379867553711e+00
4.804000000000000000e+03 3.740515136718750000e+01 2.004438400268554688e+01 2.142062485218048096e-01 3.279604613780975342e-01 1.626500189304351807e-01 -3.541571497917175293e-01
4.805000000000000000e+03 5.254044342041015625e+01 1.983423805236816406e+01 3.761114478111267090e-01 3.998520135879516602e+00 1.312389492988586426e+00 1.733875989913940430e+00
4.806000000000000000e+03 4.663900756835937500e+01 1.714889144897460938e+01 5.232095718383789062e-01 2.058434009552001953e+00 7.744930386543273926e-01 6.650074124336242676e-01
4.807000000000000000e+03 6.101175308227539062e+01 1.765492630004882812e+01 -8.652723431587219238e-01 8.013070106506347656e+00 2.144339323043823242e+00 3.989391028881072998e-01
4.808000000000000000e+03 3.711885833740234375e+01 1.563447284698486328e+01 3.113267123699188232e-01 5.286345481872558594e-01 2.519883811473846436e-01 -2.109328806400299072e-01
4.809000000000000000e+03 5.578787612915039062e+01 2.892679214477539062e+00 -2.234935015439987183e-01 5.104797840118408203e+00 1.464391231536865234e+00 2.723143100738525391e-01
4.810000000000000000e+03 5.839946746826171875e+01 4.733127117156982422e+00 -3.432702422142028809e-01 5.782429218292236328e+00 1.631747722625732422e+00 2.168614119291305542e-01
4.811000000000000000e+03 5.179509353637695312e+01 1.947846221923828125e+01 4.236766695976257324e-01 3.614482879638671875e+00 1.211447834968566895e+00 1.561455368995666504e+00
4.812000000000000000e+03 4.192899703979492188e+01 1.292192554473876953e+01 3.845882415771484375e-01 1.433883190155029297e+00 5.455414056777954102e-01 1.633247137069702148e-01
4.813000000000000000e+03 5.916700744628906250e+01 1.594535064697265625e+01 -7.118046879768371582e-01 7.099538326263427734e+00 1.916320085525512695e+00 7.267006635665893555e-01
4.814000000000000000e+03 4.980991363525390625e+01 7.362012863159179688e+00 2.792473509907722473e-02 3.658634662628173828e+00 1.105967879295349121e+00 4.988819062709808350e-01
4.815000000000000000e+03 5.529884719848632812e+01 3.679333925247192383e+00 -2.110220789909362793e-01 5.000717639923095703e+00 1.436908721923828125e+00 3.049149513244628906e-01
4.816000000000000000e+03 5.032342529296875000e+01 8.165975570678710938e+00 1.811587996780872345e-02 3.752591133117675781e+00 1.131212115287780762e+00 5.396621227264404297e-01
4.817000000000000000e+03 5.761392974853515625e+01 9.507604598999023438e+00 -4.290307164192199707e-01 5.858568191528320312e+00 1.628861188888549805e+00 4.634419679641723633e-01
4.818000000000000000e+03 5.839118194580078125e+01 1.003841495513916016e+01 -4.802051484584808350e-01 6.086618900299072266e+00 1.681924104690551758e+00 4.374459981918334961e-01
4.819000000000000000e+03 4.006529998779296875e+01 1.633458137512207031e+01 4.019191265106201172e-01 8.483417034149169922e-01 3.750782608985900879e-01 -4.656413197517395020e-02
4.820000000000000000e+03 5.571032714843750000e+01 1.116627407073974609e+01 -3.274298608303070068e-01 5.423211097717285156e+00 1.528734326362609863e+00 7.005606889724731445e-01
4.821000000000000000e+03 5.301899719238281250e+01 1.566779136657714844e+01 2.692584507167339325e-02 4.483060359954833984e+00 1.352995872497558594e+00 1.210588574409484863e+00
4.822000000000000000e+03 1.426702117919921875e+01 1.252673983573913574e+00 1.417218390997732058e-05 1.080607603398675565e-06 4.575837465381482616e-06 1.530727058707270771e-05
4.823000000000000000e+03 1.462149238586425781e+01 1.164639949798583984e+00 -4.141305907978676260e-05 -3.833096343441866338e-06 -1.357384735456435010e-05 3.810963562500546686e-06
4.824000000000000000e+03 1.332876110076904297e+01 1.093653082847595215e+00 3.914101853297324851e-06 7.042006927804322913e-06 3.286832679805229418e-06 4.839277153223520145e-06
4.825000000000000000e+03 1.406522464752197266e+01 3.572364747524261475e-01 4.222035840939497575e-06 5.181236701901070774e-06 2.820981762852170505e-06 7.928199465823126957e-07
4.826000000000000000e+03 1.336003494262695312e+01 3.511472940444946289e-01 -1.882706214928475674e-06 -8.519804396200925112e-06 -3.120753262919606641e-06 -2.175067038479028270e-06
4.827000000000000000e+03 1.476313018798828125e+01 5.016638040542602539e-01 -1.791502654668875039e-06 -2.681413434402202256e-06 -1.341874849458690733e-06 -1.228645828632579651e-06
4.828000000000000000e+03 1.414069938659667969e+01 9.322270154953002930e-01 -2.368155037402175367e-05 6.790005045331781730e-06 -5.067463462182786316e-06 -1.260047065443359315e-05
4.829000000000000000e+03 1.384797477722167969e+01 1.187353014945983887e+00 1.415914709923526971e-07 -2.684652827156241983e-06 -7.629184324287052732e-07 -3.976530024374369532e-06
4.830000000000000000e+03 1.112969017028808594e+01 3.708996772766113281e-01 2.717195684454054572e-06 9.768459676706697792e-06 3.745696631085593253e-06 -4.932895194542652462e-07
4.831000000000000000e+03 1.113907623291015625e+01 1.110847473144531250e+00 -8.694602001924067736e-06 -7.700255991949234158e-06 -4.918457307212520391e-06 8.619899176665057894e-07
4.832000000000000000e+03 1.263169097900390625e+01 3.451149165630340576e-01 2.227494860562728718e-06 1.046871238941093907e-05 3.808862174992100336e-06 3.808612802913557971e-07
4.833000000000000000e+03 1.037880802154541016e+01 3.837110698223114014e-01 -3.049661017939797603e-06 -9.159171895589679480e-06 -3.662649987745680846e-06 2.661833775619015796e-07
4.834000000000000000e+03 1.188065242767333984e+01 3.580341637134552002e-01 -2.612027174109243788e-06 -1.050145328918006271e-05 -3.934044343623099849e-06 3.053536090646957746e-07
4.835000000000000000e+03 1.264514160156250000e+01 1.084993243217468262e+00 -5.992297246848465875e-06 -6.976718850637553260e-06 -3.890704647346865386e-06 -6.155290179776784498e-07
4.836000000000000000e+03 1.038616180419921875e+01 1.123693704605102539e+00 8.329194315592758358e-06 8.023854206840042025e-06 4.905914920527720824e-06 -9.122189794652513228e-07
4.837000000000000000e+03 1.189207077026367188e+01 1.097947120666503906e+00 7.622514203831087798e-06 7.263979114213725552e-06 4.465947768039768562e-06 -9.672644409874919802e-07
4.838000000000000000e+03 9.625078201293945312e+00 3.871397972106933594e-01 2.765548515526461415e-06 8.973529475042596459e-06 3.521723328958614729e-06 8.927828076821242576e-08
4.839000000000000000e+03 8.868724822998046875e+00 3.828192353248596191e-01 -3.206630026397760957e-06 -9.086644240596797317e-06 -3.687982371047837660e-06 -4.016207526547077578e-07
4.840000000000000000e+03 9.644926071166992188e+00 1.127139806747436523e+00 -9.073710316442884505e-06 -7.940269824757706374e-06 -5.104194315208587795e-06 4.585550072988553438e-07
4.841000000000000000e+03 8.112174034118652344e+00 3.804100155830383301e-01 2.847792075044708326e-06 9.112284715229179710e-06 3.588023218981106766e-06 6.330339488158642780e-07
4.842000000000000000e+03 7.356014251708984375e+00 3.793691694736480713e-01 -3.154380237901932560e-06 -8.840218470140825957e-06 -3.598379635150195099e-06 -6.488627377621014602e-07
4.843000000000000000e+03 5.843623161315917969e+00 3.767499327659606934e-01 -2.888904646169976331e-06 -6.239832600840600207e-06 -2.738621105891070329e-06 1.180571800318830356e-07
4.844000000000000000e+03 5.088051319122314453e+00 3.757717311382293701e-01 1.768972992977069225e-06 3.443819196036201902e-06 1.563837599860562477e-06 -1.327005747953080572e-06
4.845000000000000000e+03 3.576755046844482422e+00 3.680583238601684570e-01 2.511634875190793537e-06 -3.144135007460135967e-06 -1.897500254699480138e-07 -2.582864908617921174e-06
4.846000000000000000e+03 2.822042465209960938e+00 3.613462746143341064e-01 -4.251514837960712612e-06 3.948503035644534975e-06 -9.090349806228914531e-08 1.586048711033072323e-06
4.847000000000000000e+03 2.068703651428222656e+00 3.577998280525207520e-01 3.109016006419551559e-06 -2.948072278741165064e-06 4.828314459359717148e-08 -9.076242690753133502e-07
4.848000000000000000e+03 2.358754634857177734e+00 1.097799897193908691e+00 -1.114381939260056242e-05 2.985900380281236721e-07 -3.253568820582586341e-06 -1.209365564136533067e-06
4.849000000000000000e+03 1.327708005905151367e+00 3.658417165279388428e-01 -1.491917487328464631e-07 3.321635404063272290e-06 9.517331136521534063e-07 3.248975190217606723e-06
4.850000000000000000e+03 1.644779324531555176e+00 1.105841755867004395e+00 5.869883352715987712e-06 4.093907136848429218e-06 2.989137101394589990e-06 1.267379843739036005e-06
4.851000000000000000e+03 6.509408354759216309e-01 3.937322795391082764e-01 -1.230090947501594201e-05 -1.060178328771144152e-05 -6.870807737868744880e-06 -1.318288559559732676e-05
4.852000000000000000e+03 3.482567369937896729e-01 9.569563269615173340e-01 1.790600435924716294e-05 1.144926227425457910e-05 8.806579899101052433e-06 4.451827862794743851e-06
4.853000000000000000e+03 3.085073232650756836e+00 1.101346254348754883e+00 1.203404644911643118e-05 -1.021609023155178875e-06 3.303731318737845868e-06 -1.162810576715855859e-06
4.854000000000000000e+03 3.812765598297119141e+00 1.108058333396911621e+00 -9.852035873336717486e-06 -7.378777127087232657e-07 -3.176974132657051086e-06 4.073132458870531991e-06
4.855000000000000000e+03 4.332499980926513672e+00 3.732680678367614746e-01 -2.539930392231326550e-06 1.910663485205077450e-07 -7.046592145343311131e-07 2.397295020273304544e-06
4.856000000000000000e+03 5.998572826385498047e+00 1.116749882698059082e+00 6.742317964381072670e-06 5.642652922688284889e-06 3.715491402545012534e-06 -2.320319481441401877e-06
4.857000000000000000e+03 6.600036144256591797e+00 3.784387111663818359e-01 2.692943780857603997e-06 7.925676072773057967e-06 3.185586137988138944e-06 4.175072092493792297e-07
4.858000000000000000e+03 8.186062812805175781e+00 1.120409965515136719e+00 -8.520737537764944136e-06 -7.473870937246829271e-06 -4.798382633453002200e-06 5.113207990348200838e-08
4.859000000000000000e+03 8.915593147277832031e+00 1.122819185256958008e+00 8.538346264685969800e-06 7.674567314097657800e-06 4.863873982685618103e-06 -5.301427563608740456e-08
4.860000000000000000e+03 7.456923484802246094e+00 1.119369149208068848e+00 7.863228347559925169e-06 7.147505129978526384e-06 4.503220225160475820e-06 -4.291691482194437413e-07
4.861000000000000000e+03 6.727965354919433594e+00 1.118438720703125000e+00 -7.714939783909358084e-06 -6.618113275180803612e-06 -4.299915872252313420e-06 1.138869151873223018e-06
4.862000000000000000e+03 5.270021438598632812e+00 1.115771770477294922e+00 -6.242516519705532119e-06 -4.673884632211411372e-06 -3.274920345575083047e-06 3.450615167821524665e-06
4.863000000000000000e+03 4.541490077972412109e+00 1.113268017768859863e+00 6.431152542063500732e-06 3.211602916053379886e-06 2.892826614697696641e-06 -4.705077571998117492e-06
4.864000000000000000e+03 9.950323700904846191e-01 1.133732318878173828e+00 4.653279574995394796e-06 -1.480862010794226080e-05 -3.046602159884059802e-06 4.209551207168260589e-06
4.865000000000000000e+03 7.951600551605224609e+00 -3.791473805904388428e-01 -1.732326381898019463e-05 -7.671485218452289701e-05 -2.821143425535410643e-05 -6.142924121377291158e-06
4.866000000000000000e+03 8.812386512756347656e+00 -1.121279358863830566e+00 -4.427121166372671723e-05 -6.659772770944982767e-05 -3.326067962916567922e-05 -2.153748755517881364e-05
4.867000000000000000e+03 9.587816238403320312e+00 -3.863115906715393066e-01 -1.538822834845632315e-05 -9.837774996412917972e-05 -3.412979276617988944e-05 -5.682947517016145866e-07
4.868000000000000000e+03 7.132064342498779297e+00 -3.779651820659637451e-01 2.548081101849675179e-05 5.858534859726205468e-05 2.521984788472764194e-05 4.092840299563249573e-06
4.869000000000000000e+03 6.306247234344482422e+00 -3.772793114185333252e-01 -2.752575164777226746e-05 -4.918940976494923234e-05 -2.301454878761433065e-05 4.199591785436496139e-06
4.870000000000000000e+03 5.442752361297607422e+00 -3.835102021694183350e-01 1.486943438067100942e-05 4.484676537686027586e-05 1.791486101865302771e-05 4.119492587051354349e-07
4.871000000000000000e+03 4.552286148071289062e+00 -3.399353623390197754e-01 -3.153347643092274666e-05 -5.172170494915917516e-05 -2.497655441402457654e-05 7.654265914425195660e-07
4.872000000000000000e+03 4.371328830718994141e+00 -8.708365559577941895e-01 1.799878809833899140e-04 6.657107587670907378e-05 7.396769069600850344e-05 7.334675319725647569e-05
4.873000000000000000e+03 2.785328388214111328e+00 -7.796061038970947266e-01 5.921036790823563933e-05 -1.017843969748355448e-04 -1.277220871997997165e-05 1.627675810595974326e-04
4.874000000000000000e+03 1.180722951889038086e+00 -3.608860373497009277e-01 -1.422064815415069461e-04 9.169825352728366852e-05 -1.515246640337863937e-05 -7.211252068373141810e-06
4.875000000000000000e+03 4.099212884902954102e-01 -5.526853203773498535e-01 -1.260359022126067430e-05 -6.823810690548270941e-05 -2.425250931992195547e-05 -3.772908166865818202e-05
4.876000000000000000e+03 7.477942705154418945e-01 -1.100885987281799316e+00 4.147286235820502043e-04 7.363501936197280884e-05 1.465090899728238583e-04 8.286754018627107143e-05
4.877000000000000000e+03 9.597747802734375000e+00 -1.126311540603637695e+00 4.550301673589274287e-05 7.409317913698032498e-05 3.587885657907463610e-05 6.038746960257412866e-06
4.878000000000000000e+03 8.026608467102050781e+00 -1.119147419929504395e+00 5.170743315829895437e-05 5.164009780855849385e-05 3.100425965385511518e-05 3.170281343045644462e-05
4.879000000000000000e+03 7.239610195159912109e+00 -1.117965221405029297e+00 -5.672326369676738977e-05 -2.689313623704947531e-05 -2.508492070774082094e-05 -3.669364741654135287e-05
4.880000000000000000e+03 6.446331024169921875e+00 -1.117279291152954102e+00 6.070156086934730411e-05 -1.780544516805093735e-05 1.286883525608573109e-05 4.282500231056474149e-05
4.881000000000000000e+03 5.615375041961669922e+00 -1.123510241508483887e+00 -1.925102151290047914e-05 5.683160634362138808e-05 1.127417544921627268e-05 -4.710426946985535324e-05
4.882000000000000000e+03 4.879715442657470703e+00 -1.221276640892028809e+00 -4.189391256659291685e-05 -1.643266878090798855e-04 -6.186617974890395999e-05 -8.706191692908760160e-06
4.883000000000000000e+03 4.223337173461914062e+00 -1.290901184082031250e+00 -1.369929086649790406e-04 1.493967429269105196e-04 3.721151415447820909e-06 -1.136632545239990577e-05
4.884000000000000000e+03 3.489140987396240234e+00 -1.263193726539611816e+00 9.799630061024799943e-05 -5.722095374949276447e-05 1.223260278493398800e-05 1.067830962711013854e-04
4.885000000000000000e+03 2.723763942718505859e+00 -1.258556365966796875e+00 4.747686944028828293e-06 -6.895243859617039561e-05 -1.926142431329935789e-05 -1.780034945113584399e-04
4.886000000000000000e+03 1.357383847236633301e+00 -1.202877521514892578e+00 -4.597221850417554379e-04 -1.778002479113638401e-04 -1.912567240651696920e-04 -3.169612682540901005e-05
4.887000000000000000e+03 8.769917488098144531e+00 -3.812793791294097900e-01 1.974151564354542643e-05 9.255979966837912798e-05 3.369039404788054526e-05 4.007196366728749126e-06
4.888000000000000000e+03 3.581377506256103516e+00 -7.854385375976562500e-01 -8.394627366214990616e-05 -7.536478733527474105e-06 -2.744482480920851231e-05 -1.004583100439049304e-04
4.889000000000000000e+03 3.695749998092651367e+00 -2.822447717189788818e-01 1.292671367991715670e-05 6.047670467523857951e-05 2.202102587034460157e-05 2.046268491540104151e-05
4.890000000000000000e+03 2.864297151565551758e+00 -2.810497581958770752e-01 -5.378798232413828373e-05 -4.658636316889896989e-05 -3.011230364791117609e-05 -3.367871613590978086e-05
4.891000000000000000e+03 1.994235515594482422e+00 -3.319245874881744385e-01 -1.761749786055588629e-06 -5.224667802394833416e-06 -2.095925310641177930e-06 6.482958997366949916e-05
4.892000000000000000e+03 1.981270551681518555e+00 -1.274680376052856445e+00 5.796733603347092867e-05 2.036954101640731096e-04 7.849882240407168865e-05 1.595717621967196465e-04
4.893000000000000000e+03 1.973554253578186035e+00 -8.466050028800964355e-01 2.030968753388151526e-04 1.285582548007369041e-04 9.949653758667409420e-05 -2.352772135054692626e-04
4.894000000000000000e+03 1.332448291778564453e+01 -3.621845245361328125e-01 2.123817466781474650e-05 4.694822200690396130e-05 2.045591827481985092e-05 9.278423931391444057e-06
4.895000000000000000e+03 1.426397991180419922e+01 -1.317608714103698730e+00 -7.074126915540546179e-05 -6.090906754252500832e-05 -3.949509846279397607e-05 -1.815645737224258482e-05
4.896000000000000000e+03 1.327361392974853516e+01 -1.248556852340698242e+00 -1.056475812220014632e-04 -5.024393976782448590e-05 -4.676745447795838118e-05 6.353873322950676084e-05
4.897000000000000000e+03 1.480296707153320312e+01 -1.047354817390441895e+00 4.533485844149254262e-05 3.277957148384302855e-05 2.343432970519643277e-05 1.217530734720639884e-05
4.898000000000000000e+03 1.356446647644042969e+01 -7.579438090324401855e-01 4.085971886524930596e-05 1.329691167484270409e-05 1.624698961677495390e-05 -6.174178997753188014e-05
4.899000000000000000e+03 1.393659019470214844e+01 -3.302382230758666992e-01 -1.210007667395984754e-05 -2.894914177886676043e-05 -1.231476562679745257e-05 1.744037763273809105e-05
4.900000000000000000e+03 1.449034786224365234e+01 -4.399540424346923828e-01 -2.218069857917726040e-05 -2.136080729542300105e-05 -1.306245121668325737e-05 -3.549192842910997570e-05
4.901000000000000000e+03 1.380024147033691406e+01 -1.352263331413269043e+00 1.496018812758848071e-04 3.504815322230570018e-05 5.539501216844655573e-05 -3.306997678009793162e-05
4.902000000000000000e+03 1.402595424652099609e+01 -9.610455632209777832e-01 2.010980824707075953e-05 -1.025541041599353775e-05 2.956319349323166534e-06 6.208513514138758183e-05
4.903000000000000000e+03 1.185737037658691406e+01 -1.162281751632690430e+00 -4.610167889040894806e-05 -6.901874439790844917e-05 -3.453612589510157704e-05 1.639372203499078751e-05
4.904000000000000000e+03 1.112013435363769531e+01 -4.102526009082794189e-01 -1.651899583521299064e-05 -8.862843969836831093e-05 -3.154423029627650976e-05 4.522031304077245295e-06
4.905000000000000000e+03 1.261753940582275391e+01 -4.348734915256500244e-01 -2.541802859923336655e-05 -4.645748413167893887e-05 -2.156265509256627411e-05 7.089754944900050759e-06
4.906000000000000000e+03 1.037124824523925781e+01 -3.971002995967864990e-01 1.925286414916627109e-05 1.015041561913676560e-04 3.622710573836229742e-05 -2.802450580929871649e-06
4.907000000000000000e+03 1.036389350891113281e+01 -1.137082934379577637e+00 -4.925136818201281130e-05 -7.810231909388676286e-05 -3.820610436378046870e-05 6.579210094059817493e-06
4.908000000000000000e+03 1.260408973693847656e+01 -1.174751639366149902e+00 6.386140012182295322e-05 6.059134830138646066e-05 3.733582707354798913e-05 -2.528064214857295156e-05
4.909000000000000000e+03 1.111074829101562500e+01 -1.150200366973876953e+00 5.280202822177670896e-05 7.117065979400649667e-05 3.719180676853284240e-05 -1.418040301359724253e-05
4.910000000000000000e+03 1.186878871917724609e+01 -4.223687946796417236e-01 1.510091533418744802e-05 6.865544128231704235e-05 2.512690662115346640e-05 -1.014925510389730334e-05
4.911000000000000000e+03 5.778032302856445312e+01 3.118136215209960938e+01 3.316441726684570312e+01 4.523075580596923828e+00 1.130624771118164062e+01 9.987170219421386719e+00
4.912000000000000000e+03 5.778262710571289062e+01 3.116203117370605469e+01 3.237905120849609375e+01 1.517225360870361328e+01 1.426539230346679688e+01 2.230639648437500000e+01
4.913000000000000000e+03 5.778864669799804688e+01 3.114351654052734375e+01 3.075836753845214844e+01 2.652140045166015625e+01 1.718392944335937500e+01 2.726098632812500000e+01
4.914000000000000000e+03 5.779815673828125000e+01 3.112652969360351562e+01 2.730853652954101562e+01 3.883932876586914062e+01 1.984436035156250000e+01 2.959235000610351562e+01
4.915000000000000000e+03 5.781079101562500000e+01 3.111171722412109375e+01 2.382090187072753906e+01 5.057968521118164062e+01 2.232017517089843750e+01 2.882903671264648438e+01
4.916000000000000000e+03 5.782606887817382812e+01 3.109964942932128906e+01 2.005358123779296875e+01 6.102339553833007812e+01 2.432309341430664062e+01 2.548176574707031250e+01
4.917000000000000000e+03 5.784340286254882812e+01 3.109078788757324219e+01 1.768321228027343750e+01 6.919144439697265625e+01 2.606239700317382812e+01 1.996345138549804688e+01
4.918000000000000000e+03 5.786212921142578125e+01 3.108546829223632812e+01 1.671401786804199219e+01 7.441628265380859375e+01 2.733909034729003906e+01 1.297141075134277344e+01
4.919000000000000000e+03 5.788153457641601562e+01 3.108389663696289062e+01 1.783838272094726562e+01 7.637795257568359375e+01 2.826490020751953125e+01 5.677760124206542969e+00
4.920000000000000000e+03 5.790087127685546875e+01 3.108613204956054688e+01 2.086472129821777344e+01 7.527088165283203125e+01 2.884068107604980469e+01 -1.003600597381591797e+00
4.921000000000000000e+03 5.791940689086914062e+01 3.109209251403808594e+01 2.546026802062988281e+01 7.177138519287109375e+01 2.916949653625488281e+01 -6.152787208557128906e+00
4.922000000000000000e+03 5.793642425537109375e+01 3.110154533386230469e+01 3.075778198242187500e+01 6.670069885253906250e+01 2.923754501342773438e+01 -9.275442123413085938e+00
4.923000000000000000e+03 5.795127868652343750e+01 3.111413002014160156e+01 3.619124221801757812e+01 6.117344665527343750e+01 2.920940780639648438e+01 -1.018056869506835938e+01
4.924000000000000000e+03 5.796339797973632812e+01 3.112936592102050781e+01 4.098645401000976562e+01 5.603261184692382812e+01 2.910572052001953125e+01 -9.088935852050781250e+00
4.925000000000000000e+03 5.797232055664062500e+01 3.114666938781738281e+01 4.468870925903320312e+01 5.192009353637695312e+01 2.898264122009277344e+01 -6.395109653472900391e+00
4.926000000000000000e+03 5.797769927978515625e+01 3.116538047790527344e+01 4.695397567749023438e+01 4.941876983642578125e+01 2.891182327270507812e+01 -2.668729305267333984e+00
4.927000000000000000e+03 5.797933578491210938e+01 3.118478012084960938e+01 4.772851943969726562e+01 4.878050613403320312e+01 2.895270729064941406e+01 1.700770854949951172e+00
4.928000000000000000e+03 5.797716140747070312e+01 3.120412635803222656e+01 4.675048828125000000e+01 4.978179931640625000e+01 2.895968627929687500e+01 5.993555545806884766e+00
4.929000000000000000e+03 5.797126770019531250e+01 3.122267913818359375e+01 4.427341461181640625e+01 5.287155532836914062e+01 2.914349174499511719e+01 9.703773498535156250e+00
4.930000000000000000e+03 5.796187210083007812e+01 3.123973083496093750e+01 4.016283416748046875e+01 5.737775802612304688e+01 2.926217651367187500e+01 1.232595348358154297e+01
4.931000000000000000e+03 5.794933700561523438e+01 3.125462532043457031e+01 3.495734405517578125e+01 6.280582046508789062e+01 2.932894897460937500e+01 1.320420169830322266e+01
4.932000000000000000e+03 5.793413925170898438e+01 3.126679420471191406e+01 2.913733291625976562e+01 6.868450927734375000e+01 2.934655380249023438e+01 1.189875793457031250e+01
4.933000000000000000e+03 5.791686630249023438e+01 3.127577400207519531e+01 2.336823844909667969e+01 7.360585784912109375e+01 2.909222984313964844e+01 8.398571968078613281e+00
4.934000000000000000e+03 5.789817428588867188e+01 3.128121757507324219e+01 1.858793830871582031e+01 7.691306304931640625e+01 2.865029907226562500e+01 2.721745967864990234e+00
4.935000000000000000e+03 5.787878036499023438e+01 3.128291702270507812e+01 1.536248397827148438e+01 7.746064758300781250e+01 2.784694099426269531e+01 -4.270432949066162109e+00
4.936000000000000000e+03 5.785942459106445312e+01 3.128080940246582031e+01 1.421210670471191406e+01 7.480707550048828125e+01 2.670575523376464844e+01 -1.191910171508789062e+01
4.937000000000000000e+03 5.784085083007812500e+01 3.127497482299804688e+01 1.493848896026611328e+01 6.887032318115234375e+01 2.514264488220214844e+01 -1.885671424865722656e+01
4.938000000000000000e+03 5.782377243041992188e+01 3.126563644409179688e+01 1.770838737487792969e+01 5.991488265991210938e+01 2.328698158264160156e+01 -2.437474632263183594e+01
4.939000000000000000e+03 5.780883407592773438e+01 3.125314903259277344e+01 2.090144157409667969e+01 4.876100540161132812e+01 2.089873313903808594e+01 -2.756428718566894531e+01
4.940000000000000000e+03 5.779661560058593750e+01 3.123799514770507812e+01 2.533939933776855469e+01 3.614822769165039062e+01 1.844628906250000000e+01 -2.773360252380371094e+01
4.941000000000000000e+03 5.778757858276367188e+01 3.122075080871582031e+01 2.852648735046386719e+01 2.315917396545410156e+01 1.550569820404052734e+01 -2.496709632873535156e+01
4.942000000000000000e+03 5.778207397460937500e+01 3.120207595825195312e+01 3.329478836059570312e+01 8.763539314270019531e+00 1.261749839782714844e+01 -1.488931179046630859e+01
