# el_label, x, y, sXX, sYY, sZZ, sXY
1.000000000000000000e+00 4.568070220947265625e+01 3.269834136962890625e+01 -6.678792953491210938e+00 -1.909927606582641602e+00 -2.576616048812866211e+00 -2.234488010406494141e+00
2.000000000000000000e+00 4.548218536376953125e+01 3.271277236938476562e+01 -7.848265171051025391e-01 8.253296613693237305e-01 1.215094886720180511e-02 1.045293331146240234e+00
3.000000000000000000e+00 4.528366851806640625e+01 3.272720336914062500e+01 -2.176741600036621094e+00 -5.669064521789550781e-01 -8.230943679809570312e-01 2.152609080076217651e-01
4.000000000000000000e+00 4.508515167236328125e+01 3.274163436889648438e+01 -2.340985059738159180e+00 1.285254061222076416e-01 -6.637378931045532227e-01 6.369476914405822754e-01
5.000000000000000000e+00 4.568218612670898438e+01 3.263995361328125000e+01 1.051763916015625000e+01 -2.745191335678100586e+00 2.331734418869018555e+00 -3.145967125892639160e-01
6.000000000000000000e+00 4.548465728759765625e+01 3.261546325683593750e+01 3.373910903930664062e+00 -1.878484897315502167e-02 1.006537795066833496e+00 6.801787614822387695e-01
7.000000000000000000e+00 4.528712844848632812e+01 3.259097290039062500e+01 3.600080490112304688e+00 2.092278748750686646e-01 1.142792463302612305e+00 1.588138222694396973e+00
8.000000000000000000e+00 4.508959960937500000e+01 3.256647872924804688e+01 2.260484695434570312e+00 -3.222227692604064941e-01 5.814785957336425781e-01 9.546925425529479980e-01
9.000000000000000000e+00 4.569500732421875000e+01 3.258297729492187500e+01 1.830819702148437500e+01 -5.110831931233406067e-02 5.477126598358154297e+00 6.436774253845214844e+00
1.000000000000000000e+01 4.550602722167968750e+01 3.252049636840820312e+01 1.069877910614013672e+01 1.788668632507324219e-01 3.263293981552124023e+00 3.706659555435180664e+00
1.100000000000000000e+01 4.531704711914062500e+01 3.245801925659179688e+01 7.238497257232666016e+00 7.814130187034606934e-01 2.405972957611083984e+00 3.118716716766357422e+00
1.200000000000000000e+01 4.512806320190429688e+01 3.239553833007812500e+01 6.268424510955810547e+00 5.975016951560974121e-01 2.059777975082397461e+00 3.135756254196166992e+00
1.300000000000000000e+01 4.571867370605468750e+01 3.252958297729492188e+01 2.199994850158691406e+01 5.398695468902587891e+00 8.219593048095703125e+00 1.267353820800781250e+01
1.400000000000000000e+01 4.554547500610351562e+01 3.243150711059570312e+01 1.396167182922363281e+01 3.007600069046020508e+00 5.090781211853027344e+00 8.149763107299804688e+00
1.500000000000000000e+01 4.537227249145507812e+01 3.233343124389648438e+01 1.083130359649658203e+01 2.806151628494262695e+00 4.091236591339111328e+00 6.391294002532958984e+00
1.600000000000000000e+01 4.519906997680664062e+01 3.223535919189453125e+01 8.559303283691406250e+00 2.165195941925048828e+00 3.217350006103515625e+00 5.452033996582031250e+00
1.700000000000000000e+01 4.575228500366210938e+01 3.248181915283203125e+01 2.148328781127929688e+01 1.263686466217041016e+01 1.023604583740234375e+01 1.773622894287109375e+01
1.800000000000000000e+01 4.560149002075195312e+01 3.235189819335937500e+01 1.521606731414794922e+01 8.255515098571777344e+00 7.041474819183349609e+00 1.209057044982910156e+01
1.900000000000000000e+01 4.545069885253906250e+01 3.222198104858398438e+01 1.175834941864013672e+01 6.244196414947509766e+00 5.400763988494873047e+00 9.651919364929199219e+00
2.000000000000000000e+01 4.529990386962890625e+01 3.209206390380859375e+01 1.003517818450927734e+01 5.617245674133300781e+00 4.695726871490478516e+00 8.341523170471191406e+00
2.100000000000000000e+01 4.579455184936523438e+01 3.244151306152343750e+01 1.922041702270507812e+01 2.170790672302246094e+01 1.227849769592285156e+01 2.028678321838378906e+01
2.200000000000000000e+01 4.567193603515625000e+01 3.228472518920898438e+01 1.394733428955078125e+01 1.425163555145263672e+01 8.459691047668457031e+00 1.480683898925781250e+01
2.300000000000000000e+01 4.554932022094726562e+01 3.212793731689453125e+01 1.146370983123779297e+01 1.165271759033203125e+01 6.934927940368652344e+00 1.201920890808105469e+01
2.400000000000000000e+01 4.542670440673828125e+01 3.197114753723144531e+01 9.714850425720214844e+00 9.574275016784667969e+00 5.786737442016601562e+00 1.042523193359375000e+01
2.500000000000000000e+01 4.584385681152343750e+01 3.241020584106445312e+01 1.536276245117187500e+01 3.028932571411132812e+01 1.369562721252441406e+01 2.041816329956054688e+01
2.600000000000000000e+01 4.575411224365234375e+01 3.223254394531250000e+01 1.219632911682128906e+01 2.128660774230957031e+01 1.004488182067871094e+01 1.541619682312011719e+01
2.700000000000000000e+01 4.566436386108398438e+01 3.205488586425781250e+01 9.673350334167480469e+00 1.699922943115234375e+01 8.001773834228515625e+00 1.320029926300048828e+01
2.800000000000000000e+01 4.557461929321289062e+01 3.187722778320312500e+01 8.485523223876953125e+00 1.507882881164550781e+01 7.069305896759033203e+00 1.120048236846923828e+01
2.900000000000000000e+01 4.589831542968750000e+01 3.238909530639648438e+01 1.254721069335937500e+01 3.813301849365234375e+01 1.520406818389892578e+01 1.787226295471191406e+01
3.000000000000000000e+01 4.584487152099609375e+01 3.219736099243164062e+01 9.630125045776367188e+00 2.758953857421875000e+01 1.116589832305908203e+01 1.445479965209960938e+01
3.100000000000000000e+01 4.579143142700195312e+01 3.200563049316406250e+01 8.149058341979980469e+00 2.263002395629882812e+01 9.233724594116210938e+00 1.234551048278808594e+01
3.200000000000000000e+01 4.573798751831054688e+01 3.181389999389648438e+01 6.466582775115966797e+00 1.970194816589355469e+01 7.850559234619140625e+00 1.117395210266113281e+01
3.300000000000000000e+01 4.595583724975585938e+01 3.237899017333984375e+01 1.066443061828613281e+01 4.388291931152343750e+01 1.636420440673828125e+01 1.351519870758056641e+01
3.400000000000000000e+01 4.594074630737304688e+01 3.218052291870117188e+01 8.118802070617675781e+00 3.275579071044921875e+01 1.226237773895263672e+01 1.190802669525146484e+01
3.500000000000000000e+01 4.592565155029296875e+01 3.198205566406250000e+01 6.470250606536865234e+00 2.751266860961914062e+01 1.019487571716308594e+01 1.029421138763427734e+01
3.600000000000000000e+01 4.591056060791015625e+01 3.178358840942382812e+01 5.436007976531982422e+00 2.379239845275878906e+01 8.768522262573242188e+00 9.302824974060058594e+00
3.700000000000000000e+01 4.601422882080078125e+01 3.238027954101562500e+01 1.067165374755859375e+01 4.722151565551757812e+01 1.736795043945312500e+01 8.453647613525390625e+00
3.800000000000000000e+01 4.603806304931640625e+01 3.218267059326171875e+01 7.775633811950683594e+00 3.623229217529296875e+01 1.320237827301025391e+01 8.239263534545898438e+00
3.900000000000000000e+01 4.606189727783203125e+01 3.198506164550781250e+01 5.759407043457031250e+00 3.068208885192871094e+01 1.093244838714599609e+01 7.533266544342041016e+00
4.000000000000000000e+01 4.608573150634765625e+01 3.178745460510253906e+01 4.985054969787597656e+00 2.778573226928710938e+01 9.831235885620117188e+00 6.784710407257080078e+00
4.100000000000000000e+01 4.607125091552734375e+01 3.239291000366210938e+01 1.225613975524902344e+01 4.797674942016601562e+01 1.806986618041992188e+01 3.605504035949707031e+00
4.200000000000000000e+01 4.613309860229492188e+01 3.220372390747070312e+01 8.968377113342285156e+00 3.801774597167968750e+01 1.409583663940429688e+01 4.363304615020751953e+00
4.300000000000000000e+01 4.619495010375976562e+01 3.201453399658203125e+01 6.366334438323974609e+00 3.232538604736328125e+01 1.160751628875732422e+01 4.218959808349609375e+00
4.400000000000000000e+01 4.625679397583007812e+01 3.182534790039062500e+01 5.506574630737304688e+00 2.838124275207519531e+01 1.016634464263916016e+01 4.377301692962646484e+00
4.500000000000000000e+01 4.612472152709960938e+01 3.241640472412109375e+01 1.638925743103027344e+01 4.731760787963867188e+01 1.911205863952636719e+01 2.954904921352863312e-02
4.600000000000000000e+01 4.622222137451171875e+01 3.224287414550781250e+01 1.035600280761718750e+01 3.766675567626953125e+01 1.440682792663574219e+01 6.124600172042846680e-01
4.700000000000000000e+01 4.631971740722656250e+01 3.206934738159179688e+01 9.174517631530761719e+00 3.260610961914062500e+01 1.253418827056884766e+01 1.516011118888854980e+00
4.800000000000000000e+01 4.641721343994140625e+01 3.189582061767578125e+01 6.460969448089599609e+00 2.782909584045410156e+01 1.028701972961425781e+01 7.648107409477233887e-01
4.900000000000000000e+01 4.617259979248046875e+01 3.244985580444335938e+01 1.980175971984863281e+01 4.426271820068359375e+01 1.921934318542480469e+01 -2.756945848464965820e+00
5.000000000000000000e+01 4.630201339721679688e+01 3.229862594604492188e+01 1.417528820037841797e+01 3.690850830078125000e+01 1.532513904571533203e+01 -1.157628417015075684e+00
5.100000000000000000e+01 4.643142700195312500e+01 3.214739990234375000e+01 1.100420284271240234e+01 3.071805381774902344e+01 1.251667690277099609e+01 -1.486807823181152344e+00
5.200000000000000000e+01 4.656084060668945312e+01 3.199617576599121094e+01 9.777215957641601562e+00 2.915135574340820312e+01 1.167857170104980469e+01 -9.003384113311767578e-01
5.300000000000000000e+01 4.621304702758789062e+01 3.249198532104492188e+01 2.372081756591796875e+01 4.226988983154296875e+01 1.979721260070800781e+01 -3.274750232696533203e+00
5.400000000000000000e+01 4.636942672729492188e+01 3.236884689331054688e+01 1.782991600036621094e+01 3.393111038208007812e+01 1.552830791473388672e+01 -2.421752452850341797e+00
5.500000000000000000e+01 4.652580261230468750e+01 3.224570846557617188e+01 1.381043529510498047e+01 2.991680908203125000e+01 1.311817264556884766e+01 -2.238148212432861328e+00
5.600000000000000000e+01 4.668218231201171875e+01 3.212257003784179688e+01 1.194392013549804688e+01 2.653963661193847656e+01 1.154506683349609375e+01 -1.421683073043823242e+00
5.700000000000000000e+01 4.624451828002929688e+01 3.254118728637695312e+01 2.776036453247070312e+01 3.976390075683593750e+01 2.025728034973144531e+01 -2.123188972473144531e+00
5.800000000000000000e+01 4.642187881469726562e+01 3.245084762573242188e+01 2.049085807800292969e+01 3.152022171020507812e+01 1.560332298278808594e+01 -2.499447822570800781e+00
5.900000000000000000e+01 4.659923553466796875e+01 3.236051177978515625e+01 1.719162750244140625e+01 2.815069007873535156e+01 1.360269546508789062e+01 -1.283813953399658203e+00
6.000000000000000000e+01 4.677659606933593750e+01 3.227017211914062500e+01 1.405702114105224609e+01 2.357372093200683594e+01 1.128922271728515625e+01 -1.555458545684814453e+00
6.100000000000000000e+01 4.626580810546875000e+01 3.259557342529296875e+01 2.962242507934570312e+01 3.693227767944335938e+01 1.996641159057617188e+01 -6.148819923400878906e-01
6.200000000000000000e+01 4.645736312866210938e+01 3.254149246215820312e+01 2.306138992309570312e+01 3.073937034606933594e+01 1.614022827148437500e+01 -3.848229050636291504e-01
6.300000000000000000e+01 4.664891433715820312e+01 3.248741149902343750e+01 1.898893737792968750e+01 2.522526550292968750e+01 1.326426029205322266e+01 -4.301275610923767090e-01
6.400000000000000000e+01 4.684046554565429688e+01 3.243332672119140625e+01 1.705494308471679688e+01 2.396192169189453125e+01 1.230505943298339844e+01 -4.606236815452575684e-01
6.500000000000000000e+01 4.627610397338867188e+01 3.265306091308593750e+01 3.090948295593261719e+01 3.688295745849609375e+01 2.033773231506347656e+01 2.064596891403198242e+00
6.600000000000000000e+01 4.647452163696289062e+01 3.263730621337890625e+01 2.377268028259277344e+01 2.894095420837402344e+01 1.581409072875976562e+01 1.953217744827270508e+00
6.700000000000000000e+01 4.667293548583984375e+01 3.262155151367187500e+01 1.992607879638671875e+01 2.547885894775390625e+01 1.362148094177246094e+01 1.549999952316284180e+00
6.800000000000000000e+01 4.687135314941406250e+01 3.260579681396484375e+01 1.696907043457031250e+01 2.292116546630859375e+01 1.196707057952880859e+01 1.208060860633850098e+00
6.900000000000000000e+01 4.627500915527343750e+01 3.271145629882812500e+01 3.011109352111816406e+01 3.671656799316406250e+01 2.004829788208007812e+01 4.928020954132080078e+00
7.000000000000000000e+01 4.647269439697265625e+01 3.273463058471679688e+01 2.337300872802734375e+01 2.950403976440429688e+01 1.586311435699462891e+01 4.497200489044189453e+00
7.100000000000000000e+01 4.667038345336914062e+01 3.275780487060546875e+01 1.901995658874511719e+01 2.574453353881835938e+01 1.342934703826904297e+01 3.805780649185180664e+00
7.200000000000000000e+01 4.686806869506835938e+01 3.278097915649414062e+01 1.577679061889648438e+01 2.314836311340332031e+01 1.167754650115966797e+01 3.739368200302124023e+00
7.300000000000000000e+01 4.626256942749023438e+01 3.276852035522460938e+01 2.803765487670898438e+01 3.830719757080078125e+01 1.990345573425292969e+01 7.603715896606445312e+00
7.400000000000000000e+01 4.645196151733398438e+01 3.282973861694335938e+01 2.101676559448242188e+01 3.078806114196777344e+01 1.554144859313964844e+01 6.382762432098388672e+00
7.500000000000000000e+01 4.664135360717773438e+01 3.289095687866210938e+01 1.710207557678222656e+01 2.696072387695312500e+01 1.321883964538574219e+01 5.954097270965576172e+00
7.600000000000000000e+01 4.683074569702148438e+01 3.295217514038085938e+01 1.466878795623779297e+01 2.412541007995605469e+01 1.163825893402099609e+01 5.488863468170166016e+00
7.700000000000000000e+01 4.623925399780273438e+01 3.282207107543945312e+01 2.440673255920410156e+01 4.028008270263671875e+01 1.940604591369628906e+01 9.280502319335937500e+00
7.800000000000000000e+01 4.641310501098632812e+01 3.291898727416992188e+01 1.745168113708496094e+01 3.354312896728515625e+01 1.529844284057617188e+01 7.535365581512451172e+00
7.900000000000000000e+01 4.658695602416992188e+01 3.301590728759765625e+01 1.428635978698730469e+01 2.817227554321289062e+01 1.273759078979492188e+01 6.559949874877929688e+00
8.000000000000000000e+01 4.676080703735351562e+01 3.311282348632812500e+01 1.248992347717285156e+01 2.581929206848144531e+01 1.149276447296142578e+01 6.265047550201416016e+00
8.100000000000000000e+01 4.620596313476562500e+01 3.287005615234375000e+01 1.976774406433105469e+01 4.357905578613281250e+01 1.900403976440429688e+01 9.474959373474121094e+00
8.200000000000000000e+01 4.635762023925781250e+01 3.299896621704101562e+01 1.330925083160400391e+01 3.571173858642578125e+01 1.470629692077636719e+01 7.494478225708007812e+00
8.300000000000000000e+01 4.650927734375000000e+01 3.312787628173828125e+01 1.049731826782226562e+01 3.097636032104492188e+01 1.244210338592529297e+01 5.741023540496826172e+00
8.400000000000000000e+01 4.666093444824218750e+01 3.325678253173828125e+01 9.073051452636718750e+00 2.628032493591308594e+01 1.060601329803466797e+01 5.121267318725585938e+00
8.500000000000000000e+01 4.616396713256835938e+01 3.291064453125000000e+01 1.448143386840820312e+01 4.670444869995117188e+01 1.835576438903808594e+01 8.046255111694335938e+00
8.600000000000000000e+01 4.628762435913085938e+01 3.306661224365234375e+01 9.209304809570312500e+00 3.761973953247070312e+01 1.404871273040771484e+01 5.620856285095214844e+00
8.700000000000000000e+01 4.641128540039062500e+01 3.322257995605468750e+01 6.783889770507812500e+00 3.304113388061523438e+01 1.194750785827636719e+01 4.380935668945312500e+00
8.800000000000000000e+01 4.653494262695312500e+01 3.337854385375976562e+01 4.746834754943847656e+00 2.896487426757812500e+01 1.011351203918457031e+01 2.719303369522094727e+00
8.900000000000000000e+01 4.611487197875976562e+01 3.294227981567382812e+01 9.490520477294921875e+00 4.859683227539062500e+01 1.742620468139648438e+01 4.868845939636230469e+00
9.000000000000000000e+01 4.620579910278320312e+01 3.311933898925781250e+01 5.815287590026855469e+00 3.886861419677734375e+01 1.340517139434814453e+01 2.371335029602050781e+00
9.100000000000000000e+01 4.629673004150390625e+01 3.329639434814453125e+01 3.641664981842041016e+00 3.314330291748046875e+01 1.103549003601074219e+01 1.812217354774475098e+00
9.200000000000000000e+01 4.638765716552734375e+01 3.347344970703125000e+01 2.730068922042846680e+00 3.150884437561035156e+01 1.027167415618896484e+01 1.716177582740783691e+00
9.300000000000000000e+01 4.606055831909179688e+01 3.296375274658203125e+01 5.788657188415527344e+00 4.909485244750976562e+01 1.646505165100097656e+01 -8.235261589288711548e-02
9.400000000000000000e+01 4.611527633666992188e+01 3.315512466430664062e+01 3.499979734420776367e+00 3.796372222900390625e+01 1.243911075592041016e+01 -1.503705978393554688e+00
9.500000000000000000e+01 4.616999435424804688e+01 3.334649658203125000e+01 1.836197257041931152e+00 3.252692413330078125e+01 1.030893611907958984e+01 -1.509446978569030762e+00
9.600000000000000000e+01 4.622471237182617188e+01 3.353786849975585938e+01 2.373419284820556641e+00 2.835055160522460938e+01 9.217191696166992188e+00 -8.914424777030944824e-01
9.700000000000000000e+01 4.600310134887695312e+01 3.297423934936523438e+01 4.419144153594970703e+00 4.713089752197265625e+01 1.546501159667968750e+01 -5.668787002563476562e+00
9.800000000000000000e+01 4.601951980590820312e+01 3.317259979248046875e+01 2.063301324844360352e+00 3.527112197875976562e+01 1.120032691955566406e+01 -5.780951023101806641e+00
9.900000000000000000e+01 4.603593444824218750e+01 3.337096405029296875e+01 2.183720588684082031e+00 2.944191741943359375e+01 9.487691879272460938e+00 -4.755653381347656250e+00
1.000000000000000000e+02 4.605234909057617188e+01 3.356932449340820312e+01 7.743858098983764648e-01 2.522395515441894531e+01 7.799502372741699219e+00 -5.169998645782470703e+00
1.010000000000000000e+02 4.594470596313476562e+01 3.297333908081054688e+01 3.820062160491943359e+00 4.204451751708984375e+01 1.375937461853027344e+01 -1.132096672058105469e+01
1.020000000000000000e+02 4.592218780517578125e+01 3.317110061645507812e+01 3.472883939743041992e+00 3.077521896362304688e+01 1.027443027496337891e+01 -9.028235435485839844e+00
1.030000000000000000e+02 4.589966964721679688e+01 3.336886596679687500e+01 1.943888664245605469e+00 2.472425842285156250e+01 8.000444412231445312e+00 -8.279421806335449219e+00
1.040000000000000000e+02 4.587715530395507812e+01 3.356662750244140625e+01 1.673066020011901855e+00 2.210005760192871094e+01 7.131937503814697266e+00 -6.973317623138427734e+00
1.050000000000000000e+02 4.588759994506835938e+01 3.296108627319335938e+01 6.566142559051513672e+00 3.517232513427734375e+01 1.252153968811035156e+01 -1.496588230133056641e+01
1.060000000000000000e+02 4.582701110839843750e+01 3.315068435668945312e+01 4.381265163421630859e+00 2.398515892028808594e+01 8.509927749633789062e+00 -1.170294094085693359e+01
1.070000000000000000e+02 4.576642608642578125e+01 3.334027862548828125e+01 3.715620040893554688e+00 1.986802864074707031e+01 7.075094699859619141e+00 -9.532649993896484375e+00
1.080000000000000000e+02 4.570584106445312500e+01 3.352987670898437500e+01 2.551156759262084961e+00 1.644940185546875000e+01 5.700167179107666016e+00 -8.540344238281250000e+00
1.090000000000000000e+02 4.583397293090820312e+01 3.293795394897460938e+01 9.065696716308593750e+00 2.547597885131835938e+01 1.036250209808349609e+01 -1.687481307983398438e+01
1.100000000000000000e+02 4.573763275146484375e+01 3.311212539672851562e+01 6.628510951995849609e+00 1.737329101562500000e+01 7.200540542602539062e+00 -1.187121772766113281e+01
1.110000000000000000e+02 4.564129638671875000e+01 3.328630065917968750e+01 4.791173934936523438e+00 1.329699611663818359e+01 5.426451206207275391e+00 -9.652101516723632812e+00
1.120000000000000000e+02 4.554496002197265625e+01 3.346047210693359375e+01 3.882820129394531250e+00 1.204947566986083984e+01 4.779688835144042969e+00 -8.274827957153320312e+00
1.130000000000000000e+02 4.578587341308593750e+01 3.290481948852539062e+01 1.210311889648437500e+01 1.605536460876464844e+01 8.447545051574707031e+00 -1.546649265289306641e+01
1.140000000000000000e+02 4.565747070312500000e+01 3.305690765380859375e+01 7.387562751770019531e+00 9.740136146545410156e+00 5.138309478759765625e+00 -1.018019008636474609e+01
1.150000000000000000e+02 4.552906799316406250e+01 3.320899581909179688e+01 5.692210674285888672e+00 8.299396514892578125e+00 4.197482109069824219e+00 -7.916326522827148438e+00
1.160000000000000000e+02 4.540066528320312500e+01 3.336107635498046875e+01 4.113967895507812500e+00 6.953086376190185547e+00 3.320116281509399414e+00 -6.609512805938720703e+00
1.170000000000000000e+02 4.574514770507812500e+01 3.286296081542968750e+01 1.218914794921875000e+01 6.408463954925537109e+00 5.579283237457275391e+00 -1.134202671051025391e+01
1.180000000000000000e+02 4.558959197998046875e+01 3.298714065551757812e+01 7.219340324401855469e+00 4.162035465240478516e+00 3.414412736892700195e+00 -6.524644851684570312e+00
1.190000000000000000e+02 4.543403625488281250e+01 3.311131668090820312e+01 4.238973140716552734e+00 3.740528821945190430e+00 2.393850564956665039e+00 -4.839935302734375000e+00
1.200000000000000000e+02 4.527848434448242188e+01 3.323549270629882812e+01 3.454083681106567383e+00 3.845547676086425781e+00 2.189889430999755859e+00 -4.376642227172851562e+00
1.210000000000000000e+02 4.571334838867187500e+01 3.281396865844726562e+01 9.646852493286132812e+00 -1.064291477203369141e+00 2.574768304824829102e+00 -4.380331516265869141e+00
1.220000000000000000e+02 4.553659439086914062e+01 3.290549087524414062e+01 2.572402477264404297e+00 7.679175734519958496e-01 1.002095937728881836e+00 -1.914555549621582031e+00
1.230000000000000000e+02 4.535984039306640625e+01 3.299700927734375000e+01 2.114125490188598633e+00 2.027228832244873047e+00 1.242406249046325684e+00 -2.407177209854125977e+00
1.240000000000000000e+02 4.518309020996093750e+01 3.308852767944335938e+01 9.859656095504760742e-01 5.181669592857360840e-01 4.512397646903991699e-01 -1.625846266746520996e+00
1.250000000000000000e+02 4.569169616699218750e+01 3.275972747802734375e+01 -4.144951820373535156e+00 -4.101732254028320312e+00 -2.474005222320556641e+00 3.047535419464111328e+00
1.260000000000000000e+02 4.550050735473632812e+01 3.281508636474609375e+01 -1.179040074348449707e+00 1.543605685234069824e+00 1.093696728348731995e-01 -3.862389624118804932e-01
1.270000000000000000e+02 4.530931854248046875e+01 3.287044143676757812e+01 -2.250655651092529297e+00 -7.187172770500183105e-01 -8.908118605613708496e-01 3.318834602832794189e-01
1.280000000000000000e+02 4.511812973022460938e+01 3.292580032348632812e+01 -2.590333461761474609e+00 3.539779186248779297e-01 -6.709066629409790039e-01 3.638028502464294434e-01
1.290000000000000000e+02 2.333872413635253906e+01 3.602074050903320312e+01 -4.714129492640495300e-02 -3.445402035140432417e-05 -1.415272429585456848e-02 -1.379687245935201645e-02
1.300000000000000000e+02 2.389290046691894531e+01 3.609888076782226562e+01 -7.103434950113296509e-02 -4.733118694275617599e-03 -2.273024059832096100e-02 -1.594134792685508728e-02
1.310000000000000000e+02 2.284308815002441406e+01 3.526721954345703125e+01 -5.517642945051193237e-02 -1.097019761800765991e-02 -1.984398812055587769e-02 -4.203119501471519470e-02
1.320000000000000000e+02 2.421754455566406250e+01 3.556056594848632812e+01 -1.126791089773178101e-01 -3.433159319683909416e-03 -3.483368083834648132e-02 -5.133060365915298462e-02
1.330000000000000000e+02 2.498613166809082031e+01 3.604191207885742188e+01 -1.400573402643203735e-01 1.020972034893929958e-03 -4.171090945601463318e-02 -1.524041220545768738e-02
1.340000000000000000e+02 2.485820960998535156e+01 3.530118560791015625e+01 -1.560746729373931885e-01 2.525121439248323441e-03 -4.606486856937408447e-02 -6.631078571081161499e-02
1.350000000000000000e+02 2.364893722534179688e+01 3.528245925903320312e+01 -9.149067848920822144e-02 -9.059592150151729584e-03 -3.016508184373378754e-02 -5.943382903933525085e-02
1.360000000000000000e+02 2.269410705566406250e+01 3.600639724731445312e+01 -2.531618438661098480e-02 5.892178742215037346e-04 -7.418090011924505234e-03 -1.461345143616199493e-02
1.370000000000000000e+02 2.440931320190429688e+01 3.610589981079101562e+01 -1.126993149518966675e-01 2.817599801346659660e-03 -3.296451643109321594e-02 -1.871978677809238434e-02
1.380000000000000000e+02 2.713174057006835938e+01 3.578996658325195312e+01 -3.466212451457977295e-01 3.375716973096132278e-03 -1.029736548662185669e-01 3.485223511233925819e-03
1.390000000000000000e+02 2.639669990539550781e+01 3.588855361938476562e+01 -2.638170421123504639e-01 5.022896919399499893e-03 -7.763823866844177246e-02 -4.824817180633544922e-03
1.400000000000000000e+02 2.560692596435546875e+01 3.524289321899414062e+01 -2.165607362985610962e-01 9.905576705932617188e-03 -6.199654936790466309e-02 -7.238728553056716919e-02
1.410000000000000000e+02 2.704477500915527344e+01 3.505500793457031250e+01 -3.426781594753265381e-01 2.018717117607593536e-02 -9.674730151891708374e-02 -7.636927813291549683e-02
1.420000000000000000e+02 2.786719703674316406e+01 3.568653869628906250e+01 -4.303965270519256592e-01 4.872562829405069351e-03 -1.276571899652481079e-01 1.458470802754163742e-02
1.430000000000000000e+02 2.776436805725097656e+01 3.495370483398437500e+01 -4.196776151657104492e-01 2.675583213567733765e-02 -1.178765296936035156e-01 -7.170958817005157471e-02
1.440000000000000000e+02 2.632559776306152344e+01 3.515146636962890625e+01 -2.752076685428619385e-01 1.640025526285171509e-02 -7.764221727848052979e-02 -7.676742970943450928e-02
1.450000000000000000e+02 2.566216468811035156e+01 3.598210525512695312e+01 -1.874697208404541016e-01 3.872657194733619690e-03 -5.507911741733551025e-02 -1.182780228555202484e-02
1.460000000000000000e+02 2.933965110778808594e+01 3.544803619384765625e+01 -6.363105177879333496e-01 7.908587576821446419e-05 -1.908694356679916382e-01 4.847169667482376099e-02
1.470000000000000000e+02 2.922042655944824219e+01 3.471769332885742188e+01 -5.852248668670654297e-01 3.311414271593093872e-02 -1.656332314014434814e-01 -6.140368804335594177e-02
1.480000000000000000e+02 2.848941230773925781e+01 3.484096145629882812e+01 -5.013197064399719238e-01 3.083681501448154449e-02 -1.411448717117309570e-01 -6.861872971057891846e-02
1.490000000000000000e+02 3.068212890625000000e+01 3.447154998779296875e+01 -7.717990279197692871e-01 3.934201225638389587e-02 -2.197370976209640503e-01 -3.200624510645866394e-02
1.500000000000000000e+02 2.995129966735839844e+01 3.459505081176757812e+01 -6.742531061172485352e-01 3.353358805179595947e-02 -1.922158598899841309e-01 -4.846804216504096985e-02
1.510000000000000000e+02 3.081263542175292969e+01 3.519998931884765625e+01 -8.547499775886535645e-01 -2.698068274185061455e-03 -2.572344243526458740e-01 8.857881277799606323e-02
1.520000000000000000e+02 2.860299301147460938e+01 3.557225799560546875e+01 -5.260145068168640137e-01 4.572792910039424896e-03 -1.564325094223022461e-01 3.118203207850456238e-02
1.530000000000000000e+02 3.007616424560546875e+01 3.532444381713867188e+01 -7.478767037391662598e-01 -9.593690047040581703e-04 -2.246508300304412842e-01 6.657784432172775269e-02
1.540000000000000000e+02 3.228277587890625000e+01 3.491655731201171875e+01 -1.113328218460083008e+00 -1.663556694984436035e-02 -3.389891386032104492e-01 1.438031345605850220e-01
1.550000000000000000e+02 3.141323661804199219e+01 3.433660507202148438e+01 -8.715495467185974121e-01 3.940889984369277954e-02 -2.496422082185745239e-01 -2.119244448840618134e-02
1.560000000000000000e+02 3.301699829101562500e+01 3.477141952514648438e+01 -1.251507401466369629e+00 -1.753906905651092529e-02 -3.807139396667480469e-01 1.699919253587722778e-01
1.570000000000000000e+02 3.287635040283203125e+01 3.404490280151367188e+01 -1.067177891731262207e+00 3.226646035909652710e-02 -3.104734420776367188e-01 1.111241523176431656e-02
1.580000000000000000e+02 3.360715103149414062e+01 3.390307235717773438e+01 -1.168897151947021484e+00 3.385917097330093384e-02 -3.405113816261291504e-01 3.133009374141693115e-02
1.590000000000000000e+02 3.375072097778320312e+01 3.462901306152343750e+01 -1.391123294830322266e+00 -2.513008005917072296e-02 -4.248760342597961426e-01 1.971200853586196899e-01
1.600000000000000000e+02 3.214505767822265625e+01 3.418946456909179688e+01 -9.662815332412719727e-01 3.885084763169288635e-02 -2.782292068004608154e-01 -7.061923388391733170e-03
1.610000000000000000e+02 3.154802894592285156e+01 3.506427764892578125e+01 -9.744785428047180176e-01 -5.625543184578418732e-03 -2.940312325954437256e-01 1.173178702592849731e-01
1.620000000000000000e+02 3.448552703857421875e+01 3.448280334472656250e+01 -1.534989595413208008e+00 -2.760238572955131531e-02 -4.687775969505310059e-01 2.272204160690307617e-01
1.630000000000000000e+02 3.581328582763671875e+01 3.345945358276367188e+01 -1.453800082206726074e+00 1.860949769616127014e-02 -4.305571615695953369e-01 8.375170081853866577e-02
1.640000000000000000e+02 3.434083938598632812e+01 3.375708389282226562e+01 -1.269047379493713379e+00 2.799491211771965027e-02 -3.723157346248626709e-01 4.795075580477714539e-02
1.650000000000000000e+02 3.654941177368164062e+01 3.331057739257812500e+01 -1.524574995040893555e+00 1.561199780553579330e-02 -4.526889026165008545e-01 1.022818759083747864e-01
1.660000000000000000e+02 3.595657730102539062e+01 3.418545532226562500e+01 -1.837893128395080566e+00 -3.891316428780555725e-02 -5.630418658256530762e-01 2.847252786159515381e-01
1.670000000000000000e+02 3.669200897216796875e+01 3.403672027587890625e+01 -1.999427676200866699e+00 -5.227640271186828613e-02 -6.155112385749816895e-01 3.084294199943542480e-01
1.680000000000000000e+02 3.522108078002929688e+01 3.433415222167968750e+01 -1.685619831085205078e+00 -3.821206837892532349e-02 -5.171495676040649414e-01 2.550955712795257568e-01
1.690000000000000000e+02 3.507709503173828125e+01 3.360829162597656250e+01 -1.362912535667419434e+00 2.781408652663230896e-02 -4.005295336246490479e-01 6.769467145204544067e-02
1.700000000000000000e+02 3.742828750610351562e+01 3.389342117309570312e+01 -2.149907112121582031e+00 -4.870811849832534790e-02 -6.595845818519592285e-01 3.300341069698333740e-01
1.710000000000000000e+02 3.802332687377929688e+01 3.303014373779296875e+01 -1.629396915435791016e+00 1.069287676364183426e-02 -4.856112003326416016e-01 1.529986411333084106e-01
1.720000000000000000e+02 3.728625106811523438e+01 3.316717147827148438e+01 -1.584039092063903809e+00 5.871730390936136246e-03 -4.734501838684082031e-01 1.253283321857452393e-01
1.730000000000000000e+02 3.890202331542968750e+01 3.361664962768554688e+01 -2.413257360458374023e+00 -5.001616850495338440e-02 -7.389820218086242676e-01 3.833329677581787109e-01
1.740000000000000000e+02 3.963956451416015625e+01 3.347409820556640625e+01 -2.527866840362548828e+00 -6.792919337749481201e-02 -7.787387967109680176e-01 4.082439243793487549e-01
1.750000000000000000e+02 3.949879837036132812e+01 3.274760437011718750e+01 -1.606316447257995605e+00 1.242458540946245193e-02 -4.781675636768341064e-01 2.056555747985839844e-01
1.760000000000000000e+02 3.876083374023437500e+01 3.289023590087890625e+01 -1.640018701553344727e+00 9.347279556095600128e-03 -4.892014265060424805e-01 1.722488999366760254e-01
1.770000000000000000e+02 3.816493988037109375e+01 3.375647735595703125e+01 -2.285002708435058594e+00 -5.499865114688873291e-02 -7.020003795623779297e-01 3.513235449790954590e-01
1.780000000000000000e+02 4.083670425415039062e+01 3.248321151733398438e+01 -1.330690741539001465e+00 5.609625484794378281e-03 -3.975243270397186279e-01 2.513553798198699951e-01
1.790000000000000000e+02 4.265458679199218750e+01 3.210846328735351562e+01 8.489298075437545776e-02 -4.633858427405357361e-02 1.156631764024496078e-02 6.759297847747802734e-01
1.800000000000000000e+02 4.018677139282226562e+01 3.261714935302734375e+01 -1.543710231781005859e+00 -2.874946221709251404e-03 -4.639755487442016602e-01 2.269202470779418945e-01
1.810000000000000000e+02 4.253112411499023438e+01 3.190016937255859375e+01 7.454440593719482422e-01 6.089276075363159180e-02 2.419010400772094727e-01 8.386999964714050293e-01
1.820000000000000000e+02 4.276776885986328125e+01 3.247020339965820312e+01 -1.027820229530334473e+00 -4.742676392197608948e-02 -3.225741088390350342e-01 5.517513751983642578e-01
1.830000000000000000e+02 4.138908767700195312e+01 3.227452087402343750e+01 -8.587060570716857910e-01 -3.872681781649589539e-02 -2.692298591136932373e-01 3.135059773921966553e-01
1.840000000000000000e+02 4.108652496337890625e+01 3.318818283081054688e+01 -2.746364355087280273e+00 -8.544062823057174683e-02 -8.495414853096008301e-01 4.715937674045562744e-01
1.850000000000000000e+02 4.273605728149414062e+01 3.229047393798828125e+01 -3.358752429485321045e-01 -2.614200301468372345e-02 -1.086051762104034424e-01 5.452595353126525879e-01
1.860000000000000000e+02 4.219770050048828125e+01 3.245998764038085938e+01 -1.280950307846069336e+00 -8.560842275619506836e-02 -4.099676012992858887e-01 4.677342474460601807e-01
1.870000000000000000e+02 4.238485717773437500e+01 3.297789764404296875e+01 -2.888913869857788086e+00 -1.019167304039001465e-01 -8.972491621971130371e-01 4.509742558002471924e-01
1.880000000000000000e+02 4.182400512695312500e+01 3.307737350463867188e+01 -2.896254777908325195e+00 -1.025247648358345032e-01 -8.996338248252868652e-01 4.557864964008331299e-01
1.890000000000000000e+02 4.036374664306640625e+01 3.333649826049804688e+01 -2.637565612792968750e+00 -5.739684775471687317e-02 -8.084887862205505371e-01 4.452520012855529785e-01
1.900000000000000000e+02 4.241764450073242188e+01 3.265034484863281250e+01 -1.847911119461059570e+00 -7.840466499328613281e-02 -5.778947472572326660e-01 5.256728529930114746e-01
1.910000000000000000e+02 4.275750732421875000e+01 3.267449188232421875e+01 -1.991772890090942383e+00 2.338442392647266388e-02 -5.905165076255798340e-01 4.659977257251739502e-01
1.920000000000000000e+02 4.272032165527343750e+01 3.312854385375976562e+01 -3.428768157958984375e+00 -3.821691498160362244e-03 -1.029776930809020996e+00 5.769668221473693848e-01
1.930000000000000000e+02 4.276924896240234375e+01 3.289099884033203125e+01 -2.530957698822021484e+00 1.310831904411315918e-01 -7.199623584747314453e-01 3.734797537326812744e-01
1.940000000000000000e+02 4.185239028930664062e+01 3.210853958129882812e+01 -1.609079092741012573e-01 1.372060924768447876e-01 -7.110542617738246918e-03 4.602636396884918213e-01
1.950000000000000000e+02 4.222289276123046875e+01 3.213349151611328125e+01 -1.166313067078590393e-01 -2.464484982192516327e-02 -4.238284751772880554e-02 5.956355333328247070e-01
1.960000000000000000e+02 4.256516647338867188e+01 3.242507934570312500e+01 -8.146372437477111816e-01 -1.568740420043468475e-02 -2.490973919630050659e-01 5.335484743118286133e-01
1.970000000000000000e+02 4.178598785400390625e+01 3.253107452392578125e+01 -1.377385616302490234e+00 -3.825287148356437683e-02 -4.246915578842163086e-01 3.836755752563476562e-01
1.980000000000000000e+02 4.241571044921875000e+01 3.227915191650390625e+01 -5.015424489974975586e-01 6.397602148354053497e-03 -1.485434472560882568e-01 5.907409787178039551e-01
1.990000000000000000e+02 4.518143463134765625e+01 3.167302322387695312e+01 7.659369945526123047e+00 7.960202217102050781e+00 4.685871601104736328e+00 8.485837936401367188e+00
2.000000000000000000e+02 4.564262390136718750e+01 3.134634017944335938e+01 5.338500499725341797e+00 1.485511875152587891e+01 6.058085918426513672e+00 8.383354187011718750e+00
2.010000000000000000e+02 4.654809188842773438e+01 3.172276115417480469e+01 5.743253231048583984e+00 2.775759696960449219e+01 1.005025482177734375e+01 9.620877355337142944e-02
2.020000000000000000e+02 4.697229766845703125e+01 3.218125152587890625e+01 1.392838191986083984e+01 2.267322349548339844e+01 1.098048210144042969e+01 -2.371325016021728516e+00
2.030000000000000000e+02 4.711368560791015625e+01 3.236680603027343750e+01 1.273245429992675781e+01 2.080109405517578125e+01 1.006006431579589844e+01 -3.931994438171386719e-01
2.040000000000000000e+02 4.714249420166015625e+01 3.260591888427734375e+01 1.416764068603515625e+01 2.020829010009765625e+01 1.031277942657470703e+01 1.482995390892028809e+00
2.050000000000000000e+02 4.690456008911132812e+01 3.317702865600585938e+01 1.154578208923339844e+01 2.435655021667480469e+01 1.077069950103759766e+01 5.699033260345458984e+00
2.060000000000000000e+02 4.583255767822265625e+01 3.374623870849609375e+01 1.200931668281555176e+00 1.888412475585937500e+01 6.025516986846923828e+00 -6.875873565673828125e+00
2.070000000000000000e+02 4.377590560913085938e+01 3.448032379150390625e+01 4.992808699607849121e-01 1.960073590278625488e+00 7.378063201904296875e-01 -1.775892496109008789e+00
2.080000000000000000e+02 4.617792129516601562e+01 3.396459960937500000e+01 3.690183162689208984e-01 2.201497459411621094e+01 6.715197563171386719e+00 -3.107859611511230469e+00
2.090000000000000000e+02 4.618463134765625000e+01 3.152698707580566406e+01 3.951586246490478516e+00 2.326237678527832031e+01 8.164189338684082031e+00 5.608499050140380859e+00
2.100000000000000000e+02 4.408464050292968750e+01 3.286114120483398438e+01 -3.193214416503906250e+00 -1.004515066742897034e-01 -9.880997538566589355e-01 5.807965397834777832e-01
2.110000000000000000e+02 4.286530303955078125e+01 3.181804275512695312e+01 1.304115533828735352e+00 3.685362040996551514e-01 5.017955303192138672e-01 1.177584886550903320e+00
2.120000000000000000e+02 4.325697326660156250e+01 3.176703453063964844e+01 1.949417591094970703e+00 3.540557026863098145e-01 6.910420060157775879e-01 1.519964456558227539e+00
2.130000000000000000e+02 4.600964736938476562e+01 3.134344863891601562e+01 3.487124681472778320e+00 2.160610198974609375e+01 7.527967929840087891e+00 6.712402820587158203e+00
2.140000000000000000e+02 4.466978836059570312e+01 3.175035476684570312e+01 6.324184894561767578e+00 2.623790740966796875e+00 2.684392690658569336e+00 5.071452617645263672e+00
2.150000000000000000e+02 4.493382263183593750e+01 3.229850387573242188e+01 5.457659721374511719e+00 5.229007005691528320e-01 1.794168114662170410e+00 2.830472230911254883e+00
2.160000000000000000e+02 4.464113616943359375e+01 3.151289176940917969e+01 6.196684837341308594e+00 3.782632827758789062e+00 2.993795156478881836e+00 5.855485916137695312e+00
2.170000000000000000e+02 4.306101608276367188e+01 3.178653526306152344e+01 1.483853578567504883e+00 2.392121106386184692e-01 5.169196724891662598e-01 1.235970020294189453e+00
2.180000000000000000e+02 4.338276672363281250e+01 3.455612182617187500e+01 1.513417959213256836e-01 1.348679304122924805e+00 4.500063061714172363e-01 -1.292075753211975098e+00
2.190000000000000000e+02 4.354406356811523438e+01 3.430035400390625000e+01 -1.197427511215209961e-01 1.193080186843872070e+00 3.220012187957763672e-01 -1.102596998214721680e+00
2.200000000000000000e+02 4.322233200073242188e+01 3.372254943847656250e+01 -2.322992801666259766e+00 2.809222638607025146e-01 -6.126211285591125488e-01 3.420965671539306641e-01
2.210000000000000000e+02 4.380697250366210938e+01 3.378149032592773438e+01 -9.104142785072326660e-01 5.881067514419555664e-01 -9.669224917888641357e-02 -4.754586219787597656e-01
2.220000000000000000e+02 4.416268920898437500e+01 3.440845489501953125e+01 9.623936414718627930e-01 2.912042379379272461e+00 1.162330865859985352e+00 -2.516877412796020508e+00
2.230000000000000000e+02 4.467816543579101562e+01 3.401590728759765625e+01 1.528879284858703613e+00 3.928761482238769531e+00 1.637292265892028809e+00 -3.577091932296752930e+00
2.240000000000000000e+02 4.488819885253906250e+01 3.395847702026367188e+01 1.960077762603759766e+00 4.655320644378662109e+00 1.984619617462158203e+00 -4.286581993103027344e+00
2.250000000000000000e+02 4.314616394042968750e+01 3.330999755859375000e+01 -4.263507366180419922e+00 -2.292082458734512329e-01 -1.347814679145812988e+00 8.206094503402709961e-01
2.260000000000000000e+02 4.434119033813476562e+01 3.314330673217773438e+01 -3.485371828079223633e+00 -8.705111593008041382e-02 -1.071726918220520020e+00 5.376676917076110840e-01
2.270000000000000000e+02 4.492711257934570312e+01 3.298263549804687500e+01 -2.984501361846923828e+00 -3.095313310623168945e-01 -9.882098436355590820e-01 3.586862683296203613e-01
2.280000000000000000e+02 4.651371383666992188e+01 3.377508926391601562e+01 1.556843876838684082e+00 2.564850616455078125e+01 8.161604881286621094e+00 6.889848113059997559e-01
2.290000000000000000e+02 4.677017593383789062e+01 3.353783035278320312e+01 5.079069137573242188e+00 2.483968162536621094e+01 8.975625038146972656e+00 3.462979793548583984e+00
2.300000000000000000e+02 4.615616226196289062e+01 3.374926376342773438e+01 6.336018443107604980e-01 2.446076202392578125e+01 7.528309345245361328e+00 -2.741758584976196289e+00
2.310000000000000000e+02 4.495457839965820312e+01 3.349113464355468750e+01 1.917886495590209961e+00 2.883430242538452148e+00 1.440394997596740723e+00 -3.335019350051879883e+00
2.320000000000000000e+02 4.511933898925781250e+01 3.336460113525390625e+01 2.371809720993041992e+00 2.568599939346313477e+00 1.482122898101806641e+00 -3.663163423538208008e+00
2.330000000000000000e+02 4.488337707519531250e+01 3.275324630737304688e+01 -2.689708471298217773e+00 -1.829273998737335205e-01 -8.617907762527465820e-01 4.949389994144439697e-01
2.340000000000000000e+02 4.447978210449218750e+01 3.279953384399414062e+01 -2.937198162078857422e+00 -1.842533499002456665e-01 -9.364354610443115234e-01 5.416647791862487793e-01
2.350000000000000000e+02 4.517026138305664062e+01 3.196064949035644531e+01 8.734676361083984375e+00 4.707648754119873047e+00 4.032697677612304688e+00 7.514875888824462891e+00
2.360000000000000000e+02 4.548769760131835938e+01 3.166909408569335938e+01 7.385214328765869141e+00 1.254941940307617188e+01 5.980390071868896484e+00 1.002493476867675781e+01
2.370000000000000000e+02 4.591069793701171875e+01 3.156913185119628906e+01 4.005987167358398438e+00 2.236222839355468750e+01 7.910464763641357422e+00 8.884526252746582031e+00
2.380000000000000000e+02 4.348448562622070312e+01 3.296200180053710938e+01 -3.329366445541381836e+00 -1.789423972368240356e-01 -1.052492618560791016e+00 5.935294628143310547e-01
2.390000000000000000e+02 4.290244674682617188e+01 3.202606582641601562e+01 6.885677576065063477e-01 2.053728699684143066e-01 2.681821882724761963e-01 9.223194718360900879e-01
2.400000000000000000e+02 4.302304458618164062e+01 3.264642333984375000e+01 -1.626547217369079590e+00 3.305798768997192383e-02 -4.780467450618743896e-01 3.178007602691650391e-01
2.410000000000000000e+02 4.329260635375976562e+01 3.302085113525390625e+01 -3.420847415924072266e+00 -2.093199454247951508e-02 -1.032533884048461914e+00 6.283716559410095215e-01
2.420000000000000000e+02 4.309912872314453125e+01 3.306313323974609375e+01 -3.566921472549438477e+00 -3.270467817783355713e-01 -1.168190479278564453e+00 6.867036223411560059e-01
2.430000000000000000e+02 4.703824234008789062e+01 3.283175277709960938e+01 1.411939334869384766e+01 2.129534339904785156e+01 1.062442111968994141e+01 3.349833726882934570e+00
2.440000000000000000e+02 4.576009368896484375e+01 3.412624359130859375e+01 6.159284114837646484e-01 1.611896514892578125e+01 5.020468235015869141e+00 -5.590793609619140625e+00
2.450000000000000000e+02 4.474525833129882812e+01 3.428428649902343750e+01 1.760745644569396973e+00 5.181342601776123047e+00 2.082626342773437500e+00 -4.170310020446777344e+00
2.460000000000000000e+02 4.525523376464843750e+01 3.353417968750000000e+01 3.274739980697631836e+00 6.575088977813720703e+00 2.954948663711547852e+00 -5.989624500274658203e+00
2.470000000000000000e+02 4.462847137451171875e+01 3.335781860351562500e+01 -5.587986707687377930e-01 1.016852974891662598e+00 1.374162882566452026e-01 -1.072611093521118164e+00
2.480000000000000000e+02 4.500595092773437500e+01 3.318470382690429688e+01 6.035541892051696777e-01 1.158733129501342773e+00 5.286861658096313477e-01 -1.527385830879211426e+00
2.490000000000000000e+02 4.563557815551757812e+01 3.371842575073242188e+01 2.197227001190185547e+00 1.539443874359130859e+01 5.277499675750732422e+00 -7.521644115447998047e+00
2.500000000000000000e+02 4.710929489135742188e+01 3.339320373535156250e+01 7.568051815032958984e+00 2.252860641479492188e+01 9.028997421264648438e+00 4.720958709716796875e+00
2.510000000000000000e+02 4.435671615600585938e+01 3.437197113037109375e+01 1.221711277961730957e+00 3.184792041778564453e+00 1.321951031684875488e+00 -3.108287096023559570e+00
2.520000000000000000e+02 4.596084594726562500e+01 3.407989120483398438e+01 -5.075741186738014221e-02 1.946464729309082031e+01 5.824166774749755859e+00 -5.107573509216308594e+00
2.530000000000000000e+02 4.597160720825195312e+01 3.388896942138671875e+01 3.833067715167999268e-01 1.960360908508300781e+01 5.996074676513671875e+00 -5.663188457489013672e+00
2.540000000000000000e+02 4.697745513916015625e+01 3.300084304809570312e+01 1.349820423126220703e+01 2.332762336730957031e+01 1.104774856567382812e+01 5.125480651855468750e+00
2.550000000000000000e+02 4.709835815429687500e+01 3.300048446655273438e+01 1.296242713928222656e+01 2.185361289978027344e+01 1.044481182098388672e+01 3.976271152496337891e+00
2.560000000000000000e+02 4.531251144409179688e+01 3.179873085021972656e+01 8.404391288757324219e+00 9.179838180541992188e+00 5.275269031524658203e+00 9.568580627441406250e+00
2.570000000000000000e+02 4.671828842163085938e+01 3.156204414367675781e+01 5.325767040252685547e+00 2.397748756408691406e+01 8.790976524353027344e+00 -2.699983492493629456e-02
2.580000000000000000e+02 4.677442550659179688e+01 3.181383323669433594e+01 6.723752498626708984e+00 2.401472854614257812e+01 9.221544265747070312e+00 -1.723535507917404175e-01
2.590000000000000000e+02 4.543155670166015625e+01 3.140154457092285156e+01 5.907502651214599609e+00 1.273639774322509766e+01 5.593170166015625000e+00 9.125736236572265625e+00
2.600000000000000000e+02 4.640049743652343750e+01 3.157386779785156250e+01 4.886898994445800781e+00 2.415321540832519531e+01 8.712034225463867188e+00 2.546673774719238281e+00
2.610000000000000000e+02 4.506786727905273438e+01 3.182928466796875000e+01 8.255946159362792969e+00 5.307097911834716797e+00 4.068913459777832031e+00 7.479017257690429688e+00
2.620000000000000000e+02 4.691927337646484375e+01 3.196602058410644531e+01 1.012203788757324219e+01 2.209443473815917969e+01 9.664941787719726562e+00 -8.985976576805114746e-01
2.630000000000000000e+02 4.729471969604492188e+01 3.289059448242187500e+01 1.273349666595458984e+01 1.957459068298339844e+01 9.692425727844238281e+00 2.716249942779541016e+00
2.640000000000000000e+02 4.555788040161132812e+01 3.415343856811523438e+01 1.129529237747192383e+00 1.318766212463378906e+01 4.295157432556152344e+00 -6.073630809783935547e+00
2.650000000000000000e+02 4.535420989990234375e+01 3.417550277709960938e+01 1.385267496109008789e+00 1.040418243408203125e+01 3.536834955215454102e+00 -5.940409660339355469e+00
2.660000000000000000e+02 4.512166213989257812e+01 3.391996383666992188e+01 2.373020887374877930e+00 6.953750610351562500e+00 2.798031568527221680e+00 -5.640026569366455078e+00
2.670000000000000000e+02 4.535644149780273438e+01 3.390510177612304688e+01 2.365983963012695312e+00 9.968598365783691406e+00 3.700374603271484375e+00 -6.407728672027587891e+00
2.680000000000000000e+02 4.334534072875976562e+01 3.434489059448242188e+01 -4.799309372901916504e-01 7.946314215660095215e-01 9.441013634204864502e-02 -8.656615018844604492e-01
2.690000000000000000e+02 4.543106842041015625e+01 3.365895462036132812e+01 3.064255237579345703e+00 1.000239944458007812e+01 3.919996261596679688e+00 -7.134994029998779297e+00
2.700000000000000000e+02 4.340906906127929688e+01 3.367994308471679688e+01 -2.255797624588012695e+00 4.064489901065826416e-02 -6.645458340644836426e-01 2.464569509029388428e-01
2.710000000000000000e+02 4.374625778198242188e+01 3.342343139648437500e+01 -2.943474292755126953e+00 1.386457830667495728e-01 -8.414485454559326172e-01 3.156582415103912354e-01
2.720000000000000000e+02 4.413249588012695312e+01 3.317801284790039062e+01 -3.701702356338500977e+00 -1.699168384075164795e-01 -1.161485791206359863e+00 4.914251267910003662e-01
2.730000000000000000e+02 4.473608779907226562e+01 3.303875732421875000e+01 -3.202059030532836914e+00 1.741028875112533569e-01 -9.083868265151977539e-01 5.340348482131958008e-01
2.740000000000000000e+02 4.450561141967773438e+01 3.178020668029785156e+01 5.454831123352050781e+00 2.029356002807617188e+00 2.245256185531616211e+00 4.226297378540039062e+00
2.750000000000000000e+02 4.321746063232421875e+01 3.262138748168945312e+01 -1.448675155639648438e+00 -1.349165886640548706e-01 -4.750775396823883057e-01 4.069224596023559570e-01
2.760000000000000000e+02 4.444055175781250000e+01 3.253491210937500000e+01 1.408140808343887329e-01 2.838329644873738289e-03 4.309572651982307434e-02 8.727107048034667969e-01
2.770000000000000000e+02 4.386392211914062500e+01 3.169126701354980469e+01 3.617144584655761719e+00 9.020227193832397461e-01 1.355750203132629395e+00 2.638528823852539062e+00
2.780000000000000000e+02 4.406441116333007812e+01 3.165051460266113281e+01 4.381293296813964844e+00 1.357911467552185059e+00 1.721761345863342285e+00 3.272786140441894531e+00
2.790000000000000000e+02 4.502222061157226562e+01 3.144474411010742188e+01 6.552718639373779297e+00 7.144152641296386719e+00 4.109061241149902344e+00 7.675982475280761719e+00
2.800000000000000000e+02 4.522257232666015625e+01 3.143054199218750000e+01 6.655492305755615234e+00 9.253704071044921875e+00 4.772758960723876953e+00 8.795682907104492188e+00
2.810000000000000000e+02 4.483024597167968750e+01 3.147896957397460938e+01 6.397006988525390625e+00 5.126676082611083984e+00 3.457104921340942383e+00 6.644108772277832031e+00
2.820000000000000000e+02 4.308473587036132812e+01 3.199251174926757812e+01 1.047304987907409668e+00 1.794789284467697144e-01 3.680351674556732178e-01 1.099715471267700195e+00
2.830000000000000000e+02 4.398598480224609375e+01 3.229917907714843750e+01 1.167231440544128418e+00 8.251728862524032593e-02 3.749246001243591309e-01 1.087986350059509277e+00
2.840000000000000000e+02 4.337338638305664062e+01 3.347669601440429688e+01 -3.276122331619262695e+00 5.104402080178260803e-02 -9.675235152244567871e-01 5.432680249214172363e-01
2.850000000000000000e+02 4.334059906005859375e+01 3.327265167236328125e+01 -4.295397281646728516e+00 -9.392826259136199951e-02 -1.316797614097595215e+00 8.521153926849365234e-01
2.860000000000000000e+02 4.353438186645507812e+01 3.323814010620117188e+01 -4.279570102691650391e+00 -1.215220466256141663e-01 -1.320327639579772949e+00 7.559182047843933105e-01
2.870000000000000000e+02 4.330477142333984375e+01 3.413636016845703125e+01 -9.135686755180358887e-01 7.096965909004211426e-01 -6.116161867976188660e-02 -4.560714960098266602e-01
2.880000000000000000e+02 4.294717025756835938e+01 3.222953414916992188e+01 -9.181550145149230957e-02 1.177067309617996216e-02 -2.401344850659370422e-02 6.246573925018310547e-01
2.890000000000000000e+02 4.338361740112304688e+01 3.271966552734375000e+01 -2.042646884918212891e+00 -5.317712575197219849e-02 -6.287471652030944824e-01 4.627503752708435059e-01
2.900000000000000000e+02 4.487738418579101562e+01 3.252087783813476562e+01 2.050170898437500000e+00 9.749416261911392212e-02 6.442995667457580566e-01 1.265104889869689941e+00
2.910000000000000000e+02 4.449354553222656250e+01 3.360173416137695312e+01 1.620136350393295288e-01 1.276246547698974609e+00 4.314780831336975098e-01 -1.551087975502014160e+00
2.920000000000000000e+02 4.411738586425781250e+01 3.418014144897460938e+01 5.958558917045593262e-01 1.918333530426025391e+00 7.542567849159240723e-01 -2.059580087661743164e+00
2.930000000000000000e+02 4.345284652709960938e+01 3.388297653198242188e+01 -1.346476674079895020e+00 4.734838902950286865e-01 -2.618978321552276611e-01 -1.744184941053390503e-01
2.940000000000000000e+02 4.372950744628906250e+01 3.320909118652343750e+01 -4.161077499389648438e+00 -1.310032159090042114e-01 -1.287624239921569824e+00 7.290085554122924805e-01
2.950000000000000000e+02 4.384807205200195312e+01 3.262171173095703125e+01 -1.349580645561218262e+00 -1.047204583883285522e-01 -4.362903535366058350e-01 5.971524119377136230e-01
2.960000000000000000e+02 4.388864135742187500e+01 3.289302062988281250e+01 -3.266672849655151367e+00 -5.583902820944786072e-02 -9.967535734176635742e-01 5.658541321754455566e-01
2.970000000000000000e+02 4.368519210815429688e+01 3.291768264770507812e+01 -3.301054716110229492e+00 -1.060032248497009277e-01 -1.022117376327514648e+00 5.464803576469421387e-01
2.980000000000000000e+02 4.345637130737304688e+01 3.175296592712402344e+01 2.453449249267578125e+00 4.705221652984619141e-01 8.771914243698120117e-01 1.763769745826721191e+00
2.990000000000000000e+02 4.325888442993164062e+01 3.201311874389648438e+01 1.111858963966369629e+00 1.035973727703094482e-01 3.646368980407714844e-01 1.078006982803344727e+00
3.000000000000000000e+02 4.350230789184570312e+01 3.257901382446289062e+01 -1.354891419410705566e+00 -9.518928080797195435e-02 -4.350242316722869873e-01 5.458877086639404297e-01
3.010000000000000000e+02 4.465408325195312500e+01 3.250717926025390625e+01 1.288312792778015137e+00 -4.956201836466789246e-02 3.716252148151397705e-01 1.080449104309082031e+00
3.020000000000000000e+02 4.476283264160156250e+01 3.211572265625000000e+01 5.558949947357177734e+00 1.186246871948242188e+00 2.023559093475341797e+00 3.557477235794067383e+00
3.030000000000000000e+02 4.346696090698242188e+01 3.205958938598632812e+01 1.285652160644531250e+00 1.811880767345428467e-01 4.400520622730255127e-01 1.187819480895996094e+00
3.040000000000000000e+02 4.440892028808593750e+01 3.388383102416992188e+01 8.215337991714477539e-01 2.047207832336425781e+00 8.606224656105041504e-01 -2.194674491882324219e+00
3.050000000000000000e+02 4.466382598876953125e+01 3.361979293823242188e+01 1.175790667533874512e+00 1.927050590515136719e+00 9.308523535728454590e-01 -2.380028247833251953e+00
3.060000000000000000e+02 4.355944442749023438e+01 3.344320678710937500e+01 -3.156468868255615234e+00 -6.638497114181518555e-02 -9.668561220169067383e-01 5.286358594894409180e-01
3.070000000000000000e+02 4.484717941284179688e+01 3.172437858581542969e+01 6.981523990631103516e+00 3.954282045364379883e+00 3.280741691589355469e+00 6.176863193511962891e+00
3.080000000000000000e+02 4.461479187011718750e+01 3.194256591796875000e+01 5.672722816467285156e+00 1.697059988975524902e+00 2.210934877395629883e+00 3.997430086135864258e+00
3.090000000000000000e+02 4.419914245605468750e+01 3.226411437988281250e+01 2.038964509963989258e+00 1.558584570884704590e-01 6.584468483924865723e-01 1.382759451866149902e+00
3.100000000000000000e+02 4.369121932983398438e+01 3.403898239135742188e+01 -4.637981951236724854e-01 9.493651390075683594e-01 1.456700712442398071e-01 -8.486804366111755371e-01
3.110000000000000000e+02 4.427021026611328125e+01 3.375410842895507812e+01 1.402063667774200439e-01 1.154992699623107910e+00 3.885597288608551025e-01 -1.429988384246826172e+00
3.120000000000000000e+02 4.486474227905273438e+01 3.368309402465820312e+01 1.930152416229248047e+00 3.323089838027954102e+00 1.575972676277160645e+00 -3.660207509994506836e+00
3.130000000000000000e+02 4.314737319946289062e+01 3.217161941528320312e+01 4.081688821315765381e-01 8.527419716119766235e-02 1.480329334735870361e-01 8.301715254783630371e-01
3.140000000000000000e+02 4.321807479858398438e+01 3.238785552978515625e+01 -4.305766820907592773e-01 3.697072714567184448e-02 -1.180817857384681702e-01 6.383011341094970703e-01
3.150000000000000000e+02 4.299193954467773438e+01 3.243596649169921875e+01 -8.877297639846801758e-01 -4.818004742264747620e-02 -2.807729542255401611e-01 5.709635615348815918e-01
3.160000000000000000e+02 4.323460388183593750e+01 3.281344223022460938e+01 -2.678229570388793945e+00 -1.400952339172363281e-01 -8.454974293708801270e-01 5.283579230308532715e-01
3.170000000000000000e+02 4.305665206909179688e+01 3.285383987426757812e+01 -2.612560510635375977e+00 -1.881878077983856201e-01 -8.402245044708251953e-01 4.487727284431457520e-01
3.180000000000000000e+02 4.404024124145507812e+01 3.258418655395507812e+01 -9.363067746162414551e-01 -9.000476449728012085e-03 -2.835921645164489746e-01 6.293509602546691895e-01
3.190000000000000000e+02 4.423783874511718750e+01 3.255508422851562500e+01 -5.260120034217834473e-01 -8.245207369327545166e-02 -1.825392246246337891e-01 6.599671840667724609e-01
3.200000000000000000e+02 4.428102111816406250e+01 3.282960891723632812e+01 -3.062387228012084961e+00 -6.319478899240493774e-02 -9.376746416091918945e-01 6.059955358505249023e-01
3.210000000000000000e+02 4.468047332763671875e+01 3.277125549316406250e+01 -2.814027786254882812e+00 -1.790110021829605103e-02 -8.495786786079406738e-01 5.408248305320739746e-01
3.220000000000000000e+02 4.459842300415039062e+01 3.225575256347656250e+01 3.749816179275512695e+00 2.700246274471282959e-01 1.205952167510986328e+00 2.059547185897827148e+00
3.230000000000000000e+02 4.366004180908203125e+01 3.172735023498535156e+01 2.965762376785278320e+00 6.658363938331604004e-01 1.089479565620422363e+00 2.143326997756958008e+00
3.240000000000000000e+02 4.370156860351562500e+01 3.204489898681640625e+01 1.792852878570556641e+00 2.262584716081619263e-01 6.057333946228027344e-01 1.378494143486022949e+00
3.250000000000000000e+02 4.358047866821289062e+01 3.451758193969726562e+01 2.184441089630126953e-01 1.247018337249755859e+00 4.396387636661529541e-01 -1.409957885742187500e+00
3.260000000000000000e+02 4.373818588256835938e+01 3.425688934326171875e+01 8.213590085506439209e-02 1.131086826324462891e+00 3.639668226242065430e-01 -1.277881860733032227e+00
3.270000000000000000e+02 4.392909240722656250e+01 3.421486282348632812e+01 4.049822390079498291e-01 1.754483342170715332e+00 6.478396654129028320e-01 -1.674065470695495605e+00
3.280000000000000000e+02 4.396962738037109375e+01 3.444390487670898438e+01 6.972433328628540039e-01 2.125500917434692383e+00 8.468232750892639160e-01 -2.084872484207153320e+00
3.290000000000000000e+02 4.455107116699218750e+01 3.433047485351562500e+01 1.447836041450500488e+00 4.167766571044921875e+00 1.684680819511413574e+00 -3.567385673522949219e+00
3.300000000000000000e+02 4.318373489379882812e+01 3.351622390747070312e+01 -3.333508491516113281e+00 -1.173786073923110962e-01 -1.035266160964965820e+00 6.849766969680786133e-01
3.310000000000000000e+02 4.326278686523437500e+01 3.392939376831054688e+01 -1.599644899368286133e+00 2.879665791988372803e-01 -3.935034871101379395e-01 -4.092437028884887695e-02
3.320000000000000000e+02 4.350062561035156250e+01 3.408854293823242188e+01 -7.430418133735656738e-01 5.952250361442565918e-01 -4.434503242373466492e-02 -6.072959899902343750e-01
3.330000000000000000e+02 4.392747497558593750e+01 3.318815612792968750e+01 -3.972853899002075195e+00 6.583804637193679810e-02 -1.172104716300964355e+00 5.900979042053222656e-01
3.340000000000000000e+02 4.413174438476562500e+01 3.346035003662109375e+01 -1.790821313858032227e+00 2.773562073707580566e-01 -4.540395140647888184e-01 -1.350986063480377197e-01
3.350000000000000000e+02 4.393544006347656250e+01 3.342956542968750000e+01 -2.560960769653320312e+00 5.784008651971817017e-02 -7.509362101554870605e-01 2.835979759693145752e-01
3.360000000000000000e+02 4.454250335693359375e+01 3.308816146850585938e+01 -3.325950384140014648e+00 -2.021066695451736450e-01 -1.058417081832885742e+00 5.600987672805786133e-01
3.370000000000000000e+02 4.482378005981445312e+01 3.329064941406250000e+01 1.590659022331237793e-01 7.313426733016967773e-01 2.671225666999816895e-01 -1.417949795722961426e+00
3.380000000000000000e+02 4.507236099243164062e+01 3.367098617553710938e+01 2.812403917312622070e+00 5.092039585113525391e+00 2.371332883834838867e+00 -4.909992218017578125e+00
3.390000000000000000e+02 4.491691589355468750e+01 3.194948005676269531e+01 7.357437610626220703e+00 2.780623197555541992e+00 3.041418313980102539e+00 5.559096336364746094e+00
3.400000000000000000e+02 4.504408645629882812e+01 3.211746978759765625e+01 7.851552963256835938e+00 2.559818267822265625e+00 3.123411417007446289e+00 5.461030483245849609e+00
3.410000000000000000e+02 4.430588912963867188e+01 3.414698410034179688e+01 9.386978149414062500e-01 2.530963897705078125e+00 1.040898561477661133e+00 -2.473409175872802734e+00
3.420000000000000000e+02 4.449089813232421875e+01 3.409532165527343750e+01 1.367216348648071289e+00 2.940865278244018555e+00 1.292424440383911133e+00 -3.063194513320922852e+00
3.430000000000000000e+02 4.494349288940429688e+01 3.424138259887695312e+01 1.830035448074340820e+00 6.661915302276611328e+00 2.547585248947143555e+00 -5.008180141448974609e+00
3.440000000000000000e+02 4.514842605590820312e+01 3.420416259765625000e+01 1.713357686996459961e+00 8.302077293395996094e+00 3.004630565643310547e+00 -5.538260936737060547e+00
3.450000000000000000e+02 4.569065856933593750e+01 3.159641265869140625e+01 5.622691154479980469e+00 1.838425827026367188e+01 7.202084541320800781e+00 9.040283203125000000e+00
3.460000000000000000e+02 4.601548385620117188e+01 3.374626159667968750e+01 7.727437019348144531e-01 2.334112739562988281e+01 7.234160900115966797e+00 -4.776165962219238281e+00
3.470000000000000000e+02 4.683102035522460938e+01 3.333290863037109375e+01 8.769664764404296875e+00 2.534393310546875000e+01 1.023407936096191406e+01 5.311189174652099609e+00
3.480000000000000000e+02 4.700621414184570312e+01 3.323730468750000000e+01 1.032815647125244141e+01 2.409025955200195312e+01 1.032552528381347656e+01 5.083525657653808594e+00
3.490000000000000000e+02 4.718465042114257812e+01 3.209918212890625000e+01 1.171936225891113281e+01 2.053776359558105469e+01 9.677137374877929688e+00 -1.527680993080139160e+00
3.500000000000000000e+02 4.433639526367187500e+01 3.187693023681640625e+01 4.677878379821777344e+00 1.170614480972290039e+00 1.754547834396362305e+00 3.214779853820800781e+00
3.510000000000000000e+02 4.445100784301757812e+01 3.155218315124511719e+01 5.593284606933593750e+00 2.616374969482421875e+00 2.462897777557373047e+00 4.711265563964843750e+00
3.520000000000000000e+02 4.425932693481445312e+01 3.160262680053710938e+01 4.848515033721923828e+00 1.927433490753173828e+00 2.032784461975097656e+00 3.920447826385498047e+00
3.530000000000000000e+02 4.413854980468750000e+01 3.195595741271972656e+01 3.560994148254394531e+00 6.346401572227478027e-01 1.258690357208251953e+00 2.346916198730468750e+00
3.540000000000000000e+02 4.392355346679687500e+01 3.199952697753906250e+01 2.630182504653930664e+00 3.977758884429931641e-01 9.083875417709350586e-01 1.772192001342773438e+00
3.550000000000000000e+02 4.557723999023437500e+01 3.392150115966796875e+01 1.710253238677978516e+00 1.358101272583007812e+01 4.587379932403564453e+00 -6.797897815704345703e+00
3.560000000000000000e+02 4.502108764648437500e+01 3.166487121582031250e+01 7.307321548461914062e+00 5.798655033111572266e+00 3.931792974472045898e+00 7.513213634490966797e+00
3.570000000000000000e+02 4.578325653076171875e+01 3.391925048828125000e+01 8.242371678352355957e-01 1.784785079956054688e+01 5.601626396179199219e+00 -6.248157501220703125e+00
3.580000000000000000e+02 4.361226272583007812e+01 3.244510650634765625e+01 -2.053584158420562744e-01 3.870524466037750244e-02 -4.999595135450363159e-02 6.671273708343505859e-01
3.590000000000000000e+02 4.375379180908203125e+01 3.361451721191406250e+01 -2.028059720993041992e+00 1.155257523059844971e-01 -5.737601518630981445e-01 1.442303806543350220e-01
3.600000000000000000e+02 4.388249588012695312e+01 3.397929000854492188e+01 -2.704636752605438232e-01 8.663295507431030273e-01 1.787597686052322388e-01 -1.044172406196594238e+00
3.610000000000000000e+02 4.456413650512695312e+01 3.379061889648437500e+01 1.341640830039978027e+00 2.128738880157470703e+00 1.041113972663879395e+00 -2.667531967163085938e+00
3.620000000000000000e+02 4.358746719360351562e+01 3.364208602905273438e+01 -2.130003452301025391e+00 2.557928562164306641e-01 -5.622631907463073730e-01 1.213689446449279785e-01
3.630000000000000000e+02 4.446875762939453125e+01 3.207835006713867188e+01 4.482322216033935547e+00 7.231582999229431152e-01 1.561644077301025391e+00 2.814735174179077148e+00
3.640000000000000000e+02 4.377428436279296875e+01 3.234879302978515625e+01 4.496858119964599609e-01 3.078203275799751282e-02 1.441403478384017944e-01 8.430342674255371094e-01
3.650000000000000000e+02 4.366523742675781250e+01 3.265621185302734375e+01 -1.589373350143432617e+00 -4.525555670261383057e-02 -4.903886616230010986e-01 5.989533662796020508e-01
3.660000000000000000e+02 4.344495773315429688e+01 3.235424041748046875e+01 -9.578300267457962036e-02 -5.856448411941528320e-02 -4.630424454808235168e-02 6.552422642707824707e-01
3.670000000000000000e+02 4.440673065185546875e+01 3.227173233032226562e+01 2.572170734405517578e+00 1.551237702369689941e-01 8.181883096694946289e-01 1.515049099922180176e+00
3.680000000000000000e+02 4.363455581665039062e+01 3.383658218383789062e+01 -1.176582336425781250e+00 3.313306272029876709e-01 -2.535755336284637451e-01 -3.130524754524230957e-01
3.690000000000000000e+02 4.432577514648437500e+01 3.354957962036132812e+01 -6.967971324920654297e-01 5.830659866333007812e-01 -3.411933034658432007e-02 -7.679001092910766602e-01
3.700000000000000000e+02 4.443636322021484375e+01 3.340051651000976562e+01 -1.143809556961059570e+00 3.632340133190155029e-01 -2.341726571321487427e-01 -7.099086046218872070e-01
3.710000000000000000e+02 4.425712585449218750e+01 3.393865585327148438e+01 5.273864269256591797e-01 1.639724493026733398e+00 6.501332521438598633e-01 -1.903358340263366699e+00
3.720000000000000000e+02 4.407607269287109375e+01 3.394337844848632812e+01 1.520542502403259277e-01 1.357499241828918457e+00 4.528660476207733154e-01 -1.439843893051147461e+00
3.730000000000000000e+02 4.408345794677734375e+01 3.370518875122070312e+01 -6.368507742881774902e-01 6.091654896736145020e-01 -8.305585011839866638e-03 -7.195459604263305664e-01
3.740000000000000000e+02 4.391041946411132812e+01 3.364643478393554688e+01 -1.307944297790527344e+00 4.095508158206939697e-01 -2.695180177688598633e-01 -3.636212050914764404e-01
3.750000000000000000e+02 4.300833129882812500e+01 3.439244842529296875e+01 -7.273126244544982910e-01 7.268899083137512207e-01 -1.268008636543527246e-04 -5.494812130928039551e-01
3.760000000000000000e+02 4.259648895263671875e+01 3.434596633911132812e+01 -1.405962347984313965e+00 2.171055972576141357e-01 -3.566570281982421875e-01 3.379347920417785645e-02
3.770000000000000000e+02 4.192243576049804688e+01 3.374700927734375000e+01 -3.550952196121215820e+00 -8.628243952989578247e-02 -1.091170430183410645e+00 8.265926241874694824e-01
3.780000000000000000e+02 4.126317977905273438e+01 3.469194030761718750e+01 -1.797586560249328613e+00 -3.273323550820350647e-02 -5.490959286689758301e-01 3.943816721439361572e-01
3.790000000000000000e+02 4.216996765136718750e+01 3.416305923461914062e+01 -2.231826782226562500e+00 1.134900003671646118e-02 -6.661433577537536621e-01 3.604287207126617432e-01
3.800000000000000000e+02 4.300461196899414062e+01 3.461912155151367188e+01 -3.139550387859344482e-01 9.215107560157775879e-01 1.822667121887207031e-01 -8.267959356307983398e-01
3.810000000000000000e+02 4.061340332031250000e+01 3.482643127441406250e+01 -1.846226215362548828e+00 -1.816297024488449097e-01 -6.083567738533020020e-01 4.890356659889221191e-01
3.820000000000000000e+02 4.123410034179687500e+01 3.394340896606445312e+01 -3.368320226669311523e+00 -2.822918295860290527e-01 -1.095183610916137695e+00 7.466093301773071289e-01
3.830000000000000000e+02 4.051000595092773438e+01 3.409256362915039062e+01 -3.242503881454467773e+00 -7.353547960519790649e-02 -9.948118329048156738e-01 7.001864314079284668e-01
3.840000000000000000e+02 4.290900039672851562e+01 3.393907165527343750e+01 -2.050157308578491211e+00 1.874203234910964966e-01 -5.588210821151733398e-01 1.922625005245208740e-01
3.850000000000000000e+02 4.294532775878906250e+01 3.372260665893554688e+01 -2.900544166564941406e+00 -9.980566799640655518e-03 -8.731574416160583496e-01 4.659458398818969727e-01
3.860000000000000000e+02 4.293859481811523438e+01 3.354690933227539062e+01 -3.377357721328735352e+00 -4.383606836199760437e-02 -1.026358127593994141e+00 8.797572255134582520e-01
3.870000000000000000e+02 4.295411682128906250e+01 3.417733383178710938e+01 -1.485240578651428223e+00 3.172642886638641357e-01 -3.503929078578948975e-01 -1.523084044456481934e-01
3.880000000000000000e+02 4.264467239379882812e+01 3.356281661987304688e+01 -3.724923610687255859e+00 -2.526230216026306152e-01 -1.193264007568359375e+00 7.704529166221618652e-01
3.890000000000000000e+02 4.245600891113281250e+01 3.467549514770507812e+01 -9.965054988861083984e-01 5.093014240264892578e-01 -1.461612284183502197e-01 -2.388615310192108154e-01
3.900000000000000000e+02 4.244618988037109375e+01 3.377441406250000000e+01 -3.243141412734985352e+00 -2.336991131305694580e-01 -1.043052196502685547e+00 7.251970767974853516e-01
3.910000000000000000e+02 4.189125823974609375e+01 3.465765762329101562e+01 -1.546247363090515137e+00 5.486231297254562378e-02 -4.474155008792877197e-01 2.446598559617996216e-01
3.920000000000000000e+02 4.278715515136718750e+01 3.337706756591796875e+01 -3.976160049438476562e+00 -1.467514932155609131e-01 -1.236873507499694824e+00 8.777504563331604004e-01
3.930000000000000000e+02 3.905131912231445312e+01 3.438002777099609375e+01 -2.832707166671752930e+00 -1.259144991636276245e-01 -8.875865340232849121e-01 6.672163009643554688e-01
3.940000000000000000e+02 3.978794097900390625e+01 3.423986434936523438e+01 -3.071253061294555664e+00 -1.794610470533370972e-01 -9.752142429351806641e-01 7.033696770668029785e-01
3.950000000000000000e+02 3.992870712280273438e+01 3.496635818481445312e+01 -1.830942511558532715e+00 2.392880432307720184e-02 -5.421041250228881836e-01 5.220273137092590332e-01
3.960000000000000000e+02 3.772006225585937500e+01 3.538441467285156250e+01 -1.546265840530395508e+00 -1.477446854114532471e-01 -5.082031488418579102e-01 7.417899370193481445e-01
3.970000000000000000e+02 3.845631790161132812e+01 3.524533081054687500e+01 -1.814276695251464844e+00 -1.096232980489730835e-01 -5.771700143814086914e-01 6.400994062423706055e-01
3.980000000000000000e+02 3.757802581787109375e+01 3.465816116333007812e+01 -2.353611469268798828e+00 -1.067026332020759583e-01 -7.380942106246948242e-01 5.752942562103271484e-01
3.990000000000000000e+02 3.919250869750976562e+01 3.510644531250000000e+01 -1.875817894935607910e+00 -2.044764310121536255e-01 -6.240882873535156250e-01 6.096436977386474609e-01
4.000000000000000000e+02 3.831470489501953125e+01 3.451899719238281250e+01 -2.596328020095825195e+00 -1.663468927145004272e-01 -8.288024663925170898e-01 6.136727929115295410e-01
4.010000000000000000e+02 3.551680755615234375e+01 3.582569122314453125e+01 -1.027273654937744141e+00 -2.852222025394439697e-01 -3.937487602233886719e-01 5.455468297004699707e-01
4.020000000000000000e+02 3.610754394531250000e+01 3.495201110839843750e+01 -1.805389046669006348e+00 -1.921875178813934326e-01 -5.992729663848876953e-01 4.700296223163604736e-01
4.030000000000000000e+02 3.463803482055664062e+01 3.524788665771484375e+01 -1.281418919563293457e+00 -2.032628953456878662e-01 -4.454045593738555908e-01 3.712498247623443604e-01
4.040000000000000000e+02 3.684228134155273438e+01 3.480297470092773438e+01 -2.056483983993530273e+00 -1.149796843528747559e-01 -6.514391303062438965e-01 5.825962424278259277e-01
4.050000000000000000e+02 3.698487472534179688e+01 3.552911758422851562e+01 -1.433700799942016602e+00 -2.407254725694656372e-01 -5.023278594017028809e-01 5.689401626586914062e-01
4.060000000000000000e+02 3.478272247314453125e+01 3.597360992431640625e+01 -9.058638811111450195e-01 -1.196623444557189941e-01 -3.076578676700592041e-01 5.228626728057861328e-01
4.070000000000000000e+02 3.625083541870117188e+01 3.567801284790039062e+01 -1.243380546569824219e+00 -1.210832744836807251e-01 -4.093391597270965576e-01 6.815658211708068848e-01
4.080000000000000000e+02 3.537281799316406250e+01 3.509983062744140625e+01 -1.539029955863952637e+00 -3.077663294970989227e-02 -4.709419608116149902e-01 4.721356034278869629e-01
4.090000000000000000e+02 3.242737579345703125e+01 3.568672943115234375e+01 -6.682174205780029297e-01 -1.169498637318611145e-02 -2.039737254381179810e-01 2.159845083951950073e-01
4.100000000000000000e+02 3.169006347656250000e+01 3.583216094970703125e+01 -5.246007442474365234e-01 -9.448399394750595093e-02 -1.857254207134246826e-01 1.686125844717025757e-01
4.110000000000000000e+02 3.330534362792968750e+01 3.626757049560546875e+01 -6.393995881080627441e-01 -1.095468401908874512e-01 -2.246839255094528198e-01 3.804448843002319336e-01
4.120000000000000000e+02 3.316469573974609375e+01 3.554105377197265625e+01 -8.367462158203125000e-01 -1.515582352876663208e-01 -2.964913249015808105e-01 2.580532431602478027e-01
4.130000000000000000e+02 3.390202713012695312e+01 3.539514541625976562e+01 -1.047247648239135742e+00 -1.334684342145919800e-02 -3.181783556938171387e-01 3.351709544658660889e-01
4.140000000000000000e+02 3.404560089111328125e+01 3.612108612060546875e+01 -7.424636483192443848e-01 -2.585362493991851807e-01 -3.002999722957611084e-01 4.553143084049224854e-01
4.150000000000000000e+02 3.182485580444335938e+01 3.655983352661132812e+01 -3.805768787860870361e-01 -8.719440549612045288e-02 -1.403313875198364258e-01 2.627055644989013672e-01
4.160000000000000000e+02 3.256509399414062500e+01 3.641382217407226562e+01 -4.945071935653686523e-01 -1.914144754409790039e-01 -2.057764977216720581e-01 3.400568962097167969e-01
4.170000000000000000e+02 2.946516418457031250e+01 3.621912765502929688e+01 -2.116417735815048218e-01 4.707995802164077759e-03 -6.208013370633125305e-02 7.447186112403869629e-02
4.180000000000000000e+02 2.958438682556152344e+01 3.694947052001953125e+01 -1.606599688529968262e-01 -8.918633311986923218e-02 -7.495389133691787720e-02 1.308871954679489136e-01
4.190000000000000000e+02 2.872264671325683594e+01 3.634394836425781250e+01 -1.464628279209136963e-01 -4.013838991522789001e-02 -5.598036572337150574e-02 5.238199979066848755e-02
4.200000000000000000e+02 3.020768547058105469e+01 3.609378433227539062e+01 -2.895035147666931152e-01 -6.166836991906166077e-02 -1.053515672683715820e-01 9.171931445598602295e-02
4.210000000000000000e+02 3.095018768310546875e+01 3.596792221069335938e+01 -3.967468738555908203e-01 -1.054496318101882935e-02 -1.221875473856925964e-01 1.359168291091918945e-01
4.220000000000000000e+02 3.108069419860839844e+01 3.669636154174804688e+01 -2.996576428413391113e-01 -1.341050118207931519e-01 -1.301288008689880371e-01 2.129398882389068604e-01
4.230000000000000000e+02 2.883622932434082031e+01 3.707524490356445312e+01 -1.223950460553169250e-01 -2.306114323437213898e-02 -4.363685473799705505e-02 9.691926836967468262e-02
4.240000000000000000e+02 3.033255004882812500e+01 3.682317352294921875e+01 -2.360033094882965088e-01 -5.357997864484786987e-02 -8.687498420476913452e-02 1.741459220647811890e-01
4.250000000000000000e+02 2.647223281860351562e+01 3.666142654418945312e+01 -2.418996579945087433e-02 1.456568296998739243e-02 -2.887284616008400917e-03 1.723941788077354431e-02
4.260000000000000000e+02 2.572040748596191406e+01 3.676027679443359375e+01 -8.824742981232702732e-04 -2.280618250370025635e-02 -7.106597069650888443e-03 8.877684362232685089e-03
4.270000000000000000e+02 2.731099891662597656e+01 3.729562377929687500e+01 -5.683582648634910583e-02 -1.189046911895275116e-02 -2.061788737773895264e-02 6.522299349308013916e-02
4.280000000000000000e+02 2.722403526306152344e+01 3.656066131591796875e+01 -5.094454437494277954e-02 -2.907074242830276489e-02 -2.400458604097366333e-02 2.139275148510932922e-02
4.290000000000000000e+02 2.797564125061035156e+01 3.645804595947265625e+01 -9.301578253507614136e-02 6.617562379688024521e-03 -2.591946721076965332e-02 4.080024734139442444e-02
4.300000000000000000e+02 2.807846832275390625e+01 3.719087982177734375e+01 -9.010165184736251831e-02 -5.386486649513244629e-02 -4.318995773792266846e-02 7.697306573390960693e-02
4.310000000000000000e+02 2.577564430236816406e+01 3.749948883056640625e+01 -2.005078643560409546e-02 8.993715979158878326e-03 -3.317120717838406563e-03 2.178138494491577148e-02
4.320000000000000000e+02 2.654333496093750000e+01 3.739851379394531250e+01 -2.141932025551795959e-02 -4.419150575995445251e-02 -1.968324743211269379e-02 3.484937921166419983e-02
4.330000000000000000e+02 2.340743637084960938e+01 3.754123687744140625e+01 9.658026508986949921e-03 -1.726485230028629303e-02 -2.282047644257545471e-03 5.251280497759580612e-03
4.340000000000000000e+02 2.266618919372558594e+01 3.679620742797851562e+01 1.992220617830753326e-02 -7.121379952877759933e-03 3.840247634798288345e-03 6.639255443587899208e-04
4.350000000000000000e+02 2.419788742065429688e+01 3.680555725097656250e+01 1.857046410441398621e-02 -1.306165661662817001e-02 1.652642269618809223e-03 3.550678491592407227e-03
4.360000000000000000e+02 2.496211051940917969e+01 3.680892944335937500e+01 1.022862084209918976e-02 1.380709093064069748e-02 7.210713345557451248e-03 3.843344748020172119e-03
4.370000000000000000e+02 2.499495697021484375e+01 3.754912567138671875e+01 -2.556470222771167755e-03 -2.563762851059436798e-02 -8.458229713141918182e-03 1.904027536511421204e-02
4.380000000000000000e+02 2.261228370666503906e+01 3.753591537475585938e+01 6.651480216532945633e-03 8.373941294848918915e-03 4.507626406848430634e-03 -7.441852241754531860e-03
4.390000000000000000e+02 2.343242454528808594e+01 3.680136489868164062e+01 1.979414373636245728e-02 8.345187641680240631e-03 8.441799320280551910e-03 -1.154676428996026516e-03
4.400000000000000000e+02 2.420181655883789062e+01 3.754558944702148438e+01 2.217805245891213417e-03 1.041479408740997314e-02 3.789779962971806526e-03 3.194258548319339752e-03
4.410000000000000000e+02 1.998039245605468750e+01 3.692026138305664062e+01 4.339060280472040176e-03 7.109717465937137604e-03 3.434633370488882065e-03 -2.802870236337184906e-03
4.420000000000000000e+02 2.062745285034179688e+01 3.732268142700195312e+01 8.050581440329551697e-03 -4.935740493237972260e-03 9.344523423351347446e-04 -1.647679484449326992e-03
4.430000000000000000e+02 2.113145446777343750e+01 3.686664581298828125e+01 1.278731878846883774e-02 -4.596185754053294659e-04 3.698310116305947304e-03 -4.718008451163768768e-03
4.440000000000000000e+02 2.021580696105957031e+01 3.715901565551757812e+01 1.490363292396068573e-02 4.080110229551792145e-03 5.695123225450515747e-03 -7.231197785586118698e-03
4.450000000000000000e+02 2.186282539367675781e+01 3.673282623291015625e+01 1.335609983652830124e-02 3.125793766230344772e-03 4.944568034261465073e-03 -2.606228925287723541e-03
4.460000000000000000e+02 2.186202239990234375e+01 3.748466491699218750e+01 9.243426844477653503e-03 -9.653369896113872528e-03 -1.229826884809881449e-04 2.869070885935798287e-05
4.470000000000000000e+02 2.119230079650878906e+01 3.743341445922851562e+01 7.743585389107465744e-03 5.977991037070751190e-03 4.116472788155078888e-03 -7.979296147823333740e-03
4.480000000000000000e+02 2.068652153015136719e+01 3.649208450317382812e+01 1.158632687292993069e-03 -4.514729604125022888e-03 -1.006829086691141129e-03 -3.123472561128437519e-04
4.490000000000000000e+02 2.102560424804687500e+01 3.579481887817382812e+01 4.937372286804020405e-04 6.341743865050375462e-04 3.383735020179301500e-04 -1.314523629844188690e-03
4.500000000000000000e+02 2.197462081909179688e+01 3.519912338256835938e+01 -2.555126883089542389e-02 -1.785631105303764343e-02 -1.302227377891540527e-02 -2.683233469724655151e-02
4.510000000000000000e+02 2.189435958862304688e+01 3.593660354614257812e+01 -7.534964010119438171e-03 -7.206855341792106628e-03 -4.422545898705720901e-03 -6.638307590037584305e-03
4.520000000000000000e+02 2.057264900207519531e+01 3.514139175415039062e+01 2.096041425829753280e-04 3.239001613110303879e-03 1.034581684507429600e-03 3.035468980669975281e-03
4.530000000000000000e+02 2.112965202331542969e+01 3.506163787841796875e+01 -7.607958279550075531e-03 -1.710160076618194580e-02 -7.412867620587348938e-03 -1.066565699875354767e-02
4.540000000000000000e+02 2.112409210205078125e+01 3.337543106079101562e+01 -1.082906126976013184e-02 -6.954957544803619385e-02 -2.411359176039695740e-02 -3.754615038633346558e-02
4.550000000000000000e+02 2.117816543579101562e+01 3.421297454833984375e+01 -1.175986323505640030e-02 -4.029167070984840393e-02 -1.561545953154563904e-02 -2.894268371164798737e-02
4.560000000000000000e+02 2.463057327270507812e+01 3.341582489013671875e+01 -1.442194581031799316e-01 -3.386943042278289795e-02 -5.342666804790496826e-02 -1.812014877796173096e-01
4.570000000000000000e+02 2.697378540039062500e+01 3.425740051269531250e+01 -3.271687328815460205e-01 2.966473810374736786e-02 -8.925119787454605103e-02 -1.523869484663009644e-01
4.580000000000000000e+02 2.098603630065917969e+01 2.544999313354492188e+01 4.032853990793228149e-03 -8.349326252937316895e-01 -2.492699325084686279e-01 -4.464850574731826782e-02
4.590000000000000000e+02 2.586756515502929688e+01 1.615568923950195312e+01 1.213122233748435974e-01 2.524152994155883789e-01 1.121182516217231750e-01 2.774284780025482178e-01
4.600000000000000000e+02 3.308182525634765625e+01 1.274413776397705078e+01 1.191243752837181091e-01 2.297852754592895508e+00 7.250931262969970703e-01 8.597820997238159180e-01
4.610000000000000000e+02 4.022207260131835938e+01 3.293625831604003906e+00 -4.199953079223632812e-01 4.373002052307128906e+00 1.185902118682861328e+00 6.324829459190368652e-01
4.620000000000000000e+02 4.675364303588867188e+01 -4.095557212829589844e+00 -5.131859779357910156e-01 5.463290691375732422e+00 1.485031366348266602e+00 1.774373203516006470e-01
4.630000000000000000e+02 5.876239395141601562e+01 -9.200132369995117188e+00 -3.784942328929901123e-01 6.967157840728759766e+00 1.976599097251892090e+00 -2.442391365766525269e-01
4.640000000000000000e+02 6.500351715087890625e+01 -1.654858779907226562e+01 -1.580379754304885864e-01 7.649411201477050781e+00 2.247411966323852539e+00 -2.009655684232711792e-01
4.650000000000000000e+02 6.923632049560546875e+01 -2.496143341064453125e+01 -5.458019301295280457e-02 8.252827644348144531e+00 2.459474086761474609e+00 -8.833132684230804443e-02
4.660000000000000000e+02 7.793973541259765625e+01 -3.038818931579589844e+01 -8.343736641108989716e-03 9.586119651794433594e+00 2.873332738876342773e+00 -1.748014427721500397e-02
4.670000000000000000e+02 7.935848236083984375e+01 -2.640694618225097656e+01 6.867893389426171780e-04 9.780282974243164062e+00 2.934291124343872070e+00 -1.462656818330287933e-02
4.680000000000000000e+02 7.808880615234375000e+01 -2.351079559326171875e+01 -3.173995763063430786e-03 9.545857429504394531e+00 2.862804889678955078e+00 -3.205577284097671509e-02
4.690000000000000000e+02 7.936258697509765625e+01 -2.224448394775390625e+01 -1.148606068454682827e-03 9.729072570800781250e+00 2.918377161026000977e+00 -1.815046370029449463e-02
4.700000000000000000e+02 7.267549133300781250e+01 -1.200760841369628906e+01 -6.555414944887161255e-02 8.574591636657714844e+00 2.552711009979248047e+00 -2.175101637840270996e-01
4.710000000000000000e+02 6.591613006591796875e+01 -4.455545425415039062e+00 -2.885115742683410645e-01 7.776196479797363281e+00 2.246305465698242188e+00 -4.672328829765319824e-01
4.720000000000000000e+02 5.994439697265625000e+01 2.351458549499511719e+00 -5.828039050102233887e-01 7.480211257934570312e+00 2.069222211837768555e+00 -5.445719957351684570e-01
4.730000000000000000e+02 4.666001892089843750e+01 8.155110359191894531e+00 -7.010288834571838379e-01 6.195018768310546875e+00 1.648197054862976074e+00 5.204662084579467773e-01
4.740000000000000000e+02 4.008722686767578125e+01 1.557559776306152344e+01 8.371396921575069427e-03 4.464185237884521484e+00 1.341766953468322754e+00 1.384860396385192871e+00
4.750000000000000000e+02 3.483292770385742188e+01 2.829553031921386719e+01 6.632332205772399902e-01 4.498353302478790283e-01 3.339205682277679443e-01 1.277915686368942261e-01
4.760000000000000000e+02 3.202252578735351562e+01 3.277220916748046875e+01 -6.555202007293701172e-01 9.917405992746353149e-02 -1.669038385152816772e-01 -2.023698985576629639e-01
4.770000000000000000e+02 2.987166213989257812e+01 3.386007308959960938e+01 -5.975533127784729004e-01 6.234547123312950134e-02 -1.605623513460159302e-01 -1.456660777330398560e-01
4.780000000000000000e+02 2.378243446350097656e+01 -3.464520645141601562e+01 3.043212369084358215e-02 1.461020231246948242e+00 4.474357068538665771e-01 2.295537851750850677e-02
4.790000000000000000e+02 1.661327362060546875e+01 -3.862482833862304688e+01 -1.283118724822998047e-01 -2.643516659736633301e-02 -4.642410948872566223e-02 -1.204748731106519699e-02
4.800000000000000000e+02 1.880882835388183594e+01 -3.918217849731445312e+01 -1.112024709582328796e-01 4.911966919898986816e-01 1.139982640743255615e-01 1.493045389652252197e-01
4.810000000000000000e+02 1.453706169128417969e+01 -3.648419189453125000e+01 -2.495474927127361298e-02 -1.415406074374914169e-02 -1.173264253884553909e-02 -1.649333629757165909e-03
4.820000000000000000e+02 1.536658191680908203e+01 -3.760643386840820312e+01 -2.406862005591392517e-02 -4.517211928032338619e-04 -7.356102578341960907e-03 2.326643094420433044e-02
4.830000000000000000e+02 1.287819576263427734e+01 -3.139289665222167969e+01 -4.183910787105560303e-03 -2.121019177138805389e-03 -1.891478896141052246e-03 2.530289348214864731e-03
4.840000000000000000e+02 6.628782153129577637e-01 -2.476981163024902344e+01 -1.501827035099267960e-03 1.663788425503298640e-04 -4.006344533991068602e-04 -1.033645385177806020e-04
4.850000000000000000e+02 6.675930023193359375e-01 -3.041243171691894531e+01 -1.906811492517590523e-03 1.377371227135881782e-04 -5.307223182171583176e-04 -2.643327752593904734e-04
4.860000000000000000e+02 6.847810149192810059e-01 -3.181689071655273438e+01 2.031544456258416176e-03 8.395285112783312798e-05 6.346491863951086998e-04 1.620865950826555490e-04
4.870000000000000000e+02 8.319830894470214844e-01 -3.737714004516601562e+01 3.548813518136739731e-03 -1.809855573810636997e-03 5.216873250901699066e-04 4.853740683756768703e-04
4.880000000000000000e+02 8.934496879577636719e+00 -3.948164367675781250e+01 9.333851747214794159e-03 -6.820271373726427555e-04 2.595547353848814964e-03 -7.628485094755887985e-03
4.890000000000000000e+02 1.212534618377685547e+01 -4.146622848510742188e+01 3.679414093494415283e-02 -6.131500471383333206e-03 9.198792278766632080e-03 -9.809184819459915161e-03
4.900000000000000000e+02 2.136511039733886719e+01 -3.359443664550781250e+01 2.641357854008674622e-02 1.149337053298950195e+00 3.527252078056335449e-01 3.591587021946907043e-02
4.910000000000000000e+02 1.968696975708007812e+01 -2.799805641174316406e+01 5.692242179065942764e-03 8.536385297775268555e-01 2.577992379665374756e-01 1.158100925385951996e-02
4.920000000000000000e+02 2.117418479919433594e+01 -3.082634735107421875e+01 -1.043987926095724106e-02 1.093390226364135742e+00 3.248851001262664795e-01 2.869312651455402374e-02
4.930000000000000000e+02 1.972030830383300781e+01 -3.504783630371093750e+01 5.775853525847196579e-03 9.616539478302001953e-01 2.902289628982543945e-01 7.142119854688644409e-02
4.940000000000000000e+02 1.952720642089843750e+01 -3.646168136596679688e+01 1.139819547533988953e-01 8.454714417457580566e-01 2.878360152244567871e-01 1.210153922438621521e-01
4.950000000000000000e+02 1.975148582458496094e+01 -2.375588226318359375e+01 -1.183472946286201477e-02 7.884447574615478516e-01 2.329830080270767212e-01 2.100533992052078247e-02
4.960000000000000000e+02 1.981195068359375000e+01 -2.091471099853515625e+01 2.693014452233910561e-03 7.878913879394531250e-01 2.371753156185150146e-01 2.913418598473072052e-02
4.970000000000000000e+02 2.142812728881835938e+01 -2.375501441955566406e+01 -7.251265924423933029e-03 1.055579662322998047e+00 3.144985437393188477e-01 4.089849814772605896e-02
4.980000000000000000e+02 2.064326667785644531e+01 -1.260934233665466309e+00 1.839835196733474731e-03 3.197379708290100098e-01 9.647333621978759766e-02 4.886659979820251465e-02
4.990000000000000000e+02 2.034848403930664062e+01 -6.858872413635253906e+00 -3.677789121866226196e-03 5.318365097045898438e-01 1.584476083517074585e-01 3.505187481641769409e-02
5.000000000000000000e+02 2.159964370727539062e+01 -1.093869686126708984e+01 3.330117324367165565e-04 8.941627144813537598e-01 2.683487236499786377e-01 7.956375926733016968e-02
5.010000000000000000e+02 2.921770668029785156e+01 -2.375865173339843750e+01 -4.308744519948959351e-02 2.270115137100219727e+00 6.681083440780639648e-01 1.136110052466392517e-01
5.020000000000000000e+02 4.412398529052734375e+01 -3.407019042968750000e+01 -9.814240038394927979e-02 4.533380031585693359e+00 1.330571293830871582e+00 1.647940278053283691e-02
5.030000000000000000e+02 4.739081573486328125e+01 -4.027917480468750000e+01 -8.824134618043899536e-02 4.988121986389160156e+00 1.469964146614074707e+00 5.236056167632341385e-03
5.040000000000000000e+02 4.804137420654296875e+01 -3.612162780761718750e+01 -9.503816813230514526e-02 5.091382503509521484e+00 1.498903393745422363e+00 8.811142295598983765e-03
5.050000000000000000e+02 6.224305725097656250e+01 -4.081133270263671875e+01 -4.948241263628005981e-02 7.244524955749511719e+00 2.158512830734252930e+00 -5.787982139736413956e-03
5.060000000000000000e+02 5.738666534423828125e+01 -4.076185226440429688e+01 -6.457275897264480591e-02 6.517684936523437500e+00 1.935933589935302734e+00 -4.426050465553998947e-03
5.070000000000000000e+02 5.510211944580078125e+01 -2.011660385131835938e+01 -2.246070206165313721e-01 6.282827377319335938e+00 1.817466139793395996e+00 -6.546498090028762817e-02
5.080000000000000000e+02 5.779697036743164062e+01 -1.044876289367675781e+01 -3.608377873897552490e-01 6.838811874389648438e+00 1.943392157554626465e+00 -2.068418860435485840e-01
5.090000000000000000e+02 5.328287124633789062e+01 -9.912003517150878906e+00 -4.182423055171966553e-01 6.240846633911132812e+00 1.746781349182128906e+00 -8.498900383710861206e-02
5.100000000000000000e+02 4.834150695800781250e+01 -5.165002346038818359e+00 -5.173497796058654785e-01 5.681237220764160156e+00 1.549166202545166016e+00 1.184214875102043152e-01
5.110000000000000000e+02 4.003684234619140625e+01 -4.531743049621582031e+00 -3.612286448478698730e-01 4.176628112792968750e+00 1.144619822502136230e+00 3.904897570610046387e-01
5.120000000000000000e+02 2.707532882690429688e+01 -2.147341251373291016e+00 -4.988066852092742920e-02 1.517017126083374023e+00 4.401409327983856201e-01 3.508245944976806641e-01
5.130000000000000000e+02 2.057131195068359375e+01 -2.666674375534057617e+00 8.296642452478408813e-03 3.924550414085388184e-01 1.202255040407180786e-01 5.462157353758811951e-02
5.140000000000000000e+02 2.031387710571289062e+01 -9.668067932128906250e+00 5.150380544364452362e-03 6.733613014221191406e-01 2.035535126924514771e-01 3.878877684473991394e-02
5.150000000000000000e+02 1.995790290832519531e+01 -1.668537330627441406e+01 2.749162958934903145e-03 7.454578280448913574e-01 2.244621068239212036e-01 6.575569510459899902e-02
5.160000000000000000e+02 2.140265846252441406e+01 -1.655638694763183594e+01 -6.302112713456153870e-03 9.727962613105773926e-01 2.899482548236846924e-01 6.534159183502197266e-02
5.170000000000000000e+02 3.725471878051757812e+01 -4.086968231201171875e+01 -7.133131474256515503e-02 3.476894855499267578e+00 1.021669149398803711e+00 -3.063338575884699821e-03
5.180000000000000000e+02 4.222065353393554688e+01 -4.036116027832031250e+01 -7.702162861824035645e-02 4.271334171295166016e+00 1.258293747901916504e+00 5.984283983707427979e-03
5.190000000000000000e+02 1.387256526947021484e+01 -3.441356658935546875e+01 8.471093140542507172e-03 -1.541876583360135555e-03 2.078765071928501129e-03 -1.367182936519384384e-03
5.200000000000000000e+02 1.414473628997802734e+01 -3.305776214599609375e+01 -7.175377570092678070e-03 -1.108807395212352276e-03 -2.485255477949976921e-03 2.758040558546781540e-03
5.210000000000000000e+02 1.327551651000976562e+01 -2.618510627746582031e+01 -2.895869314670562744e-03 -2.521121059544384480e-04 -9.443944436497986317e-04 -7.593708141939714551e-05
5.220000000000000000e+02 1.875523090362548828e+00 -1.758473777770996094e+01 -1.282297889702022076e-03 -6.809025762777309865e-06 -3.867320774588733912e-04 -1.151452888734638691e-04
5.230000000000000000e+02 6.669246554374694824e-01 -2.335477447509765625e+01 1.410994096659123898e-03 1.723077584756538272e-04 4.749905492644757032e-04 1.378031738568097353e-04
5.240000000000000000e+02 1.441776943206787109e+01 -3.033387565612792969e+01 -4.474857822060585022e-03 1.658189430600032210e-04 -1.292711705900728703e-03 9.170581470243632793e-04
5.250000000000000000e+02 1.315212249755859375e+01 -2.880429649353027344e+01 -3.342973301187157631e-03 -5.940576666034758091e-04 -1.181109342724084854e-03 6.674105534330010414e-04
5.260000000000000000e+02 1.424631690979003906e+01 -2.200002861022949219e+01 -2.860539127141237259e-03 2.856047358363866806e-04 -7.724803290329873562e-04 -6.599266271223314106e-06
5.270000000000000000e+02 1.452944755554199219e+01 -1.348501682281494141e+01 -1.451963558793067932e-03 -4.725738108390942216e-05 -4.497662885114550591e-04 1.996980718104168773e-04
5.280000000000000000e+02 1.462621498107910156e+01 -6.560619831085205078e+00 8.140170248225331306e-04 1.862650242401286960e-05 2.497930545359849930e-04 -1.811413739005729440e-07
5.290000000000000000e+02 1.460678100585937500e+01 -3.870610713958740234e+00 5.159795982763171196e-04 6.845780444564297795e-05 1.753312099026516080e-04 8.756401075515896082e-05
5.300000000000000000e+02 1.442619800567626953e+01 -2.848363161087036133e+00 -4.336639249231666327e-04 -3.867180203087627888e-05 -1.417007151758298278e-04 -2.471907355356961489e-04
5.310000000000000000e+02 1.030440902709960938e+01 -2.663738965988159180e+00 -2.621678286232054234e-04 -1.523327518953010440e-04 -1.243501756107434630e-04 2.155301772290840745e-04
5.320000000000000000e+02 1.350782012939453125e+01 -1.063072872161865234e+01 1.091943704523146152e-03 7.269762136274948716e-05 3.493924159556627274e-04 -1.872975844889879227e-04
5.330000000000000000e+02 1.283898448944091797e+01 -1.871702766418457031e+01 1.629486563615500927e-03 3.803189902100712061e-04 6.029416690580546856e-04 -7.836418808437883854e-04
5.340000000000000000e+02 1.327132892608642578e+01 -2.490015983581542969e+01 2.789531135931611061e-03 5.008761072531342506e-04 9.871221845969557762e-04 2.183207543566823006e-04
5.350000000000000000e+02 1.450130367279052734e+01 -2.620543861389160156e+01 3.441418986767530441e-03 4.209162725601345301e-04 1.158700557425618172e-03 -3.664433461381122470e-05
5.360000000000000000e+02 1.108484077453613281e+01 -1.897406339645385742e+00 -2.735128800850361586e-04 -5.886311191716231406e-05 -9.971279359888285398e-05 1.531753950985148549e-04
5.370000000000000000e+02 4.266049861907958984e+00 -1.892526149749755859e+00 4.267283293302170932e-05 6.298437801888212562e-05 3.169716364936903119e-05 1.967707976291421801e-05
5.380000000000000000e+02 1.755566596984863281e+00 -1.059757995605468750e+01 8.533017244189977646e-04 6.280028901528567076e-05 2.748306142166256905e-04 -1.354084986360248877e-07
5.390000000000000000e+02 6.274796128273010254e-01 -1.770222473144531250e+01 1.219239318743348122e-03 3.823988663498312235e-05 3.772437630686908960e-04 1.062846349668689072e-04
5.400000000000000000e+02 2.740349054336547852e+00 -3.808726882934570312e+01 3.328972496092319489e-03 -2.211834769695997238e-03 3.351412888150662184e-04 -9.242504893336445093e-05
5.410000000000000000e+02 2.156112670898437500e+01 -3.665337371826171875e+01 2.440238557755947113e-02 1.087384819984436035e+00 3.335361778736114502e-01 -1.794458925724029541e-02
5.420000000000000000e+02 2.423929405212402344e+01 -3.658009338378906250e+01 -4.679582547396421432e-03 1.505911231040954590e+00 4.503694772720336914e-01 1.165785081684589386e-02
5.430000000000000000e+02 3.210790634155273438e+01 -3.842325973510742188e+01 -5.416311323642730713e-02 2.700486660003662109e+00 7.938970327377319336e-01 1.726686209440231323e-02
5.440000000000000000e+02 1.966877937316894531e+01 -3.080162429809570312e+01 1.031652837991714478e-02 8.998581171035766602e-01 2.730523943901062012e-01 1.410807855427265167e-02
5.450000000000000000e+02 6.780111694335937500e+01 -3.209313964843750000e+01 -4.295374453067779541e-02 8.033525466918945312e+00 2.397171497344970703e+00 -3.698525205254554749e-02
5.460000000000000000e+02 6.436263275146484375e+01 -2.817258453369140625e+01 -7.576147466897964478e-02 7.554588317871093750e+00 2.243648052215576172e+00 -9.156111627817153931e-02
5.470000000000000000e+02 6.557601928710937500e+01 -2.085267829895019531e+01 -1.206107065081596375e-01 7.713950157165527344e+00 2.278001785278320312e+00 -1.466135978698730469e-01
5.480000000000000000e+02 6.699897766113281250e+01 -4.089088439941406250e+01 -3.807915747165679932e-02 7.933279991149902344e+00 2.368560314178466797e+00 -2.330039860680699348e-03
5.490000000000000000e+02 7.006331634521484375e+01 -3.798120498657226562e+01 -1.877860724925994873e-02 8.429233551025390625e+00 2.523136377334594727e+00 -2.058533951640129089e-02
5.500000000000000000e+02 7.321286010742187500e+01 -3.065504455566406250e+01 -2.330154925584793091e-02 8.832042694091796875e+00 2.642622232437133789e+00 -4.077183455228805542e-02
5.510000000000000000e+02 7.287534332275390625e+01 -2.525872993469238281e+01 -2.366449870169162750e-02 8.770471572875976562e+00 2.624042034149169922e+00 -7.093919813632965088e-02
5.520000000000000000e+02 7.789752197265625000e+01 -4.162138748168945312e+01 4.565542191267013550e-02 9.632604598999023438e+00 2.903477907180786133e+00 1.281641889363527298e-02
5.530000000000000000e+02 7.765450286865234375e+01 -3.673791503906250000e+01 -1.346080563962459564e-02 9.558147430419921875e+00 2.863406181335449219e+00 1.750702410936355591e-02
5.540000000000000000e+02 7.930169677734375000e+01 -3.332983016967773438e+01 2.001283224672079086e-03 9.812028884887695312e+00 2.944209098815917969e+00 -1.728649833239614964e-03
5.550000000000000000e+02 7.805991363525390625e+01 -1.660754585266113281e+01 -5.173763725906610489e-03 9.429547309875488281e+00 2.827312231063842773e+00 -5.444861948490142822e-02
5.560000000000000000e+02 7.935615539550781250e+01 -1.250373744964599609e+01 -9.664437384344637394e-04 9.519874572753906250e+00 2.855672359466552734e+00 -3.449824452400207520e-02
5.570000000000000000e+02 7.280184173583984375e+01 -5.060621261596679688e+00 -1.015068367123603821e-01 8.414166450500488281e+00 2.493797779083251953e+00 -3.524189293384552002e-01
5.580000000000000000e+02 6.589980316162109375e+01 1.883472442626953125e+00 -3.718568086624145508e-01 7.797915458679199219e+00 2.227817535400390625e+00 -6.856970787048339844e-01
5.590000000000000000e+02 5.938362121582031250e+01 9.255832672119140625e+00 -6.745386123657226562e-01 7.841411590576171875e+00 2.150061845779418945e+00 -7.524557709693908691e-01
5.600000000000000000e+02 5.008123397827148438e+01 2.135256004333496094e+01 -5.621272921562194824e-01 9.420364379882812500e+00 2.657470941543579102e+00 3.836472034454345703e-01
5.610000000000000000e+02 3.719083404541015625e+01 3.250877761840820312e+01 -1.093472480773925781e+00 5.834719538688659668e-02 -3.105375766754150391e-01 1.227004174143075943e-02
5.620000000000000000e+02 3.571855163574218750e+01 3.277979660034179688e+01 -1.084403634071350098e+00 6.564573198556900024e-02 -3.056273758411407471e-01 -4.160237684845924377e-02
5.630000000000000000e+02 3.278518676757812500e+01 3.333763504028320312e+01 -8.823411464691162109e-01 7.498444616794586182e-02 -2.422070205211639404e-01 -1.079502105712890625e-01
5.640000000000000000e+02 7.807247924804687500e+01 -9.639167785644531250e+00 -6.998074706643819809e-03 9.226777076721191406e+00 2.765933752059936523e+00 -9.105680137872695923e-02
5.650000000000000000e+02 7.936514282226562500e+01 -5.542442321777343750e+00 -1.437023631297051907e-03 9.220435142517089844e+00 2.765699386596679688e+00 -5.186139792203903198e-02
5.660000000000000000e+02 7.322780609130859375e+01 1.668072342872619629e+00 -1.091616153717041016e-01 8.179285049438476562e+00 2.421036958694458008e+00 -5.119607448577880859e-01
5.670000000000000000e+02 6.638973999023437500e+01 6.385831832885742188e+00 -3.797743916511535645e-01 7.827983379364013672e+00 2.234462738037109375e+00 -8.605350255966186523e-01
5.680000000000000000e+02 5.875406646728515625e+01 1.871346092224121094e+01 -3.403658866882324219e-01 8.591786384582519531e+00 2.475425958633422852e+00 -1.143380403518676758e+00
5.690000000000000000e+02 4.122667312622070312e+01 3.178578186035156250e+01 7.204487919807434082e-03 6.895292550325393677e-02 2.284722402691841125e-02 5.265092849731445312e-01
5.700000000000000000e+02 4.004061126708984375e+01 3.200485229492187500e+01 -5.736927390098571777e-01 5.038773268461227417e-02 -1.569915115833282471e-01 2.200600355863571167e-01
5.710000000000000000e+02 7.810317230224609375e+01 -2.694493532180786133e+00 -1.073272991925477982e-02 8.881426811218261719e+00 2.661208391189575195e+00 -1.444816440343856812e-01
5.720000000000000000e+02 7.937247467041015625e+01 2.820554494857788086e+00 -4.799020825885236263e-04 8.580292701721191406e+00 2.573943853378295898e+00 -8.057550340890884399e-02
5.730000000000000000e+02 7.293412017822265625e+01 9.440855026245117188e+00 -1.189605146646499634e-01 7.711377143859863281e+00 2.277724981307983398e+00 -7.638368606567382812e-01
5.740000000000000000e+02 6.609299468994140625e+01 1.756037521362304688e+01 -1.561021655797958374e-01 7.788629055023193359e+00 2.289757966995239258e+00 -1.301510334014892578e+00
5.750000000000000000e+02 5.278097915649414062e+01 2.628529930114746094e+01 9.255615472793579102e-01 1.063776397705078125e+01 3.468997478485107422e+00 -9.333347082138061523e-01
5.760000000000000000e+02 4.848107910156250000e+01 3.022859191894531250e+01 3.639097929000854492e+00 1.525796222686767578e+01 5.669117927551269531e+00 -6.548579335212707520e-01
5.770000000000000000e+02 4.612617874145507812e+01 3.095220375061035156e+01 2.932564258575439453e+00 1.919429588317871094e+01 6.638058185577392578e+00 5.318154335021972656e+00
5.780000000000000000e+02 4.542899703979492188e+01 3.109004592895507812e+01 4.575086593627929688e+00 1.216554546356201172e+01 5.022189617156982422e+00 8.032947540283203125e+00
5.790000000000000000e+02 7.812182617187500000e+01 4.271608829498291016e+00 -9.655367583036422729e-03 8.322545051574707031e+00 2.493866920471191406e+00 -2.143496125936508179e-01
5.800000000000000000e+02 7.936364746093750000e+01 8.395906448364257812e+00 2.403936668997630477e-04 7.927088260650634766e+00 2.378198623657226562e+00 -1.038124188780784607e-01
5.810000000000000000e+02 7.292918395996093750e+01 1.729806137084960938e+01 -4.674994572997093201e-02 7.105883121490478516e+00 2.117739915847778320e+00 -9.555572271347045898e-01
5.820000000000000000e+02 6.635675811767578125e+01 2.560072708129882812e+01 4.232142567634582520e-01 7.580440998077392578e+00 2.401096582412719727e+00 -1.254235029220581055e+00
5.830000000000000000e+02 5.553510284423828125e+01 2.936464500427246094e+01 2.111737251281738281e+00 9.807827949523925781e+00 3.575869560241699219e+00 -9.068692922592163086e-01
5.840000000000000000e+02 4.836500930786132812e+01 3.227965164184570312e+01 9.095420837402343750e+00 1.557458400726318359e+01 7.401001453399658203e+00 3.129769563674926758e-01
5.850000000000000000e+02 4.872015762329101562e+01 3.097282791137695312e+01 5.300887584686279297e+00 1.497394752502441406e+01 6.082450389862060547e+00 -9.426302909851074219e-01
5.860000000000000000e+02 4.763386917114257812e+01 3.177993774414062500e+01 8.864310264587402344e+00 1.808997917175292969e+01 8.086287498474121094e+00 -1.111978054046630859e+00
5.870000000000000000e+02 7.806271362304687500e+01 1.124955558776855469e+01 -1.309929974377155304e-02 7.505282878875732422e+00 2.247655153274536133e+00 -2.991222143173217773e-01
5.880000000000000000e+02 7.936975097656250000e+01 1.675949287414550781e+01 4.999435972422361374e-03 6.607298851013183594e+00 1.983689427375793457e+00 -1.262583583593368530e-01
5.890000000000000000e+02 7.283344268798828125e+01 2.339729881286621094e+01 7.589583843946456909e-02 6.553798675537109375e+00 1.988908410072326660e+00 -9.455078244209289551e-01
5.900000000000000000e+02 6.495528411865234375e+01 3.043869590759277344e+01 8.014177083969116211e-01 7.734003543853759766e+00 2.560626268386840820e+00 -9.266749024391174316e-01
5.910000000000000000e+02 5.721154785156250000e+01 4.117676925659179688e+01 4.904976487159729004e-01 1.074412250518798828e+01 3.370386123657226562e+00 1.367837488651275635e-01
5.920000000000000000e+02 4.816117477416992188e+01 4.117374420166015625e+01 -1.336063385009765625e+00 1.174135971069335938e+01 3.121588706970214844e+00 -4.820412769913673401e-02
5.930000000000000000e+02 4.746442794799804688e+01 3.561098098754882812e+01 -2.265388667583465576e-01 1.660941505432128906e+01 4.914863109588623047e+00 4.449114501476287842e-01
5.940000000000000000e+02 4.367770767211914062e+01 3.481019210815429688e+01 7.841904759407043457e-01 2.202868461608886719e+00 8.961176872253417969e-01 -1.896535992622375488e+00
5.950000000000000000e+02 4.205507659912109375e+01 3.553956222534179688e+01 -1.532318294048309326e-01 8.563767075538635254e-01 2.109434604644775391e-01 -6.231430172920227051e-01
5.960000000000000000e+02 4.139859390258789062e+01 3.568644714355468750e+01 -3.482671082019805908e-01 5.762474536895751953e-01 6.839410215616226196e-02 -2.382633686065673828e-01
5.970000000000000000e+02 3.862016677856445312e+01 3.633866500854492188e+01 -6.634326577186584473e-01 -2.890189737081527710e-02 -2.077003717422485352e-01 5.693879723548889160e-01
5.980000000000000000e+02 3.626951980590820312e+01 3.653717041015625000e+01 -6.584031581878662109e-01 -3.175557851791381836e-01 -2.927876710891723633e-01 6.197258830070495605e-01
5.990000000000000000e+02 3.558154296875000000e+01 3.656663131713867188e+01 -6.951050758361816406e-01 -1.766724884510040283e-01 -2.615332603454589844e-01 6.204118132591247559e-01
6.000000000000000000e+02 3.193478965759277344e+01 3.731773757934570312e+01 -2.264792025089263916e-01 -2.174004763364791870e-01 -1.331638991832733154e-01 3.112567663192749023e-01
6.010000000000000000e+02 7.812173461914062500e+01 1.959067344665527344e+01 -3.995800856500864029e-03 6.249054431915283203e+00 1.873517632484436035e+00 -3.431690335273742676e-01
6.020000000000000000e+02 7.935557556152343750e+01 2.369722366333007812e+01 -1.288947556167840958e-02 5.353825569152832031e+00 1.602280855178833008e+00 -1.242903470993041992e-01
6.030000000000000000e+02 7.213656616210937500e+01 3.025083732604980469e+01 2.346296161413192749e-01 6.219743728637695312e+00 1.936311960220336914e+00 -7.214181423187255859e-01
6.040000000000000000e+02 6.152442169189453125e+01 4.076903915405273438e+01 7.376043200492858887e-01 9.011959075927734375e+00 2.924869060516357422e+00 2.986287511885166168e-02
6.050000000000000000e+02 5.662791824340820312e+01 3.851739501953125000e+01 6.901188492774963379e-01 1.077419376373291016e+01 3.439293861389160156e+00 5.389422178268432617e-01
6.060000000000000000e+02 7.683299255371093750e+01 2.232560729980468750e+01 1.740197278559207916e-02 6.029716491699218750e+00 1.814135551452636719e+00 -5.214694142341613770e-01
6.070000000000000000e+02 7.930194091796875000e+01 2.929119300842285156e+01 -7.522971834987401962e-03 4.447430133819580078e+00 1.331972122192382812e+00 -1.044289320707321167e-01
6.080000000000000000e+02 6.896108245849609375e+01 3.785756683349609375e+01 4.653026461601257324e-01 6.887177467346191406e+00 2.205744028091430664e+00 -2.947360575199127197e-01
6.090000000000000000e+02 7.937429809570312500e+01 3.207105255126953125e+01 1.750865392386913300e-02 4.070873737335205078e+00 1.226514816284179688e+00 -7.525557279586791992e-02
6.100000000000000000e+02 7.907411193847656250e+01 3.742235946655273438e+01 3.386478498578071594e-02 3.864050388336181641e+00 1.169374585151672363e+00 3.540805354714393616e-02
6.110000000000000000e+02 7.183434295654296875e+01 3.834371566772460938e+01 3.088341951370239258e-01 6.064118385314941406e+00 1.911885738372802734e+00 -2.549981772899627686e-01
6.120000000000000000e+02 7.722092437744140625e+01 3.912771987915039062e+01 6.876357644796371460e-02 4.130974769592285156e+00 1.259921550750732422e+00 3.787983208894729614e-02
6.130000000000000000e+02 2.978548240661621094e+01 3.763039779663085938e+01 -1.260919123888015747e-01 -8.297408372163772583e-02 -6.271979957818984985e-02 1.772001087665557861e-01
6.140000000000000000e+02 2.677850341796875000e+01 3.814828109741210938e+01 -3.807955235242843628e-02 -3.649671375751495361e-02 -2.237287908792495728e-02 7.435851544141769409e-02
6.150000000000000000e+02 2.237235641479492188e+01 3.842404174804687500e+01 5.282353376969695091e-04 -9.179565124213695526e-03 -2.595399040728807449e-03 4.806730430573225021e-03
6.160000000000000000e+02 2.160681343078613281e+01 4.040302658081054688e+01 -4.887569812126457691e-04 -1.388539467006921768e-02 -4.312245640903711319e-03 8.733888156712055206e-03
6.170000000000000000e+02 1.947459602355957031e+01 3.771079254150390625e+01 1.652632281184196472e-02 1.643252559006214142e-02 9.887654334306716919e-03 -1.246336009353399277e-02
6.180000000000000000e+02 1.902432680130004883e+00 2.619446563720703125e+01 -1.680946210399270058e-03 -8.618200808996334672e-05 -5.301384953781962395e-04 -3.779263715841807425e-05
6.190000000000000000e+02 1.893041610717773438e+00 3.036881446838378906e+01 1.878246548585593700e-03 1.257284020539373159e-04 6.011924706399440765e-04 4.930269278702326119e-05
6.200000000000000000e+02 4.069564342498779297e+00 3.642816543579101562e+01 2.841786947101354599e-03 7.585585699416697025e-04 1.080103684216737747e-03 6.288382573984563351e-04
6.210000000000000000e+02 2.004058361053466797e+00 4.165187072753906250e+01 -1.364497235044836998e-03 5.302810677676461637e-05 -3.934407432097941637e-04 -4.264769377186894417e-04
6.220000000000000000e+02 1.355189800262451172e+01 3.649733352661132812e+01 6.016285158693790436e-03 -2.291919954586774111e-04 1.736128004267811775e-03 -8.564564050175249577e-04
6.230000000000000000e+02 1.330315208435058594e+01 3.488447570800781250e+01 -5.945289507508277893e-03 1.194666023366153240e-03 -1.425186987034976482e-03 4.285781178623437881e-04
6.240000000000000000e+02 1.458490180969238281e+01 2.299589538574218750e+01 -2.531713107600808144e-03 -2.678344208106864244e-05 -7.675489760003983974e-04 2.621047315187752247e-04
6.250000000000000000e+02 1.441576194763183594e+01 1.741411018371582031e+01 -1.856236602179706097e-03 5.483345739776268601e-05 -5.404209368862211704e-04 8.293579594464972615e-05
6.260000000000000000e+02 1.455197525024414062e+01 1.044003772735595703e+01 1.262194942682981491e-03 2.302592292835470289e-05 3.855662362184375525e-04 9.758386113389860839e-06
6.270000000000000000e+02 1.368348503112792969e+01 1.817073106765747070e+00 1.175952929770573974e-04 3.924223346984945238e-05 4.705125684267841280e-05 1.545280683785676956e-04
6.280000000000000000e+02 1.317643833160400391e+01 1.764065980911254883e+00 -3.483561522443778813e-05 -1.194906362798064947e-04 -4.629787508747540414e-05 -6.975240103201940656e-05
6.290000000000000000e+02 6.633082628250122070e-01 3.462386703491210938e+01 2.246768213808536530e-03 -2.178471622755751014e-04 6.086763460189104080e-04 -1.717116392683237791e-04
6.300000000000000000e+02 6.293098330497741699e-01 2.763312530517578125e+01 -1.696636783890426159e-03 -1.586571488587651402e-05 -5.137507687322795391e-04 3.277275754953734577e-05
6.310000000000000000e+02 6.349320411682128906e-01 2.057166481018066406e+01 1.480204402469098568e-03 -2.531212885514833033e-06 4.433019494172185659e-04 -6.481389846157981083e-06
6.320000000000000000e+02 1.986977338790893555e+00 1.626609802246093750e+01 1.379863708280026913e-03 1.010903997666900977e-05 4.169918247498571873e-04 2.203511394327506423e-05
6.330000000000000000e+02 1.221407890319824219e+01 1.170007419586181641e+01 -9.841048158705234528e-04 -2.514546213205903769e-04 -3.706678398884832859e-04 -3.459086583461612463e-04
6.340000000000000000e+02 1.288631629943847656e+01 1.608939361572265625e+01 -1.825467101298272610e-03 5.815248732687905431e-05 -5.301943747326731682e-04 4.975560295861214399e-05
6.350000000000000000e+02 1.192181777954101562e+01 1.909900093078613281e+01 1.968682743608951569e-03 -6.789566396037116647e-05 5.702361231669783592e-04 4.946057288179872558e-06
6.360000000000000000e+02 1.339516162872314453e+01 2.459758186340332031e+01 -2.819757675752043724e-03 4.849186007049866021e-05 -8.313797297887504101e-04 2.179154689656570554e-04
6.370000000000000000e+02 1.254339790344238281e+01 2.910337066650390625e+01 -3.768336959183216095e-03 1.397204177919775248e-04 -1.088584889657795429e-03 6.619354826398193836e-05
6.380000000000000000e+02 6.494405269622802734e-01 1.490397357940673828e+01 1.301272655837237835e-03 1.718650537441135384e-06 3.908973885700106621e-04 -2.428747211524751037e-05
6.390000000000000000e+02 1.765658259391784668e+00 9.153190612792968750e+00 -1.069430378265678883e-03 -6.724129889335017651e-06 -3.228463465347886086e-04 1.440042105969041586e-04
6.400000000000000000e+02 8.930368423461914062e+00 2.606164693832397461e+00 3.031126398127526045e-04 1.270782086066901684e-04 1.290572545258328319e-04 1.306193007621914148e-04
6.410000000000000000e+02 9.655696868896484375e+00 1.862895846366882324e+00 2.791240403894335032e-04 5.155119652044959366e-05 9.920256707118824124e-05 6.147019303170964122e-05
6.420000000000000000e+02 1.124410986900329590e+00 3.784976005554199219e+00 2.230836835224181414e-04 -2.880056563299149275e-04 -1.947659075085539371e-05 5.516954697668552399e-04
6.430000000000000000e+02 5.422284007072448730e-01 6.406764984130859375e+00 8.403574465773999691e-04 6.644192762905731797e-05 2.720398188102990389e-04 -4.091311711817979813e-05
6.440000000000000000e+02 3.710636615753173828e+00 3.708285808563232422e+00 4.884441150352358818e-04 1.591848849784582853e-04 1.942887029144912958e-04 -1.411438570357859135e-04
6.450000000000000000e+02 1.343939685821533203e+01 1.045097351074218750e+01 -1.120616565458476543e-03 -9.519285231363028288e-05 -3.647428238764405251e-04 -1.474774617236107588e-04
6.460000000000000000e+02 1.445951938629150391e+01 2.021500968933105469e+01 -2.187162870541214943e-03 -8.952205462264828384e-06 -6.588344695046544075e-04 2.359376812819391489e-04
6.470000000000000000e+02 1.559427928924560547e+01 3.132319450378417969e+01 -4.963517654687166214e-03 -1.796621363610029221e-04 -1.542953890748322010e-03 9.836812969297170639e-04
6.480000000000000000e+02 1.533287811279296875e+01 2.994367408752441406e+01 4.425905179232358932e-03 1.878745933936443180e-05 1.333407824859023094e-03 -7.996815838851034641e-04
6.490000000000000000e+02 1.806795310974121094e+01 3.774570846557617188e+01 4.249349236488342285e-03 7.837546989321708679e-03 3.626068821176886559e-03 -5.515118129551410675e-03
6.500000000000000000e+02 1.948754692077636719e+01 4.005387496948242188e+01 1.883457531221210957e-03 6.691149901598691940e-04 7.657717214897274971e-04 -1.262650825083255768e-02
6.510000000000000000e+02 1.213664913177490234e+01 4.128137969970703125e+01 -3.570818109437823296e-03 7.399802561849355698e-04 -8.492513443343341351e-04 -3.741152351722121239e-03
6.520000000000000000e+02 1.985870361328125000e+01 3.776324462890625000e+01 8.349956944584846497e-03 -2.618324477225542068e-03 1.719489810056984425e-03 6.543286144733428955e-04
6.530000000000000000e+02 2.097867774963378906e+01 3.803614044189453125e+01 5.120069719851016998e-03 -5.789861548691987991e-03 -2.009375311899930239e-04 1.580424490384757519e-03
6.540000000000000000e+02 4.670552444458007812e+01 3.431745529174804688e+01 5.246262550354003906e-01 2.123355674743652344e+01 6.527454853057861328e+00 3.159032464027404785e-01
6.550000000000000000e+02 4.777320861816406250e+01 3.370585250854492188e+01 6.042477130889892578e+00 1.865032768249511719e+01 7.407841682434082031e+00 3.887457370758056641e+00
6.560000000000000000e+02 3.131949996948242188e+01 2.931453132629394531e+01 1.043037101626396179e-01 1.945764869451522827e-01 8.966406434774398804e-02 -2.819231152534484863e-01
6.570000000000000000e+02 2.643091964721679688e+01 2.457799339294433594e+01 2.096178233623504639e-01 -2.913526445627212524e-02 5.414476990699768066e-02 -1.641819924116134644e-01
6.580000000000000000e+02 3.628188323974609375e+01 2.892185974121093750e+01 7.517135739326477051e-01 4.555031359195709229e-01 3.621650040149688721e-01 2.588143050670623779e-01
6.590000000000000000e+02 5.099265670776367188e+01 2.909518241882324219e+01 2.589406728744506836e+00 1.204478931427001953e+01 4.390258789062500000e+00 -9.378277063369750977e-01
6.600000000000000000e+02 6.632525634765625000e+01 2.379174804687500000e+01 2.681070864200592041e-01 7.627387046813964844e+00 2.368648290634155273e+00 -1.317348599433898926e+00
6.610000000000000000e+02 7.264984893798828125e+01 2.598783493041992188e+01 1.332755535840988159e-01 6.384590148925781250e+00 1.955359697341918945e+00 -8.969274163246154785e-01
6.620000000000000000e+02 7.065370178222656250e+01 3.132120132446289062e+01 3.494406938552856445e-01 6.512390136718750000e+00 2.058549165725708008e+00 -7.256389856338500977e-01
6.630000000000000000e+02 5.437652969360351562e+01 2.998132324218750000e+01 2.608883380889892578e+00 1.019502353668212891e+01 3.841172218322753906e+00 -7.819190025329589844e-01
6.640000000000000000e+02 3.296065902709960938e+01 1.545040607452392578e+01 2.892421483993530273e-01 2.044099807739257812e+00 7.000026106834411621e-01 8.650229573249816895e-01
6.650000000000000000e+02 3.288940429687500000e+01 1.680292510986328125e+01 3.797762989997863770e-01 1.882993221282958984e+00 6.788308620452880859e-01 8.417423963546752930e-01
6.660000000000000000e+02 4.114239501953125000e+01 1.513053798675537109e+01 -1.289194375276565552e-01 4.917719841003417969e+00 1.436640143394470215e+00 1.348868608474731445e+00
6.670000000000000000e+02 5.176985549926757812e+01 2.109182929992675781e+01 -5.020232200622558594e-01 9.486243247985839844e+00 2.695266246795654297e+00 -1.383277922868728638e-01
6.680000000000000000e+02 5.779973602294921875e+01 2.129272842407226562e+01 -6.307837367057800293e-02 8.970800399780273438e+00 2.672316551208496094e+00 -1.193498134613037109e+00
6.690000000000000000e+02 6.469827270507812500e+01 2.062388610839843750e+01 1.194650307297706604e-02 7.932259559631347656e+00 2.383261680603027344e+00 -1.370932579040527344e+00
6.700000000000000000e+02 7.288122558593750000e+01 1.857768821716308594e+01 -1.494977809488773346e-02 6.983635902404785156e+00 2.090605735778808594e+00 -9.778022766113281250e-01
6.710000000000000000e+02 2.704213142395019531e+01 1.626944923400878906e+01 1.685947477817535400e-01 5.151621699333190918e-01 2.051270604133605957e-01 3.476203382015228271e-01
6.720000000000000000e+02 2.722145652770996094e+01 9.201005935668945312e+00 1.677164994180202484e-02 1.019844651222229004e+00 3.109849095344543457e-01 4.876951277256011963e-01
6.730000000000000000e+02 2.598142814636230469e+01 3.352025032043457031e+00 -2.137032710015773773e-02 1.058738589286804199e+00 3.112104833126068115e-01 3.840007781982421875e-01
6.740000000000000000e+02 3.366704940795898438e+01 3.009708881378173828e+00 -1.827471256256103516e-01 2.821014642715454102e+00 7.914802432060241699e-01 6.399831175804138184e-01
6.750000000000000000e+02 3.350619888305664062e+01 5.842189788818359375e+00 -1.398068517446517944e-01 2.722336530685424805e+00 7.747588753700256348e-01 7.206802964210510254e-01
6.760000000000000000e+02 3.449896240234375000e+01 8.841037750244140625e+00 -8.724359422922134399e-02 2.892539739608764648e+00 8.415888547897338867e-01 8.408033847808837891e-01
6.770000000000000000e+02 2.600132560729980469e+01 9.074751853942871094e+00 1.396461948752403259e-02 7.346678376197814941e-01 2.245897352695465088e-01 4.143521487712860107e-01
6.780000000000000000e+02 3.998986434936523438e+01 1.029951572418212891e+01 -2.888176739215850830e-01 4.481634616851806641e+00 1.257845163345336914e+00 9.996059536933898926e-01
6.790000000000000000e+02 3.991299057006835938e+01 1.189415168762207031e+01 -2.237817198038101196e-01 4.427841663360595703e+00 1.261217951774597168e+00 1.084986805915832520e+00
6.800000000000000000e+02 4.572084808349609375e+01 9.552825927734375000e+00 -6.553613543510437012e-01 6.069758892059326172e+00 1.624319195747375488e+00 6.464199423789978027e-01
6.810000000000000000e+02 5.726771545410156250e+01 1.081041240692138672e+01 -7.543334960937500000e-01 7.909707546234130859e+00 2.146612167358398438e+00 -6.340215206146240234e-01
6.820000000000000000e+02 6.618889617919921875e+01 1.285596847534179688e+01 -3.328639268875122070e-01 7.827541351318359375e+00 2.248403072357177734e+00 -1.137993335723876953e+00
6.830000000000000000e+02 7.248856353759765625e+01 1.076662349700927734e+01 -1.286245584487915039e-01 7.628818035125732422e+00 2.250058174133300781e+00 -8.421930074691772461e-01
6.840000000000000000e+02 2.103941154479980469e+01 1.843831634521484375e+01 4.833542741835117340e-03 -1.060742378234863281e+00 -3.167726397514343262e-01 1.570423319935798645e-02
6.850000000000000000e+02 2.104490470886230469e+01 1.703229522705078125e+01 4.520402755588293076e-03 -1.017996549606323242e+00 -3.040428459644317627e-01 2.663837373256683350e-02
6.860000000000000000e+02 2.105930137634277344e+01 9.994292259216308594e+00 1.278685085708275437e-04 -5.377120375633239746e-01 -1.612752526998519897e-01 5.517000332474708557e-02
6.870000000000000000e+02 2.101023674011230469e+01 4.344712734222412109e+00 5.293090944178402424e-04 -4.030240327119827271e-02 -1.193192880600690842e-02 5.206371843814849854e-02
6.880000000000000000e+02 2.104938316345214844e+01 5.760442256927490234e+00 -7.684705778956413269e-04 -1.657734811305999756e-01 -4.996258765459060669e-02 5.502096563577651978e-02
6.890000000000000000e+02 4.695077896118164062e+01 2.036997795104980469e+00 -6.446211934089660645e-01 5.817884445190429688e+00 1.551978945732116699e+00 2.960851192474365234e-01
6.900000000000000000e+02 4.589921951293945312e+01 1.290816664695739746e+00 -5.867995619773864746e-01 5.590191841125488281e+00 1.501017570495605469e+00 3.092146813869476318e-01
6.910000000000000000e+02 5.992869567871093750e+01 4.035359382629394531e+00 -6.122332811355590820e-01 7.559334754943847656e+00 2.084130525588989258e+00 -5.983113050460815430e-01
6.920000000000000000e+02 6.579000091552734375e+01 7.397446155548095703e+00 -4.087067544460296631e-01 7.828636169433593750e+00 2.225978851318359375e+00 -9.062910676002502441e-01
6.930000000000000000e+02 7.325777435302734375e+01 4.359465599060058594e+00 -1.121792942285537720e-01 8.038147926330566406e+00 2.377790689468383789e+00 -5.884993076324462891e-01
6.940000000000000000e+02 2.105532073974609375e+01 1.281073760986328125e+01 1.466579386033117771e-03 -7.672908306121826172e-01 -2.297472804784774780e-01 4.875387251377105713e-02
6.950000000000000000e+02 4.067930603027343750e+01 2.152392864227294922e+00 -4.318258166313171387e-01 4.450195312500000000e+00 1.205510854721069336e+00 5.835960507392883301e-01
6.960000000000000000e+02 5.807626342773437500e+01 -2.310789585113525391e+00 -5.366808176040649414e-01 7.113050937652587891e+00 1.972911000251770020e+00 -3.508882224559783936e-01
6.970000000000000000e+02 5.906476593017578125e+01 -3.723795175552368164e+00 -4.864692091941833496e-01 7.162626266479492188e+00 2.002847194671630859e+00 -3.567717969417572021e-01
6.980000000000000000e+02 7.068700408935546875e+01 -1.925675034523010254e+00 -1.672665476799011230e-01 8.137460708618164062e+00 2.391058206558227539e+00 -4.959035515785217285e-01
6.990000000000000000e+02 2.827820968627929688e+01 -3.380347013473510742e+00 -7.241129130125045776e-02 1.786857962608337402e+00 5.143340229988098145e-01 3.645962774753570557e-01
7.000000000000000000e+02 2.729100608825683594e+01 -8.656289100646972656e+00 -5.014134943485260010e-02 1.745508790016174316e+00 5.086102485656738281e-01 2.563165128231048584e-01
7.010000000000000000e+02 3.522054672241210938e+01 -1.662402343750000000e+01 -1.430718153715133667e-01 3.193254947662353516e+00 9.150549173355102539e-01 1.833078265190124512e-01
7.020000000000000000e+02 4.663842773437500000e+01 -2.165887641906738281e+01 -2.099620550870895386e-01 5.028541088104248047e+00 1.445573687553405762e+00 4.030996188521385193e-02
7.030000000000000000e+02 5.359677124023437500e+01 -2.971082878112792969e+01 -1.159060448408126831e-01 5.975154876708984375e+00 1.757774710655212402e+00 -2.746714651584625244e-02
7.040000000000000000e+02 5.683657836914062500e+01 -3.007859039306640625e+01 -1.114946752786636353e-01 6.454404354095458984e+00 1.902872920036315918e+00 -4.765897989273071289e-02
7.050000000000000000e+02 3.531861877441406250e+01 -2.779253244400024414e+00 -2.445755898952484131e-01 3.228509664535522461e+00 8.951802253723144531e-01 4.793479144573211670e-01
7.060000000000000000e+02 3.332827377319335938e+01 -1.125347328186035156e+01 -1.488501876592636108e-01 2.848161458969116211e+00 8.097933530807495117e-01 2.825295329093933105e-01
7.070000000000000000e+02 4.406316375732421875e+01 -1.552176189422607422e+01 -2.734314501285552979e-01 4.688099384307861328e+00 1.324400305747985840e+00 1.101927459239959717e-01
7.080000000000000000e+02 4.907936477661132812e+01 -2.217884445190429688e+01 -2.098320573568344116e-01 5.387687683105468750e+00 1.553356647491455078e+00 7.767757866531610489e-03
7.090000000000000000e+02 5.713033294677734375e+01 -2.325171089172363281e+01 -1.623858809471130371e-01 6.545564174652099609e+00 1.914953470230102539e+00 -7.396139204502105713e-02
7.100000000000000000e+02 4.268291854858398438e+01 -1.668999314308166504e+00 -4.690917134284973145e-01 4.792479991912841797e+00 1.297016501426696777e+00 3.927754163742065430e-01
7.110000000000000000e+02 4.112348175048828125e+01 -1.143692684173583984e+01 -2.910884320735931396e-01 4.266599655151367188e+00 1.192653417587280273e+00 2.162410765886306763e-01
7.120000000000000000e+02 4.906292724609375000e+01 -1.516167354583740234e+01 -3.169395625591278076e-01 5.497517585754394531e+00 1.554173350334167480e+00 2.729530632495880127e-02
7.130000000000000000e+02 5.935176467895507812e+01 -1.776898002624511719e+01 -2.255138456821441650e-01 6.885834693908691406e+00 1.998096346855163574e+00 -1.407394558191299438e-01
7.140000000000000000e+02 7.143032073974609375e+01 -1.049154949188232422e+01 -9.399250894784927368e-02 8.398783683776855469e+00 2.491437435150146484e+00 -2.664985656738281250e-01
7.150000000000000000e+02 2.896947669982910156e+01 -1.254423522949218750e+01 -6.682324409484863281e-02 2.105993270874023438e+00 6.117510199546813965e-01 2.226897925138473511e-01
7.160000000000000000e+02 2.770845413208007812e+01 -1.716102218627929688e+01 -4.555351287126541138e-02 1.954376935958862305e+00 5.726470351219177246e-01 1.462550610303878784e-01
7.170000000000000000e+02 3.933956527709960938e+01 -2.147975730895996094e+01 -1.515384912490844727e-01 3.819174051284790039e+00 1.100290656089782715e+00 1.098816394805908203e-01
7.180000000000000000e+02 3.975959396362304688e+01 -2.845652770996093750e+01 -1.028707176446914673e-01 3.891090631484985352e+00 1.136466026306152344e+00 4.970281198620796204e-02
7.190000000000000000e+02 5.312110137939453125e+01 -3.329134368896484375e+01 -1.118640601634979248e-01 5.871282100677490234e+00 1.727825403213500977e+00 -1.986304111778736115e-02
7.200000000000000000e+02 3.403213882446289062e+01 -9.535431861877441406e+00 -1.769680082798004150e-01 2.986824989318847656e+00 8.429571390151977539e-01 3.235361278057098389e-01
7.210000000000000000e+02 4.215497207641601562e+01 -1.305719184875488281e+01 -2.811243534088134766e-01 4.422091960906982422e+00 1.242290258407592773e+00 1.695484071969985962e-01
7.220000000000000000e+02 7.256043243408203125e+01 -1.902287864685058594e+01 -4.013047739863395691e-02 8.677343368530273438e+00 2.591163635253906250e+00 -1.245839446783065796e-01
7.230000000000000000e+02 7.139906311035156250e+01 -1.746638107299804688e+01 -6.552244722843170166e-02 8.494501113891601562e+00 2.528693675994873047e+00 -1.535282284021377563e-01
7.240000000000000000e+02 2.007871627807617188e+01 -1.528839874267578125e+01 8.496270515024662018e-03 7.834046483039855957e-01 2.375702708959579468e-01 7.052036374807357788e-02
7.250000000000000000e+02 2.946345138549804688e+01 -1.684716796875000000e+01 -6.805694103240966797e-02 2.235725402832031250e+00 6.503005623817443848e-01 1.683347523212432861e-01
7.260000000000000000e+02 3.782091140747070312e+01 -1.734056472778320312e+01 -1.683178097009658813e-01 3.612940788269042969e+00 1.033386826515197754e+00 1.659830361604690552e-01
7.270000000000000000e+02 4.716038513183593750e+01 -1.543317222595214844e+01 -3.030204474925994873e-01 5.190063953399658203e+00 1.466112971305847168e+00 5.801301449537277222e-02
7.280000000000000000e+02 4.927780914306640625e+01 -1.721191024780273438e+01 -2.790444791316986084e-01 5.485445022583007812e+00 1.561920166015625000e+00 1.195801515132188797e-02
7.290000000000000000e+02 2.689174270629882812e+01 -2.797923469543457031e+01 -2.838856540620326996e-02 1.919384002685546875e+00 5.672985911369323730e-01 6.709548830986022949e-02
7.300000000000000000e+02 3.648161315917968750e+01 -2.669245529174804688e+01 -9.513965249061584473e-02 3.368071556091308594e+00 9.818795323371887207e-01 9.147265553474426270e-02
7.310000000000000000e+02 4.601781463623046875e+01 -2.418315696716308594e+01 -1.718887686729431152e-01 4.900279045104980469e+00 1.418516993522644043e+00 3.206352144479751587e-02
7.320000000000000000e+02 5.119556427001953125e+01 -2.568737983703613281e+01 -1.601562500000000000e-01 5.671447277069091797e+00 1.653387308120727539e+00 -1.219831034541130066e-02
7.330000000000000000e+02 3.856237030029296875e+01 -3.287812805175781250e+01 -8.409979194402694702e-02 3.686662673950195312e+00 1.080768942832946777e+00 4.179391264915466309e-02
7.340000000000000000e+02 4.149200439453125000e+01 -3.120746231079101562e+01 -1.040210649371147156e-01 4.115238666534423828e+00 1.203365325927734375e+00 2.924581803381443024e-02
7.350000000000000000e+02 7.464199066162109375e+01 -3.266365432739257812e+01 -3.045175969600677490e-02 9.070173263549804688e+00 2.711916446685791016e+00 -3.323217853903770447e-02
7.360000000000000000e+02 1.018826103210449219e+01 -3.077854728698730469e+01 -2.577682957053184509e-03 -3.264294937252998352e-03 -1.752593321725726128e-03 1.231450354680418968e-03
7.370000000000000000e+02 1.440580558776855469e+01 -1.765121459960937500e+01 1.934685395099222660e-03 1.423472131136804819e-04 6.231097504496574402e-04 -4.225691955070942640e-04
7.380000000000000000e+02 1.169436645507812500e+01 -1.701422119140625000e+01 1.268306514248251915e-03 4.476196481846272945e-04 5.147778429090976715e-04 -5.563809536397457123e-04
7.390000000000000000e+02 1.457848453521728516e+01 -1.070693778991699219e+01 -1.213387120515108109e-03 -2.918279096775222570e-05 -3.727709699887782335e-04 1.118576692533679307e-04
7.400000000000000000e+02 1.242248153686523438e+01 -1.053880023956298828e+01 -1.005263649858534336e-03 -9.974734712159261107e-05 -3.315033100079745054e-04 2.213476254837587476e-04
7.410000000000000000e+02 5.828166604042053223e-01 -1.066357707977294922e+01 -8.511854102835059166e-04 -2.000083259190432727e-05 -2.613558608572930098e-04 -1.564609556226059794e-05
7.420000000000000000e+02 1.350457477569580078e+01 9.123564720153808594e+00 1.000001211650669575e-03 9.363501158077269793e-05 3.280908567830920219e-04 7.783813634887337685e-05
7.430000000000000000e+02 2.551783943176269531e+01 3.439196395874023438e+01 -2.132751494646072388e-01 5.650103557854890823e-03 -6.228751689195632935e-02 -1.356487125158309937e-01
7.440000000000000000e+02 2.381473922729492188e+01 3.440350341796875000e+01 -1.069448143243789673e-01 -2.404750324785709381e-02 -3.929769620299339294e-02 -1.037807986140251160e-01
7.450000000000000000e+02 2.094165420532226562e+01 2.963399887084960938e+01 -1.729508629068732262e-03 -4.018320441246032715e-01 -1.210684701800346375e-01 -5.336651578545570374e-02
7.460000000000000000e+02 2.095756912231445312e+01 2.824430274963378906e+01 8.398990612477064133e-04 -5.549441576004028320e-01 -1.662312746047973633e-01 -5.501203611493110657e-02
7.470000000000000000e+02 2.212470245361328125e+01 2.416795730590820312e+01 2.351561561226844788e-02 -7.002115845680236816e-01 -2.030087858438491821e-01 -1.016090810298919678e-01
7.480000000000000000e+02 2.099922370910644531e+01 2.404978179931640625e+01 4.574445076286792755e-03 -9.413732886314392090e-01 -2.810396552085876465e-01 -3.412595391273498535e-02
7.490000000000000000e+02 2.102333450317382812e+01 2.124682044982910156e+01 5.255190189927816391e-03 -1.062891960144042969e+00 -3.172910511493682861e-01 -9.188265539705753326e-03
7.500000000000000000e+02 2.227161407470703125e+01 1.577094268798828125e+01 1.797486841678619385e-02 -6.176379323005676270e-01 -1.798989176750183105e-01 9.693791717290878296e-02
7.510000000000000000e+02 2.104873275756835938e+01 1.562515258789062500e+01 3.228357061743736267e-03 -9.522979855537414551e-01 -2.847208678722381592e-01 3.560086339712142944e-02
7.520000000000000000e+02 2.105214500427246094e+01 1.421797275543212891e+01 3.270994173362851143e-03 -8.672974109649658203e-01 -2.592079341411590576e-01 4.329104721546173096e-02
7.530000000000000000e+02 2.229950141906738281e+01 1.154267311096191406e+01 6.362064275890588760e-03 -3.421418964862823486e-01 -1.007339432835578918e-01 1.476811319589614868e-01
7.540000000000000000e+02 2.105928230285644531e+01 8.584834098815917969e+00 5.372152663767337799e-04 -4.148588776588439941e-01 -1.242965012788772583e-01 5.625636875629425049e-02
7.550000000000000000e+02 2.105605316162109375e+01 7.174245357513427734e+00 -7.467456161975860596e-04 -2.898442149162292480e-01 -8.717728406190872192e-02 5.616547539830207825e-02
7.560000000000000000e+02 2.224193000793457031e+01 4.439023494720458984e+00 2.463398966938257217e-03 2.005808502435684204e-01 6.091327592730522156e-02 1.574429869651794434e-01
7.570000000000000000e+02 2.091627693176269531e+01 2.935505867004394531e+00 6.488840561360120773e-03 7.188557833433151245e-02 2.351232618093490601e-02 5.124210193753242493e-02
7.580000000000000000e+02 2.079280281066894531e+01 1.537528872489929199e+00 3.980265464633703232e-03 1.556231528520584106e-01 4.788102582097053528e-02 5.055145919322967529e-02
7.590000000000000000e+02 2.069508743286132812e+01 1.422753930091857910e-01 1.306855585426092148e-03 2.296621352434158325e-01 6.929069757461547852e-02 4.785671830177307129e-02
7.600000000000000000e+02 2.046491813659667969e+01 -4.065484046936035156e+00 -7.309628563234582543e-05 4.271589219570159912e-01 1.281257569789886475e-01 5.257399752736091614e-02
7.610000000000000000e+02 2.188181495666503906e+01 -2.580858707427978516e+00 4.294554237276315689e-03 5.861369371414184570e-01 1.771294474601745605e-01 1.168613359332084656e-01
7.620000000000000000e+02 2.033300399780273438e+01 -8.261971473693847656e+00 7.702578441239893436e-04 6.046645045280456543e-01 1.816304326057434082e-01 3.244513645768165588e-02
7.630000000000000000e+02 2.022635078430175781e+01 -1.247572708129882812e+01 -1.305104815401136875e-03 7.461414933204650879e-01 2.234509140253067017e-01 3.951211646199226379e-02
7.640000000000000000e+02 2.026619911193847656e+01 -1.107135391235351562e+01 1.473486307077109814e-03 7.000462412834167480e-01 2.104559093713760376e-01 4.192982614040374756e-02
7.650000000000000000e+02 2.156570625305175781e+01 -1.234152603149414062e+01 8.120748214423656464e-03 9.284038543701171875e-01 2.809574007987976074e-01 8.865480870008468628e-02
7.660000000000000000e+02 1.981361770629882812e+01 -1.949385070800781250e+01 -7.711128797382116318e-03 7.427173852920532227e-01 2.205018848180770874e-01 3.350800275802612305e-02
7.670000000000000000e+02 2.135571289062500000e+01 -1.795746040344238281e+01 -1.297891978174448013e-02 9.778791069984436035e-01 2.894700467586517334e-01 6.376244127750396729e-02
7.680000000000000000e+02 1.979393959045410156e+01 -2.233887290954589844e+01 1.924463198520243168e-03 7.989608645439147949e-01 2.402655929327011108e-01 3.143383562564849854e-02
7.690000000000000000e+02 1.970635795593261719e+01 -2.658624458312988281e+01 -5.558354314416646957e-03 8.314436674118041992e-01 2.477656006813049316e-01 1.188560016453266144e-02
7.700000000000000000e+02 1.972686958312988281e+01 -2.517090034484863281e+01 3.446923103183507919e-03 8.087493777275085449e-01 2.436588853597640991e-01 1.345857698470354080e-02
7.710000000000000000e+02 1.967265129089355469e+01 -2.940264892578125000e+01 -6.651001051068305969e-03 8.758155703544616699e-01 2.607493698596954346e-01 1.126807648688554764e-02
7.720000000000000000e+02 1.968363761901855469e+01 -3.220704650878906250e+01 -1.733704656362533569e-02 9.215649962425231934e-01 2.712683975696563721e-01 8.163223974406719208e-03
7.730000000000000000e+02 2.120228195190429688e+01 -3.219735717773437500e+01 1.514407712966203690e-02 1.131157159805297852e+00 3.438903689384460449e-01 4.797431454062461853e-02
7.740000000000000000e+02 1.972809219360351562e+01 -3.362563323974609375e+01 4.608561098575592041e-02 9.636914134025573730e-01 3.029331266880035400e-01 3.259503841400146484e-02
7.750000000000000000e+02 1.433838653564453125e+01 -3.170050048828125000e+01 5.415641237050294876e-03 1.023289980366826057e-03 1.931679318659007549e-03 -1.402869937010109425e-03
7.760000000000000000e+02 1.448861503601074219e+01 -2.758207130432128906e+01 -3.565379884093999863e-03 2.610042283777147532e-04 -9.913126705214381218e-04 1.744540059007704258e-04
7.770000000000000000e+02 1.322877216339111328e+01 -2.749163627624511719e+01 3.077152185142040253e-03 5.999634158797562122e-04 1.103134709410369396e-03 -4.322608001530170441e-04
7.780000000000000000e+02 1.314872360229492188e+01 -2.362794113159179688e+01 -2.564199967309832573e-03 -2.077286771964281797e-04 -8.315785671584308147e-04 -7.553128525614738464e-04
7.790000000000000000e+02 1.442355823516845703e+01 -2.344501304626464844e+01 3.218377707526087761e-03 1.037994006765075028e-04 9.966531069949269295e-04 2.009833697229623795e-04
7.800000000000000000e+02 1.420256042480468750e+01 -2.050798225402832031e+01 2.488638507202267647e-03 1.628303107281681150e-05 7.514764438383281231e-04 -3.813221992459148169e-04
7.810000000000000000e+02 1.302559375762939453e+01 -1.736355781555175781e+01 -1.570077147334814072e-03 -2.862364053726196289e-04 -5.568941123783588409e-04 5.576643161475658417e-04
7.820000000000000000e+02 1.445750617980957031e+01 -1.625926780700683594e+01 -1.733688288368284702e-03 -7.382119656540453434e-05 -5.422528483904898167e-04 3.306252474430948496e-04
7.830000000000000000e+02 1.459852600097656250e+01 -9.321688652038574219e+00 1.090961275622248650e-03 2.382468119321856648e-05 3.344357828609645367e-04 -7.284407183760777116e-05
7.840000000000000000e+02 1.253948497772216797e+01 -1.928870081901550293e+00 -1.830127876019105315e-04 -6.242147355806082487e-05 -7.363027543760836124e-05 5.015098940930329263e-05
7.850000000000000000e+02 1.300087928771972656e+01 -2.840332508087158203e+00 -8.715917647350579500e-05 -2.009777963394299150e-04 -8.644109038868919015e-05 1.733161479933187366e-04
7.860000000000000000e+02 1.428465461730957031e+01 -2.025971889495849609e+00 1.995579368667677045e-04 3.886776539729908109e-05 7.152770558604970574e-05 1.830343971960246563e-04
7.870000000000000000e+02 1.373426818847656250e+01 -2.036348819732666016e+00 -4.069471906404942274e-04 3.679504152387380600e-05 -1.110456505557522178e-04 5.576699186349287629e-05
7.880000000000000000e+02 1.317340183258056641e+01 -1.984228372573852539e+00 1.966776326298713684e-04 1.127159193856641650e-04 9.281806705985218287e-05 -1.634779910091310740e-04
7.890000000000000000e+02 1.181866168975830078e+01 -1.907385468482971191e+00 2.738746406976133585e-04 2.293370016559492797e-05 8.904249989427626133e-05 -7.569020090159028769e-05
7.900000000000000000e+02 9.587297439575195312e+00 -1.879756450653076172e+00 -1.823847123887389898e-04 -1.546736893942579627e-04 -1.011175190797075629e-04 1.337944122496992350e-04
7.910000000000000000e+02 1.034239006042480469e+01 -1.887826442718505859e+00 2.182480675401166081e-04 1.202835410367697477e-04 1.015594825730659068e-04 -1.691662910161539912e-04
7.920000000000000000e+02 8.822307586669921875e+00 -1.875161409378051758e+00 1.730503572616726160e-04 1.735883561195805669e-04 1.039916169247590005e-04 -9.503453475190326571e-05
7.930000000000000000e+02 7.294885158538818359e+00 -1.867918372154235840e+00 1.891782158054411411e-04 1.723723835311830044e-04 1.084651812561787665e-04 -8.834725122142117471e-06
7.940000000000000000e+02 5.777789592742919922e+00 -1.864107966423034668e+00 1.128451840486377478e-04 1.787985529517754912e-04 8.749312110012397170e-05 3.698583896039053798e-05
7.950000000000000000e+02 3.510464191436767578e+00 -1.935384750366210938e+00 -7.150825695134699345e-05 -1.708590571070089936e-05 -2.657824916241224855e-05 -6.276500789681449533e-05
7.960000000000000000e+02 5.021918773651123047e+00 -1.871070504188537598e+00 -3.726871364051476121e-05 -1.552895701024681330e-04 -5.776748730568215251e-05 -1.466576668462948874e-05
7.970000000000000000e+02 4.366323947906494141e+00 -2.666777133941650391e+00 -7.241377170430496335e-05 -1.405599032295867801e-04 -6.389209738699719310e-05 -7.801782339811325073e-05
7.980000000000000000e+02 2.749390363693237305e+00 -2.006871461868286133e+00 4.119335426366887987e-05 7.408118108287453651e-05 3.458236096776090562e-05 3.990716504631564021e-05
7.990000000000000000e+02 1.982344865798950195e+00 -2.101815223693847656e+00 -1.373001578031107783e-04 -9.484302427154034376e-05 -6.964295607758685946e-05 -6.273113831412047148e-05
8.000000000000000000e+02 1.203780889511108398e+00 -2.176174640655517578e+00 4.522444214671850204e-04 3.628063495852984488e-05 1.465575187467038631e-04 6.083047992433421314e-05
8.010000000000000000e+02 2.046672344207763672e+00 -4.165038681030273438e+01 -4.970984300598502159e-04 -3.256248077377676964e-03 -1.126003917306661606e-03 1.854817237472161651e-04
8.020000000000000000e+02 5.145650386810302734e+00 -3.769304656982421875e+01 2.643903484567999840e-03 -1.588659826666116714e-03 3.165731031913310289e-04 -1.322874915786087513e-03
8.030000000000000000e+02 1.007498502731323242e+00 -3.872770309448242188e+01 -3.648609388619661331e-03 -2.588924719020724297e-03 -1.871260232292115688e-03 -1.057339133694767952e-03
8.040000000000000000e+02 7.364534735679626465e-01 -3.461651611328125000e+01 2.466594334691762924e-03 -5.447078729048371315e-04 5.765659734606742859e-04 1.918047928484156728e-04
8.050000000000000000e+02 7.082080841064453125e-01 -3.321793746948242188e+01 -2.292151795700192451e-03 -3.350002516526728868e-04 -7.881456403993070126e-04 -4.947425331920385361e-04
8.060000000000000000e+02 6.569336056709289551e-01 -2.900498390197753906e+01 1.746625290252268314e-03 3.212675801478326321e-04 6.203678785823285580e-04 1.421744382241740823e-04
8.070000000000000000e+02 6.530399918556213379e-01 -2.759548187255859375e+01 -1.686504925601184368e-03 2.530552737880498171e-04 -4.300349100958555937e-04 -1.161265972768887877e-04
8.080000000000000000e+02 6.561289429664611816e-01 -2.618373680114746094e+01 1.596148940734565258e-03 2.586256305221468210e-04 5.564323510043323040e-04 1.499762875027954578e-04
8.090000000000000000e+02 6.631965637207031250e-01 -2.194070053100585938e+01 -1.343836775049567223e-03 6.501022289739921689e-05 -3.836479445453733206e-04 -7.512466982007026672e-05
8.100000000000000000e+02 6.518711447715759277e-01 -2.052690696716308594e+01 1.308531500399112701e-03 7.781693420838564634e-05 4.159045347478240728e-04 9.821957792155444622e-05
8.110000000000000000e+02 1.952569723129272461e+00 -2.040272903442382812e+01 -1.430353964678943157e-03 7.983648174558766186e-06 -4.267111071385443211e-04 -3.024125908268615603e-05
8.120000000000000000e+02 6.211396455764770508e-01 -1.629409027099609375e+01 -1.137751736678183079e-03 -1.088458157028071582e-05 -3.445908951107412577e-04 -9.691250306786969304e-05
8.130000000000000000e+02 6.165288686752319336e-01 -1.488670349121093750e+01 1.043610391207039356e-03 3.376317545189522207e-05 3.232120652683079243e-04 8.776201866567134857e-05
8.140000000000000000e+02 6.105174422264099121e-01 -1.347863292694091797e+01 -9.552117553539574146e-04 -2.562986446719150990e-05 -2.942525024991482496e-04 -6.134683644631877542e-05
8.150000000000000000e+02 1.834766387939453125e+00 -1.339641761779785156e+01 9.718870278447866440e-04 8.735973824514076114e-05 3.177740145474672318e-04 7.947290578158572316e-05
8.160000000000000000e+02 5.602661371231079102e-01 -9.259577751159667969e+00 8.212571847252547741e-04 1.234969204233493656e-05 2.500820555724203587e-04 2.267267291244934313e-06
8.170000000000000000e+02 5.345890522003173828e-01 -7.857795715332031250e+00 -7.763855974189937115e-04 -2.860324002540437505e-06 -2.337737678317353129e-04 -1.229189024343213532e-06
8.180000000000000000e+02 5.129306316375732422e-01 -6.452725887298583984e+00 7.036235183477401733e-04 6.155248229333665222e-06 2.129336353391408920e-04 3.706584266183199361e-06
8.190000000000000000e+02 7.457466888427734375e+01 -4.018184280395507812e+01 2.283952757716178894e-02 9.114148139953613281e+00 2.741096496582031250e+00 -4.174629598855972290e-02
8.200000000000000000e+02 5.248209381103515625e+01 -4.062566375732421875e+01 -8.350203186273574829e-02 5.782947063446044922e+00 1.709833502769470215e+00 -9.129764512181282043e-03
8.210000000000000000e+02 3.242102813720703125e+01 -4.116041564941406250e+01 -5.814533308148384094e-02 2.744346141815185547e+00 8.058602213859558105e-01 1.173119712620973587e-02
8.220000000000000000e+02 1.158740615844726562e+01 -3.950625228881835938e+01 -3.382095368579030037e-03 3.499589860439300537e-03 3.524838393786922097e-05 -2.380055561661720276e-02
8.230000000000000000e+02 7.883403778076171875e+01 4.016214370727539062e+01 1.229057982563972473e-01 3.952211856842041016e+00 1.222535252571105957e+00 7.692060619592666626e-02
8.240000000000000000e+02 7.898379516601562500e+01 3.882565307617187500e+01 -6.616838276386260986e-02 3.880843162536621094e+00 1.144402384757995605e+00 -3.215746721252799034e-03
8.250000000000000000e+02 7.947066497802734375e+01 3.476288223266601562e+01 3.287992998957633972e-02 3.828108787536621094e+00 1.158296585083007812e+00 -2.030792087316513062e-02
8.260000000000000000e+02 7.846657562255859375e+01 3.465152740478515625e+01 3.843209519982337952e-02 4.149847984313964844e+00 1.256484031677246094e+00 -9.271285682916641235e-02
8.270000000000000000e+02 7.943856811523437500e+01 3.343106079101562500e+01 -4.723216872662305832e-03 3.923221349716186523e+00 1.175549387931823730e+00 -6.049871072173118591e-02
8.280000000000000000e+02 7.932386016845703125e+01 3.068764114379882812e+01 9.588846936821937561e-03 4.251542091369628906e+00 1.278339266777038574e+00 -1.039259135723114014e-01
8.290000000000000000e+02 7.647753906250000000e+01 2.789461708068847656e+01 5.350115895271301270e-02 5.416861534118652344e+00 1.641108751296997070e+00 -4.956816434860229492e-01
8.300000000000000000e+02 7.932113647460937500e+01 2.648645973205566406e+01 -1.278228405863046646e-02 4.875719547271728516e+00 1.458881139755249023e+00 -1.202499046921730042e-01
8.310000000000000000e+02 7.671144866943359375e+01 2.503699874877929688e+01 2.285066060721874237e-02 5.698271751403808594e+00 1.716336727142333984e+00 -5.105254054069519043e-01
8.320000000000000000e+02 7.934019470214843750e+01 2.508943748474121094e+01 1.516684703528881073e-02 5.110620021820068359e+00 1.537736177444458008e+00 -1.229390203952789307e-01
8.330000000000000000e+02 7.937246704101562500e+01 2.092262268066406250e+01 -8.890952914953231812e-03 5.851911544799804688e+00 1.752906203269958496e+00 -1.263926327228546143e-01
8.340000000000000000e+02 7.937527465820312500e+01 1.953673362731933594e+01 8.482052944600582123e-03 6.105037212371826172e+00 1.834055900573730469e+00 -1.262009292840957642e-01
8.350000000000000000e+02 7.937422180175781250e+01 1.814974212646484375e+01 -6.104005035012960434e-03 6.357713222503662109e+00 1.905482769012451172e+00 -1.273071318864822388e-01
8.360000000000000000e+02 7.936042022705078125e+01 1.397189903259277344e+01 2.480533439666032791e-03 7.086194038391113281e+00 2.126602411270141602e+00 -1.223777756094932556e-01
8.370000000000000000e+02 7.935749816894531250e+01 1.257690143585205078e+01 -4.761757329106330872e-03 7.312202453613281250e+00 2.192232370376586914e+00 -1.187655031681060791e-01
8.380000000000000000e+02 7.935768890380859375e+01 1.118396282196044922e+01 1.074263942427933216e-03 7.528149127960205078e+00 2.258766889572143555e+00 -1.145973280072212219e-01
8.390000000000000000e+02 7.936759185791015625e+01 7.000808715820312500e+00 -4.932456649839878082e-03 8.108991622924804688e+00 2.431217908859252930e+00 -9.777519851922988892e-02
8.400000000000000000e+02 7.937060546875000000e+01 5.606321334838867188e+00 -1.778621808625757694e-04 8.278472900390625000e+00 2.483488321304321289e+00 -9.195230901241302490e-02
8.410000000000000000e+02 7.937214660644531250e+01 4.213376522064208984e+00 -4.394918680191040039e-03 8.435626029968261719e+00 2.529369115829467773e+00 -8.614345639944076538e-02
8.420000000000000000e+02 7.936972045898437500e+01 3.477905690670013428e-02 -9.750885656103491783e-04 8.835267066955566406e+00 2.650287628173828125e+00 -7.040333002805709839e-02
8.430000000000000000e+02 7.936821746826171875e+01 -1.360369682312011719e+00 -2.914528828114271164e-03 8.946412086486816406e+00 2.683049201965332031e+00 -6.563805788755416870e-02
8.440000000000000000e+02 7.809799957275390625e+01 -4.089186191558837891e+00 -8.685676380991935730e-03 8.965870857238769531e+00 2.687155723571777344e+00 -1.317303478717803955e-01
8.450000000000000000e+02 7.936603546142578125e+01 -4.149944305419921875e+00 -2.384235849604010582e-03 9.138357162475585938e+00 2.740791797637939453e+00 -5.620755255222320557e-02
8.460000000000000000e+02 7.936164093017578125e+01 -8.324715614318847656e+00 -1.489028800278902054e-03 9.360488891601562500e+00 2.807699918746948242e+00 -4.412119463086128235e-02
8.470000000000000000e+02 7.806694030761718750e+01 -1.103302383422851562e+01 -6.711214780807495117e-03 9.276592254638671875e+00 2.780964136123657227e+00 -8.286870270967483521e-02
8.480000000000000000e+02 7.935733032226562500e+01 -1.111020374298095703e+01 -1.624738448299467564e-03 9.472669601440429688e+00 2.841313600540161133e+00 -3.743771836161613464e-02
8.490000000000000000e+02 7.935580444335937500e+01 -1.529001235961914062e+01 -1.077305059880018234e-03 9.599435806274414062e+00 2.879507541656494141e+00 -2.884615957736968994e-02
8.500000000000000000e+02 7.806007385253906250e+01 -1.800326728820800781e+01 -5.057570058852434158e-03 9.458161354064941406e+00 2.835931301116943359e+00 -4.872303456068038940e-02
8.510000000000000000e+02 7.935556793212890625e+01 -1.807786941528320312e+01 -1.328944577835500240e-03 9.661102294921875000e+00 2.897932052612304688e+00 -2.373591065406799316e-02
8.520000000000000000e+02 7.936378479003906250e+01 -2.363032341003417969e+01 3.418266423977911472e-04 9.747664451599121094e+00 2.924401998519897461e+00 -1.730889827013015747e-02
8.530000000000000000e+02 7.808910369873046875e+01 -2.488537025451660156e+01 -1.540704397484660149e-03 9.560154914855957031e+00 2.867584228515625000e+00 -3.004571050405502319e-02
8.540000000000000000e+02 7.936261749267578125e+01 -2.501824760437011719e+01 -1.728497212752699852e-03 9.764655113220214844e+00 2.928877830505371094e+00 -1.560159027576446533e-02
8.550000000000000000e+02 7.933554840087890625e+01 -2.918671417236328125e+01 -2.654848503880202770e-04 9.807629585266113281e+00 2.942209243774414062e+00 -1.176421437412500381e-02
8.560000000000000000e+02 7.788501739501953125e+01 -3.175010681152343750e+01 -9.418983012437820435e-03 9.593129158020019531e+00 2.875113248825073242e+00 -1.243807282298803329e-02
8.570000000000000000e+02 7.930660247802734375e+01 -3.195406723022460938e+01 -3.805955871939659119e-03 9.817097663879394531e+00 2.943987607955932617e+00 -2.614020137116312981e-03
8.580000000000000000e+02 7.928379058837890625e+01 -3.605397033691406250e+01 6.983535364270210266e-03 9.778154373168945312e+00 2.935541391372680664e+00 5.521600134670734406e-03
8.590000000000000000e+02 7.915513610839843750e+01 -3.737201309204101562e+01 -1.949486695230007172e-02 9.739989280700683594e+00 2.916148424148559570e+00 2.452261932194232941e-02
8.600000000000000000e+02 7.889442443847656250e+01 -3.866749572753906250e+01 1.275417278520762920e-03 9.693266868591308594e+00 2.908362627029418945e+00 3.132816776633262634e-02
8.610000000000000000e+02 7.851744842529296875e+01 -4.003035736083984375e+01 -9.653232991695404053e-03 9.649932861328125000e+00 2.892083883285522461e+00 3.933048993349075317e-02
8.620000000000000000e+02 4.874773979187011719e+00 4.049149703979492188e+01 2.265357179567217827e-03 2.778724301606416702e-04 7.629688479937613010e-04 -9.820269187912344933e-04
8.630000000000000000e+02 2.745898628234863281e+01 3.802558517456054688e+01 -4.827509447932243347e-02 -5.877484753727912903e-02 -3.211498260498046875e-02 7.398657500743865967e-02
8.640000000000000000e+02 4.716712570190429688e+01 3.717311477661132812e+01 -1.075322270393371582e+00 1.414958095550537109e+01 3.922277688980102539e+00 -7.757598757743835449e-01
8.650000000000000000e+02 6.460499572753906250e+01 3.905187606811523438e+01 7.118933200836181641e-01 8.067648887634277344e+00 2.633862733840942383e+00 -1.343138217926025391e-01
8.660000000000000000e+02 6.777346134185791016e-01 3.017382144927978516e+00 -3.379900590516626835e-04 1.667468895902857184e-04 -5.137295374879613519e-05 -5.942034185864031315e-04
8.670000000000000000e+02 3.107949256896972656e+00 2.740167856216430664e+00 3.701208042912185192e-04 2.389975270489230752e-04 1.827355008572340012e-04 -4.949354479322209954e-05
8.680000000000000000e+02 5.290564060211181641e+00 2.689874172210693359e+00 -1.899304043035954237e-04 -2.556232502683997154e-04 -1.336660934612154961e-04 6.740142271155491471e-05
8.690000000000000000e+02 1.663030982017517090e+00 6.281780242919921875e+00 -7.939308998174965382e-04 -1.081309674191288650e-04 -2.706185623537749052e-04 1.898510090541094542e-04
8.700000000000000000e+02 5.867699980735778809e-01 9.235761642456054688e+00 1.025873702019453049e-03 2.017410025700883125e-07 3.078226291108876467e-04 -1.008006947813555598e-04
8.710000000000000000e+02 6.130247712135314941e-01 1.206919860839843750e+01 1.206470769830048084e-03 -6.577814019692596048e-06 3.599679039325565100e-04 -6.595520972041413188e-05
8.720000000000000000e+02 1.834388017654418945e+00 1.199184036254882812e+01 -1.253763330169022083e-03 5.478569801198318601e-05 -3.596933092921972275e-04 8.664750203024595976e-05
8.730000000000000000e+02 6.588413119316101074e-01 1.631917381286621094e+01 -1.328082056716084480e-03 -8.053762940107844770e-06 -4.008407704532146454e-04 2.454926652717404068e-05
8.740000000000000000e+02 1.976330399513244629e+00 1.770290756225585938e+01 -1.417874707840383053e-03 -4.421543962962459773e-06 -4.266889009159058332e-04 -2.740413037827238441e-05
8.750000000000000000e+02 6.579473018646240234e-01 1.773717880249023438e+01 1.366154057905077934e-03 1.557567316012864467e-06 4.103134851902723312e-04 -2.368991226830985397e-05
8.760000000000000000e+02 6.260786056518554688e-01 2.198479843139648438e+01 -1.517483964562416077e-03 -3.706056261876256031e-08 -4.552563186734914780e-04 -6.748132818756857887e-06
8.770000000000000000e+02 6.249979734420776367e-01 2.339894676208496094e+01 1.539908931590616703e-03 8.111073839245364070e-06 4.644059808924794197e-04 1.103504473576322198e-05
8.780000000000000000e+02 1.863098025321960449e+00 2.336819267272949219e+01 -1.629618462175130844e-03 -8.645962225273251534e-06 -4.914793535135686398e-04 -1.277857809327542782e-04
8.790000000000000000e+02 6.291124820709228516e-01 2.481378364562988281e+01 -1.570313237607479095e-03 -8.314983460877556354e-06 -4.735884722322225571e-04 -8.649277333461213857e-06
8.800000000000000000e+02 6.251966357231140137e-01 2.903962326049804688e+01 1.763312262482941151e-03 1.754698496370110661e-05 5.342577933333814144e-04 -4.641377381631173193e-05
8.810000000000000000e+02 6.260633468627929688e-01 3.044514656066894531e+01 -1.859764219261705875e-03 -6.967060471652075648e-05 -5.788304260931909084e-04 1.039843482431024313e-04
8.820000000000000000e+02 1.927282094955444336e+00 3.173243141174316406e+01 -1.885687350295484066e-03 -3.053154796361923218e-04 -6.573008722625672817e-04 1.571111060911789536e-04
8.830000000000000000e+02 6.324403285980224609e-01 3.184312057495117188e+01 2.016852144151926041e-03 5.268593668006360531e-05 6.208614213392138481e-04 -1.842049387050792575e-04
8.840000000000000000e+02 7.239307761192321777e-01 3.600837707519531250e+01 -2.035199897363781929e-03 -2.587328490335494280e-04 -6.881798035465180874e-04 1.523840619483962655e-04
8.850000000000000000e+02 2.436476945877075195e+00 3.695515060424804688e+01 -2.029629424214363098e-03 -8.022226975299417973e-04 -8.495556539855897427e-04 6.495640263892710209e-05
8.860000000000000000e+02 9.793311357498168945e-01 3.874244689941406250e+01 -2.065027831122279167e-03 -5.303724319674074650e-04 -7.786200731061398983e-04 6.293172482401132584e-04
8.870000000000000000e+02 1.290217757225036621e+00 4.011689758300781250e+01 2.443292643874883652e-03 -3.657553752418607473e-04 6.232611485756933689e-04 -4.941435763612389565e-04
8.880000000000000000e+02 1.039005851745605469e+01 1.846745133399963379e+00 -3.039925941266119480e-04 -1.393395814375253394e-05 -9.537796722725033760e-05 -7.222493422887055203e-06
8.890000000000000000e+02 8.934871673583984375e+00 1.868142366409301758e+00 -2.307747054146602750e-04 -1.011112181004136801e-04 -9.956577559933066368e-05 -7.817307778168469667e-05
8.900000000000000000e+02 8.215170860290527344e+00 1.870667695999145508e+00 1.970239973161369562e-04 1.402223279001191258e-04 1.011739004752598703e-04 6.419578130589798093e-05
8.910000000000000000e+02 8.201154708862304688e+00 2.613634824752807617e+00 -2.484650176484137774e-04 -1.753539545461535454e-04 -1.271456858376041055e-04 -9.637723997002467513e-05
8.920000000000000000e+02 7.496993541717529297e+00 1.873844981193542480e+00 -1.829623070079833269e-04 -1.701207947917282581e-04 -1.059249334502965212e-04 -3.800314152613282204e-05
8.930000000000000000e+02 5.334984779357910156e+00 1.896035552024841309e+00 1.609453465789556503e-04 2.159283176297321916e-04 1.130621021729893982e-04 -7.273301162058487535e-05
8.940000000000000000e+02 4.611095905303955078e+00 1.907993793487548828e+00 -1.909326529130339622e-04 -2.133361558662727475e-04 -1.212806382682174444e-04 9.541246254229918122e-05
8.950000000000000000e+02 3.894213676452636719e+00 1.912390828132629395e+00 2.469097671564668417e-04 2.089609915856271982e-04 1.367612276226282120e-04 -9.898118150886148214e-05
8.960000000000000000e+02 3.188567876815795898e+00 1.903098464012145996e+00 -3.036464913748204708e-04 -1.935453183250501752e-04 -1.491575385443866253e-04 4.933987656841054559e-05
8.970000000000000000e+02 2.493238687515258789e+00 1.886884093284606934e+00 2.581311855465173721e-04 2.158103161491453648e-04 1.421824563294649124e-04 2.095619674946647137e-05
8.980000000000000000e+02 1.803792476654052734e+00 1.881633162498474121e+00 -1.374194107484072447e-04 -2.609696530271321535e-04 -1.195167205878533423e-04 -2.835174200299661607e-05
8.990000000000000000e+02 1.186739730834960938e+01 1.778004646301269531e+00 -2.507944882381707430e-04 -9.282864994020201266e-06 -7.802320033079013228e-05 9.037959534907713532e-05
9.000000000000000000e+02 1.435921382904052734e+01 2.977770805358886719e+00 1.519443758297711611e-04 2.555050596129149199e-04 1.222348364535719156e-04 -3.208799462299793959e-04
9.010000000000000000e+02 1.459793281555175781e+01 3.783799409866333008e+00 -5.720883491449058056e-04 -1.472758012823760509e-04 -2.158092393074184656e-04 1.919042988447472453e-04
9.020000000000000000e+02 1.479439353942871094e+01 2.011253356933593750e+00 3.719952364917844534e-04 4.551569509203545749e-05 1.252532820217311382e-04 -5.904551471758168191e-06
9.030000000000000000e+02 1.461400699615478516e+01 6.351960182189941406e+00 -8.974812226369976997e-04 -4.578041625791229308e-05 -2.829784934874624014e-04 1.130953023675829172e-04
9.040000000000000000e+02 1.459955120086669922e+01 7.705496311187744141e+00 1.016767346300184727e-03 3.896718408213928342e-05 3.167203685734421015e-04 -7.323094177991151810e-05
9.050000000000000000e+02 1.457861804962158203e+01 9.069611549377441406e+00 -1.134411897510290146e-03 -3.088869561906903982e-05 -3.495901764836162329e-04 2.957002834591548890e-05
9.060000000000000000e+02 1.451458072662353516e+01 1.181698226928710938e+01 -1.391627709381282330e-03 -1.686796281319402624e-06 -4.179943643976002932e-04 -2.843191941792611033e-05
9.070000000000000000e+02 1.445864200592041016e+01 1.320626068115234375e+01 1.484951237216591835e-03 -4.089479989488609135e-05 4.332169482950121164e-04 -8.834663276502396911e-06
9.080000000000000000e+02 1.439481067657470703e+01 1.460739326477050781e+01 -1.553251408040523529e-03 -6.558684162882855162e-06 -4.679430276155471802e-04 4.668088149628601968e-05
9.090000000000000000e+02 1.438016796112060547e+01 1.601035118103027344e+01 1.677350839599967003e-03 1.451565549359656870e-05 5.075599183328449726e-04 -3.085175922024063766e-05
9.100000000000000000e+02 1.314476680755615234e+01 2.037137222290039062e+01 2.142681973055005074e-03 -2.586256186987156980e-06 6.420286954380571842e-04 -2.313184231752529740e-04
9.110000000000000000e+02 1.450296211242675781e+01 2.160526084899902344e+01 2.329079899936914444e-03 3.500278762658126652e-05 7.092247833497822285e-04 -2.528920886106789112e-04
9.120000000000000000e+02 1.480869483947753906e+01 2.578014945983886719e+01 -3.128373296931385994e-03 -2.661125472513958812e-05 -9.464953909628093243e-04 3.859736898448318243e-04
9.130000000000000000e+02 1.326595973968505859e+01 2.318529891967773438e+01 2.532480983063578606e-03 -1.613734457350801677e-05 7.549030706286430359e-04 -1.745240297168493271e-04
9.140000000000000000e+02 1.493397808074951172e+01 2.717384338378906250e+01 3.473782213404774666e-03 7.995356099854689091e-06 1.044533215463161469e-03 -5.019051022827625275e-04
9.150000000000000000e+02 1.511489582061767578e+01 2.856212806701660156e+01 -3.946727607399225235e-03 -9.289621084462851286e-05 -1.211887109093368053e-03 6.067293579690158367e-04
9.160000000000000000e+02 1.592688083648681641e+01 3.269124603271484375e+01 5.381599534302949905e-03 6.078972364775836468e-05 1.632716855965554714e-03 -1.430259319022297859e-03
9.170000000000000000e+02 1.631737136840820312e+01 3.403645706176757812e+01 -6.058169063180685043e-03 -5.832444876432418823e-04 -1.992424018681049347e-03 1.536337891593575478e-03
9.180000000000000000e+02 1.529341411590576172e+01 3.586799240112304688e+01 -5.885235965251922607e-03 -7.394501008093357086e-04 -1.987405819818377495e-03 1.989211188629269600e-03
9.190000000000000000e+02 1.719274520874023438e+01 3.650406265258789062e+01 -1.226283889263868332e-02 -2.495131222531199455e-03 -4.427391104400157928e-03 -1.547987922094762325e-03
9.200000000000000000e+02 2.161810111999511719e+01 3.824747085571289062e+01 7.582978811115026474e-03 3.320155665278434753e-03 3.270940389484167099e-03 -1.036131568253040314e-02
9.210000000000000000e+02 2.415548133850097656e+01 3.862459564208984375e+01 3.172656521201133728e-03 -3.147412091493606567e-02 -8.490439504384994507e-03 1.265621371567249298e-02
9.220000000000000000e+02 2.324298286437988281e+01 3.855022048950195312e+01 3.075718996115028858e-05 1.921138260513544083e-03 5.855686613358557224e-04 -6.537214852869510651e-03
9.230000000000000000e+02 2.609511375427246094e+01 3.849230194091796875e+01 -5.651814397424459457e-03 -4.937225580215454102e-02 -1.650722138583660126e-02 4.388347268104553223e-02
9.240000000000000000e+02 2.828474998474121094e+01 3.800923538208007812e+01 -5.458505824208259583e-02 -6.598267704248428345e-02 -3.617031872272491455e-02 1.077544242143630981e-01
9.250000000000000000e+02 2.910698509216308594e+01 3.786841583251953125e+01 -8.005632460117340088e-02 -1.068764999508857727e-01 -5.607984587550163269e-02 1.428382098674774170e-01
9.260000000000000000e+02 3.118559455871582031e+01 3.748217773437500000e+01 -1.958988308906555176e-01 -1.446195840835571289e-01 -1.021555215120315552e-01 2.553068101406097412e-01
9.270000000000000000e+02 3.260579299926757812e+01 3.722161483764648438e+01 -2.500698268413543701e-01 -2.091658711433410645e-01 -1.377707123756408691e-01 3.578226864337921143e-01
9.280000000000000000e+02 3.422695922851562500e+01 3.701527786254882812e+01 -4.227198958396911621e-01 -2.455070912837982178e-01 -2.004680931568145752e-01 5.207395553588867188e-01
9.290000000000000000e+02 3.779066085815429688e+01 3.637721633911132812e+01 -7.635281085968017578e-01 -1.636954545974731445e-01 -2.781670689582824707e-01 5.065300464630126953e-01
9.300000000000000000e+02 4.007388687133789062e+01 3.588329315185546875e+01 -7.180489301681518555e-01 5.708431079983711243e-02 -1.982893943786621094e-01 1.425807476043701172e-01
9.310000000000000000e+02 3.939414978027343750e+01 3.610781097412109375e+01 -7.450224161148071289e-01 2.923271059989929199e-01 -1.358086019754409790e-01 3.949976563453674316e-01
9.320000000000000000e+02 4.090584564208984375e+01 3.710535812377929688e+01 3.216886222362518311e-01 7.597348690032958984e-01 3.244270384311676025e-01 -5.853577256202697754e-01
9.330000000000000000e+02 4.323827362060546875e+01 3.671416473388671875e+01 7.680378556251525879e-01 3.405713558197021484e+00 1.252125501632690430e+00 -2.329383134841918945e+00
9.340000000000000000e+02 4.310717773437500000e+01 3.502557373046875000e+01 3.819584250450134277e-01 1.436601877212524414e+00 5.455681085586547852e-01 -1.327605009078979492e+00
9.350000000000000000e+02 4.346118164062500000e+01 3.488507080078125000e+01 6.187816858291625977e-01 1.622827053070068359e+00 6.724826097488403320e-01 -1.629818916320800781e+00
9.360000000000000000e+02 4.387244796752929688e+01 3.473523712158203125e+01 8.377964496612548828e-01 2.351153373718261719e+00 9.566849470138549805e-01 -2.187981843948364258e+00
9.370000000000000000e+02 4.418510055541992188e+01 3.479698944091796875e+01 1.099812865257263184e+00 3.810042142868041992e+00 1.472956418991088867e+00 -3.037332057952880859e+00
9.380000000000000000e+02 4.457815551757812500e+01 3.456813049316406250e+01 1.339774012565612793e+00 4.694904804229736328e+00 1.810403704643249512e+00 -3.806912183761596680e+00
9.390000000000000000e+02 4.519073486328125000e+01 3.457474517822265625e+01 9.757750630378723145e-01 9.560355186462402344e+00 3.160839080810546875e+00 -5.154933452606201172e+00
9.400000000000000000e+02 4.625652313232421875e+01 3.441967010498046875e+01 -7.053052783012390137e-01 1.954210472106933594e+01 5.651039600372314453e+00 -3.077027559280395508e+00
9.410000000000000000e+02 4.442277145385742188e+01 3.129698562622070312e+01 5.487557411193847656e+00 3.616798877716064453e+00 2.731307029724121094e+00 5.357230663299560547e+00
9.420000000000000000e+02 4.402748489379882812e+01 3.112178421020507812e+01 4.759165763854980469e+00 2.606038093566894531e+00 2.209561109542846680e+00 4.303899288177490234e+00
9.430000000000000000e+02 4.462171936035156250e+01 3.097049903869628906e+01 5.261743545532226562e+00 5.971925735473632812e+00 3.370100736618041992e+00 6.432604312896728516e+00
9.440000000000000000e+02 4.363634872436523438e+01 3.141095161437988281e+01 3.739835262298583984e+00 1.241224050521850586e+00 1.494317889213562012e+00 2.852989673614501953e+00
9.450000000000000000e+02 4.298823547363281250e+01 3.144143867492675781e+01 2.408652305603027344e+00 6.393920183181762695e-01 9.144133329391479492e-01 1.766152143478393555e+00
9.460000000000000000e+02 4.235168075561523438e+01 3.156283378601074219e+01 1.283516049385070801e+00 3.234795629978179932e-01 4.820986688137054443e-01 1.111647367477416992e+00
9.470000000000000000e+02 4.180186080932617188e+01 3.167550659179687500e+01 5.416755080223083496e-01 1.497333943843841553e-01 2.074226737022399902e-01 7.330105304718017578e-01
9.480000000000000000e+02 4.063927459716796875e+01 3.189446830749511719e+01 -2.684869766235351562e-01 7.249020040035247803e-02 -5.879903212189674377e-02 3.583331406116485596e-01
9.490000000000000000e+02 3.645450210571289062e+01 3.264186477661132812e+01 -1.100898623466491699e+00 5.653053894639015198e-02 -3.133104145526885986e-01 -1.756204478442668915e-02
9.500000000000000000e+02 3.792560577392578125e+01 3.238123703002929688e+01 -1.057380318641662598e+00 5.200701579451560974e-02 -3.016119897365570068e-01 4.615134373307228088e-02
9.510000000000000000e+02 3.498305892944335938e+01 3.291951751708984375e+01 -1.053554773330688477e+00 6.665296852588653564e-02 -2.960705459117889404e-01 -6.187419965863227844e-02
9.520000000000000000e+02 3.424785614013671875e+01 3.306028747558593750e+01 -1.004018545150756836e+00 7.327073067426681519e-02 -2.792243361473083496e-01 -7.749884575605392456e-02
9.530000000000000000e+02 3.351528549194335938e+01 3.319952011108398438e+01 -9.468792080879211426e-01 7.097771763801574707e-02 -2.627704441547393799e-01 -9.452497214078903198e-02
9.540000000000000000e+02 3.059926795959472656e+01 3.374099731445312500e+01 -6.712448596954345703e-01 6.595828384160995483e-02 -1.815859675407409668e-01 -1.392548233270645142e-01
9.550000000000000000e+02 3.205573654174804688e+01 3.347581100463867188e+01 -8.153151869773864746e-01 7.206846028566360474e-02 -2.229740172624588013e-01 -1.204127967357635498e-01
9.560000000000000000e+02 2.914383125305175781e+01 3.397510147094726562e+01 -5.258128643035888672e-01 5.409532412886619568e-02 -1.415152698755264282e-01 -1.517720073461532593e-01
9.570000000000000000e+02 2.841608047485351562e+01 3.408458328247070312e+01 -4.561613500118255615e-01 4.764379933476448059e-02 -1.225552633404731750e-01 -1.539573818445205688e-01
9.580000000000000000e+02 2.769341278076171875e+01 3.417877960205078125e+01 -3.896763026714324951e-01 3.831741958856582642e-02 -1.054076701402664185e-01 -1.550885438919067383e-01
9.590000000000000000e+02 2.470715141296386719e+01 3.441788864135742188e+01 -1.590049415826797485e-01 -1.004762481898069382e-02 -5.071576684713363647e-02 -1.226510629057884216e-01
9.600000000000000000e+02 2.624963760375976562e+01 3.432869720458984375e+01 -2.685005068778991699e-01 1.740706712007522583e-02 -7.532802969217300415e-02 -1.462632268667221069e-01
9.610000000000000000e+02 2.202463912963867188e+01 3.431021118164062500e+01 -3.325308114290237427e-02 -3.973992541432380676e-02 -2.189790271222591400e-02 -5.132101476192474365e-02
9.620000000000000000e+02 4.362985992431640625e+01 3.527088165283203125e+01 6.375635266304016113e-01 2.756416320800781250e+00 1.018193960189819336e+00 -2.111890316009521484e+00
9.630000000000000000e+02 4.496572113037109375e+01 3.459986114501953125e+01 1.161219835281372070e+00 7.768270015716552734e+00 2.678847074508666992e+00 -4.712653636932373047e+00
9.640000000000000000e+02 4.577953720092773438e+01 3.440532302856445312e+01 1.650651842355728149e-01 1.544047927856445312e+01 4.681663513183593750e+00 -4.879975318908691406e+00
9.650000000000000000e+02 4.540197753906250000e+01 3.451454544067382812e+01 8.511402010917663574e-01 1.122339820861816406e+01 3.622361660003662109e+00 -5.492625713348388672e+00
9.660000000000000000e+02 4.599855804443359375e+01 3.442243194580078125e+01 -2.185483574867248535e-01 1.771209716796875000e+01 5.248064994812011719e+00 -3.945509910583496094e+00
9.670000000000000000e+02 4.601303482055664062e+01 3.489327239990234375e+01 -4.578473865985870361e-01 1.573965549468994141e+01 4.584542274475097656e+00 -3.446501016616821289e+00
9.680000000000000000e+02 4.475951004028320312e+01 3.457501220703125000e+01 1.266258478164672852e+00 6.245464801788330078e+00 2.253516912460327148e+00 -4.281234264373779297e+00
9.690000000000000000e+02 4.403803253173828125e+01 3.465515518188476562e+01 9.846042394638061523e-01 3.068548917770385742e+00 1.215945959091186523e+00 -2.429340362548828125e+00
9.700000000000000000e+02 4.274401855468750000e+01 3.148082733154296875e+01 1.941891431808471680e+00 4.168828427791595459e-01 7.076323032379150391e-01 1.488818287849426270e+00
9.710000000000000000e+02 4.689689636230468750e+01 3.077883529663085938e+01 3.078974723815917969e+00 1.978633880615234375e+01 6.859593868255615234e+00 1.571101784706115723e+00
9.720000000000000000e+02 4.499563598632812500e+01 3.116689300537109375e+01 5.691475391387939453e+00 7.903064250946044922e+00 4.078361988067626953e+00 7.506840229034423828e+00
9.730000000000000000e+02 4.290454101562500000e+01 3.097326278686523438e+01 2.938916683197021484e+00 1.145871520042419434e+00 1.225436449050903320e+00 2.387699842453002930e+00
9.740000000000000000e+02 4.564971542358398438e+01 3.102762222290039062e+01 3.823796272277832031e+00 1.487962055206298828e+01 5.611024856567382812e+00 8.268469810485839844e+00
9.750000000000000000e+02 4.422401428222656250e+01 3.134101486206054688e+01 5.100091934204101562e+00 2.678696393966674805e+00 2.333636522293090820e+00 4.461637973785400391e+00
9.760000000000000000e+02 4.343174743652343750e+01 3.141194534301757812e+01 3.230156421661376953e+00 9.767318964004516602e-01 1.262066483497619629e+00 2.425955772399902344e+00
9.770000000000000000e+02 2.035289192199707031e+01 3.786391830444335938e+01 9.932586923241615295e-03 5.710848141461610794e-03 4.693030379712581635e-03 -6.656273733824491501e-03
9.780000000000000000e+02 1.420725154876708984e+01 1.885969758033752441e+00 -1.525225670775398612e-04 -1.020510990201728418e-05 -4.881830318481661379e-05 5.353600499802269042e-05
9.790000000000000000e+02 1.257472515106201172e+01 1.748783111572265625e+00 1.326271740254014730e-04 4.753633766085840762e-05 5.404905459727160633e-05 -6.541241600643843412e-05
9.800000000000000000e+02 1.930675315856933594e+01 3.822733306884765625e+01 3.097571665421128273e-03 -8.172751986421644688e-04 6.840889691375195980e-04 -4.380396101623773575e-03
9.810000000000000000e+02 4.241559982299804688e+01 3.670724868774414062e+01 5.433348417282104492e-01 2.682398080825805664e+00 9.677198529243469238e-01 -1.436828255653381348e+00
9.820000000000000000e+02 4.336417007446289062e+01 3.547718429565429688e+01 4.162192642688751221e-01 2.270250320434570312e+00 8.059408664703369141e-01 -1.832981705665588379e+00
9.830000000000000000e+02 4.262847518920898438e+01 3.529859161376953125e+01 8.712810277938842773e-02 1.103360056877136230e+00 3.571464419364929199e-01 -9.240323901176452637e-01
9.840000000000000000e+02 4.312671661376953125e+01 3.586055374145507812e+01 5.150588750839233398e-01 2.704026222229003906e+00 9.657255411148071289e-01 -1.872455120086669922e+00
9.850000000000000000e+02 4.363660049438476562e+01 3.585481262207031250e+01 8.101076483726501465e-01 3.874652862548828125e+00 1.405428171157836914e+00 -2.658724069595336914e+00
9.860000000000000000e+02 4.113283920288085938e+01 3.130361175537109375e+01 8.011416196823120117e-01 2.212059199810028076e-01 3.067042529582977295e-01 7.169200778007507324e-01
9.870000000000000000e+02 3.937973403930664062e+01 3.212609100341796875e+01 -8.336312174797058105e-01 5.900800973176956177e-02 -2.323869615793228149e-01 1.447840034961700439e-01
9.880000000000000000e+02 3.994728469848632812e+01 3.150074386596679688e+01 2.911054901778697968e-02 1.310359984636306763e-01 4.804396629333496094e-02 3.426177203655242920e-01
9.890000000000000000e+02 4.168113327026367188e+01 3.119794273376464844e+01 1.339627385139465332e+00 3.529157340526580811e-01 5.077629089355468750e-01 1.077393651008605957e+00
9.900000000000000000e+02 3.865678405761718750e+01 3.225451660156250000e+01 -9.773482084274291992e-01 5.695619434118270874e-02 -2.761176228523254395e-01 9.355961531400680542e-02
9.910000000000000000e+02 2.059122848510742188e+01 3.863270187377929688e+01 7.597628515213727951e-03 1.700770342722535133e-03 2.789519727230072021e-03 -5.631835665553808212e-03
9.920000000000000000e+02 1.972173881530761719e+01 3.826998901367187500e+01 7.416675798594951630e-03 1.076621748507022858e-02 5.454868078231811523e-03 -1.041013095527887344e-02
9.930000000000000000e+02 2.288333320617675781e+01 3.978702163696289062e+01 -1.681455411016941071e-02 -1.266318000853061676e-02 -8.843320421874523163e-03 1.649310439825057983e-02
9.940000000000000000e+02 6.059284210205078125e+00 1.885733604431152344e+00 -1.615068031242117286e-04 -2.098152181133627892e-04 -1.113966063712723553e-04 2.797397974063642323e-05
9.950000000000000000e+02 9.662701606750488281e+00 2.595529794692993164e+00 -3.872372908517718315e-04 -5.281593257677741349e-05 -1.320159644819796085e-04 -1.257125695701688528e-04
9.960000000000000000e+02 6.779780387878417969e+00 1.878995537757873535e+00 1.733888057060539722e-04 1.906695833895355463e-04 1.092175225494429469e-04 6.041183951310813427e-06
9.970000000000000000e+02 7.477447986602783203e+00 2.626138448715209961e+00 2.354215248487889767e-04 2.024589048232883215e-04 1.313641259912401438e-04 5.688190140062943101e-05
9.980000000000000000e+02 8.201297760009765625e+00 3.356762409210205078e+00 2.669468813110142946e-04 2.260092878714203835e-04 1.478868507547304034e-04 1.282629382330924273e-04
9.990000000000000000e+02 6.017610549926757812e+00 4.182357788085937500e+00 2.698882599361240864e-04 3.172306751366704702e-04 1.761356834322214127e-04 8.381174848182126880e-05
1.000000000000000000e+03 1.715041279792785645e+00 7.733520030975341797e+00 9.860495338216423988e-04 9.713975487102288753e-06 2.987290790770202875e-04 -1.519406505394726992e-04
1.001000000000000000e+03 3.881818652153015137e-01 3.775523424148559570e+00 9.374791407026350498e-04 1.611854968359693885e-04 3.295993956271559000e-04 2.000882959691807628e-04
1.002000000000000000e+03 2.281643152236938477e+00 3.531035661697387695e+00 4.206204903312027454e-04 2.625485067255795002e-04 2.049507020274177194e-04 -4.029526899103075266e-04
1.003000000000000000e+03 3.840446770191192627e-01 2.093674659729003906e+00 -3.302083350718021393e-04 -1.980617234949022532e-04 -1.584810233907774091e-04 1.371897960780188441e-04
1.004000000000000000e+03 1.113864898681640625e+00 1.932304143905639648e+00 -3.585329977795481682e-05 3.173124860040843487e-04 8.443775732303038239e-05 -2.039555693045258522e-05
1.005000000000000000e+03 1.113459110260009766e+01 1.816474080085754395e+00 3.005418402608484030e-04 1.966653144336305559e-06 9.075254638446494937e-05 -5.000064993510022759e-05
1.006000000000000000e+03 9.679404258728027344e+00 3.339784145355224609e+00 4.952076124027371407e-04 6.459781434386968613e-05 1.679416163824498653e-04 2.159010764444246888e-04
1.007000000000000000e+03 2.696163558959960938e+01 3.259323501586914062e+01 -2.474689036607742310e-01 2.216690219938755035e-02 -6.759060174226760864e-02 -2.734488844871520996e-01
1.008000000000000000e+03 2.619927406311035156e+01 3.344009780883789062e+01 -2.406836301088333130e-01 9.523946791887283325e-03 -6.934790313243865967e-02 -2.110430598258972168e-01
1.009000000000000000e+03 2.291587448120117188e+01 3.438004302978515625e+01 -6.276607513427734375e-02 -3.773437812924385071e-02 -3.015013597905635834e-02 -7.895264029502868652e-02
1.010000000000000000e+03 2.384082031250000000e+01 3.114048767089843750e+01 -5.905582383275032043e-02 -1.449295133352279663e-01 -6.119560450315475464e-02 -2.446483969688415527e-01
1.011000000000000000e+03 2.767231941223144531e+01 3.337541961669921875e+01 -3.456857800483703613e-01 4.351327195763587952e-02 -9.065175056457519531e-02 -2.241125255823135376e-01
1.012000000000000000e+03 2.912130165100097656e+01 3.322346878051757812e+01 -4.541008472442626953e-01 6.836909055709838867e-02 -1.157195270061492920e-01 -2.256088703870773315e-01
1.013000000000000000e+03 2.984556579589843750e+01 3.312394714355468750e+01 -5.088655948638916016e-01 7.703910022974014282e-02 -1.295479536056518555e-01 -2.241982966661453247e-01
1.014000000000000000e+03 2.839727401733398438e+01 3.330953216552734375e+01 -3.996720314025878906e-01 5.540440231561660767e-02 -1.032802835106849670e-01 -2.267681360244750977e-01
1.015000000000000000e+03 3.275043487548828125e+01 3.264557647705078125e+01 -6.957296133041381836e-01 9.958515316247940063e-02 -1.788433343172073364e-01 -1.910843700170516968e-01
1.016000000000000000e+03 3.132710838317871094e+01 3.361273574829101562e+01 -7.432047724723815918e-01 7.186304777860641479e-02 -2.014025151729583740e-01 -1.294098794460296631e-01
1.017000000000000000e+03 3.129603958129882812e+01 3.289601898193359375e+01 -6.112174987792968750e-01 9.228096902370452881e-02 -1.556809544563293457e-01 -2.127493023872375488e-01
1.018000000000000000e+03 3.057057189941406250e+01 3.301366424560546875e+01 -5.610197782516479492e-01 8.749026805162429810e-02 -1.420588493347167969e-01 -2.185012102127075195e-01
1.019000000000000000e+03 1.176191806793212891e+01 -2.681174993515014648e+00 -4.783514305017888546e-04 3.476977872196584940e-05 -1.330744998995214701e-04 1.352196704829111695e-04
1.020000000000000000e+03 1.025334072113037109e+01 -3.464759111404418945e+00 2.707215608097612858e-04 2.061453851638361812e-04 1.430600823368877172e-04 -2.539746928960084915e-04
1.021000000000000000e+03 1.104396438598632812e+01 -2.677427530288696289e+00 3.683628456201404333e-04 7.642184937139973044e-05 1.334354165010154247e-04 -2.321258652955293655e-04
1.022000000000000000e+03 3.494335556030273438e+01 3.671304702758789062e+01 -4.859143495559692383e-01 -3.162960112094879150e-01 -2.406631112098693848e-01 5.915050506591796875e-01
1.023000000000000000e+03 3.702059936523437500e+01 3.645208740234375000e+01 -7.605072259902954102e-01 -8.293384313583374023e-02 -2.530323266983032227e-01 6.804720163345336914e-01
1.024000000000000000e+03 3.573231506347656250e+01 3.881992340087890625e+01 5.110216140747070312e-01 -4.072349667549133301e-01 3.113600611686706543e-02 5.583829879760742188e-01
1.025000000000000000e+03 3.997452163696289062e+01 3.695177078247070312e+01 9.306603111326694489e-03 6.330725550651550293e-01 1.927137523889541626e-01 -1.750090420246124268e-01
1.026000000000000000e+03 3.955853652954101562e+01 3.832966613769531250e+01 4.710168838500976562e-01 1.134605169296264648e+00 4.816866219043731689e-01 7.229112833738327026e-02
1.027000000000000000e+03 3.853967285156250000e+01 3.115580749511718750e+01 4.059948027133941650e-02 1.694732010364532471e-01 6.302180886268615723e-02 1.845979094505310059e-01
1.028000000000000000e+03 4.055421829223632812e+01 3.140245437622070312e+01 3.365959227085113525e-01 1.816009283065795898e-01 1.554590612649917603e-01 4.991525709629058838e-01
1.029000000000000000e+03 3.714673233032226562e+01 3.191721153259277344e+01 -6.677746772766113281e-01 9.258564561605453491e-02 -1.725567132234573364e-01 -2.184048295021057129e-02
1.030000000000000000e+03 3.859407043457031250e+01 3.170968246459960938e+01 -4.468230903148651123e-01 9.968014806509017944e-02 -1.041428893804550171e-01 1.064031049609184265e-01
1.031000000000000000e+03 3.567792129516601562e+01 3.214573287963867188e+01 -7.505691647529602051e-01 9.644090384244918823e-02 -1.962384730577468872e-01 -1.039060130715370178e-01
1.032000000000000000e+03 3.348012542724609375e+01 3.251925659179687500e+01 -7.268502116203308105e-01 1.035493835806846619e-01 -1.869902461767196655e-01 -1.744488626718521118e-01
1.033000000000000000e+03 3.421127319335937500e+01 3.239337539672851562e+01 -7.500876188278198242e-01 1.006927937269210815e-01 -1.948184520006179810e-01 -1.565735340118408203e-01
1.034000000000000000e+03 3.787585449218750000e+01 3.181190490722656250e+01 -5.793554186820983887e-01 9.835640341043472290e-02 -1.442997008562088013e-01 3.672120720148086548e-02
1.035000000000000000e+03 1.246401882171630859e+01 2.312745094299316406e+00 -2.290494303451851010e-04 -5.001901081413961947e-05 -8.372052980121225119e-05 1.394213468302041292e-04
1.036000000000000000e+03 1.040255069732666016e+01 2.567166328430175781e+00 4.554527404252439737e-04 -2.712278728722594678e-05 1.284989848500117660e-04 5.407062417361885309e-05
1.037000000000000000e+03 1.294280433654785156e+01 2.354567050933837891e+00 -2.941511957033071667e-05 1.407762465532869101e-04 3.340833791298791766e-05 1.407702166034141555e-05
1.038000000000000000e+03 1.336966228485107422e+01 2.534806251525878906e+00 -1.232953945873305202e-04 -1.511704467702656984e-04 -8.233975677285343409e-05 -2.722528588492423296e-04
1.039000000000000000e+03 3.338207244873046875e+01 3.720952224731445312e+01 -3.176171481609344482e-01 -3.056882917881011963e-01 -1.869916319847106934e-01 4.810973405838012695e-01
1.040000000000000000e+03 3.083461952209472656e+01 3.949880218505859375e+01 1.330761760473251343e-01 -2.669710814952850342e-01 -4.016847163438796997e-02 2.109494507312774658e-01
1.041000000000000000e+03 2.963871574401855469e+01 3.874993133544921875e+01 -2.803834713995456696e-02 -1.436950117349624634e-01 -5.152000859379768372e-02 1.644252091646194458e-01
1.042000000000000000e+03 2.743470001220703125e+01 3.868851852416992188e+01 -1.385789457708597183e-02 -5.341667309403419495e-02 -2.018236927688121796e-02 7.281723618507385254e-02
1.043000000000000000e+03 3.043154525756835938e+01 3.751530456542968750e+01 -1.499807685613632202e-01 -1.496994793415069580e-01 -8.990407735109329224e-02 2.141353636980056763e-01
1.044000000000000000e+03 3.223338317871093750e+01 3.805413436889648438e+01 -9.938784688711166382e-02 -2.543670535087585449e-01 -1.061264723539352417e-01 3.462028801441192627e-01
1.045000000000000000e+03 8.057716369628906250e+00 -1.871299386024475098e+00 -1.818779855966567993e-04 -1.786596694728359580e-04 -1.081612936104647815e-04 5.093402069178409874e-05
1.046000000000000000e+03 9.549880981445312500e+00 -2.645061969757080078e+00 2.156826521968469024e-04 1.789989910321310163e-04 1.184044958790764213e-04 -1.605317957000806928e-04
1.047000000000000000e+03 7.280449867248535156e+00 -2.611892223358154297e+00 -2.305841771885752678e-04 -1.662201102590188384e-04 -1.190412876894697547e-04 -1.792619514162652194e-06
1.048000000000000000e+03 8.032258033752441406e+00 -2.619089841842651367e+00 2.147216582670807838e-04 1.811341790016740561e-04 1.187567540910094976e-04 -4.784124394063837826e-05
1.049000000000000000e+03 8.789175033569335938e+00 -2.629825115203857422e+00 -2.062494750134646893e-04 -1.879470510175451636e-04 -1.182589621748775244e-04 1.035488530760630965e-04
1.050000000000000000e+03 6.534733295440673828e+00 -1.864786505699157715e+00 -1.737811689963564277e-04 -1.714765676297247410e-04 -1.035773166222497821e-04 -2.525656054785940796e-05
1.051000000000000000e+03 6.537440299987792969e+00 -2.604421377182006836e+00 2.414217451587319374e-04 1.484207605244591832e-04 1.169527531601488590e-04 2.577908890089020133e-05
1.052000000000000000e+03 5.083903312683105469e+00 -2.613796234130859375e+00 1.386095391353592277e-04 1.474000746384263039e-04 8.580287976656109095e-05 3.383204602869227529e-05
1.053000000000000000e+03 1.604275226593017578e+00 -7.834826469421386719e+00 8.000003872439265251e-04 6.249478701647603884e-06 2.418749645585194230e-04 -1.234174123965203762e-05
1.054000000000000000e+03 3.851613998413085938e+00 -3.552347898483276367e+00 -1.211576818604953587e-04 -1.228139153681695461e-04 -7.319148426176980138e-05 -2.953322546090930700e-04
1.055000000000000000e+03 4.567875862121582031e-01 -3.615214586257934570e+00 5.963609437458217144e-04 -1.644640724407508969e-05 1.739743602229282260e-04 -1.566400533192791045e-05
1.056000000000000000e+03 4.045434594154357910e-01 -2.203182458877563477e+00 -5.539124249480664730e-04 -2.335867293368210085e-06 -1.668744807830080390e-04 2.778249609036720358e-06
1.057000000000000000e+03 4.963420331478118896e-01 -5.036190032958984375e+00 -6.328777526505291462e-04 -2.832805330399423838e-05 -1.983617403311654925e-04 1.319728016824228689e-05
1.058000000000000000e+03 4.788838577270507812e+01 3.115657234191894531e+01 5.831501007080078125e+00 1.692394447326660156e+01 6.826633930206298828e+00 -8.188498616218566895e-01
1.059000000000000000e+03 4.715378952026367188e+01 3.131633567810058594e+01 5.616386890411376953e+00 2.086046028137207031e+01 7.943054199218750000e+00 -4.557340443134307861e-01
1.060000000000000000e+03 4.873431396484375000e+01 3.425551223754882812e+01 4.458442211151123047e+00 1.540887928009033203e+01 5.960196495056152344e+00 3.044976711273193359e+00
1.061000000000000000e+03 4.750296783447265625e+01 3.439841842651367188e+01 1.999354243278503418e+00 1.960776519775390625e+01 6.482135772705078125e+00 2.566988706588745117e+00
1.062000000000000000e+03 4.903686904907226562e+01 3.294982147216796875e+01 6.831389904022216797e+00 1.406618785858154297e+01 6.269273281097412109e+00 1.949266552925109863e+00
1.063000000000000000e+03 4.799174118041992188e+01 3.298901748657226562e+01 9.655085563659667969e+00 1.667440795898437500e+01 7.898848056793212891e+00 2.540796279907226562e+00
1.064000000000000000e+03 4.675897979736328125e+01 3.017894744873046875e+01 1.873568773269653320e+00 1.699578475952148438e+01 5.660806179046630859e+00 2.807506084442138672e+00
1.065000000000000000e+03 2.853483581542968750e+01 3.895497894287109375e+01 -2.484121546149253845e-02 -1.379316002130508423e-01 -4.883184656500816345e-02 1.308413594961166382e-01
1.066000000000000000e+03 3.028351402282714844e+01 3.813885498046875000e+01 -2.844982594251632690e-02 -1.553460806608200073e-01 -5.513877421617507935e-02 1.969445049762725830e-01
1.067000000000000000e+03 2.462210845947265625e+01 4.118628311157226562e+01 2.702358737587928772e-02 -6.390972435474395752e-02 -1.106584072113037109e-02 -1.214542146772146225e-02
1.068000000000000000e+03 2.517139434814453125e+01 3.867052459716796875e+01 -5.094162188470363617e-03 -2.402202785015106201e-02 -8.734857663512229919e-03 2.755812555551528931e-02
1.069000000000000000e+03 2.396885871887207031e+01 3.997707366943359375e+01 -1.555666141211986542e-02 1.288098166696727276e-03 -4.280569031834602356e-03 -1.133875083178281784e-02
1.070000000000000000e+03 2.525981140136718750e+01 4.006193542480468750e+01 1.834558881819248199e-02 -9.169970452785491943e-02 -2.200623415410518646e-02 3.029913268983364105e-02
1.071000000000000000e+03 2.201115989685058594e+01 3.330326080322265625e+01 -2.701076120138168335e-02 -9.048213809728622437e-02 -3.524786978960037231e-02 -8.240336924791336060e-02
1.072000000000000000e+03 2.543921852111816406e+01 3.248386001586914062e+01 -1.601474583148956299e-01 -3.299009427428245544e-02 -5.794126912951469421e-02 -2.521277666091918945e-01
1.073000000000000000e+03 2.060489845275878906e+01 3.400362396240234375e+01 -1.711462973617017269e-03 -3.616704419255256653e-02 -1.136355195194482803e-02 -8.138442412018775940e-03
1.074000000000000000e+03 2.095055580139160156e+01 3.233352279663085938e+01 -3.317096503451466560e-03 -1.336884647607803345e-01 -4.110167175531387329e-02 -3.845928236842155457e-02
1.075000000000000000e+03 2.012348175048828125e+01 3.838314056396484375e+01 3.622621530666947365e-03 -3.385133109986782074e-03 7.124657713575288653e-05 1.738870516419410706e-03
1.076000000000000000e+03 2.279432487487792969e+01 -4.132409667968750000e+01 -7.496182620525360107e-02 1.238579034805297852e+00 3.490851521492004395e-01 8.752335997996851802e-05
1.077000000000000000e+03 1.905204582214355469e+01 -3.775339889526367188e+01 2.655856683850288391e-02 6.304342150688171387e-01 1.970978379249572754e-01 1.500481665134429932e-01
1.078000000000000000e+03 1.326849555969238281e+01 -3.580443954467773438e+01 -1.281507872045040131e-02 4.017264582216739655e-03 -2.639344427734613419e-03 1.206184178590774536e-02
1.079000000000000000e+03 1.353013134002685547e+01 2.600890159606933594e+01 3.125129034742712975e-03 -6.372041389113292098e-05 9.184225928038358688e-04 -2.733118017204105854e-04
1.080000000000000000e+03 1.209512519836425781e+01 2.485632896423339844e+01 2.717342693358659744e-03 -5.721737397834658623e-05 7.980376249179244041e-04 -1.957222411874681711e-04
1.081000000000000000e+03 1.427829170227050781e+01 3.163677787780761719e+01 4.765653982758522034e-03 -3.212436859030276537e-04 1.333323190920054913e-03 -5.566218169406056404e-04
1.082000000000000000e+03 1.674279975891113281e+01 3.533478546142578125e+01 6.968268658965826035e-03 3.148564137518405914e-04 2.184937475249171257e-03 -1.744616078212857246e-03
1.083000000000000000e+03 1.706558609008789062e+01 3.768562316894531250e+01 1.203569117933511734e-02 -5.159509368240833282e-03 2.062854589894413948e-03 2.677633194252848625e-03
1.084000000000000000e+03 1.486914920806884766e+01 3.448373413085937500e+01 5.533910822123289108e-03 -9.833765943767502904e-05 1.630671904422342777e-03 -1.470746705308556557e-03
1.085000000000000000e+03 1.444565677642822266e+01 1.881845474243164062e+01 2.028634306043386459e-03 -1.724477078823838383e-05 6.034168181940913200e-04 -1.793227129383012652e-04
1.086000000000000000e+03 1.314193916320800781e+01 1.896239471435546875e+01 -2.021055202931165695e-03 9.180243068840354681e-05 -5.787758273072540760e-04 1.966325653484091163e-04
1.087000000000000000e+03 1.469560050964355469e+01 2.438776588439941406e+01 2.792359562590718269e-03 7.348282451857812703e-06 8.399123325943946838e-04 -3.118510358035564423e-04
1.088000000000000000e+03 1.384898185729980469e+01 2.882453155517578125e+01 3.873406443744897842e-03 -9.571932605467736721e-05 1.133306184783577919e-03 -3.281021199654787779e-04
1.089000000000000000e+03 1.367700195312500000e+01 2.741785621643066406e+01 -3.501035273075103760e-03 6.010468496242538095e-05 -1.032279222272336483e-03 2.721682540141046047e-04
1.090000000000000000e+03 1.404708290100097656e+01 3.022768211364746094e+01 -4.386135376989841461e-03 1.210950649692676961e-04 -1.279512187466025352e-03 3.213688032701611519e-04
1.091000000000000000e+03 1.305953884124755859e+01 1.754575729370117188e+01 1.941912574693560600e-03 -1.172978954855352640e-04 5.473843775689601898e-04 -1.572497712913900614e-04
1.092000000000000000e+03 1.334595298767089844e+01 1.178929138183593750e+01 1.265225000679492950e-03 6.121306068962439895e-05 3.979314060416072607e-04 2.229016390629112720e-04
1.093000000000000000e+03 1.293516349792480469e+01 1.459673881530761719e+01 1.650946796871721745e-03 -9.037434210767969489e-05 4.681717255152761936e-04 1.740535954013466835e-04
1.094000000000000000e+03 1.461854267120361328e+01 5.024525642395019531e+00 7.552251918241381645e-04 5.677697117789648473e-05 2.436006616335362196e-04 -1.420755725121125579e-04
1.095000000000000000e+03 1.184712123870849609e+01 2.414517164230346680e+00 3.474144323263317347e-04 -5.627587142953416333e-06 1.025360543280839920e-04 -1.235031668329611421e-04
1.096000000000000000e+03 1.048247909545898438e+01 4.082141876220703125e+00 7.318868883885443211e-04 -5.312238045007688925e-06 2.179723960580304265e-04 2.212834515376016498e-04
1.097000000000000000e+03 1.355348014831542969e+01 7.813035011291503906e+00 -8.987309411168098450e-04 -8.189300569938495755e-05 -2.941871935036033392e-04 -2.672672781045548618e-05
1.098000000000000000e+03 1.318991470336914062e+01 1.315642261505126953e+01 -1.448447699658572674e-03 4.689996421802788973e-05 -4.204643191769719124e-04 -2.764962846413254738e-04
1.099000000000000000e+03 7.934951782226562500e+01 -2.779631423950195312e+01 -1.477283542044460773e-03 9.794828414916992188e+00 2.938005447387695312e+00 -1.356812100857496262e-02
1.100000000000000000e+03 7.693978118896484375e+01 -3.768988037109375000e+01 -2.732377126812934875e-02 9.485411643981933594e+00 2.837426424026489258e+00 2.337564527988433838e-02
1.101000000000000000e+03 7.930405426025390625e+01 -3.469873428344726562e+01 -8.879783563315868378e-03 9.797596931457519531e+00 2.936614990234375000e+00 7.141972891986370087e-03
1.102000000000000000e+03 7.829378509521484375e+01 3.348774337768554688e+01 5.611827224493026733e-02 4.285058975219726562e+00 1.302353143692016602e+00 -1.462221443653106689e-01
1.103000000000000000e+03 7.937078094482421875e+01 3.607672882080078125e+01 -9.930673986673355103e-03 3.816470146179199219e+00 1.141961812973022461e+00 3.768588067032396793e-04
1.104000000000000000e+03 7.935976409912109375e+01 -2.085817718505859375e+01 -7.679220871068537235e-04 9.708909988403320312e+00 2.912442684173583984e+00 -2.027726732194423676e-02
1.105000000000000000e+03 7.804972839355468750e+01 -2.763536834716796875e+01 -2.908136229962110519e-03 9.581439018249511719e+00 2.873559236526489258e+00 -2.568749710917472839e-02
1.106000000000000000e+03 7.807759857177734375e+01 -2.626089286804199219e+01 -1.791113638319075108e-03 9.573229789733886719e+00 2.871431589126586914e+00 -2.900609932839870453e-02
1.107000000000000000e+03 7.931962585449218750e+01 -3.057331085205078125e+01 -2.215707907453179359e-03 9.816491127014160156e+00 2.944282770156860352e+00 -9.014024399220943451e-03
1.108000000000000000e+03 7.788563537597656250e+01 -3.444208526611328125e+01 -3.220181912183761597e-03 9.605654716491699219e+00 2.880730390548706055e+00 4.537907429039478302e-03
1.109000000000000000e+03 7.786057281494140625e+01 -3.310548400878906250e+01 -1.225697528570890427e-02 9.596180915832519531e+00 2.875177383422851562e+00 4.583128262311220169e-03
1.110000000000000000e+03 7.421969604492187500e+01 -3.705619430541992188e+01 -2.354299463331699371e-02 9.054718017578125000e+00 2.709352493286132812e+00 -6.079543754458427429e-02
1.111000000000000000e+03 7.599782562255859375e+01 -3.882421875000000000e+01 -7.635294925421476364e-03 9.424253463745117188e+00 2.824985265731811523e+00 -3.231605747714638710e-03
1.112000000000000000e+03 7.807080078125000000e+01 1.404365062713623047e+01 -1.080603525042533875e-02 7.113218307495117188e+00 2.130723714828491211e+00 -3.240630924701690674e-01
1.113000000000000000e+03 7.936473083496093750e+01 1.536665725708007812e+01 -4.859188105911016464e-03 6.850440025329589844e+00 2.053674221038818359e+00 -1.250392347574234009e-01
1.114000000000000000e+03 7.811602020263671875e+01 2.095791816711425781e+01 1.071477774530649185e-02 6.031539440155029297e+00 1.812676310539245605e+00 -3.382921814918518066e-01
1.115000000000000000e+03 7.936619567871093750e+01 2.230898475646972656e+01 1.240794640034437180e-02 5.601171016693115234e+00 1.684073686599731445e+00 -1.238748803734779358e-01
1.116000000000000000e+03 7.807790374755859375e+01 3.218567657470703125e+01 3.402269631624221802e-02 4.502629280090332031e+00 1.360995650291442871e+00 -2.355062961578369141e-01
1.117000000000000000e+03 7.790280151367187500e+01 2.791381645202636719e+01 1.325839012861251831e-02 5.043555736541748047e+00 1.517044186592102051e+00 -3.154989182949066162e-01
1.118000000000000000e+03 7.930479431152343750e+01 2.788829612731933594e+01 1.826004497706890106e-02 4.653185844421386719e+00 1.401433825492858887e+00 -1.161022484302520752e-01
1.119000000000000000e+03 7.802307891845703125e+01 2.508465957641601562e+01 -1.449266448616981506e-03 5.413528919219970703e+00 1.623623967170715332e+00 -3.357595503330230713e-01
1.120000000000000000e+03 7.806858062744140625e+01 2.370028305053710938e+01 1.394624914973974228e-02 5.609683036804199219e+00 1.687088847160339355e+00 -3.343602716922760010e-01
1.121000000000000000e+03 7.811729431152343750e+01 1.821945190429687500e+01 3.912711050361394882e-03 6.469453334808349609e+00 1.942009806632995605e+00 -3.390680551528930664e-01
1.122000000000000000e+03 7.810294342041015625e+01 1.683683967590332031e+01 -7.926939986646175385e-03 6.688483238220214844e+00 2.004166841506958008e+00 -3.383603096008300781e-01
1.123000000000000000e+03 7.806012725830078125e+01 1.264331436157226562e+01 -6.106112617999315262e-03 7.314764022827148438e+00 2.192597389221191406e+00 -3.127781450748443604e-01
1.124000000000000000e+03 7.673660278320312500e+01 1.129397678375244141e+01 -2.494190260767936707e-02 7.503414154052734375e+00 2.243541717529296875e+00 -4.660565555095672607e-01
1.125000000000000000e+03 7.809172058105468750e+01 8.455825805664062500e+00 -1.413320470601320267e-02 7.862496852874755859e+00 2.354509115219116211e+00 -2.661131024360656738e-01
1.126000000000000000e+03 7.936003875732421875e+01 9.790545463562011719e+00 -5.060022231191396713e-03 7.733407974243164062e+00 2.318504333496093750e+00 -1.092425584793090820e-01
1.127000000000000000e+03 7.935704803466796875e+01 -1.946956062316894531e+01 -5.060348194092512131e-04 9.686090469360351562e+00 2.905675172805786133e+00 -2.177438884973526001e-02
1.128000000000000000e+03 7.935594940185546875e+01 -1.389677429199218750e+01 -1.487013651058077812e-03 9.562034606933593750e+00 2.868164300918579102e+00 -3.174320235848426819e-02
1.129000000000000000e+03 7.936380004882812500e+01 -6.933594226837158203e+00 -1.889241277240216732e-03 9.294315338134765625e+00 2.787727832794189453e+00 -4.794164746999740601e-02
1.130000000000000000e+03 7.811310577392578125e+01 1.010362356901168823e-01 -1.169192325323820114e-02 8.685934066772460938e+00 2.602272510528564453e+00 -1.713129729032516479e-01
1.131000000000000000e+03 7.937149047851562500e+01 1.428008317947387695e+00 -3.516950178891420364e-03 8.713468551635742188e+00 2.612985372543334961e+00 -7.553728669881820679e-02
1.132000000000000000e+03 7.686154174804687500e+01 7.083014488220214844e+00 -3.216135501861572266e-02 7.968298435211181641e+00 2.380841016769409180e+00 -3.814704418182373047e-01
1.133000000000000000e+03 7.787463378906250000e+01 2.935546112060546875e+01 2.859460562467575073e-02 4.861109733581542969e+00 1.466911315917968750e+00 -2.989031970500946045e-01
1.134000000000000000e+03 7.434559631347656250e+01 3.808389282226562500e+01 2.128295600414276123e-01 5.371654987335205078e+00 1.675345301628112793e+00 -2.532858848571777344e-01
1.135000000000000000e+03 7.807556915283203125e+01 9.854907035827636719e+00 -8.636874146759510040e-03 7.687862396240234375e+00 2.303767681121826172e+00 -2.831885218620300293e-01
1.136000000000000000e+03 7.686623382568359375e+01 1.607139557600021362e-01 -2.519631758332252502e-02 8.553995132446289062e+00 2.558639526367187500e+00 -2.620516717433929443e-01
1.137000000000000000e+03 7.812199401855468750e+01 2.882146358489990234e+00 -1.259204838424921036e-02 8.454061508178710938e+00 2.532440900802612305e+00 -1.996837407350540161e-01
1.138000000000000000e+03 7.685641479492187500e+01 -1.235633015632629395e+00 -2.679469995200634003e-02 8.646339416503906250e+00 2.585863351821899414e+00 -2.418478429317474365e-01
1.139000000000000000e+03 7.936701202392578125e+01 -2.755713701248168945e+00 -1.396819949150085449e-03 9.047243118286132812e+00 2.713753938674926758e+00 -6.071680039167404175e-02
1.140000000000000000e+03 7.808669281005859375e+01 -6.864578723907470703e+00 -7.605698890984058380e-03 9.110069274902343750e+00 2.730739116668701172e+00 -1.099105551838874817e-01
1.141000000000000000e+03 7.809268951416015625e+01 -5.479012012481689453e+00 -9.158769622445106506e-03 9.041904449462890625e+00 2.709823608398437500e+00 -1.205131113529205322e-01
1.142000000000000000e+03 7.935921478271484375e+01 -9.716833114624023438e+00 -1.369440928101539612e-03 9.419770240783691406e+00 2.825520277023315430e+00 -4.080980271100997925e-02
1.143000000000000000e+03 7.806285095214843750e+01 -1.242726230621337891e+01 -6.224872078746557236e-03 9.321467399597167969e+00 2.794572591781616211e+00 -7.478312402963638306e-02
1.144000000000000000e+03 7.935523223876953125e+01 -1.668399810791015625e+01 -1.077628228813409805e-03 9.632332801818847656e+00 2.889376640319824219e+00 -2.647281438112258911e-02
1.145000000000000000e+03 7.806208038330078125e+01 -1.939247322082519531e+01 -3.884552512317895889e-03 9.484000205993652344e+00 2.844034671783447266e+00 -4.291852563619613647e-02
1.146000000000000000e+03 1.304445171356201172e+01 -3.010762023925781250e+01 3.463215194642543793e-03 1.125393901020288467e-03 1.376582658849656582e-03 -1.327568781562149525e-03
1.147000000000000000e+03 2.209976196289062500e+01 1.617565035820007324e+00 6.534878164529800415e-03 3.804516196250915527e-01 1.160959526896476746e-01 1.389727443456649780e-01
1.148000000000000000e+03 2.339417076110839844e+01 1.710420012474060059e+00 -2.411118766758590937e-04 6.186466813087463379e-01 1.855216622352600098e-01 2.247034162282943726e-01
1.149000000000000000e+03 2.018261337280273438e+01 -1.388495540618896484e+01 1.811938919126987457e-02 8.050362467765808105e-01 2.469466924667358398e-01 5.608578398823738098e-02
1.150000000000000000e+03 1.307141399383544922e+01 -3.725384140014648438e+01 -5.519975442439317703e-03 5.677249864675104618e-04 -1.485675107687711716e-03 2.477552043274044991e-04
1.151000000000000000e+03 1.381419277191162109e+01 -3.876679611206054688e+01 -5.026448890566825867e-02 1.294035371392965317e-02 -1.119724102318286896e-02 -1.141669135540723801e-02
1.152000000000000000e+03 1.986390495300292969e+01 -1.808521842956542969e+01 -6.967158522456884384e-03 7.313425540924072266e-01 2.173126339912414551e-01 5.116068199276924133e-02
1.153000000000000000e+03 1.123584747314453125e+01 -3.222052001953125000e+01 -2.767605241388082504e-03 -3.337646368891000748e-03 -1.831575529649853706e-03 3.116513835266232491e-03
1.154000000000000000e+03 2.038457679748535156e+01 -5.460568904876708984e+00 -2.684415318071842194e-03 4.679287970066070557e-01 1.395733207464218140e-01 4.312131181359291077e-02
1.155000000000000000e+03 2.202267456054687500e+01 2.246914803981781006e-01 2.158005489036440849e-03 4.604901671409606934e-01 1.387944519519805908e-01 1.340239495038986206e-01
1.156000000000000000e+03 2.165777969360351562e+01 -8.142766952514648438e+00 -1.258440432138741016e-03 7.987893223762512207e-01 2.392592579126358032e-01 9.524141252040863037e-02
1.157000000000000000e+03 2.134468650817871094e+01 -1.937599372863769531e+01 -1.771487481892108917e-02 9.978136420249938965e-01 2.940296232700347900e-01 6.573896855115890503e-02
1.158000000000000000e+03 2.174068450927734375e+01 -5.362848281860351562e+00 -8.554519154131412506e-03 7.001364827156066895e-01 2.074745893478393555e-01 1.033275872468948364e-01
1.159000000000000000e+03 2.291779327392578125e+01 -3.329481124877929688e+01 2.236116304993629456e-02 1.337779521942138672e+00 4.080421924591064453e-01 4.922551661729812622e-02
1.160000000000000000e+03 2.146704673767089844e+01 -1.515894699096679688e+01 1.363241020590066910e-02 9.623063802719116211e-01 2.927816212177276611e-01 6.663988530635833740e-02
1.161000000000000000e+03 2.152560424804687500e+01 -1.375264739990234375e+01 1.525710709393024445e-02 9.385029673576354980e-01 2.861280143260955811e-01 8.005369454622268677e-02
1.162000000000000000e+03 2.180657768249511719e+01 -3.976379871368408203e+00 -3.156714665237814188e-04 6.475790143013000488e-01 1.941790133714675903e-01 1.063852533698081970e-01
1.163000000000000000e+03 2.229865074157714844e+01 7.294422626495361328e+00 2.432673936709761620e-04 -1.307464577257633209e-02 -3.849413711577653885e-03 1.610084623098373413e-01
1.164000000000000000e+03 2.469981956481933594e+01 -2.181999778747558594e+01 -2.720727771520614624e-02 1.517987489700317383e+00 4.472340643405914307e-01 7.550773769617080688e-02
1.165000000000000000e+03 1.193157577514648438e+01 -2.735277748107910156e+01 -2.515190513804554939e-03 -7.867420208640396595e-04 -9.905797196552157402e-04 3.701187088154256344e-04
1.166000000000000000e+03 2.217831611633300781e+01 3.019132375717163086e+00 6.152024026960134506e-03 2.934069931507110596e-01 8.986771106719970703e-02 1.491013020277023315e-01
1.167000000000000000e+03 1.448888111114501953e+01 -2.483093261718750000e+01 -3.364423522725701332e-03 1.179573446279391646e-04 -9.739398374222218990e-04 -2.295050508109852672e-04
1.168000000000000000e+03 1.209226322174072266e+01 -2.493718528747558594e+01 -2.061333972960710526e-03 -7.367114303633570671e-04 -8.394136093556880951e-04 -8.324764348799362779e-05
1.169000000000000000e+03 2.128833198547363281e+01 -2.663927268981933594e+01 3.877525683492422104e-03 1.068062305450439453e+00 3.215819597244262695e-01 3.272131457924842834e-02
1.170000000000000000e+03 2.097181892395019531e+01 2.684761238098144531e+01 1.829004613682627678e-03 -7.031064629554748535e-01 -2.103832364082336426e-01 -5.195114761590957642e-02
1.171000000000000000e+03 2.543746185302734375e+01 3.343840789794921875e+01 -1.913647651672363281e-01 -1.133498921990394592e-02 -6.080992519855499268e-02 -1.989037841558456421e-01
1.172000000000000000e+03 2.105766487121582031e+01 1.140279483795166016e+01 1.833906280808150768e-03 -6.562547087669372559e-01 -1.963262259960174561e-01 5.283032357692718506e-02
1.173000000000000000e+03 2.093211555480957031e+01 3.100719451904296875e+01 -2.354345982894301414e-03 -2.563190758228302002e-01 -7.760202139616012573e-02 -4.703839868307113647e-02
1.174000000000000000e+03 1.483004760742187500e+01 -2.152362585067749023e+00 -1.866213860921561718e-04 -9.827603935264050961e-05 -8.546922617824748158e-05 1.938136847456917167e-05
1.175000000000000000e+03 2.163093948364257812e+01 -9.540570259094238281e+00 5.633960012346506119e-03 8.406795263290405273e-01 2.538940608501434326e-01 8.622693270444869995e-02
1.176000000000000000e+03 2.169178390502929688e+01 -6.749930381774902344e+00 -5.968227516859769821e-03 7.478137612342834473e-01 2.225536555051803589e-01 9.903109818696975708e-02
1.177000000000000000e+03 2.230488395690917969e+01 1.013029575347900391e+01 4.167763516306877136e-03 -2.347117662429809570e-01 -6.916320323944091797e-02 1.556713283061981201e-01
1.178000000000000000e+03 2.346072387695312500e+01 1.731551170349121094e+01 5.293532088398933411e-02 -3.803916573524475098e-01 -9.823689609766006470e-02 1.136845797300338745e-01
1.179000000000000000e+03 2.101135253906250000e+01 2.264798545837402344e+01 5.438133608549833298e-03 -1.017956972122192383e+00 -3.037556409835815430e-01 -2.193708904087543488e-02
1.180000000000000000e+03 2.317320060729980469e+01 2.564529037475585938e+01 4.482912272214889526e-02 -4.618948400020599365e-01 -1.251197159290313721e-01 -1.873318701982498169e-01
1.181000000000000000e+03 2.103257369995117188e+01 1.984350013732910156e+01 5.532816983759403229e-03 -1.076573371887207031e+00 -3.213121891021728516e-01 3.588852938264608383e-03
1.182000000000000000e+03 2.222369956970214844e+01 1.998850440979003906e+01 2.578662149608135223e-02 -7.580689787864685059e-01 -2.196847051382064819e-01 3.987702541053295135e-03
1.183000000000000000e+03 2.340201187133789062e+01 2.012420654296875000e+01 6.454441696405410767e-02 -4.788561165332794189e-01 -1.242935135960578918e-01 1.314462535083293915e-02
1.184000000000000000e+03 2.225905418395996094e+01 1.717855834960937500e+01 2.068779990077018738e-02 -6.833972930908203125e-01 -1.988128423690795898e-01 6.957823038101196289e-02
1.185000000000000000e+03 2.224417686462402344e+01 1.858560752868652344e+01 2.439104206860065460e-02 -7.308071255683898926e-01 -2.119248211383819580e-01 3.859337791800498962e-02
1.186000000000000000e+03 2.201244926452636719e+01 2.831893539428710938e+01 3.623771481215953827e-03 -4.429460465908050537e-01 -1.317966878414154053e-01 -1.576979756355285645e-01
1.187000000000000000e+03 2.323539543151855469e+01 2.427380180358886719e+01 5.567631497979164124e-02 -4.968635737895965576e-01 -1.323561817407608032e-01 -1.454119235277175903e-01
1.188000000000000000e+03 2.228286361694335938e+01 1.436313533782958984e+01 1.331983786076307297e-02 -5.366709828376770020e-01 -1.570053398609161377e-01 1.184109970927238464e-01
1.189000000000000000e+03 1.326663970947265625e+01 -1.467031097412109375e+01 -1.369508914649486542e-03 -1.673125661909580231e-04 -4.610464384313672781e-04 3.348608152009546757e-04
1.190000000000000000e+03 1.361069297790527344e+01 -7.959018707275390625e+00 8.650847594253718853e-04 5.514447184395976365e-05 2.760687784757465124e-04 -1.303369353991001844e-04
1.191000000000000000e+03 1.461505126953125000e+01 -7.938522338867187500e+00 -9.547139052301645279e-04 -2.212167055404279381e-05 -2.930506598204374313e-04 3.462981840129941702e-05
1.192000000000000000e+03 1.175651168823242188e+01 -3.499601364135742188e+00 6.547926459461450577e-04 -1.430287193215917796e-05 1.921469374792650342e-04 -2.515188825782388449e-04
1.193000000000000000e+03 1.344021892547607422e+01 -1.197780704498291016e+01 -1.182698528282344341e-03 -8.830204751575365663e-05 -3.813001676462590694e-04 2.174938417738303542e-04
1.194000000000000000e+03 1.455632495880126953e+01 -1.209610939025878906e+01 1.328922226093709469e-03 3.774149445234797895e-05 4.099991347175091505e-04 -1.536809577373787761e-04
1.195000000000000000e+03 1.365275955200195312e+01 -5.341491222381591797e+00 6.891440716572105885e-04 3.659156209323555231e-05 2.177206915803253651e-04 -8.099389378912746906e-05
1.196000000000000000e+03 1.462705516815185547e+01 -5.195103645324707031e+00 -6.614088197238743305e-04 -2.902098094637040049e-05 -2.071289345622062683e-04 -3.418770575080998242e-05
1.197000000000000000e+03 1.449680042266845703e+01 -1.487178516387939453e+01 1.582077355124056339e-03 8.224519842769950628e-05 4.992967587895691395e-04 -2.652748662512749434e-04
1.198000000000000000e+03 1.433062934875488281e+01 -1.905558204650878906e+01 -2.200136194005608559e-03 -3.277642099419608712e-05 -6.698737852275371552e-04 4.567124706227332354e-04
1.199000000000000000e+03 2.196649169921875000e+01 2.968083190917968750e+01 -5.443390924483537674e-03 -3.363430202007293701e-01 -1.025359258055686951e-01 -1.518719047307968140e-01
1.200000000000000000e+03 2.307522773742675781e+01 2.839241027832031250e+01 6.524248048663139343e-03 -3.382005393505096436e-01 -9.950288385152816772e-02 -2.311510592699050903e-01
1.201000000000000000e+03 1.367142677307128906e+00 -4.009709167480468750e+01 2.589917508885264397e-03 -3.298670519143342972e-03 -2.126259350916370749e-04 -3.352237690705806017e-04
1.202000000000000000e+03 8.272024393081665039e-01 3.737651443481445312e+01 1.868243911303579807e-03 -4.471344436751678586e-05 5.470591131597757339e-04 -2.876920334529131651e-04
1.203000000000000000e+03 6.415649652481079102e-01 3.323423767089843750e+01 -2.215734682977199554e-03 -1.437814935343340039e-04 -7.078548660501837730e-04 3.070747188758105040e-04
1.204000000000000000e+03 6.316064000129699707e-01 2.622567749023437500e+01 1.624254276975989342e-03 2.639243757585063577e-05 4.951940500177443027e-04 -9.285499800171237439e-06
1.205000000000000000e+03 1.881933808326721191e+00 2.898468399047851562e+01 -1.891376916319131851e-03 -1.640935079194605350e-05 -5.723358481191098690e-04 -2.814160143316257745e-05
1.206000000000000000e+03 7.707486152648925781e-01 -3.600379180908203125e+01 -3.063070354983210564e-03 -1.556689850986003876e-03 -1.385928015224635601e-03 -1.077478518709540367e-03
1.207000000000000000e+03 2.127630472183227539e+00 -3.302270889282226562e+01 2.371237147599458694e-03 -2.880285028368234634e-04 6.249626167118549347e-04 -1.388010787195526063e-05
1.208000000000000000e+03 3.195712804794311523e+00 2.757127952575683594e+01 -1.783397747203707695e-03 -1.244133309228345752e-04 -5.723432986997067928e-04 9.154973668046295643e-05
1.209000000000000000e+03 3.122826576232910156e+00 2.473362922668457031e+01 -1.709524542093276978e-03 -1.040257266140542924e-04 -5.440650857053697109e-04 -2.604479959700256586e-04
1.210000000000000000e+03 1.946781516075134277e+00 3.307947921752929688e+01 1.931122853420674801e-03 8.935848018154501915e-05 6.061444291844964027e-04 -2.313639997737482190e-04
1.211000000000000000e+03 2.709871292114257812e+00 3.819854736328125000e+01 1.409180811606347561e-03 9.313013288192451000e-04 7.021446363069117069e-04 -8.340735221281647682e-04
1.212000000000000000e+03 3.346531867980957031e+00 3.929594039916992188e+01 -1.313474494963884354e-03 -4.532763268798589706e-04 -5.300252814777195454e-04 1.564593054354190826e-03
1.213000000000000000e+03 2.004109621047973633e+00 -3.027117347717285156e+01 2.006019698455929756e-03 2.157487178919836879e-04 6.665305118076503277e-04 7.529369031544774771e-05
1.214000000000000000e+03 1.954729437828063965e+00 -2.748767852783203125e+01 1.919235568493604660e-03 1.512554445071145892e-04 6.211473373696208000e-04 1.011909407679922879e-04
1.215000000000000000e+03 2.369313001632690430e+00 -3.700349807739257812e+01 -2.817446365952491760e-03 -1.813413226045668125e-03 -1.389257842674851418e-03 -2.264993498101830482e-03
1.216000000000000000e+03 1.994392156600952148e+00 -2.182264518737792969e+01 1.522339647635817528e-03 1.244335144292563200e-04 4.940319340676069260e-04 1.136846112785860896e-04
1.217000000000000000e+03 6.477881669998168945e-01 1.915604591369628906e+01 -1.421796390786767006e-03 -2.503403720766073093e-06 -4.272899241186678410e-04 1.714298741717357188e-05
1.218000000000000000e+03 6.321246027946472168e-01 1.348762416839599609e+01 -1.263000885955989361e-03 1.126775259763235226e-05 -3.755199431907385588e-04 4.110132431378588080e-05
1.219000000000000000e+03 5.704605579376220703e-01 7.820688247680664062e+00 -9.069782681763172150e-04 -1.698097184998914599e-05 -2.771877625491470098e-04 9.887534542940557003e-05
1.220000000000000000e+03 3.638446331024169922e+00 -3.917164611816406250e+01 -2.350766677409410477e-03 -1.876963535323739052e-03 -1.268319087103009224e-03 -1.929059624671936035e-03
1.221000000000000000e+03 3.903132438659667969e+00 -3.556728744506835938e+01 -3.527960507199168205e-03 -1.214809599332511425e-03 -1.422831090167164803e-03 -1.125604030676186085e-03
1.222000000000000000e+03 2.214230775833129883e+00 -3.439428710937500000e+01 -2.769075101241469383e-03 -9.484012844040989876e-04 -1.115242834202945232e-03 -1.123685971833765507e-03
1.223000000000000000e+03 2.057989120483398438e+00 -3.165065956115722656e+01 -2.404295140877366066e-03 -3.252030292060226202e-04 -8.188494830392301083e-04 -6.954547134228050709e-04
1.224000000000000000e+03 3.241282701492309570e+00 -2.740860176086425781e+01 -2.304615220054984093e-03 -3.300685057183727622e-05 -7.012866553850471973e-04 2.271845551149453968e-05
1.225000000000000000e+03 2.006846904754638672e+00 -2.324485969543457031e+01 -1.585146179422736168e-03 -6.663362455583410338e-06 -4.775428678840398788e-04 -4.204117794870398939e-05
1.226000000000000000e+03 1.964714765548706055e+00 -2.608426094055175781e+01 -1.844286685809493065e-03 9.844428859651088715e-05 -5.237527075223624706e-04 -4.346153218648396432e-05
1.227000000000000000e+03 3.240218400955200195e+00 -2.026126861572265625e+01 1.654740190133452415e-03 -1.758134749252349138e-05 4.911476280540227890e-04 1.315305999014526606e-04
1.228000000000000000e+03 6.380032896995544434e-01 -1.911318969726562500e+01 -1.269296859391033649e-03 2.356460936425719410e-05 -3.737196966540068388e-04 -8.423472172580659389e-05
1.229000000000000000e+03 1.906737923622131348e+00 -1.898777198791503906e+01 1.381554291583597660e-03 2.902979213104117662e-05 4.231752245686948299e-04 1.128842122852802277e-04
1.230000000000000000e+03 1.858732342720031738e+00 -1.619052505493164062e+01 1.175965880975127220e-03 6.720732199028134346e-05 3.729519376065582037e-04 1.446167152607813478e-04
1.231000000000000000e+03 5.995149016380310059e-01 -1.207042026519775391e+01 8.916400256566703320e-04 2.562060035415925086e-05 2.751781721599400043e-04 3.772037234739400446e-05
1.232000000000000000e+03 1.804986715316772461e+00 -1.199475479125976562e+01 -8.983732550404965878e-04 -7.854650175431743264e-05 -2.930759219452738762e-04 -3.383971488801762462e-05
1.233000000000000000e+03 5.144398212432861328e+00 -3.353159427642822266e+00 -2.166691847378388047e-04 -1.648877951083704829e-04 -1.144670968642458320e-04 8.213497494580224156e-06
1.234000000000000000e+03 3.656967878341674805e+00 -2.774675607681274414e+00 1.336350396741181612e-04 4.380175596452318132e-05 5.323103687260299921e-05 1.246092433575540781e-04
1.235000000000000000e+03 2.709089994430541992e+00 -4.173649787902832031e+00 5.548905464820563793e-04 2.354383323108777404e-04 2.370986621826887131e-04 -2.748535189311951399e-04
1.236000000000000000e+03 1.375139594078063965e+00 -3.569866895675659180e+00 -5.500772385857999325e-04 5.552989750867709517e-05 -1.483641972299665213e-04 -6.215553003130480647e-05
1.237000000000000000e+03 4.737662076950073242e-01 5.028114318847656250e+00 -9.019559365697205067e-04 -7.415653089992702007e-05 -2.928337198682129383e-04 -6.671286246273666620e-05
1.238000000000000000e+03 2.438662052154541016e+00 4.426016807556152344e+00 1.644191070226952434e-04 -6.321093678707256913e-05 3.036245288967620581e-05 3.665415279101580381e-04
1.239000000000000000e+03 1.791813969612121582e+00 1.057170867919921875e+01 1.159797655418515205e-03 -2.722739191085565835e-05 3.397710679564625025e-04 -1.362888579024001956e-04
1.240000000000000000e+03 5.982853770256042480e-01 1.065130519866943359e+01 -1.126724528148770332e-03 3.473579909041291103e-06 -3.369752666912972927e-04 8.545935270376503468e-05
1.241000000000000000e+03 1.897237181663513184e+00 1.341563606262207031e+01 1.302897813729941845e-03 -4.358186197350732982e-05 3.777948149945586920e-04 -3.240050136810168624e-05
1.242000000000000000e+03 1.895780801773071289e+00 2.055577087402343750e+01 -1.580373151227831841e-03 1.386967778671532869e-05 -4.699510172940790653e-04 -7.574742630822584033e-05
1.243000000000000000e+03 1.939132928848266602e+00 1.913790702819824219e+01 1.495444565080106258e-03 -1.129807333200005814e-05 4.452439316082745790e-04 4.576862920657731593e-05
1.244000000000000000e+03 1.883206129074096680e+00 2.478317451477050781e+01 1.622740412130951881e-03 6.208771083038300276e-05 5.054484354332089424e-04 1.012294596876017749e-04
1.245000000000000000e+03 4.435924530029296875e+01 3.513428115844726562e+01 1.026650309562683105e+00 5.042497158050537109e+00 1.820744276046752930e+00 -3.356226444244384766e+00
1.246000000000000000e+03 4.391308212280273438e+01 3.552300262451171875e+01 8.276743888854980469e-01 3.958541154861450195e+00 1.435864686965942383e+00 -2.785653114318847656e+00
1.247000000000000000e+03 4.559272003173828125e+01 3.443565368652343750e+01 5.488018989562988281e-01 1.292639923095703125e+01 4.042560100555419922e+00 -5.338865280151367188e+00
1.248000000000000000e+03 4.481349182128906250e+01 3.123284149169921875e+01 5.877673625946044922e+00 5.934424877166748047e+00 3.543629646301269531e+00 6.892792224884033203e+00
1.249000000000000000e+03 4.462263107299804688e+01 3.125633239746093750e+01 5.737165927886962891e+00 4.777356624603271484e+00 3.154356718063354492e+00 6.119081497192382812e+00
1.250000000000000000e+03 4.321665191650390625e+01 3.141902732849121094e+01 2.830949544906616211e+00 7.312043905258178711e-01 1.068646192550659180e+00 2.058288335800170898e+00
1.251000000000000000e+03 4.491983795166015625e+01 3.062343597412109375e+01 4.308892726898193359e+00 8.611112594604492188e+00 3.876001596450805664e+00 6.931509971618652344e+00
1.252000000000000000e+03 4.520798492431640625e+01 3.109723854064941406e+01 5.107115268707275391e+00 1.046506023406982422e+01 4.671652793884277344e+00 8.126106262207031250e+00
1.253000000000000000e+03 1.242766666412353516e+01 -2.676214456558227539e+00 3.481784951873123646e-04 -7.882164936745539308e-06 1.020888958009891212e-04 4.806004653801210225e-05
1.254000000000000000e+03 3.929292297363281250e+01 3.160489654541015625e+01 -2.387672066688537598e-01 1.156637072563171387e-01 -3.693105280399322510e-02 2.038674503564834595e-01
1.255000000000000000e+03 4.046975326538085938e+01 3.090484237670898438e+01 9.166570305824279785e-01 3.108733594417572021e-01 3.682591319084167480e-01 7.085924148559570312e-01
1.256000000000000000e+03 3.986906814575195312e+01 3.099062347412109375e+01 5.473680496215820312e-01 2.480222135782241821e-01 2.386170774698257446e-01 4.880108833312988281e-01
1.257000000000000000e+03 4.239136123657226562e+01 3.792214965820312500e+01 7.381243705749511719e-01 3.192628622055053711e+00 1.179225921630859375e+00 -1.399448156356811523e+00
1.258000000000000000e+03 2.694193840026855469e+01 3.341920852661132812e+01 -2.926235795021057129e-01 2.712330967187881470e-02 -7.965008169412612915e-02 -2.196668982505798340e-01
1.259000000000000000e+03 2.983670806884765625e+01 3.239388275146484375e+01 -4.090625345706939697e-01 8.976759016513824463e-02 -9.578847885131835938e-02 -2.814358174800872803e-01
1.260000000000000000e+03 2.018999481201171875e+01 3.920920181274414062e+01 -2.166827674955129623e-03 -2.632403047755360603e-03 -1.439769286662340164e-03 2.510373480618000031e-03
1.261000000000000000e+03 2.104049301147460938e+01 3.902694320678710938e+01 -7.970775477588176727e-03 8.908283198252320290e-04 -2.123984042555093765e-03 3.371671773493289948e-03
1.262000000000000000e+03 1.386806297302246094e+01 2.692383050918579102e+00 5.186030175536870956e-04 -2.229578094556927681e-04 8.869355224305763841e-05 1.419586333213374019e-04
1.263000000000000000e+03 3.810142278671264648e+00 2.767421722412109375e+00 -3.424822352826595306e-04 -1.951720187207683921e-04 -1.612962805666029453e-04 9.621942444937303662e-05
1.264000000000000000e+03 6.030216693878173828e+00 2.657423734664916992e+00 2.036766381934285164e-04 2.414462360320612788e-04 1.335368579020723701e-04 -1.017202430375618860e-05
1.265000000000000000e+03 6.021802425384521484e+00 3.429345846176147461e+00 -2.236707077827304602e-04 -2.882218977902084589e-04 -1.535677874926477671e-04 -2.553270496719051152e-05
1.266000000000000000e+03 6.751008033752441406e+00 3.415210962295532227e+00 2.982994774356484413e-04 2.450352767482399940e-04 1.630004262551665306e-04 6.500414747279137373e-05
1.267000000000000000e+03 8.937761306762695312e+00 3.345139026641845703e+00 -3.559342876542359591e-04 -1.701825240161269903e-04 -1.578350347699597478e-04 -2.128051710315048695e-04
1.268000000000000000e+03 6.758080959320068359e+00 2.640584468841552734e+00 -2.261942572658881545e-04 -2.262477355543524027e-04 -1.357325963908806443e-04 -2.915364530053921044e-05
1.269000000000000000e+03 7.471371650695800781e+00 3.389869689941406250e+00 -2.856093051377683878e-04 -2.316202444490045309e-04 -1.551688619656488299e-04 -5.506934030563570559e-05
1.270000000000000000e+03 4.518719196319580078e+00 3.577923536300659180e+00 -2.681530604604631662e-04 -2.617358986753970385e-04 -1.589666790096089244e-04 1.607488957233726978e-04
1.271000000000000000e+03 4.545559406280517578e+00 2.736226558685302734e+00 2.438696537865325809e-04 2.266950468765571713e-04 1.411694101989269257e-04 -1.254558155778795481e-04
1.272000000000000000e+03 1.828409790992736816e+00 2.614591121673583984e+00 2.827289281412959099e-04 2.027380396611988544e-04 1.456400932511314750e-04 9.165183291770517826e-05
1.273000000000000000e+03 1.114154434204101562e+01 2.508043289184570312e+00 -4.419671604409813881e-04 4.883470319327898324e-05 -1.179397368105128407e-04 5.747897375840693712e-05
1.274000000000000000e+03 1.120949363708496094e+01 3.233014345169067383e+00 6.457381532527506351e-04 -1.170704927062615752e-04 1.586002908879891038e-04 -3.610543353715911508e-05
1.275000000000000000e+03 2.377501487731933594e+01 3.337276077270507812e+01 -9.984353929758071899e-02 -5.759035795927047729e-02 -4.723016917705535889e-02 -1.558067351579666138e-01
1.276000000000000000e+03 2.462561607360839844e+01 3.239177703857421875e+01 -1.195070669054985046e-01 -6.531652063131332397e-02 -5.544707551598548889e-02 -2.316994220018386841e-01
1.277000000000000000e+03 3.055588340759277344e+01 3.229491424560546875e+01 -4.424622654914855957e-01 9.996223449707031250e-02 -1.027500107884407043e-01 -2.781731784343719482e-01
1.278000000000000000e+03 3.127826690673828125e+01 3.218824768066406250e+01 -4.697616696357727051e-01 1.116681024432182312e-01 -1.074280738830566406e-01 -2.691827118396759033e-01
1.279000000000000000e+03 2.194535636901855469e+01 3.222515869140625000e+01 -2.270865254104137421e-02 -1.508234143257141113e-01 -5.205962061882019043e-02 -1.132567003369331360e-01
1.280000000000000000e+03 2.377241134643554688e+01 3.229531097412109375e+01 -8.245950192213058472e-02 -9.979543089866638184e-02 -5.467648059129714966e-02 -2.037319242954254150e-01
1.281000000000000000e+03 2.840763664245605469e+01 3.254417037963867188e+01 -3.323116898536682129e-01 6.032138690352439880e-02 -8.159708976745605469e-02 -2.823694944381713867e-01
1.282000000000000000e+03 2.768924140930175781e+01 3.258643341064453125e+01 -2.908348143100738525e-01 4.144087806344032288e-02 -7.481817901134490967e-02 -2.796305418014526367e-01
1.283000000000000000e+03 3.272632598876953125e+01 3.195979690551757812e+01 -5.029104351997375488e-01 1.252320706844329834e-01 -1.133035197854042053e-01 -2.424404174089431763e-01
1.284000000000000000e+03 3.345374679565429688e+01 3.184412193298339844e+01 -5.064530968666076660e-01 1.272083669900894165e-01 -1.137734130024909973e-01 -2.232304066419601440e-01
1.285000000000000000e+03 1.256687927246093750e+01 2.789356708526611328e+00 1.698232081253081560e-04 7.550420559709891677e-05 7.359822484431788325e-05 -1.979767403099685907e-04
1.286000000000000000e+03 9.494194030761718750e+00 -3.420068502426147461e+00 -2.292849676450714469e-04 -2.164821053156629205e-04 -1.337301218882203102e-04 1.656446984270587564e-04
1.287000000000000000e+03 1.362535190582275391e+01 -4.095858097076416016e+00 -6.310284952633082867e-04 -4.399431782076135278e-05 -2.025068533839657903e-04 1.007404061965644360e-04
1.288000000000000000e+03 9.404104232788085938e+00 -4.193600654602050781e+00 2.648404333740472794e-04 2.235317078884691000e-04 1.465116365579888225e-04 -1.528815191704779863e-04
1.289000000000000000e+03 3.641249465942382812e+01 3.202869033813476562e+01 -7.208567857742309570e-01 9.702793508768081665e-02 -1.871486604213714600e-01 -6.687522679567337036e-02
1.290000000000000000e+03 3.783327865600585938e+01 3.123613739013671875e+01 -1.357128471136093140e-01 1.520556211471557617e-01 4.902836401015520096e-03 7.910624146461486816e-02
1.291000000000000000e+03 3.494416046142578125e+01 3.226793289184570312e+01 -7.569440007209777832e-01 1.017820537090301514e-01 -1.965485811233520508e-01 -1.324076205492019653e-01
1.292000000000000000e+03 3.711105346679687500e+01 3.132059478759765625e+01 -2.634893357753753662e-01 1.438444852828979492e-01 -3.589345142245292664e-02 -2.636897610500454903e-03
1.293000000000000000e+03 3.418261718750000000e+01 3.173028755187988281e+01 -4.950373172760009766e-01 1.323688477277755737e-01 -1.088005453348159790e-01 -1.961596161127090454e-01
1.294000000000000000e+03 3.491349792480468750e+01 3.161814880371093750e+01 -4.700936377048492432e-01 1.317790299654006958e-01 -1.014943867921829224e-01 -1.638418287038803101e-01
1.295000000000000000e+03 3.637911987304687500e+01 3.141292572021484375e+01 -3.592362999916076660e-01 1.361375749111175537e-01 -6.692962348461151123e-02 -6.928338110446929932e-02
1.296000000000000000e+03 3.922346878051757812e+01 3.107393264770507812e+01 2.659471929073333740e-01 2.010770440101623535e-01 1.401072740554809570e-01 3.208127021789550781e-01
1.297000000000000000e+03 1.293317985534667969e+01 3.211887598037719727e+00 -4.534479739959351718e-05 9.561123442836105824e-05 1.507993147242814302e-05 3.419889835640788078e-04
1.298000000000000000e+03 1.353514099121093750e+01 4.230564117431640625e+00 8.233850821852684021e-04 2.903477070503868163e-05 2.557259576860815287e-04 2.051413139270152897e-05
1.299000000000000000e+03 3.564585113525390625e+01 3.151170349121093750e+01 -4.240965545177459717e-01 1.361486762762069702e-01 -8.638436347246170044e-02 -1.215616166591644287e-01
1.300000000000000000e+03 6.521363258361816406e+00 -3.369436264038085938e+00 -3.137518069706857204e-04 -1.417665334884077311e-04 -1.366555079584941268e-04 -6.128782843006774783e-05
1.301000000000000000e+03 2.681228637695312500e+00 -7.777634620666503906e+00 -7.710701320320367813e-04 -1.369915844406932592e-05 -2.354307798668742180e-04 2.266608862555585802e-05
1.302000000000000000e+03 7.895141601562500000e+00 -4.886691570281982422e+00 -3.000726865138858557e-04 -2.951919450424611568e-04 -1.785793865565210581e-04 1.144215420936234295e-04
1.303000000000000000e+03 5.820191383361816406e+00 -3.355959892272949219e+00 3.416076360736042261e-04 1.174648496089503169e-04 1.377217413391917944e-04 1.514244559075450525e-05
1.304000000000000000e+03 5.806827068328857422e+00 -2.600275754928588867e+00 -2.104934392264112830e-04 -1.439248735550791025e-04 -1.063254894688725471e-04 -2.551478428358677775e-05
1.305000000000000000e+03 2.208174467086791992e+00 -3.308194875717163086e+00 1.110383018385618925e-04 -8.983883890323340893e-05 6.359839062497485429e-06 8.884060662239789963e-05
1.306000000000000000e+03 4.037220954895019531e+00 -4.323923587799072266e+00 1.025513993226923048e-04 2.170920051867142320e-04 9.589301771484315395e-05 4.319116706028580666e-04
1.307000000000000000e+03 1.496071577072143555e+00 -5.026165008544921875e+00 6.545153446495532990e-04 4.160499156569130719e-05 2.088360924972221255e-04 1.874078589025884867e-05
1.308000000000000000e+03 8.737761497497558594e+00 -3.390225648880004883e+00 2.380251389695331454e-04 2.068815665552392602e-04 1.334720145678147674e-04 -1.022295837174169719e-04
1.309000000000000000e+03 4.769564437866210938e+01 3.049360275268554688e+01 3.575685739517211914e+00 1.704306793212890625e+01 6.185626029968261719e+00 -4.626190364360809326e-01
1.310000000000000000e+03 2.684102821350097656e+01 4.031056594848632812e+01 2.898691222071647644e-02 -1.003266796469688416e-01 -2.140193060040473938e-02 7.870971411466598511e-02
1.311000000000000000e+03 2.819746208190917969e+01 3.990921020507812500e+01 3.564470633864402771e-02 -1.388305872678756714e-01 -3.095576725900173187e-02 1.037615984678268433e-01
1.312000000000000000e+03 2.289799308776855469e+01 3.332806396484375000e+01 -6.100809946656227112e-02 -7.756593823432922363e-02 -4.157220944762229919e-02 -1.241492182016372681e-01
1.313000000000000000e+03 2.211426544189453125e+01 4.173504638671875000e+01 -1.523861661553382874e-02 -5.958287976682186127e-03 -6.359071470797061920e-03 -1.045612618327140808e-02
1.314000000000000000e+03 1.883126831054687500e+01 3.774918746948242188e+01 1.180897094309329987e-02 -6.929436232894659042e-03 1.463860389776527882e-03 -1.169336843304336071e-03
1.315000000000000000e+03 4.742475128173828125e+01 3.504531097412109375e+01 2.734090387821197510e-01 1.786066818237304688e+01 5.440223217010498047e+00 1.039336442947387695e+00
1.316000000000000000e+03 4.921896743774414062e+01 3.169676017761230469e+01 6.523017883300781250e+00 1.390100097656250000e+01 6.127205848693847656e+00 -4.922167658805847168e-01
1.317000000000000000e+03 5.000001907348632812e+01 3.243255996704101562e+01 6.158684730529785156e+00 1.264906024932861328e+01 5.642323493957519531e+00 6.552771925926208496e-01
1.318000000000000000e+03 4.960477066040039062e+01 3.382944488525390625e+01 4.911128520965576172e+00 1.386211395263671875e+01 5.631972789764404297e+00 2.245955705642700195e+00
1.319000000000000000e+03 1.145447254180908203e+01 1.644908714294433594e+01 1.234606956131756306e-03 1.643676660023629665e-04 4.196923982817679644e-04 -4.797411093022674322e-04
1.320000000000000000e+03 1.232494735717773438e+01 1.043196201324462891e+01 9.177923202514648438e-04 2.044837892754003406e-04 3.366828314028680325e-04 1.947767595993354917e-04
1.321000000000000000e+03 3.852658462524414062e+01 3.773942947387695312e+01 2.051888108253479004e-01 -1.354601979255676270e-02 5.749283730983734131e-02 2.502306997776031494e-01
1.322000000000000000e+03 1.224228286743164062e+01 2.628064918518066406e+01 -2.991406712681055069e-03 5.791411604150198400e-05 -8.800477953627705574e-04 1.263240701518952847e-04
1.323000000000000000e+03 2.296616554260253906e+01 -1.078005695343017578e+01 1.417985535226762295e-03 1.084402918815612793e+00 3.257462978363037109e-01 1.269088089466094971e-01
1.324000000000000000e+03 3.288063812255859375e+01 3.991707992553710938e+01 2.312150746583938599e-01 -4.006760716438293457e-01 -5.083829537034034729e-02 3.246993422508239746e-01
1.325000000000000000e+03 2.333101654052734375e+01 3.113177418708801270e-01 4.726026090793311596e-04 6.883425116539001465e-01 2.066445350646972656e-01 2.118774950504302979e-01
1.326000000000000000e+03 2.436947822570800781e+01 -6.508648872375488281e+00 -1.807170733809471130e-02 1.182120442390441895e+00 3.492146134376525879e-01 1.988054960966110229e-01
1.327000000000000000e+03 2.302902603149414062e+01 -6.640785217285156250e+00 -1.179146207869052887e-02 9.638358950614929199e-01 2.856133282184600830e-01 1.519042104482650757e-01
1.328000000000000000e+03 2.284155082702636719e+01 -1.779311752319335938e+01 -1.678960397839546204e-02 1.202123284339904785e+00 3.556000888347625732e-01 8.107122778892517090e-02
1.329000000000000000e+03 2.195342063903808594e+01 -1.175850152969360352e+00 5.696331616491079330e-03 5.252273082733154297e-01 1.592770963907241821e-01 1.298830062150955200e-01
1.330000000000000000e+03 2.326377868652343750e+01 -1.088035106658935547e+00 -3.441168228164315224e-03 7.534400820732116699e-01 2.249996811151504517e-01 1.969218999147415161e-01
1.331000000000000000e+03 1.291419124603271484e+01 3.193227767944335938e+01 -4.636577796190977097e-03 4.513431922532618046e-04 -1.255570445209741592e-03 -1.326910569332540035e-04
1.332000000000000000e+03 1.455106735229492188e+01 3.306165695190429688e+01 -5.306901875883340836e-03 3.532218106556683779e-04 -1.486103981733322144e-03 7.740853470750153065e-04
1.333000000000000000e+03 1.316816234588623047e+01 2.177597808837890625e+01 -2.287704963237047195e-03 -7.567585998913273215e-05 -7.090142462402582169e-04 1.819872413761913776e-04
1.334000000000000000e+03 1.179023742675781250e+01 1.777682876586914062e+01 -1.650686957873404026e-03 -9.054765541804954410e-05 -5.223703919909894466e-04 2.501764683984220028e-04
1.335000000000000000e+03 2.286672019958496094e+01 -1.639013481140136719e+01 -3.332808846607804298e-03 1.182913303375244141e+00 3.538741767406463623e-01 8.322095125913619995e-02
1.336000000000000000e+03 1.160538673400878906e+01 1.423481941223144531e+01 -8.104527369141578674e-04 -8.026495925150811672e-05 -2.672153059393167496e-04 -6.801438285037875175e-04
1.337000000000000000e+03 1.358382892608642578e+01 6.534751415252685547e+00 8.057391969487071037e-04 6.298581865848973393e-05 2.606174966786056757e-04 -5.602104010904440656e-06
1.338000000000000000e+03 1.049813556671142578e+01 4.903047084808349609e+00 -7.547903223894536495e-04 -6.322156696114689112e-05 -2.454035566188395023e-04 -2.677246811799705029e-04
1.339000000000000000e+03 1.097979354858398438e+01 1.270391464233398438e+01 -6.037111161276698112e-04 -5.347396363504230976e-04 -3.415352257434278727e-04 -4.180568212177604437e-04
1.340000000000000000e+03 1.358663463592529297e+01 5.315173625946044922e+00 -7.493364391848444939e-04 -2.570847573224455118e-05 -2.325134701095521450e-04 1.626885932637378573e-05
1.341000000000000000e+03 8.950003623962402344e+00 4.076202869415283203e+00 4.103630490135401487e-04 2.056074445135891438e-04 1.847911480581387877e-04 3.067528596147894859e-04
1.342000000000000000e+03 7.600303173065185547e+00 -3.471974945068359375e+01 -1.886949467007070780e-04 2.208646619692444801e-03 6.059855222702026367e-04 -2.836482017301023006e-04
1.343000000000000000e+03 1.179756832122802734e+01 2.049077224731445312e+01 -2.174886176362633705e-03 1.179487444460391998e-04 -6.170812412165105343e-04 -3.002961602760478854e-05
1.344000000000000000e+03 7.467791748046875000e+01 -3.435640335083007812e+01 -2.785936743021011353e-02 9.110827445983886719e+00 2.724890470504760742e+00 -3.952906653285026550e-02
1.345000000000000000e+03 7.672673034667968750e+01 -3.569572448730468750e+01 -1.494496874511241913e-02 9.431402206420898438e+00 2.824937105178833008e+00 9.707046672701835632e-03
1.346000000000000000e+03 7.551916503906250000e+01 -2.329889678955078125e+01 -1.245895121246576309e-02 9.146270751953125000e+00 2.740143537521362305e+00 -6.024221703410148621e-02
1.347000000000000000e+03 7.800106048583984375e+01 -2.901489830017089844e+01 -2.730139764025807381e-03 9.584947586059570312e+00 2.874665260314941406e+00 -2.413297444581985474e-02
1.348000000000000000e+03 7.793315124511718750e+01 -3.569839477539062500e+01 -1.256771013140678406e-02 9.604528427124023438e+00 2.877588272094726562e+00 1.807546243071556091e-02
1.349000000000000000e+03 7.275179290771484375e+01 -3.786314392089843750e+01 -2.668648399412631989e-02 8.764467239379882812e+00 2.621334075927734375e+00 -3.949905559420585632e-02
1.350000000000000000e+03 7.557918548583984375e+01 1.970105361938476562e+01 7.534225587733089924e-04 6.552022457122802734e+00 1.965832710266113281e+00 -7.003694772720336914e-01
1.351000000000000000e+03 7.808604431152343750e+01 1.544361591339111328e+01 -1.767895068041980267e-03 6.904306411743164062e+00 2.070761680603027344e+00 -3.311709761619567871e-01
1.352000000000000000e+03 7.674107360839843750e+01 3.546047592163085938e+01 1.230288520455360413e-01 4.640182495117187500e+00 1.428963422775268555e+00 -2.958668172359466553e-01
1.353000000000000000e+03 7.713085937500000000e+01 3.378865051269531250e+01 1.191387921571731567e-01 4.695219993591308594e+00 1.444307684898376465e+00 -2.881079316139221191e-01
1.354000000000000000e+03 7.807976531982421875e+01 -2.214290237426757812e+01 -2.964538289234042168e-03 9.527667045593261719e+00 2.857410907745361328e+00 -3.688473254442214966e-02
1.355000000000000000e+03 7.680707550048828125e+01 -2.339184951782226562e+01 -7.989114150404930115e-03 9.344919204711914062e+00 2.801079034805297852e+00 -4.924979805946350098e-02
1.356000000000000000e+03 7.653001403808593750e+01 -3.014806747436523438e+01 -9.789911098778247833e-03 9.357060432434082031e+00 2.804181337356567383e+00 -2.947382815182209015e-02
1.357000000000000000e+03 7.666736602783203125e+01 -2.879446029663085938e+01 -1.120933424681425095e-02 9.369414329528808594e+00 2.807461500167846680e+00 -3.199169784784317017e-02
1.358000000000000000e+03 7.680385589599609375e+01 -2.609806060791015625e+01 -3.488443093374371529e-03 9.368489265441894531e+00 2.809500217437744141e+00 -3.810151293873786926e-02
1.359000000000000000e+03 7.675864410400390625e+01 -2.744081306457519531e+01 -3.123025875538587570e-03 9.373205184936523438e+00 2.811024665832519531e+00 -4.012190178036689758e-02
1.360000000000000000e+03 7.639088439941406250e+01 -3.150574684143066406e+01 -1.828653365373611450e-02 9.344336509704589844e+00 2.797815084457397461e+00 -2.434854768216609955e-02
1.361000000000000000e+03 7.637632751464843750e+01 -3.431900405883789062e+01 -2.266353182494640350e-02 9.388919830322265625e+00 2.809876918792724609e+00 2.844149130396544933e-04
1.362000000000000000e+03 7.369447326660156250e+01 -2.931233787536621094e+01 -1.488675363361835480e-02 8.915596961975097656e+00 2.670212984085083008e+00 -4.705184325575828552e-02
1.363000000000000000e+03 7.809918212890625000e+01 2.232674217224121094e+01 -1.956122461706399918e-03 5.816901206970214844e+00 1.744483470916748047e+00 -3.402811288833618164e-01
1.364000000000000000e+03 7.685965728759765625e+01 1.964183807373046875e+01 5.681685172021389008e-03 6.399964809417724609e+00 1.921693921089172363e+00 -5.282542705535888672e-01
1.365000000000000000e+03 7.556589508056640625e+01 2.230933380126953125e+01 2.591620013117790222e-02 6.239449977874755859e+00 1.879609823226928711e+00 -6.874402761459350586e-01
1.366000000000000000e+03 7.685626220703125000e+01 2.098234367370605469e+01 5.311091430485248566e-03 6.211687088012695312e+00 1.865099549293518066e+00 -5.312564373016357422e-01
1.367000000000000000e+03 7.672792816162109375e+01 1.269723892211914062e+01 -2.713923156261444092e-02 7.335609436035156250e+00 2.192541122436523438e+00 -4.887088835239410400e-01
1.368000000000000000e+03 7.557314300537109375e+01 8.461464881896972656e+00 -5.734441429376602173e-02 7.800598144531250000e+00 2.322976112365722656e+00 -5.343868136405944824e-01
1.369000000000000000e+03 7.675245666503906250e+01 1.411055278778076172e+01 -1.792676374316215515e-02 7.159368038177490234e+00 2.142432451248168945e+00 -5.042508840560913086e-01
1.370000000000000000e+03 7.678508758544921875e+01 2.367382812500000000e+01 1.312188245356082916e-02 5.859069347381591797e+00 1.761657357215881348e+00 -5.194886326789855957e-01
1.371000000000000000e+03 7.796251678466796875e+01 2.648768997192382812e+01 2.238848432898521423e-02 5.222907066345214844e+00 1.573588609695434570e+00 -3.315430581569671631e-01
1.372000000000000000e+03 7.806870269775390625e+01 -2.077199745178222656e+01 -2.484057098627090454e-03 9.505585670471191406e+00 2.850930452346801758e+00 -3.890297934412956238e-02
1.373000000000000000e+03 7.677322387695312500e+01 -2.204685783386230469e+01 -5.172678269445896149e-03 9.323781013488769531e+00 2.795582532882690430e+00 -5.254796147346496582e-02
1.374000000000000000e+03 7.792307281494140625e+01 3.079155921936035156e+01 1.606878079473972321e-02 4.693119049072265625e+00 1.412756443023681641e+00 -2.492073625326156616e-01
1.375000000000000000e+03 7.541181182861328125e+01 -1.503399562835693359e+01 -2.465282566845417023e-02 9.005695343017578125e+00 2.694312810897827148e+00 -1.234459057450294495e-01
1.376000000000000000e+03 7.546086883544921875e+01 -8.064155578613281250e+00 -3.640441223978996277e-02 8.817930221557617188e+00 2.634457588195800781e+00 -2.040264904499053955e-01
1.377000000000000000e+03 7.806117248535156250e+01 -1.521207904815673828e+01 -5.433120299130678177e-03 9.397363662719726562e+00 2.817579269409179688e+00 -6.128877401351928711e-02
1.378000000000000000e+03 7.561575317382812500e+01 -1.174982905387878418e+00 -4.584091901779174805e-02 8.518478393554687500e+00 2.541791439056396484e+00 -3.165957033634185791e-01
1.379000000000000000e+03 7.807974243164062500e+01 -8.249908447265625000e+00 -7.985158823430538177e-03 9.171664237976074219e+00 2.749103784561157227e+00 -1.005434095859527588e-01
1.380000000000000000e+03 7.811795043945312500e+01 5.661206245422363281e+00 -1.385407894849777222e-02 8.181019783020019531e+00 2.450149536132812500e+00 -2.310152500867843628e-01
1.381000000000000000e+03 7.688346862792968750e+01 2.930423974990844727e+00 -2.623482048511505127e-02 8.346812248229980469e+00 2.496173143386840820e+00 -3.053185045719146729e-01
1.382000000000000000e+03 7.627210998535156250e+01 3.748247528076171875e+01 1.425358951091766357e-01 4.648493289947509766e+00 1.437308788299560547e+00 -2.056583613157272339e-01
1.383000000000000000e+03 7.757876586914062500e+01 3.663570022583007812e+01 6.093124672770500183e-02 4.167952537536621094e+00 1.268665075302124023e+00 -9.724278748035430908e-02
1.384000000000000000e+03 7.810748291015625000e+01 7.056283950805664062e+00 -9.804788045585155487e-03 8.027102470397949219e+00 2.405189275741577148e+00 -2.481112778186798096e-01
1.385000000000000000e+03 7.688105010986328125e+01 5.692391395568847656e+00 -2.798053063452243805e-02 8.104346275329589844e+00 2.422909736633300781e+00 -3.534955382347106934e-01
1.386000000000000000e+03 7.810814666748046875e+01 -1.296271562576293945e+00 -9.283000603318214417e-03 8.788117408752441406e+00 2.633650302886962891e+00 -1.571638435125350952e-01
1.387000000000000000e+03 7.684374237060546875e+01 -2.633661746978759766e+00 -2.389235235750675201e-02 8.730675697326660156e+00 2.612034797668457031e+00 -2.209212332963943481e-01
1.388000000000000000e+03 7.677188110351562500e+01 -9.551973342895507812e+00 -1.874590106308460236e-02 9.041933059692382812e+00 2.706956148147583008e+00 -1.399731636047363281e-01
1.389000000000000000e+03 7.674827575683593750e+01 -1.652564811706542969e+01 -1.243254728615283966e-02 9.229878425598144531e+00 2.765233755111694336e+00 -8.285854756832122803e-02
1.390000000000000000e+03 7.395684051513671875e+01 3.586205291748046875e+01 2.048352509737014771e-01 5.513313770294189453e+00 1.715444684028625488e+00 -3.524744212627410889e-01
1.391000000000000000e+03 7.684868621826171875e+01 1.829303550720214844e+01 -7.470189128071069717e-03 6.587301731109619141e+00 1.973949551582336426e+00 -5.308891534805297852e-01
1.392000000000000000e+03 7.682237243652343750e+01 1.692057991027832031e+01 -7.333093322813510895e-03 6.780940532684326172e+00 2.032082319259643555e+00 -5.245164632797241211e-01
1.393000000000000000e+03 7.677772521972656250e+01 9.890975952148437500e+00 -3.123230859637260437e-02 7.664528369903564453e+00 2.289988756179809570e+00 -4.393998980522155762e-01
1.394000000000000000e+03 7.806137084960937500e+01 -1.381944084167480469e+01 -5.498227197676897049e-03 9.361288070678710938e+00 2.806736946105957031e+00 -6.739792227745056152e-02
1.395000000000000000e+03 7.675009155273437500e+01 -1.512775135040283203e+01 -1.295545697212219238e-02 9.200087547302246094e+00 2.756139755249023438e+00 -9.171264618635177612e-02
1.396000000000000000e+03 7.678405761718750000e+01 -8.165895462036132812e+00 -1.835741288959980011e-02 8.991146087646484375e+00 2.691836595535278320e+00 -1.536491215229034424e-01
1.397000000000000000e+03 7.811875152587890625e+01 1.492654204368591309e+00 -9.314988739788532257e-03 8.574841499328613281e+00 2.569658041000366211e+00 -1.845914870500564575e-01
1.398000000000000000e+03 7.688642883300781250e+01 4.310594081878662109e+00 -3.015488386154174805e-02 8.230607986450195312e+00 2.460135936737060547e+00 -3.295539915561676025e-01
1.399000000000000000e+03 7.681143188476562500e+01 -5.411402225494384766e+00 -2.117605321109294891e-02 8.874861717224121094e+00 2.656105518341064453e+00 -1.846610903739929199e-01
1.400000000000000000e+03 7.679695892333984375e+01 -6.788702011108398438e+00 -2.084288559854030609e-02 8.936162948608398438e+00 2.674595832824707031e+00 -1.687356531620025635e-01
1.401000000000000000e+03 7.682777404785156250e+01 -4.026446819305419922e+00 -2.418872527778148651e-02 8.806483268737792969e+00 2.634688377380371094e+00 -2.026108056306838989e-01
1.402000000000000000e+03 7.674962615966796875e+01 -1.373644447326660156e+01 -1.410149503499269485e-02 9.166429519653320312e+00 2.745698213577270508e+00 -1.028345823287963867e-01
1.403000000000000000e+03 7.676165008544921875e+01 -1.094779872894287109e+01 -1.653466932475566864e-02 9.087625503540039062e+00 2.721327304840087891e+00 -1.256335377693176270e-01
1.404000000000000000e+03 7.544840240478515625e+01 -9.448420524597167969e+00 -3.292476758360862732e-02 8.861650466918945312e+00 2.648617744445800781e+00 -1.851746290922164917e-01
1.405000000000000000e+03 7.674848175048828125e+01 -2.069009590148925781e+01 -6.841165944933891296e-03 9.305150985717773438e+00 2.789492845535278320e+00 -5.764233693480491638e-02
1.406000000000000000e+03 7.674501037597656250e+01 -1.792570304870605469e+01 -1.184304896742105484e-02 9.257777214050292969e+00 2.773780107498168945e+00 -7.352430373430252075e-02
1.407000000000000000e+03 7.541659545898437500e+01 -1.643742942810058594e+01 -2.328259870409965515e-02 9.034873008728027344e+00 2.703476905822753906e+00 -1.086705252528190613e-01
1.408000000000000000e+03 2.228087425231933594e+01 5.868906021118164062e+00 -1.735991449095308781e-03 9.697403013706207275e-02 2.857141196727752686e-02 1.597145348787307739e-01
1.409000000000000000e+03 2.354227828979492188e+01 1.025889301300048828e+01 1.003146823495626450e-02 6.235541775822639465e-02 2.171606570482254028e-02 2.456317692995071411e-01
1.410000000000000000e+03 2.286016845703125000e+01 -2.673816490173339844e+01 -1.148690935224294662e-02 1.303598165512084961e+00 3.876333832740783691e-01 4.617401584982872009e-02
1.411000000000000000e+03 2.143291282653808594e+01 -2.229455184936523438e+01 -1.031487528234720230e-02 1.031163454055786133e+00 3.062545657157897949e-01 3.792608529329299927e-02
1.412000000000000000e+03 2.192960166931152344e+01 3.099891853332519531e+01 -1.203171256929636002e-02 -2.334752082824707031e-01 -7.365208119153976440e-02 -1.361915916204452515e-01
1.413000000000000000e+03 2.351852989196777344e+01 1.308758449554443359e+01 2.529760263860225677e-02 -1.352776288986206055e-01 -3.299400955438613892e-02 2.139582186937332153e-01
1.414000000000000000e+03 1.203034305572509766e+01 -2.611666870117187500e+01 2.304434077814221382e-03 6.524320924654603004e-04 8.870598394423723221e-04 -3.708467120304703712e-04
1.415000000000000000e+03 2.471144866943359375e+01 3.132276153564453125e+01 -8.778335154056549072e-02 -1.003991439938545227e-01 -5.645474791526794434e-02 -2.741732299327850342e-01
1.416000000000000000e+03 2.204871177673339844e+01 2.693748092651367188e+01 1.217964105308055878e-02 -5.456262826919555664e-01 -1.600339859724044800e-01 -1.492920219898223877e-01
1.417000000000000000e+03 2.312023735046386719e+01 2.701562118530273438e+01 2.922030352056026459e-02 -4.064998626708984375e-01 -1.131838634610176086e-01 -2.182597666978836060e-01
1.418000000000000000e+03 1.364037227630615234e+01 -6.636224269866943359e+00 -7.713301456533372402e-04 -4.846799856750294566e-05 -2.459394454490393400e-04 1.011664571706205606e-04
1.419000000000000000e+03 2.208640861511230469e+01 2.555488014221191406e+01 1.873655803501605988e-02 -6.327576041221618652e-01 -1.842063218355178833e-01 -1.294340640306472778e-01
1.420000000000000000e+03 2.450344085693359375e+01 2.163715171813964844e+01 1.171629726886749268e-01 -2.759705483913421631e-01 -4.764227569103240967e-02 -3.550246730446815491e-02
1.421000000000000000e+03 2.123232841491699219e+01 -2.805926322937011719e+01 -4.458169918507337570e-03 1.072432518005371094e+00 3.203922808170318604e-01 3.183856233954429626e-02
1.422000000000000000e+03 2.216020202636718750e+01 2.277613067626953125e+01 2.567745372653007507e-02 -7.449277639389038086e-01 -2.157750874757766724e-01 -6.819659471511840820e-02
1.423000000000000000e+03 2.329888153076171875e+01 2.289775657653808594e+01 6.309241801500320435e-02 -5.103197097778320312e-01 -1.341681778430938721e-01 -9.528002887964248657e-02
1.424000000000000000e+03 2.335597610473632812e+01 2.151569557189941406e+01 6.475482881069183350e-02 -5.042392611503601074e-01 -1.318453252315521240e-01 -4.176045209169387817e-02
1.425000000000000000e+03 2.219485282897949219e+01 2.138468360900878906e+01 2.680477872490882874e-02 -7.632210254669189453e-01 -2.209248840808868408e-01 -3.222132846713066101e-02
1.426000000000000000e+03 2.461525726318359375e+01 1.885056114196777344e+01 1.084561496973037720e-01 -1.716883182525634766e-01 -1.896964944899082184e-02 1.013351827859878540e-01
1.427000000000000000e+03 1.316011905670166016e+01 -1.601599693298339844e+01 1.485507586039602757e-03 2.406751154921948910e-04 5.178548162803053856e-04 -4.542964743450284004e-04
1.428000000000000000e+03 1.146378612518310547e+01 -1.827824211120605469e+01 -1.220115111209452152e-03 -5.512357456609606743e-04 -5.314052687026560307e-04 6.164032965898513794e-04
1.429000000000000000e+03 1.187546443939208984e+01 -1.572560882568359375e+01 -1.222963212057948112e-03 -3.578448959160596132e-04 -4.742424353025853634e-04 4.228158504702150822e-04
1.430000000000000000e+03 1.251503372192382812e+01 -9.260487556457519531e+00 9.332572808489203453e-04 7.993768667802214622e-05 3.039584844373166561e-04 -2.078715187963098288e-04
1.431000000000000000e+03 1.356613922119140625e+01 -9.293261528015136719e+00 -9.842406725510954857e-04 -6.293774640653282404e-05 -3.141534980386495590e-04 1.585191785125061870e-04
1.432000000000000000e+03 1.231056022644042969e+01 -1.183219718933105469e+01 1.069387537427246571e-03 1.339118171017616987e-04 3.609897976275533438e-04 -2.499817928764969110e-04
1.433000000000000000e+03 2.350312042236328125e+01 1.450019359588623047e+01 3.519669920206069946e-02 -2.262912988662719727e-01 -5.732838064432144165e-02 1.882021427154541016e-01
1.434000000000000000e+03 2.348297882080078125e+01 1.590805244445800781e+01 4.347382113337516785e-02 -3.089169263839721680e-01 -7.963293045759201050e-02 1.542494893074035645e-01
1.435000000000000000e+03 2.229187583923339844e+01 1.295316505432128906e+01 1.047227624803781509e-02 -4.438703954219818115e-01 -1.300194412469863892e-01 1.355006545782089233e-01
1.436000000000000000e+03 2.353228759765625000e+01 1.167488670349121094e+01 1.811546832323074341e-02 -3.841280564665794373e-02 -6.089201662689447403e-03 2.329788357019424438e-01
1.437000000000000000e+03 1.113589000701904297e+01 -1.947618103027343750e+01 1.187696820124983788e-03 4.246330645401030779e-04 4.836989683099091053e-04 -7.681783754378557205e-04
1.438000000000000000e+03 1.207979106903076172e+01 -2.386648750305175781e+01 1.893443637527525425e-03 8.114976226352155209e-04 8.114823722280561924e-04 2.977878320962190628e-04
1.439000000000000000e+03 2.230511093139648438e+01 8.713609695434570312e+00 9.947798680514097214e-04 -1.239045262336730957e-01 -3.687292337417602539e-02 1.599830240011215210e-01
1.440000000000000000e+03 2.353974723815917969e+01 7.408957004547119141e+00 -3.810966154560446739e-04 2.654335498809814453e-01 7.951574027538299561e-02 2.544308602809906006e-01
1.441000000000000000e+03 2.307477569580078125e+01 -5.263104438781738281e+00 -9.373899549245834351e-03 9.163770079612731934e-01 2.721009254455566406e-01 1.583855301141738892e-01
1.442000000000000000e+03 2.313184356689453125e+01 -3.878590345382690430e+00 -8.167563937604427338e-03 8.654391765594482422e-01 2.571814954280853271e-01 1.705370992422103882e-01
1.443000000000000000e+03 3.176446914672851562e+00 3.027664756774902344e+01 -2.252167090773582458e-03 1.024206812871852890e-05 -6.725774728693068027e-04 -3.201923682354390621e-04
1.444000000000000000e+03 1.898081541061401367e+00 2.759360694885253906e+01 1.796955126337707043e-03 3.424595342949032784e-05 5.493602948263287544e-04 1.041202176566002890e-05
1.445000000000000000e+03 4.845664024353027344e+00 3.301144409179687500e+01 1.056634006090462208e-03 6.071088137105107307e-04 4.991228342987596989e-04 4.390724061522632837e-04
1.446000000000000000e+03 2.142014265060424805e+00 3.570007705688476562e+01 2.603479893878102303e-03 -2.904371358454227448e-04 6.939127924852073193e-04 8.768752741161733866e-05
1.447000000000000000e+03 3.135987520217895508e+00 2.894283103942871094e+01 2.177370712161064148e-03 -1.910652499645948410e-04 5.958916153758764267e-04 2.415627568552736193e-05
1.448000000000000000e+03 4.271902084350585938e+00 3.790664672851562500e+01 -1.133533194661140442e-03 -6.677133496850728989e-04 -5.403739633038640022e-04 -2.091508504236117005e-04
1.449000000000000000e+03 1.977680325508117676e+00 3.440863418579101562e+01 -2.341404091566801071e-03 1.443820510758087039e-04 -6.591065903194248676e-04 3.749733732547610998e-04
1.450000000000000000e+03 3.437332868576049805e+00 3.528954315185546875e+01 -3.008776810020208359e-03 4.999266238883137703e-04 -7.526550325565040112e-04 6.653512245975434780e-04
1.451000000000000000e+03 3.326936244964599609e+00 3.296470260620117188e+01 -1.575614674948155880e-03 -3.403483424335718155e-04 -5.747888935729861259e-04 2.774956228677183390e-04
1.452000000000000000e+03 4.836427211761474609e+00 3.141546249389648438e+01 -2.310260431841015816e-03 -4.966487176716327667e-04 -8.420727681368589401e-04 -6.553556304425001144e-04
1.453000000000000000e+03 3.306476354598999023e+00 3.161069107055664062e+01 1.675081788562238216e-03 5.686187068931758404e-04 6.731101311743259430e-04 3.532649425324052572e-04
1.454000000000000000e+03 3.764690399169921875e+00 -3.698289871215820312e+01 3.116494917776435614e-04 -1.409960561431944370e-03 -3.294933121651411057e-04 -2.825082512572407722e-03
1.455000000000000000e+03 3.667932510375976562e+00 -3.416732788085937500e+01 2.750713145360350609e-03 -6.363137508742511272e-04 6.343197892419993877e-04 -4.449560656212270260e-04
1.456000000000000000e+03 3.342324495315551758e+00 -3.013142013549804688e+01 -2.564512426033616066e-03 -4.133566108066588640e-04 -8.933607605285942554e-04 -3.167123068124055862e-04
1.457000000000000000e+03 1.968297243118286133e+00 -2.888361930847167969e+01 -2.095460658892989159e-03 -2.092536669806577265e-05 -6.349158356897532940e-04 -1.451840216759592295e-04
1.458000000000000000e+03 1.865991234779357910e+00 2.196039390563964844e+01 1.632590196095407009e-03 -1.430648080713581294e-05 4.854850994888693094e-04 1.034348606481216848e-04
1.459000000000000000e+03 3.067176103591918945e+00 2.332938385009765625e+01 1.788286375813186169e-03 -1.718384191917721182e-05 5.313307628966867924e-04 2.402371610514819622e-04
1.460000000000000000e+03 3.149145364761352539e+00 -1.884733009338378906e+01 -1.514620147645473480e-03 3.587236642488278449e-05 -4.436243325471878052e-04 -1.708397903712466359e-04
1.461000000000000000e+03 3.025731563568115234e+00 -1.190273094177246094e+01 8.778114570304751396e-04 1.455283490940928459e-04 3.070019301958382130e-04 3.770693001570180058e-05
1.462000000000000000e+03 1.685882687568664551e+00 -9.211036682128906250e+00 -8.212433313019573689e-04 -3.213028321624733508e-05 -2.560120774433016777e-04 1.575435999257024378e-05
1.463000000000000000e+03 3.298282146453857422e+00 1.769542312622070312e+01 1.483207452110946178e-03 -2.971720823552459478e-05 4.360470629762858152e-04 8.595771942054852843e-05
1.464000000000000000e+03 3.041153430938720703e+00 1.189463996887207031e+01 1.304717152379453182e-03 -8.789261482888832688e-05 3.650473663583397865e-04 -1.392836129525676370e-04
1.465000000000000000e+03 1.849317193031311035e+00 -1.479571437835693359e+01 -1.060238457284867764e-03 -7.368734804913401604e-05 -3.401777357794344425e-04 -1.082693997886963189e-04
1.466000000000000000e+03 3.066147565841674805e+00 -1.330886077880859375e+01 -9.518519509583711624e-04 -1.530416338937357068e-04 -3.314680652692914009e-04 -8.546131721232086420e-05
1.467000000000000000e+03 4.714801311492919922e+00 5.224336147308349609e+00 -5.315947873896220699e-06 -3.745701687876135111e-04 -1.139658343163318932e-04 3.587518294807523489e-04
1.468000000000000000e+03 2.873093128204345703e+00 7.645357608795166016e+00 -1.008711289614439011e-03 5.739996777265332639e-05 -2.853933838196098804e-04 2.339810598641633987e-04
1.469000000000000000e+03 1.958009362220764160e+00 1.483990478515625000e+01 -1.352994353510439396e-03 1.164714649348752573e-05 -4.024041700176894665e-04 -2.043751919700298458e-06
1.470000000000000000e+03 3.345424413681030273e+00 1.621108436584472656e+01 -1.420458196662366390e-03 -1.194415926875080913e-05 -4.297207051422446966e-04 -5.194862023927271366e-05
1.471000000000000000e+03 2.973037242889404297e+00 9.070961952209472656e+00 1.130875432863831520e-03 -7.093310614436632022e-06 3.371346392668783665e-04 -1.548222644487395883e-04
1.472000000000000000e+03 5.781590461730957031e+00 -4.151607990264892578e+00 -5.260869511403143406e-04 -6.855233368696644902e-05 -1.783917832653969526e-04 -5.497015808941796422e-05
1.473000000000000000e+03 2.483500242233276367e+00 -5.157291889190673828e+00 -6.448071799241006374e-04 -1.441875938326120377e-04 -2.366984408581629395e-04 1.073763487511314452e-04
1.474000000000000000e+03 1.529449105262756348e+00 -6.456941604614257812e+00 -7.671141647733747959e-04 -7.933579581731464714e-06 -2.325143286725506186e-04 1.310364609707903583e-06
1.475000000000000000e+03 3.271362543106079102e+00 -2.877667808532714844e+01 2.153748413547873497e-03 1.695395185379311442e-04 6.969863316044211388e-04 -4.435599475982598960e-05
1.476000000000000000e+03 3.342229843139648438e+00 -2.170182609558105469e+01 -1.643766299821436405e-03 -1.153929624706506729e-04 -5.277477903291583061e-04 1.342939503956586123e-05
1.477000000000000000e+03 2.310637474060058594e+00 -3.573823547363281250e+01 2.307411748915910721e-03 -4.730771179310977459e-04 5.503003485500812531e-04 -2.538473054300993681e-04
1.478000000000000000e+03 3.368296384811401367e+00 -2.315682601928710938e+01 1.762705040164291859e-03 1.429196563549339771e-04 5.716874147765338421e-04 1.634284999454393983e-04
1.479000000000000000e+03 3.085168838500976562e+00 -1.608796691894531250e+01 -1.197526929900050163e-03 -1.042199728544801474e-04 -3.905240446329116821e-04 -1.753705146256834269e-04
1.480000000000000000e+03 3.075633525848388672e+00 2.195035362243652344e+01 -1.792419701814651489e-03 4.181301119388081133e-05 -5.251819966360926628e-04 -2.140790165867656469e-04
1.481000000000000000e+03 2.948213100433349609e+00 -1.050208759307861328e+01 -8.285311632789671421e-04 -1.057296394719742239e-04 -2.802782400976866484e-04 2.971159346998319961e-06
1.482000000000000000e+03 2.828303337097167969e+00 -9.125186920166015625e+00 8.020784007385373116e-04 5.132362639415077865e-05 2.560206048656255007e-04 -1.836998671933542937e-05
1.483000000000000000e+03 3.540408849716186523e+00 -3.281701278686523438e+01 -3.078206442296504974e-03 -5.221611936576664448e-04 -1.080110319890081882e-03 -1.510462374426424503e-03
1.484000000000000000e+03 5.381367683410644531e+00 -3.509563446044921875e+01 2.857494167983531952e-03 4.083478706888854504e-04 9.797526290640234947e-04 -4.475576279219239950e-04
1.485000000000000000e+03 1.989288687705993652e+00 -2.466848373413085938e+01 1.700767548754811287e-03 1.320645824307575822e-04 5.498496466316282749e-04 1.695180690148845315e-04
1.486000000000000000e+03 4.618021965026855469e+00 -2.461968612670898438e+01 2.154889516532421112e-03 -5.785491885035298765e-05 6.291103782132267952e-04 -4.893134246231056750e-05
1.487000000000000000e+03 3.258749008178710938e+00 -2.602392387390136719e+01 2.091211965307593346e-03 -1.204957243317039683e-05 6.237487541511654854e-04 8.108493784675374627e-05
1.488000000000000000e+03 3.080758571624755859e+00 -1.470553112030029297e+01 1.072571729309856892e-03 1.447026879759505391e-04 3.651823499239981174e-04 1.500560902059078217e-04
1.489000000000000000e+03 2.969916582107543945e+00 1.049893665313720703e+01 -1.238155877217650414e-03 5.710604818887077272e-05 -3.543149505276232958e-04 1.388043165206909180e-04
1.490000000000000000e+03 3.164017438888549805e+00 1.331065750122070312e+01 -1.377212116494774818e-03 1.272871159017086029e-04 -3.749774768948554993e-04 8.202892786357551813e-05
1.491000000000000000e+03 3.219693660736083984e+00 1.915860939025878906e+01 -1.590893836691975594e-03 3.270616070949472487e-05 -4.674562951549887657e-04 -1.388564560329541564e-04
1.492000000000000000e+03 2.344949722290039062e+01 3.119228363037109375e+00 2.383975370321422815e-04 5.407038331031799316e-01 1.622826606035232544e-01 2.367098033428192139e-01
1.493000000000000000e+03 2.298359680175781250e+01 -9.392809867858886719e+00 -6.314608268439769745e-03 1.049818754196166992e+00 3.130512535572052002e-01 1.327388733625411987e-01
1.494000000000000000e+03 1.149742126464843750e+01 3.223200225830078125e+01 3.658089553937315941e-03 8.706855442142114043e-05 1.123547437600791454e-03 1.547572755953297019e-04
1.495000000000000000e+03 1.192788887023925781e+01 2.342551994323730469e+01 -2.522784518077969551e-03 4.728932253783568740e-05 -7.426485535688698292e-04 1.821702462621033192e-04
1.496000000000000000e+03 1.596265029907226562e+01 3.711969757080078125e+01 4.926672205328941345e-03 4.479866940528154373e-03 2.821961883455514908e-03 -2.764979610219597816e-03
1.497000000000000000e+03 2.290084266662597656e+01 -1.499074363708496094e+01 1.184043474495410919e-03 1.163625121116638184e+00 3.494427502155303955e-01 9.520024061203002930e-02
1.498000000000000000e+03 2.294607162475585938e+01 -1.217891120910644531e+01 2.852096920832991600e-03 1.116121649742126465e+00 3.356921374797821045e-01 1.136329099535942078e-01
1.499000000000000000e+03 1.150307178497314453e+01 -3.526750564575195312e+01 -7.017019204795360565e-03 -1.577009243192151189e-04 -2.152416156604886055e-03 -3.926835488528013229e-03
1.500000000000000000e+03 9.530912399291992188e+00 -3.780378723144531250e+01 -1.084187533706426620e-02 7.523533422499895096e-03 -9.955026907846331596e-04 -1.070279069244861603e-02
1.501000000000000000e+03 2.352431869506835938e+01 5.977169036865234375e+00 -1.343380659818649292e-03 3.631133437156677246e-01 1.085309833288192749e-01 2.528230547904968262e-01
1.502000000000000000e+03 3.704403305053710938e+01 3.856646347045898438e+01 5.147174000740051270e-01 1.298435684293508530e-02 1.583105325698852539e-01 6.351170539855957031e-01
1.503000000000000000e+03 3.690608978271484375e+01 3.753373336791992188e+01 -1.206809654831886292e-01 -2.458815574645996094e-01 -1.099687516689300537e-01 6.379508972167968750e-01
1.504000000000000000e+03 2.319579696655273438e+01 -2.486712694168090820e+00 -3.991052508354187012e-03 8.113594055175781250e-01 2.422104924917221069e-01 1.841927319765090942e-01
1.505000000000000000e+03 2.285662460327148438e+01 -1.921343994140625000e+01 -1.457565091550350189e-02 1.213472485542297363e+00 3.596690595149993896e-01 7.830932736396789551e-02
1.506000000000000000e+03 1.238526248931884766e+01 2.769611930847167969e+01 3.358362708240747452e-03 -9.225364192388951778e-05 9.798327228054404259e-04 -1.113217731472104788e-04
1.507000000000000000e+03 2.138221359252929688e+01 -2.082474899291992188e+01 -3.793726442381739616e-03 1.009857773780822754e+00 3.018192350864410400e-01 5.679570138454437256e-02
1.508000000000000000e+03 2.421088027954101562e+01 -3.107832717895507812e+01 9.115509688854217529e-03 1.487426877021789551e+00 4.489627182483673096e-01 2.963617630302906036e-02
1.509000000000000000e+03 2.276834678649902344e+01 -2.815313529968261719e+01 7.490961346775293350e-03 1.298555850982666016e+00 3.918140530586242676e-01 4.116794839501380920e-02
1.510000000000000000e+03 2.439268684387207031e+01 -2.691497230529785156e+01 -5.748349707573652267e-03 1.536233186721801758e+00 4.591454267501831055e-01 5.523404851555824280e-02
1.511000000000000000e+03 2.136285781860351562e+01 -2.520193481445312500e+01 -1.194018591195344925e-02 1.062338471412658691e+00 3.151194751262664795e-01 3.832238167524337769e-02
1.512000000000000000e+03 2.119498443603515625e+01 -2.945568084716796875e+01 9.065183810889720917e-03 1.082743883132934570e+00 3.275427222251892090e-01 3.567657992243766785e-02
1.513000000000000000e+03 1.514157772064208984e+01 -4.039336013793945312e+01 3.189728781580924988e-02 -3.947633318603038788e-03 8.384896442294120789e-03 -3.887924924492835999e-02
1.514000000000000000e+03 2.159563064575195312e+01 -3.505669784545898438e+01 6.437999010086059570e-02 1.135375618934631348e+00 3.599266707897186279e-01 3.517413884401321411e-02
1.515000000000000000e+03 5.092328548431396484e+00 -4.056070327758789062e+01 3.459177678450942039e-03 -3.866793587803840637e-03 -1.222847786266356707e-04 -1.284623052924871445e-03
1.516000000000000000e+03 8.051062583923339844e+00 -4.145989608764648438e+01 4.641869105398654938e-03 -4.091664683073759079e-03 1.650614140089601278e-04 -2.234186045825481415e-03
1.517000000000000000e+03 4.420388031005859375e+01 3.110503959655761719e+01 5.026469707489013672e+00 3.291938066482543945e+00 2.495522260665893555e+00 4.901627540588378906e+00
1.518000000000000000e+03 4.613034439086914062e+01 3.039763450622558594e+01 2.283370494842529297e+00 1.638402366638183594e+01 5.600218296051025391e+00 4.690610885620117188e+00
1.519000000000000000e+03 4.205545806884765625e+01 3.058541870117187500e+01 2.367196559906005859e+00 9.686121940612792969e-01 1.000742554664611816e+00 1.889467120170593262e+00
1.520000000000000000e+03 4.638800811767578125e+01 3.499973678588867188e+01 -7.933232188224792480e-01 1.809308433532714844e+01 5.189928054809570312e+00 -1.970394134521484375e+00
1.521000000000000000e+03 4.554089355468750000e+01 3.493970108032226562e+01 1.120036616921424866e-01 1.207287216186523438e+01 3.655462741851806641e+00 -4.517486572265625000e+00
1.522000000000000000e+03 4.525644302368164062e+01 3.508692550659179688e+01 4.023891687393188477e-01 1.026394844055175781e+01 3.199901342391967773e+00 -4.653354167938232422e+00
1.523000000000000000e+03 4.746416854858398438e+01 2.983315277099609375e+01 1.872719883918762207e+00 1.650458335876464844e+01 5.513191223144531250e+00 9.431321024894714355e-01
1.524000000000000000e+03 3.979583358764648438e+01 3.047495269775390625e+01 9.905238747596740723e-01 3.912987709045410156e-01 4.145467877388000488e-01 6.801878213882446289e-01
1.525000000000000000e+03 4.382943725585937500e+01 3.056110382080078125e+01 4.198554992675781250e+00 3.509562730789184570e+00 2.312435388565063477e+00 4.540671825408935547e+00
1.526000000000000000e+03 4.103292083740234375e+01 3.080968284606933594e+01 1.339031219482421875e+00 4.366025626659393311e-01 5.326901674270629883e-01 1.012811422348022461e+00
1.527000000000000000e+03 4.218018341064453125e+01 3.108816337585449219e+01 1.937998652458190918e+00 6.155707240104675293e-01 7.660707831382751465e-01 1.506035327911376953e+00
1.528000000000000000e+03 3.916341781616210938e+01 3.053793334960937500e+01 6.956955194473266602e-01 3.181188106536865234e-01 3.041442930698394775e-01 4.711907804012298584e-01
1.529000000000000000e+03 2.630584907531738281e+01 3.168984794616699219e+01 -1.592776328325271606e-01 -1.423167530447244644e-02 -5.205279216170310974e-02 -3.066101372241973877e-01
1.530000000000000000e+03 4.684924697875976562e+01 3.499631500244140625e+01 -8.019631356000900269e-02 1.758761596679687500e+01 5.252225875854492188e+00 -2.667525112628936768e-01
1.531000000000000000e+03 4.638440322875976562e+01 3.576713943481445312e+01 -8.946536183357238770e-01 1.462468910217285156e+01 4.119010448455810547e+00 -1.882863521575927734e+00
1.532000000000000000e+03 4.557928466796875000e+01 3.740706634521484375e+01 -7.765960693359375000e-01 1.056757450103759766e+01 2.937293529510498047e+00 -1.894934296607971191e+00
1.533000000000000000e+03 4.396329116821289062e+01 3.647867965698242188e+01 8.114153742790222168e-01 4.626774787902832031e+00 1.631457090377807617e+00 -2.480813980102539062e+00
1.534000000000000000e+03 4.369197463989257812e+01 3.807007598876953125e+01 3.116475343704223633e-01 5.283974170684814453e+00 1.678686499595642090e+00 -1.891971349716186523e+00
1.535000000000000000e+03 2.703822708129882812e+01 3.178347778320312500e+01 -1.955351382493972778e-01 1.392509229481220245e-02 -5.448301136493682861e-02 -3.148137927055358887e-01
1.536000000000000000e+03 8.226120948791503906e+00 4.077775001525878906e+00 -2.734369772952049971e-04 -2.752876025624573231e-04 -1.646173768676817417e-04 -2.105196763295680285e-04
1.537000000000000000e+03 1.043833732604980469e+01 3.312290668487548828e+00 -6.093211704865098000e-04 4.055894532939419150e-05 -1.706286566331982613e-04 -1.354968699160963297e-04
1.538000000000000000e+03 2.621480178833007812e+01 3.255541992187500000e+01 -2.036632001399993896e-01 -3.386837197467684746e-03 -6.211501359939575195e-02 -2.658146023750305176e-01
1.539000000000000000e+03 2.574961662292480469e+01 3.061810111999511719e+01 -8.085826039314270020e-02 -6.228425353765487671e-02 -4.294275492429733276e-02 -3.246462047100067139e-01
1.540000000000000000e+03 5.304038047790527344e+00 4.239527225494384766e+00 -1.365052157780155540e-04 -3.772353811655193567e-04 -1.541221863590180874e-04 8.161056030075997114e-05
1.541000000000000000e+03 5.128170967102050781e+00 5.972356319427490234e+00 -4.622738633770495653e-04 1.650644844630733132e-04 -8.916281512938439846e-05 -2.745940873865038157e-04
1.542000000000000000e+03 5.278084754943847656e+00 3.480953693389892578e+00 2.028459130087867379e-04 2.946677850559353828e-04 1.492541050538420677e-04 -7.676889799768105149e-05
1.543000000000000000e+03 3.091406106948852539e+00 5.139934062957763672e+00 -7.193944766186177731e-04 -3.011076296388637275e-05 -2.248515665996819735e-04 -7.356801506830379367e-05
1.544000000000000000e+03 2.914607429504394531e+01 3.173506927490234375e+01 -2.822099328041076660e-01 8.097591996192932129e-02 -6.037019938230514526e-02 -3.238597810268402100e-01
1.545000000000000000e+03 2.963875293731689453e+00 3.641870021820068359e+00 -3.034434630535542965e-04 -3.704748814925551414e-04 -2.021755062742158771e-04 -9.379647235618904233e-05
1.546000000000000000e+03 1.477141976356506348e+00 4.882089138031005859e+00 3.972387348767369986e-04 1.227095344802364707e-04 1.559844822622835636e-04 -2.824553521350026131e-04
1.547000000000000000e+03 1.654850721359252930e+00 3.302755594253540039e+00 -6.350273033604025841e-04 2.168196624552365392e-05 -1.840035984059795737e-04 -1.153360062744468451e-04
1.548000000000000000e+03 2.984738159179687500e+01 3.166675567626953125e+01 -3.035084605216979980e-01 9.711291640996932983e-02 -6.191866472363471985e-02 -3.223473131656646729e-01
1.549000000000000000e+03 3.055730819702148438e+01 3.158133125305175781e+01 -3.178451061248779297e-01 1.141078397631645203e-01 -6.112118065357208252e-02 -3.141895830631256104e-01
1.550000000000000000e+03 3.199128723144531250e+01 3.138449096679687500e+01 -3.242915868759155273e-01 1.385561525821685791e-01 -5.572063103318214417e-02 -2.880118787288665771e-01
1.551000000000000000e+03 9.693479537963867188e+00 4.096246242523193359e+00 -5.756925675086677074e-04 -1.055544053087942302e-04 -2.043740969384089112e-04 -3.104966308455914259e-04
1.552000000000000000e+03 9.983790397644042969e+00 -5.090943813323974609e+00 2.666137588676065207e-04 1.928280253196135163e-04 1.378325396217405796e-04 -1.934677275130525231e-04
1.553000000000000000e+03 1.016222095489501953e+01 -4.286128520965576172e+00 -2.296664169989526272e-04 -2.690466062631458044e-04 -1.496139157097786665e-04 2.375678595853969455e-04
1.554000000000000000e+03 2.912189865112304688e+01 3.247784805297851562e+01 -3.724160194396972656e-01 7.451175153255462646e-02 -8.937128633260726929e-02 -2.844055891036987305e-01
1.555000000000000000e+03 1.074217796325683594e+01 -5.377048015594482422e+00 -1.963115355465561152e-04 -3.145191585645079613e-04 -1.532492024125531316e-04 3.447101044002920389e-04
1.556000000000000000e+03 1.100554275512695312e+01 -3.505114078521728516e+00 -4.193623899482190609e-04 -1.331880775978788733e-04 -1.657651446294039488e-04 3.097813460044562817e-04
1.557000000000000000e+03 3.271104812622070312e+01 3.127876281738281250e+01 -3.136627078056335449e-01 1.465222090482711792e-01 -5.014215037226676941e-02 -2.679019570350646973e-01
1.558000000000000000e+03 2.774692344665527344e+01 3.180758094787597656e+01 -2.279804199934005737e-01 3.995833918452262878e-02 -5.640662088990211487e-02 -3.203345537185668945e-01
1.559000000000000000e+03 2.844736862182617188e+01 3.178436851501464844e+01 -2.573663294315338135e-01 6.052830070257186890e-02 -5.905140563845634460e-02 -3.246063292026519775e-01
1.560000000000000000e+03 3.200159835815429688e+01 3.207591247558593750e+01 -4.915301501750946045e-01 1.172934919595718384e-01 -1.122709959745407104e-01 -2.589038610458374023e-01
1.561000000000000000e+03 3.127371597290039062e+01 3.148605155944824219e+01 -3.259623348712921143e-01 1.255296915769577026e-01 -6.012979149818420410e-02 -3.045140504837036133e-01
1.562000000000000000e+03 3.635134124755859375e+01 3.079612731933593750e+01 -2.240895852446556091e-02 1.917850077152252197e-01 5.081281438469886780e-02 -2.985091879963874817e-02
1.563000000000000000e+03 3.708024215698242188e+01 3.072208213806152344e+01 1.023741215467453003e-01 2.066110223531723022e-01 9.269554167985916138e-02 5.985964089632034302e-02
1.564000000000000000e+03 3.343431854248046875e+01 3.117301940917968750e+01 -2.884430885314941406e-01 1.567500233650207520e-01 -3.950791805982589722e-02 -2.389439642429351807e-01
1.565000000000000000e+03 3.415980148315429688e+01 3.106994628906250000e+01 -2.515467405319213867e-01 1.625422984361648560e-01 -2.670133113861083984e-02 -2.041122317314147949e-01
1.566000000000000000e+03 7.249786376953125000e+00 -3.373827695846557617e+00 2.548439370002597570e-04 1.869300322141498327e-04 1.325321936747059226e-04 2.278097053931560367e-05
1.567000000000000000e+03 3.488838195800781250e+01 3.097029113769531250e+01 -1.947624981403350830e-01 1.721555590629577637e-01 -6.782083306461572647e-03 -1.579200774431228638e-01
1.568000000000000000e+03 3.561910247802734375e+01 3.087882232666015625e+01 -1.213863715529441833e-01 1.786430180072784424e-01 1.717699319124221802e-02 -1.013223603367805481e-01
1.569000000000000000e+03 1.195412445068359375e+01 3.065929651260375977e+00 -4.600129905156791210e-04 4.381024700705893338e-05 -1.248608314199373126e-04 2.343444357393309474e-04
1.570000000000000000e+03 1.222409248352050781e+01 3.733283519744873047e+00 7.327375351451337337e-04 -1.227619795827195048e-04 1.829926768550649285e-04 -2.270216646138578653e-04
1.571000000000000000e+03 8.928835868835449219e+00 4.796085357666015625e+00 -4.187414015177637339e-04 -2.330331626581028104e-04 -1.955323677975684404e-04 -3.345327859278768301e-04
1.572000000000000000e+03 4.616808414459228516e+00 -4.128808021545410156e+00 1.371316757285967469e-04 -3.100710164289921522e-04 -5.188180148252286017e-05 -1.093668179237283766e-04
1.573000000000000000e+03 6.430546760559082031e+00 -5.009967803955078125e+00 -2.844610426109284163e-04 -2.836947969626635313e-04 -1.704467576928436756e-04 -1.998385705519467592e-04
1.574000000000000000e+03 7.990751743316650391e+00 -3.376359462738037109e+00 -2.428222796879708767e-04 -2.028732560575008392e-04 -1.337086578132584691e-04 4.457286922843195498e-05
1.575000000000000000e+03 4.488036632537841797e+00 -3.416272640228271484e+00 6.141379708424210548e-05 2.028679591603577137e-04 7.928452396299690008e-05 9.863243030849844217e-05
1.576000000000000000e+03 3.772410392761230469e+00 -7.662675380706787109e+00 6.971119437366724014e-04 5.696735115634510294e-06 2.108425978804007173e-04 6.129057874204590917e-05
1.577000000000000000e+03 3.384195566177368164e+00 -4.421536922454833984e+00 -5.834476905874907970e-04 -7.766433554934337735e-05 -1.983336114790290594e-04 -4.658535472117364407e-04
1.578000000000000000e+03 3.566483020782470703e+00 -6.414073944091796875e+00 -5.766408867202699184e-04 -5.656663779518567026e-05 -1.899622584460303187e-04 -8.379441715078428388e-05
1.579000000000000000e+03 2.541893005371093750e+00 -6.460213184356689453e+00 7.407926605083048344e-04 2.297973696840927005e-05 2.291317214258015156e-04 -3.797774115810170770e-05
1.580000000000000000e+03 3.779422378540039062e+01 3.065860366821289062e+01 2.603193521499633789e-01 2.297850400209426880e-01 1.470313221216201782e-01 1.687879562377929688e-01
1.581000000000000000e+03 1.266593933105468750e+01 -4.284588336944580078e+00 6.129767280071973801e-04 3.014096182596404105e-05 1.929353165905922651e-04 -7.060867937980219722e-05
1.582000000000000000e+03 1.132663154602050781e+01 3.984948396682739258e+00 -8.255475549958646297e-04 9.316761861555278301e-05 -2.197139838244765997e-04 -6.348427268676459789e-05
1.583000000000000000e+03 1.357071495056152344e+01 3.384574890136718750e+00 -9.540613973513245583e-04 1.001215496216900647e-04 -2.561819565016776323e-04 -1.280237920582294464e-04
1.584000000000000000e+03 4.800093078613281250e+01 3.542480087280273438e+01 4.146237671375274658e-01 1.729084396362304688e+01 5.311640262603759766e+00 1.607398271560668945e+00
1.585000000000000000e+03 4.834772491455078125e+01 3.485802841186523438e+01 2.352437496185302734e+00 1.690515899658203125e+01 5.777278900146484375e+00 2.986806392669677734e+00
1.586000000000000000e+03 4.695393753051757812e+01 3.573198318481445312e+01 -8.905654549598693848e-01 1.603682327270507812e+01 4.543877601623535156e+00 -5.112896561622619629e-01
1.587000000000000000e+03 2.291130256652832031e+01 3.103889656066894531e+01 -3.227323293685913086e-02 -1.938092857599258423e-01 -6.782475858926773071e-02 -2.014873474836349487e-01
1.588000000000000000e+03 4.930395889282226562e+01 2.992995834350585938e+01 3.486964464187622070e+00 1.390104389190673828e+01 5.216402530670166016e+00 -9.465708136558532715e-01
1.589000000000000000e+03 1.364698219299316406e+01 -2.997027635574340820e+00 6.054536788724362850e-04 2.071236667688935995e-05 1.878498151199892163e-04 -1.215126685565337539e-04
1.590000000000000000e+03 2.288053321838378906e+01 3.223101425170898438e+01 -4.993778839707374573e-02 -1.298772394657135010e-01 -5.394450575113296509e-02 -1.637656241655349731e-01
1.591000000000000000e+03 4.953917312622070312e+01 3.059754943847656250e+01 4.498123168945312500e+00 1.356618118286132812e+01 5.419291496276855469e+00 -9.074550867080688477e-01
1.592000000000000000e+03 1.217796230316162109e+01 -1.313060283660888672e+01 -1.142235705628991127e-03 -1.858736941358074546e-04 -3.984328068327158689e-04 2.781149523798376322e-04
1.593000000000000000e+03 1.203194999694824219e+01 -1.442794513702392578e+01 1.198863494209945202e-03 2.700652985367923975e-04 4.406786465551704168e-04 -3.514515701681375504e-04
1.594000000000000000e+03 1.261640739440917969e+01 -6.707187175750732422e+00 7.247634348459541798e-04 8.306033123517408967e-05 2.423471305519342422e-04 -1.642107235966250300e-04
1.595000000000000000e+03 1.257845211029052734e+01 -7.980382919311523438e+00 -8.240232709795236588e-04 -7.282257138285785913e-05 -2.690537658054381609e-04 1.914355088956654072e-04
1.596000000000000000e+03 1.246381950378417969e+01 7.905023097991943359e+00 8.256114087998867035e-04 1.272989029530435801e-04 2.858731022570282221e-04 9.114897693507373333e-05
1.597000000000000000e+03 2.723329925537109375e+01 4.171730804443359375e+01 6.524782627820968628e-02 -1.607155650854110718e-01 -2.864032052457332611e-02 4.643625766038894653e-02
1.598000000000000000e+03 1.175644683837890625e+01 -4.432219982147216797e+00 -6.170504493638873100e-04 -6.838095578132197261e-05 -2.056294179055839777e-04 2.769867423921823502e-04
1.599000000000000000e+03 1.822653198242187500e+01 4.154724502563476562e+01 -8.449641987681388855e-03 3.429021686315536499e-03 -1.506185973994433880e-03 7.137830834835767746e-03
1.600000000000000000e+03 1.835125160217285156e+01 3.927200698852539062e+01 -1.591746695339679718e-02 8.742646314203739166e-03 -2.152445958927273750e-03 -5.853158887475728989e-03
1.601000000000000000e+03 2.462632560729980469e+01 4.090701043605804443e-01 -1.218970678746700287e-02 9.308732748031616211e-01 2.756050825119018555e-01 2.815329432487487793e-01
1.602000000000000000e+03 2.444154930114746094e+01 -3.769987344741821289e+00 -1.765267178416252136e-02 1.090995550155639648e+00 3.220028579235076904e-01 2.276649028062820435e-01
1.603000000000000000e+03 2.437661933898925781e+01 -1.760609054565429688e+01 -1.685420982539653778e-02 1.428666830062866211e+00 4.235437810420989990e-01 9.882143884897232056e-02
1.604000000000000000e+03 2.439657402038574219e+01 -1.901816558837890625e+01 -2.622688747942447662e-02 1.450197219848632812e+00 4.271911084651947021e-01 9.039908647537231445e-02
1.605000000000000000e+03 2.467772483825683594e+01 1.814302921295166016e+00 -9.876347146928310394e-03 8.669465780258178711e-01 2.571210861206054688e-01 2.990686595439910889e-01
1.606000000000000000e+03 2.299964904785156250e+01 -8.015240669250488281e+00 -6.516067776829004288e-03 1.004209876060485840e+00 2.993081510066986084e-01 1.423860788345336914e-01
1.607000000000000000e+03 1.335919857025146484e+01 -1.332532978057861328e+01 1.281297416426241398e-03 1.321221789112314582e-04 4.240258713252842426e-04 -2.747415855992585421e-04
1.608000000000000000e+03 2.437635040283203125e+01 -1.197928428649902344e+01 -7.453001569956541061e-03 1.333692431449890137e+00 3.978718221187591553e-01 1.504834741353988647e-01
1.609000000000000000e+03 1.094302272796630859e+01 2.658417510986328125e+01 2.736848313361406326e-03 7.484464731533080339e-06 8.232998079620301723e-04 -2.441243850626051426e-05
1.610000000000000000e+03 5.266878604888916016e+00 1.037959289550781250e+01 -6.680768565274775028e-04 -3.475710982456803322e-04 -3.046943747904151678e-04 2.130230568582192063e-04
1.611000000000000000e+03 1.240587997436523438e+01 9.157074928283691406e+00 -8.706212975084781647e-04 -1.548710861243307590e-04 -3.076477150898426771e-04 -1.284679892705753446e-04
1.612000000000000000e+03 1.002782917022705078e+01 1.951958465576171875e+01 5.721441630157642066e-05 9.710917947813868523e-04 3.084918716922402382e-04 -1.000978445517830551e-04
1.613000000000000000e+03 1.072904777526855469e+01 1.529262351989746094e+01 -2.647688670549541712e-04 -6.264937110245227814e-05 -9.822547144722193480e-05 9.693344472907483578e-04
1.614000000000000000e+03 7.539573669433593750e+01 1.418382740020751953e+01 -4.470037296414375305e-02 7.220665454864501953e+00 2.152789592742919922e+00 -6.696202754974365234e-01
1.615000000000000000e+03 7.687574005126953125e+01 1.548619270324707031e+00 -2.813435718417167664e-02 8.454438209533691406e+00 2.527891159057617188e+00 -2.841727435588836670e-01
1.616000000000000000e+03 7.563282012939453125e+01 2.150587737560272217e-01 -4.942652210593223572e-02 8.437431335449218750e+00 2.516401290893554688e+00 -3.440387248992919922e-01
1.617000000000000000e+03 7.564145660400390625e+01 7.066287040710449219e+00 -5.361137166619300842e-02 7.927434921264648438e+00 2.362147092819213867e+00 -4.941486418247222900e-01
1.618000000000000000e+03 7.566849517822265625e+01 4.330622196197509766e+00 -5.070003867149353027e-02 8.154930114746093750e+00 2.431268930435180664e+00 -4.282111227512359619e-01
1.619000000000000000e+03 7.564506530761718750e+01 1.596255421638488770e+00 -4.843472316861152649e-02 8.349727630615234375e+00 2.490387916564941406e+00 -3.711196780204772949e-01
1.620000000000000000e+03 7.566853332519531250e+01 5.692817687988281250e+00 -5.558216199278831482e-02 8.046785354614257812e+00 2.397360801696777344e+00 -4.606289863586425781e-01
1.621000000000000000e+03 7.444067382812500000e+01 2.995894670486450195e+00 -7.826047390699386597e-02 8.177824020385742188e+00 2.429868936538696289e+00 -4.811573326587677002e-01
1.622000000000000000e+03 7.438776397705078125e+01 -1.106244087219238281e+00 -7.400155067443847656e-02 8.403033256530761719e+00 2.498709440231323242e+00 -3.834343254566192627e-01
1.623000000000000000e+03 7.555123901367187500e+01 -3.953833341598510742e+00 -4.289571940898895264e-02 8.658570289611816406e+00 2.584702491760253906e+00 -2.665483951568603516e-01
1.624000000000000000e+03 7.551188659667968750e+01 -5.330798625946044922e+00 -4.156835004687309265e-02 8.716355323791503906e+00 2.602436065673828125e+00 -2.446604818105697632e-01
1.625000000000000000e+03 7.558850860595703125e+01 -2.566851615905761719e+00 -4.696425795555114746e-02 8.592555999755859375e+00 2.563677310943603516e+00 -2.918616533279418945e-01
1.626000000000000000e+03 7.409426116943359375e+01 -9.327675819396972656e+00 -5.547273531556129456e-02 8.688784599304199219e+00 2.589993476867675781e+00 -2.273613512516021729e-01
1.627000000000000000e+03 7.682518768310546875e+01 8.484984397888183594e+00 -2.779198251664638519e-02 7.820247173309326172e+00 2.337736606597900391e+00 -4.099776744842529297e-01
1.628000000000000000e+03 7.191116333007812500e+01 3.596276092529296875e+01 3.218143284320831299e-01 6.135949134826660156e+00 1.937328934669494629e+00 -3.783764243125915527e-01
1.629000000000000000e+03 7.560520935058593750e+01 3.575042724609375000e+01 1.423955857753753662e-01 5.091369628906250000e+00 1.570129632949829102e+00 -2.910868823528289795e-01
1.630000000000000000e+03 7.475615692138671875e+01 3.124170112609863281e+01 1.394308507442474365e-01 5.597177028656005859e+00 1.720982313156127930e+00 -5.317256450653076172e-01
1.631000000000000000e+03 7.669366455078125000e+01 3.249014282226562500e+01 6.554438173770904541e-02 4.915082454681396484e+00 1.494188070297241211e+00 -3.209500610828399658e-01
1.632000000000000000e+03 7.546651458740234375e+01 9.872378349304199219e+00 -5.315899848937988281e-02 7.662183284759521484e+00 2.282707214355468750e+00 -5.772293806076049805e-01
1.633000000000000000e+03 7.407581329345703125e+01 -1.635181236267089844e+01 -3.857823833823204041e-02 8.839744567871093750e+00 2.640349864959716797e+00 -1.334629207849502563e-01
1.634000000000000000e+03 7.542018127441406250e+01 -2.197908401489257812e+01 -1.038553938269615173e-02 9.125829696655273438e+00 2.734633207321166992e+00 -6.781716644763946533e-02
1.635000000000000000e+03 7.543460083007812500e+01 -1.084881305694580078e+01 -3.276883810758590698e-02 8.903558731079101562e+00 2.661237001419067383e+00 -1.681435704231262207e-01
1.636000000000000000e+03 7.675287628173828125e+01 -1.234459114074707031e+01 -1.519344653934240341e-02 9.128200531005859375e+00 2.733901977539062500e+00 -1.139103472232818604e-01
1.637000000000000000e+03 7.541732025146484375e+01 -1.225165271759033203e+01 -2.838267385959625244e-02 8.940999031066894531e+00 2.673784732818603516e+00 -1.499039530754089355e-01
1.638000000000000000e+03 7.535598754882812500e+01 1.129791355133056641e+01 -5.372601747512817383e-02 7.519181728363037109e+00 2.239636659622192383e+00 -6.172673702239990234e-01
1.639000000000000000e+03 7.416788482666015625e+01 9.747177124023437500e+00 -8.869082480669021606e-02 7.685779571533203125e+00 2.279126644134521484e+00 -6.869540214538574219e-01
1.640000000000000000e+03 7.558980560302734375e+01 2.100352478027343750e+01 1.713703200221061707e-02 6.393803119659423828e+00 1.923282027244567871e+00 -6.920244097709655762e-01
1.641000000000000000e+03 7.678736877441406250e+01 1.552369022369384766e+01 -1.928239688277244568e-02 6.972301483154296875e+00 2.085905790328979492e+00 -5.184825658798217773e-01
1.642000000000000000e+03 7.547206878662109375e+01 1.562187194824218750e+01 -2.789168432354927063e-02 7.050085067749023438e+00 2.106657981872558594e+00 -6.838716864585876465e-01
1.643000000000000000e+03 7.540704345703125000e+01 -1.784449005126953125e+01 -2.101637981832027435e-02 9.056676864624023438e+00 2.710698127746582031e+00 -9.721560031175613403e-02
1.644000000000000000e+03 7.674151611328125000e+01 -1.931557464599609375e+01 -1.059827022254467010e-02 9.281659126281738281e+00 2.781318426132202148e+00 -6.518653035163879395e-02
1.645000000000000000e+03 7.538639831542968750e+01 -1.923843002319335938e+01 -1.860717311501502991e-02 9.078392028808593750e+00 2.717935562133789062e+00 -8.809322863817214966e-02
1.646000000000000000e+03 7.535837554931640625e+01 -2.851275634765625000e+01 -1.020444743335247040e-02 9.153622627258300781e+00 2.743025541305541992e+00 -4.131329432129859924e-02
1.647000000000000000e+03 7.422388458251953125e+01 -2.332693290710449219e+01 -1.943358220160007477e-02 8.951422691345214844e+00 2.679596900939941406e+00 -7.144045084714889526e-02
1.648000000000000000e+03 7.422765350341796875e+01 1.714756584167480469e+01 -2.792037837207317352e-02 6.993168830871582031e+00 2.089574575424194336e+00 -8.372232317924499512e-01
1.649000000000000000e+03 7.552809906005859375e+01 1.702174186706542969e+01 -2.052353508770465851e-02 6.878019332885742188e+00 2.057248830795288086e+00 -6.915720701217651367e-01
1.650000000000000000e+03 7.557151031494140625e+01 -2.461206436157226562e+01 -1.208339538425207138e-02 9.160830497741699219e+00 2.744623899459838867e+00 -5.434064939618110657e-02
1.651000000000000000e+03 7.682196807861328125e+01 -2.474611663818359375e+01 -5.145998205989599228e-03 9.363017082214355469e+00 2.807361364364624023e+00 -4.253064095973968506e-02
1.652000000000000000e+03 7.418284606933593750e+01 -2.573164176940917969e+01 -1.541112177073955536e-02 8.971271514892578125e+00 2.686758279800415039e+00 -5.518911406397819519e-02
1.653000000000000000e+03 7.373684692382812500e+01 2.750518417358398438e+01 1.051568686962127686e-01 6.050995826721191406e+00 1.846845865249633789e+00 -7.533882260322570801e-01
1.654000000000000000e+03 7.419351959228515625e+01 2.353646469116210938e+01 5.437393113970756531e-02 6.332675933837890625e+00 1.916114926338195801e+00 -8.167533874511718750e-01
1.655000000000000000e+03 7.660620117187500000e+01 2.643663406372070312e+01 2.716680988669395447e-02 5.560266971588134766e+00 1.676230072975158691e+00 -5.053007006645202637e-01
1.656000000000000000e+03 7.526968383789062500e+01 2.631752967834472656e+01 5.031673237681388855e-02 5.853258132934570312e+00 1.771072506904602051e+00 -6.509667038917541504e-01
1.657000000000000000e+03 7.636853790283203125e+01 2.941746902465820312e+01 5.691487714648246765e-02 5.286734104156494141e+00 1.603094696998596191e+00 -4.562160372734069824e-01
1.658000000000000000e+03 7.474748992919921875e+01 2.941813087463378906e+01 1.109505146741867065e-01 5.704257965087890625e+00 1.744562625885009766e+00 -6.053683757781982422e-01
1.659000000000000000e+03 7.506378936767578125e+01 2.777987289428710938e+01 8.532503992319107056e-02 5.782543182373046875e+00 1.760360479354858398e+00 -6.289054155349731445e-01
1.660000000000000000e+03 7.483151245117187500e+01 -3.117414093017578125e+01 -1.914777234196662903e-02 9.099966049194335938e+00 2.724245548248291016e+00 -4.064570367336273193e-02
1.661000000000000000e+03 7.234332275390625000e+01 -3.592897033691406250e+01 -5.783887580037117004e-03 8.739710807800292969e+00 2.620177984237670898e+00 -2.818427048623561859e-02
1.662000000000000000e+03 7.543130493164062500e+01 -3.616289520263671875e+01 -2.613153122365474701e-02 9.255882263183593750e+00 2.768925189971923828e+00 -1.546443253755569458e-02
1.663000000000000000e+03 7.631278228759765625e+01 -3.289564132690429688e+01 -2.286107838153839111e-02 9.360397338867187500e+00 2.801260709762573242e+00 -2.314435690641403198e-02
1.664000000000000000e+03 7.510774993896484375e+01 -2.981599044799804688e+01 -1.563055999577045441e-02 9.125081062316894531e+00 2.732835054397583008e+00 -4.069047793745994568e-02
1.665000000000000000e+03 7.641140747070312500e+01 3.098241233825683594e+01 6.961305439472198486e-02 5.111721992492675781e+00 1.554400563240051270e+00 -4.169244170188903809e-01
1.666000000000000000e+03 2.476980209350585938e+01 1.038120555877685547e+01 2.030319720506668091e-02 3.538616001605987549e-01 1.122494339942932129e-01 3.281748890876770020e-01
1.667000000000000000e+03 1.276167583465576172e+01 -2.234720039367675781e+01 2.136160153895616531e-03 -2.111427784257102758e-05 6.345137953758239746e-04 9.087504586204886436e-04
1.668000000000000000e+03 1.254020404815673828e+01 -2.008971595764160156e+01 -1.477903686463832855e-03 -3.941138857044279575e-04 -5.616052658297121525e-04 9.643434314057230949e-04
1.669000000000000000e+03 2.292751693725585938e+01 -1.358535861968994141e+01 5.116451997309923172e-03 1.147309660911560059e+00 3.457278311252593994e-01 1.063972637057304382e-01
1.670000000000000000e+03 2.438063621520996094e+01 -1.338434505462646484e+01 -8.356475271284580231e-03 1.361659169197082520e+00 4.059908390045166016e-01 1.346796005964279175e-01
1.671000000000000000e+03 2.475437355041503906e+01 1.180025482177734375e+01 3.233268484473228455e-02 2.564438581466674805e-01 8.663296699523925781e-02 3.124976456165313721e-01
1.672000000000000000e+03 5.885618686676025391e+00 -2.476932144165039062e+01 -1.743770670145750046e-03 -4.163033736404031515e-04 -6.480222218669950962e-04 4.153620102442800999e-04
1.673000000000000000e+03 1.180962181091308594e+01 -2.860596084594726562e+01 2.508597448468208313e-03 9.369813487865030766e-04 1.033673644997179508e-03 -6.781031843274831772e-04
1.674000000000000000e+03 2.564226722717285156e+01 2.175676345825195312e+01 1.793289631605148315e-01 -7.149256020784378052e-02 3.235092386603355408e-02 -1.498681120574474335e-02
1.675000000000000000e+03 2.456751632690429688e+01 2.024946022033691406e+01 1.148457452654838562e-01 -2.312203198671340942e-01 -3.491237014532089233e-02 3.408896178007125854e-02
1.676000000000000000e+03 2.473252868652343750e+01 1.321372222900390625e+01 4.783546552062034607e-02 1.598179787397384644e-01 6.229603290557861328e-02 2.885799407958984375e-01
1.677000000000000000e+03 2.343598556518554688e+01 1.872334480285644531e+01 5.911359935998916626e-02 -4.375832378864288330e-01 -1.135408878326416016e-01 6.559437513351440430e-02
1.678000000000000000e+03 2.465082931518554688e+01 1.744371986389160156e+01 9.465412795543670654e-02 -1.011957451701164246e-01 -1.962486654520034790e-03 1.616958826780319214e-01
1.679000000000000000e+03 9.140780448913574219e+00 -1.634471702575683594e+01 1.022969954647123814e-03 4.985757987014949322e-04 4.564637492876499891e-04 -3.084777854382991791e-04
1.680000000000000000e+03 1.017636871337890625e+01 -1.786463546752929688e+01 1.145047019235789776e-03 5.383625393733382225e-04 5.050228792242705822e-04 -4.915879108011722565e-04
1.681000000000000000e+03 2.468166923522949219e+01 1.603598403930664062e+01 8.021513372659683228e-02 -2.085076458752155304e-02 1.780931092798709869e-02 2.137718498706817627e-01
1.682000000000000000e+03 2.299906158447265625e+01 2.975002670288085938e+01 -1.166130229830741882e-02 -2.663586735725402832e-01 -8.340599387884140015e-02 -2.258544266223907471e-01
1.683000000000000000e+03 2.495271682739257812e+01 3.018763732910156250e+01 -4.647883772850036621e-02 -1.241043880581855774e-01 -5.117496848106384277e-02 -3.090475797653198242e-01
1.684000000000000000e+03 2.354426193237304688e+01 8.835300445556640625e+00 5.138677544891834259e-03 1.639501452445983887e-01 5.072664842009544373e-02 2.525146603584289551e-01
1.685000000000000000e+03 2.477742385864257812e+01 7.524669170379638672e+00 9.830450871959328651e-04 5.440885424613952637e-01 1.635214835405349731e-01 3.386235237121582031e-01
1.686000000000000000e+03 2.423039054870605469e+01 2.571573829650878906e+01 7.788748294115066528e-02 -3.154463768005371094e-01 -7.126766443252563477e-02 -2.219777256250381470e-01
1.687000000000000000e+03 2.432407188415527344e+01 2.436695480346679688e+01 9.915304183959960938e-02 -3.211728632450103760e-01 -6.660594791173934937e-02 -1.681228578090667725e-01
1.688000000000000000e+03 8.682031631469726562e+00 -7.632494926452636719e+00 2.231278631370514631e-04 -2.813135797623544931e-04 -1.745571171340998262e-05 1.952897728187963367e-04
1.689000000000000000e+03 2.413590812683105469e+01 2.845356750488281250e+01 1.321731414645910263e-02 -2.399431765079498291e-01 -6.801775842905044556e-02 -2.848692834377288818e-01
1.690000000000000000e+03 2.608722305297851562e+01 2.986371994018554688e+01 -4.867570847272872925e-02 -6.378357112407684326e-02 -3.373778611421585083e-02 -3.378129303455352783e-01
1.691000000000000000e+03 3.100944280624389648e+00 -1.746233558654785156e+01 1.372702419757843018e-03 5.781388244940899312e-05 4.291548975743353367e-04 2.364439424127340317e-04
1.692000000000000000e+03 4.309949398040771484e+00 -1.463223934173583984e+01 -1.052162377163767815e-03 -2.176529815187677741e-04 -3.809446061495691538e-04 -1.423389767296612263e-04
1.693000000000000000e+03 4.246834278106689453e+00 2.196841049194335938e+01 1.964407740160822868e-03 -1.018605471472255886e-04 5.587641499005258083e-04 3.256731724832206964e-04
1.694000000000000000e+03 3.137690544128417969e+00 2.057356262207031250e+01 1.710558310151100159e-03 -3.532619302859529853e-05 5.025696591474115849e-04 1.757061545504257083e-04
1.695000000000000000e+03 4.295019149780273438e+00 -1.734613418579101562e+01 -1.345476252026855946e-03 -1.497271732660010457e-04 -4.485610115807503462e-04 -2.978813427034765482e-04
1.696000000000000000e+03 4.295975685119628906e+00 -1.600220870971679688e+01 1.211975468322634697e-03 1.914660097099840641e-04 4.210324550513178110e-04 2.379554061917588115e-04
1.697000000000000000e+03 5.810811042785644531e+00 2.567829513549804688e+01 1.224181847646832466e-03 5.950074410066008568e-04 5.457567749544978142e-04 1.757803693180903792e-04
1.698000000000000000e+03 4.332088947296142578e+00 2.895869636535644531e+01 -2.247824333608150482e-03 4.205185105092823505e-04 -5.481917178258299828e-04 5.718441025237552822e-05
1.699000000000000000e+03 4.559319972991943359e+00 -2.868307495117187500e+01 -2.849459182471036911e-03 -3.203100059181451797e-04 -9.509307565167546272e-04 3.482694955891929567e-05
1.700000000000000000e+03 3.313981771469116211e+00 -2.460656166076660156e+01 -1.935058156959712505e-03 -1.280232595490815584e-06 -5.809015128761529922e-04 -1.974973383767064661e-05
1.701000000000000000e+03 4.785579204559326172e+00 -2.311150932312011719e+01 -1.991171622648835182e-03 -1.551476452732458711e-04 -6.438958225771784782e-04 1.008850958896800876e-04
1.702000000000000000e+03 4.603230953216552734e+00 1.774434280395507812e+01 -1.622442738153040409e-03 8.825211989460512996e-05 -4.602571716532111168e-04 -3.162873908877372742e-04
1.703000000000000000e+03 4.484424114227294922e+00 1.923561477661132812e+01 1.604232587851583958e-03 1.105570845538750291e-05 4.845864896196871996e-04 3.334344655741006136e-04
1.704000000000000000e+03 4.766030311584472656e+00 1.616798591613769531e+01 1.621636678464710712e-03 -1.169243405456654727e-04 4.514137108344584703e-04 1.550332817714661360e-04
1.705000000000000000e+03 4.485991954803466797e+00 -2.007801055908203125e+01 -1.766047207638621330e-03 8.240332681452855468e-05 -5.050931940786540508e-04 -3.816359676420688629e-04
1.706000000000000000e+03 4.344131946563720703e+00 -1.868970298767089844e+01 1.567017869092524052e-03 4.966329652233980596e-05 4.850043624173849821e-04 4.443021898623555899e-04
1.707000000000000000e+03 3.196407079696655273e+00 2.615635681152343750e+01 1.585063291713595390e-03 2.633019757922738791e-04 5.545095773413777351e-04 1.334749395027756691e-04
1.708000000000000000e+03 4.325306415557861328e+00 2.462231445312500000e+01 1.865969388745725155e-03 1.305167679674923420e-04 5.989458295516669750e-04 3.637539048213511705e-04
1.709000000000000000e+03 4.212225437164306641e+00 2.327008819580078125e+01 -1.974290469661355019e-03 7.701038703089579940e-05 -5.691840196959674358e-04 -3.765256260521709919e-04
1.710000000000000000e+03 1.016369533538818359e+01 -2.335634040832519531e+01 7.310134824365377426e-04 8.122948929667472839e-04 4.629925242625176907e-04 -1.378768938593566418e-03
1.711000000000000000e+03 4.520888328552246094e+00 -2.601732063293457031e+01 -2.377652097493410110e-03 -2.843074980773963034e-05 -7.218248792923986912e-04 1.538193173473700881e-04
1.712000000000000000e+03 3.296796798706054688e+00 1.474891948699951172e+01 1.433784025721251965e-03 -5.848440923728048801e-05 4.125898994971066713e-04 2.075990414596162736e-05
1.713000000000000000e+03 4.226994991302490234e+00 1.176790142059326172e+01 -1.169107272289693356e-03 -6.974612915655598044e-06 -3.528245433699339628e-04 2.466396545059978962e-04
1.714000000000000000e+03 4.415920257568359375e+00 1.314388465881347656e+01 1.315793255344033241e-03 -1.434724108548834920e-04 3.516962460707873106e-04 -3.341352276038378477e-04
1.715000000000000000e+03 4.177382946014404297e+00 -1.037282562255859375e+01 7.868848624639213085e-04 1.607082667760550976e-04 2.842779504135251045e-04 -6.250627961890131701e-07
1.716000000000000000e+03 4.000671386718750000e+00 -8.986410140991210938e+00 -7.765638292767107487e-04 -3.930056118406355381e-05 -2.447593142278492451e-04 -2.504093799871043302e-06
1.717000000000000000e+03 4.309941768646240234e+00 -1.323046493530273438e+01 9.560647304169833660e-04 2.175925619667395949e-04 3.520971804391592741e-04 9.731278260005638003e-05
1.718000000000000000e+03 4.335797786712646484e+00 3.445248794555664062e+01 -1.145637579611502588e-04 1.504632527939975262e-04 1.076984881365206093e-05 -7.127867429517209530e-04
1.719000000000000000e+03 3.436944246292114258e+00 -3.147880744934082031e+01 1.958058914169669151e-03 3.707561409100890160e-04 6.986445514485239983e-04 -1.887964936031494290e-05
1.720000000000000000e+03 4.681781291961669922e+00 -2.998799896240234375e+01 2.205877564847469330e-03 4.767469945363700390e-04 8.047873270697891712e-04 -1.996307692024856806e-04
1.721000000000000000e+03 4.271342754364013672e+00 -1.180311489105224609e+01 -8.413331233896315098e-04 -2.022198896156623960e-04 -3.130658878944814205e-04 -4.670502312364988029e-05
1.722000000000000000e+03 5.588653564453125000e+00 -6.044333457946777344e+00 -4.872248100582510233e-04 -9.858355042524635792e-05 -1.757425197865813971e-04 -2.345554385101422668e-04
1.723000000000000000e+03 4.121845245361328125e+00 1.045750999450683594e+01 1.124699832871556282e-03 5.113311999593861401e-05 3.527498920448124409e-04 -7.165818533394485712e-05
1.724000000000000000e+03 3.225575208663940430e+00 3.422261428833007812e+01 2.151061780750751495e-03 -3.191969299223273993e-04 5.495594232343137264e-04 -3.155310696456581354e-04
1.725000000000000000e+03 4.958456516265869141e+00 -3.263725280761718750e+01 1.482356805354356766e-03 8.032848709262907505e-04 6.856924737803637981e-04 2.116123869200237095e-05
1.726000000000000000e+03 6.440812110900878906e+00 -3.257743453979492188e+01 -4.089840222150087357e-03 -7.478887564502656460e-04 -1.451318734325468540e-03 -7.817331934347748756e-04
1.727000000000000000e+03 4.580033779144287109e+00 8.085035324096679688e+00 7.183457491919398308e-04 -6.656426558038219810e-05 1.955344341695308685e-04 4.743640602100640535e-04
1.728000000000000000e+03 3.423981904983520508e+00 -5.299584388732910156e+00 4.758975119329988956e-04 1.144322959589771926e-04 1.770989474607631564e-04 1.824829232646152377e-04
1.729000000000000000e+03 2.770631313323974609e+00 6.281703472137451172e+00 8.791480795480310917e-04 1.284884783672168851e-04 3.022909513674676418e-04 -1.897365145850926638e-04
1.730000000000000000e+03 5.965476989746093750e+00 4.870962142944335938e+00 -3.293642366770654917e-04 -3.038946015294641256e-04 -1.899776543723419309e-04 -1.515512994956225157e-04
1.731000000000000000e+03 6.427846431732177734e+00 -3.614781570434570312e+01 -4.465632140636444092e-03 1.120572560466825962e-04 -1.306072459556162357e-03 -4.272595979273319244e-03
1.732000000000000000e+03 2.315422439575195312e+01 -2.219995498657226562e+01 -1.596906036138534546e-02 1.303973436355590820e+00 3.864012956619262695e-01 7.219195365905761719e-02
1.733000000000000000e+03 2.436682891845703125e+01 -7.854739189147949219e+00 -1.979304291307926178e-02 1.226015686988830566e+00 3.618668019771575928e-01 1.876510232686996460e-01
1.734000000000000000e+03 5.080229949951171875e+01 3.338138580322265625e+01 4.608255386352539062e+00 1.222099113464355469e+01 5.048773765563964844e+00 1.432214617729187012e+00
1.735000000000000000e+03 1.721769142150878906e+01 3.894075775146484375e+01 -1.127142645418643951e-02 7.128905272111296654e-04 -3.167560789734125137e-03 3.407555050216615200e-04
1.736000000000000000e+03 1.160715103149414062e+01 3.894049835205078125e+01 4.974796902388334274e-03 -7.610080065205693245e-04 1.264136633835732937e-03 1.539338147267699242e-03
1.737000000000000000e+03 2.438706207275390625e+01 -1.619815826416015625e+01 -1.602040417492389679e-02 1.413709163665771484e+00 4.193066060543060303e-01 1.104824095964431763e-01
1.738000000000000000e+03 2.456520462036132812e+01 -9.905752539634704590e-01 -1.374164503067731857e-02 9.887367486953735352e-01 2.924985289573669434e-01 2.647725939750671387e-01
1.739000000000000000e+03 2.349353218078613281e+01 4.543190002441406250e+00 -1.827457104809582233e-03 4.549538493156433105e-01 1.359379291534423828e-01 2.462800592184066772e-01
1.740000000000000000e+03 2.476973152160644531e+01 6.090651035308837891e+00 -5.485334433615207672e-03 6.344506740570068359e-01 1.886895895004272461e-01 3.351376950740814209e-01
1.741000000000000000e+03 2.474922180175781250e+01 4.655981063842773438e+00 -7.570250425487756729e-03 7.187029123306274414e-01 2.133398056030273438e-01 3.270410895347595215e-01
1.742000000000000000e+03 3.786883163452148438e+01 4.118122863769531250e+01 1.059847235679626465e+00 1.440042555332183838e-01 3.611554503440856934e-01 2.051758617162704468e-01
1.743000000000000000e+03 3.495235443115234375e+01 4.060163116455078125e+01 6.209193468093872070e-01 -4.735698997974395752e-01 4.420482739806175232e-02 1.712951958179473877e-01
1.744000000000000000e+03 7.634085655212402344e+00 2.952177810668945312e+01 -1.597368624061346054e-03 8.928425813792273402e-05 -4.524253017734736204e-04 7.453983998857438564e-04
1.745000000000000000e+03 2.438027191162109375e+01 -1.058329010009765625e+01 -1.330928876996040344e-02 1.302074074745178223e+00 3.866294324398040771e-01 1.613774299621582031e-01
1.746000000000000000e+03 2.272738647460937500e+01 -2.954110908508300781e+01 -2.233989071100950241e-04 1.288046121597290039e+00 3.863468170166015625e-01 3.984278440475463867e-02
1.747000000000000000e+03 2.439537620544433594e+01 -5.148431301116943359e+00 -2.055241540074348450e-02 1.138904571533203125e+00 3.355056345462799072e-01 2.134387493133544922e-01
1.748000000000000000e+03 2.970854949951171875e+01 4.090456771850585938e+01 1.169891506433486938e-01 -2.341535687446594238e-01 -3.514932841062545776e-02 9.848341345787048340e-02
1.749000000000000000e+03 2.182225418090820312e+01 3.939019393920898438e+01 2.032402670010924339e-03 -7.675655069760978222e-04 3.794511430896818638e-04 -8.713863790035247803e-03
1.750000000000000000e+03 1.201852130889892578e+01 1.296163082122802734e+01 9.929651860147714615e-04 2.440543612465262413e-04 3.711058525368571281e-04 5.715071456506848335e-04
1.751000000000000000e+03 2.471843910217285156e+01 3.229618310928344727e+00 -9.997070766985416412e-03 7.962608933448791504e-01 2.358791381120681763e-01 3.143641650676727295e-01
1.752000000000000000e+03 1.104999065399169922e+01 2.800965309143066406e+01 -3.109895158559083939e-03 1.210818936669966206e-05 -9.293361217714846134e-04 -1.845723454607650638e-04
1.753000000000000000e+03 7.536845397949218750e+01 4.033634948730468750e+01 4.622824490070343018e-02 4.830105781555175781e+00 1.462900161743164062e+00 -1.825202554464340210e-01
1.754000000000000000e+03 6.285314559936523438e+00 1.003514957427978516e+01 -7.830919639673084021e-05 7.786318892613053322e-04 2.100968122249469161e-04 -1.207901514135301113e-04
1.755000000000000000e+03 7.344397544860839844e+00 1.873639488220214844e+01 7.453624275512993336e-04 -1.535155315650627017e-04 1.775540731614455581e-04 -8.263459894806146622e-04
1.756000000000000000e+03 2.084433555603027344e+01 -3.839202117919921875e+01 -3.922991454601287842e-02 9.581097364425659180e-01 2.756639420986175537e-01 -5.111696571111679077e-02
1.757000000000000000e+03 2.777940559387207031e+01 -3.886265182495117188e+01 -5.244785547256469727e-02 2.030300855636596680e+00 5.933558940887451172e-01 -1.333913765847682953e-02
1.758000000000000000e+03 2.294271469116210938e+01 -2.066717147827148438e+01 -2.302679419517517090e-02 1.248153448104858398e+00 3.675379753112792969e-01 7.319704443216323853e-02
1.759000000000000000e+03 9.980587005615234375e+00 -3.445471572875976562e+01 -2.149747218936681747e-03 2.040697261691093445e-03 -3.271497917012311518e-05 4.555119667202234268e-03
1.760000000000000000e+03 1.216809749603271484e+01 -3.392624664306640625e+01 -5.932318978011608124e-03 -1.245749765075743198e-03 -2.153420588001608849e-03 6.035181693732738495e-03
1.761000000000000000e+03 2.468268013000488281e+01 -2.554773521423339844e+01 -2.275977656245231628e-02 1.559059858322143555e+00 4.608900249004364014e-01 6.616295874118804932e-02
1.762000000000000000e+03 3.250579071044921875e+01 4.160516357421875000e+01 4.533108770847320557e-01 -4.087896347045898438e-01 1.335637737065553665e-02 7.195120304822921753e-02
1.763000000000000000e+03 3.828879165649414062e+01 3.913593292236328125e+01 7.693889737129211426e-01 5.698651075363159180e-01 4.017762243747711182e-01 2.749706208705902100e-01
1.764000000000000000e+03 3.461544799804687500e+01 3.808609771728515625e+01 1.019988358020782471e-01 -4.315458238124847412e-01 -9.886410087347030640e-02 4.836218059062957764e-01
1.765000000000000000e+03 4.397840499877929688e+01 3.074911308288574219e+01 4.436264991760253906e+00 3.452982902526855469e+00 2.366774320602416992e+00 4.721075534820556641e+00
1.766000000000000000e+03 4.378352355957031250e+01 3.091478347778320312e+01 4.376695632934570312e+00 2.475873470306396484e+00 2.055770635604858398e+00 4.058528423309326172e+00
1.767000000000000000e+03 4.345960617065429688e+01 3.102241134643554688e+01 3.806937456130981445e+00 1.732348084449768066e+00 1.661785602569580078e+00 3.250651836395263672e+00
1.768000000000000000e+03 4.258411788940429688e+01 3.100425720214843750e+01 2.517232418060302734e+00 8.024346232414245605e-01 9.959000945091247559e-01 1.924010872840881348e+00
1.769000000000000000e+03 4.744639587402343750e+01 3.623686599731445312e+01 -9.727962017059326172e-01 1.575920295715332031e+01 4.435922145843505859e+00 -1.806674599647521973e-01
1.770000000000000000e+03 4.156187820434570312e+01 3.070092201232910156e+01 1.848340630531311035e+00 6.404693126678466797e-01 7.466430068016052246e-01 1.398021340370178223e+00
1.771000000000000000e+03 4.554085922241210938e+01 3.079069519042968750e+01 3.642240047454833984e+00 1.425845050811767578e+01 5.370207309722900391e+00 7.731843471527099609e+00
1.772000000000000000e+03 4.318266677856445312e+01 3.053466606140136719e+01 3.671338796615600586e+00 2.177247762680053711e+00 1.754575967788696289e+00 3.449062824249267578e+00
1.773000000000000000e+03 4.651854324340820312e+01 3.841566467285156250e+01 -1.167367577552795410e+00 1.190025901794433594e+01 3.219867229461669922e+00 -1.363286018371582031e+00
1.774000000000000000e+03 4.599812316894531250e+01 2.988350677490234375e+01 1.782391071319580078e+00 1.431502151489257812e+01 4.829223632812500000e+00 4.734788894653320312e+00
1.775000000000000000e+03 3.972236633300781250e+01 2.995402145385742188e+01 1.317682623863220215e+00 5.747354030609130859e-01 5.677254199981689453e-01 8.854827880859375000e-01
1.776000000000000000e+03 4.038105392456054688e+01 3.040248680114746094e+01 1.324950337409973145e+00 5.063998103141784668e-01 5.494050383567810059e-01 9.462588429450988770e-01
1.777000000000000000e+03 4.144193649291992188e+01 3.020488929748535156e+01 2.136021375656127930e+00 9.460541009902954102e-01 9.246225953102111816e-01 1.698218107223510742e+00
1.778000000000000000e+03 3.849069595336914062e+01 3.059860610961914062e+01 4.549195468425750732e-01 2.642739713191986084e-01 2.157580554485321045e-01 3.047217726707458496e-01
1.779000000000000000e+03 2.716794204711914062e+01 3.100215148925781250e+01 -1.389387696981430054e-01 9.983166120946407318e-03 -3.868668153882026672e-02 -3.426088094711303711e-01
1.780000000000000000e+03 3.795850038528442383e+00 4.576889514923095703e+00 -4.873045836575329304e-04 5.600147051154635847e-05 -1.293909299420192838e-04 5.001527606509625912e-04
1.781000000000000000e+03 4.574532032012939453e+00 4.395432472229003906e+00 2.435880305711179972e-04 2.734976878855377436e-04 1.551257155369967222e-04 -2.954323717858642340e-04
1.782000000000000000e+03 6.749988555908203125e+00 4.226830005645751953e+00 -3.938896115869283676e-04 -2.617911377456039190e-04 -1.967042335309088230e-04 -9.078209404833614826e-05
1.783000000000000000e+03 2.402350425720214844e+01 2.985772132873535156e+01 -2.469949796795845032e-02 -1.917647123336791992e-01 -6.493926048278808594e-02 -2.785666584968566895e-01
1.784000000000000000e+03 5.383192539215087891e+00 4.926888942718505859e+00 3.785791341215372086e-05 3.296223294455558062e-04 1.102440728573128581e-04 -8.591830555815249681e-05
1.785000000000000000e+03 8.790493965148925781e+00 5.503307342529296875e+00 3.260807134211063385e-04 2.280886692460626364e-04 1.662508148001506925e-04 2.013702760450541973e-04
1.786000000000000000e+03 7.494736671447753906e+00 4.177922725677490234e+00 2.742573851719498634e-04 2.784859971143305302e-04 1.658230030443519354e-04 1.888358383439481258e-05
1.787000000000000000e+03 8.272433280944824219e+00 4.719711780548095703e+00 3.658904752228409052e-04 2.215042914031073451e-04 1.762184256222099066e-04 2.929869806393980980e-04
1.788000000000000000e+03 2.987744903564453125e+01 3.093552589416503906e+01 -1.926779448986053467e-01 1.083805263042449951e-01 -2.528922632336616516e-02 -3.415739536285400391e-01
1.789000000000000000e+03 3.057467269897460938e+01 3.086504554748535156e+01 -1.908864229917526245e-01 1.255471110343933105e-01 -1.960179023444652557e-02 -3.327184319496154785e-01
1.790000000000000000e+03 8.665419578552246094e+00 -4.145673751831054688e+00 -2.882652333937585354e-04 -2.238047891296446323e-04 -1.536210183985531330e-04 1.156236830865964293e-04
1.791000000000000000e+03 2.783853912353515625e+01 3.104008293151855469e+01 -1.605426371097564697e-01 3.720961883664131165e-02 -3.699990361928939819e-02 -3.480669856071472168e-01
1.792000000000000000e+03 2.919037055969238281e+01 3.098843574523925781e+01 -1.876011639833450317e-01 8.571016788482666016e-02 -3.056729957461357117e-02 -3.494257628917694092e-01
1.793000000000000000e+03 3.198983001708984375e+01 3.069026184082031250e+01 -1.603525578975677490e-01 1.586165726184844971e-01 -5.207947106100618839e-04 -2.953763306140899658e-01
1.794000000000000000e+03 3.270288085937500000e+01 3.059525489807128906e+01 -1.269020587205886841e-01 1.749130338430404663e-01 1.440329570323228836e-02 -2.658639550209045410e-01
1.795000000000000000e+03 7.939762592315673828e+00 -4.135468482971191406e+00 2.711409761104732752e-04 2.424982667434960604e-04 1.540917728561908007e-04 -5.879505624761804938e-05
1.796000000000000000e+03 1.145133209228515625e+01 -9.227792739868164062e+00 -8.731223060749471188e-04 -1.037165056914091110e-04 -2.930516493506729603e-04 1.985929557122290134e-04
1.797000000000000000e+03 4.912944030761718750e+01 3.504469299316406250e+01 2.380040645599365234e+00 1.511640071868896484e+01 5.248932361602783203e+00 2.432766199111938477e+00
1.798000000000000000e+03 5.021028518676757812e+01 3.598365402221679688e+01 1.558263659477233887e+00 1.353413295745849609e+01 4.527719020843505859e+00 1.910862326622009277e+00
1.799000000000000000e+03 3.342030334472656250e+01 3.050003242492675781e+01 -8.255016803741455078e-02 1.880220770835876465e-01 3.164157643914222717e-02 -2.293932139873504639e-01
1.800000000000000000e+03 3.414138412475585938e+01 3.040782356262207031e+01 -1.979916542768478394e-02 2.037608027458190918e-01 5.518849194049835205e-02 -1.807116419076919556e-01
1.801000000000000000e+03 7.186799049377441406e+00 -4.930131435394287109e+00 2.140629949280992150e-04 3.120457404293119907e-04 1.578326191520318389e-04 2.530769052100367844e-05
1.802000000000000000e+03 5.164264202117919922e+00 -4.071922302246093750e+00 3.593574219848960638e-04 1.689470227574929595e-04 1.584913406986743212e-04 -1.395257859257981181e-04
1.803000000000000000e+03 3.484994888305664062e+01 2.966409683227539062e+01 2.879780232906341553e-01 2.796804010868072510e-01 1.702975332736968994e-01 -5.897931754589080811e-02
1.804000000000000000e+03 7.209408760070800781e+00 -4.151855945587158203e+00 -2.503539726603776217e-04 -2.406453859293833375e-04 -1.472998119425028563e-04 -3.877508424920961261e-05
1.805000000000000000e+03 7.536252975463867188e+00 -6.283850193023681641e+00 1.051499748427886516e-05 -1.585053250892087817e-04 -4.439710028236731887e-05 3.052380052395164967e-04
1.806000000000000000e+03 3.705047225952148438e+01 3.012298202514648438e+01 4.229135513305664062e-01 2.921858429908752441e-01 2.145298123359680176e-01 1.550549715757369995e-01
1.807000000000000000e+03 1.250233936309814453e+01 6.703458309173583984e+00 -7.863969076424837112e-04 -8.642727334517985582e-05 -2.618472499307245016e-04 -5.658952431986108422e-05
1.808000000000000000e+03 6.478481292724609375e+00 -4.171882152557373047e+00 3.433718229644000530e-04 1.798254088498651981e-04 1.569591695442795753e-04 1.374958083033561707e-04
1.809000000000000000e+03 7.232088088989257812e+00 -5.674065589904785156e+00 -8.429965964751318097e-05 -3.239150391891598701e-04 -1.224644074682146311e-04 -4.062739026267081499e-05
1.810000000000000000e+03 5.621747493743896484e+00 -5.026212692260742188e+00 6.825333111919462681e-04 1.019269329844973981e-04 2.353380696149542928e-04 1.993867044802755117e-04
1.811000000000000000e+03 3.559641647338867188e+01 3.024377441406250000e+01 1.565762758255004883e-01 2.378539890050888062e-01 1.183290779590606689e-01 -4.796266928315162659e-02
1.812000000000000000e+03 3.775744247436523438e+01 3.007817268371582031e+01 5.946823954582214355e-01 3.303277492523193359e-01 2.775030434131622314e-01 2.914885580539703369e-01
1.813000000000000000e+03 1.265545558929443359e+01 -5.468595027923583984e+00 -6.541438051499426365e-04 -7.059277413645759225e-05 -2.174209803342819214e-04 1.137489962275139987e-04
1.814000000000000000e+03 3.910578918457031250e+01 2.999737739562988281e+01 1.045785784721374512e+00 4.650191068649291992e-01 4.532414674758911133e-01 6.497265100479125977e-01
1.815000000000000000e+03 4.448197937011718750e+01 3.609628677368164062e+01 3.623972833156585693e-01 7.092176914215087891e+00 2.236372232437133789e+00 -2.895903348922729492e+00
1.816000000000000000e+03 4.621235275268554688e+01 3.667998123168945312e+01 -1.166285753250122070e+00 1.301384353637695312e+01 3.554267406463623047e+00 -1.869766354560852051e+00
1.817000000000000000e+03 4.491685867309570312e+01 3.647943878173828125e+01 -7.182204723358154297e-02 8.994061470031738281e+00 2.676671743392944336e+00 -3.216755867004394531e+00
1.818000000000000000e+03 4.652214431762695312e+01 2.961598205566406250e+01 1.473859786987304688e+00 1.504647541046142578e+01 4.956100463867187500e+00 3.337265968322753906e+00
1.819000000000000000e+03 4.709234237670898438e+01 2.923696327209472656e+01 1.189578175544738770e+00 1.490067195892333984e+01 4.827075004577636719e+00 2.104755401611328125e+00
1.820000000000000000e+03 1.244751262664794922e+01 4.550696372985839844e+00 -8.020858513191342354e-04 -2.480681177985388786e-05 -2.480678085703402758e-04 1.979399166884832084e-05
1.821000000000000000e+03 1.016974163055419922e+01 8.020702362060546875e+00 8.443451952189207077e-04 1.337759604211896658e-04 2.934363437816500664e-04 1.323397009400650859e-04
1.822000000000000000e+03 4.824041748046875000e+01 2.951816749572753906e+01 2.225466966629028320e+00 1.493082046508789062e+01 5.146885871887207031e+00 -3.245899453759193420e-02
1.823000000000000000e+03 5.000473022460937500e+01 3.115036773681640625e+01 5.019915580749511719e+00 1.282061100006103516e+01 5.352158069610595703e+00 -5.921484827995300293e-01
1.824000000000000000e+03 2.553281211853027344e+01 3.153032302856445312e+01 -1.223662942647933960e-01 -5.314703658223152161e-02 -5.265399813652038574e-02 -2.956815361976623535e-01
1.825000000000000000e+03 1.142406082153320312e+01 4.806733131408691406e+00 8.130812784656882286e-04 1.718991006782744080e-05 2.490813494659960270e-04 1.221303828060626984e-04
1.826000000000000000e+03 4.191090393066406250e+01 4.106498336791992188e+01 5.670347809791564941e-01 4.073378562927246094e+00 1.392124056816101074e+00 -4.322022497653961182e-01
1.827000000000000000e+03 2.591104507446289062e+01 5.190267562866210938e-01 -2.690954878926277161e-02 1.181597232818603516e+00 3.464062809944152832e-01 3.447909355163574219e-01
1.828000000000000000e+03 2.604217147827148438e+01 -1.882951736450195312e+01 -3.214054927229881287e-02 1.706344008445739746e+00 5.022610425949096680e-01 1.124411150813102722e-01
1.829000000000000000e+03 2.600080299377441406e+01 -1.740194511413574219e+01 -3.265743330121040344e-02 1.683991432189941406e+00 4.954002201557159424e-01 1.232572272419929504e-01
1.830000000000000000e+03 2.570416259765625000e+01 -5.005566120147705078e+00 -3.146359696984291077e-02 1.364758849143981934e+00 3.999885916709899902e-01 2.602813839912414551e-01
1.831000000000000000e+03 1.060180187225341797e+01 -1.541187381744384766e+01 1.067044562660157681e-03 4.234589578118175268e-04 4.471510474104434252e-04 -3.576798480935394764e-04
1.832000000000000000e+03 1.120105075836181641e+01 1.040851211547851562e+01 -7.994342595338821411e-04 -2.439878007862716913e-04 -3.130266268271952868e-04 -9.419978596270084381e-05
1.833000000000000000e+03 9.546905517578125000e+00 5.717392921447753906e+00 -4.672254726756364107e-04 -2.438976080156862736e-04 -2.133369271177798510e-04 -3.655250184237957001e-04
1.834000000000000000e+03 1.022879791259765625e+01 1.706023979187011719e+01 -8.879382512532174587e-04 -2.602178137749433517e-04 -3.444468311499804258e-04 3.006416663993149996e-04
1.835000000000000000e+03 1.080568122863769531e+01 2.516438674926757812e+01 -2.563191344961524010e-03 -2.390056351941893809e-06 -7.696744287386536598e-04 1.143545887316577137e-04
1.836000000000000000e+03 1.118159770965576172e+01 -1.166965293884277344e+01 -9.675241308286786079e-04 -1.543656399007886648e-04 -3.365669399499893188e-04 2.550695498939603567e-04
1.837000000000000000e+03 1.099951171875000000e+01 -1.291262435913085938e+01 1.037117210216820240e-03 2.246712974738329649e-04 3.785365552175790071e-04 -2.741862845141440630e-04
1.838000000000000000e+03 2.450033760070800781e+01 -2.383918285369873047e+00 -1.803058572113513947e-02 1.042949318885803223e+00 3.074755966663360596e-01 2.447477579116821289e-01
1.839000000000000000e+03 2.585519409179687500e+01 -8.819520473480224609e-01 -2.949399687349796295e-02 1.231221437454223633e+00 3.605182170867919922e-01 3.228954970836639404e-01
1.840000000000000000e+03 6.222010612487792969e+00 -3.114210700988769531e+01 2.091928385198116302e-03 9.826818713918328285e-04 9.223830420523881912e-04 -5.263527418719604611e-05
1.841000000000000000e+03 7.523615264892578125e+01 3.310743713378906250e+01 1.511095613241195679e-01 5.318235397338867188e+00 1.640803456306457520e+00 -4.219748079776763916e-01
1.842000000000000000e+03 7.323139953613281250e+01 2.896678924560546875e+01 1.733812391757965088e-01 6.096502780914306641e+00 1.880965232849121094e+00 -7.193054556846618652e-01
1.843000000000000000e+03 1.548562622070312500e+01 4.022073364257812500e+01 1.021506357938051224e-02 1.592887914739549160e-03 3.542385529726743698e-03 -2.947246190160512924e-03
1.844000000000000000e+03 2.585524368286132812e+01 -1.173813915252685547e+01 -2.646394632756710052e-02 1.567888140678405762e+00 4.624272584915161133e-01 1.826805323362350464e-01
1.845000000000000000e+03 7.547975921630859375e+01 -2.721406364440917969e+01 -1.366892457008361816e-02 9.177102088928222656e+00 2.749029874801635742e+00 -4.249326139688491821e-02
1.846000000000000000e+03 7.413468170166015625e+01 -2.816099357604980469e+01 -1.534865982830524445e-02 8.971157073974609375e+00 2.686742544174194336e+00 -4.866658523678779602e-02
1.847000000000000000e+03 2.437675476074218750e+01 -9.207643508911132812e+00 -1.422906573861837387e-02 1.264763951301574707e+00 3.751604855060577393e-01 1.768090426921844482e-01
1.848000000000000000e+03 2.576535797119140625e+01 -7.639304161071777344e+00 -3.253286704421043396e-02 1.457065463066101074e+00 4.273597896099090576e-01 2.304348051548004150e-01
1.849000000000000000e+03 7.430339813232421875e+01 2.228104972839355469e+01 4.244288802146911621e-02 6.440228939056396484e+00 1.944801568984985352e+00 -8.256910443305969238e-01
1.850000000000000000e+03 7.549841308593750000e+01 2.361909103393554688e+01 3.273978084325790405e-02 6.094743728637695312e+00 1.838245034217834473e+00 -6.747661828994750977e-01
1.851000000000000000e+03 7.538003540039062500e+01 -2.062056350708007812e+01 -1.652969978749752045e-02 9.099849700927734375e+00 2.724996089935302734e+00 -7.797063887119293213e-02
1.852000000000000000e+03 7.395684814453125000e+01 -2.200559234619140625e+01 -2.191324345767498016e-02 8.908254623413085938e+00 2.665902376174926758e+00 -8.302018791437149048e-02
1.853000000000000000e+03 7.532966613769531250e+01 1.273466777801513672e+01 -4.579208791255950928e-02 7.378047943115234375e+00 2.199676752090454102e+00 -6.453831791877746582e-01
1.854000000000000000e+03 7.415281677246093750e+01 1.575897216796875000e+01 -5.060922726988792419e-02 7.131614685058593750e+00 2.124301671981811523e+00 -8.223335742950439453e-01
1.855000000000000000e+03 7.435822296142578125e+01 8.359149932861328125e+00 -8.363705128431320190e-02 7.792489051818847656e+00 2.312655687332153320e+00 -6.337006092071533203e-01
1.856000000000000000e+03 7.446353149414062500e+01 4.341004848480224609e+00 -8.241234719753265381e-02 8.092723846435546875e+00 2.403093338012695312e+00 -5.163059830665588379e-01
1.857000000000000000e+03 7.540723419189453125e+01 -1.364405059814453125e+01 -2.524978294968605042e-02 8.972814559936523438e+00 2.684269428253173828e+00 -1.359972357749938965e-01
1.858000000000000000e+03 7.403913116455078125e+01 -1.493825435638427734e+01 -3.929927572607994080e-02 8.812968254089355469e+00 2.632100582122802734e+00 -1.504155397415161133e-01
1.859000000000000000e+03 7.407930755615234375e+01 2.482142829895019531e+01 6.793723255395889282e-02 6.217335700988769531e+00 1.885581851005554199e+00 -8.037277460098266602e-01
1.860000000000000000e+03 7.256990051269531250e+01 2.717129516601562500e+01 1.578266471624374390e-01 6.344001293182373047e+00 1.950548410415649414e+00 -8.443423509597778320e-01
1.861000000000000000e+03 7.540222930908203125e+01 2.494543647766113281e+01 4.247720539569854736e-02 5.972217082977294922e+00 1.804408311843872070e+00 -6.626341938972473145e-01
1.862000000000000000e+03 7.548017120361328125e+01 -6.696393013000488281e+00 -3.744138777256011963e-02 8.769285202026367188e+00 2.619553089141845703e+00 -2.236584872007369995e-01
1.863000000000000000e+03 7.409162902832031250e+01 -7.940967559814453125e+00 -5.706966295838356018e-02 8.647093772888183594e+00 2.577007055282592773e+00 -2.514956891536712646e-01
1.864000000000000000e+03 7.433680725097656250e+01 -2.480710029602050781e+00 -7.027846574783325195e-02 8.463887214660644531e+00 2.518082380294799805e+00 -3.539653420448303223e-01
1.865000000000000000e+03 7.387994384765625000e+01 1.121844577789306641e+01 -8.907023072242736816e-02 7.563399314880371094e+00 2.242298841476440430e+00 -7.522722482681274414e-01
1.866000000000000000e+03 7.441577911376953125e+01 2.671298980712890625e-01 -7.415439933538436890e-02 8.334201812744140625e+00 2.478014230728149414e+00 -4.141465723514556885e-01
1.867000000000000000e+03 7.442837524414062500e+01 1.636220097541809082e+00 -7.884713262319564819e-02 8.258165359497070312e+00 2.453795671463012695e+00 -4.483949542045593262e-01
1.868000000000000000e+03 7.565793609619140625e+01 2.966448783874511719e+00 -5.204595625400543213e-02 8.255978584289550781e+00 2.461179733276367188e+00 -4.004506170749664307e-01
1.869000000000000000e+03 7.426232147216796875e+01 -3.854395151138305664e+00 -7.154831290245056152e-02 8.518123626708984375e+00 2.533972501754760742e+00 -3.271138072013854980e-01
1.870000000000000000e+03 7.417971801757812500e+01 -5.221864223480224609e+00 -6.556297838687896729e-02 8.565596580505371094e+00 2.550009965896606445e+00 -2.990138232707977295e-01
1.871000000000000000e+03 7.408827209472656250e+01 -1.073466491699218750e+01 -4.960921779274940491e-02 8.722403526306152344e+00 2.601838350296020508e+00 -2.044326066970825195e-01
1.872000000000000000e+03 7.405384826660156250e+01 -1.214426040649414062e+01 -4.693509265780448914e-02 8.753630638122558594e+00 2.612008571624755859e+00 -1.872865259647369385e-01
1.873000000000000000e+03 7.405713653564453125e+01 -1.776025581359863281e+01 -3.060557693243026733e-02 8.863193511962890625e+00 2.649776220321655273e+00 -1.193407028913497925e-01
1.874000000000000000e+03 7.399676513671875000e+01 -1.915177154541015625e+01 -2.888216637074947357e-02 8.875561714172363281e+00 2.654003858566284180e+00 -1.094028949737548828e-01
1.875000000000000000e+03 7.556086730957031250e+01 1.838136672973632812e+01 -8.309723809361457825e-03 6.715758323669433594e+00 2.012234687805175781e+00 -6.939628720283508301e-01
1.876000000000000000e+03 7.424308776855468750e+01 1.848996543884277344e+01 -1.399282924830913544e-02 6.839667320251464844e+00 2.047702312469482422e+00 -8.440071344375610352e-01
1.877000000000000000e+03 7.446123504638671875e+01 7.003307342529296875e+00 -8.628463745117187500e-02 7.902500629425048828e+00 2.344864845275878906e+00 -5.896337032318115234e-01
1.878000000000000000e+03 7.438468933105468750e+01 -2.448505401611328125e+01 -1.199388317763805389e-02 8.997450828552246094e+00 2.695636987686157227e+00 -6.816565990447998047e-02
1.879000000000000000e+03 7.420024871826171875e+01 -2.701715469360351562e+01 -1.473494246602058411e-02 8.967808723449707031e+00 2.685922145843505859e+00 -5.224758759140968323e-02
1.880000000000000000e+03 7.552754211425781250e+01 -2.592022514343261719e+01 -1.964090624824166298e-03 9.179048538208007812e+00 2.753125429153442383e+00 -5.493386462330818176e-02
1.881000000000000000e+03 7.411643981933593750e+01 -6.578571319580078125e+00 -6.213117018342018127e-02 8.606009483337402344e+00 2.563163518905639648e+00 -2.748358845710754395e-01
1.882000000000000000e+03 7.401997375488281250e+01 -1.354163455963134766e+01 -4.078717529773712158e-02 8.786013603210449219e+00 2.623567819595336914e+00 -1.681487560272216797e-01
1.883000000000000000e+03 7.402918243408203125e+01 1.430052852630615234e+01 -6.059576570987701416e-02 7.279737472534179688e+00 2.165742397308349609e+00 -8.136283159255981445e-01
1.884000000000000000e+03 7.055948638916015625e+01 3.369544982910156250e+01 3.971157968044281006e-01 6.507964134216308594e+00 2.071523904800415039e+00 -5.554415583610534668e-01
1.885000000000000000e+03 7.395114135742187500e+01 -2.055708694458007812e+01 -2.974087558686733246e-02 8.887804031372070312e+00 2.657418966293334961e+00 -9.688771516084671021e-02
1.886000000000000000e+03 7.431738281250000000e+01 2.104017448425292969e+01 2.682207152247428894e-02 6.577155590057373047e+00 1.981193304061889648e+00 -8.427417874336242676e-01
1.887000000000000000e+03 7.258173370361328125e+01 -3.406399917602539062e+01 -3.344362601637840271e-02 8.761022567749023438e+00 2.618273496627807617e+00 -3.532041236758232117e-02
1.888000000000000000e+03 2.438918876647949219e+01 -1.479209613800048828e+01 -9.154513478279113770e-03 1.391526222229003906e+00 4.147115051746368408e-01 1.219893544912338257e-01
1.889000000000000000e+03 7.308769989013671875e+01 3.178852462768554688e+01 2.220594435930252075e-01 5.961856842041015625e+00 1.855174899101257324e+00 -5.986031889915466309e-01
1.890000000000000000e+03 6.689445972442626953e+00 -1.598377990722656250e+01 1.156880287453532219e-03 3.586513339541852474e-04 4.546594864223152399e-04 2.924530053860507905e-05
1.891000000000000000e+03 4.828786373138427734e+00 -3.131142616271972656e+01 -3.003349760547280312e-03 -7.930459687486290932e-04 -1.138918683864176273e-03 -5.943328724242746830e-04
1.892000000000000000e+03 6.021484851837158203e+00 -2.981473159790039062e+01 -3.406156552955508232e-03 -8.851658785715699196e-04 -1.287396764382719994e-03 -1.727611379465088248e-04
1.893000000000000000e+03 1.184026527404785156e+01 -2.129115676879882812e+01 -1.005572194117121398e-04 3.718733496498316526e-04 8.139483543345704675e-05 -1.686119008809328079e-03
1.894000000000000000e+03 4.411067485809326172e+00 3.009915924072265625e+01 2.884432207792997360e-03 -4.910101415589451790e-04 7.180266547948122025e-04 6.204011879162862897e-05
1.895000000000000000e+03 1.133073616027832031e+01 3.080802154541015625e+01 -3.919270820915699005e-03 2.944995067082345486e-04 -1.087431446649134159e-03 5.100847192807123065e-05
1.896000000000000000e+03 2.843779182434082031e+01 9.336330413818359375e+00 1.958798430860042572e-02 1.307372331619262695e+00 3.980880677700042725e-01 5.590046644210815430e-01
1.897000000000000000e+03 5.746532917022705078e+00 -2.607959556579589844e+01 2.142457291483879089e-03 9.863481864158529788e-06 6.456962437368929386e-04 -2.761284849839285016e-05
1.898000000000000000e+03 4.562882900238037109e+00 2.761200904846191406e+01 1.512260525487363338e-03 3.184354281984269619e-04 5.492087802849709988e-04 -4.220035407342948020e-05
1.899000000000000000e+03 5.925365924835205078e+00 2.803823471069335938e+01 -6.907271454110741615e-04 -5.077170790173113346e-04 -3.595332673285156488e-04 -5.428903750726021826e-05
1.900000000000000000e+03 2.572566223144531250e+01 2.037086486816406250e+01 1.775511950254440308e-01 -3.082563634961843491e-03 5.234058946371078491e-02 6.862121075391769409e-02
1.901000000000000000e+03 2.582943153381347656e+01 1.756339836120605469e+01 1.468392908573150635e-01 1.600181013345718384e-01 9.205722063779830933e-02 2.185419797897338867e-01
1.902000000000000000e+03 2.578422355651855469e+01 1.896951675415039062e+01 1.655403226613998413e-01 7.393538206815719604e-02 7.184271514415740967e-02 1.474979370832443237e-01
1.903000000000000000e+03 2.595273399353027344e+01 1.931142210960388184e+00 -2.546592615544795990e-02 1.123691201210021973e+00 3.294675946235656738e-01 3.653818368911743164e-01
1.904000000000000000e+03 2.598740577697753906e+01 1.050133895874023438e+01 3.012019768357276917e-02 6.411616206169128418e-01 2.013845443725585938e-01 4.057741165161132812e-01
1.905000000000000000e+03 2.596532440185546875e+01 1.192164611816406250e+01 5.094570294022560120e-02 5.447957515716552734e-01 1.787224411964416504e-01 3.887655735015869141e-01
1.906000000000000000e+03 2.477616310119628906e+01 8.954212188720703125e+00 8.423773571848869324e-03 4.501016139984130859e-01 1.375576108694076538e-01 3.363096714019775391e-01
1.907000000000000000e+03 2.968659973144531250e+01 8.067892074584960938e+00 -1.431496348232030869e-02 1.682567596435546875e+00 5.004758238792419434e-01 6.188077330589294434e-01
1.908000000000000000e+03 1.446164512634277344e+01 -2.895956993103027344e+01 3.855800954625010490e-03 7.288314518518745899e-04 1.375389751046895981e-03 -5.473574274219572544e-04
1.909000000000000000e+03 3.044218254089355469e+01 1.794997787475585938e+01 3.728917539119720459e-01 1.150110125541687012e+00 4.569005668163299561e-01 5.501604080200195312e-01
1.910000000000000000e+03 2.470891571044921875e+01 1.462664318084716797e+01 6.286737322807312012e-02 6.733199954032897949e-02 3.905981034040451050e-02 2.555808722972869873e-01
1.911000000000000000e+03 2.441974639892578125e+01 2.300851249694824219e+01 1.116936951875686646e-01 -3.072684407234191895e-01 -5.867242813110351562e-02 -1.048579961061477661e-01
1.912000000000000000e+03 5.267175197601318359e+00 2.317184448242187500e+01 1.765054883435368538e-03 -1.253743994311662391e-05 5.257552256807684898e-04 5.661905743181705475e-04
1.913000000000000000e+03 1.059867572784423828e+01 2.375855255126953125e+01 2.263157162815332413e-03 6.569585821125656366e-05 6.986558437347412109e-04 -2.601171145215630531e-04
1.914000000000000000e+03 6.773412227630615234e+00 -1.020190048217773438e+01 7.790472591295838356e-04 3.370081540197134018e-04 3.348166355863213539e-04 -1.076330154319293797e-04
1.915000000000000000e+03 5.470400810241699219e+00 -1.020488834381103516e+01 -8.196358103305101395e-04 -1.888059341581538320e-04 -3.025325131602585316e-04 -2.788744859572034329e-05
1.916000000000000000e+03 2.601123046875000000e+01 7.645946979522705078e+00 -7.197591476142406464e-04 8.247342109680175781e-01 2.472043335437774658e-01 4.152922928333282471e-01
1.917000000000000000e+03 2.525154685974121094e+01 2.577586174011230469e+01 1.188772022724151611e-01 -1.876410096883773804e-01 -2.062914334237575531e-02 -2.387138307094573975e-01
1.918000000000000000e+03 2.415386772155761719e+01 2.705866432189941406e+01 5.180193483829498291e-02 -2.898153066635131836e-01 -7.140401005744934082e-02 -2.616398036479949951e-01
1.919000000000000000e+03 2.670492553710937500e+01 3.014944458007812500e+01 -6.503000855445861816e-02 -2.700541168451309204e-02 -2.761062607169151306e-02 -3.493579626083374023e-01
1.920000000000000000e+03 2.593589019775390625e+01 1.333623695373535156e+01 7.255944609642028809e-02 4.462888538837432861e-01 1.556544899940490723e-01 3.620502054691314697e-01
1.921000000000000000e+03 2.590324211120605469e+01 1.474770259857177734e+01 9.770541638135910034e-02 3.476072549819946289e-01 1.335937976837158203e-01 3.252804279327392578e-01
1.922000000000000000e+03 2.513705444335937500e+01 2.705009651184082031e+01 7.541685551404953003e-02 -1.891937851905822754e-01 -3.413307666778564453e-02 -2.836479544639587402e-01
1.923000000000000000e+03 2.600885772705078125e+01 2.809843254089355469e+01 5.695438385009765625e-02 -9.299675375223159790e-02 -1.081271190196275711e-02 -3.286660909652709961e-01
1.924000000000000000e+03 6.148881912231445312e+00 -2.338057899475097656e+01 1.275547430850565434e-03 2.948996552731841803e-04 4.711341171059757471e-04 -5.126902833580970764e-04
1.925000000000000000e+03 9.556912422180175781e+00 2.548631668090820312e+01 2.442324999719858170e-03 9.589445835445076227e-05 7.614658679813146591e-04 9.567380038788542151e-05
1.926000000000000000e+03 5.486684799194335938e+00 2.435718345642089844e+01 -1.517832395620644093e-03 -3.556598385330289602e-04 -5.620476440526545048e-04 -2.691608387976884842e-04
1.927000000000000000e+03 5.461066722869873047e+00 -1.725736427307128906e+01 1.291844178922474384e-03 2.872693585231900215e-04 4.737340786959975958e-04 3.126739757135510445e-04
1.928000000000000000e+03 5.493814468383789062e+00 -1.595738697052001953e+01 -1.164536108262836933e-03 -2.889813913498073816e-04 -4.360552702564746141e-04 -1.727338967612013221e-04
1.929000000000000000e+03 5.543278694152832031e+00 -1.460053443908691406e+01 1.068117562681436539e-03 2.746233076322823763e-04 4.028222465422004461e-04 1.308125210925936699e-04
1.930000000000000000e+03 4.736183166503906250e+00 -2.155579948425292969e+01 2.048707101494073868e-03 -3.727873627212829888e-05 6.034285179339349270e-04 1.998589868890121579e-04
1.931000000000000000e+03 7.847723484039306641e+00 1.596150398254394531e+01 -3.658606437966227531e-04 2.504152362234890461e-04 -3.463362372713163495e-05 -7.454917067661881447e-04
1.932000000000000000e+03 4.367233753204345703e+00 2.064568328857421875e+01 -1.732636010274291039e-03 -1.170020186691544950e-05 -5.233008414506912231e-04 -2.873696503229439259e-04
1.933000000000000000e+03 6.574604034423828125e+00 -1.840138244628906250e+01 1.164524466730654240e-03 4.932834417559206486e-04 4.973423783667385578e-04 2.255189901916310191e-04
1.934000000000000000e+03 5.710992336273193359e+00 -2.734521102905273438e+01 -2.852957695722579956e-03 -6.408899207599461079e-05 -8.751139976084232330e-04 4.523483949014917016e-05
1.935000000000000000e+03 4.704086303710937500e+00 1.460344600677490234e+01 -1.589893712662160397e-03 2.272493875352665782e-04 -4.087933048140257597e-04 1.894062297651544213e-04
1.936000000000000000e+03 6.441194534301757812e+00 2.673530960083007812e+01 -3.902801836375147104e-04 -1.706003240542486310e-05 -1.222020655404776335e-04 1.210628324770368636e-04
1.937000000000000000e+03 4.539616584777832031e+00 2.608113098144531250e+01 -1.607635524123907089e-03 -4.675936070270836353e-04 -6.225687684491276741e-04 -2.750205458141863346e-04
1.938000000000000000e+03 4.499033451080322266e+00 -2.736365127563476562e+01 2.370931673794984818e-03 -2.984967431984841824e-05 7.023246143944561481e-04 -9.121756011154502630e-05
1.939000000000000000e+03 6.961558818817138672e+00 -2.623638534545898438e+01 -1.668392098508775234e-03 -7.418435416184365749e-04 -7.230706978589296341e-04 4.402265039971098304e-05
1.940000000000000000e+03 2.662591934204101562e+01 2.324629402160644531e+01 2.369033098220825195e-01 3.756393119692802429e-02 8.234017342329025269e-02 -7.339686155319213867e-02
1.941000000000000000e+03 2.772218704223632812e+01 2.341691589355468750e+01 3.159056305885314941e-01 1.924818456172943115e-01 1.525162458419799805e-01 -3.497513011097908020e-02
1.942000000000000000e+03 8.027822494506835938e+00 -1.146099281311035156e+01 3.863182209897786379e-04 3.528952365741133690e-04 2.217640285380184650e-04 5.446156137622892857e-06
1.943000000000000000e+03 6.320907592773437500e+00 3.063559150695800781e+01 1.456630998291075230e-03 4.757566202897578478e-04 5.797162884846329689e-04 -1.884716475615277886e-04
1.944000000000000000e+03 5.389915943145751953e+00 2.208100891113281250e+01 -1.576367416419088840e-03 5.477502054418437183e-05 -4.564777191262692213e-04 -7.331959204748272896e-04
1.945000000000000000e+03 5.627510070800781250e+00 2.082082557678222656e+01 1.580856391228735447e-03 1.856966409832239151e-04 5.299659096635878086e-04 5.610444350168108940e-04
1.946000000000000000e+03 6.082328796386718750e+00 -2.109690475463867188e+01 -1.172479125671088696e-03 -9.211423457600176334e-05 -3.793780051637440920e-04 -7.707785116508603096e-04
1.947000000000000000e+03 5.483960628509521484e+00 -1.852193641662597656e+01 -1.282835728488862514e-03 -3.347895690239965916e-04 -4.852875717915594578e-04 -4.816887376364320517e-04
1.948000000000000000e+03 5.434723854064941406e+00 3.532016754150390625e+01 -1.816113828681409359e-03 5.216959398239850998e-04 -3.883253666572272778e-04 -7.441361231030896306e-05
1.949000000000000000e+03 7.131961345672607422e+00 1.684423255920410156e+01 1.065412187017500401e-03 -1.773174590198323131e-04 2.664284256752580404e-04 3.871294611599296331e-04
1.950000000000000000e+03 5.603931903839111328e+00 1.286354160308837891e+01 -9.318788070231676102e-04 -5.963488547422457486e-06 -2.813526662066578865e-04 5.504636792466044426e-04
1.951000000000000000e+03 6.057811260223388672e+00 1.413374328613281250e+01 8.145837928168475628e-04 -7.869279943406581879e-05 2.207672951044514775e-04 -6.386812310665845871e-04
1.952000000000000000e+03 5.822542190551757812e+00 -2.857569313049316406e+01 2.703823614865541458e-03 2.342570078326389194e-04 8.814242319203913212e-04 -1.750954688759520650e-04
1.953000000000000000e+03 5.020308494567871094e+00 -3.391319274902343750e+01 -3.968960139900445938e-03 1.003398210741579533e-04 -1.160586136393249035e-03 -2.839653054252266884e-03
1.954000000000000000e+03 9.621246337890625000e+00 -3.270090866088867188e+01 -2.830740704666823149e-04 7.551321177743375301e-04 1.416174200130626559e-04 2.536193002015352249e-03
1.955000000000000000e+03 1.009211730957031250e+01 1.039062023162841797e+01 8.310863631777465343e-04 2.332754811504855752e-04 3.193085431121289730e-04 8.271293268080626149e-07
1.956000000000000000e+03 4.144422054290771484e+00 9.168444633483886719e+00 -1.030670828185975552e-03 -1.035959430737420917e-04 -3.402800357434898615e-04 -1.283312158193439245e-04
1.957000000000000000e+03 5.401915550231933594e+00 1.159299278259277344e+01 8.722448255866765976e-04 1.926801924128085375e-04 3.194774908479303122e-04 -4.356546269264072180e-04
1.958000000000000000e+03 5.546053409576416016e+00 -1.171741294860839844e+01 8.957457030192017555e-04 2.175708650611341000e-04 3.339949762448668480e-04 1.319734565186081454e-05
1.959000000000000000e+03 4.846859931945800781e+00 -7.457963466644287109e+00 -5.691049736924469471e-04 -1.162815624411450699e-05 -1.742199528962373734e-04 -2.470654726494103670e-04
1.960000000000000000e+03 3.890865564346313477e+00 7.336534023284912109e+00 2.549729833845049143e-04 3.041258059965912253e-05 8.561566937714815140e-05 -3.777458332479000092e-04
1.961000000000000000e+03 5.427623271942138672e+00 8.545340538024902344e+00 -8.042862173169851303e-04 1.952685270225629210e-04 -1.827053056331351399e-04 -2.293650031788274646e-04
1.962000000000000000e+03 7.417060375213623047e+00 -2.385083580017089844e+01 -1.350734615698456764e-03 -3.866092592943459749e-04 -5.212031537666916847e-04 3.754448553081601858e-04
1.963000000000000000e+03 1.094935989379882812e+01 -2.481091499328613281e+01 1.400474575348198414e-03 9.827498579397797585e-04 7.149673183448612690e-04 -7.129457662813365459e-04
1.964000000000000000e+03 1.078895568847656250e+01 -2.594901847839355469e+01 -1.793712843209505081e-03 -9.963242337107658386e-04 -8.370111463591456413e-04 5.519205587916076183e-04
1.965000000000000000e+03 1.058973979949951172e+01 1.358906269073486328e+01 4.533043538685888052e-04 -1.425335940439254045e-04 9.323122503701597452e-05 7.183339912444353104e-04
1.966000000000000000e+03 4.591184616088867188e+00 -6.232852458953857422e+00 3.977830347139388323e-04 1.154271449195221066e-04 1.539630466140806675e-04 2.730028936639428139e-04
1.967000000000000000e+03 4.304431915283203125e+00 -5.176897525787353516e+00 -1.699513377388939261e-04 -9.465620678383857012e-05 -7.938226190162822604e-05 -4.072138399351388216e-04
1.968000000000000000e+03 2.571714973449707031e+01 -6.333969593048095703e+00 -3.452628850936889648e-02 1.411407709121704102e+00 4.130644202232360840e-01 2.463173121213912964e-01
1.969000000000000000e+03 2.573610305786132812e+01 -3.645730495452880859e+00 -3.607644885778427124e-02 1.324556827545166016e+00 3.865441083908081055e-01 2.799930274486541748e-01
1.970000000000000000e+03 2.588675308227539062e+01 -1.314489841461181641e+01 -2.383123710751533508e-02 1.600605726242065430e+00 4.730323553085327148e-01 1.668785214424133301e-01
1.971000000000000000e+03 2.583793640136718750e+01 -1.034033679962158203e+01 -2.644776552915573120e-02 1.534000396728515625e+00 4.522657990455627441e-01 2.010171562433242798e-01
1.972000000000000000e+03 1.028614330291748047e+01 -2.960578346252441406e+01 1.623914809897542000e-03 1.784470514394342899e-03 1.022515585646033287e-03 -3.794109798036515713e-04
1.973000000000000000e+03 2.601180839538574219e+01 6.212847232818603516e+00 -9.777117520570755005e-03 9.093859791755676270e-01 2.698826491832733154e-01 4.102060198783874512e-01
1.974000000000000000e+03 2.581244087219238281e+01 -8.967161178588867188e+00 -3.321152180433273315e-02 1.497850775718688965e+00 4.393917620182037354e-01 2.137461900711059570e-01
1.975000000000000000e+03 1.174976158142089844e+01 2.195919036865234375e+01 2.303200541064143181e-03 5.853776019648648798e-05 7.085214601829648018e-04 -1.103910763049498200e-04
1.976000000000000000e+03 1.087987232208251953e+01 1.919230842590332031e+01 -1.364515512250363827e-03 -4.278956330381333828e-04 -5.377233028411865234e-04 -3.673947940114885569e-04
1.977000000000000000e+03 2.447840118408203125e+01 -2.042639541625976562e+01 -2.359692938625812531e-02 1.468154788017272949e+00 4.333673715591430664e-01 8.497735857963562012e-02
1.978000000000000000e+03 2.320423698425292969e+01 -2.377768135070800781e+01 -1.956887729465961456e-02 1.326192140579223633e+00 3.919869661331176758e-01 5.751810595393180847e-02
1.979000000000000000e+03 1.108847141265869141e+01 1.160904693603515625e+01 6.961551844142377377e-04 4.378618323244154453e-04 3.402050933800637722e-04 1.625841978238895535e-04
1.980000000000000000e+03 9.809167861938476562e+00 2.973136520385742188e+01 -4.010518081486225128e-03 7.192157790996134281e-04 -9.873907547444105148e-04 -4.341082239989191294e-04
1.981000000000000000e+03 1.064606857299804688e+01 1.812341308593750000e+01 1.090476172976195812e-03 4.272248770575970411e-04 4.553103353828191757e-04 -7.230664050439372659e-05
1.982000000000000000e+03 1.167567157745361328e+01 -2.984466171264648438e+01 -2.872677752748131752e-03 -2.115067793056368828e-03 -1.496323617175221443e-03 1.296639209613204002e-03
1.983000000000000000e+03 2.579241752624511719e+01 -2.269930124282836914e+00 -3.299145400524139404e-02 1.277071237564086914e+00 3.732239305973052979e-01 3.035622835159301758e-01
1.984000000000000000e+03 2.600073814392089844e+01 4.779677391052246094e+00 -1.786899939179420471e-02 9.875068664550781250e-01 2.908913493156433105e-01 3.991075158119201660e-01
1.985000000000000000e+03 2.592659378051757812e+01 -1.455961799621582031e+01 -2.653594315052032471e-02 1.631262302398681641e+00 4.814178943634033203e-01 1.499115675687789917e-01
1.986000000000000000e+03 2.427058601379394531e+01 -2.966460037231445312e+01 4.699361510574817657e-03 1.528525114059448242e+00 4.599673449993133545e-01 3.773839026689529419e-02
1.987000000000000000e+03 1.119316482543945312e+01 2.940678215026855469e+01 3.720932640135288239e-03 -2.784506068564951420e-04 1.032744650729000568e-03 1.718720304779708385e-04
1.988000000000000000e+03 8.115028381347656250e+00 2.458684158325195312e+01 2.078786725178360939e-03 2.096160460496321321e-04 6.865208270028233528e-04 3.072737308684736490e-04
1.989000000000000000e+03 1.421435642242431641e+01 3.824658584594726562e+01 -6.397219374775886536e-03 2.584721369203180075e-04 -1.841624150983989239e-03 1.815153053030371666e-03
1.990000000000000000e+03 6.329361438751220703e+00 3.358799362182617188e+01 1.372695667669177055e-03 -1.404979615472257137e-03 -9.685172699391841888e-06 -5.003224941901862621e-04
1.991000000000000000e+03 4.114675140380859375e+01 3.870133590698242188e+01 8.097416758537292480e-01 2.173516035079956055e+00 8.949773311614990234e-01 -9.629741311073303223e-01
1.992000000000000000e+03 7.217671203613281250e+01 4.106573104858398438e+01 2.278850525617599487e-01 5.920781135559082031e+00 1.844599843025207520e+00 -7.734688371419906616e-02
1.993000000000000000e+03 4.418717956542968750e+01 3.054277801513671875e+01 4.408607006072998047e+00 4.766674518585205078e+00 2.752584457397460938e+00 5.351087093353271484e+00
1.994000000000000000e+03 4.250733184814453125e+01 3.048896217346191406e+01 2.896993637084960938e+00 1.382774591445922852e+00 1.283930420875549316e+00 2.478078365325927734e+00
1.995000000000000000e+03 4.193592071533203125e+01 3.008038139343261719e+01 2.568249702453613281e+00 1.331329226493835449e+00 1.169873714447021484e+00 2.189179897308349609e+00
1.996000000000000000e+03 4.092515563964843750e+01 3.031287002563476562e+01 1.722526073455810547e+00 6.797212362289428711e-01 7.206742167472839355e-01 1.276639103889465332e+00
1.997000000000000000e+03 4.567241668701171875e+01 3.045011520385742188e+01 2.644947290420532227e+00 1.488763427734375000e+01 5.259774208068847656e+00 6.416551113128662109e+00
1.998000000000000000e+03 4.304954528808593750e+01 3.017693519592285156e+01 3.448858737945556641e+00 2.551651954650878906e+00 1.800153255462646484e+00 3.517431974411010742e+00
1.999000000000000000e+03 4.028914642333984375e+01 2.989720344543457031e+01 1.628142237663269043e+00 7.310864925384521484e-01 7.077686190605163574e-01 1.171420812606811523e+00
2.000000000000000000e+03 3.964977264404296875e+01 2.942636680603027344e+01 1.558106899261474609e+00 7.861961126327514648e-01 7.032908797264099121e-01 1.087507724761962891e+00
2.001000000000000000e+03 4.904172515869140625e+01 2.924927711486816406e+01 2.315537452697753906e+00 1.388293457031250000e+01 4.859541416168212891e+00 -4.837712347507476807e-01
2.002000000000000000e+03 3.844527435302734375e+01 3.003741645812988281e+01 8.023024201393127441e-01 3.862119913101196289e-01 3.565543293952941895e-01 4.524051249027252197e-01
2.003000000000000000e+03 3.905100250244140625e+01 2.944905662536621094e+01 1.309134960174560547e+00 6.414122581481933594e-01 5.851641893386840820e-01 8.363968133926391602e-01
2.004000000000000000e+03 4.544240570068359375e+01 3.573871994018554688e+01 -2.005499005317687988e-01 1.112555313110351562e+01 3.277500867843627930e+00 -3.568944215774536133e+00
2.005000000000000000e+03 5.817539691925048828e+00 6.539294719696044922e+00 5.554117378778755665e-04 -1.204445925395702943e-05 1.630101760383695364e-04 2.950924390461295843e-04
2.006000000000000000e+03 8.156693458557128906e+00 5.254989624023437500e+00 -4.358330916147679090e-04 3.015878610312938690e-05 -1.217022945638746023e-04 -1.250183704541996121e-04
2.007000000000000000e+03 9.669752120971679688e+00 4.880919456481933594e+00 5.778835620731115341e-04 1.681196736171841621e-04 2.238009765278548002e-04 3.554177528712898493e-04
2.008000000000000000e+03 7.478072166442871094e+00 6.286919116973876953e+00 -1.423100475221872330e-04 1.147675284300930798e-04 -8.262755727628245950e-06 -1.255064125871285796e-04
2.009000000000000000e+03 7.694106578826904297e+00 4.853320598602294922e+00 -5.483381028170697391e-05 -1.314703258685767651e-04 -5.589123975369147956e-05 7.440293848048895597e-05
2.010000000000000000e+03 2.647880172729492188e+01 3.087534141540527344e+01 -1.130020171403884888e-01 -2.383164502680301666e-02 -4.105009883642196655e-02 -3.345465660095214844e-01
2.011000000000000000e+03 2.731936454772949219e+01 3.025658798217773438e+01 -8.081659674644470215e-02 8.271322585642337799e-03 -2.176358364522457123e-02 -3.575670421123504639e-01
2.012000000000000000e+03 5.690975666046142578e+00 5.442392349243164062e+00 3.774009819608181715e-04 1.755372068146243691e-05 1.184864086098968983e-04 2.779564529191702604e-04
2.013000000000000000e+03 3.902616977691650391e+00 5.398945808410644531e+00 5.184726323932409286e-04 2.094471419695764780e-04 2.183759352192282677e-04 -5.795266479253768921e-04
2.014000000000000000e+03 6.600807666778564453e+00 5.035718441009521484e+00 5.472868797369301319e-04 1.099154687835834920e-04 1.971607125597074628e-04 1.671493373578414321e-04
2.015000000000000000e+03 6.270810604095458984e+00 5.807438850402832031e+00 -6.156353047117590904e-04 -2.893037526519037783e-05 -1.933697058120742440e-04 -2.972618967760354280e-04
2.016000000000000000e+03 9.266438484191894531e+00 -4.936907291412353516e+00 -3.485975903458893299e-04 -1.888396218419075012e-04 -1.612311607459560037e-04 2.069774927804246545e-04
2.017000000000000000e+03 8.576155662536621094e+00 -4.885326862335205078e+00 3.571006236597895622e-04 2.376517222728580236e-04 1.784257037797942758e-04 -1.581683027325198054e-04
2.018000000000000000e+03 2.851021957397460938e+01 3.102595329284667969e+01 -1.754291355609893799e-01 6.303513795137405396e-02 -3.371819853782653809e-02 -3.495532870292663574e-01
2.019000000000000000e+03 7.239542484283447266e+00 5.351515293121337891e+00 -4.374442214611917734e-04 3.493017720757052302e-05 -1.207542081829160452e-04 -5.262282502371817827e-05
2.020000000000000000e+03 1.043705081939697266e+01 5.820315361022949219e+00 7.385675562545657158e-04 8.059674291871488094e-05 2.457493101246654987e-04 2.626354689709842205e-04
2.021000000000000000e+03 3.060537719726562500e+01 3.013314437866210938e+01 -6.287096440792083740e-02 1.446604281663894653e-01 2.453683689236640930e-02 -3.292737007141113281e-01
2.022000000000000000e+03 2.992368698120117188e+01 3.018743705749511719e+01 -7.805799692869186401e-02 1.197664812207221985e-01 1.251254510134458542e-02 -3.462559580802917480e-01
2.023000000000000000e+03 3.129636764526367188e+01 3.006315231323242188e+01 -3.602652996778488159e-02 1.641879826784133911e-01 3.844843432307243347e-02 -3.085941672325134277e-01
2.024000000000000000e+03 3.128048706054687500e+01 3.078145408630371094e+01 -1.803308874368667603e-01 1.446125507354736328e-01 -1.071550045162439346e-02 -3.161704242229461670e-01
2.025000000000000000e+03 3.199563598632812500e+01 2.998294639587402344e+01 1.485720044001936913e-03 1.872428506612777710e-01 5.661857128143310547e-02 -2.798452675342559814e-01
2.026000000000000000e+03 2.924816703796386719e+01 3.022578239440917969e+01 -8.572718501091003418e-02 9.606117755174636841e-02 3.100197063758969307e-03 -3.540283441543579102e-01
2.027000000000000000e+03 2.793898391723632812e+01 3.026848793029785156e+01 -8.760516345500946045e-02 3.808644413948059082e-02 -1.485561579465866089e-02 -3.605234622955322266e-01
2.028000000000000000e+03 3.270112228393554688e+01 2.989933967590332031e+01 4.896076396107673645e-02 2.083871662616729736e-01 7.720438390970230103e-02 -2.419953048229217529e-01
2.029000000000000000e+03 5.038859176635742188e+01 3.044827842712402344e+01 3.999605417251586914e+00 1.242596530914306641e+01 4.927671432495117188e+00 -8.542192578315734863e-01
2.030000000000000000e+03 3.486724472045898438e+01 3.032086944580078125e+01 5.833751335740089417e-02 2.176737040281295776e-01 8.280336856842041016e-02 -1.219811588525772095e-01
2.031000000000000000e+03 3.483782958984375000e+01 2.899235153198242188e+01 4.915215373039245605e-01 3.536210954189300537e-01 2.535427808761596680e-01 2.447415515780448914e-02
2.032000000000000000e+03 3.341195297241210938e+01 2.981621932983398438e+01 1.147343888878822327e-01 2.306002229452133179e-01 1.036003828048706055e-01 -1.921915113925933838e-01
2.033000000000000000e+03 3.412788772583007812e+01 2.973693656921386719e+01 1.923848986625671387e-01 2.520054280757904053e-01 1.333170980215072632e-01 -1.338456571102142334e-01
2.034000000000000000e+03 3.632646560668945312e+01 3.017796134948730469e+01 2.765263915061950684e-01 2.592229545116424561e-01 1.607248038053512573e-01 4.379477724432945251e-02
2.035000000000000000e+03 9.036637306213378906e+00 8.227003097534179688e+00 -7.233617361634969711e-04 -1.203276042360812426e-04 -2.531067875679582357e-04 9.718297951621934772e-05
2.036000000000000000e+03 7.254069328308105469e+00 -7.545740127563476562e+00 4.334845580160617828e-04 -3.765783621929585934e-04 1.707185583654791117e-05 2.990073408000171185e-04
2.037000000000000000e+03 4.463574218750000000e+01 3.727307128906250000e+01 -2.975056879222393036e-02 7.849242210388183594e+00 2.345847368240356445e+00 -2.135391712188720703e+00
2.038000000000000000e+03 4.552933502197265625e+01 3.652073669433593750e+01 -5.624615550041198730e-01 1.051395606994628906e+01 2.985448360443115234e+00 -2.891485452651977539e+00
2.039000000000000000e+03 8.760938644409179688e+00 -6.230123996734619141e+00 7.511606236221268773e-05 -5.007536965422332287e-04 -1.276912807952612638e-04 5.894268397241830826e-04
2.040000000000000000e+03 3.557660675048828125e+01 2.960249710083007812e+01 4.025167524814605713e-01 3.085727095603942871e-01 2.133268415927886963e-01 3.163747116923332214e-02
2.041000000000000000e+03 3.630294036865234375e+01 2.955512046813964844e+01 5.344863533973693848e-01 3.496261239051818848e-01 2.652337551116943359e-01 1.415302902460098267e-01
2.042000000000000000e+03 3.702044296264648438e+01 2.951954460144042969e+01 6.900699138641357422e-01 3.952968120574951172e-01 3.256100416183471680e-01 2.757004797458648682e-01
2.043000000000000000e+03 2.513490676879882812e+01 2.831658172607421875e+01 2.925303764641284943e-02 -1.629696190357208252e-01 -4.011497646570205688e-02 -3.136813938617706299e-01
2.044000000000000000e+03 3.840322113037109375e+01 2.946915245056152344e+01 1.078172326087951660e+00 5.360384583473205566e-01 4.842632412910461426e-01 6.220044493675231934e-01
2.045000000000000000e+03 1.139675998687744141e+01 6.830432415008544922e+00 7.573269540444016457e-04 1.189548274851404130e-04 2.628845395520329475e-04 9.304592094849795103e-05
2.046000000000000000e+03 4.868765640258789062e+01 3.893342971801757812e+01 -1.159458637237548828e+00 1.318060111999511719e+01 3.606342792510986328e+00 4.600395634770393372e-02
2.047000000000000000e+03 5.011088943481445312e+01 3.486264419555664062e+01 2.923206806182861328e+00 1.351189899444580078e+01 4.930531978607177734e+00 2.255699396133422852e+00
2.048000000000000000e+03 1.250792694091796875e+01 5.571773052215576172e+00 7.699557463638484478e-04 4.206325320410542190e-05 2.436057111481204629e-04 2.055620461760554463e-05
2.049000000000000000e+03 5.089521408081054688e+01 3.174270057678222656e+01 4.989301204681396484e+00 1.186764526367187500e+01 5.057083606719970703e+00 -1.552053987979888916e-01
2.050000000000000000e+03 8.171793937683105469e+00 1.253177165985107422e+01 -2.159149153158068657e-04 -1.914869608299341053e-05 -7.051908323774114251e-05 -3.640391223598271608e-04
2.051000000000000000e+03 1.164236259460449219e+01 -5.545181274414062500e+00 6.313050980679690838e-04 1.090183650376275182e-04 2.220970491180196404e-04 -2.317938487976789474e-04
2.052000000000000000e+03 5.140615081787109375e+01 3.465673446655273438e+01 3.204310417175292969e+00 1.232796573638916016e+01 4.659682750701904297e+00 1.803441882133483887e+00
2.053000000000000000e+03 4.558670520782470703e+00 6.661267280578613281e+00 3.367633908055722713e-04 1.350998936686664820e-04 1.415589940734207630e-04 2.171190499211661518e-05
2.054000000000000000e+03 2.787735557556152344e+01 -2.017182350158691406e+01 -4.415894299745559692e-02 2.008919715881347656e+00 5.894282460212707520e-01 1.278862953186035156e-01
2.055000000000000000e+03 4.942859172821044922e+00 -4.738877296447753906e+00 -4.840737674385309219e-04 -4.555221312330104411e-05 -1.588877930771559477e-04 1.524196122772991657e-04
2.056000000000000000e+03 7.273548126220703125e+00 7.196858882904052734e+00 6.070228992030024529e-04 1.331509847659617662e-04 2.220521564595401287e-04 -3.315839858260005713e-04
2.057000000000000000e+03 2.722064018249511719e+01 2.062484979629516602e+00 -4.222506284713745117e-02 1.386919021606445312e+00 4.034081995487213135e-01 4.247138202190399170e-01
2.058000000000000000e+03 1.132967472076416016e+01 -1.043706130981445312e+01 9.209553245455026627e-04 1.331789244432002306e-04 3.162402717862278223e-04 -2.418798540020361543e-04
2.059000000000000000e+03 9.225496292114257812e+00 -9.123441696166992188e+00 -6.749887252226471901e-04 -2.198916627094149590e-04 -2.684641222003847361e-04 3.770684634218923748e-05
2.060000000000000000e+03 9.189817428588867188e+00 1.765187644958496094e+01 5.876644863747060299e-04 3.871762019116431475e-04 2.924521977547556162e-04 -2.099200355587527156e-04
2.061000000000000000e+03 8.795849800109863281e+00 1.514844322204589844e+01 -7.803081643942277879e-06 -1.607982267159968615e-04 -5.058039096184074879e-05 8.493023342452943325e-04
2.062000000000000000e+03 7.254825592041015625e+00 2.216364097595214844e+01 1.626098062843084335e-03 7.403088238788768649e-05 5.100386915728449821e-04 -5.760869680671021342e-05
2.063000000000000000e+03 8.964477539062500000e+00 2.289646720886230469e+01 1.858975621871650219e-03 1.771467359503731132e-04 6.108367233537137508e-04 -4.292121229809708893e-05
2.064000000000000000e+03 6.631093502044677734e+00 1.249965286254882812e+01 6.006966577842831612e-04 4.037447433802299201e-05 1.923213421832770109e-04 -4.274025268387049437e-04
2.065000000000000000e+03 2.720794677734375000e+01 -7.331727027893066406e+00 -5.584070086479187012e-02 1.696216821670532227e+00 4.921128153800964355e-01 2.704176902770996094e-01
2.066000000000000000e+03 2.701324653625488281e+01 -3.507050037384033203e+00 -5.466854199767112732e-02 1.551124572753906250e+00 4.489367902278900146e-01 3.315139114856719971e-01
2.067000000000000000e+03 1.079817199707031250e+01 -1.415713214874267578e+01 -1.043086987920105457e-03 -3.314253408461809158e-04 -4.123536928091198206e-04 2.896049991250038147e-04
2.068000000000000000e+03 7.115586853027343750e+01 -2.755382156372070312e+01 -3.135521709918975830e-02 8.525990486145019531e+00 2.548390388488769531e+00 -6.614560633897781372e-02
2.069000000000000000e+03 7.084819793701171875e+01 -3.143207740783691406e+01 -2.876232005655765533e-02 8.473471641540527344e+00 2.533412933349609375e+00 -4.869690164923667908e-02
2.070000000000000000e+03 7.280101776123046875e+01 -3.222458648681640625e+01 -2.775472030043601990e-02 8.789771080017089844e+00 2.628604888916015625e+00 -4.410036653280258179e-02
2.071000000000000000e+03 7.445110797882080078e+00 3.199686050415039062e+01 -1.946418662555515766e-03 5.594462272711098194e-04 -4.160917305853217840e-04 1.089991652406752110e-03
2.072000000000000000e+03 9.665228843688964844e+00 2.686121559143066406e+01 -2.637272002175450325e-03 -9.689734724815934896e-05 -8.202508324757218361e-04 -2.702634956222027540e-04
2.073000000000000000e+03 7.395894622802734375e+01 2.614076423645019531e+01 9.612904489040374756e-02 6.138653755187988281e+00 1.870434880256652832e+00 -7.641878724098205566e-01
2.074000000000000000e+03 7.126536560058593750e+01 2.465442276000976562e+01 1.596213579177856445e-01 6.746852397918701172e+00 2.071942090988159180e+00 -1.042899608612060547e+00
2.075000000000000000e+03 7.097309112548828125e+01 1.696031951904296875e+01 -7.891360670328140259e-02 7.323623180389404297e+00 2.173413038253784180e+00 -1.104187846183776855e+00
2.076000000000000000e+03 7.282014465332031250e+01 1.594622039794921875e+01 -6.404833495616912842e-02 7.215531826019287109e+00 2.145445108413696289e+00 -9.468594193458557129e-01
2.077000000000000000e+03 7.277663421630859375e+01 -1.629735755920410156e+01 -5.024114623665809631e-02 8.662957191467285156e+00 2.583814859390258789e+00 -1.569228172302246094e-01
2.078000000000000000e+03 7.271165466308593750e+01 -1.765944480895996094e+01 -4.837348684668540955e-02 8.679261207580566406e+00 2.589266300201416016e+00 -1.404365450143814087e-01
2.079000000000000000e+03 7.139076232910156250e+01 1.005645179748535156e+01 -1.684817075729370117e-01 7.701940536499023438e+00 2.260037660598754883e+00 -8.875226378440856934e-01
2.080000000000000000e+03 7.319789886474609375e+01 8.158169746398925781e+00 -1.160239949822425842e-01 7.797703742980957031e+00 2.304503917694091797e+00 -7.120495438575744629e-01
2.081000000000000000e+03 7.271601104736328125e+01 -9.211300849914550781e+00 -8.129056543111801147e-02 8.515533447265625000e+00 2.530272960662841797e+00 -2.634115517139434814e-01
2.082000000000000000e+03 7.274121856689453125e+01 -1.061220169067382812e+01 -7.009442150592803955e-02 8.553305625915527344e+00 2.544963359832763672e+00 -2.387185543775558472e-01
2.083000000000000000e+03 7.317678070068359375e+01 -1.019258379936218262e+00 -1.023109555244445801e-01 8.298235893249511719e+00 2.458777427673339844e+00 -4.399563968181610107e-01
2.084000000000000000e+03 7.309184265136718750e+01 -2.356110572814941406e+00 -1.015108674764633179e-01 8.344934463500976562e+00 2.473027229309082031e+00 -4.087873101234436035e-01
2.085000000000000000e+03 7.296062469482421875e+01 -3.702148675918579102e+00 -9.909969568252563477e-02 8.382049560546875000e+00 2.484884977340698242e+00 -3.805220723152160645e-01
2.086000000000000000e+03 7.200733184814453125e+01 4.433602333068847656e+00 -1.565473824739456177e-01 7.986475944519042969e+00 2.348978519439697266e+00 -6.598306894302368164e-01
2.087000000000000000e+03 7.448452758789062500e+01 5.670871734619140625e+00 -8.175823837518692017e-02 8.001123428344726562e+00 2.375809669494628906e+00 -5.491138100624084473e-01
2.088000000000000000e+03 7.220573425292968750e+01 5.694867610931396484e+00 -1.546867489814758301e-01 7.931928157806396484e+00 2.333172559738159180e+00 -6.915390491485595703e-01
2.089000000000000000e+03 7.382711791992187500e+01 1.276932716369628906e+01 -8.485758304595947266e-02 7.439432621002197266e+00 2.206372499465942383e+00 -7.974777221679687500e-01
2.090000000000000000e+03 9.149728775024414062e+00 3.473125076293945312e+01 -3.663103561848402023e-03 6.770067557226866484e-05 -1.078620902262628078e-03 1.780288730515167117e-04
2.091000000000000000e+03 7.216143798828125000e+01 -2.645772361755371094e+01 -2.721818722784519196e-02 8.664044380187988281e+00 2.591047763824462891e+00 -6.314257532358169556e-02
2.092000000000000000e+03 7.315458679199218750e+01 -2.744319343566894531e+01 -1.766013912856578827e-02 8.821927070617675781e+00 2.641279935836791992e+00 -5.391425266861915588e-02
2.093000000000000000e+03 7.425299835205078125e+01 1.978819465637207031e+01 -1.651393831707537174e-03 6.713810920715332031e+00 2.013647794723510742e+00 -8.436106443405151367e-01
2.094000000000000000e+03 7.209547424316406250e+01 2.816282463073730469e+01 2.120209932327270508e-01 6.367805957794189453e+00 1.973948001861572266e+00 -8.322359323501586914e-01
2.095000000000000000e+03 7.131639099121093750e+01 2.603449058532714844e+01 1.876649260520935059e-01 6.665749549865722656e+00 2.056024312973022461e+00 -9.730050563812255859e-01
2.096000000000000000e+03 1.128937149047851562e+01 9.179141998291015625e+00 8.090178598649799824e-04 1.691624202067032456e-04 2.934540971182286739e-04 1.256409159395843744e-04
2.097000000000000000e+03 8.732032775878906250e+00 -1.865361595153808594e+01 1.251989742740988731e-03 3.977444139309227467e-04 4.949202411808073521e-04 -5.165904876776039600e-04
2.098000000000000000e+03 1.040341663360595703e+01 -1.665861701965332031e+01 -1.052665873430669308e-03 -5.245133070275187492e-04 -4.731537483166903257e-04 4.091331793460994959e-04
2.099000000000000000e+03 2.607148551940917969e+01 2.704993629455566406e+01 1.046041548252105713e-01 -9.484858065843582153e-02 2.926673041656613350e-03 -2.944049239158630371e-01
2.100000000000000000e+03 2.538914871215820312e+01 2.446005439758300781e+01 1.499451994895935059e-01 -1.670419573783874512e-01 -5.129028577357530594e-03 -1.730043888092041016e-01
2.101000000000000000e+03 2.820582962036132812e+01 1.637828445434570312e+01 2.159565985202789307e-01 7.739776968955993652e-01 2.969802916049957275e-01 4.264529943466186523e-01
2.102000000000000000e+03 2.699503898620605469e+01 1.767377662658691406e+01 2.008936554193496704e-01 4.110282063484191895e-01 1.835765540599822998e-01 2.848346233367919922e-01
2.103000000000000000e+03 9.515016555786132812e+00 -2.005992317199707031e+01 1.251519192010164261e-03 -7.217445090645924211e-05 3.538034216035157442e-04 -7.538032950833439827e-04
2.104000000000000000e+03 2.716656112670898438e+01 1.204283905029296875e+01 6.892840564250946045e-02 8.284562230110168457e-01 2.692153751850128174e-01 4.643093645572662354e-01
2.105000000000000000e+03 2.724022102355957031e+01 7.775334358215332031e+00 -2.004934707656502724e-03 1.107382535934448242e+00 3.316133022308349609e-01 4.870518147945404053e-01
2.106000000000000000e+03 9.762782096862792969e+00 2.111860847473144531e+01 1.028477563522756100e-03 2.049785107374191284e-04 3.700368106365203857e-04 -7.490271818824112415e-04
2.107000000000000000e+03 6.320866584777832031e+00 -8.231864929199218750e+00 -2.617044374346733093e-04 1.761761086527258158e-04 -2.565849899838212878e-05 -2.180567971663549542e-04
2.108000000000000000e+03 5.216869354248046875e+00 -8.758937835693359375e+00 7.459006155841052532e-04 -3.734285564860329032e-05 2.125673345290124416e-04 1.428109535481780767e-04
2.109000000000000000e+03 2.708791732788085938e+01 1.486596202850341797e+01 1.336273699998855591e-01 6.217617392539978027e-01 2.266167253255844116e-01 3.985591232776641846e-01
2.110000000000000000e+03 6.964187622070312500e+00 2.506447982788085938e+01 -1.618797658011317253e-03 -3.542273188941180706e-04 -5.919074756093323231e-04 -4.801121249329298735e-04
2.111000000000000000e+03 8.149401664733886719e+00 -2.652664947509765625e+01 1.040579518303275108e-03 9.591022389940917492e-04 5.999045097269117832e-04 -3.778942918870598078e-04
2.112000000000000000e+03 7.643163681030273438e+00 -1.843897438049316406e+01 -1.096040126867592335e-03 -5.629603401757776737e-04 -4.977001226507127285e-04 2.718497707974165678e-04
2.113000000000000000e+03 2.611203765869140625e+01 2.888058471679687500e+01 1.531402021646499634e-02 -8.324720710515975952e-02 -2.037995494902133942e-02 -3.388474583625793457e-01
2.114000000000000000e+03 8.475689888000488281e+00 2.702317047119140625e+01 2.131944522261619568e-03 4.844338109251111746e-04 7.849135436117649078e-04 5.055975052528083324e-04
2.115000000000000000e+03 1.084944248199462891e+01 -2.228122901916503906e+01 6.539086461998522282e-04 -7.820055470801889896e-04 -3.842907244688831270e-05 1.492076902650296688e-03
2.116000000000000000e+03 1.171090602874755859e+01 -2.299724960327148438e+01 -1.395948813296854496e-03 4.774763074237853289e-04 -2.755417663138359785e-04 -1.084127812646329403e-03
2.117000000000000000e+03 6.840858459472656250e+00 1.957600212097167969e+01 1.231042551808059216e-03 4.096466291230171919e-04 4.922067746520042419e-04 5.067341844551265240e-04
2.118000000000000000e+03 5.734672069549560547e+00 1.936426734924316406e+01 -1.608428894542157650e-03 -7.285665924428030849e-05 -5.043856799602508545e-04 -5.825011176057159901e-04
2.119000000000000000e+03 6.874305248260498047e+00 1.517776775360107422e+01 2.300150808878242970e-04 -2.793602106976322830e-05 6.062371903681196272e-05 1.028383499942719936e-03
2.120000000000000000e+03 2.547770881652832031e+01 2.931118392944335938e+01 -1.352623011916875839e-02 -1.163552626967430115e-01 -3.896444663405418396e-02 -3.290344178676605225e-01
2.121000000000000000e+03 5.644282817840576172e+00 -1.979341125488281250e+01 1.283622346818447113e-03 2.247443626401945949e-04 4.525099939201027155e-04 8.194055408239364624e-04
2.122000000000000000e+03 8.439547538757324219e+00 -1.972014617919921875e+01 -1.395965577103197575e-03 -3.570520129869692028e-05 -4.295012331567704678e-04 8.633637335151433945e-04
2.123000000000000000e+03 2.552522850036621094e+01 2.311749839782714844e+01 1.703168153762817383e-01 -1.266348510980606079e-01 1.310458965599536896e-02 -9.641192108392715454e-02
2.124000000000000000e+03 2.677995872497558594e+01 2.188256645202636719e+01 2.513193786144256592e-01 1.202958822250366211e-01 1.114845797419548035e-01 2.237252891063690186e-02
2.125000000000000000e+03 2.760592460632324219e+01 -1.570997810363769531e+01 -4.690886288881301880e-02 1.920376777648925781e+00 5.620403885841369629e-01 1.610769927501678467e-01
2.126000000000000000e+03 2.732963943481445312e+01 -1.004734325408935547e+01 -5.013204738497734070e-02 1.785209655761718750e+00 5.205233097076416016e-01 2.347600460052490234e-01
2.127000000000000000e+03 1.115672874450683594e+01 -2.378488922119140625e+01 -5.137396510690450668e-04 -1.197699340991675854e-03 -5.134316743351519108e-04 7.922571385279297829e-04
2.128000000000000000e+03 6.785123348236083984e+00 -1.464237117767333984e+01 -1.081913826055824757e-03 -3.158599429298192263e-04 -4.193321219645440578e-04 1.421503384335665032e-05
2.129000000000000000e+03 1.061855506896972656e+01 -2.714925765991210938e+01 2.000718377530574799e-03 6.637254846282303333e-04 7.993331528268754482e-04 -6.072077085264027119e-04
2.130000000000000000e+03 5.151787281036376953e+00 9.347138404846191406e+00 7.336376002058386803e-04 3.194592136424034834e-04 3.159290354233235121e-04 -5.230437818681821227e-05
2.131000000000000000e+03 8.091637611389160156e+00 8.576889991760253906e+00 5.790896830148994923e-04 1.137652452598558739e-05 1.771398674463853240e-04 -1.025739038595929742e-04
2.132000000000000000e+03 6.043643951416015625e+00 7.825642108917236328e+00 5.679560126736760139e-04 -1.151891920017078519e-04 1.358300505671650171e-04 2.668994420673698187e-04
2.133000000000000000e+03 9.987709999084472656e+00 1.276251506805419922e+01 5.855859490111470222e-04 4.040102357976138592e-04 2.968788612633943558e-04 -3.352700441610068083e-04
2.134000000000000000e+03 5.577724933624267578e+00 -1.318345165252685547e+01 -9.321483084931969643e-04 -2.884987625293433666e-04 -3.661941154859960079e-04 -5.453130870591849089e-05
2.135000000000000000e+03 6.897524833679199219e+00 -1.319046115875244141e+01 9.981404291465878487e-04 3.030477091670036316e-04 3.903564356733113527e-04 1.220930698764277622e-05
2.136000000000000000e+03 7.442569255828857422e+00 9.109093666076660156e+00 1.752601237967610359e-04 3.149563272017985582e-04 1.470649294788017869e-04 -1.608235324965789914e-04
2.137000000000000000e+03 6.475514888763427734e+00 1.156372833251953125e+01 -8.054874488152563572e-04 -1.873632863862439990e-04 -2.978552365675568581e-04 3.762111300602555275e-04
2.138000000000000000e+03 5.856156826019287109e+00 -7.142816066741943359e+00 3.627372207120060921e-04 2.352364936086814851e-05 1.158782615675590932e-04 2.679780300240963697e-04
2.139000000000000000e+03 2.609508705139160156e+01 -2.023982429504394531e+01 -3.977494314312934875e-02 1.736484169960021973e+00 5.090127587318420410e-01 1.011425852775573730e-01
2.140000000000000000e+03 2.780902671813964844e+01 -1.864514541625976562e+01 -4.934038221836090088e-02 1.986002206802368164e+00 5.809985399246215820e-01 1.333798170089721680e-01
2.141000000000000000e+03 2.596766853332519531e+01 -1.597814846038818359e+01 -2.657900750637054443e-02 1.658839941024780273e+00 4.896782934665679932e-01 1.356010586023330688e-01
2.142000000000000000e+03 2.724856758117675781e+01 6.345567703247070312e+00 -1.839790865778923035e-02 1.187880158424377441e+00 3.508446514606475830e-01 4.787251353263854980e-01
2.143000000000000000e+03 2.718707847595214844e+01 6.437444090843200684e-01 -4.694889858365058899e-02 1.438577055931091309e+00 4.174884557723999023e-01 4.006170034408569336e-01
2.144000000000000000e+03 2.849209403991699219e+01 5.064774990081787109e+00 -4.460667446255683899e-02 1.539787054061889648e+00 4.485540986061096191e-01 5.250445008277893066e-01
2.145000000000000000e+03 9.601589202880859375e+00 1.606819152832031250e+01 4.342798492871224880e-04 9.361913544125854969e-05 1.583697012392804027e-04 -6.794106448069214821e-04
2.146000000000000000e+03 1.007027435302734375e+01 -3.183258056640625000e+01 -8.415982010774314404e-04 3.275864757597446442e-03 7.302799494937062263e-04 -3.599977353587746620e-04
2.147000000000000000e+03 1.074585533142089844e+01 -3.333998870849609375e+01 -2.869972260668873787e-03 7.572644972242414951e-04 -6.338122766464948654e-04 -1.774725737050175667e-03
2.148000000000000000e+03 2.712903785705566406e+01 1.345683860778808594e+01 1.009565740823745728e-01 7.260941267013549805e-01 2.481152117252349854e-01 4.371373653411865234e-01
2.149000000000000000e+03 2.611301612854003906e+01 -2.157345199584960938e+01 -2.726281061768531799e-02 1.751998066902160645e+00 5.174205899238586426e-01 9.877335280179977417e-02
2.150000000000000000e+03 2.505250358581542969e+01 -2.409963607788085938e+01 -1.836966723203659058e-02 1.598853707313537598e+00 4.741452038288116455e-01 7.757353037595748901e-02
2.151000000000000000e+03 2.723839759826660156e+01 3.488185644149780273e+00 -3.785594180226325989e-02 1.327248454093933105e+00 3.868177533149719238e-01 4.464758336544036865e-01
2.152000000000000000e+03 1.030895805358886719e+01 2.234739494323730469e+01 -1.827373635023832321e-03 -2.471572079230099916e-04 -6.223592790775001049e-04 3.790610935539007187e-04
2.153000000000000000e+03 2.268030548095703125e+01 -3.088326454162597656e+01 8.581544272601604462e-03 1.292947173118591309e+00 3.904586136341094971e-01 5.385300144553184509e-02
2.154000000000000000e+03 2.426667213439941406e+01 -2.827510643005371094e+01 -8.871309459209442139e-03 1.523606419563293457e+00 4.544205367565155029e-01 4.814018681645393372e-02
2.155000000000000000e+03 2.580775451660156250e+01 -2.721739768981933594e+01 -2.034396491944789886e-02 1.753339529037475586e+00 5.198986530303955078e-01 6.802470982074737549e-02
2.156000000000000000e+03 1.271619129180908203e+01 3.051390266418457031e+01 4.040930885821580887e-03 -1.531181478640064597e-04 1.166343805380165577e-03 -5.416656858869828284e-05
2.157000000000000000e+03 1.053045463562011719e+01 3.414808273315429688e+01 2.908613067120313644e-03 5.641601746901869774e-04 1.041832030750811100e-03 -1.169277471490204334e-03
2.158000000000000000e+03 1.155670452117919922e+01 -6.773222923278808594e+00 -7.657083333469927311e-04 -6.948871305212378502e-05 -2.505591255612671375e-04 2.185716439271345735e-04
2.159000000000000000e+03 9.462703704833984375e+00 -6.440077781677246094e+00 9.953775443136692047e-04 -7.646615995327010751e-05 2.756734029389917850e-04 -5.084646400064229965e-04
2.160000000000000000e+03 9.644537925720214844e+00 2.834280014038085938e+01 2.620767569169402122e-03 2.744491503108292818e-04 8.685650536790490150e-04 5.102549912407994270e-04
2.161000000000000000e+03 2.568034744262695312e+01 -2.277727508544921875e+01 -3.121134825050830841e-02 1.677178859710693359e+00 4.937902390956878662e-01 8.881615847349166870e-02
2.162000000000000000e+03 7.235003662109375000e+01 -2.191203498840332031e+01 -3.900689631700515747e-02 8.676568984985351562e+00 2.591268539428710938e+00 -9.841071069240570068e-02
2.163000000000000000e+03 7.262178802490234375e+01 -1.488601875305175781e+01 -5.861552804708480835e-02 8.616189956665039062e+00 2.567272424697875977e+00 -1.766655594110488892e-01
2.164000000000000000e+03 8.985315322875976562e+00 -3.566465377807617188e+01 -9.064057841897010803e-03 3.055255860090255737e-03 -1.802640501409769058e-03 -4.698514938354492188e-03
2.165000000000000000e+03 7.264958953857421875e+01 -7.807581424713134766e+00 -8.665608614683151245e-02 8.479509353637695312e+00 2.517856121063232422e+00 -2.942477762699127197e-01
2.166000000000000000e+03 1.142414283752441406e+01 3.675609588623046875e+01 -4.075155593454837799e-03 7.085370598360896111e-04 -1.009985571727156639e-03 -9.640979114919900894e-04
2.167000000000000000e+03 9.998888015747070312e+00 3.258084869384765625e+01 -3.774595214053988457e-03 1.263227022718638182e-04 -1.094481791369616985e-03 3.745944995898753405e-04
2.168000000000000000e+03 8.665272712707519531e+00 3.893750000000000000e+01 -1.638070214539766312e-03 -6.009240751154720783e-04 -6.716983043588697910e-04 -2.084658714011311531e-03
2.169000000000000000e+03 1.007147312164306641e+01 -1.149732589721679688e+01 8.825855329632759094e-04 1.622032577870413661e-04 3.134366415906697512e-04 -3.283603000454604626e-04
2.170000000000000000e+03 9.550038337707519531e+00 -1.384949207305908203e+01 9.474768885411322117e-04 3.543856728356331587e-04 3.905587655026465654e-04 -2.135173126589506865e-04
2.171000000000000000e+03 7.230781555175781250e+01 6.754191398620605469e+00 -1.445061117410659790e-01 7.873146533966064453e+00 2.318592071533203125e+00 -7.223506569862365723e-01
2.172000000000000000e+03 7.198193359375000000e+01 2.177579498291015625e+01 5.932185798883438110e-02 6.845306873321533203e+00 2.071388721466064453e+00 -1.052286624908447266e+00
2.173000000000000000e+03 4.347715377807617188e+01 3.042818260192871094e+01 3.902912855148315430e+00 2.860384702682495117e+00 2.028989315032958984e+00 3.957840204238891602e+00
2.174000000000000000e+03 4.412086486816406250e+01 3.009046173095703125e+01 3.859708547592163086e+00 5.547074794769287109e+00 2.822035074234008789e+00 5.305161952972412109e+00
2.175000000000000000e+03 4.081592941284179688e+01 2.981907272338867188e+01 1.946132898330688477e+00 9.428958892822265625e-01 8.667086362838745117e-01 1.515376448631286621e+00
2.176000000000000000e+03 4.131642150878906250e+01 2.971774291992187500e+01 2.287225484848022461e+00 1.254051566123962402e+00 1.062383055686950684e+00 1.922566533088684082e+00
2.177000000000000000e+03 3.958491516113281250e+01 2.888946151733398438e+01 1.698163509368896484e+00 1.018971920013427734e+00 8.151406645774841309e-01 1.267657041549682617e+00
2.178000000000000000e+03 8.483651161193847656e+00 6.180867671966552734e+00 -2.438626979710534215e-04 -5.201084786676801741e-05 -8.876206265995278955e-05 -1.098646825994364917e-04
2.179000000000000000e+03 6.529900074005126953e+00 7.072349071502685547e+00 -4.619718238245695829e-04 -2.078872785205021501e-04 -2.009577292483299971e-04 -2.990625216625630856e-04
2.180000000000000000e+03 2.690694618225097656e+01 2.953861236572265625e+01 -3.283646330237388611e-02 -2.678801305592060089e-02 -1.788734272122383118e-02 -3.501460850238800049e-01
2.181000000000000000e+03 6.917273044586181641e+00 6.026399612426757812e+00 7.575573981739580631e-04 -8.765204256633296609e-05 2.009716117754578590e-04 5.304817022988572717e-05
2.182000000000000000e+03 3.836418914794921875e+01 2.889111328125000000e+01 1.287796854972839355e+00 7.187793254852294922e-01 6.019728779792785645e-01 7.943416833877563477e-01
2.183000000000000000e+03 3.064550971984863281e+01 2.936708450317382812e+01 6.920236349105834961e-02 1.651406884193420410e-01 7.030291110277175903e-02 -3.085428476333618164e-01
2.184000000000000000e+03 2.858127593994140625e+01 3.025128555297851562e+01 -9.044229239225387573e-02 6.688006222248077393e-02 -7.068669889122247696e-03 -3.611362576484680176e-01
2.185000000000000000e+03 2.623187446594238281e+01 2.585784149169921875e+01 1.615231782197952271e-01 -7.512858510017395020e-02 2.591837756335735321e-02 -2.410829067230224609e-01
2.186000000000000000e+03 2.799446487426757812e+01 2.944157981872558594e+01 -7.757794111967086792e-03 3.914862126111984253e-02 9.417248889803886414e-03 -3.574295341968536377e-01
2.187000000000000000e+03 3.200802612304687500e+01 2.925112915039062500e+01 1.529194712638854980e-01 2.241702526807785034e-01 1.131269186735153198e-01 -2.427952438592910767e-01
2.188000000000000000e+03 3.135075378417968750e+01 2.851821327209472656e+01 2.397868186235427856e-01 2.374021857976913452e-01 1.431567072868347168e-01 -2.296522408723831177e-01
2.189000000000000000e+03 2.716587638854980469e+01 2.902497673034667969e+01 2.106173522770404816e-02 -1.132784876972436905e-02 2.920165890827775002e-03 -3.511961698532104492e-01
2.190000000000000000e+03 2.744211387634277344e+01 2.831748390197753906e+01 7.229131460189819336e-02 1.098479982465505600e-02 2.498283423483371735e-02 -3.349066078662872314e-01
2.191000000000000000e+03 1.025697326660156250e+01 6.869521617889404297e+00 -7.541863596998155117e-04 -1.090836231014691293e-04 -2.589809882920235395e-04 -1.885855890577659011e-04
2.192000000000000000e+03 7.872477054595947266e+00 -5.645197868347167969e+00 3.584265941753983498e-04 3.508802619762718678e-04 2.127920597558841109e-04 -2.621400053612887859e-04
2.193000000000000000e+03 6.490707397460937500e+00 -5.883267402648925781e+00 2.331357536604627967e-04 2.037137601291760802e-04 1.310548541368916631e-04 1.857565366663038731e-04
2.194000000000000000e+03 3.341165542602539062e+01 2.911372566223144531e+01 2.942880988121032715e-01 2.825577855110168457e-01 1.730537563562393188e-01 -1.358535736799240112e-01
2.195000000000000000e+03 8.099331855773925781e+00 -9.154866218566894531e+00 5.977670080028474331e-04 3.302867989987134933e-04 2.784161479212343693e-04 2.342830848647281528e-04
2.196000000000000000e+03 1.048956203460693359e+01 -8.070806503295898438e+00 -7.973562460392713547e-04 -4.246567186783067882e-05 -2.519465924706310034e-04 6.624796515097841620e-05
2.197000000000000000e+03 9.093478202819824219e+00 -5.618336200714111328e+00 3.106739022769033909e-04 2.779244096018373966e-04 1.765794877428561449e-04 -5.368274287320673466e-04
2.198000000000000000e+03 3.342097854614257812e+01 2.838815307617187500e+01 4.584565758705139160e-01 3.513702452182769775e-01 2.429480552673339844e-01 -5.587343126535415649e-02
2.199000000000000000e+03 3.772201538085937500e+01 2.949200439453125000e+01 8.722996711730957031e-01 4.583816826343536377e-01 3.992044031620025635e-01 4.319130778312683105e-01
2.200000000000000000e+03 4.811500549316406250e+01 2.880089187622070312e+01 1.261841297149658203e+00 1.435079097747802734e+01 4.683789730072021484e+00 5.982580780982971191e-01
2.201000000000000000e+03 3.900271606445312500e+01 2.888629341125488281e+01 1.500555634498596191e+00 8.396018743515014648e-01 7.020472884178161621e-01 1.027445793151855469e+00
2.202000000000000000e+03 3.556007385253906250e+01 2.894909095764160156e+01 6.114361882209777832e-01 4.017635881900787354e-01 3.039599359035491943e-01 1.312145292758941650e-01
2.203000000000000000e+03 3.699227142333984375e+01 2.890714645385742188e+01 9.066900014877319336e-01 5.255293250083923340e-01 4.296658039093017578e-01 4.074845314025878906e-01
2.204000000000000000e+03 3.768790054321289062e+01 2.889831924438476562e+01 1.084288239479064941e+00 6.050227284431457520e-01 5.067933201789855957e-01 5.866965055465698242e-01
2.205000000000000000e+03 1.144490242004394531e+01 5.759099483489990234e+00 -7.607155130244791508e-04 -5.418453656602650881e-05 -2.444700221531093121e-04 -9.665076504461467266e-05
2.206000000000000000e+03 1.134098243713378906e+01 7.976154327392578125e+00 -7.839684840291738510e-04 -1.676168176345527172e-04 -2.854756021406501532e-04 -1.252583169844001532e-04
2.207000000000000000e+03 8.785605430603027344e+00 1.146052932739257812e+01 6.118274759501218796e-04 3.658919304143637419e-04 2.933158248197287321e-04 2.174423934775404632e-05
2.208000000000000000e+03 7.206249713897705078e+00 1.338129615783691406e+01 -4.650441405829042196e-04 1.157249789685010910e-04 -1.047957484843209386e-04 5.686787771992385387e-04
2.209000000000000000e+03 9.776280403137207031e+00 1.435869884490966797e+01 -1.756239507813006639e-04 2.919827238656580448e-04 3.490763629088178277e-05 -8.425296400673687458e-04
2.210000000000000000e+03 7.793652534484863281e+00 1.742732620239257812e+01 2.521632122807204723e-04 2.643867046572268009e-04 1.549649750813841820e-04 -8.228298975154757500e-05
2.211000000000000000e+03 8.046551704406738281e+00 -1.481370925903320312e+01 9.754141210578382015e-04 3.900993033312261105e-04 4.096540214959532022e-04 -2.112628862960264087e-04
2.212000000000000000e+03 9.025843620300292969e+00 -1.133155250549316406e+01 -5.668190424330532551e-04 -3.263068501837551594e-04 -2.679377794265747070e-04 3.986997471656650305e-04
2.213000000000000000e+03 1.018636322021484375e+01 9.202682495117187500e+00 -8.368556154891848564e-04 -1.424544898327440023e-04 -2.937930403277277946e-04 -5.148716445546597242e-05
2.214000000000000000e+03 4.967161560058593750e+01 3.693033981323242188e+01 9.292928874492645264e-02 1.412189006805419922e+01 4.264445781707763672e+00 1.363756179809570312e+00
2.215000000000000000e+03 5.289109039306640625e+01 3.141072463989257812e+01 3.519210577011108398e+00 1.071490669250488281e+01 4.270235061645507812e+00 -2.322802990674972534e-01
2.216000000000000000e+03 2.713699531555175781e+01 -7.612251043319702148e-01 -4.833367094397544861e-02 1.482499599456787109e+00 4.302497506141662598e-01 3.751224577426910400e-01
2.217000000000000000e+03 2.973846435546875000e+01 5.227834224700927734e+00 -6.134380400180816650e-02 1.823886871337890625e+00 5.287628769874572754e-01 5.807974338531494141e-01
2.218000000000000000e+03 5.250172615051269531e+00 7.268929004669189453e+00 -4.903522203676402569e-04 -2.321257670701015741e-05 -1.540694356663152575e-04 -3.625421668402850628e-04
2.219000000000000000e+03 7.158316802978515625e+01 1.182467079162597656e+01 -1.516707092523574829e-01 7.594331264495849609e+00 2.232798099517822266e+00 -9.292322993278503418e-01
2.220000000000000000e+03 7.272762298583984375e+01 1.450424575805664062e+01 -9.074581414461135864e-02 7.353163242340087891e+00 2.178725242614746094e+00 -9.235675930976867676e-01
2.221000000000000000e+03 6.003149509429931641e+00 9.144711494445800781e+00 5.550350761041045189e-05 -4.565584240481257439e-04 -1.203164720209315419e-04 3.839120472548529506e-05
2.222000000000000000e+03 9.917651176452636719e+00 1.161832237243652344e+01 -8.029036107473075390e-04 -3.998945176135748625e-04 -3.608394472394138575e-04 1.403601054335013032e-04
2.223000000000000000e+03 4.847414398193359375e+01 3.737842941284179688e+01 -7.425175309181213379e-01 1.446611118316650391e+01 4.117078304290771484e+00 4.960757791996002197e-01
2.224000000000000000e+03 4.498949432373046875e+01 3.999787902832031250e+01 -5.070835947990417480e-01 8.466648101806640625e+00 2.387869358062744141e+00 -1.017115354537963867e+00
2.225000000000000000e+03 1.153583431243896484e+01 -8.013606071472167969e+00 8.380404906347393990e-04 5.883761332370340824e-05 2.690634282771497965e-04 -1.870900159701704979e-04
2.226000000000000000e+03 1.022989177703857422e+01 -1.033258438110351562e+01 -7.512327283620834351e-04 -2.230095706181600690e-04 -2.922726853284984827e-04 2.590175135992467403e-04
2.227000000000000000e+03 6.939433574676513672e+00 1.785847663879394531e+01 -1.349598634988069534e-03 -7.868697139201685786e-05 -4.284856840968132019e-04 -9.300616511609405279e-05
2.228000000000000000e+03 9.634264945983886719e+00 1.858566856384277344e+01 -5.761252832598984241e-04 -6.399275152944028378e-04 -3.648158453870564699e-04 8.790938591118901968e-05
2.229000000000000000e+03 7.333018493652343750e+01 5.646797657012939453e+00 -1.194043606519699097e-01 7.969012260437011719e+00 2.354882240295410156e+00 -6.255407333374023438e-01
2.230000000000000000e+03 6.770556926727294922e+00 8.503066062927246094e+00 -1.244649611180648208e-04 8.004056144272908568e-05 -1.332732244918588549e-05 7.927607657620683312e-05
2.231000000000000000e+03 7.245095825195312500e+01 -2.043729972839355469e+01 -4.327850043773651123e-02 8.675439834594726562e+00 2.589648485183715820e+00 -1.142811700701713562e-01
2.232000000000000000e+03 7.006838226318359375e+01 -2.636461257934570312e+01 -3.815156221389770508e-02 8.372845649719238281e+00 2.500408172607421875e+00 -7.723751664161682129e-02
2.233000000000000000e+03 4.978987503051757812e+01 2.891670608520507812e+01 2.173665523529052734e+00 1.300843048095703125e+01 4.554628849029541016e+00 -7.742674946784973145e-01
2.234000000000000000e+03 9.448866844177246094e+00 -8.071865081787109375e+00 7.690294878557324409e-04 1.751317176967859268e-05 2.359627978876233101e-04 -1.138566367444582283e-04
2.235000000000000000e+03 7.167001342773437500e+01 -3.464310169219970703e+00 -1.332007050514221191e-01 8.256922721862792969e+00 2.437116622924804688e+00 -4.267486333847045898e-01
2.236000000000000000e+03 7.322879791259765625e+01 3.020379304885864258e+00 -1.148531660437583923e-01 8.108555793762207031e+00 2.398110628128051758e+00 -5.536414980888366699e-01
2.237000000000000000e+03 7.204898071289062500e+01 3.742908239364624023e-01 -1.402157843112945557e-01 8.161904335021972656e+00 2.406506538391113281e+00 -5.244398713111877441e-01
2.238000000000000000e+03 8.387750625610351562e+00 2.578452682495117188e+01 -2.386952051892876625e-03 -1.105273549910634756e-04 -7.492438307963311672e-04 -3.581128548830747604e-04
2.239000000000000000e+03 3.152363204956054688e+01 -1.803510665893554688e+01 -8.889134973287582397e-02 2.576039791107177734e+00 7.461445331573486328e-01 1.695669442415237427e-01
2.240000000000000000e+03 7.150337219238281250e+01 2.723394775390625000e+01 2.183165550231933594e-01 6.551115512847900391e+00 2.030829668045043945e+00 -9.255650639533996582e-01
2.241000000000000000e+03 6.859140396118164062e+00 -1.167532825469970703e+01 -8.903960697352886200e-04 -2.153742680093273520e-04 -3.317311056889593601e-04 2.932356437668204308e-05
2.242000000000000000e+03 7.054947662353515625e+01 -2.446624946594238281e+01 -4.771176725625991821e-02 8.427358627319335938e+00 2.513894081115722656e+00 -9.157304465770721436e-02
2.243000000000000000e+03 7.333029174804687500e+01 -2.399492645263671875e+01 -1.801441051065921783e-02 8.831113815307617188e+00 2.643929719924926758e+00 -7.051517814397811890e-02
2.244000000000000000e+03 9.887131690979003906e+00 -1.899907684326171875e+01 -1.186654553748667240e-03 -3.867843188345432281e-04 -4.720316792372614145e-04 5.659208982251584530e-04
2.245000000000000000e+03 9.024888992309570312e+00 -2.195088768005371094e+01 2.863472793251276016e-03 -6.316560902632772923e-04 6.695449701510369778e-04 -1.069607678800821304e-03
2.246000000000000000e+03 7.267018890380859375e+01 -6.423894882202148438e+00 -9.090992063283920288e-02 8.446953773498535156e+00 2.506813287734985352e+00 -3.223391473293304443e-01
2.247000000000000000e+03 7.162975311279296875e+01 -1.627808380126953125e+01 -6.037997826933860779e-02 8.524224281311035156e+00 2.539153337478637695e+00 -1.648494005203247070e-01
2.248000000000000000e+03 7.082982635498046875e+01 2.963820219039916992e+00 -1.891838163137435913e-01 8.004412651062011719e+00 2.344568729400634766e+00 -6.507103443145751953e-01
2.249000000000000000e+03 7.280303955078125000e+01 1.993907546997070312e+01 -1.059579517459496856e-04 6.879448413848876953e+00 2.063802719116210938e+00 -9.795278310775756836e-01
2.250000000000000000e+03 7.135540771484375000e+01 -9.163913726806640625e+00 -1.069004014134407043e-01 8.361908912658691406e+00 2.476502656936645508e+00 -2.966583967208862305e-01
2.251000000000000000e+03 7.235507202148437500e+01 1.307980918884277344e+01 -1.129759922623634338e-01 7.479810714721679688e+00 2.210050582885742188e+00 -9.144916534423828125e-01
2.252000000000000000e+03 7.186996459960937500e+01 -2.175018310546875000e+00 -1.325812935829162598e-01 8.235053062438964844e+00 2.430741548538208008e+00 -4.560163319110870361e-01
2.253000000000000000e+03 6.611338615417480469e+00 2.390555572509765625e+01 1.322077703662216663e-03 4.629894974641501904e-04 5.355201428756117821e-04 2.285791997564956546e-04
2.254000000000000000e+03 6.199206829071044922e+00 2.274388122558593750e+01 -9.693994070403277874e-04 -1.467837137170135975e-04 -3.348549362272024155e-04 3.068218211410567164e-05
2.255000000000000000e+03 2.719750595092773438e+01 1.062429332733154297e+01 4.180203005671501160e-02 9.269765615463256836e-01 2.906335592269897461e-01 4.808818101882934570e-01
2.256000000000000000e+03 2.694235038757324219e+01 1.907929229736328125e+01 2.324515283107757568e-01 3.061859309673309326e-01 1.615912318229675293e-01 2.083698064088821411e-01
2.257000000000000000e+03 3.071967697143554688e+01 2.762787628173828125e+01 3.188003897666931152e-01 2.530345618724822998e-01 1.715504825115203857e-01 -1.991286277770996094e-01
2.258000000000000000e+03 2.955152320861816406e+01 1.230267906188964844e+01 1.033769994974136353e-01 1.398196578025817871e+00 4.504720568656921387e-01 6.184680461883544922e-01
2.259000000000000000e+03 2.923419189453125000e+01 1.925985527038574219e+01 3.664409816265106201e-01 7.633498311042785645e-01 3.389372527599334717e-01 3.692229390144348145e-01
2.260000000000000000e+03 2.809331512451171875e+01 1.917850875854492188e+01 2.982397675514221191e-01 5.369554758071899414e-01 2.505585849285125732e-01 2.834028601646423340e-01
2.261000000000000000e+03 7.254795074462890625e+01 -1.343363189697265625e+01 -6.360960751771926880e-02 8.585537910461425781e+00 2.556578397750854492e+00 -1.980751156806945801e-01
2.262000000000000000e+03 6.612071990966796875e+00 -1.723411178588867188e+01 -1.159754581749439240e-03 -4.486394755076617002e-04 -4.825182259082794189e-04 -9.915100235957652330e-05
2.263000000000000000e+03 7.145417213439941406e+00 -2.504034614562988281e+01 1.349732279777526855e-03 4.527084238361567259e-04 5.407321732491254807e-04 -3.178143815603107214e-04
2.264000000000000000e+03 6.837464809417724609e+00 -2.734924125671386719e+01 2.178430324420332909e-03 -1.118757209042087197e-04 6.199663621373474598e-04 5.066299927420914173e-04
2.265000000000000000e+03 7.780805110931396484e+00 1.953397178649902344e+01 -5.914738285355269909e-04 -6.876570987515151501e-04 -3.837392723653465509e-04 5.871920147910714149e-04
2.266000000000000000e+03 7.066991329193115234e+00 -2.032621574401855469e+01 3.406278847251087427e-04 -3.763009444810450077e-04 -1.070191592589253560e-05 1.054329797625541687e-03
2.267000000000000000e+03 7.901624679565429688e+00 -1.611129570007324219e+01 -1.027888851240277290e-03 -4.683871229644864798e-04 -4.488827835302799940e-04 1.656022941460832953e-04
2.268000000000000000e+03 2.831267356872558594e+01 1.357736015319824219e+01 1.282535344362258911e-01 1.003888249397277832e+00 3.396425247192382812e-01 5.150924921035766602e-01
2.269000000000000000e+03 2.740603637695312500e+01 2.953149986267089844e+01 -1.881599798798561096e-02 7.394410669803619385e-03 -3.426476381719112396e-03 -3.569406569004058838e-01
2.270000000000000000e+03 2.698744010925292969e+01 -4.828563690185546875e+00 -5.441620573401451111e-02 1.600915074348449707e+00 4.639496505260467529e-01 3.060651719570159912e-01
2.271000000000000000e+03 2.964058303833007812e+01 -1.925369977951049805e+00 -1.017113476991653442e-01 2.034717559814453125e+00 5.799018740653991699e-01 4.295608401298522949e-01
2.272000000000000000e+03 2.687824630737304688e+01 2.048771858215332031e+01 2.478527128696441650e-01 2.081100940704345703e-01 1.367888450622558594e-01 1.166834831237792969e-01
2.273000000000000000e+03 9.970056533813476562e+00 -2.154047775268554688e+01 -6.887833587825298309e-04 3.145344671793282032e-04 -1.122746762121096253e-04 -1.090810168534517288e-03
2.274000000000000000e+03 7.130825042724609375e+01 -1.178559970855712891e+01 -8.597792685031890869e-02 8.411456108093261719e+00 2.497643470764160156e+00 -2.467181682586669922e-01
2.275000000000000000e+03 9.823763847351074219e+00 -2.452156066894531250e+01 -1.255819108337163925e-03 -9.921061573550105095e-04 -6.743775447830557823e-04 1.001979457214474678e-03
2.276000000000000000e+03 8.952733993530273438e+00 -1.753661918640136719e+01 -1.079281442798674107e-03 -5.600480944849550724e-04 -4.917988553643226624e-04 3.377150278538465500e-04
2.277000000000000000e+03 2.836120796203613281e+01 1.216860103607177734e+01 8.758940547704696655e-02 1.112206339836120605e+00 3.599387109279632568e-01 5.405989289283752441e-01
2.278000000000000000e+03 9.688812255859375000e+00 -5.790399551391601562e+00 -5.477766389958560467e-04 1.054358654073439538e-04 -1.327022328041493893e-04 4.059505299665033817e-04
2.279000000000000000e+03 9.515128135681152344e+00 -7.187099933624267578e+00 -9.688514401204884052e-04 2.209399826824665070e-04 -2.243734343210235238e-04 2.924075815826654434e-04
2.280000000000000000e+03 7.160882568359375000e+01 1.475933170318603516e+01 -1.068187654018402100e-01 7.401565074920654297e+00 2.188423871994018555e+00 -1.012373566627502441e+00
2.281000000000000000e+03 7.084905147552490234e+00 -9.007797241210937500e+00 -4.815516294911503792e-04 -3.579186741262674332e-04 -2.518410910852253437e-04 3.093311097472906113e-04
2.282000000000000000e+03 6.839012622833251953e+00 1.070249176025390625e+01 7.405963842757046223e-04 -1.183385538752190769e-04 1.866773527581244707e-04 -2.125278297171462327e-05
2.283000000000000000e+03 3.003530311584472656e+01 2.859225463867187500e+01 1.558458954095840454e-01 1.663862913846969604e-01 9.666965901851654053e-02 -2.956266701221466064e-01
2.284000000000000000e+03 7.053773403167724609e+00 -2.837649917602539062e+01 -3.482801839709281921e-03 -3.939811140298843384e-04 -1.163034816272556782e-03 -3.271769382990896702e-04
2.285000000000000000e+03 2.802979660034179688e+01 2.059727287292480469e+01 3.323212265968322754e-01 4.138908684253692627e-01 2.238636314868927002e-01 1.862575560808181763e-01
2.286000000000000000e+03 2.707093620300292969e+01 -6.085497856140136719e+00 -4.849797487258911133e-02 1.648992180824279785e+00 4.801482558250427246e-01 2.852887213230133057e-01
2.287000000000000000e+03 2.792740440368652344e+01 2.202232933044433594e+01 3.280539512634277344e-01 2.971646487712860107e-01 1.875655800104141235e-01 7.313465327024459839e-02
2.288000000000000000e+03 2.848200798034667969e+01 6.490489482879638672e+00 -2.746573649346828461e-02 1.469722032546997070e+00 4.326768815517425537e-01 5.427737236022949219e-01
2.289000000000000000e+03 8.646137237548828125e+00 3.060393142700195312e+01 1.402818830683827400e-03 -4.935025353915989399e-04 2.727948594838380814e-04 -7.860433543100953102e-04
2.290000000000000000e+03 3.030830383300781250e+01 -9.401580810546875000e+00 -1.005501523613929749e-01 2.301271915435791016e+00 6.602165102958679199e-01 2.911723256111145020e-01
2.291000000000000000e+03 2.879807281494140625e+01 -8.294222831726074219e+00 -7.807152718305587769e-02 2.014261245727539062e+00 5.808569192886352539e-01 2.893337607383728027e-01
2.292000000000000000e+03 7.102117919921875000e+01 -1.881536102294921875e+01 -5.905260145664215088e-02 8.459418296813964844e+00 2.520109653472900391e+00 -1.417793035507202148e-01
2.293000000000000000e+03 7.236980438232421875e+01 -2.854547119140625000e+01 -2.088025212287902832e-02 8.690802574157714844e+00 2.600976467132568359e+00 -4.769763723015785217e-02
2.294000000000000000e+03 2.724685668945312500e+01 4.915803432464599609e+00 -2.859736606478691101e-02 1.260194063186645508e+00 3.694790005683898926e-01 4.649506509304046631e-01
2.295000000000000000e+03 7.125681304931640625e+01 2.055920219421386719e+01 2.854617871344089508e-02 7.038932323455810547e+00 2.120243549346923828e+00 -1.111105322837829590e+00
2.296000000000000000e+03 7.779839992523193359e+00 1.106711387634277344e+01 -5.194866680540144444e-04 -2.221347822342067957e-04 -2.224864292657002807e-04 1.624866563361138105e-04
2.297000000000000000e+03 7.336603641510009766e+00 1.191418933868408203e+01 3.153092111460864544e-04 6.396997923729941249e-05 1.137837607529945672e-04 -9.927255450747907162e-05
2.298000000000000000e+03 2.742644500732421875e+01 -1.286516571044921875e+01 -4.591198638081550598e-02 1.850896596908569336e+00 5.414953827857971191e-01 1.958407908678054810e-01
2.299000000000000000e+03 8.367026329040527344e+00 2.835738182067871094e+01 -8.513785433024168015e-04 -1.200584345497190952e-03 -6.155888549983501434e-04 -6.968819070607423782e-04
2.300000000000000000e+03 2.835766983032226562e+01 -2.027178525924682617e+00 -7.185237109661102295e-02 1.772323966026306152e+00 5.101414918899536133e-01 3.915692269802093506e-01
2.301000000000000000e+03 1.043274402618408203e+01 -2.838006782531738281e+01 -2.361544873565435410e-03 -1.418609404936432838e-03 -1.134046236984431744e-03 5.454970523715019226e-04
2.302000000000000000e+03 8.883609771728515625e+00 -3.072052574157714844e+01 1.456659636460244656e-03 2.469910308718681335e-03 1.177970902062952518e-03 6.327316514216363430e-04
2.303000000000000000e+03 7.321898651123046875e+01 3.206082284450531006e-01 -1.067633628845214844e-01 8.242187500000000000e+00 2.440627336502075195e+00 -4.752742648124694824e-01
2.304000000000000000e+03 7.204854583740234375e+01 1.683878779411315918e+00 -1.452115327119827271e-01 8.108621597290039062e+00 2.389023065567016602e+00 -5.667631030082702637e-01
2.305000000000000000e+03 7.091410827636718750e+01 4.168928265571594238e-01 -1.777148991823196411e-01 8.085893630981445312e+00 2.372453451156616211e+00 -5.656706094741821289e-01
2.306000000000000000e+03 2.998096466064453125e+01 2.940929794311523438e+01 3.850094228982925415e-02 1.413676589727401733e-01 5.396058037877082825e-02 -3.270508944988250732e-01
2.307000000000000000e+03 4.832645034790039062e+01 3.623302841186523438e+01 -1.183913499116897583e-01 1.583599758148193359e+01 4.715281963348388672e+00 1.243917584419250488e+00
2.308000000000000000e+03 2.846082687377929688e+01 7.842741608619689941e-01 -6.806265562772750854e-02 1.702808022499084473e+00 4.904236197471618652e-01 4.504328966140747070e-01
2.309000000000000000e+03 2.849335861206054688e+01 3.638172149658203125e+00 -5.490457266569137573e-02 1.601006150245666504e+00 4.638304710388183594e-01 5.032594799995422363e-01
2.310000000000000000e+03 7.333866119384765625e+01 6.896558761596679688e+00 -1.158927902579307556e-01 7.882349014282226562e+00 2.329936742782592773e+00 -6.668947339057922363e-01
2.311000000000000000e+03 7.139373779296875000e+01 -4.796350479125976562e+00 -1.356717944145202637e-01 8.265623092651367188e+00 2.438985347747802734e+00 -3.987153470516204834e-01
2.312000000000000000e+03 7.108467864990234375e+01 -7.719766616821289062e+00 -1.217944547533988953e-01 8.298260688781738281e+00 2.452939987182617188e+00 -3.329693377017974854e-01
2.313000000000000000e+03 2.778340911865234375e+01 -2.173801040649414062e+01 -5.519492924213409424e-02 2.001334667205810547e+00 5.838418602943420410e-01 1.052774190902709961e-01
2.314000000000000000e+03 1.313192462921142578e+01 3.338374710083007812e+01 5.109160672873258591e-03 -8.637756691314280033e-04 1.273615518584847450e-03 -2.790430335153359920e-05
2.315000000000000000e+03 2.841881179809570312e+01 -6.310857534408569336e-01 -7.291183620691299438e-02 1.741277575492858887e+00 5.005096793174743652e-01 4.216555356979370117e-01
2.316000000000000000e+03 8.579356193542480469e+00 3.322879028320312500e+01 3.014919348061084747e-03 -3.749881288968026638e-04 7.919793715700507164e-04 -1.083054230548441410e-03
2.317000000000000000e+03 7.107294464111328125e+01 1.366863441467285156e+01 -1.454623937606811523e-01 7.515654563903808594e+00 2.211057662963867188e+00 -1.024871945381164551e+00
2.318000000000000000e+03 7.064142608642578125e+01 1.076319694519042969e+01 -1.912697553634643555e-01 7.692800045013427734e+00 2.250459194183349609e+00 -9.460819363594055176e-01
2.319000000000000000e+03 7.141138458251953125e+01 -1.517564773559570312e+01 -7.432289421558380127e-02 8.473109245300292969e+00 2.519635915756225586e+00 -1.881310790777206421e-01
2.320000000000000000e+03 2.939554023742675781e+01 -2.853959465026855469e+01 -4.195330291986465454e-02 2.256293773651123047e+00 6.643021106719970703e-01 8.358701318502426147e-02
2.321000000000000000e+03 2.687573432922363281e+01 -2.470129966735839844e+01 -2.501854114234447479e-02 1.884240269660949707e+00 5.577665567398071289e-01 8.688907325267791748e-02
2.322000000000000000e+03 7.068291473388671875e+01 -2.163015556335449219e+01 -5.775702372193336487e-02 8.422976493835449219e+00 2.509565830230712891e+00 -1.207515522837638855e-01
2.323000000000000000e+03 7.064459991455078125e+01 1.906279182434082031e+01 -2.357684075832366943e-02 7.229690074920654297e+00 2.161834001541137695e+00 -1.150599598884582520e+00
2.324000000000000000e+03 2.586672592163085938e+01 -2.971371650695800781e+01 -1.143681723624467850e-02 1.755718708038330078e+00 5.232845544815063477e-01 4.406525939702987671e-02
2.325000000000000000e+03 2.567147064208984375e+01 -2.835705375671386719e+01 -1.216841768473386765e-02 1.737502098083496094e+00 5.176001191139221191e-01 5.208575725555419922e-02
2.326000000000000000e+03 7.011073303222656250e+01 -2.878018951416015625e+01 -3.116366825997829437e-02 8.372301101684570312e+00 2.502341032028198242e+00 -5.872689560055732727e-02
2.327000000000000000e+03 9.829578399658203125e+00 -1.266100788116455078e+01 -9.926473721861839294e-04 -1.981246459763497114e-04 -3.572316200006753206e-04 2.567562914919108152e-04
2.328000000000000000e+03 9.326027870178222656e+00 -1.509656715393066406e+01 -9.097468573600053787e-04 -4.606556321959942579e-04 -4.111207381356507540e-04 2.597836719360202551e-04
2.329000000000000000e+03 2.750452995300292969e+01 -1.428213787078857422e+01 -4.390909895300865173e-02 1.883822917938232422e+00 5.519741773605346680e-01 1.784589588642120361e-01
2.330000000000000000e+03 6.887686252593994141e+00 2.085261154174804688e+01 -1.586012309417128563e-03 -2.841431705746799707e-04 -5.610466469079256058e-04 -1.514942705398425460e-04
2.331000000000000000e+03 7.325555801391601562e+00 2.609332084655761719e+01 2.261123154312372208e-03 -5.967938704998232424e-05 6.604330847039818764e-04 5.198654253035783768e-04
2.332000000000000000e+03 7.160227203369140625e+01 -2.985962295532226562e+01 -2.148517034947872162e-02 8.593548774719238281e+00 2.571619272232055664e+00 -5.201971158385276794e-02
2.333000000000000000e+03 9.093015670776367188e+00 3.667370986938476562e+01 2.923756372183561325e-03 1.358110966975800693e-05 8.812012383714318275e-04 1.074773725122213364e-03
2.334000000000000000e+03 8.615604400634765625e+00 1.677014732360839844e+01 -1.877825416158884764e-04 -2.556988911237567663e-04 -1.330444356426596642e-04 4.519957874435931444e-04
2.335000000000000000e+03 9.317623138427734375e+00 2.416425514221191406e+01 -2.150884363800287247e-03 -1.536724012112244964e-04 -6.913670222274959087e-04 1.888519545900635421e-05
2.336000000000000000e+03 7.743769168853759766e+00 2.339486122131347656e+01 -1.755164936184883118e-03 -2.557137922849506140e-04 -6.032636156305670738e-04 -8.947012247517704964e-05
2.337000000000000000e+03 7.573468208312988281e+00 -3.091143035888671875e+01 -4.193963017314672470e-03 -1.389975543133914471e-03 -1.675181556493043900e-03 -1.085432246327400208e-03
2.338000000000000000e+03 2.775310516357421875e+01 -3.626032257080078125e+01 -1.789082773029804230e-02 2.015370130538940430e+00 5.992437601089477539e-01 1.219778321683406830e-02
2.339000000000000000e+03 2.634852600097656250e+01 -2.604913139343261719e+01 -2.583988197147846222e-02 1.811904072761535645e+00 5.358192324638366699e-01 8.494869619607925415e-02
2.340000000000000000e+03 7.889917850494384766e+00 -3.708105087280273438e+01 2.033814089372754097e-03 1.597217051312327385e-03 1.089309342205524445e-03 -3.391440259292721748e-03
2.341000000000000000e+03 1.130544471740722656e+01 -3.776184082031250000e+01 -2.279226668179035187e-02 8.442691527307033539e-03 -4.304872360080480576e-03 -1.232317765243351460e-03
2.342000000000000000e+03 7.864920139312744141e+00 -3.231018447875976562e+01 1.627992955036461353e-03 2.872454235330224037e-03 1.350134145468473434e-03 1.090684090740978718e-03
2.343000000000000000e+03 7.201797485351562500e+01 3.403518676757812500e+01 2.954173982143402100e-01 6.114241600036621094e+00 1.922897696495056152e+00 -4.968117177486419678e-01
2.344000000000000000e+03 7.161096191406250000e+01 3.256982803344726562e+01 3.317930996417999268e-01 6.255633831024169922e+00 1.976227998733520508e+00 -6.139957308769226074e-01
2.345000000000000000e+03 1.260025215148925781e+01 -3.266532135009765625e+01 3.015898633748292923e-03 1.520004472695291042e-03 1.360770897008478642e-03 -2.009094692766666412e-03
2.346000000000000000e+03 4.748291397094726562e+01 2.874578666687011719e+01 9.727020859718322754e-01 1.434707927703857422e+01 4.595934391021728516e+00 1.580683112144470215e+00
2.347000000000000000e+03 4.531880950927734375e+01 2.975499534606933594e+01 2.387795209884643555e+00 1.132834434509277344e+01 4.114841938018798828e+00 5.813218593597412109e+00
2.348000000000000000e+03 4.707584381103515625e+01 2.833337783813476562e+01 6.943582296371459961e-01 1.343023300170898438e+01 4.237377643585205078e+00 2.350616693496704102e+00
2.349000000000000000e+03 4.019557571411132812e+01 2.938751029968261719e+01 1.808533430099487305e+00 9.710386395454406738e-01 8.338716030120849609e-01 1.374465107917785645e+00
2.350000000000000000e+03 4.002997589111328125e+01 2.834321784973144531e+01 1.974295854568481445e+00 1.505509614944458008e+00 1.043941617012023926e+00 1.738852262496948242e+00
2.351000000000000000e+03 4.070520019531250000e+01 2.932667732238769531e+01 2.085187911987304688e+00 1.221264362335205078e+00 9.919357299804687500e-01 1.712967395782470703e+00
2.352000000000000000e+03 3.203112411499023438e+01 2.848592567443847656e+01 3.032166659832000732e-01 2.734514772891998291e-01 1.730004400014877319e-01 -1.837632358074188232e-01
2.353000000000000000e+03 2.911243057250976562e+01 2.218803977966308594e+01 4.282201528549194336e-01 4.794250130653381348e-01 2.722935378551483154e-01 1.490586549043655396e-01
2.354000000000000000e+03 2.864646148681640625e+01 2.944320297241210938e+01 6.431246176362037659e-03 7.656664401292800903e-02 2.489936724305152893e-02 -3.536211848258972168e-01
2.355000000000000000e+03 2.941187858581542969e+01 2.788865470886230469e+01 1.998540461063385010e-01 1.537930071353912354e-01 1.060941144824028015e-01 -2.786916196346282959e-01
2.356000000000000000e+03 3.272267532348632812e+01 2.844168663024902344e+01 3.713328838348388672e-01 3.096391856670379639e-01 2.042916268110275269e-01 -1.280353516340255737e-01
2.357000000000000000e+03 3.270677185058593750e+01 2.918210220336914062e+01 2.200872898101806641e-01 2.536039948463439941e-01 1.421073824167251587e-01 -1.932677328586578369e-01
2.358000000000000000e+03 2.808714294433593750e+01 2.852619552612304688e+01 8.045350015163421631e-02 4.781401529908180237e-02 3.848025575280189514e-02 -3.360242545604705811e-01
2.359000000000000000e+03 2.873103523254394531e+01 2.861683464050292969e+01 9.324847906827926636e-02 9.038227796554565430e-02 5.508922785520553589e-02 -3.326733708381652832e-01
2.360000000000000000e+03 7.856206417083740234e+00 -8.282177925109863281e+00 -4.140944220125675201e-04 3.157244645990431309e-04 -2.951098576886579394e-05 -4.694839881267398596e-04
2.361000000000000000e+03 3.412149810791015625e+01 2.904922103881835938e+01 3.854007422924041748e-01 3.167305886745452881e-01 2.106394022703170776e-01 -6.190135329961776733e-02
2.362000000000000000e+03 3.832511901855468750e+01 2.830510520935058594e+01 1.418050050735473633e+00 9.085583090782165527e-01 6.979824900627136230e-01 9.556428194046020508e-01
2.363000000000000000e+03 3.897205352783203125e+01 2.828875923156738281e+01 1.622266173362731934e+00 1.089525699615478516e+00 8.135375976562500000e-01 1.218803763389587402e+00
2.364000000000000000e+03 3.555167388916015625e+01 2.756810760498046875e+01 9.244117140769958496e-01 6.465300321578979492e-01 4.712825119495391846e-01 3.724375963211059570e-01
2.365000000000000000e+03 9.248296737670898438e+00 6.623518466949462891e+00 2.652730909176170826e-04 2.305557572981342673e-04 1.487486588302999735e-04 3.042924799956381321e-04
2.366000000000000000e+03 3.554996109008789062e+01 2.827389526367187500e+01 7.893359065055847168e-01 5.112391114234924316e-01 3.901725113391876221e-01 2.466147840023040771e-01
2.367000000000000000e+03 3.697070312500000000e+01 2.828198051452636719e+01 1.076661229133605957e+00 6.731038689613342285e-01 5.249295234680175781e-01 5.510924458503723145e-01
2.368000000000000000e+03 3.626722335815429688e+01 2.827159690856933594e+01 9.235906600952148438e-01 5.874069333076477051e-01 4.532992839813232422e-01 3.867270946502685547e-01
2.369000000000000000e+03 2.676587104797363281e+01 2.810246276855468750e+01 7.095035910606384277e-02 -3.700986132025718689e-02 1.018214970827102661e-02 -3.316081464290618896e-01
2.370000000000000000e+03 2.692308044433593750e+01 2.714073371887207031e+01 1.372809857130050659e-01 -1.987624354660511017e-02 3.522142022848129272e-02 -2.995767295360565186e-01
2.371000000000000000e+03 4.882181167602539062e+01 2.858240509033203125e+01 1.476832985877990723e+00 1.360092163085937500e+01 4.523326396942138672e+00 -9.862481057643890381e-02
2.372000000000000000e+03 5.187373352050781250e+01 2.965970039367675781e+01 2.910727739334106445e+00 1.135273838043212891e+01 4.279039859771728516e+00 -8.891531825065612793e-01
2.373000000000000000e+03 5.020671844482421875e+01 2.963364982604980469e+01 3.148161172866821289e+00 1.264909172058105469e+01 4.739175796508789062e+00 -9.004505276679992676e-01
2.374000000000000000e+03 7.199347686767578125e+01 -9.069005846977233887e-01 -1.363581269979476929e-01 8.203291893005371094e+00 2.420080184936523438e+00 -4.875874221324920654e-01
2.375000000000000000e+03 7.002623748779296875e+01 -4.328475952148437500e+00 -1.714654564857482910e-01 8.135813713073730469e+00 2.389304399490356445e+00 -4.424741566181182861e-01
2.376000000000000000e+03 7.202502441406250000e+01 3.027639865875244141e+00 -1.511619687080383301e-01 8.052673339843750000e+00 2.370453357696533203e+00 -6.087842583656311035e-01
2.377000000000000000e+03 8.076908111572265625e+00 1.016358852386474609e+01 4.343700129538774490e-04 4.432153364177793264e-04 2.632756077218800783e-04 -6.663227395620197058e-05
2.378000000000000000e+03 9.049109458923339844e+00 1.032330608367919922e+01 -7.166652940213680267e-04 -3.131293342448771000e-04 -3.089383826591074467e-04 1.044656983140157536e-05
2.379000000000000000e+03 7.074176025390625000e+01 4.350795269012451172e+00 -2.007757276296615601e-01 7.950341224670410156e+00 2.324869632720947266e+00 -7.066842317581176758e-01
2.380000000000000000e+03 1.050671291351318359e+01 -6.973960399627685547e+00 7.841070182621479034e-04 -2.702963502088095993e-05 2.271232224302366376e-04 -1.053154846886172891e-04
2.381000000000000000e+03 1.036636829376220703e+01 -9.193065643310546875e+00 7.366045610979199409e-04 1.885540696093812585e-04 2.775476023089140654e-04 -1.243233709828928113e-04
2.382000000000000000e+03 2.814902687072753906e+01 1.777457427978515625e+01 2.593854665756225586e-01 6.543967723846435547e-01 2.741346657276153564e-01 3.604243695735931396e-01
2.383000000000000000e+03 7.840291500091552734e+00 5.771914482116699219e+00 3.834605158772319555e-04 -9.868518100120127201e-05 8.543259900761768222e-05 -2.417160612822044641e-05
2.384000000000000000e+03 3.003027915954589844e+01 2.770421791076660156e+01 2.597756683826446533e-01 2.075052559375762939e-01 1.401842832565307617e-01 -2.391657531261444092e-01
2.385000000000000000e+03 7.021049499511718750e+01 -1.035427856445312500e+01 -1.204163953661918640e-01 8.260678291320800781e+00 2.442078590393066406e+00 -2.900813817977905273e-01
2.386000000000000000e+03 6.995440673828125000e+01 -1.144669532775878906e+01 -1.096962615847587585e-01 8.250592231750488281e+00 2.442268610000610352e+00 -2.737958431243896484e-01
2.387000000000000000e+03 6.970059204101562500e+01 -5.817956328392028809e-01 -2.087597399950027466e-01 8.035221099853515625e+00 2.347938537597656250e+00 -5.607521533966064453e-01
2.388000000000000000e+03 2.840253257751464844e+01 1.075445747375488281e+01 5.068894848227500916e-02 1.213283061981201172e+00 3.791915774345397949e-01 5.545739531517028809e-01
2.389000000000000000e+03 2.826114845275878906e+01 1.498116111755371094e+01 1.715012043714523315e-01 8.904721140861511230e-01 3.185919821262359619e-01 4.769311845302581787e-01
2.390000000000000000e+03 7.019568634033203125e+01 -1.702552986145019531e+01 -7.939219474792480469e-02 8.334348678588867188e+00 2.476487159729003906e+00 -1.777829676866531372e-01
2.391000000000000000e+03 6.958904266357421875e+01 -1.823962211608886719e+01 -8.391842246055603027e-02 8.258695602416992188e+00 2.452433109283447266e+00 -1.681510806083679199e-01
2.392000000000000000e+03 6.957690429687500000e+01 1.134568595886230469e+01 -2.240002006292343140e-01 7.701609611511230469e+00 2.243282794952392578e+00 -1.011814355850219727e+00
2.393000000000000000e+03 7.178085327148437500e+01 8.992677688598632812e+00 -1.587078869342803955e-01 7.745338916778564453e+00 2.275989294052124023e+00 -8.336092233657836914e-01
2.394000000000000000e+03 8.111978530883789062e+00 -6.882058143615722656e+00 -2.418076182948425412e-04 3.695015620905905962e-04 3.830818968708626926e-05 -3.708053845912218094e-04
2.395000000000000000e+03 6.990548706054687500e+01 2.636343002319335938e+01 2.742398977279663086e-01 6.880276679992675781e+00 2.146354913711547852e+00 -1.055204987525939941e+00
2.396000000000000000e+03 7.138579559326171875e+01 2.311293792724609375e+01 1.005418077111244202e-01 6.852422237396240234e+00 2.085889101028442383e+00 -1.067353248596191406e+00
2.397000000000000000e+03 7.068701934814453125e+01 -1.596527671813964844e+01 -8.242796361446380615e-02 8.368982315063476562e+00 2.485966444015502930e+00 -1.846790164709091187e-01
2.398000000000000000e+03 7.164037322998046875e+01 1.587726593017578125e+01 -8.405549079179763794e-02 7.313316345214843750e+00 2.168778181076049805e+00 -1.036655545234680176e+00
2.399000000000000000e+03 2.819490623474121094e+01 -4.629168510437011719e+00 -7.550061494112014771e-02 1.799830675125122070e+00 5.172989964485168457e-01 3.483342230319976807e-01
2.400000000000000000e+03 2.970842933654785156e+01 -4.971400797367095947e-01 -9.770563989877700806e-02 2.009825229644775391e+00 5.736358761787414551e-01 4.626990556716918945e-01
2.401000000000000000e+03 3.079917526245117188e+01 1.104669475555419922e+01 6.043578684329986572e-02 1.798111915588378906e+00 5.575643181800842285e-01 7.012880444526672363e-01
2.402000000000000000e+03 2.846440124511718750e+01 7.915203094482421875e+00 -7.509518880397081375e-03 1.392762541770935059e+00 4.155759215354919434e-01 5.541434288024902344e-01
2.403000000000000000e+03 2.960374832153320312e+01 1.089488601684570312e+01 5.807228758931159973e-02 1.503238558769226074e+00 4.683932662010192871e-01 6.284533739089965820e-01
2.404000000000000000e+03 9.109814643859863281e+00 -2.102054405212402344e+01 -1.545397099107503891e-03 3.777500533033162355e-04 -3.502941108308732510e-04 1.008540741167962551e-03
2.405000000000000000e+03 9.114727973937988281e+00 -1.025520992279052734e+01 5.734962178394198418e-04 3.607422404456883669e-04 2.802715462166815996e-04 -1.150345560745336115e-04
2.406000000000000000e+03 7.980645179748535156e+00 -1.026128578186035156e+01 -4.942221567034721375e-04 -4.798737936653196812e-04 -2.922287967521697283e-04 -8.640759187983348966e-05
2.407000000000000000e+03 7.956727981567382812e+00 1.426251697540283203e+01 2.097920078085735440e-04 -3.409839337109588087e-05 5.270808469504117966e-05 -7.790995878167450428e-04
2.408000000000000000e+03 2.942789840698242188e+01 1.509761047363281250e+01 2.081305980682373047e-01 1.160490989685058594e+00 4.105864465236663818e-01 5.620734691619873047e-01
2.409000000000000000e+03 2.873573112487792969e+01 -6.863801956176757812e+00 -8.069077879190444946e-02 1.970762848854064941e+00 5.670216083526611328e-01 3.140239119529724121e-01
2.410000000000000000e+03 8.972591400146484375e+00 -2.302856063842773438e+01 -1.849351101554930210e-03 -1.807890221243724227e-04 -6.090420065447688103e-04 1.010614330880343914e-03
2.411000000000000000e+03 7.499998569488525391e+00 -1.945269393920898438e+01 9.290640591643750668e-04 5.612757522612810135e-04 4.471019492484629154e-04 -8.187163621187210083e-04
2.412000000000000000e+03 8.019316673278808594e+00 -2.078487396240234375e+01 1.699488144367933273e-03 -1.968392753042280674e-04 4.507946723606437445e-04 -1.251894165761768818e-03
2.413000000000000000e+03 9.879416465759277344e+00 3.106636047363281250e+01 3.700874745845794678e-03 -5.103517323732376099e-04 9.571569389663636684e-04 3.885090118274092674e-04
2.414000000000000000e+03 8.247470855712890625e+00 -1.344708919525146484e+01 -8.225521305575966835e-04 -3.865554463118314743e-04 -3.627322730608284473e-04 2.193122054450213909e-04
2.415000000000000000e+03 8.073972702026367188e+00 2.056327629089355469e+01 9.990070248022675514e-04 4.573890764731913805e-04 4.369188391137868166e-04 -2.441746764816343784e-04
2.416000000000000000e+03 9.579953193664550781e+00 -2.568003845214843750e+01 1.509774709120392799e-03 8.029828313738107681e-04 6.938272272236645222e-04 -7.509331917390227318e-04
2.417000000000000000e+03 5.307863998413085938e+01 2.996325492858886719e+01 2.823575735092163086e+00 1.064768600463867188e+01 4.041378498077392578e+00 -7.991583943367004395e-01
2.418000000000000000e+03 5.147741699218750000e+01 3.077116584777832031e+01 3.956692457199096680e+00 1.162689495086669922e+01 4.675076007843017578e+00 -5.474418401718139648e-01
2.419000000000000000e+03 8.383028984069824219e+00 -2.535910606384277344e+01 -1.399053260684013367e-03 -9.567199740558862686e-04 -7.067319820635020733e-04 5.576775292865931988e-04
2.420000000000000000e+03 7.772768020629882812e+00 -2.280132865905761719e+01 1.814868068322539330e-03 -3.605128440540283918e-04 4.363065527286380529e-04 -8.500948315486311913e-04
2.421000000000000000e+03 8.655252456665039062e+00 -2.419822311401367188e+01 1.652643084526062012e-03 2.446216240059584379e-04 5.691794212907552719e-04 -7.778966682963073254e-04
2.422000000000000000e+03 8.233030319213867188e+00 9.307265281677246094e+00 -4.850081459153443575e-04 -3.850873908959329128e-04 -2.610286755952984095e-04 1.681574503891170025e-04
2.423000000000000000e+03 3.068737792968750000e+01 2.854527091979980469e+01 1.894949078559875488e-01 1.999196857213973999e-01 1.168243736028671265e-01 -2.677352130413055420e-01
2.424000000000000000e+03 7.141638946533203125e+01 6.304084777832031250e+00 -1.801377236843109131e-01 7.889314651489257812e+00 2.312752962112426758e+00 -7.513164281845092773e-01
2.425000000000000000e+03 2.977843475341796875e+01 -2.009322929382324219e+01 -6.284333765506744385e-02 2.299817323684692383e+00 6.710921525955200195e-01 1.317640393972396851e-01
2.426000000000000000e+03 3.064552879333496094e+01 -2.513484764099121094e+01 -5.686423927545547485e-02 2.461739063262939453e+00 7.214624285697937012e-01 9.352179616689682007e-02
2.427000000000000000e+03 2.974149322509765625e+01 -2.199484825134277344e+01 -5.991730466485023499e-02 2.299578428268432617e+00 6.718983650207519531e-01 1.303334832191467285e-01
2.428000000000000000e+03 8.681057929992675781e+00 -1.229930496215820312e+01 7.332662353292107582e-04 1.645867450861260295e-04 2.693558926694095135e-04 -4.438764299266040325e-04
2.429000000000000000e+03 7.035677337646484375e+01 1.254150199890136719e+01 -1.769981384277343750e-01 7.603282928466796875e+00 2.227885484695434570e+00 -1.023769140243530273e+00
2.430000000000000000e+03 2.971515083312988281e+01 6.649108886718750000e+00 -4.188647121191024780e-02 1.757954478263854980e+00 5.148203969001770020e-01 6.020308732986450195e-01
2.431000000000000000e+03 6.960839843750000000e+01 2.133787727355957031e+01 6.435902416706085205e-02 7.226218700408935547e+00 2.187173366546630859e+00 -1.213309049606323242e+00
2.432000000000000000e+03 2.910529327392578125e+01 -1.394548225402832031e+01 -6.826589256525039673e-02 2.146901130676269531e+00 6.235905289649963379e-01 2.026722431182861328e-01
2.433000000000000000e+03 2.736807632446289062e+01 -1.145531082153320312e+01 -4.545976966619491577e-02 1.816859364509582520e+00 5.314198732376098633e-01 2.154282480478286743e-01
2.434000000000000000e+03 2.743844985961914062e+01 2.475353240966796875e+01 2.706204354763031006e-01 9.113485366106033325e-02 1.085265874862670898e-01 -1.476381570100784302e-01
2.435000000000000000e+03 2.715351104736328125e+01 2.600537300109863281e+01 2.034070193767547607e-01 2.094082161784172058e-02 6.730435788631439209e-02 -2.339651137590408325e-01
2.436000000000000000e+03 6.974965667724609375e+01 2.480987548828125000e+01 2.142177969217300415e-01 7.006433486938476562e+00 2.166195392608642578e+00 -1.119265794754028320e+00
2.437000000000000000e+03 6.976251220703125000e+01 2.308717536926269531e+01 1.422285586595535278e-01 7.090270519256591797e+00 2.169749736785888672e+00 -1.177386999130249023e+00
2.438000000000000000e+03 6.800807189941406250e+01 3.114609527587890625e+01 5.462858080863952637e-01 7.079483509063720703e+00 2.287730693817138672e+00 -8.270052671432495117e-01
2.439000000000000000e+03 7.041454315185546875e+01 -2.306679916381835938e+01 -5.015837773680686951e-02 8.398476600646972656e+00 2.504495382308959961e+00 -1.032705232501029968e-01
2.440000000000000000e+03 2.848478698730468750e+01 2.209237098693847656e+00 -6.436129659414291382e-02 1.656268358230590820e+00 4.775721132755279541e-01 4.780376255512237549e-01
2.441000000000000000e+03 2.975170707702636719e+01 3.802979707717895508e+00 -7.762253284454345703e-02 1.882581233978271484e+00 5.414876341819763184e-01 5.548843741416931152e-01
2.442000000000000000e+03 7.089076995849609375e+01 -2.025419998168945312e+01 -5.512163043022155762e-02 8.449059486389160156e+00 2.518181324005126953e+00 -1.294335871934890747e-01
2.443000000000000000e+03 2.949070549011230469e+01 1.370358371734619141e+01 1.541907787322998047e-01 1.283753156661987305e+00 4.313831925392150879e-01 5.970669388771057129e-01
2.444000000000000000e+03 6.991814422607421875e+01 1.780653381347656250e+01 -6.993900984525680542e-02 7.385445117950439453e+00 2.194651842117309570e+00 -1.178493499755859375e+00
2.445000000000000000e+03 7.011615753173828125e+01 1.608307647705078125e+01 -1.180499345064163208e-01 7.459708690643310547e+00 2.202497482299804688e+00 -1.128734827041625977e+00
2.446000000000000000e+03 6.296988964080810547e+00 -3.399243545532226562e+01 -9.185835951939225197e-04 -4.062455845996737480e-04 -3.974487481173127890e-04 -1.981688430532813072e-03
2.447000000000000000e+03 9.031947135925292969e+00 -3.184793281555175781e+01 -4.150990396738052368e-03 -3.092155093327164650e-03 -2.172943670302629471e-03 -6.560705951415002346e-04
2.448000000000000000e+03 6.845570373535156250e+01 -1.736215400695800781e+01 -1.085965931415557861e-01 8.087525367736816406e+00 2.393678426742553711e+00 -1.918525695800781250e-01
2.449000000000000000e+03 2.927769279479980469e+01 -1.537002849578857422e+01 -6.627357751131057739e-02 2.190900802612304688e+00 6.373881697654724121e-01 1.858417689800262451e-01
2.450000000000000000e+03 6.899325561523437500e+01 -3.026088333129882812e+01 -3.169357031583786011e-02 8.214022636413574219e+00 2.454698562622070312e+00 -5.086417868733406067e-02
2.451000000000000000e+03 7.105889892578125000e+01 -1.310138893127441406e+01 -8.787477016448974609e-02 8.404211044311523438e+00 2.494900941848754883e+00 -2.280820161104202271e-01
2.452000000000000000e+03 6.966720581054687500e+01 -1.259068965911865234e+01 -1.189886480569839478e-01 8.216217041015625000e+00 2.429168462753295898e+00 -2.532667815685272217e-01
2.453000000000000000e+03 7.068512725830078125e+01 8.553322792053222656e+00 -2.067612558603286743e-01 7.789912700653076172e+00 2.274945497512817383e+00 -8.716781735420227051e-01
2.454000000000000000e+03 7.030326843261718750e+01 2.777348136901855469e+01 2.896389067173004150e-01 6.740983009338378906e+00 2.109186649322509766e+00 -9.449110627174377441e-01
2.455000000000000000e+03 7.104559326171875000e+01 2.903756713867187500e+01 2.790539264678955078e-01 6.536055564880371094e+00 2.044532775878906250e+00 -8.511170744895935059e-01
2.456000000000000000e+03 6.947997283935546875e+01 -5.634422779083251953e+00 -1.814745813608169556e-01 8.110864639282226562e+00 2.378817081451416016e+00 -4.134601354598999023e-01
2.457000000000000000e+03 9.345118522644042969e+00 -2.687005043029785156e+01 -1.666138530708849430e-03 -1.244093175046145916e-03 -8.730695117264986038e-04 7.562556420452892780e-04
2.458000000000000000e+03 7.398342132568359375e+00 -2.955584907531738281e+01 2.259128959849476814e-03 1.334624947048723698e-03 1.078126253560185432e-03 3.453691606409847736e-04
2.459000000000000000e+03 6.881619262695312500e+01 -2.741189002990722656e+01 -4.809147492051124573e-02 8.198529243469238281e+00 2.445131301879882812e+00 -6.708957254886627197e-02
2.460000000000000000e+03 6.776647186279296875e+01 -2.582886314392089844e+01 -6.198438256978988647e-02 8.043101310729980469e+00 2.394335031509399414e+00 -8.671206235885620117e-02
2.461000000000000000e+03 2.975375747680664062e+01 2.371290683746337891e+00 -8.700922876596450806e-02 1.932380318641662598e+00 5.536113381385803223e-01 5.260331630706787109e-01
2.462000000000000000e+03 2.756428146362304688e+01 -2.940166091918945312e+01 -2.580943889915943146e-02 2.015261173248291016e+00 5.968355536460876465e-01 5.605300143361091614e-02
2.463000000000000000e+03 2.588707923889160156e+01 -3.135386085510253906e+01 5.892596207559108734e-03 1.780708074569702148e+00 5.359802246093750000e-01 3.410695865750312805e-02
2.464000000000000000e+03 2.917588424682617188e+01 2.068454742431640625e+01 4.122391939163208008e-01 6.270773410797119141e-01 3.117949664592742920e-01 2.763555347919464111e-01
2.465000000000000000e+03 7.017704772949218750e+01 -3.328022003173828125e+01 -4.248587042093276978e-02 8.370820999145507812e+00 2.498500585556030273e+00 -4.311638325452804565e-02
2.466000000000000000e+03 8.981834411621093750e+00 1.338851261138916016e+01 -7.473769073840230703e-05 -2.191799867432564497e-04 -8.817530033411458135e-05 4.936199402436614037e-04
2.467000000000000000e+03 2.806418228149414062e+01 -2.691782569885253906e+01 -4.136186838150024414e-02 2.083650112152099609e+00 6.126864552497863770e-01 7.893069833517074585e-02
2.468000000000000000e+03 6.716148853302001953e+00 -3.873457336425781250e+01 -1.318997237831354141e-03 -1.726582879200577736e-03 -9.136740118265151978e-04 -4.942297004163265228e-03
2.469000000000000000e+03 5.598040390014648438e+01 3.594056701660156250e+01 1.584543943405151367e+00 1.047316265106201172e+01 3.617312192916870117e+00 7.466472387313842773e-01
2.470000000000000000e+03 5.069455718994140625e+01 3.801026535034179688e+01 -1.188609451055526733e-01 1.305333232879638672e+01 3.880341529846191406e+00 1.229143857955932617e+00
2.471000000000000000e+03 8.508009910583496094e+00 2.170169067382812500e+01 -1.586410216987133026e-03 -7.870495755923911929e-05 -4.995345370844006538e-04 1.257625262951478362e-04
2.472000000000000000e+03 4.340228271484375000e+01 3.002966690063476562e+01 3.586673021316528320e+00 3.468068838119506836e+00 2.116422414779663086e+00 4.167465686798095703e+00
2.473000000000000000e+03 4.332941055297851562e+01 2.956346702575683594e+01 3.326266765594482422e+00 4.031999588012695312e+00 2.207479953765869141e+00 4.206882476806640625e+00
2.474000000000000000e+03 4.427441787719726562e+01 2.972473144531250000e+01 3.415400028228759766e+00 6.589160919189453125e+00 3.001368284225463867e+00 5.385814666748046875e+00
2.475000000000000000e+03 4.572749710083007812e+01 2.941619110107421875e+01 1.727920651435852051e+00 1.257244682312011719e+01 4.290110111236572266e+00 4.827632427215576172e+00
2.476000000000000000e+03 4.163135528564453125e+01 2.912039566040039062e+01 2.554707288742065430e+00 1.989012479782104492e+00 1.363115906715393066e+00 2.529342651367187500e+00
2.477000000000000000e+03 4.381594085693359375e+01 2.955757904052734375e+01 3.333132982254028320e+00 5.178998947143554688e+00 2.553639650344848633e+00 4.839200973510742188e+00
2.478000000000000000e+03 4.665382766723632812e+01 2.871121406555175781e+01 8.501141071319580078e-01 1.337484645843505859e+01 4.267488002777099609e+00 2.985013246536254883e+00
2.479000000000000000e+03 4.118547058105468750e+01 2.924079704284667969e+01 2.347251415252685547e+00 1.540440320968627930e+00 1.166307568550109863e+00 2.098556280136108398e+00
2.480000000000000000e+03 4.010874557495117188e+01 2.887138748168945312e+01 1.932554244995117188e+00 1.242144584655761719e+00 9.524096250534057617e-01 1.573653101921081543e+00
2.481000000000000000e+03 4.105777740478515625e+01 2.876795196533203125e+01 2.322059154510498047e+00 1.836866021156311035e+00 1.247677564620971680e+00 2.216865062713623047e+00
2.482000000000000000e+03 4.623029708862304688e+01 2.831490135192871094e+01 8.613505959510803223e-01 1.213366127014160156e+01 3.898503541946411133e+00 3.402757167816162109e+00
2.483000000000000000e+03 4.398134994506835938e+01 2.910275268554687500e+01 2.921251773834228516e+00 6.083102703094482422e+00 2.701306343078613281e+00 4.846364974975585938e+00
2.484000000000000000e+03 3.214947509765625000e+01 2.693118858337402344e+01 5.370447039604187012e-01 4.058250188827514648e-01 2.828609049320220947e-01 -2.322288602590560913e-02
2.485000000000000000e+03 3.140643119812011719e+01 2.768347549438476562e+01 3.729514479637145996e-01 2.951750159263610840e-01 2.004379332065582275e-01 -1.570901870727539062e-01
2.486000000000000000e+03 2.938204574584960938e+01 2.864040184020996094e+01 1.226938441395759583e-01 1.355881839990615845e-01 7.748460769653320312e-02 -3.151922225952148438e-01
2.487000000000000000e+03 3.089756011962890625e+01 2.671329498291015625e+01 4.232126176357269287e-01 3.304110169410705566e-01 2.260870933532714844e-01 -1.064174100756645203e-01
2.488000000000000000e+03 2.869166755676269531e+01 2.671193122863769531e+01 2.677934467792510986e-01 1.398573219776153564e-01 1.222952231764793396e-01 -2.301321327686309814e-01
2.489000000000000000e+03 3.827999877929687500e+01 2.771527290344238281e+01 1.519210338592529297e+00 1.106265783309936523e+00 7.876427769660949707e-01 1.100145339965820312e+00
2.490000000000000000e+03 4.946848297119140625e+01 2.829083251953125000e+01 1.491706609725952148e+00 1.299021053314208984e+01 4.344575405120849609e+00 -3.734980523586273193e-01
2.491000000000000000e+03 5.043589019775390625e+01 2.845784950256347656e+01 1.951949238777160645e+00 1.236662101745605469e+01 4.295570850372314453e+00 -8.200749158859252930e-01
2.492000000000000000e+03 3.338303375244140625e+01 2.602858352661132812e+01 7.703027129173278809e-01 6.305088996887207031e-01 4.202434718608856201e-01 2.355627268552780151e-01
2.493000000000000000e+03 3.483662414550781250e+01 2.756045532226562500e+01 8.096138238906860352e-01 5.636851191520690918e-01 4.119896590709686279e-01 2.442677915096282959e-01
2.494000000000000000e+03 3.557762527465820312e+01 2.682825088500976562e+01 1.024419426918029785e+00 8.175126314163208008e-01 5.525795817375183105e-01 5.159153938293457031e-01
2.495000000000000000e+03 3.765727615356445312e+01 2.829623222351074219e+01 1.243515491485595703e+00 7.782557606697082520e-01 6.065313816070556641e-01 7.381732463836669922e-01
2.496000000000000000e+03 3.887524032592773438e+01 2.770709800720214844e+01 1.680693745613098145e+00 1.297039151191711426e+00 8.933198451995849609e-01 1.347639203071594238e+00
2.497000000000000000e+03 3.696350860595703125e+01 2.764122962951660156e+01 1.201455473899841309e+00 8.439640402793884277e-01 6.136258840560913086e-01 6.987014412879943848e-01
2.498000000000000000e+03 3.626660919189453125e+01 2.759938621520996094e+01 1.058156251907348633e+00 7.433733344078063965e-01 5.404588580131530762e-01 5.269040465354919434e-01
2.499000000000000000e+03 2.644371986389160156e+01 2.931996726989746094e+01 -1.692350208759307861e-02 -5.375961214303970337e-02 -2.120493538677692413e-02 -3.485957384109497070e-01
2.500000000000000000e+03 2.838149452209472656e+01 2.501763343811035156e+01 3.244103193283081055e-01 1.829730123281478882e-01 1.522149890661239624e-01 -1.275963187217712402e-01
2.501000000000000000e+03 6.772257328033447266e+00 -6.746403217315673828e+00 -3.059827140532433987e-04 8.188124047592282295e-05 -6.723043770762160420e-05 -2.080242556985467672e-04
2.502000000000000000e+03 7.165935039520263672e+00 9.910655021667480469e+00 -2.521587593946605921e-04 -6.726015708409249783e-04 -2.774281019810587168e-04 9.830848284764215350e-06
2.503000000000000000e+03 7.621543884277343750e+00 7.890437602996826172e+00 -5.039064562879502773e-04 9.648764535086229444e-05 -1.222256541950628161e-04 1.770336966728791595e-04
2.504000000000000000e+03 6.952973937988281250e+01 4.080115318298339844e+00 -2.479576766490936279e-01 7.921909809112548828e+00 2.302185535430908203e+00 -7.350060343742370605e-01
2.505000000000000000e+03 6.961477661132812500e+01 2.813084602355957031e+00 -2.324122637510299683e-01 7.956633090972900391e+00 2.317266225814819336e+00 -6.845017075538635254e-01
2.506000000000000000e+03 6.878935241699218750e+01 -3.626541137695312500e+00 -2.081190049648284912e-01 8.024038314819335938e+00 2.344775676727294922e+00 -4.850592613220214844e-01
2.507000000000000000e+03 6.856493377685546875e+01 -1.096879768371582031e+01 -1.497933268547058105e-01 8.066102981567382812e+00 2.374892950057983398e+00 -2.953861951828002930e-01
2.508000000000000000e+03 6.927342224121093750e+01 -1.368784523010253906e+01 -1.183386370539665222e-01 8.176941871643066406e+00 2.417581081390380859e+00 -2.376060932874679565e-01
2.509000000000000000e+03 6.846415710449218750e+01 1.197392177581787109e+01 -2.625154852867126465e-01 7.733491897583007812e+00 2.241292953491210938e+00 -1.074143171310424805e+00
2.510000000000000000e+03 6.872216033935546875e+01 1.028865432739257812e+01 -2.617349028587341309e-01 7.762856960296630859e+00 2.250336647033691406e+00 -9.956932067871093750e-01
2.511000000000000000e+03 8.575062751770019531e+00 7.385735988616943359e+00 3.894376277457922697e-04 -1.159881212515756488e-04 8.203485049307346344e-05 -3.440757282078266144e-04
2.512000000000000000e+03 5.150086975097656250e+01 2.833070373535156250e+01 1.934551239013671875e+00 1.152066802978515625e+01 4.036565780639648438e+00 -9.605625271797180176e-01
2.513000000000000000e+03 2.886768722534179688e+01 2.785093116760253906e+01 1.719529479742050171e-01 1.216486468911170959e-01 8.808048069477081299e-02 -2.908124923706054688e-01
2.514000000000000000e+03 3.036793708801269531e+01 1.931584548950195312e+01 4.362193048000335693e-01 9.960433840751647949e-01 4.296788275241851807e-01 4.736840426921844482e-01
2.515000000000000000e+03 2.929566383361816406e+01 1.786602973937988281e+01 3.176805377006530762e-01 8.989003896713256836e-01 3.649742901325225830e-01 4.502333700656890869e-01
2.516000000000000000e+03 3.080951881408691406e+01 -3.323606014251708984e+00 -1.261247247457504272e-01 2.300325632095336914e+00 6.522602438926696777e-01 4.276637434959411621e-01
2.517000000000000000e+03 6.758817291259765625e+01 -1.824209022521972656e+01 -1.177541837096214294e-01 7.974699020385742188e+00 2.357083320617675781e+00 -1.720560789108276367e-01
2.518000000000000000e+03 6.857894897460937500e+01 -1.938085746765136719e+01 -8.628623187541961670e-02 8.124143600463867188e+00 2.411357402801513672e+00 -1.579439789056777954e-01
2.519000000000000000e+03 3.073588943481445312e+01 1.244589900970458984e+01 1.156031787395477295e-01 1.690379738807678223e+00 5.417948961257934570e-01 6.989589929580688477e-01
2.520000000000000000e+03 6.988624572753906250e+00 6.612373828887939453e+00 -5.726757808588445187e-04 2.445062564220279455e-04 -9.845085151027888060e-05 5.361353978514671326e-04
2.521000000000000000e+03 2.936236763000488281e+01 1.648312187194824219e+01 2.628785371780395508e-01 1.032216191291809082e+00 3.885284066200256348e-01 5.127198696136474609e-01
2.522000000000000000e+03 3.052130508422851562e+01 1.658697319030761719e+01 3.083752393722534180e-01 1.297107100486755371e+00 4.816446900367736816e-01 6.104916334152221680e-01
2.523000000000000000e+03 2.881464385986328125e+01 2.366362380981445312e+01 4.000420868396759033e-01 3.316723108291625977e-01 2.195143252611160278e-01 1.255250535905361176e-02
2.524000000000000000e+03 3.343752670288085938e+01 2.763507843017578125e+01 5.938824415206909180e-01 4.356814920902252197e-01 3.088691830635070801e-01 3.536799550056457520e-02
2.525000000000000000e+03 6.918665313720703125e+01 1.978142547607421875e+01 -5.526238121092319489e-03 7.360898494720458984e+00 2.206611633300781250e+00 -1.236809611320495605e+00
2.526000000000000000e+03 6.874246215820312500e+01 1.841050338745117188e+01 -6.880655884742736816e-02 7.480146408081054688e+00 2.223402023315429688e+00 -1.240554690361022949e+00
2.527000000000000000e+03 2.964963340759277344e+01 9.483096122741699219e+00 1.807555183768272400e-02 1.598183512687683105e+00 4.848777353763580322e-01 6.274792551994323730e-01
2.528000000000000000e+03 3.085458946228027344e+01 9.642691612243652344e+00 1.390248443931341171e-02 1.893330454826354980e+00 5.721698999404907227e-01 6.948395371437072754e-01
2.529000000000000000e+03 7.207693481445312500e+01 7.849971294403076172e+00 -1.528188139200210571e-01 7.816043853759765625e+00 2.298967361450195312e+00 -7.690966129302978516e-01
2.530000000000000000e+03 7.043517303466796875e+01 5.712365627288818359e+00 -2.156551182270050049e-01 7.894679069519042969e+00 2.303707122802734375e+00 -7.695766091346740723e-01
2.531000000000000000e+03 7.077724456787109375e+01 1.527795124053955078e+01 -1.176898032426834106e-01 7.441905498504638672e+00 2.197264671325683594e+00 -1.097093343734741211e+00
2.532000000000000000e+03 6.926224517822265625e+01 1.665131759643554688e+01 -1.257288008928298950e-01 7.521048069000244141e+00 2.218595743179321289e+00 -1.192502975463867188e+00
2.533000000000000000e+03 6.866282653808593750e+01 -2.336704826354980469e+01 -6.899943947792053223e-02 8.161892890930175781e+00 2.427868127822875977e+00 -1.114063486456871033e-01
2.534000000000000000e+03 7.867828845977783203e+00 -2.182807159423828125e+01 -2.553984057158231735e-03 3.763795539271086454e-04 -6.532814004458487034e-04 1.118356711231172085e-03
2.535000000000000000e+03 7.107761383056640625e+01 -6.213114738464355469e+00 -1.357331722974777222e-01 8.268900871276855469e+00 2.439950227737426758e+00 -3.676133155822753906e-01
2.536000000000000000e+03 7.037574768066406250e+01 9.677915573120117188e+00 -2.098764479160308838e-01 7.744954586029052734e+00 2.260523557662963867e+00 -9.259992241859436035e-01
2.537000000000000000e+03 1.150799560546875000e+01 -3.105242919921875000e+01 1.615646760910749435e-03 2.361341146752238274e-03 1.193096395581960678e-03 -1.320322160609066486e-03
2.538000000000000000e+03 7.770572185516357422e+00 -1.732175445556640625e+01 1.140108564868569374e-03 4.875899758189916611e-04 4.883095389232039452e-04 -1.586893049534410238e-04
2.539000000000000000e+03 6.811152648925781250e+01 2.518186187744140625e+01 3.075226247310638428e-01 7.247781276702880859e+00 2.266591310501098633e+00 -1.191534042358398438e+00
2.540000000000000000e+03 6.802674865722656250e+01 2.345122337341308594e+01 2.057662755250930786e-01 7.377084732055664062e+00 2.274855375289916992e+00 -1.266482830047607422e+00
2.541000000000000000e+03 3.069425201416015625e+01 -1.353838920593261719e+01 -9.166368097066879272e-02 2.411724328994750977e+00 6.960182189941406250e-01 2.236397564411163330e-01
2.542000000000000000e+03 8.261241912841796875e+00 1.822125816345214844e+01 -6.837524706497788429e-04 -2.351520088268443942e-04 -2.756713656708598137e-04 2.535637177061289549e-04
2.543000000000000000e+03 6.916719055175781250e+01 1.544433879852294922e+01 -1.603811681270599365e-01 7.580309867858886719e+00 2.225978612899780273e+00 -1.169123411178588867e+00
2.544000000000000000e+03 6.870525360107421875e+01 -1.470623683929443359e+01 -1.194365024566650391e-01 8.108880043029785156e+00 2.396833181381225586e+00 -2.234018445014953613e-01
2.545000000000000000e+03 7.847896099090576172e+00 -2.767490577697753906e+01 -6.541648763231933117e-04 -8.527398458682000637e-04 -4.520713991951197386e-04 1.251094945473596454e-04
2.546000000000000000e+03 9.030104637145996094e+00 -2.812685394287109375e+01 1.584650599397718906e-03 7.752341916784644127e-04 7.079654606059193611e-04 -4.391720285639166832e-04
2.547000000000000000e+03 6.914067840576171875e+01 -9.870292663574218750e+00 -1.406555473804473877e-01 8.118905067443847656e+00 2.393475055694580078e+00 -3.145348131656646729e-01
2.548000000000000000e+03 2.926930999755859375e+01 -4.735586643218994141e+00 -9.669057279825210571e-02 2.029395818710327148e+00 5.798115730285644531e-01 3.611687421798706055e-01
2.549000000000000000e+03 2.952042388916015625e+01 -3.339709043502807617e+00 -9.610523283481597900e-02 2.052385330200195312e+00 5.868840813636779785e-01 3.947715163230895996e-01
2.550000000000000000e+03 3.122713851928710938e+01 -1.642167282104492188e+01 -8.859208226203918457e-02 2.518915891647338867e+00 7.290971875190734863e-01 1.882153302431106567e-01
2.551000000000000000e+03 2.964936637878417969e+01 -1.840626144409179688e+01 -6.452739983797073364e-02 2.278288125991821289e+00 6.641281843185424805e-01 1.528183221817016602e-01
2.552000000000000000e+03 7.101532745361328125e+01 7.422738075256347656e+00 -1.961079686880111694e-01 7.832828998565673828e+00 2.291016340255737305e+00 -8.158274292945861816e-01
2.553000000000000000e+03 7.012414550781250000e+01 -9.296402931213378906e+00 -1.258431971073150635e-01 8.232029914855957031e+00 2.431855916976928711e+00 -3.118038177490234375e-01
2.554000000000000000e+03 3.066505050659179688e+01 1.383585739135742188e+01 1.764011979103088379e-01 1.568048596382141113e+00 5.233349204063415527e-01 6.830639243125915527e-01
2.555000000000000000e+03 6.740569305419921875e+01 -2.872133255004882812e+01 -4.689368233084678650e-02 7.991517543792724609e+00 2.383387088775634766e+00 -5.915080755949020386e-02
2.556000000000000000e+03 3.101866340637207031e+01 3.986231803894042969e+00 -1.014428734779357910e-01 2.170805692672729492e+00 6.208088397979736328e-01 6.017643809318542480e-01
2.557000000000000000e+03 3.098843193054199219e+01 5.407837867736816406e+00 -8.410850912332534790e-02 2.116264820098876953e+00 6.096469163894653320e-01 6.317558884620666504e-01
2.558000000000000000e+03 8.843805313110351562e+00 -2.944789123535156250e+01 -2.910373266786336899e-03 -1.906519406475126743e-03 -1.445067813619971275e-03 4.875376471318304539e-04
2.559000000000000000e+03 3.094391441345214844e+01 -1.493857479095458984e+01 -9.080734103918075562e-02 2.462188720703125000e+00 7.114143967628479004e-01 2.044175863265991211e-01
2.560000000000000000e+03 3.033590126037597656e+01 2.215058135986328125e+01 5.295576453208923340e-01 6.800192594528198242e-01 3.628730773925781250e-01 2.628450691699981689e-01
2.561000000000000000e+03 2.739049530029296875e+01 -2.325825119018554688e+01 -2.959484420716762543e-02 1.952799916267395020e+00 5.769615173339843750e-01 8.705633878707885742e-02
2.562000000000000000e+03 6.833076477050781250e+01 2.689073562622070312e+01 3.702527284622192383e-01 7.151794910430908203e+00 2.256614446640014648e+00 -1.087753772735595703e+00
2.563000000000000000e+03 6.978816223144531250e+01 3.548479461669921875e+01 4.513325393199920654e-01 6.617266654968261719e+00 2.120579719543457031e+00 -4.445345103740692139e-01
2.564000000000000000e+03 6.963300323486328125e+01 2.999571037292480469e+01 3.773576021194458008e-01 6.756657123565673828e+00 2.140204429626464844e+00 -8.480260372161865234e-01
2.565000000000000000e+03 3.229843521118164062e+01 4.194686889648437500e+00 -1.318995952606201172e-01 2.469538450241088867e+00 7.012916803359985352e-01 6.436757445335388184e-01
2.566000000000000000e+03 6.882396697998046875e+01 2.850888824462890625e+01 3.996414840221405029e-01 6.982810497283935547e+00 2.214735746383666992e+00 -9.894104003906250000e-01
2.567000000000000000e+03 7.365069580078125000e+01 3.372749328613281250e+01 2.197808325290679932e-01 5.712275505065917969e+00 1.779616832733154297e+00 -4.600542485713958740e-01
2.568000000000000000e+03 3.151251029968261719e+01 -3.568764495849609375e+01 -4.533972591161727905e-02 2.614006757736206055e+00 7.706000804901123047e-01 1.381354406476020813e-02
2.569000000000000000e+03 7.084188842773437500e+01 -7.666257619857788086e-01 -1.716036200523376465e-01 8.119335174560546875e+00 2.384319543838500977e+00 -5.265889167785644531e-01
2.570000000000000000e+03 3.157338523864746094e+01 -2.752051544189453125e+01 -4.506607353687286377e-02 2.594718694686889648e+00 7.648957967758178711e-01 7.564391940832138062e-02
2.571000000000000000e+03 7.088787078857421875e+01 1.661894798278808594e+00 -1.802632063627243042e-01 8.048376083374023438e+00 2.360434055328369141e+00 -6.057057976722717285e-01
2.572000000000000000e+03 6.971837615966796875e+01 1.559753179550170898e+00 -2.225591391324996948e-01 7.994793891906738281e+00 2.331670522689819336e+00 -6.333402991294860840e-01
2.573000000000000000e+03 6.790150451660156250e+01 2.178549766540527344e+01 1.021360978484153748e-01 7.451453685760498047e+00 2.266077041625976562e+00 -1.297191739082336426e+00
2.574000000000000000e+03 6.923348999023437500e+01 3.261194992065429688e+01 4.945370554924011230e-01 6.765545368194580078e+00 2.178024768829345703e+00 -6.619327664375305176e-01
2.575000000000000000e+03 4.621136474609375000e+01 2.911590576171875000e+01 1.200492978096008301e+00 1.320381736755371094e+01 4.321292877197265625e+00 3.849614381790161133e+00
2.576000000000000000e+03 4.240985870361328125e+01 2.994745445251464844e+01 2.987808704376220703e+00 1.924437880516052246e+00 1.473673939704895020e+00 2.824214458465576172e+00
2.577000000000000000e+03 4.059641265869140625e+01 2.882695007324218750e+01 2.138417243957519531e+00 1.473806500434875488e+00 1.083667159080505371e+00 1.868935704231262207e+00
2.578000000000000000e+03 4.445040512084960938e+01 2.931368064880371094e+01 2.876309871673583984e+00 7.399363994598388672e+00 3.082702159881591797e+00 5.345038414001464844e+00
2.579000000000000000e+03 4.753287887573242188e+01 2.819947814941406250e+01 6.903299689292907715e-01 1.342211723327636719e+01 4.233734130859375000e+00 1.504136443138122559e+00
2.580000000000000000e+03 4.548635482788085938e+01 2.891497611999511719e+01 1.567977666854858398e+00 1.115617465972900391e+01 3.817245721817016602e+00 4.740663051605224609e+00
2.581000000000000000e+03 4.462644958496093750e+01 2.889764022827148438e+01 2.336563110351562500e+00 8.251921653747558594e+00 3.176545381546020508e+00 5.131639003753662109e+00
2.582000000000000000e+03 4.356697082519531250e+01 2.876519393920898438e+01 2.762052536010742188e+00 5.363368511199951172e+00 2.437626361846923828e+00 4.435734748840332031e+00
2.583000000000000000e+03 3.954896926879882812e+01 2.833921813964843750e+01 1.783768415451049805e+00 1.275028109550476074e+00 9.176389575004577637e-01 1.449451088905334473e+00
2.584000000000000000e+03 3.974683761596679688e+01 2.789027976989746094e+01 1.899911284446716309e+00 1.594985008239746094e+00 1.048468828201293945e+00 1.714812874794006348e+00
2.585000000000000000e+03 4.531082153320312500e+01 2.835879325866699219e+01 1.402866363525390625e+00 1.005695915222167969e+01 3.437947750091552734e+00 4.332744121551513672e+00
2.586000000000000000e+03 3.275172042846679688e+01 2.768291282653808594e+01 5.088036656379699707e-01 3.824699521064758301e-01 2.673820853233337402e-01 -4.467578232288360596e-02
2.587000000000000000e+03 3.207561492919921875e+01 2.770179748535156250e+01 4.312391877174377441e-01 3.322440981864929199e-01 2.290449887514114380e-01 -1.078518033027648926e-01
2.588000000000000000e+03 2.975953292846679688e+01 2.686751174926757812e+01 3.154892325401306152e-01 2.254328727722167969e-01 1.622766256332397461e-01 -2.029786705970764160e-01
2.589000000000000000e+03 2.919625282287597656e+01 2.727919769287109375e+01 2.513360083103179932e-01 1.557068079710006714e-01 1.221128478646278381e-01 -2.512047886848449707e-01
2.590000000000000000e+03 3.127773284912109375e+01 2.527301406860351562e+01 5.916723012924194336e-01 4.995047450065612793e-01 3.273531198501586914e-01 7.393309473991394043e-02
2.591000000000000000e+03 2.830486869812011719e+01 2.759888458251953125e+01 1.595295965671539307e-01 7.950688153505325317e-02 7.171094417572021484e-02 -2.983774542808532715e-01
2.592000000000000000e+03 2.766261291503906250e+01 2.733469772338867188e+01 1.562144607305526733e-01 3.560157865285873413e-02 5.754481256008148193e-02 -3.006474077701568604e-01
2.593000000000000000e+03 3.412386322021484375e+01 2.833587646484375000e+01 5.547036528587341309e-01 3.953298926353454590e-01 2.850100696086883545e-01 2.607854641973972321e-02
2.594000000000000000e+03 4.864792251586914062e+01 2.792306709289550781e+01 8.292418718338012695e-01 1.317376327514648438e+01 4.200901508331298828e+00 4.300016164779663086e-01
2.595000000000000000e+03 3.763689422607421875e+01 2.768352699279785156e+01 1.354430675506591797e+00 9.665487408638000488e-01 6.962938308715820312e-01 8.903619050979614258e-01
2.596000000000000000e+03 4.010663223266601562e+01 2.751135826110839844e+01 1.965820074081420898e+00 1.984663128852844238e+00 1.185144901275634766e+00 1.997944474220275879e+00
2.597000000000000000e+03 3.413249206542968750e+01 2.758510589599609375e+01 6.965754628181457520e-01 4.971442818641662598e-01 3.581159114837646484e-01 1.354264020919799805e-01
2.598000000000000000e+03 3.698237609863281250e+01 2.698756027221679688e+01 1.290532112121582031e+00 1.037130832672119141e+00 6.982988715171813965e-01 8.483033180236816406e-01
2.599000000000000000e+03 3.629299163818359375e+01 2.690779495239257812e+01 1.154883623123168945e+00 9.181856513023376465e-01 6.219208240509033203e-01 6.764114499092102051e-01
2.600000000000000000e+03 3.884727859497070312e+01 2.717335319519042969e+01 1.673851370811462402e+00 1.553358793258666992e+00 9.681630730628967285e-01 1.468656897544860840e+00
2.601000000000000000e+03 5.002307891845703125e+01 2.796157646179199219e+01 1.463073015213012695e+00 1.246370410919189453e+01 4.178033351898193359e+00 -5.649204850196838379e-01
2.602000000000000000e+03 5.219371795654296875e+01 2.864616012573242188e+01 2.128971099853515625e+00 1.109426021575927734e+01 3.966969490051269531e+00 -9.993798732757568359e-01
2.603000000000000000e+03 3.033392524719238281e+01 2.497756767272949219e+01 5.050850510597229004e-01 4.194737374782562256e-01 2.773676514625549316e-01 1.339926011860370636e-02
2.604000000000000000e+03 5.317448806762695312e+01 2.868898391723632812e+01 2.121450901031494141e+00 1.066940879821777344e+01 3.837257862091064453e+00 -1.037716746330261230e+00
2.605000000000000000e+03 6.702556610107421875e+01 -1.064510345458984375e+01 -1.894872486591339111e-01 7.886731624603271484e+00 2.309173345565795898e+00 -3.146880269050598145e-01
2.606000000000000000e+03 6.769299316406250000e+01 9.714388847351074219e+00 -3.146730661392211914e-01 7.804842948913574219e+00 2.247051000595092773e+00 -9.940625429153442383e-01
2.607000000000000000e+03 6.852677917480468750e+01 7.588125228881835938e+00 -2.915134131908416748e-01 7.829820632934570312e+00 2.261492013931274414e+00 -8.974997401237487793e-01
2.608000000000000000e+03 9.149659156799316406e+00 9.256847381591796875e+00 7.553118630312383175e-04 1.982636167667806149e-04 2.860726381186395884e-04 -8.179670112440362573e-05
2.609000000000000000e+03 3.159723091125488281e+01 1.803349494934082031e+01 4.279911220073699951e-01 1.413943409919738770e+00 5.525803565979003906e-01 6.658532023429870605e-01
2.610000000000000000e+03 6.745455169677734375e+01 1.880482482910156250e+01 -7.086799293756484985e-02 7.617434978485107422e+00 2.263970136642456055e+00 -1.297069311141967773e+00
2.611000000000000000e+03 6.952363586425781250e+01 -1.619653344154357910e+00 -2.099095135927200317e-01 8.042786598205566406e+00 2.349863290786743164e+00 -5.323586463928222656e-01
2.612000000000000000e+03 6.984597778320312500e+01 4.219817817211151123e-01 -2.086104452610015869e-01 8.024497032165527344e+00 2.344765901565551758e+00 -5.909013748168945312e-01
2.613000000000000000e+03 2.799704170227050781e+01 2.624889564514160156e+01 2.453847229480743408e-01 9.674590826034545898e-02 1.026391908526420593e-01 -2.262967377901077271e-01
2.614000000000000000e+03 3.198279380798339844e+01 1.120856380462646484e+01 5.843196064233779907e-02 2.098464250564575195e+00 6.470688581466674805e-01 7.740406990051269531e-01
2.615000000000000000e+03 3.059502983093261719e+01 1.521660900115966797e+01 2.414384931325912476e-01 1.438245534896850586e+00 5.039052367210388184e-01 6.545158028602600098e-01
2.616000000000000000e+03 3.169301795959472656e+01 1.669243240356445312e+01 3.481017947196960449e-01 1.579188227653503418e+00 5.781869888305664062e-01 7.198190689086914062e-01
2.617000000000000000e+03 6.828376007080078125e+01 1.715666198730468750e+01 -1.228358745574951172e-01 7.582444190979003906e+00 2.237882614135742188e+00 -1.240152001380920410e+00
2.618000000000000000e+03 3.090337562561035156e+01 8.234704971313476562e+00 -2.645338885486125946e-02 1.977599143981933594e+00 5.853437185287475586e-01 6.793116331100463867e-01
2.619000000000000000e+03 3.204985427856445312e+01 9.816100120544433594e+00 4.023539368063211441e-03 2.193762302398681641e+00 6.593357324600219727e-01 7.592577934265136719e-01
2.620000000000000000e+03 3.031854248046875000e+01 2.070223045349121094e+01 4.843338131904602051e-01 8.387333154678344727e-01 3.969201147556304932e-01 3.799506127834320068e-01
2.621000000000000000e+03 6.931490325927734375e+01 -2.630777835845947266e+00 -2.013193070888519287e-01 8.047045707702636719e+00 2.353718042373657227e+00 -5.015947222709655762e-01
2.622000000000000000e+03 6.912409973144531250e+01 1.324961376190185547e+01 -2.147810161113739014e-01 7.658141136169433594e+00 2.233008146286010742e+00 -1.101926088333129883e+00
2.623000000000000000e+03 8.698961257934570312e+00 1.910262870788574219e+01 4.548099532257765532e-04 6.818711990490555763e-04 3.410043427720665932e-04 -4.253938677720725536e-04
2.624000000000000000e+03 6.519109344482421875e+01 -2.507849502563476562e+01 -1.013028249144554138e-01 7.667107582092285156e+00 2.269741535186767578e+00 -1.125043779611587524e-01
2.625000000000000000e+03 6.615277099609375000e+01 -2.693657875061035156e+01 -7.597661763429641724e-02 7.815372467041015625e+00 2.321818828582763672e+00 -7.544340938329696655e-02
2.626000000000000000e+03 3.150207710266113281e+01 1.935725784301757812e+01 4.994205534458160400e-01 1.242138028144836426e+00 5.224675536155700684e-01 5.935925245285034180e-01
2.627000000000000000e+03 3.218124008178710938e+01 7.016030788421630859e+00 -8.009408414363861084e-02 2.351741075515747070e+00 6.814941167831420898e-01 7.098791599273681641e-01
2.628000000000000000e+03 2.974220275878906250e+01 9.366164207458496094e-01 -9.551610797643661499e-02 1.975496053695678711e+00 5.639939904212951660e-01 4.948537647724151611e-01
2.629000000000000000e+03 3.053654670715332031e+01 -4.892705440521240234e+00 -1.145832464098930359e-01 2.264364957809448242e+00 6.449345350265502930e-01 3.873068094253540039e-01
2.630000000000000000e+03 6.768350982666015625e+01 2.023577690124511719e+01 8.282570168375968933e-03 7.541537284851074219e+00 2.264945983886718750e+00 -1.302751183509826660e+00
2.631000000000000000e+03 6.803549766540527344e+00 -2.220675086975097656e+01 4.670849593821913004e-04 -1.642913412069901824e-04 9.083808981813490391e-05 1.003736630082130432e-03
2.632000000000000000e+03 6.798775482177734375e+01 -2.172752952575683594e+01 -8.874735236167907715e-02 8.057419776916503906e+00 2.390601873397827148e+00 -1.283843219280242920e-01
2.633000000000000000e+03 3.103626060485839844e+01 2.552853345870971680e+00 -1.156899482011795044e-01 2.217944622039794922e+00 6.306763887405395508e-01 5.688552260398864746e-01
2.634000000000000000e+03 2.972702026367187500e+01 2.420888519287109375e+01 4.597623348236083984e-01 4.046946763992309570e-01 2.593370974063873291e-01 3.384133428335189819e-02
2.635000000000000000e+03 6.890361022949218750e+01 9.428227692842483521e-02 -2.371100634336471558e-01 7.977011680603027344e+00 2.321970462799072266e+00 -5.986859202384948730e-01
2.636000000000000000e+03 6.845164489746093750e+01 -1.821928501129150391e+00 -2.353067100048065186e-01 7.967016220092773438e+00 2.319512844085693359e+00 -5.414920449256896973e-01
2.637000000000000000e+03 3.224551773071289062e+01 5.610114097595214844e+00 -1.086980924010276794e-01 2.414598941802978516e+00 6.917702555656433105e-01 6.791094541549682617e-01
2.638000000000000000e+03 3.183945655822753906e+01 1.397042751312255859e+01 1.929962337017059326e-01 1.865712165832519531e+00 6.176124811172485352e-01 7.747579813003540039e-01
2.639000000000000000e+03 3.094729995727539062e+01 6.822921752929687500e+00 -5.786261335015296936e-02 2.050377130508422852e+00 5.977543592453002930e-01 6.586350202560424805e-01
2.640000000000000000e+03 3.234010314941406250e+01 2.762378692626953125e+00 -1.457566320896148682e-01 2.512736320495605469e+00 7.100939154624938965e-01 6.065374612808227539e-01
2.641000000000000000e+03 3.180056762695312500e+01 -1.985933685302734375e+01 -9.165492653846740723e-02 2.627027273178100586e+00 7.606117129325866699e-01 1.437385082244873047e-01
2.642000000000000000e+03 3.339358520507812500e+01 -1.743219184875488281e+01 -1.124011650681495667e-01 2.870512485504150391e+00 8.274334073066711426e-01 1.792827993631362915e-01
2.643000000000000000e+03 6.858668518066406250e+01 -6.826214790344238281e+00 -1.949900090694427490e-01 8.032188415527343750e+00 2.351159572601318359e+00 -3.920670747756958008e-01
2.644000000000000000e+03 6.894066619873046875e+01 6.470942497253417969e+00 -2.724131345748901367e-01 7.853730678558349609e+00 2.274395227432250977e+00 -8.410743474960327148e-01
2.645000000000000000e+03 6.998978424072265625e+01 6.942317485809326172e+00 -2.351385802030563354e-01 7.846237182617187500e+00 2.283329486846923828e+00 -8.352795243263244629e-01
2.646000000000000000e+03 6.788841247558593750e+01 5.962794303894042969e+00 -3.143270611763000488e-01 7.852926731109619141e+00 2.261579990386962891e+00 -8.365621566772460938e-01
2.647000000000000000e+03 4.052080917358398438e+01 2.782706069946289062e+01 2.080164909362792969e+00 2.038837671279907227e+00 1.235700726509094238e+00 2.130131721496582031e+00
2.648000000000000000e+03 4.591664886474609375e+01 2.868324470520019531e+01 1.181158065795898438e+00 1.207503223419189453e+01 3.976856946945190430e+00 4.045841217041015625e+00
2.649000000000000000e+03 4.490425872802734375e+01 2.859496307373046875e+01 1.780584096908569336e+00 9.210387229919433594e+00 3.297291517257690430e+00 4.774645328521728516e+00
2.650000000000000000e+03 4.576135635375976562e+01 2.820257377624511719e+01 1.037860274314880371e+00 1.096322631835937500e+01 3.600325822830200195e+00 4.006126403808593750e+00
2.651000000000000000e+03 4.049820709228515625e+01 2.830036926269531250e+01 2.125726938247680664e+00 1.754486322402954102e+00 1.164064049720764160e+00 2.004171371459960938e+00
2.652000000000000000e+03 4.268915176391601562e+01 2.922947502136230469e+01 2.984491825103759766e+00 3.152146816253662109e+00 1.840991616249084473e+00 3.509307622909545898e+00
2.653000000000000000e+03 4.090335845947265625e+01 2.787707519531250000e+01 2.189012289047241211e+00 2.303519964218139648e+00 1.347759723663330078e+00 2.385292291641235352e+00
2.654000000000000000e+03 4.286594772338867188e+01 2.975909805297851562e+01 3.240978956222534180e+00 2.775668144226074219e+00 1.804994106292724609e+00 3.488911390304565430e+00
2.655000000000000000e+03 3.153322601318359375e+01 2.686031532287597656e+01 4.755875468254089355e-01 3.610051274299621582e-01 2.509777843952178955e-01 -6.796634197235107422e-02
2.656000000000000000e+03 3.030686759948730469e+01 2.629143905639648438e+01 4.109210371971130371e-01 3.201278448104858398e-01 2.193146646022796631e-01 -1.116652935743331909e-01
2.657000000000000000e+03 2.980364227294921875e+01 2.565996551513671875e+01 4.111624062061309814e-01 3.172281384468078613e-01 2.185171544551849365e-01 -9.258123487234115601e-02
2.658000000000000000e+03 4.693209838867187500e+01 2.769030189514160156e+01 4.636475145816802979e-01 1.245518970489501953e+01 3.875651359558105469e+00 2.420240879058837891e+00
2.659000000000000000e+03 4.924578857421875000e+01 2.766123199462890625e+01 9.464879631996154785e-01 1.265907859802246094e+01 4.081670284271240234e+00 4.777812864631414413e-04
2.660000000000000000e+03 2.926653099060058594e+01 2.613854217529296875e+01 3.326589465141296387e-01 2.164054661989212036e-01 1.647193282842636108e-01 -1.694978922605514526e-01
2.661000000000000000e+03 3.931645202636718750e+01 2.745162773132324219e+01 1.776293635368347168e+00 1.616789102554321289e+00 1.017924785614013672e+00 1.603695511817932129e+00
2.662000000000000000e+03 4.502657699584960938e+01 2.790369606018066406e+01 1.355232954025268555e+00 9.280249595642089844e+00 3.190644979476928711e+00 4.251499176025390625e+00
2.663000000000000000e+03 5.303172683715820312e+01 2.746594429016113281e+01 1.480438947677612305e+00 1.068960571289062500e+01 3.651013374328613281e+00 -1.039229750633239746e+00
2.664000000000000000e+03 3.826494216918945312e+01 2.712082481384277344e+01 1.556627750396728516e+00 1.346690893173217773e+00 8.709955811500549316e-01 1.255527615547180176e+00
2.665000000000000000e+03 3.934442138671875000e+01 2.647731399536132812e+01 1.727892875671386719e+00 2.072590112686157227e+00 1.140144944190979004e+00 1.811904668807983398e+00
2.666000000000000000e+03 5.140492630004882812e+01 2.709128570556640625e+01 1.139767050743103027e+00 1.131013774871826172e+01 3.734971523284912109e+00 -7.998905181884765625e-01
2.667000000000000000e+03 5.037364959716796875e+01 2.748439979553222656e+01 1.185764193534851074e+00 1.202199554443359375e+01 3.962327957153320312e+00 -5.531930327415466309e-01
2.668000000000000000e+03 3.278302764892578125e+01 2.692347526550292969e+01 6.084989905357360840e-01 4.658339619636535645e-01 3.222998976707458496e-01 4.736250638961791992e-02
2.669000000000000000e+03 3.768116760253906250e+01 2.642305564880371094e+01 1.452253341674804688e+00 1.416750311851501465e+00 8.607011437416076660e-01 1.186766743659973145e+00
2.670000000000000000e+03 3.764255142211914062e+01 2.705898666381835938e+01 1.422111868858337402e+00 1.171815514564514160e+00 7.781782150268554688e-01 1.037051677703857422e+00
2.671000000000000000e+03 3.829227447509765625e+01 2.650127792358398438e+01 1.559942364692687988e+00 1.572152376174926758e+00 9.396284222602844238e-01 1.378279685974121094e+00
2.672000000000000000e+03 3.636251449584960938e+01 2.621154975891113281e+01 1.218888640403747559e+00 1.108804583549499512e+00 6.983079314231872559e-01 8.264462351799011230e-01
2.673000000000000000e+03 3.703399658203125000e+01 2.633148002624511719e+01 1.329674243927001953e+00 1.237226724624633789e+00 7.700703144073486328e-01 9.852008223533630371e-01
2.674000000000000000e+03 4.746155166625976562e+01 2.762510108947753906e+01 4.448100924491882324e-01 1.271017646789550781e+01 3.946496009826660156e+00 1.749224185943603516e+00
2.675000000000000000e+03 3.145350837707519531e+01 2.066217231750488281e+01 5.620006322860717773e-01 1.076278567314147949e+00 4.914837777614593506e-01 5.101447701454162598e-01
2.676000000000000000e+03 3.119633102416992188e+01 2.595413970947265625e+01 5.404089689254760742e-01 4.283434748649597168e-01 2.906257212162017822e-01 -2.314343291800469160e-04
2.677000000000000000e+03 5.093781661987304688e+01 2.783395576477050781e+01 1.582907557487487793e+00 1.189707469940185547e+01 4.043994903564453125e+00 -8.349822759628295898e-01
2.678000000000000000e+03 3.196001052856445312e+01 2.425661468505859375e+01 6.720532774925231934e-01 7.005282640457153320e-01 4.117744565010070801e-01 2.484954744577407837e-01
2.679000000000000000e+03 3.485218811035156250e+01 2.677169036865234375e+01 9.069350361824035645e-01 7.076241374015808105e-01 4.843677580356597900e-01 3.675783574581146240e-01
2.680000000000000000e+03 3.413650512695312500e+01 2.678000831604003906e+01 8.125226497650146484e-01 6.138865351676940918e-01 4.279227554798126221e-01 2.491896003484725952e-01
2.681000000000000000e+03 3.413310623168945312e+01 1.692707252502441406e+01 4.015432298183441162e-01 2.236880302429199219e+00 7.915270924568176270e-01 9.755073785781860352e-01
2.682000000000000000e+03 3.276506805419921875e+01 1.813574981689453125e+01 4.780350327491760254e-01 1.701791405677795410e+00 6.539479494094848633e-01 7.987922430038452148e-01
2.683000000000000000e+03 3.258271026611328125e+01 2.179831314086914062e+01 7.046411037445068359e-01 1.174218058586120605e+00 5.636577606201171875e-01 5.827802419662475586e-01
2.684000000000000000e+03 3.063403320312500000e+01 2.345569992065429688e+01 5.513139367103576660e-01 5.909395217895507812e-01 3.426760435104370117e-01 1.780962347984313965e-01
2.685000000000000000e+03 6.786254882812500000e+01 1.515696525573730469e+01 -2.033470720052719116e-01 7.683650970458984375e+00 2.244091272354125977e+00 -1.198889851570129395e+00
2.686000000000000000e+03 3.331319046020507812e+01 8.620248794555664062e+00 -6.283982843160629272e-02 2.582646846771240234e+00 7.559421062469482422e-01 7.909448742866516113e-01
2.687000000000000000e+03 3.315267181396484375e+01 1.137537002563476562e+01 4.942284896969795227e-02 2.404334545135498047e+00 7.361272573471069336e-01 8.442609310150146484e-01
2.688000000000000000e+03 3.262707519531250000e+01 1.941858291625976562e+01 5.656549334526062012e-01 1.503224134445190430e+00 6.206637024879455566e-01 7.259746789932250977e-01
2.689000000000000000e+03 3.191117858886718750e+01 1.259491920471191406e+01 1.207439824938774109e-01 1.988397002220153809e+00 6.327422857284545898e-01 7.793195247650146484e-01
2.690000000000000000e+03 3.177007865905761719e+01 1.533633995056152344e+01 2.695045471191406250e-01 1.727873563766479492e+00 5.992134213447570801e-01 7.544980645179748535e-01
2.691000000000000000e+03 6.855463409423828125e+01 1.310841917991638184e+00 -2.686428725719451904e-01 7.934894084930419922e+00 2.299875497817993164e+00 -6.503316164016723633e-01
2.692000000000000000e+03 3.211381530761718750e+01 8.418114662170410156e+00 -4.159179702401161194e-02 2.277085065841674805e+00 6.706479787826538086e-01 7.382137179374694824e-01
2.693000000000000000e+03 3.322987365722656250e+01 1.000081348419189453e+01 -1.110816560685634613e-02 2.499997615814208984e+00 7.466668486595153809e-01 8.214849829673767090e-01
2.694000000000000000e+03 3.209334564208984375e+01 -4.744937419891357422e+00 -1.534750759601593018e-01 2.580722093582153320e+00 7.281740903854370117e-01 4.084761440753936768e-01
2.695000000000000000e+03 3.223307800292968750e+01 -3.207897424697875977e+00 -1.592388451099395752e-01 2.581954956054687500e+00 7.268148064613342285e-01 4.491392374038696289e-01
2.696000000000000000e+03 6.783596038818359375e+01 -5.326747894287109375e-01 -2.744844257831573486e-01 7.916168212890625000e+00 2.292505025863647461e+00 -5.892745852470397949e-01
2.697000000000000000e+03 6.810456848144531250e+01 -4.692971706390380859e+00 -2.315851449966430664e-01 7.953637599945068359e+00 2.316615819931030273e+00 -4.588192403316497803e-01
2.698000000000000000e+03 3.031704139709472656e+01 -7.965441703796386719e+00 -1.058483272790908813e-01 2.277431488037109375e+00 6.514749526977539062e-01 3.199985325336456299e-01
2.699000000000000000e+03 3.034382057189941406e+01 -6.468920707702636719e+00 -1.136866956949234009e-01 2.254786729812622070e+00 6.423299908638000488e-01 3.520185351371765137e-01
2.700000000000000000e+03 6.911788177490234375e+01 -1.636235427856445312e+01 -9.922265261411666870e-02 8.176136016845703125e+00 2.423074007034301758e+00 -2.042825967073440552e-01
2.701000000000000000e+03 6.832776641845703125e+01 -1.220784378051757812e+01 -1.447321474552154541e-01 8.048109054565429688e+00 2.371013164520263672e+00 -2.702929377555847168e-01
2.702000000000000000e+03 6.960923004150390625e+01 -8.058625221252441406e+00 -1.499567627906799316e-01 8.164297103881835938e+00 2.404301881790161133e+00 -3.471104502677917480e-01
2.703000000000000000e+03 6.961218261718750000e+01 8.106725692749023438e+00 -2.458112984895706177e-01 7.812015533447265625e+00 2.269861221313476562e+00 -8.889119029045104980e-01
2.704000000000000000e+03 6.829469299316406250e+01 4.952375888824462891e+00 -2.922195792198181152e-01 7.870483875274658203e+00 2.273479223251342773e+00 -7.940164208412170410e-01
2.705000000000000000e+03 3.104002571105957031e+01 1.106667876243591309e+00 -1.232834160327911377e-01 2.256711006164550781e+00 6.400282979011535645e-01 5.344984531402587891e-01
2.706000000000000000e+03 3.101803207397460938e+01 -3.523418009281158447e-01 -1.289141625165939331e-01 2.286231279373168945e+00 6.471951007843017578e-01 4.988205134868621826e-01
2.707000000000000000e+03 3.094946289062500000e+01 -1.825614094734191895e+00 -1.282582432031631470e-01 2.302890062332153320e+00 6.523895263671875000e-01 4.639002978801727295e-01
2.708000000000000000e+03 3.036277961730957031e+01 -1.080340862274169922e+01 -9.446444362401962280e-02 2.327087402343750000e+00 6.697868704795837402e-01 2.687461078166961670e-01
2.709000000000000000e+03 3.049279022216796875e+01 -1.217711067199707031e+01 -9.597486257553100586e-02 2.367218971252441406e+00 6.813732385635375977e-01 2.452133148908615112e-01
2.710000000000000000e+03 3.301961135864257812e+01 1.410042762756347656e+01 1.981814354658126831e-01 2.179946422576904297e+00 7.134383916854858398e-01 8.681406378746032715e-01
2.711000000000000000e+03 6.931589508056640625e+01 5.305723667144775391e+00 -2.600108683109283447e-01 7.886229038238525391e+00 2.287865400314331055e+00 -7.878483533859252930e-01
2.712000000000000000e+03 6.689772033691406250e+01 5.360825538635253906e+00 -3.529085218906402588e-01 7.835865020751953125e+00 2.244886875152587891e+00 -8.219642043113708496e-01
2.713000000000000000e+03 3.223768997192382812e+01 -1.304434490203857422e+01 -1.202282384037971497e-01 2.669658660888671875e+00 7.648290991783142090e-01 2.420269995927810669e-01
2.714000000000000000e+03 3.296475601196289062e+01 -1.584225463867187500e+01 -1.144211068749427795e-01 2.804355144500732422e+00 8.069801926612854004e-01 2.005042880773544312e-01
2.715000000000000000e+03 6.925556945800781250e+01 9.284791946411132812e+00 -2.538867294788360596e-01 7.780396938323974609e+00 2.257953166961669922e+00 -9.484337568283081055e-01
2.716000000000000000e+03 6.810757446289062500e+01 8.666474342346191406e+00 -3.072104156017303467e-01 7.814761161804199219e+00 2.252265214920043945e+00 -9.502483010292053223e-01
2.717000000000000000e+03 6.676679992675781250e+01 -1.726439857482910156e+01 -1.461236327886581421e-01 7.856947898864746094e+00 2.313247203826904297e+00 -1.901354491710662842e-01
2.718000000000000000e+03 3.477563476562500000e+01 6.116334915161132812e+00 -1.733935326337814331e-01 3.035123586654663086e+00 8.585190176963806152e-01 7.592859268188476562e-01
2.719000000000000000e+03 3.359180831909179688e+01 4.438022613525390625e+00 -1.639351844787597656e-01 2.773900747299194336e+00 7.829896807670593262e-01 6.813717484474182129e-01
2.720000000000000000e+03 6.474798583984375000e+01 2.226505661010742188e+01 1.612252146005630493e-01 7.902088642120361328e+00 2.418994188308715820e+00 -1.377395987510681152e+00
2.721000000000000000e+03 6.627519226074218750e+01 2.209575653076171875e+01 1.362644881010055542e-01 7.689463615417480469e+00 2.347718477249145508e+00 -1.344223976135253906e+00
2.722000000000000000e+03 9.142107963562011719e+00 2.008855247497558594e+01 -3.789035836234688759e-04 -7.583817932754755020e-04 -3.411856305319815874e-04 5.702312337234616280e-04
2.723000000000000000e+03 6.621996307373046875e+01 -2.250057029724121094e+01 -1.043597236275672913e-01 7.806799888610839844e+00 2.310732126235961914e+00 -1.333392709493637085e-01
2.724000000000000000e+03 6.693730163574218750e+01 -2.416904449462890625e+01 -8.613803237676620483e-02 7.909043788909912109e+00 2.346871614456176758e+00 -1.051003113389015198e-01
2.725000000000000000e+03 3.177337074279785156e+01 -2.191461753845214844e+01 -7.963507622480392456e-02 2.614500284194946289e+00 7.604595422744750977e-01 1.027040854096412659e-01
2.726000000000000000e+03 6.773943328857421875e+01 -2.764914274215698242e+00 -2.492924779653549194e-01 7.915662765502929688e+00 2.299911022186279297e+00 -5.192420482635498047e-01
2.727000000000000000e+03 4.636122512817382812e+01 2.771950531005859375e+01 6.248049736022949219e-01 1.174722957611083984e+01 3.711610555648803711e+00 3.141296148300170898e+00
2.728000000000000000e+03 4.365310287475585938e+01 2.813232421875000000e+01 2.321367263793945312e+00 5.963754177093505859e+00 2.485536336898803711e+00 4.308696269989013672e+00
2.729000000000000000e+03 3.968539810180664062e+01 2.702722358703613281e+01 1.845404267311096191e+00 1.996897697448730469e+00 1.152690529823303223e+00 1.874509930610656738e+00
2.730000000000000000e+03 4.434540557861328125e+01 2.828937721252441406e+01 2.043550014495849609e+00 7.708736419677734375e+00 2.925685882568359375e+00 4.636553764343261719e+00
2.731000000000000000e+03 4.224575805664062500e+01 2.942673301696777344e+01 2.866287946701049805e+00 2.326891183853149414e+00 1.557953715324401855e+00 2.950474262237548828e+00
2.732000000000000000e+03 4.423038482666015625e+01 2.868797683715820312e+01 2.400614261627197266e+00 7.157945632934570312e+00 2.867568016052246094e+00 4.822202682495117188e+00
2.733000000000000000e+03 4.095866775512695312e+01 2.829990005493164062e+01 2.280377626419067383e+00 2.100718975067138672e+00 1.314329028129577637e+00 2.315564870834350586e+00
2.734000000000000000e+03 4.794087600708007812e+01 2.754848861694335938e+01 5.146576166152954102e-01 1.278735256195068359e+01 3.990603208541870117e+00 1.162868499755859375e+00
2.735000000000000000e+03 4.963296890258789062e+01 2.593102455139160156e+01 2.066653966903686523e-01 1.148074245452880859e+01 3.506222248077392578e+00 2.027809470891952515e-01
2.736000000000000000e+03 3.411354064941406250e+01 2.588448524475097656e+01 8.731030821800231934e-01 7.722137570381164551e-01 4.935950636863708496e-01 3.716275393962860107e-01
2.737000000000000000e+03 3.224930572509765625e+01 2.620529174804687500e+01 5.993251800537109375e-01 4.864192306995391846e-01 3.257233202457427979e-01 6.017940491437911987e-02
2.738000000000000000e+03 3.106303024291992188e+01 2.447033882141113281e+01 5.814196467399597168e-01 5.460631847381591797e-01 3.382448554039001465e-01 1.259487569332122803e-01
2.739000000000000000e+03 3.836685562133789062e+01 2.581534385681152344e+01 1.533468127250671387e+00 1.886914610862731934e+00 1.026114821434020996e+00 1.528288245201110840e+00
2.740000000000000000e+03 3.895111465454101562e+01 2.600258827209472656e+01 1.615222692489624023e+00 2.077770233154296875e+00 1.107897877693176270e+00 1.706102490425109863e+00
2.741000000000000000e+03 3.668539047241210938e+01 2.485219764709472656e+01 1.257135629653930664e+00 1.557892799377441406e+00 8.445085287094116211e-01 1.122477650642395020e+00
2.742000000000000000e+03 3.773430252075195312e+01 2.578841590881347656e+01 1.429989337921142578e+00 1.635154008865356445e+00 9.195430278778076172e-01 1.294468045234680176e+00
2.743000000000000000e+03 3.711605453491210938e+01 2.569634056091308594e+01 1.335579991340637207e+00 1.455506801605224609e+00 8.373260498046875000e-01 1.122815608978271484e+00
2.744000000000000000e+03 3.648891448974609375e+01 2.552995872497558594e+01 1.234436631202697754e+00 1.314615607261657715e+00 7.647156715393066406e-01 9.568582177162170410e-01
2.745000000000000000e+03 5.207093811035156250e+01 2.774281311035156250e+01 1.577027201652526855e+00 1.110517692565917969e+01 3.804661273956298828e+00 -9.816995859146118164e-01
2.746000000000000000e+03 3.344401168823242188e+01 2.685086441040039062e+01 7.095873951911926270e-01 5.414121747016906738e-01 3.752998709678649902e-01 1.437444984912872314e-01
2.747000000000000000e+03 5.434477233886718750e+01 2.733753967285156250e+01 1.452408432960510254e+00 1.016674137115478516e+01 3.485744953155517578e+00 -1.129872679710388184e+00
2.748000000000000000e+03 5.440560913085937500e+01 2.869001960754394531e+01 1.982127904891967773e+00 1.017947864532470703e+01 3.648482084274291992e+00 -1.030539512634277344e+00
2.749000000000000000e+03 3.255415725708007812e+01 2.063605880737304688e+01 6.264462471008300781e-01 1.327187538146972656e+00 5.860901474952697754e-01 6.509380340576171875e-01
2.750000000000000000e+03 3.172492790222167969e+01 2.607289505004882812e+01 5.637499690055847168e-01 4.408580660820007324e-01 3.013824224472045898e-01 2.872173674404621124e-02
2.751000000000000000e+03 3.172234535217285156e+01 2.313754272460937500e+01 6.662598252296447754e-01 8.156781792640686035e-01 4.445813894271850586e-01 3.465839624404907227e-01
2.752000000000000000e+03 3.151168060302734375e+01 2.194066619873046875e+01 6.300056576728820801e-01 9.314303994178771973e-01 4.684308171272277832e-01 4.275926649570465088e-01
2.753000000000000000e+03 3.371700286865234375e+01 1.953977584838867188e+01 6.347279548645019531e-01 1.754627227783203125e+00 7.168065905570983887e-01 8.827610611915588379e-01
2.754000000000000000e+03 3.394482803344726562e+01 1.829560852050781250e+01 5.161864161491394043e-01 2.034250259399414062e+00 7.651309967041015625e-01 9.499093890190124512e-01
2.755000000000000000e+03 3.314463043212890625e+01 2.515778350830078125e+01 7.848134636878967285e-01 7.247542738914489746e-01 4.528703391551971436e-01 3.067787587642669678e-01
2.756000000000000000e+03 3.431277465820312500e+01 1.153715133666992188e+01 3.128007054328918457e-02 2.723206758499145508e+00 8.263460397720336914e-01 9.147300720214843750e-01
2.757000000000000000e+03 6.657689666748046875e+01 1.385645103454589844e+01 -2.871779799461364746e-01 7.798532485961914062e+00 2.253406524658203125e+00 -1.180287718772888184e+00
2.758000000000000000e+03 3.416487884521484375e+01 1.554116344451904297e+01 2.884278595447540283e-01 2.390794754028320312e+00 8.037667870521545410e-01 9.752304553985595703e-01
2.759000000000000000e+03 3.538676071166992188e+01 1.557384395599365234e+01 2.695257961750030518e-01 2.747041225433349609e+00 9.049701094627380371e-01 1.080056309700012207e+00
2.760000000000000000e+03 6.833456420898437500e+01 2.652575016021728516e+00 -2.832983732223510742e-01 7.901934623718261719e+00 2.285590887069702148e+00 -7.062879204750061035e-01
2.761000000000000000e+03 6.746680450439453125e+01 1.642883110046386719e+01 -1.724564880132675171e-01 7.679937839508056641e+00 2.252244234085083008e+00 -1.244003653526306152e+00
2.762000000000000000e+03 3.341020202636718750e+01 7.234120845794677734e+00 -1.049219891428947449e-01 2.656901359558105469e+00 7.655938267707824707e-01 7.588003873825073242e-01
2.763000000000000000e+03 3.661330032348632812e+01 1.179758739471435547e+01 -3.696131333708763123e-02 3.396351575851440430e+00 1.007817029953002930e+00 1.024130105972290039e+00
2.764000000000000000e+03 3.420676040649414062e+01 1.421138286590576172e+01 1.924218386411666870e-01 2.510748386383056641e+00 8.109510540962219238e-01 9.584953188896179199e-01
2.765000000000000000e+03 2.882938575744628906e+01 -9.722538948059082031e+00 -7.237418740987777710e-02 2.041362047195434570e+00 5.906963348388671875e-01 2.668027877807617188e-01
2.766000000000000000e+03 6.654156494140625000e+01 9.200398445129394531e+00 -3.610639274120330811e-01 7.826220512390136719e+00 2.239547014236450195e+00 -9.871438145637512207e-01
2.767000000000000000e+03 6.743402099609375000e+01 7.016121864318847656e+00 -3.390614092350006104e-01 7.837384700775146484e+00 2.249496936798095703e+00 -8.885324001312255859e-01
2.768000000000000000e+03 6.654295349121093750e+01 3.623319387435913086e+00 -3.614132106304168701e-01 7.830494880676269531e+00 2.240724563598632812e+00 -7.519637346267700195e-01
2.769000000000000000e+03 6.617376708984375000e+01 2.049494552612304688e+01 1.408534031361341476e-02 7.733122825622558594e+00 2.324162483215332031e+00 -1.349689006805419922e+00
2.770000000000000000e+03 6.608210754394531250e+01 1.898293113708496094e+01 -8.048243075609207153e-02 7.774500846862792969e+00 2.308205366134643555e+00 -1.334078431129455566e+00
2.771000000000000000e+03 2.888212013244628906e+01 -1.113971042633056641e+01 -7.176221907138824463e-02 2.073998689651489258e+00 6.006709337234497070e-01 2.434916496276855469e-01
2.772000000000000000e+03 3.585149383544921875e+01 -1.827555465698242188e+01 -1.373386532068252563e-01 3.300833463668823242e+00 9.490484595298767090e-01 1.646778881549835205e-01
2.773000000000000000e+03 6.841065216064453125e+01 -8.847837448120117188e+00 -1.741690784692764282e-01 8.025959968566894531e+00 2.355537414550781250e+00 -3.466573357582092285e-01
2.774000000000000000e+03 6.695462036132812500e+01 -1.212547588348388672e+01 -1.727896779775619507e-01 7.881944656372070312e+00 2.312746524810791016e+00 -2.822211086750030518e-01
2.775000000000000000e+03 3.236928939819335938e+01 -1.778204143047332764e-01 -1.618497818708419800e-01 2.575518131256103516e+00 7.241005301475524902e-01 5.296075344085693359e-01
2.776000000000000000e+03 3.236670684814453125e+01 1.306207656860351562e+00 -1.564746648073196411e-01 2.548970222473144531e+00 7.177487015724182129e-01 5.689263343811035156e-01
2.777000000000000000e+03 3.376955413818359375e+01 4.592421650886535645e-02 -1.991715282201766968e-01 2.879734992980957031e+00 8.041690587997436523e-01 5.539457798004150391e-01
2.778000000000000000e+03 3.356520080566406250e+01 -6.089627742767333984e+00 -1.821793019771575928e-01 2.882229328155517578e+00 8.100150227546691895e-01 3.909956514835357666e-01
2.779000000000000000e+03 3.375224685668945312e+01 -3.010654449462890625e+00 -1.994607597589492798e-01 2.901329517364501953e+00 8.105606436729431152e-01 4.657027125358581543e-01
2.780000000000000000e+03 6.718845367431640625e+01 -5.749258995056152344e+00 -2.454261928796768188e-01 7.881248474121093750e+00 2.290746688842773438e+00 -4.301094412803649902e-01
2.781000000000000000e+03 6.716516113281250000e+01 -2.024253463745117188e+01 -1.000769957900047302e-01 7.938570022583007812e+00 2.351547956466674805e+00 -1.578731089830398560e-01
2.782000000000000000e+03 6.600347137451171875e+01 -1.396512413024902344e+01 -1.683089286088943481e-01 7.767051696777343750e+00 2.279622793197631836e+00 -2.466807961463928223e-01
2.783000000000000000e+03 3.257758712768554688e+01 -1.439073467254638672e+01 -1.164337620139122009e-01 2.736612796783447266e+00 7.860537171363830566e-01 2.221675366163253784e-01
2.784000000000000000e+03 6.279582977294921875e+01 3.192373847961425781e+01 1.068227648735046387e+00 8.269990921020507812e+00 2.801465511322021484e+00 -7.097802758216857910e-01
2.785000000000000000e+03 6.470382690429687500e+01 2.397572708129882812e+01 3.221466243267059326e-01 7.892955780029296875e+00 2.464530706405639648e+00 -1.347281694412231445e+00
2.786000000000000000e+03 6.652339172363281250e+01 2.751523399353027344e+01 5.218586921691894531e-01 7.439580917358398438e+00 2.388431787490844727e+00 -1.124220371246337891e+00
2.787000000000000000e+03 6.287779617309570312e+01 2.570256423950195312e+01 5.561251044273376465e-01 8.159743309020996094e+00 2.614760398864746094e+00 -1.314556002616882324e+00
2.788000000000000000e+03 6.704815673828125000e+01 -3.681816101074218750e+00 -2.620046138763427734e-01 7.867295265197753906e+00 2.281587362289428711e+00 -4.888319671154022217e-01
2.789000000000000000e+03 6.948774719238281250e+01 -2.074054908752441406e+01 -6.531653553247451782e-02 8.258711814880371094e+00 2.458018541336059570e+00 -1.393207758665084839e-01
2.790000000000000000e+03 4.385950088500976562e+01 2.847089958190917969e+01 2.476823806762695312e+00 6.273004055023193359e+00 2.624948501586914062e+00 4.535412788391113281e+00
2.791000000000000000e+03 4.405442047119140625e+01 2.775109100341796875e+01 1.855297565460205078e+00 7.141704082489013672e+00 2.699100494384765625e+00 4.280658245086669922e+00
2.792000000000000000e+03 4.147750854492187500e+01 2.867787933349609375e+01 2.484622716903686523e+00 2.235399961471557617e+00 1.416006803512573242e+00 2.580654621124267578e+00
2.793000000000000000e+03 4.315098953247070312e+01 2.902397918701171875e+01 2.984332084655761719e+00 4.218644618988037109e+00 2.160892963409423828e+00 4.072180271148681641e+00
2.794000000000000000e+03 4.359506607055664062e+01 2.765502738952636719e+01 2.039821624755859375e+00 6.093889236450195312e+00 2.440113306045532227e+00 4.078740596771240234e+00
2.795000000000000000e+03 4.136906433105468750e+01 2.824131202697753906e+01 2.388455152511596680e+00 2.497305631637573242e+00 1.465728282928466797e+00 2.628352880477905273e+00
2.796000000000000000e+03 4.111701202392578125e+01 2.733366203308105469e+01 2.105004072189331055e+00 2.796499013900756836e+00 1.470450878143310547e+00 2.582522869110107422e+00
2.797000000000000000e+03 4.050797653198242188e+01 2.638323020935058594e+01 1.858873724937438965e+00 2.831688642501831055e+00 1.407168745994567871e+00 2.358088016510009766e+00
2.798000000000000000e+03 4.010069656372070312e+01 2.667744445800781250e+01 1.871654987335205078e+00 2.426995277404785156e+00 1.289595127105712891e+00 2.157512426376342773e+00
2.799000000000000000e+03 4.075307846069335938e+01 2.752480125427246094e+01 2.066488027572631836e+00 2.428277730941772461e+00 1.348429679870605469e+00 2.353152990341186523e+00
2.800000000000000000e+03 4.286206817626953125e+01 2.844806289672851562e+01 2.624053001403808594e+00 4.250255107879638672e+00 2.062292337417602539e+00 3.765719413757324219e+00
2.801000000000000000e+03 4.846321105957031250e+01 2.728871154785156250e+01 5.016515254974365234e-01 1.249015808105468750e+01 3.897542715072631836e+00 8.287459611892700195e-01
2.802000000000000000e+03 4.767893218994140625e+01 2.711765670776367188e+01 2.829885780811309814e-01 1.223738288879394531e+01 3.756111383438110352e+00 1.594022750854492188e+00
2.803000000000000000e+03 4.174569320678710938e+01 2.818744850158691406e+01 2.410546064376831055e+00 2.912251710891723633e+00 1.596839308738708496e+00 2.900595903396606445e+00
2.804000000000000000e+03 3.277406311035156250e+01 2.619409751892089844e+01 6.864742636680603027e-01 5.646178126335144043e-01 3.753276169300079346e-01 1.467027664184570312e-01
2.805000000000000000e+03 3.355354309082031250e+01 2.169276428222656250e+01 7.603406906127929688e-01 1.405193090438842773e+00 6.496601104736328125e-01 7.282921075820922852e-01
2.806000000000000000e+03 3.565692138671875000e+01 2.606894874572753906e+01 1.101048707962036133e+00 1.012819409370422363e+00 6.341604590415954590e-01 6.735584139823913574e-01
2.807000000000000000e+03 4.883940505981445312e+01 2.631506919860839844e+01 1.983192116022109985e-01 1.172765541076660156e+01 3.577792406082153320e+00 6.964703202247619629e-01
2.808000000000000000e+03 4.982229232788085938e+01 2.744413757324218750e+01 9.553343653678894043e-01 1.234834671020507812e+01 3.991104364395141602e+00 -2.794556915760040283e-01
2.809000000000000000e+03 3.295347213745117188e+01 2.410508918762207031e+01 7.920143604278564453e-01 8.920282721519470215e-01 5.052127838134765625e-01 4.212824702262878418e-01
2.810000000000000000e+03 3.829020690917968750e+01 2.507722854614257812e+01 1.437930703163146973e+00 2.095587491989135742e+00 1.060055494308471680e+00 1.576101064682006836e+00
2.811000000000000000e+03 3.583134460449218750e+01 2.533559036254882812e+01 1.151747941970825195e+00 1.214208126068115234e+00 7.097868323326110840e-01 8.266321420669555664e-01
2.812000000000000000e+03 3.501694869995117188e+01 2.388281250000000000e+01 1.023604273796081543e+00 1.345801234245300293e+00 7.108216285705566406e-01 8.095766901969909668e-01
2.813000000000000000e+03 3.889734268188476562e+01 2.478524780273437500e+01 1.442482352256774902e+00 2.465693950653076172e+00 1.172452926635742188e+00 1.785500526428222656e+00
2.814000000000000000e+03 3.975029754638671875e+01 2.612430000305175781e+01 1.748402714729309082e+00 2.460879564285278320e+00 1.262784719467163086e+00 2.048417806625366211e+00
2.815000000000000000e+03 5.799272537231445312e+01 2.980911254882812500e+01 1.691857695579528809e+00 9.164422035217285156e+00 3.256883859634399414e+00 -8.262796998023986816e-01
2.816000000000000000e+03 5.309603118896484375e+01 3.420827484130859375e+01 2.994903087615966797e+00 1.108307075500488281e+01 4.223392009735107422e+00 1.080333352088928223e+00
2.817000000000000000e+03 3.463279724121093750e+01 7.483932018280029297e+00 -1.354132294654846191e-01 2.968842267990112305e+00 8.500287532806396484e-01 8.005018234252929688e-01
2.818000000000000000e+03 3.278544616699218750e+01 2.293511390686035156e+01 7.630155682563781738e-01 1.039592027664184570e+00 5.407822728157043457e-01 5.117375254631042480e-01
2.819000000000000000e+03 3.439462280273437500e+01 1.018995475769042969e+01 -3.534461930394172668e-02 2.812569141387939453e+00 8.331673145294189453e-01 8.770587444305419922e-01
2.820000000000000000e+03 6.399729156494140625e+01 1.083892250061035156e+01 -4.574052989482879639e-01 7.895906925201416016e+00 2.231550455093383789e+00 -1.037915349006652832e+00
2.821000000000000000e+03 6.696649169921875000e+01 8.072318077087402344e+00 -3.552388846874237061e-01 7.831024646759033203e+00 2.242735624313354492e+00 -9.356746077537536621e-01
2.822000000000000000e+03 3.252636718750000000e+01 2.556118011474609375e+01 7.011371850967407227e-01 6.113464832305908203e-01 3.937450945377349854e-01 1.914039403200149536e-01
2.823000000000000000e+03 3.193953132629394531e+01 2.524773788452148438e+01 6.634587645530700684e-01 5.814655423164367676e-01 3.734772801399230957e-01 1.509927809238433838e-01
2.824000000000000000e+03 5.412801361083984375e+01 2.447494125366210938e+01 3.937139213085174561e-01 9.960178375244140625e+00 3.106167793273925781e+00 -9.697911739349365234e-01
2.825000000000000000e+03 5.465253067016601562e+01 3.156155014038085938e+01 2.878759860992431641e+00 1.013697242736816406e+01 3.904719591140747070e+00 -2.161627858877182007e-01
2.826000000000000000e+03 3.492829513549804688e+01 1.870483207702636719e+01 5.588129758834838867e-01 2.267450094223022461e+00 8.478789329528808594e-01 1.062022686004638672e+00
2.827000000000000000e+03 3.425220108032226562e+01 1.288212585449218750e+01 1.104825064539909363e-01 2.618608713150024414e+00 8.187273740768432617e-01 9.411343932151794434e-01
2.828000000000000000e+03 6.731144714355468750e+01 1.242934989929199219e+01 -2.974193394184112549e-01 7.773965835571289062e+00 2.242964029312133789e+00 -1.107467293739318848e+00
2.829000000000000000e+03 6.671323394775390625e+01 1.122338294982910156e+01 -3.344201445579528809e-01 7.808225631713867188e+00 2.242141485214233398e+00 -1.065937876701354980e+00
2.830000000000000000e+03 3.541724014282226562e+01 1.429055213928222656e+01 1.774254739284515381e-01 2.863704204559326172e+00 9.123389124870300293e-01 1.056569933891296387e+00
2.831000000000000000e+03 3.546784973144531250e+01 1.168166446685791016e+01 1.872203196398913860e-03 3.052778482437133789e+00 9.163951873779296875e-01 9.742046594619750977e-01
2.832000000000000000e+03 3.659765243530273438e+01 1.305926513671875000e+01 4.014127328991889954e-02 3.339800596237182617e+00 1.013982534408569336e+00 1.084462285041809082e+00
2.833000000000000000e+03 6.739753723144531250e+01 9.177517294883728027e-01 -3.061250150203704834e-01 7.871994972229003906e+00 2.269761085510253906e+00 -6.487733721733093262e-01
2.834000000000000000e+03 6.746395111083984375e+01 4.353996753692626953e+00 -3.255979418754577637e-01 7.857646465301513672e+00 2.259614467620849609e+00 -7.789385914802551270e-01
2.835000000000000000e+03 4.976568603515625000e+01 2.677030563354492188e+01 6.080585122108459473e-01 1.194303989410400391e+01 3.765329599380493164e+00 -7.308762520551681519e-02
2.836000000000000000e+03 5.060973739624023438e+01 2.586020660400390625e+01 3.833374083042144775e-01 1.125248336791992188e+01 3.490746259689331055e+00 -2.746969759464263916e-01
2.837000000000000000e+03 6.780809783935546875e+01 1.371236324310302734e+01 -2.479393631219863892e-01 7.721926212310791016e+00 2.242196083068847656e+00 -1.152729749679565430e+00
2.838000000000000000e+03 3.413913345336914062e+01 -1.370543766021728516e+01 -1.519278734922409058e-01 3.005502939224243164e+00 8.560725450515747070e-01 2.349688857793807983e-01
2.839000000000000000e+03 3.302464294433593750e+01 -1.014080715179443359e+01 -1.465366184711456299e-01 2.787940979003906250e+00 7.924213409423828125e-01 2.964419722557067871e-01
2.840000000000000000e+03 3.372706604003906250e+01 1.546180486679077148e+00 -1.928409188985824585e-01 2.854893684387207031e+00 7.986158132553100586e-01 5.957998037338256836e-01
2.841000000000000000e+03 3.510757827758789062e+01 1.832421779632568359e+00 -2.358531057834625244e-01 3.174616098403930664e+00 8.816288709640502930e-01 6.197207570075988770e-01
2.842000000000000000e+03 6.627220916748046875e+01 1.625441551208496094e+01 -2.146718055009841919e-01 7.795484066009521484e+00 2.274243593215942383e+00 -1.261174559593200684e+00
2.843000000000000000e+03 6.728193664550781250e+01 1.753577804565429688e+01 -1.284689754247665405e-01 7.672934532165527344e+00 2.263339757919311523e+00 -1.282242536544799805e+00
2.844000000000000000e+03 6.663427734375000000e+01 -2.451882123947143555e+00 -2.873516082763671875e-01 7.842238426208496094e+00 2.266465902328491211e+00 -5.305995941162109375e-01
2.845000000000000000e+03 3.184932899475097656e+01 -7.727277278900146484e+00 -1.421217173337936401e-01 2.555679082870483398e+00 7.240672111511230469e-01 3.453585207462310791e-01
2.846000000000000000e+03 3.196082115173339844e+01 -6.260801315307617188e+00 -1.448039710521697998e-01 2.570043087005615234e+00 7.275717258453369141e-01 3.769026100635528564e-01
2.847000000000000000e+03 6.465859985351562500e+01 1.902296066284179688e+01 -1.061884313821792603e-01 7.933676242828369141e+00 2.348246335983276367e+00 -1.345227599143981934e+00
2.848000000000000000e+03 3.665707778930664062e+01 1.560050773620605469e+01 2.375562489032745361e-01 3.187076330184936523e+00 1.027389764785766602e+00 1.200060725212097168e+00
2.849000000000000000e+03 6.771871185302734375e+01 -1.412460517883300781e+01 -1.428913623094558716e-01 7.975817680358886719e+00 2.349877834320068359e+00 -2.395927309989929199e-01
2.850000000000000000e+03 6.713177490234375000e+01 -9.112975120544433594e+00 -2.006550729274749756e-01 7.899923324584960938e+00 2.309780597686767578e+00 -3.474142253398895264e-01
2.851000000000000000e+03 6.539031219482421875e+01 -1.061703872680664062e+01 -2.266003042459487915e-01 7.686436653137207031e+00 2.237950801849365234e+00 -3.125604987144470215e-01
2.852000000000000000e+03 6.787014770507812500e+01 3.429255294799804688e+01 5.885716676712036133e-01 7.098138809204101562e+00 2.306013107299804688e+00 -5.514191389083862305e-01
2.853000000000000000e+03 6.456734466552734375e+01 2.584982109069824219e+01 5.178926587104797363e-01 7.874935626983642578e+00 2.517848491668701172e+00 -1.280841231346130371e+00
2.854000000000000000e+03 6.323043441772460938e+01 2.393940162658691406e+01 3.707512021064758301e-01 8.114927291870117188e+00 2.545703649520874023e+00 -1.367203354835510254e+00
2.855000000000000000e+03 6.327843093872070312e+01 5.497811794281005859e+00 -5.057193040847778320e-01 7.755388259887695312e+00 2.174900770187377930e+00 -7.784720659255981445e-01
2.856000000000000000e+03 6.592299652099609375e+01 4.730417251586914062e+00 -3.922728598117828369e-01 7.816586494445800781e+00 2.227293968200683594e+00 -7.982644438743591309e-01
2.857000000000000000e+03 6.836016082763671875e+01 3.906582593917846680e+00 -2.941672801971435547e-01 7.887836456298828125e+00 2.278100728988647461e+00 -7.505281567573547363e-01
2.858000000000000000e+03 4.684700393676757812e+01 2.705547142028808594e+01 3.090175986289978027e-01 1.159899997711181641e+01 3.572405338287353516e+00 2.419017791748046875e+00
2.859000000000000000e+03 4.264761352539062500e+01 2.783358192443847656e+01 2.339454650878906250e+00 4.280341625213623047e+00 1.985938906669616699e+00 3.562329292297363281e+00
2.860000000000000000e+03 4.128481292724609375e+01 2.779232978820800781e+01 2.212316751480102539e+00 2.703267097473144531e+00 1.474675178527832031e+00 2.616618871688842773e+00
2.861000000000000000e+03 4.463520812988281250e+01 2.761162757873535156e+01 1.485788941383361816e+00 8.270201683044433594e+00 2.926797151565551758e+00 4.157131671905517578e+00
2.862000000000000000e+03 4.083773803710937500e+01 2.687014007568359375e+01 1.979872226715087891e+00 2.867447137832641602e+00 1.454195857048034668e+00 2.488090276718139648e+00
2.863000000000000000e+03 4.044874191284179688e+01 2.714892959594726562e+01 1.997638463973999023e+00 2.410153388977050781e+00 1.322337627410888672e+00 2.244229078292846680e+00
2.864000000000000000e+03 4.184552383422851562e+01 2.855227470397949219e+01 2.602990865707397461e+00 2.694381713867187500e+00 1.589211702346801758e+00 2.935932397842407227e+00
2.865000000000000000e+03 4.244812393188476562e+01 2.869517517089843750e+01 2.727203369140625000e+00 3.355659008026123047e+00 1.824858784675598145e+00 3.398065805435180664e+00
2.866000000000000000e+03 4.591791534423828125e+01 2.694995880126953125e+01 5.832201242446899414e-01 1.032512474060058594e+01 3.272503614425659180e+00 3.211269855499267578e+00
2.867000000000000000e+03 4.171790313720703125e+01 2.772307968139648438e+01 2.278593063354492188e+00 3.186027050018310547e+00 1.639386057853698730e+00 2.925712823867797852e+00
2.868000000000000000e+03 4.579659271240234375e+01 2.759215164184570312e+01 8.609539270401000977e-01 1.053933048248291016e+01 3.420085191726684570e+00 3.647292137145996094e+00
2.869000000000000000e+03 4.820211410522460938e+01 2.671422386169433594e+01 2.161679267883300781e-01 1.200560474395751953e+01 3.666531801223754883e+00 1.116451263427734375e+00
2.870000000000000000e+03 3.392366027832031250e+01 2.500064086914062500e+01 8.799751400947570801e-01 8.977780938148498535e-01 5.333259701728820801e-01 4.585269987583160400e-01
2.871000000000000000e+03 3.793193435668945312e+01 2.440620422363281250e+01 1.315661668777465820e+00 2.180644750595092773e+00 1.048891901969909668e+00 1.516729831695556641e+00
2.872000000000000000e+03 3.772890472412109375e+01 2.519893455505371094e+01 1.393496513366699219e+00 1.802641630172729492e+00 9.588414430618286133e-01 1.365926980972290039e+00
2.873000000000000000e+03 3.473104476928710938e+01 1.970147132873535156e+01 6.671276688575744629e-01 2.044142007827758789e+00 8.133809566497802734e-01 1.013030648231506348e+00
2.874000000000000000e+03 3.553090667724609375e+01 2.439535522460937500e+01 1.087280988693237305e+00 1.372255921363830566e+00 7.378610968589782715e-01 8.697511553764343262e-01
2.875000000000000000e+03 3.990048599243164062e+01 2.514157867431640625e+01 1.532621741294860840e+00 2.973458051681518555e+00 1.351823925971984863e+00 2.142956495285034180e+00
2.876000000000000000e+03 3.542753601074218750e+01 1.299541091918945312e+01 8.613586425781250000e-02 2.971357345581054688e+00 9.172479510307312012e-01 1.021519064903259277e+00
2.877000000000000000e+03 3.374745559692382812e+01 2.257994461059570312e+01 8.416832089424133301e-01 1.281210899353027344e+00 6.368682384490966797e-01 6.894615292549133301e-01
2.878000000000000000e+03 5.520558547973632812e+01 3.359244537353515625e+01 2.543958187103271484e+00 1.025611209869384766e+01 3.840020895004272461e+00 4.101549983024597168e-01
2.879000000000000000e+03 3.362822723388671875e+01 2.067435836791992188e+01 6.956020593643188477e-01 1.553130626678466797e+00 6.746197938919067383e-01 7.927683591842651367e-01
2.880000000000000000e+03 6.706331634521484375e+01 2.330469846725463867e+00 -3.283930420875549316e-01 7.850864887237548828e+00 2.256741523742675781e+00 -7.025407552719116211e-01
2.881000000000000000e+03 5.388219451904296875e+01 2.605380821228027344e+01 8.827356100082397461e-01 1.020866680145263672e+01 3.327420711517333984e+00 -1.045373797416687012e+00
2.882000000000000000e+03 5.672267150878906250e+01 2.827870178222656250e+01 1.595903038978576660e+00 9.509794235229492188e+00 3.331709384918212891e+00 -1.083978176116943359e+00
2.883000000000000000e+03 3.490044784545898438e+01 2.590543365478515625e+01 9.829226136207580566e-01 9.041868448257446289e-01 5.661328434944152832e-01 5.188868045806884766e-01
2.884000000000000000e+03 6.556909179687500000e+01 1.179545402526855469e+01 -3.782179951667785645e-01 7.852774143218994141e+00 2.242366790771484375e+00 -1.093510508537292480e+00
2.885000000000000000e+03 3.451756286621093750e+01 2.458204269409179688e+01 9.680560827255249023e-01 1.092635512351989746e+00 6.182074546813964844e-01 6.285603642463684082e-01
2.886000000000000000e+03 6.650634002685546875e+01 1.502175140380859375e+01 -2.602937221527099609e-01 7.802019596099853516e+00 2.262517929077148438e+00 -1.219752192497253418e+00
2.887000000000000000e+03 5.209617996215820312e+01 3.265905761718750000e+01 4.157944202423095703e+00 1.118538665771484375e+01 4.602999210357666016e+00 5.479884743690490723e-01
2.888000000000000000e+03 5.642586135864257812e+01 3.089872932434082031e+01 2.181665182113647461e+00 9.610365867614746094e+00 3.537609338760375977e+00 -5.236366987228393555e-01
2.889000000000000000e+03 7.049272918701171875e+01 -1.429078865051269531e+01 -9.509874135255813599e-02 8.350275993347167969e+00 2.476553201675415039e+00 -2.127645611763000488e-01
2.890000000000000000e+03 3.555342864990234375e+01 1.037654304504394531e+01 -6.615740805864334106e-02 3.132025003433227539e+00 9.197602272033691406e-01 9.312966465950012207e-01
2.891000000000000000e+03 3.567961502075195312e+01 9.083103179931640625e+00 -1.213012263178825378e-01 3.211958885192871094e+00 9.271972775459289551e-01 8.834332227706909180e-01
2.892000000000000000e+03 3.538048934936523438e+01 1.688494491577148438e+01 3.970288634300231934e-01 2.620541810989379883e+00 9.052711725234985352e-01 1.107919454574584961e+00
2.893000000000000000e+03 3.473770523071289062e+01 2.082607269287109375e+01 7.706431150436401367e-01 1.871982574462890625e+00 7.927876710891723633e-01 9.857991337776184082e-01
2.894000000000000000e+03 6.526622772216796875e+01 -2.808516740798950195e+00 -3.304796814918518066e-01 7.722040176391601562e+00 2.217468023300170898e+00 -5.150687694549560547e-01
2.895000000000000000e+03 3.520270156860351562e+01 3.203018009662628174e-01 -2.424409240484237671e-01 3.202743530273437500e+00 8.880907893180847168e-01 5.680621266365051270e-01
2.896000000000000000e+03 6.690537261962890625e+01 -1.501404190063476562e+01 -1.398665010929107666e-01 7.876524448394775391e+00 2.320997238159179688e+00 -2.271618396043777466e-01
2.897000000000000000e+03 3.378189086914062500e+01 -1.477893590927124023e+00 -2.027760297060012817e-01 2.895813226699829102e+00 8.079111576080322266e-01 5.093647837638854980e-01
2.898000000000000000e+03 3.647951889038085938e+01 2.159272909164428711e+00 -2.827936708927154541e-01 3.495553493499755859e+00 9.638279676437377930e-01 6.320022344589233398e-01
2.899000000000000000e+03 3.177252197265625000e+01 -1.046151638031005859e+01 -1.253927499055862427e-01 2.582878351211547852e+00 7.372456789016723633e-01 2.862758636474609375e-01
2.900000000000000000e+03 6.477702331542968750e+01 1.749934959411621094e+01 -1.917560249567031860e-01 7.931237220764160156e+00 2.321844339370727539e+00 -1.314173579216003418e+00
2.901000000000000000e+03 6.531275177001953125e+01 8.535773277282714844e+00 -4.281330704689025879e-01 7.841585636138916016e+00 2.224035739898681641e+00 -9.483554363250732422e-01
2.902000000000000000e+03 6.545874786376953125e+01 3.094419479370117188e+00 -3.945712745189666748e-01 7.785729885101318359e+00 2.217347621917724609e+00 -7.246999740600585938e-01
2.903000000000000000e+03 6.450026702880859375e+01 1.342141532897949219e+01 -3.866688907146453857e-01 7.918485641479492188e+00 2.259545087814331055e+00 -1.152882099151611328e+00
2.904000000000000000e+03 6.550900268554687500e+01 -1.240173244476318359e+01 -2.010673433542251587e-01 7.700055599212646484e+00 2.249696493148803711e+00 -2.767336368560791016e-01
2.905000000000000000e+03 6.816310119628906250e+01 -1.327295780181884766e+01 -1.398092657327651978e-01 8.032774925231933594e+00 2.367889642715454102e+00 -2.556636631488800049e-01
2.906000000000000000e+03 6.617812347412109375e+01 -7.005210399627685547e+00 -2.484414875507354736e-01 7.795121669769287109e+00 2.264003992080688477e+00 -3.964035511016845703e-01
2.907000000000000000e+03 6.545721435546875000e+01 5.724411487579345703e+00 -4.102557003498077393e-01 7.812519073486328125e+00 2.220679044723510742e+00 -8.328045010566711426e-01
2.908000000000000000e+03 3.515708160400390625e+01 -5.951437950134277344e+00 -2.168820500373840332e-01 3.185959815979003906e+00 8.907233476638793945e-01 3.947911560535430908e-01
2.909000000000000000e+03 3.367825698852539062e+01 -4.549762248992919922e+00 -1.905747056007385254e-01 2.891927719116210938e+00 8.104059100151062012e-01 4.297815263271331787e-01
2.910000000000000000e+03 6.045529174804687500e+01 2.141498184204101562e+01 5.496724694967269897e-02 8.549364089965820312e+00 2.581299543380737305e+00 -1.347527384757995605e+00
2.911000000000000000e+03 6.334581375122070312e+01 2.233331680297851562e+01 1.619994342327117920e-01 8.119237899780273438e+00 2.484371185302734375e+00 -1.391581654548645020e+00
2.912000000000000000e+03 6.780799865722656250e+01 1.080351161956787109e+01 -2.997845113277435303e-01 7.778838157653808594e+00 2.243716001510620117e+00 -1.037373423576354980e+00
2.913000000000000000e+03 6.207249069213867188e+01 2.239986801147460938e+01 1.720412820577621460e-01 8.291645050048828125e+00 2.539105892181396484e+00 -1.383974909782409668e+00
2.914000000000000000e+03 3.463786315917968750e+01 -1.509752941131591797e+01 -1.435366123914718628e-01 3.091566801071166992e+00 8.844090700149536133e-01 2.105618119239807129e-01
2.915000000000000000e+03 3.559471130371093750e+01 -9.867562294006347656e+00 -2.029491811990737915e-01 3.266272068023681641e+00 9.189968705177307129e-01 3.033199608325958252e-01
2.916000000000000000e+03 6.430269622802734375e+01 1.213686943054199219e+01 -4.203715622425079346e-01 7.905565738677978516e+00 2.245558261871337891e+00 -1.097004532814025879e+00
2.917000000000000000e+03 3.490232849121093750e+01 4.728693008422851562e+00 -2.033608406782150269e-01 3.093503236770629883e+00 8.670427203178405762e-01 7.133825421333312988e-01
2.918000000000000000e+03 3.586001586914062500e+01 7.775557041168212891e+00 -1.671727001667022705e-01 3.291517496109008789e+00 9.373034238815307617e-01 8.387768864631652832e-01
2.919000000000000000e+03 3.500973510742187500e+01 3.302777528762817383e+00 -2.216638773679733276e-01 3.135444164276123047e+00 8.741341233253479004e-01 6.664046645164489746e-01
2.920000000000000000e+03 6.515855407714843750e+01 -1.144743323326110840e+00 -3.664003014564514160e-01 7.728588581085205078e+00 2.208656311035156250e+00 -5.658208727836608887e-01
2.921000000000000000e+03 6.621421051025390625e+01 5.379544496536254883e-01 -3.432708084583282471e-01 7.810966014862060547e+00 2.240308523178100586e+00 -6.360675692558288574e-01
2.922000000000000000e+03 4.059939956665039062e+01 2.562610244750976562e+01 1.643138885498046875e+00 3.213273286819458008e+00 1.456923604011535645e+00 2.385482072830200195e+00
2.923000000000000000e+03 4.328541946411132812e+01 2.826804924011230469e+01 2.510711669921875000e+00 5.074116706848144531e+00 2.275448560714721680e+00 4.056097507476806641e+00
2.924000000000000000e+03 4.469360733032226562e+01 2.822241020202636719e+01 1.765868782997131348e+00 8.596800804138183594e+00 3.108800888061523438e+00 4.591054916381835938e+00
2.925000000000000000e+03 4.155387878417968750e+01 2.716639328002929688e+01 2.088935852050781250e+00 3.365676164627075195e+00 1.636383533477783203e+00 2.869465112686157227e+00
2.926000000000000000e+03 3.933831024169921875e+01 2.550655937194824219e+01 1.578943014144897461e+00 2.442221879959106445e+00 1.206349492073059082e+00 1.891529321670532227e+00
2.927000000000000000e+03 4.400202560424804688e+01 2.704041290283203125e+01 1.549475908279418945e+00 7.009838581085205078e+00 2.567794322967529297e+00 3.887088060379028320e+00
2.928000000000000000e+03 4.219704818725585938e+01 2.782424545288085938e+01 2.355933904647827148e+00 3.674868583679199219e+00 1.809240698814392090e+00 3.281218051910400391e+00
2.929000000000000000e+03 4.233972167968750000e+01 2.738915252685546875e+01 2.161705255508422852e+00 4.175676822662353516e+00 1.901214718818664551e+00 3.363739967346191406e+00
2.930000000000000000e+03 4.091353988647460938e+01 2.611696052551269531e+01 1.779570817947387695e+00 3.305598974227905273e+00 1.525550961494445801e+00 2.533716201782226562e+00
2.931000000000000000e+03 4.907347106933593750e+01 2.699454307556152344e+01 4.883982241153717041e-01 1.225167179107666016e+01 3.822021007537841797e+00 3.556801974773406982e-01
2.932000000000000000e+03 4.896814346313476562e+01 2.376330947875976562e+01 -3.220578134059906006e-01 1.019190692901611328e+01 2.960954666137695312e+00 7.992236614227294922e-01
2.933000000000000000e+03 3.843733596801757812e+01 2.403442573547363281e+01 1.305532097816467285e+00 2.489926099777221680e+00 1.138637423515319824e+00 1.690869331359863281e+00
2.934000000000000000e+03 3.953114318847656250e+01 2.435650634765625000e+01 1.383750200271606445e+00 2.991714715957641602e+00 1.312639474868774414e+00 2.025089502334594727e+00
2.935000000000000000e+03 4.527362823486328125e+01 2.739480209350585938e+01 1.028048038482666016e+00 9.522975921630859375e+00 3.165307283401489258e+00 3.846679687500000000e+00
2.936000000000000000e+03 4.639372253417968750e+01 2.711088180541992188e+01 4.354757964611053467e-01 1.115623474121093750e+01 3.477513313293457031e+00 2.868453502655029297e+00
2.937000000000000000e+03 4.785370635986328125e+01 2.619438934326171875e+01 7.673978805541992188e-02 1.144231128692626953e+01 3.455715179443359375e+00 1.432816863059997559e+00
2.938000000000000000e+03 3.607681655883789062e+01 2.464833259582519531e+01 1.164602518081665039e+00 1.473498344421386719e+00 7.914302349090576172e-01 9.821612834930419922e-01
2.939000000000000000e+03 3.740716934204101562e+01 2.386184883117675781e+01 1.214661836624145508e+00 2.121734380722045898e+00 1.000918865203857422e+00 1.410564422607421875e+00
2.940000000000000000e+03 3.749755859375000000e+01 2.472323989868164062e+01 1.331350207328796387e+00 1.859228610992431641e+00 9.571736454963684082e-01 1.347270488739013672e+00
2.941000000000000000e+03 3.785628128051757812e+01 2.336347579956054688e+01 1.186548113822937012e+00 2.414820671081542969e+00 1.080410599708557129e+00 1.547025442123413086e+00
2.942000000000000000e+03 4.732394409179687500e+01 2.668836212158203125e+01 1.854487955570220947e-01 1.167394161224365234e+01 3.557816982269287109e+00 1.922615408897399902e+00
2.943000000000000000e+03 3.567706680297851562e+01 1.803773307800292969e+01 4.919126033782958984e-01 2.569491624832153320e+00 9.184212684631347656e-01 1.159241080284118652e+00
2.944000000000000000e+03 3.605659866333007812e+01 2.399592208862304688e+01 1.140102863311767578e+00 1.615296363830566406e+00 8.266198039054870605e-01 1.045930504798889160e+00
2.945000000000000000e+03 6.052575302124023438e+01 2.678389930725097656e+01 8.946468234062194824e-01 8.627286911010742188e+00 2.856580018997192383e+00 -1.245150566101074219e+00
2.946000000000000000e+03 5.567561721801757812e+01 2.682669448852539062e+01 1.241975307464599609e+00 9.755729675292968750e+00 3.299311399459838867e+00 -1.172489523887634277e+00
2.947000000000000000e+03 6.532738494873046875e+01 1.486230468750000000e+01 -3.118196725845336914e-01 7.886912345886230469e+00 2.272527933120727539e+00 -1.216945886611938477e+00
2.948000000000000000e+03 3.635342025756835938e+01 3.634403467178344727e+00 -2.658875584602355957e-01 3.464434385299682617e+00 9.595640301704406738e-01 6.899228692054748535e-01
2.949000000000000000e+03 3.435773849487304688e+01 2.328819084167480469e+01 9.102523326873779297e-01 1.270279407501220703e+00 6.541595458984375000e-01 7.215975522994995117e-01
2.950000000000000000e+03 3.443090438842773438e+01 2.187282562255859375e+01 8.566196560859680176e-01 1.613258838653564453e+00 7.409635782241821289e-01 8.912231326103210449e-01
2.951000000000000000e+03 3.661721420288085938e+01 1.778186607360839844e+01 4.468107819557189941e-01 2.952139616012573242e+00 1.019685149192810059e+00 1.269219756126403809e+00
2.952000000000000000e+03 3.669697952270507812e+01 1.433569812774658203e+01 1.337273865938186646e-01 3.289117813110351562e+00 1.026853561401367188e+00 1.153418660163879395e+00
2.953000000000000000e+03 6.504940032958984375e+01 1.612017440795898438e+01 -2.654385566711425781e-01 7.914450645446777344e+00 2.294703722000122070e+00 -1.269909858703613281e+00
2.954000000000000000e+03 3.652990722656250000e+01 1.677171134948730469e+01 3.568506836891174316e-01 3.039574623107910156e+00 1.018927574157714844e+00 1.244070768356323242e+00
2.955000000000000000e+03 5.167947006225585938e+01 2.615110778808593750e+01 7.433546185493469238e-01 1.099984931945800781e+01 3.522961139678955078e+00 -7.204255461692810059e-01
2.956000000000000000e+03 5.343042755126953125e+01 2.507884216308593750e+01 5.171887278556823730e-01 1.025970649719238281e+01 3.233068466186523438e+00 -9.470486044883728027e-01
2.957000000000000000e+03 3.528277206420898438e+01 -1.222092509269714355e+00 -2.450827807188034058e-01 3.218985319137573242e+00 8.921707868576049805e-01 5.228421688079833984e-01
2.958000000000000000e+03 3.386165237426757812e+01 2.412948226928710938e+01 8.849102854728698730e-01 1.046065330505371094e+00 5.792927145957946777e-01 5.605351924896240234e-01
2.959000000000000000e+03 3.513425827026367188e+01 2.506916427612304688e+01 1.045408606529235840e+00 1.132937550544738770e+00 6.535038352012634277e-01 6.925460696220397949e-01
2.960000000000000000e+03 6.335997772216796875e+01 1.728193664550781250e+01 -2.560027539730072021e-01 8.082659721374511719e+00 2.347997188568115234e+00 -1.296484708786010742e+00
2.961000000000000000e+03 6.313854217529296875e+01 1.898371315002441406e+01 -1.452378183603286743e-01 8.123122215270996094e+00 2.393365383148193359e+00 -1.340764284133911133e+00
2.962000000000000000e+03 3.771384429931640625e+01 1.190010452270507812e+01 -8.549498766660690308e-02 3.735287189483642578e+00 1.094937682151794434e+00 1.073183655738830566e+00
2.963000000000000000e+03 5.054703521728515625e+01 2.678140640258789062e+01 7.816189527511596680e-01 1.172144317626953125e+01 3.750918626785278320e+00 -4.508031308650970459e-01
2.964000000000000000e+03 6.483654022216796875e+01 6.490990638732910156e+00 -4.514908194541931152e-01 7.809235572814941406e+00 2.207323312759399414e+00 -8.588208556175231934e-01
2.965000000000000000e+03 6.468026733398437500e+01 -5.702277660369873047e+00 -3.091722726821899414e-01 7.654253005981445312e+00 2.203524112701416016e+00 -4.254752695560455322e-01
2.966000000000000000e+03 3.527765655517578125e+01 -4.357109546661376953e+00 -2.347722947597503662e-01 3.220334529876708984e+00 8.956686854362487793e-01 4.307999610900878906e-01
2.967000000000000000e+03 6.512630462646484375e+01 1.068260955810546875e+01 -4.096342027187347412e-01 7.860864639282226562e+00 2.235369205474853516e+00 -1.047488451004028320e+00
2.968000000000000000e+03 6.387870407104492188e+01 1.586302661895751953e+01 -3.261950910091400146e-01 8.004853248596191406e+00 2.303597450256347656e+00 -1.243088006973266602e+00
2.969000000000000000e+03 6.483390045166015625e+01 4.205922126770019531e+00 -4.331154525279998779e-01 7.776874542236328125e+00 2.203127622604370117e+00 -7.615014910697937012e-01
2.970000000000000000e+03 6.452979278564453125e+01 2.663559198379516602e+00 -4.241322278976440430e-01 7.747648715972900391e+00 2.197054862976074219e+00 -7.027587890625000000e-01
2.971000000000000000e+03 3.623780059814453125e+01 5.069223880767822266e+00 -2.455366253852844238e-01 3.416949987411499023e+00 9.514240026473999023e-01 7.402757406234741211e-01
2.972000000000000000e+03 6.557907867431640625e+01 -8.698347091674804688e+00 -2.445113509893417358e-01 7.719314575195312500e+00 2.242440938949584961e+00 -3.570449948310852051e-01
2.973000000000000000e+03 6.482170867919921875e+01 1.568905472755432129e+00 -4.122887849807739258e-01 7.747400760650634766e+00 2.200533628463745117e+00 -6.652134656906127930e-01
2.974000000000000000e+03 6.554782867431640625e+01 1.366805553436279297e+01 -3.401498794555664062e-01 7.867471694946289062e+00 2.258196592330932617e+00 -1.168354749679565430e+00
2.975000000000000000e+03 3.500285339355468750e+01 -7.524973392486572266e+00 -2.069682329893112183e-01 3.155826330184936523e+00 8.846574425697326660e-01 3.597586154937744141e-01
2.976000000000000000e+03 3.793129348754882812e+01 1.415141868591308594e+01 6.274617463350296021e-02 3.713948249816894531e+00 1.133008360862731934e+00 1.214980363845825195e+00
2.977000000000000000e+03 3.684179306030273438e+01 1.859983062744140625e+01 5.304698944091796875e-01 2.903176546096801758e+00 1.030093908309936523e+00 1.298388719558715820e+00
2.978000000000000000e+03 6.193062591552734375e+01 2.366527175903320312e+01 3.620032966136932373e-01 8.337697982788085938e+00 2.609910249710083008e+00 -1.391394853591918945e+00
2.979000000000000000e+03 6.379294204711914062e+01 -1.045711231231689453e+01 -2.614645063877105713e-01 7.525746822357177734e+00 2.179284572601318359e+00 -2.979998588562011719e-01
2.980000000000000000e+03 6.324408340454101562e+01 -1.210666370391845703e+01 -2.457946985960006714e-01 7.442123413085937500e+00 2.158898591995239258e+00 -2.667447626590728760e-01
2.981000000000000000e+03 6.339018630981445312e+01 -7.018807411193847656e+00 -3.204874992370605469e-01 7.511157035827636719e+00 2.157200813293457031e+00 -3.762422502040863037e-01
2.982000000000000000e+03 6.401995849609375000e+01 -8.561085700988769531e+00 -2.764150202274322510e-01 7.572712421417236328e+00 2.188889265060424805e+00 -3.484307527542114258e-01
2.983000000000000000e+03 3.559014129638671875e+01 -1.288795566558837891e+01 -1.751967221498489380e-01 3.249838829040527344e+00 9.223926663398742676e-01 2.525447607040405273e-01
2.984000000000000000e+03 3.312169647216796875e+01 -8.999805450439453125e+00 -1.615346521139144897e-01 2.819416284561157227e+00 7.973645329475402832e-01 3.259778618812561035e-01
2.985000000000000000e+03 3.693187713623046875e+01 -1.565265655517578125e+01 -1.800684481859207153e-01 3.497311592102050781e+00 9.951729178428649902e-01 1.950640976428985596e-01
2.986000000000000000e+03 6.705448913574218750e+01 2.941229248046875000e+01 5.450105667114257812e-01 7.304661750793457031e+00 2.354901552200317383e+00 -9.689894914627075195e-01
2.987000000000000000e+03 4.377558898925781250e+01 2.452787017822265625e+01 7.609465122222900391e-01 6.715662002563476562e+00 2.242982625961303711e+00 2.952909708023071289e+00
2.988000000000000000e+03 4.310014724731445312e+01 2.768973159790039062e+01 2.198781967163085938e+00 5.093420505523681641e+00 2.187660694122314453e+00 3.810883998870849609e+00
2.989000000000000000e+03 4.047559738159179688e+01 2.505823707580566406e+01 1.509407281875610352e+00 3.381649255752563477e+00 1.467316985130310059e+00 2.338606834411621094e+00
2.990000000000000000e+03 4.018024826049804688e+01 2.583138656616210938e+01 1.710042834281921387e+00 2.846195220947265625e+00 1.366871356964111328e+00 2.250887632369995117e+00
2.991000000000000000e+03 3.514669799804687500e+01 2.252364540100097656e+01 9.392467141151428223e-01 1.686100840568542480e+00 7.876042723655700684e-01 9.741666316986083984e-01
2.992000000000000000e+03 4.125188446044921875e+01 2.662098884582519531e+01 1.923679113388061523e+00 3.353925228118896484e+00 1.583281278610229492e+00 2.708470582962036133e+00
2.993000000000000000e+03 4.656977081298828125e+01 2.664015579223632812e+01 2.902489006519317627e-01 1.089506435394287109e+01 3.355593919754028320e+00 2.567060232162475586e+00
2.994000000000000000e+03 4.248168182373046875e+01 2.692852401733398438e+01 1.928979158401489258e+00 4.600415706634521484e+00 1.958818435668945312e+00 3.346668958663940430e+00
2.995000000000000000e+03 4.695072555541992188e+01 2.620140457153320312e+01 1.455682367086410522e-01 1.085311698913574219e+01 3.299605607986450195e+00 2.200448989868164062e+00
2.996000000000000000e+03 3.733015441894531250e+01 2.263188362121582031e+01 1.057743310928344727e+00 2.393832445144653320e+00 1.035472750663757324e+00 1.438753843307495117e+00
2.997000000000000000e+03 3.551927566528320312e+01 1.944829559326171875e+01 6.640658974647521973e-01 2.365072965621948242e+00 9.087416529655456543e-01 1.165966510772705078e+00
2.998000000000000000e+03 3.862136459350585938e+01 1.644000625610351562e+01 2.161106765270233154e-01 3.837352275848388672e+00 1.216038823127746582e+00 1.391484737396240234e+00
2.999000000000000000e+03 6.289039230346679688e+01 9.486741065979003906e+00 -5.231361985206604004e-01 7.872093677520751953e+00 2.204687356948852539e+00 -9.389757513999938965e-01
3.000000000000000000e+03 3.780978393554687500e+01 2.512479782104492188e+00 -3.258577883243560791e-01 3.801623821258544922e+00 1.042729735374450684e+00 6.434028148651123047e-01
3.001000000000000000e+03 3.766750335693359375e+01 3.956136226654052734e+00 -3.126690387725830078e-01 3.778758764266967773e+00 1.039826869964599609e+00 6.930269002914428711e-01
3.002000000000000000e+03 3.611082077026367188e+01 2.006906890869140625e+01 7.165147662162780762e-01 2.433473348617553711e+00 9.449964165687561035e-01 1.218503594398498535e+00
3.003000000000000000e+03 3.803003311157226562e+01 2.230153274536132812e+01 1.031101822853088379e+00 2.789740085601806641e+00 1.146252512931823730e+00 1.627461075782775879e+00
3.004000000000000000e+03 4.918854522705078125e+01 2.512224197387695312e+01 -5.548632144927978516e-02 1.099376392364501953e+01 3.281483173370361328e+00 5.609908699989318848e-01
3.005000000000000000e+03 4.979510498046875000e+01 2.433691787719726562e+01 -1.660953164100646973e-01 1.063798046112060547e+01 3.141565561294555664e+00 3.256486058235168457e-01
3.006000000000000000e+03 3.607181549072265625e+01 6.445304870605468750e+00 -2.142752557992935181e-01 3.366612672805786133e+00 9.457012414932250977e-01 7.900109887123107910e-01
3.007000000000000000e+03 3.672343063354492188e+01 1.056267738342285156e+01 -1.040956228971481323e-01 3.457318305969238281e+00 1.005966782569885254e+00 9.712423086166381836e-01
3.008000000000000000e+03 3.617122268676757812e+01 1.891305351257324219e+01 6.056351661682128906e-01 2.659382820129394531e+00 9.795054197311401367e-01 1.254644393920898438e+00
3.009000000000000000e+03 4.851839065551757812e+01 2.452548599243164062e+01 -2.253298312425613403e-01 1.049895191192626953e+01 3.082086801528930664e+00 1.030237674713134766e+00
3.010000000000000000e+03 4.846702957153320312e+01 2.568885612487792969e+01 -1.969751436263322830e-03 1.130285930633544922e+01 3.390266895294189453e+00 1.006538510322570801e+00
3.011000000000000000e+03 6.399306869506835938e+01 9.565690040588378906e+00 -4.753708839416503906e-01 7.869446277618408203e+00 2.218222618103027344e+00 -9.748185873031616211e-01
3.012000000000000000e+03 6.599537658691406250e+01 1.018662548065185547e+01 -3.781000077724456787e-01 7.834596633911132812e+00 2.236948966979980469e+00 -1.027018547058105469e+00
3.013000000000000000e+03 3.932493591308593750e+01 1.253125000000000000e+01 -1.466698199510574341e-01 4.258357524871826172e+00 1.233506321907043457e+00 1.125083088874816895e+00
3.014000000000000000e+03 3.769694900512695312e+01 1.302749538421630859e+01 -1.354941166937351227e-02 3.673125982284545898e+00 1.097872972488403320e+00 1.137294888496398926e+00
3.015000000000000000e+03 5.580516815185546875e+01 2.469637870788574219e+01 5.774401426315307617e-01 9.615468025207519531e+00 3.057872533798217773e+00 -1.179043054580688477e+00
3.016000000000000000e+03 6.278445053100585938e+01 4.035135746002197266e+00 -5.104349851608276367e-01 7.701739788055419922e+00 2.157391309738159180e+00 -7.128136754035949707e-01
3.017000000000000000e+03 3.796120834350585938e+01 1.074504852294921875e+01 -1.560006290674209595e-01 3.836584568023681641e+00 1.104175209999084473e+00 1.010732412338256836e+00
3.018000000000000000e+03 6.427748870849609375e+01 1.464240837097167969e+01 -3.551943004131317139e-01 7.953268051147460938e+00 2.279422044754028320e+00 -1.202550530433654785e+00
3.019000000000000000e+03 5.177099227905273438e+01 2.511464118957519531e+01 3.239677548408508301e-01 1.068794727325439453e+01 3.303574323654174805e+00 -5.787655711174011230e-01
3.020000000000000000e+03 3.762217712402343750e+01 5.427562713623046875e+00 -2.951896488666534424e-01 3.775164604187011719e+00 1.043992400169372559e+00 7.557399272918701172e-01
3.021000000000000000e+03 6.320418930053710938e+01 -4.390095710754394531e+00 -3.698147237300872803e-01 7.542804241180419922e+00 2.151896953582763672e+00 -4.438034296035766602e-01
3.022000000000000000e+03 6.407415771484375000e+01 8.260340690612792969e+00 -4.787476062774658203e-01 7.838328838348388672e+00 2.207874298095703125e+00 -9.151448011398315430e-01
3.023000000000000000e+03 6.384175491333007812e+01 6.893010139465332031e+00 -4.842538535594940186e-01 7.809871196746826172e+00 2.197685241699218750e+00 -8.568375110626220703e-01
3.024000000000000000e+03 3.680636978149414062e+01 -9.201698303222656250e-01 -2.913189232349395752e-01 3.559647321701049805e+00 9.804985523223876953e-01 5.259323716163635254e-01
3.025000000000000000e+03 6.503039550781250000e+01 3.008642196655273438e-01 -3.843432664871215820e-01 7.739223957061767578e+00 2.206464290618896484e+00 -6.157436966896057129e-01
3.026000000000000000e+03 6.160207748413085938e+01 1.923392486572265625e+01 -1.638597548007965088e-01 8.316702842712402344e+00 2.445852994918823242e+00 -1.324984192848205566e+00
3.027000000000000000e+03 3.670000076293945312e+01 -5.893503665924072266e+00 -2.597852349281311035e-01 3.518388986587524414e+00 9.775810837745666504e-01 3.828864097595214844e-01
3.028000000000000000e+03 3.689425277709960938e+01 -4.196764469146728516e+00 -2.817331254482269287e-01 3.551375865936279297e+00 9.808928370475769043e-01 4.357658922672271729e-01
3.029000000000000000e+03 3.342223358154296875e+01 -7.626957416534423828e+00 -1.736069768667221069e-01 2.860277414321899414e+00 8.060011863708496094e-01 3.575075566768646240e-01
3.030000000000000000e+03 3.692996215820312500e+01 -2.524005413055419922e+00 -2.914474904537200928e-01 3.564308881759643555e+00 9.818583726882934570e-01 4.765721261501312256e-01
3.031000000000000000e+03 6.505879211425781250e+01 9.676783561706542969e+00 -4.294844269752502441e-01 7.856602668762207031e+00 2.228135585784912109e+00 -9.966586828231811523e-01
3.032000000000000000e+03 6.649681854248046875e+01 -1.895047378540039062e+01 -1.061949953436851501e-01 7.849196434020996094e+00 2.322900533676147461e+00 -1.742562502622604370e-01
3.033000000000000000e+03 3.622071075439453125e+01 -8.884161949157714844e+00 -2.290306240320205688e-01 3.379553318023681641e+00 9.451568126678466797e-01 3.291011452674865723e-01
3.034000000000000000e+03 6.215820312500000000e+01 -2.175566434860229492e+00 -4.370940029621124268e-01 7.489941120147705078e+00 2.115854263305664062e+00 -4.857948720455169678e-01
3.035000000000000000e+03 6.287628173828125000e+01 -1.356330108642578125e+01 -2.293260991573333740e-01 7.379079818725585938e+00 2.144926071166992188e+00 -2.385837137699127197e-01
3.036000000000000000e+03 6.461282348632812500e+01 -1.473891544342041016e+01 -1.849099993705749512e-01 7.601660728454589844e+00 2.225025177001953125e+00 -2.296255081892013550e-01
3.037000000000000000e+03 3.851106262207031250e+01 1.513215160369873047e+01 1.020589545369148254e-01 3.862953901290893555e+00 1.189503908157348633e+00 1.296612143516540527e+00
3.038000000000000000e+03 6.111129379272460938e+01 -8.240991592407226562e+00 -3.541518747806549072e-01 7.256620407104492188e+00 2.070740461349487305e+00 -3.102475106716156006e-01
3.039000000000000000e+03 6.227258300781250000e+01 -1.014644050598144531e+01 -3.030620515346527100e-01 7.334253311157226562e+00 2.109357357025146484e+00 -2.893112003803253174e-01
3.040000000000000000e+03 6.257323837280273438e+01 -8.402770996093750000e+00 -3.224463760852813721e-01 7.395543098449707031e+00 2.121928930282592773e+00 -3.330725133419036865e-01
3.041000000000000000e+03 5.779376220703125000e+01 2.463088035583496094e+01 5.969563722610473633e-01 9.148562431335449219e+00 2.923655509948730469e+00 -1.288709163665771484e+00
3.042000000000000000e+03 3.752310943603515625e+01 -1.320832824707031250e+01 -2.046424746513366699e-01 3.610088348388671875e+00 1.021633744239807129e+00 2.270504534244537354e-01
3.043000000000000000e+03 3.617917633056640625e+01 -1.421372413635253906e+01 -1.856624782085418701e-01 3.365465879440307617e+00 9.539410471916198730e-01 2.266658693552017212e-01
3.044000000000000000e+03 3.386668014526367188e+01 -1.918384170532226562e+01 -1.181421875953674316e-01 2.952590942382812500e+00 8.503345847129821777e-01 1.587315797805786133e-01
3.045000000000000000e+03 3.467243957519531250e+01 -2.079986000061035156e+01 -1.202942430973052979e-01 3.069248199462890625e+00 8.846861720085144043e-01 1.399381160736083984e-01
3.046000000000000000e+03 6.372441864013671875e+01 -2.748773574829101562e+00 -3.757333457469940186e-01 7.610486507415771484e+00 2.170426130294799805e+00 -4.992692172527313232e-01
3.047000000000000000e+03 6.443363189697265625e+01 2.807180404663085938e+01 7.217759490013122559e-01 7.890967369079589844e+00 2.583822965621948242e+00 -1.127358913421630859e+00
3.048000000000000000e+03 3.707872009277343750e+01 8.122687339782714844e+00 -2.120852470397949219e-01 3.634907722473144531e+00 1.026846766471862793e+00 8.761758208274841309e-01
3.049000000000000000e+03 3.821976089477539062e+01 8.551917076110839844e+00 -2.559561729431152344e-01 3.920384407043457031e+00 1.099328517913818359e+00 8.894390463829040527e-01
3.050000000000000000e+03 4.541138076782226562e+01 2.673966979980468750e+01 7.606394290924072266e-01 9.404575347900390625e+00 3.049564361572265625e+00 3.467988491058349609e+00
3.051000000000000000e+03 4.612429809570312500e+01 2.633715057373046875e+01 3.486497998237609863e-01 1.018292999267578125e+01 3.159474134445190430e+00 2.802464485168457031e+00
3.052000000000000000e+03 4.199678039550781250e+01 2.694740867614746094e+01 2.004565238952636719e+00 3.994337081909179688e+00 1.799670696258544922e+00 3.107594490051269531e+00
3.053000000000000000e+03 4.438908767700195312e+01 2.702221679687500000e+01 1.329409360885620117e+00 7.776930332183837891e+00 2.731901884078979492e+00 3.852050781250000000e+00
3.054000000000000000e+03 4.480797576904296875e+01 2.716312789916992188e+01 1.182535171508789062e+00 8.484800338745117188e+00 2.900200843811035156e+00 3.890666246414184570e+00
3.055000000000000000e+03 4.168721008300781250e+01 2.635332298278808594e+01 1.812720894813537598e+00 3.929555177688598633e+00 1.722682833671569824e+00 2.912307024002075195e+00
3.056000000000000000e+03 4.093624496459960938e+01 2.535200500488281250e+01 1.546011567115783691e+00 3.686373949050903320e+00 1.569715619087219238e+00 2.532500982284545898e+00
3.057000000000000000e+03 4.355287170410156250e+01 2.710282707214355469e+01 1.751443743705749512e+00 6.200449943542480469e+00 2.385568141937255859e+00 3.857192039489746094e+00
3.058000000000000000e+03 3.901869964599609375e+01 2.359843826293945312e+01 1.236212015151977539e+00 2.908640861511230469e+00 1.243455886840820312e+00 1.848366737365722656e+00
3.059000000000000000e+03 4.017170333862304688e+01 2.383108329772949219e+01 1.249804139137268066e+00 3.557710886001586914e+00 1.442254543304443359e+00 2.184572458267211914e+00
3.060000000000000000e+03 4.494501113891601562e+01 2.585095977783203125e+01 6.803944706916809082e-01 8.379384040832519531e+00 2.717933654785156250e+00 3.228555917739868164e+00
3.061000000000000000e+03 4.556927490234375000e+01 2.600996589660644531e+01 4.772177338600158691e-01 9.260450363159179688e+00 2.921300411224365234e+00 3.038316249847412109e+00
3.062000000000000000e+03 4.302700042724609375e+01 2.707349205017089844e+01 1.912380814552307129e+00 5.272569656372070312e+00 2.155485153198242188e+00 3.651258945465087891e+00
3.063000000000000000e+03 3.848958969116210938e+01 2.291319084167480469e+01 1.110447168350219727e+00 2.823628187179565430e+00 1.180222630500793457e+00 1.710106968879699707e+00
3.064000000000000000e+03 3.567513656616210938e+01 2.331348991394042969e+01 1.042475342750549316e+00 1.663212299346923828e+00 8.117063045501708984e-01 1.017256379127502441e+00
3.065000000000000000e+03 3.606639480590820312e+01 2.201445579528808594e+01 9.396929144859313965e-01 2.063148021697998047e+00 9.008522629737854004e-01 1.172857999801635742e+00
3.066000000000000000e+03 4.797444915771484375e+01 2.515556907653808594e+01 -1.062779203057289124e-01 1.072382545471191406e+01 3.185264348983764648e+00 1.335620284080505371e+00
3.067000000000000000e+03 3.902781677246093750e+01 1.750303840637207031e+01 3.029106259346008301e-01 3.954477071762084961e+00 1.277216315269470215e+00 1.520279645919799805e+00
3.068000000000000000e+03 3.703417587280273438e+01 2.179283714294433594e+01 9.398786425590515137e-01 2.503734588623046875e+00 1.033084034919738770e+00 1.392443656921386719e+00
3.069000000000000000e+03 4.696858215332031250e+01 2.426081657409667969e+01 -1.368939131498336792e-01 9.620747566223144531e+00 2.845156192779541016e+00 1.848726630210876465e+00
3.070000000000000000e+03 3.742789840698242188e+01 6.844045639038085938e+00 -2.614118754863739014e-01 3.727755308151245117e+00 1.039903044700622559e+00 8.114506602287292480e-01
3.071000000000000000e+03 3.751504898071289062e+01 1.688415718078613281e+01 3.196372389793395996e-01 3.351453304290771484e+00 1.101327180862426758e+00 1.313715696334838867e+00
3.072000000000000000e+03 3.939465713500976562e+01 1.514110088348388672e+00 -3.884886801242828369e-01 4.151175975799560547e+00 1.128806233406066895e+00 5.836946368217468262e-01
3.073000000000000000e+03 3.890233612060546875e+01 5.511821746826171875e+00 -3.419961631298065186e-01 4.075062274932861328e+00 1.119919776916503906e+00 7.611823678016662598e-01
3.074000000000000000e+03 4.743246459960937500e+01 2.570421218872070312e+01 -1.073623308911919594e-03 1.089713287353515625e+01 3.268817663192749023e+00 1.760442376136779785e+00
3.075000000000000000e+03 5.489276123046875000e+01 2.551621818542480469e+01 7.634047865867614746e-01 9.912997245788574219e+00 3.202920436859130859e+00 -1.143554806709289551e+00
3.076000000000000000e+03 3.865781784057617188e+01 1.207363605499267578e+01 -1.344574242830276489e-01 3.997167110443115234e+00 1.158812880516052246e+00 1.106059432029724121e+00
3.077000000000000000e+03 5.199954605102539062e+01 2.416322517395019531e+01 5.009759590029716492e-02 1.036833000183105469e+01 3.125528335571289062e+00 -5.049216151237487793e-01
3.078000000000000000e+03 6.351543426513671875e+01 1.346700382232666016e+01 -4.240553379058837891e-01 7.963186264038085938e+00 2.261739253997802734e+00 -1.131945013999938965e+00
3.079000000000000000e+03 3.805870819091796875e+01 9.594745635986328125e+00 -2.021039277315139771e-01 3.887438058853149414e+00 1.105600237846374512e+00 9.582687616348266602e-01
3.080000000000000000e+03 3.854697036743164062e+01 -4.124155521392822266e+00 -3.309910893440246582e-01 3.905745506286621094e+00 1.072426319122314453e+00 4.180171489715576172e-01
3.081000000000000000e+03 3.663655853271484375e+01 6.405131816864013672e-01 -2.899816334247589111e-01 3.527844905853271484e+00 9.713589549064636230e-01 5.795652270317077637e-01
3.082000000000000000e+03 3.803866195678710938e+01 1.026012778282165527e+00 -3.407750725746154785e-01 3.849310874938964844e+00 1.052560687065124512e+00 5.863645076751708984e-01
3.083000000000000000e+03 6.295136642456054688e+01 8.276778221130371094e+00 -5.290548205375671387e-01 7.833887100219726562e+00 2.191449642181396484e+00 -8.862766623497009277e-01
3.084000000000000000e+03 5.905686569213867188e+01 2.567103004455566406e+01 7.712942957878112793e-01 8.935595512390136719e+00 2.912066936492919922e+00 -1.281229972839355469e+00
3.085000000000000000e+03 6.275041961669921875e+01 1.075134086608886719e+01 -5.166296958923339844e-01 7.926066875457763672e+00 2.222831010818481445e+00 -9.992024898529052734e-01
3.086000000000000000e+03 6.085729217529296875e+01 9.028115272521972656e+00 -6.187412738800048828e-01 7.854770183563232422e+00 2.170808553695678711e+00 -8.320521116256713867e-01
3.087000000000000000e+03 3.588072204589843750e+01 2.096846580505371094e+01 8.210674524307250977e-01 2.203487157821655273e+00 9.073663949966430664e-01 1.176541328430175781e+00
3.088000000000000000e+03 6.185907363891601562e+01 2.095244407653808594e+01 1.910035125911235809e-02 8.306004524230957031e+00 2.497531652450561523e+00 -1.372524261474609375e+00
3.089000000000000000e+03 6.393244171142578125e+01 3.520180225372314453e+00 -4.564371705055236816e-01 7.737135410308837891e+00 2.184209585189819336e+00 -7.232078313827514648e-01
3.090000000000000000e+03 6.383012771606445312e+01 -1.116645336151123047e+00 -4.010432958602905273e-01 7.643370628356933594e+00 2.172698259353637695e+00 -5.506789684295654297e-01
3.091000000000000000e+03 6.228698730468750000e+01 6.157498836517333984e+00 -5.424540042877197266e-01 7.744690895080566406e+00 2.160670995712280273e+00 -7.759612202644348145e-01
3.092000000000000000e+03 6.448139953613281250e+01 5.342868328094482422e+00 -4.622071385383605957e-01 7.783815383911132812e+00 2.196482419967651367e+00 -7.973071336746215820e-01
3.093000000000000000e+03 3.779949951171875000e+01 1.591356372833251953e+01 2.165856361389160156e-01 3.559567451477050781e+00 1.132845997810363770e+00 1.302525162696838379e+00
3.094000000000000000e+03 3.865454101562500000e+01 1.941122055053710938e+01 5.629294514656066895e-01 3.550904035568237305e+00 1.234150052070617676e+00 1.580579519271850586e+00
3.095000000000000000e+03 6.093748855590820312e+01 1.754565048217773438e+01 -3.363252282142639160e-01 8.322100639343261719e+00 2.395732641220092773e+00 -1.227566599845886230e+00
3.096000000000000000e+03 6.203368759155273438e+01 1.650379180908203125e+01 -3.547379672527313232e-01 8.179770469665527344e+00 2.347509860992431641e+00 -1.230473041534423828e+00
3.097000000000000000e+03 6.211368179321289062e+01 -5.733006477355957031e+00 -3.660819828510284424e-01 7.407982826232910156e+00 2.112570285797119141e+00 -3.840512633323669434e-01
3.098000000000000000e+03 3.957384872436523438e+01 -1.588402462005615234e+01 -2.110551595687866211e-01 3.916947126388549805e+00 1.111767649650573730e+00 1.703019887208938599e-01
3.099000000000000000e+03 3.812470245361328125e+01 -5.995281219482421875e+00 -2.970921695232391357e-01 3.798060417175292969e+00 1.050290465354919434e+00 3.703342378139495850e-01
3.100000000000000000e+03 6.416056823730468750e+01 -1.307548332214355469e+01 -2.163422107696533203e-01 7.544717311859130859e+00 2.198512554168701172e+00 -2.540174722671508789e-01
3.101000000000000000e+03 6.324188232421875000e+01 -1.720270538330078125e+01 -1.787499934434890747e-01 7.415924549102783203e+00 2.171152353286743164e+00 -1.870316416025161743e-01
3.102000000000000000e+03 6.093084335327148438e+01 2.287688636779785156e+01 2.437237054109573364e-01 8.515195846557617188e+00 2.627676010131835938e+00 -1.379644870758056641e+00
3.103000000000000000e+03 5.996754074096679688e+01 2.411160087585449219e+01 4.435201883316040039e-01 8.708643913269042969e+00 2.745649099349975586e+00 -1.355569243431091309e+00
3.104000000000000000e+03 3.175086593627929688e+01 -9.123708724975585938e+00 -1.258498877286911011e-01 2.557789325714111328e+00 7.295818328857421875e-01 3.171544075012207031e-01
3.105000000000000000e+03 3.507534027099609375e+01 -1.168813323974609375e+01 -1.820035129785537720e-01 3.169548034667968750e+00 8.962633013725280762e-01 2.640581429004669189e-01
3.106000000000000000e+03 6.805867004394531250e+01 -1.567061710357666016e+01 -1.138057857751846313e-01 8.033347129821777344e+00 2.375862598419189453e+00 -2.146980166435241699e-01
3.107000000000000000e+03 3.838676834106445312e+01 -1.948049545288085938e+01 -1.602510511875152588e-01 3.682473897933959961e+00 1.056666851043701172e+00 1.381027698516845703e-01
3.108000000000000000e+03 3.948078155517578125e+01 6.571724891662597656e+00 -3.543686866760253906e-01 4.253083705902099609e+00 1.169614553451538086e+00 7.936265468597412109e-01
3.109000000000000000e+03 3.898661422729492188e+01 1.374625015258789062e+01 -4.190011322498321533e-02 4.120475292205810547e+00 1.223572611808776855e+00 1.214903950691223145e+00
3.110000000000000000e+03 6.336541366577148438e+01 1.436653995513916016e+01 -4.022832810878753662e-01 8.001506805419921875e+00 2.279767036437988281e+00 -1.172448873519897461e+00
3.111000000000000000e+03 6.086969757080078125e+01 -9.934679031372070312e+00 -3.254746496677398682e-01 7.195191860198974609e+00 2.060915231704711914e+00 -2.777094244956970215e-01
3.112000000000000000e+03 6.275242996215820312e+01 1.420555233955383301e+00 -4.845644831657409668e-01 7.627995014190673828e+00 2.143029212951660156e+00 -6.147320270538330078e-01
3.113000000000000000e+03 6.365195083618164062e+01 2.530609130859375000e+00 -4.668996930122375488e-01 7.704095840454101562e+00 2.171158790588378906e+00 -6.755341291427612305e-01
3.114000000000000000e+03 6.072191619873046875e+01 -6.637724399566650391e+00 -3.764220774173736572e-01 7.251610755920410156e+00 2.062556505203247070e+00 -3.367243707180023193e-01
3.115000000000000000e+03 6.386890411376953125e+01 2.453397661447525024e-01 -4.334490597248077393e-01 7.666262149810791016e+00 2.169843912124633789e+00 -5.936785936355590820e-01
3.116000000000000000e+03 6.180705261230468750e+01 -3.534162521362304688e+00 -4.285641312599182129e-01 7.431306838989257812e+00 2.100822925567626953e+00 -4.400856196880340576e-01
3.117000000000000000e+03 3.862775039672851562e+01 -2.233920335769653320e+00 -3.424682617187500000e-01 3.939649581909179688e+00 1.079154372215270996e+00 4.692490994930267334e-01
3.118000000000000000e+03 3.832491683959960938e+01 -5.300856232643127441e-01 -3.444054126739501953e-01 3.896937847137451172e+00 1.065759778022766113e+00 5.272582769393920898e-01
3.119000000000000000e+03 6.231862258911132812e+01 2.782129287719726562e+01 8.636286854743957520e-01 8.257061958312988281e+00 2.736207246780395508e+00 -1.144682765007019043e+00
3.120000000000000000e+03 6.441856384277343750e+01 -2.324233245849609375e+01 -1.157565936446189880e-01 7.541964054107666016e+00 2.227862358093261719e+00 -1.254064738750457764e-01
3.121000000000000000e+03 3.844646072387695312e+01 -1.438823127746582031e+01 -2.161500006914138794e-01 3.708815097808837891e+00 1.047799587249755859e+00 2.043543756008148193e-01
3.122000000000000000e+03 3.697812271118164062e+01 -1.198950290679931641e+01 -2.126777321100234985e-01 3.509710073471069336e+00 9.891096949577331543e-01 2.593865096569061279e-01
3.123000000000000000e+03 6.578949737548828125e+01 -3.031851005554199219e+01 -5.355523899197578430e-02 7.785116672515869141e+00 2.319468498229980469e+00 -5.488409101963043213e-02
3.124000000000000000e+03 4.305577468872070312e+01 2.650094604492187500e+01 1.635033845901489258e+00 5.567399978637695312e+00 2.160730123519897461e+00 3.518429517745971680e+00
3.125000000000000000e+03 4.476840209960937500e+01 2.504442405700683594e+01 5.349926948547363281e-01 7.949695110321044922e+00 2.545406341552734375e+00 2.984703779220581055e+00
3.126000000000000000e+03 4.442037963867187500e+01 2.652022552490234375e+01 1.130904436111450195e+00 7.758688449859619141e+00 2.666877746582031250e+00 3.636032819747924805e+00
3.127000000000000000e+03 4.648396682739257812e+01 2.577132415771484375e+01 1.698817014694213867e-01 1.016261005401611328e+01 3.099747657775878906e+00 2.427198648452758789e+00
3.128000000000000000e+03 4.171421813964843750e+01 2.456279945373535156e+01 1.270581126213073730e+00 4.564312458038330078e+00 1.750468134880065918e+00 2.699393510818481445e+00
3.129000000000000000e+03 4.130073928833007812e+01 2.582008361816406250e+01 1.663217067718505859e+00 3.803324222564697266e+00 1.639962434768676758e+00 2.691195487976074219e+00
3.130000000000000000e+03 3.674475479125976562e+01 2.375302505493164062e+01 1.175008177757263184e+00 1.899152398109436035e+00 9.222481846809387207e-01 1.241735339164733887e+00
3.131000000000000000e+03 3.649337005615234375e+01 2.294324111938476562e+01 1.066484093666076660e+00 2.008183717727661133e+00 9.224003553390502930e-01 1.230158209800720215e+00
3.132000000000000000e+03 4.351968765258789062e+01 2.655934524536132812e+01 1.519005537033081055e+00 6.184823513031005859e+00 2.311148643493652344e+00 3.609653234481811523e+00
3.133000000000000000e+03 4.074346923828125000e+01 2.445294761657714844e+01 1.352477073669433594e+00 3.764864206314086914e+00 1.535202383995056152e+00 2.401500225067138672e+00
3.134000000000000000e+03 3.908421707153320312e+01 2.238167762756347656e+01 1.014498829841613770e+00 3.267818212509155273e+00 1.284695029258728027e+00 1.840765953063964844e+00
3.135000000000000000e+03 3.690402221679687500e+01 2.017138862609863281e+01 7.459266781806945801e-01 2.668428421020507812e+00 1.024306535720825195e+00 1.370865106582641602e+00
3.136000000000000000e+03 4.931654357910156250e+01 2.289330482482910156e+01 -4.297760128974914551e-01 9.909374237060546875e+00 2.843879699707031250e+00 6.248877644538879395e-01
3.137000000000000000e+03 4.695294189453125000e+01 2.524108314514160156e+01 -3.827110165730118752e-03 1.016550445556640625e+01 3.048503160476684570e+00 2.031693935394287109e+00
3.138000000000000000e+03 4.745275878906250000e+01 2.469880485534667969e+01 -1.665862202644348145e-01 1.019371700286865234e+01 3.008139133453369141e+00 1.654485106468200684e+00
3.139000000000000000e+03 3.744936370849609375e+01 1.777050971984863281e+01 4.225875437259674072e-01 3.271736621856689453e+00 1.108297228813171387e+00 1.364434719085693359e+00
3.140000000000000000e+03 5.076502609252929688e+01 2.482085609436035156e+01 7.690653949975967407e-02 1.081209659576416016e+01 3.266700983047485352e+00 -1.649743616580963135e-01
3.141000000000000000e+03 6.283321762084960938e+01 7.132808685302734375e+00 -5.245620012283325195e-01 7.797691822052001953e+00 2.181938886642456055e+00 -8.398615717887878418e-01
3.142000000000000000e+03 3.988058090209960938e+01 8.399758338928222656e+00 -3.429903984069824219e-01 4.420340538024902344e+00 1.223205089569091797e+00 8.962138295173645020e-01
3.143000000000000000e+03 3.662971496582031250e+01 1.956356811523437500e+01 6.840011477470397949e-01 2.728284120559692383e+00 1.023685574531555176e+00 1.335921287536621094e+00
3.144000000000000000e+03 3.726224517822265625e+01 1.919960403442382812e+01 6.015624403953552246e-01 3.018348932266235352e+00 1.085973381996154785e+00 1.391594648361206055e+00
3.145000000000000000e+03 3.911314010620117188e+01 1.116942405700683594e+01 -2.004684805870056152e-01 4.168549537658691406e+00 1.190424442291259766e+00 1.050246596336364746e+00
3.146000000000000000e+03 3.909272766113281250e+01 9.293837547302246094e+00 -2.726810872554779053e-01 4.183858871459960938e+00 1.173353314399719238e+00 9.382430315017700195e-01
3.147000000000000000e+03 6.179846191406250000e+01 1.070338487625122070e+00 -5.090618133544921875e-01 7.549696445465087891e+00 2.112190246582031250e+00 -5.739818215370178223e-01
3.148000000000000000e+03 5.282291793823242188e+01 2.449322700500488281e+01 2.442212700843811035e-01 1.026680850982666016e+01 3.153308868408203125e+00 -7.288232445716857910e-01
3.149000000000000000e+03 5.864060592651367188e+01 2.320496749877929688e+01 2.886134684085845947e-01 8.927405357360839844e+00 2.764805793762207031e+00 -1.307918071746826172e+00
3.150000000000000000e+03 5.234865570068359375e+01 2.323386192321777344e+01 -1.182265430688858032e-01 1.002349758148193359e+01 2.971581220626831055e+00 -4.742926955223083496e-01
3.151000000000000000e+03 4.121396636962890625e+01 -2.940316438674926758e+00 -4.082517921924591064e-01 4.435277462005615234e+00 1.208107709884643555e+00 3.994994461536407471e-01
3.152000000000000000e+03 4.034177780151367188e+01 -1.521100997924804688e+00 -3.986583352088928223e-01 4.296638011932373047e+00 1.169393897056579590e+00 4.618813693523406982e-01
3.153000000000000000e+03 6.243964385986328125e+01 1.189291667938232422e+01 -5.047376751899719238e-01 7.973865985870361328e+00 2.240738630294799805e+00 -1.044526457786560059e+00
3.154000000000000000e+03 6.154790115356445312e+01 1.047546958923339844e+01 -5.792188644409179688e-01 7.928879261016845703e+00 2.204898118972778320e+00 -9.272540211677551270e-01
3.155000000000000000e+03 5.940219116210937500e+01 2.842253684997558594e+01 1.267941474914550781e+00 8.886935234069824219e+00 3.046462774276733398e+00 -1.073821902275085449e+00
3.156000000000000000e+03 5.972446823120117188e+01 1.821638870239257812e+01 -3.295107185840606689e-01 8.481017112731933594e+00 2.445451974868774414e+00 -1.192539334297180176e+00
3.157000000000000000e+03 6.326571655273437500e+01 2.072147178649902344e+01 1.184229832142591476e-02 8.119056701660156250e+00 2.439269781112670898e+00 -1.375601530075073242e+00
3.158000000000000000e+03 6.280565643310546875e+01 1.532248115539550781e+01 -3.834561407566070557e-01 8.063388824462890625e+00 2.303979873657226562e+00 -1.199682593345642090e+00
3.159000000000000000e+03 6.191656494140625000e+01 1.440084838867187500e+01 -4.678191542625427246e-01 8.106942176818847656e+00 2.291736841201782227e+00 -1.131199836730957031e+00
3.160000000000000000e+03 6.098131942749023438e+01 1.521449661254882812e+01 -4.770883619785308838e-01 8.206258773803710938e+00 2.318751096725463867e+00 -1.119205594062805176e+00
3.161000000000000000e+03 5.681356430053710938e+01 2.583771514892578125e+01 8.959842920303344727e-01 9.434263229370117188e+00 3.099074125289916992e+00 -1.246099233627319336e+00
3.162000000000000000e+03 6.348376464843750000e+01 -1.931738281250000000e+01 -1.523826420307159424e-01 7.444501876831054688e+00 2.187635660171508789e+00 -1.608550697565078735e-01
3.163000000000000000e+03 6.568793487548828125e+01 -1.791666984558105469e+01 -1.458750069141387939e-01 7.720881938934326172e+00 2.272502183914184570e+00 -1.877828240394592285e-01
3.164000000000000000e+03 4.013253402709960938e+01 4.414852142333984375e+00 -4.113883376121520996e-01 4.409251213073730469e+00 1.199358820915222168e+00 6.901572346687316895e-01
3.165000000000000000e+03 3.643227386474609375e+01 -2.011347770690917969e+01 -1.470035463571548462e-01 3.366407871246337891e+00 9.658212661743164062e-01 1.499598026275634766e-01
3.166000000000000000e+03 4.032640075683593750e+01 -1.936721038818359375e+01 -1.830635368824005127e-01 4.036394596099853516e+00 1.155999302864074707e+00 1.227631270885467529e-01
3.167000000000000000e+03 6.377758026123046875e+01 1.437899470329284668e+00 -4.477815330028533936e-01 7.683546543121337891e+00 2.170729637145996094e+00 -6.400364041328430176e-01
3.168000000000000000e+03 6.035293960571289062e+01 -1.159186077117919922e+01 -3.083335459232330322e-01 7.103316307067871094e+00 2.038494825363159180e+00 -2.409359216690063477e-01
3.169000000000000000e+03 3.901257324218750000e+01 -7.973740577697753906e+00 -2.932769060134887695e-01 3.935258865356445312e+00 1.092594623565673828e+00 3.165205121040344238e-01
3.170000000000000000e+03 6.181213378906250000e+01 -1.182433700561523438e+01 -2.705971300601959229e-01 7.278225898742675781e+00 2.102288484573364258e+00 -2.542537152767181396e-01
3.171000000000000000e+03 6.141749191284179688e+01 -1.355075359344482422e+01 -2.494412809610366821e-01 7.210259437561035156e+00 2.088245391845703125e+00 -2.229756116867065430e-01
3.172000000000000000e+03 3.735728454589843750e+01 -9.411201477050781250e+00 -2.423793822526931763e-01 3.587301492691040039e+00 1.003476619720458984e+00 2.964114844799041748e-01
3.173000000000000000e+03 6.133671951293945312e+01 2.509681129455566406e+01 5.578784942626953125e-01 8.446328163146972656e+00 2.701261758804321289e+00 -1.338597416877746582e+00
3.174000000000000000e+03 3.981936645507812500e+01 6.541638076305389404e-02 -3.961758315563201904e-01 4.213371276855468750e+00 1.145158648490905762e+00 5.288820266723632812e-01
3.175000000000000000e+03 6.245585250854492188e+01 -7.581990361213684082e-01 -4.486757814884185791e-01 7.546266078948974609e+00 2.129276990890502930e+00 -5.378183722496032715e-01
3.176000000000000000e+03 6.336986541748046875e+01 -2.602078628540039062e+01 -1.064967662096023560e-01 7.374467849731445312e+00 2.180391311645507812e+00 -9.614405781030654907e-02
3.177000000000000000e+03 6.252730178833007812e+01 -2.402854156494140625e+01 -1.316760331392288208e-01 7.274444103240966797e+00 2.142830371856689453e+00 -1.093132346868515015e-01
3.178000000000000000e+03 3.972305297851562500e+01 -1.280201530456542969e+01 -2.465989291667938232e-01 3.983860969543457031e+00 1.121178627014160156e+00 2.115293294191360474e-01
3.179000000000000000e+03 3.840876007080078125e+01 -1.180409812927246094e+01 -2.372842133045196533e-01 3.764433383941650391e+00 1.058144807815551758e+00 2.472245991230010986e-01
3.180000000000000000e+03 6.625599670410156250e+01 3.255599594116210938e+01 7.443106770515441895e-01 7.446001052856445312e+00 2.457093477249145508e+00 -6.918160915374755859e-01
3.181000000000000000e+03 6.236267089843750000e+01 3.615059280395507812e+01 1.048553228378295898e+00 8.635565757751464844e+00 2.905235767364501953e+00 -2.170401960611343384e-01
3.182000000000000000e+03 5.263193511962890625e+01 4.124712753295898438e+01 -7.003526091575622559e-01 1.274825096130371094e+01 3.614369630813598633e+00 4.417524933815002441e-01
3.183000000000000000e+03 3.347729492187500000e+01 -3.198150634765625000e+01 -5.015691369771957397e-02 2.930934190750122070e+00 8.642331957817077637e-01 4.505789279937744141e-02
3.184000000000000000e+03 2.789903640747070312e+01 -3.133333396911621094e+01 -2.071292838081717491e-03 2.046450138092041016e+00 6.133136153221130371e-01 5.189802125096321106e-02
3.185000000000000000e+03 4.206232070922851562e+01 2.598933029174804688e+01 1.670812606811523438e+00 4.486025333404541016e+00 1.847051382064819336e+00 3.042928457260131836e+00
3.186000000000000000e+03 4.542235946655273438e+01 2.469372558593750000e+01 2.709835171699523926e-01 8.543290138244628906e+00 2.644282102584838867e+00 2.674533128738403320e+00
3.187000000000000000e+03 4.391989135742187500e+01 2.603861427307128906e+01 1.154541134834289551e+00 6.916271686553955078e+00 2.421243906021118164e+00 3.453041315078735352e+00
3.188000000000000000e+03 4.593139648437500000e+01 2.532225036621093750e+01 2.315232306718826294e-01 9.306412696838378906e+00 2.861380577087402344e+00 2.641135454177856445e+00
3.189000000000000000e+03 4.254667282104492188e+01 2.634793853759765625e+01 1.710050821304321289e+00 4.953902721405029297e+00 1.999186038970947266e+00 3.298500537872314453e+00
3.190000000000000000e+03 4.396577835083007812e+01 2.654353141784667969e+01 1.328626036643981934e+00 6.923553466796875000e+00 2.475653886795043945e+00 3.673453330993652344e+00
3.191000000000000000e+03 4.312547683715820312e+01 2.596601867675781250e+01 1.416960000991821289e+00 5.781370639801025391e+00 2.159499168395996094e+00 3.379879713058471680e+00
3.192000000000000000e+03 3.963612747192382812e+01 2.307599067687988281e+01 1.112109780311584473e+00 3.409164905548095703e+00 1.356382369995117188e+00 2.001529216766357422e+00
3.193000000000000000e+03 4.027063751220703125e+01 2.248650550842285156e+01 9.484646320343017578e-01 3.964482307434082031e+00 1.473884105682373047e+00 2.108500957489013672e+00
3.194000000000000000e+03 3.888965225219726562e+01 2.107028198242187500e+01 8.096864819526672363e-01 3.437806606292724609e+00 1.274247884750366211e+00 1.747668743133544922e+00
3.195000000000000000e+03 4.740801239013671875e+01 2.377403259277343750e+01 -2.652171552181243896e-01 9.662834167480468750e+00 2.819285154342651367e+00 1.567433834075927734e+00
3.196000000000000000e+03 4.824351882934570312e+01 2.336110877990722656e+01 -3.608241975307464600e-01 9.810225486755371094e+00 2.834820270538330078e+00 1.155030965805053711e+00
3.197000000000000000e+03 4.843026351928710938e+01 2.240111351013183594e+01 -4.641647636890411377e-01 9.424968719482421875e+00 2.688241004943847656e+00 1.014669179916381836e+00
3.198000000000000000e+03 3.919554901123046875e+01 1.594940185546875000e+01 1.303494274616241455e-01 4.119881153106689453e+00 1.275069117546081543e+00 1.409037232398986816e+00
3.199000000000000000e+03 3.871025466918945312e+01 1.817642402648925781e+01 4.045806527137756348e-01 3.727796077728271484e+00 1.239713072776794434e+00 1.523163795471191406e+00
3.200000000000000000e+03 4.645979309082031250e+01 2.476728248596191406e+01 1.041114982217550278e-02 9.503329277038574219e+00 2.854122161865234375e+00 2.207227945327758789e+00
3.201000000000000000e+03 3.951992797851562500e+01 1.461814022064208984e+01 -2.465990930795669556e-02 4.292439460754394531e+00 1.280333876609802246e+00 1.287893652915954590e+00
3.202000000000000000e+03 4.035704421997070312e+01 1.824951362609863281e+01 2.591166198253631592e-01 4.553445816040039062e+00 1.443768739700317383e+00 1.656695485115051270e+00
3.203000000000000000e+03 6.193311309814453125e+01 8.217054367065429688e+00 -5.724197626113891602e-01 7.817986488342285156e+00 2.173670053482055664e+00 -8.445001840591430664e-01
3.204000000000000000e+03 5.994770050048828125e+01 1.132104110717773438e+01 -6.329516768455505371e-01 7.987175464630126953e+00 2.206267118453979492e+00 -8.816817402839660645e-01
3.205000000000000000e+03 6.058780670166015625e+01 -1.654664754867553711e+00 -4.977222383022308350e-01 7.359055519104003906e+00 2.058400154113769531e+00 -4.473560750484466553e-01
3.206000000000000000e+03 6.105795669555664062e+01 -4.500719070434570312e+00 -4.266147315502166748e-01 7.322041034698486328e+00 2.068627834320068359e+00 -3.880306482315063477e-01
3.207000000000000000e+03 5.787426376342773438e+01 1.550701522827148438e+01 -6.125547289848327637e-01 8.364658355712890625e+00 2.325630903244018555e+00 -8.949858546257019043e-01
3.208000000000000000e+03 5.906898880004882812e+01 2.159366607666015625e+01 3.584146127104759216e-02 8.774157524108886719e+00 2.642999649047851562e+00 -1.297569513320922852e+00
3.209000000000000000e+03 4.288305664062500000e+01 9.003399848937988281e+00 -5.035143494606018066e-01 5.257101535797119141e+00 1.426076173782348633e+00 8.229318261146545410e-01
3.210000000000000000e+03 4.051288604736328125e+01 1.407160949707031250e+01 -1.436820179224014282e-01 4.672084331512451172e+00 1.358520627021789551e+00 1.258270621299743652e+00
3.211000000000000000e+03 4.064470291137695312e+01 1.250752735137939453e+01 -2.413362562656402588e-01 4.745892047882080078e+00 1.351366758346557617e+00 1.126232504844665527e+00
3.212000000000000000e+03 5.733579254150390625e+01 2.253178596496582031e+01 1.319498121738433838e-01 9.128268241882324219e+00 2.778065443038940430e+00 -1.217553734779357910e+00
3.213000000000000000e+03 5.327297973632812500e+01 2.370937728881835938e+01 7.001376152038574219e-02 1.005441093444824219e+01 3.037327527999877930e+00 -7.516793012619018555e-01
3.214000000000000000e+03 5.019153976440429688e+01 2.340154266357421875e+01 -3.082222938537597656e-01 1.022269153594970703e+01 2.974340677261352539e+00 2.174845337867736816e-01
3.215000000000000000e+03 5.143103027343750000e+01 2.290615463256835938e+01 -2.781199812889099121e-01 1.000836753845214844e+01 2.919074296951293945e+00 -1.755052208900451660e-01
3.216000000000000000e+03 4.122384262084960938e+01 8.796413540840148926e-01 -4.518411755561828613e-01 4.551043510437011719e+00 1.229760646820068359e+00 5.174069404602050781e-01
3.217000000000000000e+03 4.181821441650390625e+01 2.950631618499755859e+00 -4.832114577293395996e-01 4.763434886932373047e+00 1.284067034721374512e+00 5.766762495040893555e-01
3.218000000000000000e+03 6.094762802124023438e+01 6.992338180541992188e+00 -6.037796139717102051e-01 7.752532958984375000e+00 2.144625902175903320e+00 -7.612845897674560547e-01
3.219000000000000000e+03 6.182223510742187500e+01 9.318171501159667969e+00 -5.749554634094238281e-01 7.871535778045654297e+00 2.188974142074584961e+00 -8.903981447219848633e-01
3.220000000000000000e+03 6.120294570922851562e+01 1.176488780975341797e+01 -5.742052793502807617e-01 8.003147125244140625e+00 2.228682518005371094e+00 -9.685227870941162109e-01
3.221000000000000000e+03 6.046072769165039062e+01 -3.210420370101928711e+00 -4.720790088176727295e-01 7.304328918457031250e+00 2.049674987792968750e+00 -4.075017869472503662e-01
3.222000000000000000e+03 3.785352706909179688e+01 2.165436553955078125e+01 9.422975778579711914e-01 2.854101419448852539e+00 1.138919711112976074e+00 1.586084485054016113e+00
3.223000000000000000e+03 3.693931198120117188e+01 2.094113731384277344e+01 8.453310132026672363e-01 2.600754499435424805e+00 1.033825635910034180e+00 1.383039355278015137e+00
3.224000000000000000e+03 5.798959732055664062e+01 2.707524108886718750e+01 1.150770902633666992e+00 9.148229598999023438e+00 3.089700222015380859e+00 -1.197848439216613770e+00
3.225000000000000000e+03 5.483094024658203125e+01 2.365809249877929688e+01 2.164786309003829956e-01 9.721011161804199219e+00 2.981246948242187500e+00 -1.022732019424438477e+00
3.226000000000000000e+03 6.022450256347656250e+01 1.974083518981933594e+01 -1.788949668407440186e-01 8.521327972412109375e+00 2.502729892730712891e+00 -1.283949732780456543e+00
3.227000000000000000e+03 6.133785247802734375e+01 4.118695735931396484e+00 -5.676258802413940430e-01 7.637784004211425781e+00 2.121047496795654297e+00 -6.655586957931518555e-01
3.228000000000000000e+03 6.259878158569335938e+01 2.608919382095336914e+00 -4.969391226768493652e-01 7.650933265686035156e+00 2.146198272705078125e+00 -6.501284837722778320e-01
3.229000000000000000e+03 5.993662261962890625e+01 1.607159423828125000e+01 -4.864814281463623047e-01 8.302402496337890625e+00 2.344776391983032227e+00 -1.089388370513916016e+00
3.230000000000000000e+03 3.874386596679687500e+01 7.504150390625000000e+00 -2.999966442584991455e-01 4.062950134277343750e+00 1.128886103630065918e+00 8.462128639221191406e-01
3.231000000000000000e+03 3.752006530761718750e+01 1.859587097167968750e+01 5.073785185813903809e-01 3.194239616394042969e+00 1.110485434532165527e+00 1.401443243026733398e+00
3.232000000000000000e+03 4.123559188842773438e+01 -5.417342662811279297e+00 -3.800902068614959717e-01 4.399079322814941406e+00 1.205696821212768555e+00 3.344570398330688477e-01
3.233000000000000000e+03 6.518580627441406250e+01 -1.918469047546386719e+01 -1.293769776821136475e-01 7.665872573852539062e+00 2.260948657989501953e+00 -1.670999974012374878e-01
3.234000000000000000e+03 6.130860137939453125e+01 -1.755446434020996094e+01 -2.020104527473449707e-01 7.148369789123535156e+00 2.083907842636108398e+00 -1.718139797449111938e-01
3.235000000000000000e+03 3.907160949707031250e+01 2.885142087936401367e+00 -3.734028339385986328e-01 4.112814426422119141e+00 1.121823549270629883e+00 6.442846059799194336e-01
3.236000000000000000e+03 6.109203720092773438e+01 -5.526413023471832275e-02 -5.139752030372619629e-01 7.461317539215087891e+00 2.084202766418457031e+00 -5.162358880043029785e-01
3.237000000000000000e+03 6.274950027465820312e+01 4.100651144981384277e-01 -4.720218777656555176e-01 7.592362880706787109e+00 2.136102199554443359e+00 -5.749872326850891113e-01
3.238000000000000000e+03 4.187240219116210938e+01 -4.297081530094146729e-01 -4.624256491661071777e-01 4.673084735870361328e+00 1.263197660446166992e+00 4.533152878284454346e-01
3.239000000000000000e+03 6.126480102539062500e+01 -1.546553421020507812e+01 -2.248856127262115479e-01 7.167913436889648438e+00 2.082908391952514648e+00 -1.977500915527343750e-01
3.240000000000000000e+03 3.640696334838867188e+01 -1.076487636566162109e+01 -2.155023515224456787e-01 3.411515474319458008e+00 9.588039517402648926e-01 2.851119935512542725e-01
3.241000000000000000e+03 4.061699676513671875e+01 7.385651588439941406e+00 -4.051778614521026611e-01 4.585070133209228516e+00 1.253967642784118652e+00 8.224852085113525391e-01
3.242000000000000000e+03 4.008616256713867188e+01 5.608131408691406250e+00 -3.998648822307586670e-01 4.424924850463867188e+00 1.207517981529235840e+00 7.338886260986328125e-01
3.243000000000000000e+03 6.012603759765625000e+01 1.381022167205810547e+01 -5.704529285430908203e-01 8.144090652465820312e+00 2.272091388702392578e+00 -9.977620244026184082e-01
3.244000000000000000e+03 6.235360717773437500e+01 1.287486457824707031e+01 -4.938934743404388428e-01 8.014132499694824219e+00 2.256071567535400391e+00 -1.081248879432678223e+00
3.245000000000000000e+03 4.131566238403320312e+01 6.211890220642089844e+00 -4.524322450160980225e-01 4.731280326843261719e+00 1.283654332160949707e+00 7.293299436569213867e-01
3.246000000000000000e+03 4.096547317504882812e+01 9.341688156127929688e+00 -3.815316259860992432e-01 4.749026298522949219e+00 1.310248374938964844e+00 9.093409180641174316e-01
3.247000000000000000e+03 6.117664718627929688e+01 5.651948451995849609e+00 -5.862820744514465332e-01 7.698097705841064453e+00 2.133544683456420898e+00 -7.156221270561218262e-01
3.248000000000000000e+03 6.134439086914062500e+01 2.441361665725708008e+00 -5.358366370201110840e-01 7.567456245422363281e+00 2.109485864639282227e+00 -6.027927398681640625e-01
3.249000000000000000e+03 3.879172897338867188e+01 -9.888087272644042969e+00 -2.658143341541290283e-01 3.853805541992187500e+00 1.076397299766540527e+00 2.725674808025360107e-01
3.250000000000000000e+03 3.763783645629882812e+01 -2.326075744628906250e+01 -1.306785643100738525e-01 3.571169376373291016e+00 1.032147288322448730e+00 1.027082800865173340e-01
3.251000000000000000e+03 3.605108642578125000e+01 -2.186584091186523438e+01 -1.062966510653495789e-01 3.319384098052978516e+00 9.639261960983276367e-01 1.357069015502929688e-01
3.252000000000000000e+03 6.231144714355468750e+01 -2.932741355895996094e+01 -9.191676974296569824e-02 7.226067543029785156e+00 2.140245199203491211e+00 -7.769824564456939697e-02
3.253000000000000000e+03 6.654027557373046875e+01 -3.443565368652343750e+01 -5.127539113163948059e-02 7.847799301147460938e+00 2.338957071304321289e+00 -2.794287353754043579e-02
3.254000000000000000e+03 6.974177551269531250e+01 -3.543184661865234375e+01 -3.502656146883964539e-02 8.339742660522460938e+00 2.491414785385131836e+00 -3.160544112324714661e-02
3.255000000000000000e+03 4.353314971923828125e+01 2.605771255493164062e+01 1.331074714660644531e+00 6.229070186614990234e+00 2.268043518066406250e+00 3.447015762329101562e+00
3.256000000000000000e+03 4.126873016357421875e+01 2.495196533203125000e+01 1.452985644340515137e+00 4.079905509948730469e+00 1.659867286682128906e+00 2.632296323776245117e+00
3.257000000000000000e+03 4.601357650756835938e+01 2.420456504821777344e+01 2.630819380283355713e-02 8.910068511962890625e+00 2.680912971496582031e+00 2.296127557754516602e+00
3.258000000000000000e+03 4.079509735107421875e+01 2.325218009948730469e+01 1.055170297622680664e+00 4.173280239105224609e+00 1.568535208702087402e+00 2.309350967407226562e+00
3.259000000000000000e+03 4.166893768310546875e+01 2.547459602355957031e+01 1.541413307189941406e+00 4.242457866668701172e+00 1.735161423683166504e+00 2.818674325942993164e+00
3.260000000000000000e+03 4.501313018798828125e+01 2.205538749694824219e+01 -1.571071334183216095e-02 7.469060897827148438e+00 2.236005067825317383e+00 2.109859943389892578e+00
3.261000000000000000e+03 4.412081527709960938e+01 2.525994682312011719e+01 8.513309955596923828e-01 7.114597797393798828e+00 2.389778614044189453e+00 3.184682846069335938e+00
3.262000000000000000e+03 4.368337631225585938e+01 2.559610557556152344e+01 1.083265542984008789e+00 6.562390804290771484e+00 2.293696880340576172e+00 3.298699617385864258e+00
3.263000000000000000e+03 3.966351699829101562e+01 2.172343444824218750e+01 8.629041910171508789e-01 3.730180025100708008e+00 1.377925276756286621e+00 1.919705510139465332e+00
3.264000000000000000e+03 4.791089248657226562e+01 2.409699440002441406e+01 -2.654907703399658203e-01 1.005480861663818359e+01 2.936795234680175781e+00 1.342450976371765137e+00
3.265000000000000000e+03 4.757427978515625000e+01 2.237520027160644531e+01 -4.100415110588073730e-01 9.088393211364746094e+00 2.603505373001098633e+00 1.333687067031860352e+00
3.266000000000000000e+03 5.919079208374023438e+01 1.255800247192382812e+01 -6.470981836318969727e-01 8.082659721374511719e+00 2.230668544769287109e+00 -8.785545825958251953e-01
3.267000000000000000e+03 3.832999801635742188e+01 1.716281318664550781e+01 3.072356283664703369e-01 3.664753437042236328e+00 1.191596746444702148e+00 1.406679153442382812e+00
3.268000000000000000e+03 3.932210922241210938e+01 1.674361801147460938e+01 1.869494765996932983e-01 4.142015933990478516e+00 1.298689603805541992e+00 1.476116299629211426e+00
3.269000000000000000e+03 3.778049087524414062e+01 1.990644264221191406e+01 6.769176721572875977e-01 3.124639749526977539e+00 1.140467166900634766e+00 1.505905151367187500e+00
3.270000000000000000e+03 5.053599548339843750e+01 2.254023361206054688e+01 -4.079068601131439209e-01 9.879517555236816406e+00 2.841483116149902344e+00 1.591957956552505493e-01
3.271000000000000000e+03 5.109807205200195312e+01 2.382800292968750000e+01 -1.387936472892761230e-01 1.032850933074951172e+01 3.056914567947387695e+00 -1.572094261646270752e-01
3.272000000000000000e+03 3.988328933715820312e+01 1.323350429534912109e+01 -1.424339115619659424e-01 4.465703010559082031e+00 1.296980738639831543e+00 1.182805895805358887e+00
3.273000000000000000e+03 4.220037841796875000e+01 1.454176902770996094e+01 -2.553630173206329346e-01 5.312178611755371094e+00 1.517044782638549805e+00 1.273447036743164062e+00
3.274000000000000000e+03 5.848015594482421875e+01 2.519774675369262695e+00 -6.286684870719909668e-01 7.375006675720214844e+00 2.023901462554931641e+00 -4.750566184520721436e-01
3.275000000000000000e+03 4.077306365966796875e+01 1.144529819488525391e+01 -3.002900481224060059e-01 4.750620365142822266e+00 1.335098981857299805e+00 1.069315552711486816e+00
3.276000000000000000e+03 6.194644927978515625e+01 7.144014835357666016e+00 -5.706735849380493164e-01 7.770661830902099609e+00 2.159996509552001953e+00 -7.995936274528503418e-01
3.277000000000000000e+03 5.903472137451171875e+01 2.003227615356445312e+01 -1.927243620157241821e-01 8.668645858764648438e+00 2.542776584625244141e+00 -1.223208785057067871e+00
3.278000000000000000e+03 5.582738113403320312e+01 2.015649986267089844e+01 -3.427252471446990967e-01 9.083005905151367188e+00 2.622084379196166992e+00 -9.050629734992980957e-01
3.279000000000000000e+03 4.181346893310546875e+01 1.714035224914550781e+01 -1.451905164867639542e-02 5.175957202911376953e+00 1.548431515693664551e+00 1.571026444435119629e+00
3.280000000000000000e+03 4.056875228881835938e+01 1.652635955810546875e+01 5.544645339250564575e-02 4.660082817077636719e+00 1.414658784866333008e+00 1.478834748268127441e+00
3.281000000000000000e+03 5.445003509521484375e+01 2.176529121398925781e+01 -2.129508852958679199e-01 9.483138084411621094e+00 2.781056165695190430e+00 -7.929632663726806641e-01
3.282000000000000000e+03 5.663736343383789062e+01 2.368071746826171875e+01 3.347460627555847168e-01 9.356602668762207031e+00 2.907404661178588867e+00 -1.209345221519470215e+00
3.283000000000000000e+03 5.987185287475585938e+01 -5.219746589660644531e+00 -4.235889017581939697e-01 7.203184127807617188e+00 2.033878564834594727e+00 -3.534124195575714111e-01
3.284000000000000000e+03 5.977583312988281250e+01 -8.511296272277832031e+00 -3.748945593833923340e-01 7.105423450469970703e+00 2.019158840179443359e+00 -2.798525691032409668e-01
3.285000000000000000e+03 4.252481460571289062e+01 7.042196750640869141e+00 -5.064353346824645996e-01 5.092820644378662109e+00 1.375915646553039551e+00 7.229387164115905762e-01
3.286000000000000000e+03 4.396871948242187500e+01 -4.994806647300720215e-01 -5.278767347335815430e-01 5.095420360565185547e+00 1.370263099670410156e+00 3.810209929943084717e-01
3.287000000000000000e+03 4.208909988403320312e+01 4.982427597045898438e+00 -4.894050657749176025e-01 4.883060932159423828e+00 1.318096756935119629e+00 6.448422074317932129e-01
3.288000000000000000e+03 4.146585083007812500e+01 1.332011890411376953e+01 -2.641981244087219238e-01 5.000710010528564453e+00 1.420953631401062012e+00 1.193205833435058594e+00
3.289000000000000000e+03 5.858523178100585938e+01 4.058598518371582031e+00 -6.535142660140991211e-01 7.474684238433837891e+00 2.046350955963134766e+00 -5.249018073081970215e-01
3.290000000000000000e+03 6.111219787597656250e+01 2.992219543457031250e+01 1.203896284103393555e+00 8.501312255859375000e+00 2.911562681198120117e+00 -9.107180833816528320e-01
3.291000000000000000e+03 5.932143402099609375e+01 3.156242752075195312e+01 1.568913578987121582e+00 9.012381553649902344e+00 3.174388408660888672e+00 -5.575625896453857422e-01
3.292000000000000000e+03 4.175129699707031250e+01 8.201802253723144531e+00 -4.462940990924835205e-01 4.923313140869140625e+00 1.343105673789978027e+00 8.117558360099792480e-01
3.293000000000000000e+03 5.817399597167968750e+01 1.349237060546875000e+01 -6.692869663238525391e-01 8.174951553344726562e+00 2.251699209213256836e+00 -8.325870633125305176e-01
3.294000000000000000e+03 5.902194595336914062e+01 1.471052742004394531e+01 -5.929988622665405273e-01 8.256326675415039062e+00 2.298998355865478516e+00 -9.583517909049987793e-01
3.295000000000000000e+03 5.965584945678710938e+01 -9.748814582824707031e+00 -3.466683924198150635e-01 7.066459655761718750e+00 2.015937328338623047e+00 -2.533314228057861328e-01
3.296000000000000000e+03 5.979536056518554688e+01 -1.341046810150146484e+01 -2.710238993167877197e-01 7.011772155761718750e+00 2.022224426269531250e+00 -2.013713419437408447e-01
3.297000000000000000e+03 3.937522506713867188e+01 -6.277289867401123047e+00 -3.242973387241363525e-01 4.010858058929443359e+00 1.105968236923217773e+00 3.543715476989746094e-01
3.298000000000000000e+03 3.646905136108398438e+01 -7.501462936401367188e+00 -2.359046190977096558e-01 3.451034307479858398e+00 9.645389318466186523e-01 3.456685245037078857e-01
3.299000000000000000e+03 5.985110855102539062e+01 5.567086696624755859e+00 -6.380514502525329590e-01 7.630588054656982422e+00 2.097760915756225586e+00 -6.398376226425170898e-01
3.300000000000000000e+03 5.944867324829101562e+01 -1.548816871643066406e+01 -2.471106201410293579e-01 6.939565658569335938e+00 2.007736444473266602e+00 -1.719797700643539429e-01
3.301000000000000000e+03 6.147856140136718750e+01 -1.976764106750488281e+01 -1.768715828657150269e-01 7.157824993133544922e+00 2.094285964965820312e+00 -1.416316926479339600e-01
3.302000000000000000e+03 4.041873931884765625e+01 -9.687930107116699219e+00 -3.000907301902770996e-01 4.153318881988525391e+00 1.155968427658081055e+00 2.572633624076843262e-01
3.303000000000000000e+03 4.186227035522460938e+01 -8.831725120544433594e+00 -3.422940671443939209e-01 4.455390453338623047e+00 1.233928918838500977e+00 2.506309449672698975e-01
3.304000000000000000e+03 4.232197189331054688e+01 -4.097262859344482422e+00 -4.227147698402404785e-01 4.632192134857177734e+00 1.262843251228332520e+00 3.327519893646240234e-01
3.305000000000000000e+03 5.910142135620117188e+01 -9.822770953178405762e-01 -5.454882979393005371e-01 7.255551338195800781e+00 2.013018846511840820e+00 -4.105297625064849854e-01
3.306000000000000000e+03 5.693928909301757812e+01 -1.138987064361572266e+00 -5.841217041015625000e-01 7.046200275421142578e+00 1.938623547554016113e+00 -3.178110718727111816e-01
3.307000000000000000e+03 6.184695053100585938e+01 -2.198716163635253906e+01 -1.392287164926528931e-01 7.204271316528320312e+00 2.119512796401977539e+00 -1.190539896488189697e-01
3.308000000000000000e+03 6.381254196166992188e+01 -2.136841011047363281e+01 -1.297687292098999023e-01 7.470958232879638672e+00 2.202356815338134766e+00 -1.382246315479278564e-01
3.309000000000000000e+03 2.872957992553710938e+01 -2.537659072875976562e+01 -3.040496073663234711e-02 2.179282665252685547e+00 6.446633338928222656e-01 8.085717260837554932e-02
3.310000000000000000e+03 3.229931640625000000e+01 -2.996241378784179688e+01 -6.282249838113784790e-02 2.690528392791748047e+00 7.883117794990539551e-01 5.627214163541793823e-02
3.311000000000000000e+03 6.801518249511718750e+01 4.084584426879882812e+01 5.175642371177673340e-01 7.220810413360595703e+00 2.321512460708618164e+00 -8.745352923870086670e-02
3.312000000000000000e+03 4.436873245239257812e+01 2.591690826416015625e+01 9.446980357170104980e-01 7.544889450073242188e+00 2.546876192092895508e+00 3.420498371124267578e+00
3.313000000000000000e+03 4.127930450439453125e+01 2.394230461120605469e+01 1.159129858016967773e+00 4.361985206604003906e+00 1.656334519386291504e+00 2.493320941925048828e+00
3.314000000000000000e+03 4.441349411010742188e+01 2.425767326354980469e+01 4.902637898921966553e-01 7.374491214752197266e+00 2.359426498413085938e+00 2.783259630203247070e+00
3.315000000000000000e+03 4.345841979980468750e+01 2.375374794006347656e+01 6.578736901283264160e-01 6.347638607025146484e+00 2.101653575897216797e+00 2.721790790557861328e+00
3.316000000000000000e+03 4.270698547363281250e+01 2.586904335021972656e+01 1.468227863311767578e+00 5.344167709350585938e+00 2.043718576431274414e+00 3.210436344146728516e+00
3.317000000000000000e+03 4.206741333007812500e+01 2.513324928283691406e+01 1.392921090126037598e+00 4.772855281829833984e+00 1.849732875823974609e+00 2.916727066040039062e+00
3.318000000000000000e+03 4.144886398315429688e+01 2.276133918762207031e+01 8.571766614913940430e-01 4.731079101562500000e+00 1.676476716995239258e+00 2.354207754135131836e+00
3.319000000000000000e+03 4.882517242431640625e+01 2.146154975891113281e+01 -5.478851795196533203e-01 9.205368041992187500e+00 2.597244739532470703e+00 8.401373028755187988e-01
3.320000000000000000e+03 3.851411437988281250e+01 2.183703804016113281e+01 9.525467157363891602e-01 3.090307235717773438e+00 1.212856173515319824e+00 1.707941174507141113e+00
3.321000000000000000e+03 4.656472015380859375e+01 2.375117874145507812e+01 -1.363767832517623901e-01 9.089383125305175781e+00 2.685901880264282227e+00 1.976076722145080566e+00
3.322000000000000000e+03 4.685223388671875000e+01 2.276562881469726562e+01 -2.876168787479400635e-01 8.852492332458496094e+00 2.569462776184082031e+00 1.734764933586120605e+00
3.323000000000000000e+03 3.949188613891601562e+01 2.018545532226562500e+01 6.138836145401000977e-01 3.878921747207641602e+00 1.347841620445251465e+00 1.761803507804870605e+00
3.324000000000000000e+03 3.968458557128906250e+01 1.789462471008300781e+01 2.919360697269439697e-01 4.230266094207763672e+00 1.356660604476928711e+00 1.596282839775085449e+00
3.325000000000000000e+03 4.967704391479492188e+01 2.206041908264160156e+01 -5.048676729202270508e-01 9.658605575561523438e+00 2.746121406555175781e+00 4.954761862754821777e-01
3.326000000000000000e+03 4.284283065795898438e+01 2.398390007019042969e+01 8.646829128265380859e-01 5.786437511444091797e+00 1.995336174964904785e+00 2.783977746963500977e+00
3.327000000000000000e+03 4.564439010620117188e+01 2.353835105895996094e+01 1.690202765166759491e-02 8.360146522521972656e+00 2.513114452362060547e+00 2.294947385787963867e+00
3.328000000000000000e+03 4.236232757568359375e+01 2.560721778869628906e+01 1.468441963195800781e+00 4.983910560607910156e+00 1.935705780982971191e+00 3.083220958709716797e+00
3.329000000000000000e+03 3.820586395263671875e+01 1.859522247314453125e+01 4.841294884681701660e-01 3.439161062240600586e+00 1.176987171173095703e+00 1.471827030181884766e+00
3.330000000000000000e+03 5.817165756225585938e+01 1.159968662261962891e+01 -7.106986641883850098e-01 7.998920917510986328e+00 2.186466693878173828e+00 -7.471010684967041016e-01
3.331000000000000000e+03 3.793749237060546875e+01 2.083431816101074219e+01 8.142305016517639160e-01 3.049838781356811523e+00 1.159220814704895020e+00 1.561278223991394043e+00
3.332000000000000000e+03 5.170307159423828125e+01 2.200930404663085938e+01 -3.976003527641296387e-01 9.706625938415527344e+00 2.792707681655883789e+00 -1.736147552728652954e-01
3.333000000000000000e+03 4.310901641845703125e+01 1.084546661376953125e+01 -4.847092628479003906e-01 5.481011390686035156e+00 1.498890638351440430e+00 9.265647530555725098e-01
3.334000000000000000e+03 4.252708435058593750e+01 1.261123371124267578e+01 -3.755002021789550781e-01 5.311025142669677734e+00 1.480657577514648438e+00 1.095475554466247559e+00
3.335000000000000000e+03 5.671820449829101562e+01 2.082002258300781250e+01 -1.926239579916000366e-01 9.056030273437500000e+00 2.659021854400634766e+00 -1.059130191802978516e+00
3.336000000000000000e+03 4.425217056274414062e+01 1.331596374511718750e+01 -4.998298585414886475e-01 5.987148761749267578e+00 1.646195650100708008e+00 1.031355500221252441e+00
3.337000000000000000e+03 5.553161621093750000e+01 2.274000167846679688e+01 7.058994472026824951e-02 9.481641769409179688e+00 2.865669488906860352e+00 -1.047256588935852051e+00
3.338000000000000000e+03 5.790644073486328125e+01 -1.496594399213790894e-01 -5.856878757476806641e-01 7.181220531463623047e+00 1.978659749031066895e+00 -3.811689615249633789e-01
3.339000000000000000e+03 4.112403869628906250e+01 4.022215843200683594e+00 -4.556786119937896729e-01 4.631119728088378906e+00 1.252632260322570801e+00 6.411817669868469238e-01
3.340000000000000000e+03 4.330392074584960938e+01 5.848808288574218750e+00 -5.487760901451110840e-01 5.228936672210693359e+00 1.404048085212707520e+00 6.346091032028198242e-01
3.341000000000000000e+03 5.618544387817382812e+01 2.178924751281738281e+01 -7.703324407339096069e-02 9.260071754455566406e+00 2.754911661148071289e+00 -1.061359047889709473e+00
3.342000000000000000e+03 4.356468963623046875e+01 2.659468889236450195e+00 -5.415419936180114746e-01 5.141194820404052734e+00 1.379895925521850586e+00 4.887681007385253906e-01
3.343000000000000000e+03 6.043596267700195312e+01 1.003189086914062500e+01 -6.252661347389221191e-01 7.906563758850097656e+00 2.184389352798461914e+00 -8.529615402221679688e-01
3.344000000000000000e+03 4.314630889892578125e+01 6.067228913307189941e-01 -5.161758065223693848e-01 4.962818622589111328e+00 1.333992958068847656e+00 4.501456916332244873e-01
3.345000000000000000e+03 4.403242874145507812e+01 4.647635459899902344e+00 -5.753769278526306152e-01 5.329301357269287109e+00 1.426177263259887695e+00 5.482447743415832520e-01
3.346000000000000000e+03 4.532638168334960938e+01 2.281300163269042969e+01 1.086811162531375885e-02 7.871059894561767578e+00 2.364578485488891602e+00 2.208428621292114258e+00
3.347000000000000000e+03 6.009663009643554688e+01 8.345067977905273438e+00 -6.519724130630493164e-01 7.799691677093505859e+00 2.144315719604492188e+00 -7.580893039703369141e-01
3.348000000000000000e+03 4.288619232177734375e+01 3.818010091781616211e+00 -5.272975564002990723e-01 5.044779300689697266e+00 1.355244636535644531e+00 5.600014328956604004e-01
3.349000000000000000e+03 5.929762268066406250e+01 -7.305251598358154297e+00 -4.016868174076080322e-01 7.079779624938964844e+00 2.003427743911743164e+00 -2.892027795314788818e-01
3.350000000000000000e+03 5.740801239013671875e+01 -1.786919975280761719e+01 -2.404724061489105225e-01 6.616675376892089844e+00 1.912860870361328125e+00 -1.103657260537147522e-01
3.351000000000000000e+03 5.738219451904296875e+01 3.278818511962890625e+01 1.970259189605712891e+00 9.497417449951171875e+00 3.440303087234497070e+00 -1.426892280578613281e-01
3.352000000000000000e+03 4.455197525024414062e+01 -4.013564109802246094e+00 -4.759478569030761719e-01 5.054558753967285156e+00 1.373583316802978516e+00 2.672560513019561768e-01
3.353000000000000000e+03 3.507787704467773438e+01 -8.885316848754882812e+00 -2.017639875411987305e-01 3.166275739669799805e+00 8.893535137176513672e-01 3.291722536087036133e-01
3.354000000000000000e+03 6.073480606079101562e+01 3.365901947021484375e+01 1.332965612411499023e+00 8.807588577270507812e+00 3.042166233062744141e+00 -3.586366474628448486e-01
3.355000000000000000e+03 4.245512771606445312e+01 1.774621367454528809e+00 -5.004419088363647461e-01 4.865439891815185547e+00 1.309499382972717285e+00 5.100907683372497559e-01
3.356000000000000000e+03 5.773054122924804688e+01 -4.680260181427001953e+00 -4.853934645652770996e-01 6.980352401733398438e+00 1.948487639427185059e+00 -2.947657704353332520e-01
3.357000000000000000e+03 5.536616516113281250e+01 -1.562407398223876953e+01 -2.935223579406738281e-01 6.414121150970458984e+00 1.836179733276367188e+00 -1.051288917660713196e-01
3.358000000000000000e+03 4.264772796630859375e+01 -1.031549739837646484e+01 -3.347333967685699463e-01 4.546852111816406250e+00 1.263635516166687012e+00 2.162857204675674438e-01
3.359000000000000000e+03 5.697658538818359375e+01 1.731504631042480469e+01 -5.462685227394104004e-01 8.604367256164550781e+00 2.417429685592651367e+00 -9.022763371467590332e-01
3.360000000000000000e+03 5.883124923706054688e+01 1.685041809082031250e+01 -4.957449436187744141e-01 8.446019172668457031e+00 2.385082244873046875e+00 -1.043188333511352539e+00
3.361000000000000000e+03 5.678493881225585938e+01 -3.359168529510498047e+00 -5.328631401062011719e-01 6.921690464019775391e+00 1.916648149490356445e+00 -2.753572762012481689e-01
3.362000000000000000e+03 5.735059738159179688e+01 1.245275688171386719e+01 -7.299742102622985840e-01 8.072480201721191406e+00 2.202751874923706055e+00 -7.074192762374877930e-01
3.363000000000000000e+03 5.982374572753906250e+01 -3.000858688354492188e+01 -1.119746789336204529e-01 6.880493640899658203e+00 2.030555725097656250e+00 -4.588446766138076782e-02
3.364000000000000000e+03 3.583444595336914062e+01 -2.456746864318847656e+01 -1.117985919117927551e-01 3.278706550598144531e+00 9.500724077224731445e-01 8.737386018037796021e-02
3.365000000000000000e+03 3.232350921630859375e+01 -2.383201408386230469e+01 -6.243280321359634399e-02 2.718957185745239258e+00 7.969572544097900391e-01 9.964212775230407715e-02
3.366000000000000000e+03 6.151618576049804688e+01 -2.687751770019531250e+01 -9.599529951810836792e-02 7.139763832092285156e+00 2.113130569458007812e+00 -8.719745278358459473e-02
3.367000000000000000e+03 3.510931777954101562e+01 -3.442150115966796875e+01 -5.525351315736770630e-02 3.181370973587036133e+00 9.378352165222167969e-01 2.274798788130283356e-02
3.368000000000000000e+03 5.551591110229492188e+01 -1.052962970733642578e+01 -3.899748623371124268e-01 6.514608860015869141e+00 1.837390184402465820e+00 -1.447144448757171631e-01
3.369000000000000000e+03 2.760787963867187500e+01 -4.131941223144531250e+01 -5.478331446647644043e-02 2.036952495574951172e+00 5.946507453918457031e-01 -1.001404598355293274e-02
3.370000000000000000e+03 2.782119560241699219e+01 -3.367473220825195312e+01 1.668749901000410318e-04 2.030000925064086914e+00 6.090503334999084473e-01 4.321367666125297546e-02
3.371000000000000000e+03 7.961687088012695312e+00 4.130311584472656250e+01 -6.932785618118941784e-05 2.621568273752927780e-04 5.784869063063524663e-05 2.011061180382966995e-03
3.372000000000000000e+03 3.232894515991210938e+01 -1.684174418449401855e+00 -1.617919206619262695e-01 2.586773872375488281e+00 7.274945974349975586e-01 4.894862174987792969e-01
3.373000000000000000e+03 4.225108337402343750e+01 2.423777198791503906e+01 1.076679587364196777e+00 5.176139831542968750e+00 1.875845789909362793e+00 2.773211002349853516e+00
3.374000000000000000e+03 4.313551712036132812e+01 2.471529960632324219e+01 1.000081777572631836e+00 6.015409946441650391e+00 2.104647397994995117e+00 2.994458675384521484e+00
3.375000000000000000e+03 4.408505630493164062e+01 2.349867057800292969e+01 4.320210218429565430e-01 6.921701908111572266e+00 2.206116914749145508e+00 2.614733695983886719e+00
3.376000000000000000e+03 4.503731918334960938e+01 2.393222808837890625e+01 2.470246106386184692e-01 7.886448860168457031e+00 2.440042018890380859e+00 2.567000150680541992e+00
3.377000000000000000e+03 4.094916915893554688e+01 2.191394805908203125e+01 7.628929615020751953e-01 4.520459175109863281e+00 1.585005640983581543e+00 2.172987699508666992e+00
3.378000000000000000e+03 4.063471984863281250e+01 1.738306236267089844e+01 1.240672245621681213e-01 4.735450744628906250e+00 1.457855343818664551e+00 1.563845872879028320e+00
3.379000000000000000e+03 4.033923339843750000e+01 2.099590873718261719e+01 6.651771664619445801e-01 4.252214908599853516e+00 1.475217580795288086e+00 1.965853452682495117e+00
3.380000000000000000e+03 4.656302642822265625e+01 2.214686203002929688e+01 -2.809740602970123291e-01 8.551578521728515625e+00 2.481181383132934570e+00 1.728854298591613770e+00
3.381000000000000000e+03 4.761999893188476562e+01 2.319872474670410156e+01 -3.329115808010101318e-01 9.512065887451171875e+00 2.753746271133422852e+00 1.386724710464477539e+00
3.382000000000000000e+03 4.254962158203125000e+01 2.487147903442382812e+01 1.191771745681762695e+00 5.342686653137207031e+00 1.960337519645690918e+00 2.957132339477539062e+00
3.383000000000000000e+03 4.623675155639648438e+01 2.314327621459960938e+01 -1.553377658128738403e-01 8.663858413696289062e+00 2.552556276321411133e+00 2.002530574798583984e+00
3.384000000000000000e+03 5.083817672729492188e+01 2.176328849792480469e+01 -4.831562936305999756e-01 9.649119377136230469e+00 2.749788999557495117e+00 9.862389415502548218e-02
3.385000000000000000e+03 5.512234878540039062e+01 1.933585739135742188e+01 -4.750699400901794434e-01 9.003203392028808594e+00 2.558440208435058594e+00 -7.444782853126525879e-01
3.386000000000000000e+03 5.378792190551757812e+01 2.273361015319824219e+01 -9.462571144104003906e-02 9.735062599182128906e+00 2.892131090164184570e+00 -7.502856254577636719e-01
3.387000000000000000e+03 4.298638534545898438e+01 1.569406986236572266e+01 -2.639037668704986572e-01 5.668620586395263672e+00 1.621415019035339355e+00 1.356245517730712891e+00
3.388000000000000000e+03 4.097951889038085938e+01 1.940258216857910156e+01 3.446307480335235596e-01 4.718550682067871094e+00 1.518954396247863770e+00 1.825998663902282715e+00
3.389000000000000000e+03 5.797602462768554688e+01 2.004302215576171875e+01 -2.349285185337066650e-01 8.822614669799804688e+00 2.576305866241455078e+00 -1.142781376838684082e+00
3.390000000000000000e+03 3.999347686767578125e+01 1.706622314453125000e+01 1.617476642131805420e-01 4.392728805541992188e+00 1.366342902183532715e+00 1.519338846206665039e+00
3.391000000000000000e+03 4.147400283813476562e+01 1.624872779846191406e+01 -6.543876975774765015e-02 5.061090946197509766e+00 1.498695611953735352e+00 1.442683696746826172e+00
3.392000000000000000e+03 5.269728851318359375e+01 2.220181083679199219e+01 -2.852715849876403809e-01 9.732202529907226562e+00 2.834079265594482422e+00 -4.676290750503540039e-01
3.393000000000000000e+03 4.527251815795898438e+01 2.344847440719604492e+00 -6.004751920700073242e-01 5.513407230377197266e+00 1.473879575729370117e+00 3.831911385059356689e-01
3.394000000000000000e+03 4.466806030273437500e+01 3.461605787277221680e+00 -5.975170135498046875e-01 5.436292171478271484e+00 1.451632499694824219e+00 4.677734971046447754e-01
3.395000000000000000e+03 4.368787002563476562e+01 7.875857353210449219e+00 -5.599381327629089355e-01 5.435622692108154297e+00 1.462705373764038086e+00 7.201021909713745117e-01
3.396000000000000000e+03 5.825075912475585938e+01 8.552083969116210938e+00 -7.151919603347778320e-01 7.759947776794433594e+00 2.113426685333251953e+00 -6.456992626190185547e-01
3.397000000000000000e+03 5.882339096069335938e+01 1.050562572479248047e+01 -6.983401775360107422e-01 7.925051689147949219e+00 2.168013334274291992e+00 -7.547894120216369629e-01
3.398000000000000000e+03 5.978721237182617188e+01 7.075926780700683594e+00 -6.506242752075195312e-01 7.722787857055664062e+00 2.121649026870727539e+00 -6.991366147994995117e-01
3.399000000000000000e+03 5.834811401367187500e+01 1.043842315673828125e+00 -6.091830134391784668e-01 7.287408351898193359e+00 2.003467559814453125e+00 -4.303925335407257080e-01
3.400000000000000000e+03 5.971030426025390625e+01 6.324458718299865723e-01 -5.602814555168151855e-01 7.394987106323242188e+00 2.050411701202392578e+00 -4.858872592449188232e-01
3.401000000000000000e+03 4.373987197875976562e+01 1.204747390747070312e+01 -5.003826022148132324e-01 5.719045162200927734e+00 1.565598726272583008e+00 9.617201685905456543e-01
3.402000000000000000e+03 5.787682723999023438e+01 1.885347938537597656e+01 -3.841188251972198486e-01 8.713644027709960938e+00 2.498857498168945312e+00 -1.058002471923828125e+00
3.403000000000000000e+03 5.709626007080078125e+01 1.421358394622802734e+01 -7.028495669364929199e-01 8.256443977355957031e+00 2.266078233718872070e+00 -7.555733323097229004e-01
3.404000000000000000e+03 4.495994567871093750e+01 5.819336175918579102e-01 -5.645801424980163574e-01 5.315881729125976562e+00 1.425390601158142090e+00 3.627661466598510742e-01
3.405000000000000000e+03 4.513619995117187500e+01 -7.727143764495849609e+00 -4.202839136123657227e-01 5.071526527404785156e+00 1.395372748374938965e+00 1.854918152093887329e-01
3.406000000000000000e+03 4.018855667114257812e+01 -8.028910636901855469e+00 -3.192816376686096191e-01 4.112967967987060547e+00 1.138105869293212891e+00 3.013220131397247314e-01
3.407000000000000000e+03 4.212289428710937500e+01 1.007340717315673828e+01 -4.340652525424957275e-01 5.078572750091552734e+00 1.393352270126342773e+00 9.214183688163757324e-01
3.408000000000000000e+03 4.196444320678710938e+01 1.128070545196533203e+01 -3.797668814659118652e-01 5.088149070739746094e+00 1.412514567375183105e+00 1.015468716621398926e+00
3.409000000000000000e+03 4.423911666870117188e+01 1.561993360519409180e+00 -5.496683120727539062e-01 5.238370895385742188e+00 1.406610727310180664e+00 4.214114248752593994e-01
3.410000000000000000e+03 4.582248687744140625e+01 4.110267639160156250e+00 -6.376279592514038086e-01 5.705972671508789062e+00 1.520503401756286621e+00 4.147489368915557861e-01
3.411000000000000000e+03 5.856058120727539062e+01 5.538004875183105469e+00 -6.745703220367431641e-01 7.563586711883544922e+00 2.066704988479614258e+00 -5.697219967842102051e-01
3.412000000000000000e+03 5.718750381469726562e+01 2.788210630416870117e+00 -6.676939129829406738e-01 7.281296730041503906e+00 1.984080791473388672e+00 -4.079475402832031250e-01
3.413000000000000000e+03 5.658930206298828125e+01 1.156097793579101562e+01 -7.741080522537231445e-01 7.961391448974609375e+00 2.156185150146484375e+00 -5.911687016487121582e-01
3.414000000000000000e+03 5.148649597167968750e+01 3.624693679809570312e+01 1.562971353530883789e+00 1.266600799560546875e+01 4.268693923950195312e+00 1.802051544189453125e+00
3.415000000000000000e+03 4.222891616821289062e+01 -1.492754650115966797e+01 -2.627241909503936768e-01 4.407414913177490234e+00 1.243407249450683594e+00 1.564566940069198608e-01
3.416000000000000000e+03 4.491260910034179688e+01 -1.032013607025146484e+01 -3.633669912815093994e-01 4.962742328643798828e+00 1.379812598228454590e+00 1.481481045484542847e-01
3.417000000000000000e+03 5.897455596923828125e+01 -1.120083904266357422e+01 -3.332098424434661865e-01 6.955118179321289062e+00 1.986572504043579102e+00 -2.204477041959762573e-01
3.418000000000000000e+03 5.856634521484375000e+01 -6.028551578521728516e+00 -4.335792958736419678e-01 7.039152622222900391e+00 1.981672048568725586e+00 -2.942177951335906982e-01
3.419000000000000000e+03 5.803744888305664062e+01 -8.192927360534667969e+00 -4.074733853340148926e-01 6.916402816772460938e+00 1.952678799629211426e+00 -2.408404946327209473e-01
3.420000000000000000e+03 5.805002975463867188e+01 -1.306301784515380859e+01 -3.096326589584350586e-01 6.792328834533691406e+00 1.944808840751647949e+00 -1.732985675334930420e-01
3.421000000000000000e+03 5.552861785888671875e+01 -1.794873237609863281e+01 -2.422028928995132446e-01 6.409262180328369141e+00 1.850117802619934082e+00 -8.276452869176864624e-02
3.422000000000000000e+03 4.364351272583007812e+01 -1.190898418426513672e+01 -3.248294293880462646e-01 4.677071094512939453e+00 1.305672526359558105e+00 1.651175320148468018e-01
3.423000000000000000e+03 4.083967208862304688e+01 -1.415974426269531250e+01 -2.576597034931182861e-01 4.175099372863769531e+00 1.175231933593750000e+00 1.782633960247039795e-01
3.424000000000000000e+03 4.331631469726562500e+01 -5.270004749298095703e+00 -4.283750653266906738e-01 4.791822433471679688e+00 1.309034228324890137e+00 2.797963023185729980e-01
3.425000000000000000e+03 5.481985092163085938e+01 -8.374965786933898926e-01 -6.169151067733764648e-01 6.821042537689208984e+00 1.861238241195678711e+00 -2.163212150335311890e-01
3.426000000000000000e+03 5.727010726928710938e+01 -6.977084636688232422e+00 -4.424570798873901367e-01 6.851318359375000000e+00 1.922658443450927734e+00 -2.401662468910217285e-01
3.427000000000000000e+03 4.117571258544921875e+01 -1.709092330932617188e+01 -2.117052823305130005e-01 4.191691875457763672e+00 1.193995952606201172e+00 1.379171609878540039e-01
3.428000000000000000e+03 4.226502990722656250e+01 -2.018960571289062500e+01 -1.970959305763244629e-01 4.328953266143798828e+00 1.239557147026062012e+00 9.536487609148025513e-02
3.429000000000000000e+03 3.400062942504882812e+01 -2.485636520385742188e+01 -9.070917218923568726e-02 2.969206571578979492e+00 8.635491728782653809e-01 1.058062985539436340e-01
3.430000000000000000e+03 4.249993896484375000e+01 2.322383499145507812e+01 7.618101239204406738e-01 5.538398742675781250e+00 1.890062689781188965e+00 2.576364040374755859e+00
3.431000000000000000e+03 4.187579727172851562e+01 2.353551864624023438e+01 9.613390564918518066e-01 4.962570667266845703e+00 1.777172923088073730e+00 2.559801101684570312e+00
3.432000000000000000e+03 4.006178665161132812e+01 1.922576713562011719e+01 4.141460061073303223e-01 4.295187950134277344e+00 1.412800192832946777e+00 1.740824341773986816e+00
3.433000000000000000e+03 4.378596496582031250e+01 2.276929092407226562e+01 3.757975101470947266e-01 6.577969551086425781e+00 2.086130142211914062e+00 2.446067810058593750e+00
3.434000000000000000e+03 4.714852142333984375e+01 2.167046165466308594e+01 -4.199807941913604736e-01 8.677229881286621094e+00 2.477174758911132812e+00 1.408027410507202148e+00
3.435000000000000000e+03 4.822176742553710938e+01 2.057768249511718750e+01 -5.617300868034362793e-01 8.739865303039550781e+00 2.453440666198730469e+00 9.958682060241699219e-01
3.436000000000000000e+03 4.896648406982421875e+01 2.001027488708496094e+01 -6.339423060417175293e-01 8.803697586059570312e+00 2.450926542282104492e+00 7.071954011917114258e-01
3.437000000000000000e+03 5.519147491455078125e+01 2.094113349914550781e+01 -2.810861468315124512e-01 9.247720718383789062e+00 2.689990520477294922e+00 -8.555480241775512695e-01
3.438000000000000000e+03 5.267989730834960938e+01 2.101836395263671875e+01 -4.464246928691864014e-01 9.447095870971679688e+00 2.700201272964477539e+00 -3.862977325916290283e-01
3.439000000000000000e+03 4.470932388305664062e+01 2.318477058410644531e+01 2.078887373208999634e-01 7.449170112609863281e+00 2.297117471694946289e+00 2.425087928771972656e+00
3.440000000000000000e+03 4.594103240966796875e+01 2.245335197448730469e+01 -1.613925695419311523e-01 8.252118110656738281e+00 2.427217721939086914e+00 1.962862730026245117e+00
3.441000000000000000e+03 5.046844482421875000e+01 2.078621101379394531e+01 -6.029918193817138672e-01 9.307983398437500000e+00 2.611497402191162109e+00 2.677223682403564453e-01
3.442000000000000000e+03 3.928998184204101562e+01 1.869990730285644531e+01 4.290249943733215332e-01 3.965208768844604492e+00 1.318270087242126465e+00 1.628588438034057617e+00
3.443000000000000000e+03 5.699962234497070312e+01 8.151721954345703125e+00 -7.523642778396606445e-01 7.655824661254882812e+00 2.071038246154785156e+00 -5.299537181854248047e-01
3.444000000000000000e+03 4.320750427246093750e+01 1.386321926116943359e+01 -3.829656541347503662e-01 5.662511825561523438e+00 1.583863854408264160e+00 1.157109260559082031e+00
3.445000000000000000e+03 4.387906646728515625e+01 1.501236629486083984e+01 -4.021464586257934570e-01 5.984265327453613281e+00 1.674635767936706543e+00 1.219224572181701660e+00
3.446000000000000000e+03 4.398728561401367188e+01 9.875415802001953125e+00 -5.590811371803283691e-01 5.646007061004638672e+00 1.526077747344970703e+00 8.172499537467956543e-01
3.447000000000000000e+03 4.480396652221679688e+01 8.732342720031738281e+00 -6.174688339233398438e-01 5.781633853912353516e+00 1.549249410629272461e+00 6.790950298309326172e-01
3.448000000000000000e+03 5.640547180175781250e+01 1.309709739685058594e+01 -7.533292770385742188e-01 8.130401611328125000e+00 2.213121652603149414e+00 -6.304340958595275879e-01
3.449000000000000000e+03 4.440341186523437500e+01 2.245790863037109375e+01 1.746384352445602417e-01 7.074483394622802734e+00 2.174736499786376953e+00 2.304709911346435547e+00
3.450000000000000000e+03 4.789598846435546875e+01 1.957468032836914062e+01 -6.007288098335266113e-01 8.290302276611328125e+00 2.306872129440307617e+00 1.035285472869873047e+00
3.451000000000000000e+03 4.628368759155273438e+01 2.972617626190185547e+00 -6.462469100952148438e-01 5.722087860107421875e+00 1.522752285003662109e+00 3.668785989284515381e-01
3.452000000000000000e+03 4.967067718505859375e+01 1.952230453491210938e+01 -6.696882843971252441e-01 8.773734092712402344e+00 2.431213617324829102e+00 4.968096315860748291e-01
3.453000000000000000e+03 5.609050369262695312e+01 1.746319198608398438e+01 -5.928035378456115723e-01 8.644010543823242188e+00 2.415362119674682617e+00 -7.806740403175354004e-01
3.454000000000000000e+03 5.661608123779296875e+01 1.605722618103027344e+01 -6.497199535369873047e-01 8.479627609252929688e+00 2.348972082138061523e+00 -7.884775400161743164e-01
3.455000000000000000e+03 5.716287612915039062e+01 6.837429046630859375e+00 -7.384768724441528320e-01 7.569155216217041016e+00 2.049203634262084961e+00 -5.067334771156311035e-01
3.456000000000000000e+03 5.726075363159179688e+01 4.101717472076416016e+00 -6.827577352523803711e-01 7.374530315399169922e+00 2.007531881332397461e+00 -4.493887424468994141e-01
3.457000000000000000e+03 5.345608520507812500e+01 3.633761978149414062e+01 1.588425159454345703e+00 1.163574218750000000e+01 3.967250108718872070e+00 1.364518284797668457e+00
3.458000000000000000e+03 5.655473327636718750e+01 -1.205805397033691406e+01 -3.449559807777404785e-01 6.624414443969726562e+00 1.883837580680847168e+00 -1.572404801845550537e-01
3.459000000000000000e+03 5.603894042968750000e+01 2.184662269428372383e-03 -6.296596527099609375e-01 7.001351356506347656e+00 1.911507487297058105e+00 -2.849124670028686523e-01
3.460000000000000000e+03 4.362417602539062500e+01 -2.827062606811523438e+00 -4.766758680343627930e-01 4.923015117645263672e+00 1.333901762962341309e+00 3.276001811027526855e-01
3.461000000000000000e+03 4.595806121826171875e+01 -2.902109920978546143e-02 -5.837336778640747070e-01 5.508186340332031250e+00 1.477335691452026367e+00 2.887910902500152588e-01
3.462000000000000000e+03 5.702901077270507812e+01 1.894805717468261719e+01 -4.136207699775695801e-01 8.814343452453613281e+00 2.520216941833496094e+00 -9.983022212982177734e-01
3.463000000000000000e+03 5.638085937500000000e+01 1.944283485412597656e+01 -3.896897733211517334e-01 8.928264617919921875e+00 2.561572313308715820e+00 -9.370649456977844238e-01
3.464000000000000000e+03 5.654976272583007812e+01 1.817599868774414062e+01 -4.912447929382324219e-01 8.731397628784179688e+00 2.472045660018920898e+00 -9.028484225273132324e-01
3.465000000000000000e+03 5.600701141357421875e+01 -8.008755683898925781e+00 -4.355356395244598389e-01 6.657145977020263672e+00 1.866483092308044434e+00 -1.852322667837142944e-01
3.466000000000000000e+03 4.597974014282226562e+01 -2.709249258041381836e+00 -5.335322618484497070e-01 5.383775711059570312e+00 1.455072999000549316e+00 2.367474883794784546e-01
3.467000000000000000e+03 5.575494003295898438e+01 -2.098945617675781250e+00 -5.769023895263671875e-01 6.866059303283691406e+00 1.886747121810913086e+00 -2.475589364767074585e-01
3.468000000000000000e+03 5.555544662475585938e+01 -4.371017932891845703e+00 -5.219920873641967773e-01 6.738142490386962891e+00 1.864845156669616699e+00 -2.151879668235778809e-01
3.469000000000000000e+03 4.123358535766601562e+01 -7.524135589599609375e+00 -3.569366931915283203e-01 4.351904869079589844e+00 1.198490500450134277e+00 2.833086550235748291e-01
3.470000000000000000e+03 5.801881790161132812e+01 1.775164222717285156e+01 -4.721392095088958740e-01 8.584514617919921875e+00 2.433712720870971680e+00 -1.017606496810913086e+00
3.471000000000000000e+03 5.645585632324218750e+01 -5.673721790313720703e+00 -4.786088168621063232e-01 6.795361995697021484e+00 1.895025968551635742e+00 -2.313336282968521118e-01
3.472000000000000000e+03 4.395648193359375000e+01 -9.041940689086914062e+00 -3.684077858924865723e-01 4.815458774566650391e+00 1.334115266799926758e+00 1.888241767883300781e-01
3.473000000000000000e+03 5.482123947143554688e+01 -1.341694355010986328e+01 -3.308178484439849854e-01 6.372220993041992188e+00 1.812420845031738281e+00 -1.089782044291496277e-01
3.474000000000000000e+03 4.309947586059570312e+01 -1.789144325256347656e+01 -2.220345735549926758e-01 4.489188194274902344e+00 1.280146002769470215e+00 9.888315945863723755e-02
3.475000000000000000e+03 4.222431564331054688e+01 -6.478552341461181641e+00 -3.878900706768035889e-01 4.563961029052734375e+00 1.252821326255798340e+00 2.796404659748077393e-01
3.476000000000000000e+03 5.715996551513671875e+01 8.069848418235778809e-01 -6.307747960090637207e-01 7.163925647735595703e+00 1.959945201873779297e+00 -3.626729547977447510e-01
3.477000000000000000e+03 4.314030838012695312e+01 2.299072265625000000e+01 5.710343718528747559e-01 6.055011749267578125e+00 1.987813830375671387e+00 2.546865701675415039e+00
3.478000000000000000e+03 4.214104843139648438e+01 2.236405372619628906e+01 6.513435840606689453e-01 5.310953140258789062e+00 1.788689017295837402e+00 2.364103078842163086e+00
3.479000000000000000e+03 4.168662643432617188e+01 1.834276390075683594e+01 1.139986440539360046e-01 5.164165496826171875e+00 1.583449244499206543e+00 1.733416318893432617e+00
3.480000000000000000e+03 4.118922424316406250e+01 2.045323562622070312e+01 4.661647379398345947e-01 4.769178867340087891e+00 1.570603132247924805e+00 1.965796470642089844e+00
3.481000000000000000e+03 4.639970397949218750e+01 2.145166778564453125e+01 -3.228179216384887695e-01 8.144714355468750000e+00 2.346569061279296875e+00 1.649251937866210938e+00
3.482000000000000000e+03 4.806614685058593750e+01 5.991983413696289062e+00 -7.280189394950866699e-01 6.307095527648925781e+00 1.673722982406616211e+00 3.127336800098419189e-01
3.483000000000000000e+03 4.668331527709960938e+01 5.822048664093017578e+00 -6.828262209892272949e-01 6.002550601959228516e+00 1.595917344093322754e+00 4.173392057418823242e-01
3.484000000000000000e+03 4.737613677978515625e+01 2.078438377380371094e+01 -4.961306750774383545e-01 8.525959014892578125e+00 2.408948659896850586e+00 1.257707238197326660e+00
3.485000000000000000e+03 5.455382919311523438e+01 1.842584037780761719e+01 -6.052739620208740234e-01 8.895287513732910156e+00 2.487004280090332031e+00 -5.952262282371520996e-01
3.486000000000000000e+03 4.127463150024414062e+01 1.769331741333007812e+01 9.449128061532974243e-02 4.987892627716064453e+00 1.524715185165405273e+00 1.632754206657409668e+00
3.487000000000000000e+03 4.234794235229492188e+01 1.649831771850585938e+01 -1.497060060501098633e-01 5.428961753845214844e+00 1.583776712417602539e+00 1.460261106491088867e+00
3.488000000000000000e+03 5.516445159912109375e+01 1.119835662841796875e+01 -8.163753747940063477e-01 7.841472625732421875e+00 2.107529163360595703e+00 -4.220429360866546631e-01
3.489000000000000000e+03 5.723218917846679688e+01 5.459354877471923828e+00 -7.115578651428222656e-01 7.464731216430664062e+00 2.025952100753784180e+00 -4.755953550338745117e-01
3.490000000000000000e+03 4.495442581176757812e+01 1.861191177368164062e+01 -3.176304996013641357e-01 6.843615531921386719e+00 1.957795500755310059e+00 1.534252166748046875e+00
3.491000000000000000e+03 4.374789428710937500e+01 1.671036911010742188e+01 -2.932015657424926758e-01 6.086902618408203125e+00 1.738110423088073730e+00 1.430477380752563477e+00
3.492000000000000000e+03 4.234823226928710938e+01 1.794050598144531250e+01 -1.673732069320976734e-03 5.467870235443115234e+00 1.639858841896057129e+00 1.659619331359863281e+00
3.493000000000000000e+03 5.850629425048828125e+01 7.071122646331787109e+00 -6.971751451492309570e-01 7.663799762725830078e+00 2.089987516403198242e+00 -6.170626878738403320e-01
3.494000000000000000e+03 5.674399185180664062e+01 9.301805496215820312e+00 -7.650175094604492188e-01 7.748193264007568359e+00 2.094952583312988281e+00 -5.389491319656372070e-01
3.495000000000000000e+03 4.651129150390625000e+01 2.060050201416015625e+01 -3.881985843181610107e-01 7.971708774566650391e+00 2.275053024291992188e+00 1.535308361053466797e+00
3.496000000000000000e+03 4.944854354858398438e+01 2.076360893249511719e+01 -6.007927060127258301e-01 9.098781585693359375e+00 2.549396753311157227e+00 5.745133757591247559e-01
3.497000000000000000e+03 4.631818389892578125e+01 1.092027950286865234e+01 -6.872878670692443848e-01 6.389657020568847656e+00 1.710710763931274414e+00 6.781088709831237793e-01
3.498000000000000000e+03 5.779092407226562500e+01 9.802523612976074219e+00 -7.339346408843994141e-01 7.840202808380126953e+00 2.131880521774291992e+00 -6.517036557197570801e-01
3.499000000000000000e+03 5.644747161865234375e+01 1.021858882904052734e+01 -7.797471284866333008e-01 7.816384315490722656e+00 2.110991239547729492e+00 -5.379832983016967773e-01
3.500000000000000000e+03 5.448039245605468750e+01 -3.097966194152832031e+00 -5.637112259864807129e-01 6.654202938079833984e+00 1.827147483825683594e+00 -1.748797744512557983e-01
3.501000000000000000e+03 5.589805603027343750e+01 1.476013755798339844e+01 -7.370606660842895508e-01 8.318522453308105469e+00 2.274438619613647461e+00 -6.359274387359619141e-01
3.502000000000000000e+03 5.036608886718750000e+01 2.832528114318847656e+00 -7.231419086456298828e-01 6.442368507385253906e+00 1.715767860412597656e+00 8.551912009716033936e-02
3.503000000000000000e+03 5.432997894287109375e+01 5.160697937011718750e+00 -7.607183456420898438e-01 7.165005683898925781e+00 1.921286106109619141e+00 -2.378125786781311035e-01
3.504000000000000000e+03 5.604705047607421875e+01 2.806708812713623047e+00 -6.965768337249755859e-01 7.173611164093017578e+00 1.943110227584838867e+00 -3.290981054306030273e-01
3.505000000000000000e+03 5.360466766357421875e+01 2.063538360595703125e+01 -4.344179034233093262e-01 9.342435836791992188e+00 2.672405481338500977e+00 -5.494961738586425781e-01
3.506000000000000000e+03 5.440014648437500000e+01 1.997885322570800781e+01 -4.557216167449951172e-01 9.169912338256835938e+00 2.614257335662841797e+00 -6.699418425559997559e-01
3.507000000000000000e+03 4.481973266601562500e+01 1.444233608245849609e+01 -5.102486014366149902e-01 6.280356884002685547e+00 1.731032490730285645e+00 1.087464690208435059e+00
3.508000000000000000e+03 5.155069732666015625e+01 2.020319938659667969e+01 -5.937187075614929199e-01 9.190256118774414062e+00 2.578961372375488281e+00 -4.634510725736618042e-02
3.509000000000000000e+03 5.301943588256835938e+01 1.945521926879882812e+01 -6.010217666625976562e-01 9.075815200805664062e+00 2.542438030242919922e+00 -3.434919118881225586e-01
3.510000000000000000e+03 5.583116912841796875e+01 5.318359375000000000e+00 -7.376010417938232422e-01 7.335877895355224609e+00 1.979483008384704590e+00 -3.679895401000976562e-01
3.511000000000000000e+03 4.500123596191406250e+01 -1.513196468353271484e+00 -5.344406366348266602e-01 5.266216278076171875e+00 1.419532656669616699e+00 3.020700812339782715e-01
3.512000000000000000e+03 5.533076858520507812e+01 1.792807388305664062e+01 -5.985582470893859863e-01 8.762328147888183594e+00 2.449131011962890625e+00 -6.824753880500793457e-01
3.513000000000000000e+03 5.653107833862304688e+01 1.816386222839355469e+00 -6.591672301292419434e-01 7.161700248718261719e+00 1.950760006904602051e+00 -3.473431766033172607e-01
3.514000000000000000e+03 5.533301925659179688e+01 1.160104155540466309e+00 -6.671140193939208984e-01 6.992134571075439453e+00 1.897506237030029297e+00 -2.624186873435974121e-01
3.515000000000000000e+03 5.522575759887695312e+01 -6.661518096923828125e+00 -4.758731424808502197e-01 6.604953765869140625e+00 1.838724136352539062e+00 -1.717577725648880005e-01
3.516000000000000000e+03 5.397579193115234375e+01 -7.577876567840576172e+00 -4.638480544090270996e-01 6.406190872192382812e+00 1.782702803611755371e+00 -1.171000525355339050e-01
3.517000000000000000e+03 5.683752441406250000e+01 -9.322264671325683594e+00 -3.993404805660247803e-01 6.729244709014892578e+00 1.898971199989318848e+00 -2.000877559185028076e-01
3.518000000000000000e+03 4.866248703002929688e+01 -1.149644660949707031e+01 -3.776441514492034912e-01 5.501395225524902344e+00 1.537125349044799805e+00 4.237741231918334961e-02
3.519000000000000000e+03 5.850124740600585938e+01 3.501903152465820312e+01 1.531215786933898926e+00 9.563808441162109375e+00 3.328507423400878906e+00 1.121748611330986023e-01
3.520000000000000000e+03 4.540025329589843750e+01 -5.252250194549560547e+00 -4.702656865119934082e-01 5.175026416778564453e+00 1.411428213119506836e+00 2.178648710250854492e-01
3.521000000000000000e+03 5.590989303588867188e+01 4.011849880218505859e+00 -7.172830700874328613e-01 7.242227554321289062e+00 1.957483291625976562e+00 -3.426990211009979248e-01
3.522000000000000000e+03 5.938049697875976562e+01 -2.019162368774414062e+01 -1.971969306468963623e-01 6.853660106658935547e+00 1.996938943862915039e+00 -1.157936230301856995e-01
3.523000000000000000e+03 4.455668258666992188e+01 6.690233230590820312e+00 -6.102985739707946777e-01 5.589855670928955078e+00 1.493867158889770508e+00 6.021338701248168945e-01
3.524000000000000000e+03 4.562332916259765625e+01 7.619603157043457031e+00 -6.524696350097656250e-01 5.910235404968261719e+00 1.577329635620117188e+00 5.643023252487182617e-01
3.525000000000000000e+03 4.506798171997070312e+01 -1.321037006378173828e+01 -3.157820701599121094e-01 4.894537448883056641e+00 1.373626589775085449e+00 1.193116456270217896e-01
3.526000000000000000e+03 4.594097900390625000e+01 -1.135886096954345703e+01 -3.664763569831848145e-01 5.091188907623291016e+00 1.417413711547851562e+00 1.279437988996505737e-01
3.527000000000000000e+03 5.326032257080078125e+01 -1.634337615966796875e+01 -2.961883544921875000e-01 6.064478874206542969e+00 1.730487227439880371e+00 -6.140726804733276367e-02
3.528000000000000000e+03 4.704307174682617188e+01 4.513812065124511719e+00 -6.830103397369384766e-01 5.983275890350341797e+00 1.590079665184020996e+00 3.469272851943969727e-01
3.529000000000000000e+03 4.693553161621093750e+01 -1.356185340881347656e+01 -3.269357681274414062e-01 5.190687656402587891e+00 1.459125638008117676e+00 7.527925819158554077e-02
3.530000000000000000e+03 4.289284515380859375e+01 2.141796302795410156e+01 3.396489918231964111e-01 5.824935436248779297e+00 1.849375367164611816e+00 2.200279235839843750e+00
3.531000000000000000e+03 4.292071151733398438e+01 1.986910247802734375e+01 1.054790690541267395e-01 5.900395393371582031e+00 1.801762342453002930e+00 1.916980385780334473e+00
3.532000000000000000e+03 4.188187789916992188e+01 1.919637680053710938e+01 2.008894830942153931e-01 5.255271911621093750e+00 1.636848449707031250e+00 1.853098154067993164e+00
3.533000000000000000e+03 4.303363800048828125e+01 1.737884140014648438e+01 -1.576257050037384033e-01 5.787423133850097656e+00 1.688939213752746582e+00 1.535282969474792480e+00
3.534000000000000000e+03 4.169272232055664062e+01 2.143332099914550781e+01 5.632000565528869629e-01 5.045040130615234375e+00 1.682471990585327148e+00 2.164380550384521484e+00
3.535000000000000000e+03 4.666999816894531250e+01 1.978347396850585938e+01 -4.761990606784820557e-01 7.901540279388427734e+00 2.227602243423461914e+00 1.339771151542663574e+00
3.536000000000000000e+03 4.580131149291992188e+01 2.022870063781738281e+01 -3.111243546009063721e-01 7.569483757019042969e+00 2.177507877349853516e+00 1.644513010978698730e+00
3.537000000000000000e+03 4.103548049926757812e+01 1.845218849182128906e+01 2.100052088499069214e-01 4.802182674407958984e+00 1.503656387329101562e+00 1.710003852844238281e+00
3.538000000000000000e+03 4.419501495361328125e+01 1.924195861816406250e+01 -1.446796059608459473e-01 6.507036685943603516e+00 1.908707141876220703e+00 1.734020113945007324e+00
3.539000000000000000e+03 4.287337493896484375e+01 2.217406082153320312e+01 4.794920384883880615e-01 5.863032817840576172e+00 1.902757525444030762e+00 2.354726314544677734e+00
3.540000000000000000e+03 4.832479476928710938e+01 4.779047012329101562e+00 -7.207477092742919922e-01 6.241956710815429688e+00 1.656362771987915039e+00 2.711662054061889648e-01
3.541000000000000000e+03 4.734911346435546875e+01 3.235267877578735352e+00 -6.642383337020874023e-01 5.952949523925781250e+00 1.586613416671752930e+00 2.850387096405029297e-01
3.542000000000000000e+03 4.453535842895507812e+01 1.605833816528320312e+01 -4.176789224147796631e-01 6.340245723724365234e+00 1.776769995689392090e+00 1.278317332267761230e+00
3.543000000000000000e+03 4.567009735107421875e+01 2.164544868469238281e+01 -1.884049624204635620e-01 7.814557552337646484e+00 2.287845611572265625e+00 1.888973712921142578e+00
3.544000000000000000e+03 4.354660415649414062e+01 2.210036468505859375e+01 3.225494921207427979e-01 6.380431652069091797e+00 2.010894298553466797e+00 2.335854530334472656e+00
3.545000000000000000e+03 4.513599014282226562e+01 1.702951812744140625e+01 -4.313775002956390381e-01 6.698288440704345703e+00 1.880073308944702148e+00 1.313629865646362305e+00
3.546000000000000000e+03 5.343103408813476562e+01 7.071256160736083984e+00 -8.006510138511657715e-01 7.237961769104003906e+00 1.931193232536315918e+00 -1.778264045715332031e-01
3.547000000000000000e+03 5.533674621582031250e+01 1.355844783782958984e+01 -7.887014746665954590e-01 8.144143104553222656e+00 2.206632614135742188e+00 -5.159320831298828125e-01
3.548000000000000000e+03 5.577235794067382812e+01 1.210678482055664062e+01 -7.953613400459289551e-01 7.995712757110595703e+00 2.160105466842651367e+00 -5.184587836265563965e-01
3.549000000000000000e+03 5.582505035400390625e+01 1.872939872741699219e+01 -4.872661828994750977e-01 8.876127243041992188e+00 2.516658544540405273e+00 -8.246145248413085938e-01
3.550000000000000000e+03 4.726544952392578125e+01 1.984226036071777344e+01 -5.383484959602355957e-01 8.140311241149902344e+00 2.280588626861572266e+00 1.196880340576171875e+00
3.551000000000000000e+03 5.022470474243164062e+01 1.832031440734863281e+01 -7.425327301025390625e-01 8.582863807678222656e+00 2.352099418640136719e+00 3.344850242137908936e-01
3.552000000000000000e+03 4.513640594482421875e+01 1.055949974060058594e+01 -6.113248467445373535e-01 5.991119861602783203e+00 1.613938450813293457e+00 7.576248645782470703e-01
3.553000000000000000e+03 4.498531341552734375e+01 1.175129413604736328e+01 -5.875194668769836426e-01 6.064810752868652344e+00 1.643187284469604492e+00 8.476123213768005371e-01
3.554000000000000000e+03 4.729430007934570312e+01 -1.454640477895736694e-01 -5.991402268409729004e-01 5.718877792358398438e+00 1.535921335220336914e+00 2.300484925508499146e-01
3.555000000000000000e+03 5.057013320922851562e+01 -1.427133474498987198e-02 -6.453203558921813965e-01 6.288237571716308594e+00 1.692875266075134277e+00 3.721437230706214905e-02
3.556000000000000000e+03 5.449351119995117188e+01 3.726640701293945312e+00 -7.344090342521667480e-01 7.072047233581542969e+00 1.901291489601135254e+00 -2.355305552482604980e-01
3.557000000000000000e+03 5.456627655029296875e+01 1.506196784973144531e+01 -7.768328189849853516e-01 8.325624465942382812e+00 2.264637470245361328e+00 -4.614367187023162842e-01
3.558000000000000000e+03 5.041797637939453125e+01 1.920023345947265625e+01 -6.936328411102294922e-01 8.822844505310058594e+00 2.438763618469238281e+00 2.802025377750396729e-01
3.559000000000000000e+03 5.378586196899414062e+01 1.894699668884277344e+01 -6.057373881340026855e-01 8.998942375183105469e+00 2.517961502075195312e+00 -4.825752973556518555e-01
3.560000000000000000e+03 5.580434417724609375e+01 6.629887580871582031e+00 -7.670912146568298340e-01 7.429696083068847656e+00 1.998781442642211914e+00 -3.844857811927795410e-01
3.561000000000000000e+03 4.826968765258789062e+01 -3.017312049865722656e+00 -5.634401440620422363e-01 5.757398605346679688e+00 1.558187603950500488e+00 1.366755515336990356e-01
3.562000000000000000e+03 5.442616653442382812e+01 -5.355996131896972656e+00 -5.130167007446289062e-01 6.558792114257812500e+00 1.813732624053955078e+00 -1.508533954620361328e-01
3.563000000000000000e+03 4.579842758178710938e+01 1.396001052856445312e+01 -6.076199412345886230e-01 6.554840564727783203e+00 1.784166097640991211e+00 9.309686422348022461e-01
3.564000000000000000e+03 5.347368240356445312e+01 -1.747750401496887207e+00 -6.050667762756347656e-01 6.596512794494628906e+00 1.797433853149414062e+00 -1.349206268787384033e-01
3.565000000000000000e+03 4.914159011840820312e+01 -5.774358272552490234e+00 -5.092669129371643066e-01 5.792902946472167969e+00 1.585090756416320801e+00 7.944022119045257568e-02
3.566000000000000000e+03 4.308438873291015625e+01 -7.722269535064697266e+00 -3.825531005859375000e-01 4.695169925689697266e+00 1.293785095214843750e+00 2.395290881395339966e-01
3.567000000000000000e+03 4.422834014892578125e+01 -6.494811058044433594e+00 -4.254036545753479004e-01 4.927665710449218750e+00 1.350678563117980957e+00 2.277521193027496338e-01
3.568000000000000000e+03 5.982274246215820312e+01 3.762997436523437500e+01 1.017654061317443848e+00 9.441825866699218750e+00 3.137844085693359375e+00 9.468529373407363892e-02
3.569000000000000000e+03 4.665497970581054688e+01 7.066347122192382812e+00 -6.956138014793395996e-01 6.076551914215087891e+00 1.614281535148620605e+00 4.620832800865173340e-01
3.570000000000000000e+03 5.372660446166992188e+01 -1.865657234191894531e+01 -2.421472668647766113e-01 6.115798473358154297e+00 1.762095451354980469e+00 -6.012262776494026184e-02
3.571000000000000000e+03 4.529262924194335938e+01 5.399101257324218750e+00 -6.351811289787292480e-01 5.687943458557128906e+00 1.515828609466552734e+00 5.005839467048645020e-01
3.572000000000000000e+03 4.576833724975585938e+01 -1.656919097900390625e+01 -2.659240067005157471e-01 4.956504821777343750e+00 1.407174348831176758e+00 7.970149815082550049e-02
3.573000000000000000e+03 5.404557800292968750e+01 4.491925537586212158e-01 -6.592937111854553223e-01 6.792718887329101562e+00 1.840027570724487305e+00 -1.788725107908248901e-01
3.574000000000000000e+03 5.267046737670898438e+01 -8.367201805114746094e+00 -4.509233534336090088e-01 6.201213359832763672e+00 1.725086927413940430e+00 -7.031111419200897217e-02
3.575000000000000000e+03 5.469448852539062500e+01 -9.021827697753906250e+00 -4.279125034809112549e-01 6.454364299774169922e+00 1.807935595512390137e+00 -1.318025290966033936e-01
3.576000000000000000e+03 6.054853439331054688e+01 -2.499539184570312500e+01 -1.428141146898269653e-01 6.972716808319091797e+00 2.048970699310302734e+00 -9.280795603990554810e-02
3.577000000000000000e+03 4.758132171630859375e+01 -1.664886236190795898e+00 -5.837402939796447754e-01 5.699251174926757812e+00 1.534653186798095703e+00 1.914808005094528198e-01
3.578000000000000000e+03 4.207605361938476562e+01 2.012047004699707031e+01 2.818230092525482178e-01 5.342469215393066406e+00 1.687287569046020508e+00 1.964108109474182129e+00
3.579000000000000000e+03 4.733068847656250000e+01 1.444840049743652344e+01 -7.069931030273437500e-01 7.088123798370361328e+00 1.914339184761047363e+00 7.435508966445922852e-01
3.580000000000000000e+03 4.476403808593750000e+01 2.002526664733886719e+01 -1.706841439008712769e-01 6.939210414886474609e+00 2.030557870864868164e+00 1.779323577880859375e+00
3.581000000000000000e+03 4.537981414794921875e+01 1.951009368896484375e+01 -3.093734681606292725e-01 7.197634696960449219e+00 2.066478252410888672e+00 1.607353329658508301e+00
3.582000000000000000e+03 4.539366149902343750e+01 1.546501159667968750e+01 -5.321242213249206543e-01 6.594727516174316406e+00 1.818781018257141113e+00 1.112217664718627930e+00
3.583000000000000000e+03 5.218164443969726562e+01 1.576286029815673828e+01 -8.140672445297241211e-01 8.284557342529296875e+00 2.241147041320800781e+00 -7.604003697633743286e-02
3.584000000000000000e+03 5.060285186767578125e+01 1.986395263671875000e+01 -6.544004678726196289e-01 9.061184883117675781e+00 2.522035121917724609e+00 2.315579205751419067e-01
3.585000000000000000e+03 4.275094985961914062e+01 1.887677764892578125e+01 2.400722913444042206e-02 5.748888969421386719e+00 1.731868863105773926e+00 1.769992947578430176e+00
3.586000000000000000e+03 5.096928024291992188e+01 5.530062198638916016e+00 -7.719262838363647461e-01 6.753816127777099609e+00 1.794566988945007324e+00 4.664878919720649719e-02
3.587000000000000000e+03 5.134458541870117188e+01 4.369984626770019531e+00 -7.494753003120422363e-01 6.720396995544433594e+00 1.791276574134826660e+00 7.921885699033737183e-03
3.588000000000000000e+03 4.818989944458007812e+01 1.829338073730468750e+01 -6.720187664031982422e-01 8.057820320129394531e+00 2.215740442276000977e+00 8.644493818283081055e-01
3.589000000000000000e+03 4.526516342163085938e+01 2.081518554687500000e+01 -2.115425169467926025e-01 7.425186634063720703e+00 2.164093255996704102e+00 1.812608122825622559e+00
3.590000000000000000e+03 4.785332489013671875e+01 8.257924079895019531e+00 -7.485690712928771973e-01 6.461135864257812500e+00 1.713770031929016113e+00 4.027156233787536621e-01
3.591000000000000000e+03 4.406840515136718750e+01 2.179181671142578125e+01 1.524198055267333984e-01 6.726552963256835938e+00 2.063691854476928711e+00 2.193559885025024414e+00
3.592000000000000000e+03 4.660264205932617188e+01 1.005673885345458984e+01 -7.078912854194641113e-01 6.369433879852294922e+00 1.698462724685668945e+00 6.201865673065185547e-01
3.593000000000000000e+03 4.530949783325195312e+01 1.292198181152343750e+01 -5.969795584678649902e-01 6.283598899841308594e+00 1.705985784530639648e+00 9.068132042884826660e-01
3.594000000000000000e+03 5.388301467895507812e+01 1.257096385955810547e+01 -8.326776623725891113e-01 7.926254272460937500e+00 2.128072977066040039e+00 -3.019934296607971191e-01
3.595000000000000000e+03 5.562586975097656250e+01 9.028924942016601562e+00 -7.906545996665954590e-01 7.645525455474853516e+00 2.056461095809936523e+00 -4.232537448406219482e-01
3.596000000000000000e+03 4.361247253417968750e+01 2.076748657226562500e+01 1.197449043393135071e-01 6.279378414154052734e+00 1.919736981391906738e+00 2.049227237701416016e+00
3.597000000000000000e+03 5.413051223754882812e+01 1.380984687805175781e+01 -8.148804306983947754e-01 8.106644630432128906e+00 2.187529325485229492e+00 -3.622268736362457275e-01
3.598000000000000000e+03 5.168476104736328125e+01 1.889441108703613281e+01 -6.886686086654663086e-01 8.873016357421875000e+00 2.455304145812988281e+00 -2.725275419652462006e-02
3.599000000000000000e+03 5.337657928466796875e+01 1.802795529365539551e+00 -6.987367272377014160e-01 6.797472476959228516e+00 1.829620838165283203e+00 -1.389442831277847290e-01
3.600000000000000000e+03 5.479984283447265625e+01 2.382692813873291016e+00 -6.983353495597839355e-01 7.021180152893066406e+00 1.896853446960449219e+00 -2.479012906551361084e-01
3.601000000000000000e+03 4.621679687500000000e+01 -6.441001892089843750e+00 -4.578649401664733887e-01 5.276678085327148438e+00 1.445644021034240723e+00 1.739427447319030762e-01
3.602000000000000000e+03 4.861408996582031250e+01 2.899125516414642334e-01 -6.305533051490783691e-01 6.009773731231689453e+00 1.613766193389892578e+00 1.431551575660705566e-01
3.603000000000000000e+03 5.444623947143554688e+01 6.525315761566162109e+00 -7.839329242706298828e-01 7.285165786743164062e+00 1.950369834899902344e+00 -2.594878971576690674e-01
3.604000000000000000e+03 5.573290252685546875e+01 7.880124092102050781e+00 -7.867642045021057129e-01 7.550870895385742188e+00 2.029232025146484375e+00 -4.052139818668365479e-01
3.605000000000000000e+03 4.632020950317382812e+01 1.493352222442626953e+01 -6.255407929420471191e-01 6.842841148376464844e+00 1.865190148353576660e+00 9.525908231735229492e-01
3.606000000000000000e+03 5.490539932250976562e+01 1.707892227172851562e+01 -6.899993419647216797e-01 8.677504539489746094e+00 2.396251678466796875e+00 -5.845987796783447266e-01
3.607000000000000000e+03 5.247002029418945312e+01 1.839518356323242188e+01 -6.988269686698913574e-01 8.812880516052246094e+00 2.434216022491455078e+00 -1.862267851829528809e-01
3.608000000000000000e+03 4.912446975708007812e+01 7.334938049316406250e+00 -7.742499709129333496e-01 6.627398967742919922e+00 1.755944609642028809e+00 2.487862855195999146e-01
3.609000000000000000e+03 4.778189086914062500e+01 9.307141304016113281e+00 -7.540801763534545898e-01 6.550394535064697266e+00 1.738894343376159668e+00 4.489895999431610107e-01
3.610000000000000000e+03 5.278928375244140625e+01 4.824331283569335938e+00 -7.716242671012878418e-01 6.970565795898437500e+00 1.859682559967041016e+00 -1.055142059922218323e-01
3.611000000000000000e+03 4.998542022705078125e+01 3.943916082382202148e+00 -7.311220765113830566e-01 6.459708690643310547e+00 1.718575954437255859e+00 1.166961863636970520e-01
3.612000000000000000e+03 4.964294052124023438e+01 5.107842445373535156e+00 -7.454738020896911621e-01 6.500231266021728516e+00 1.726427197456359863e+00 1.594094783067703247e-01
3.613000000000000000e+03 4.978747177124023438e+01 -2.048862695693969727e+00 -5.981637239456176758e-01 6.060450553894042969e+00 1.638685941696166992e+00 6.770253926515579224e-02
3.614000000000000000e+03 5.283463287353515625e+01 -1.423786735534667969e+01 -3.232423961162567139e-01 6.059693336486816406e+00 1.720935225486755371e+00 -5.681746825575828552e-02
3.615000000000000000e+03 5.593903350830078125e+01 1.080295658111572266e+01 -7.980690598487854004e-01 7.849938869476318359e+00 2.115560770034790039e+00 -4.954811632633209229e-01
3.616000000000000000e+03 4.840870666503906250e+01 -9.715678215026855469e+00 -4.134603142738342285e-01 5.518077850341796875e+00 1.531385302543640137e+00 6.840687245130538940e-02
3.617000000000000000e+03 5.058026504516601562e+01 -1.291438388824462891e+01 -3.487914800643920898e-01 5.763617038726806641e+00 1.624447703361511230e+00 -3.497436875477433205e-03
3.618000000000000000e+03 5.230839538574218750e+01 -1.235318756103515625e+01 -3.648407757282257080e-01 6.041698455810546875e+00 1.703057289123535156e+00 -5.509107187390327454e-02
3.619000000000000000e+03 4.717646026611328125e+01 -1.171360683441162109e+01 -3.713670969009399414e-01 5.279696464538574219e+00 1.472498774528503418e+00 8.523050695657730103e-02
3.620000000000000000e+03 5.442930984497070312e+01 -2.285585975646972656e+01 -1.843292266130447388e-01 6.155904769897460938e+00 1.791472673416137695e+00 -5.063317716121673584e-02
3.621000000000000000e+03 5.724898529052734375e+01 -2.038336563110351562e+01 -2.090681195259094238e-01 6.572048664093017578e+00 1.908894062042236328e+00 -9.510392695665359497e-02
3.622000000000000000e+03 5.091413879394531250e+01 -7.518881797790527344e+00 -4.729410409927368164e-01 5.988992214202880859e+00 1.654815316200256348e+00 -1.028231065720319748e-02
3.623000000000000000e+03 5.329891204833984375e+01 -6.233564376831054688e+00 -4.990586638450622559e-01 6.356132507324218750e+00 1.757122159004211426e+00 -9.745684266090393066e-02
3.624000000000000000e+03 5.264576339721679688e+01 -5.041589260101318359e+00 -5.243935585021972656e-01 6.310548305511474609e+00 1.735846519470214844e+00 -8.067657053470611572e-02
3.625000000000000000e+03 5.093736267089843750e+01 -1.481043148040771484e+01 -3.253305256366729736e-01 5.776379108428955078e+00 1.635314583778381348e+00 -1.584885455667972565e-02
3.626000000000000000e+03 4.369390487670898438e+01 1.998186111450195312e+01 -3.380902111530303955e-03 6.286689758300781250e+00 1.884992718696594238e+00 1.866390347480773926e+00
3.627000000000000000e+03 4.420659637451171875e+01 2.055842018127441406e+01 -4.093593358993530273e-02 6.706089496612548828e+00 1.999546170234680176e+00 1.932411551475524902e+00
3.628000000000000000e+03 4.890971755981445312e+01 9.501351356506347656e+00 -7.921805977821350098e-01 6.809401512145996094e+00 1.805166244506835938e+00 3.326914310455322266e-01
3.629000000000000000e+03 4.704314041137695312e+01 1.214845752716064453e+01 -7.263673543930053711e-01 6.721337318420410156e+00 1.798491001129150391e+00 6.538793444633483887e-01
3.630000000000000000e+03 5.368650436401367188e+01 1.642568778991699219e+01 -7.542102336883544922e-01 8.498768806457519531e+00 2.323367595672607422e+00 -3.514094352722167969e-01
3.631000000000000000e+03 4.461370849609375000e+01 2.130200576782226562e+01 -1.626807264983654022e-02 7.047659873962402344e+00 2.109417438507080078e+00 2.033452033996582031e+00
3.632000000000000000e+03 4.356071853637695312e+01 2.146775817871093750e+01 2.144071906805038452e-01 6.340016365051269531e+00 1.966327071189880371e+00 2.178564310073852539e+00
3.633000000000000000e+03 4.695538330078125000e+01 1.919544219970703125e+01 -5.362300276756286621e-01 7.866772651672363281e+00 2.199162721633911133e+00 1.205384850502014160e+00
3.634000000000000000e+03 4.934381484985351562e+01 6.235888957977294922e+00 -7.612217664718627930e-01 6.549283504486083984e+00 1.736418485641479492e+00 2.082839757204055786e-01
3.635000000000000000e+03 4.859240722656250000e+01 1.914612007141113281e+01 -6.641072630882263184e-01 8.419073104858398438e+00 2.326489925384521484e+00 8.133068680763244629e-01
3.636000000000000000e+03 4.572362899780273438e+01 1.794687652587890625e+01 -4.558340013027191162e-01 7.101991176605224609e+00 1.993847250938415527e+00 1.335285305976867676e+00
3.637000000000000000e+03 4.436325454711914062e+01 1.768200492858886719e+01 -3.048662543296813965e-01 6.458302021026611328e+00 1.846030712127685547e+00 1.481061577796936035e+00
3.638000000000000000e+03 5.193910598754882812e+01 9.498576521873474121e-01 -6.811619400978088379e-01 6.555508136749267578e+00 1.762303829193115234e+00 -4.450033977627754211e-02
3.639000000000000000e+03 4.914883804321289062e+01 -8.714369535446166992e-01 -6.145956516265869141e-01 6.037172317504882812e+00 1.626773118972778320e+00 1.041298955678939819e-01
3.640000000000000000e+03 4.593843078613281250e+01 1.641068649291992188e+01 -5.518015027046203613e-01 6.934764862060546875e+00 1.914888978004455566e+00 1.136284589767456055e+00
3.641000000000000000e+03 5.442224502563476562e+01 8.966217041015625000e+00 -8.183360695838928223e-01 7.541344642639160156e+00 2.016902446746826172e+00 -2.950155735015869141e-01
3.642000000000000000e+03 5.447658157348632812e+01 7.725846290588378906e+00 -8.086076378822326660e-01 7.425136089324951172e+00 1.984958529472351074e+00 -2.771302759647369385e-01
3.643000000000000000e+03 5.299128723144531250e+01 3.300944328308105469e+00 -7.319230437278747559e-01 6.860973358154296875e+00 1.838715076446533203e+00 -1.202820837497711182e-01
3.644000000000000000e+03 4.612033081054687500e+01 1.179819393157958984e+01 -6.685839891433715820e-01 6.408055305480957031e+00 1.721841454505920410e+00 7.282569408416748047e-01
3.645000000000000000e+03 4.236715316772460938e+01 2.098263549804687500e+01 3.647669553756713867e-01 5.526865482330322266e+00 1.767489790916442871e+00 2.108126401901245117e+00
3.646000000000000000e+03 4.358781814575195312e+01 1.835536193847656250e+01 -1.367115378379821777e-01 6.131405830383300781e+00 1.798408269882202148e+00 1.650455474853515625e+00
3.647000000000000000e+03 5.117623901367187500e+01 1.225481128692626953e+01 -8.474542498588562012e-01 7.564123153686523438e+00 2.015000820159912109e+00 9.239649027585983276e-02
3.648000000000000000e+03 4.663507843017578125e+01 9.160524368286132812e+00 -7.095955610275268555e-01 6.273745536804199219e+00 1.669245004653930664e+00 5.576215982437133789e-01
3.649000000000000000e+03 4.899212265014648438e+01 8.425831794738769531e+00 -7.871755957603454590e-01 6.709044456481933594e+00 1.776560664176940918e+00 2.895337343215942383e-01
3.650000000000000000e+03 4.881274795532226562e+01 1.055712795257568359e+01 -7.949423789978027344e-01 6.902213096618652344e+00 1.832181215286254883e+00 3.828758597373962402e-01
3.651000000000000000e+03 4.841871643066406250e+01 1.700586891174316406e+01 -7.206063866615295410e-01 7.837763309478759766e+00 2.135147094726562500e+00 7.157031893730163574e-01
3.652000000000000000e+03 5.474666976928710938e+01 1.617404556274414062e+01 -7.268722057342529297e-01 8.510174751281738281e+00 2.334990739822387695e+00 -5.293676853179931641e-01
3.653000000000000000e+03 5.231782150268554688e+01 6.117113590240478516e+00 -7.941818237304687500e-01 7.013422966003417969e+00 1.865772366523742676e+00 -6.475564837455749512e-02
3.654000000000000000e+03 5.326180267333984375e+01 1.790725898742675781e+01 -6.982840299606323242e-01 8.764460563659667969e+00 2.419852972030639648e+00 -3.303167223930358887e-01
3.655000000000000000e+03 4.789356994628906250e+01 1.250283837318420410e+00 -6.436778306961059570e-01 5.902148246765136719e+00 1.577541112899780273e+00 2.196654975414276123e-01
3.656000000000000000e+03 4.985146713256835938e+01 1.086791872978210449e+00 -6.654944419860839844e-01 6.238719940185546875e+00 1.671967744827270508e+00 8.936551213264465332e-02
3.657000000000000000e+03 4.861700439453125000e+01 3.452331781387329102e+00 -7.041457295417785645e-01 6.191169738769531250e+00 1.646107196807861328e+00 2.209067195653915405e-01
3.658000000000000000e+03 4.911904907226562500e+01 2.184892177581787109e+00 -6.885018348693847656e-01 6.192271232604980469e+00 1.651130795478820801e+00 1.561904549598693848e-01
3.659000000000000000e+03 4.935504913330078125e+01 1.868372344970703125e+01 -7.150843143463134766e-01 8.507206916809082031e+00 2.337636947631835938e+00 5.601698756217956543e-01
3.660000000000000000e+03 5.211240005493164062e+01 -6.950581550598144531e+00 -4.846268594264984131e-01 6.171212673187255859e+00 1.705975770950317383e+00 -5.787687748670578003e-02
3.661000000000000000e+03 4.614126205444335938e+01 -8.914832115173339844e+00 -4.078733026981353760e-01 5.207535266876220703e+00 1.439898610115051270e+00 1.416549533605575562e-01
3.662000000000000000e+03 5.103610229492187500e+01 -4.381783962249755859e+00 -5.452550649642944336e-01 6.122554779052734375e+00 1.673189878463745117e+00 -2.060705155599862337e-04
3.663000000000000000e+03 4.698495483398437500e+01 -1.019627571105957031e+01 -3.896055221557617188e-01 5.299937248229980469e+00 1.473099589347839355e+00 1.032831817865371704e-01
3.664000000000000000e+03 5.350435638427734375e+01 -4.188420772552490234e+00 -5.531687736511230469e-01 6.484063148498535156e+00 1.779268264770507812e+00 -1.188175901770591736e-01
3.665000000000000000e+03 5.196280670166015625e+01 -2.522332191467285156e+00 -5.943645834922790527e-01 6.359056949615478516e+00 1.729407668113708496e+00 -5.220671370625495911e-02
3.666000000000000000e+03 5.156793212890625000e+01 -5.626509666442871094e+00 -5.151628851890563965e-01 6.158023834228515625e+00 1.692858219146728516e+00 -3.671428933739662170e-02
3.667000000000000000e+03 4.882070541381835938e+01 -1.330080413818359375e+01 -3.427180647850036621e-01 5.509565353393554688e+00 1.550054192543029785e+00 3.195213899016380310e-02
3.668000000000000000e+03 4.729835128784179688e+01 -5.348596572875976562e+00 -4.921827018260955811e-01 5.518585681915283203e+00 1.507920980453491211e+00 1.362176537513732910e-01
3.669000000000000000e+03 4.716822052001953125e+01 -7.495368480682373047e+00 -4.476119875907897949e-01 5.414765357971191406e+00 1.490146040916442871e+00 1.209865063428878784e-01
3.670000000000000000e+03 5.696329879760742188e+01 -2.657312774658203125e+01 -1.423194110393524170e-01 6.491007328033447266e+00 1.904606342315673828e+00 -5.501104146242141724e-02
3.671000000000000000e+03 5.963099288940429688e+01 -2.281871223449707031e+01 -1.473496705293655396e-01 6.873857498168945312e+00 2.017952442169189453e+00 -9.429109096527099609e-02
3.672000000000000000e+03 5.268983840942382812e+01 -3.645609617233276367e-01 -6.425829529762268066e-01 6.575567245483398438e+00 1.779895305633544922e+00 -9.361569583415985107e-02
3.673000000000000000e+03 4.751036071777343750e+01 1.875607490539550781e+01 -5.980358719825744629e-01 7.950164318084716797e+00 2.205638408660888672e+00 1.052549362182617188e+00
3.674000000000000000e+03 5.276905822753906250e+01 1.686260223388671875e+01 -7.680850625038146973e-01 8.550492286682128906e+00 2.334722280502319336e+00 -2.028207033872604370e-01
3.675000000000000000e+03 4.678486251831054688e+01 1.350406265258789062e+01 -6.897910237312316895e-01 6.780133247375488281e+00 1.827102661132812500e+00 7.756060957908630371e-01
3.676000000000000000e+03 5.469063568115234375e+01 1.019811344146728516e+01 -8.208758831024169922e-01 7.695587158203125000e+00 2.062413454055786133e+00 -3.512098491191864014e-01
3.677000000000000000e+03 4.679051208496093750e+01 1.586929512023925781e+01 -6.384885311126708984e-01 7.121327877044677734e+00 1.944851875305175781e+00 9.344514012336730957e-01
3.678000000000000000e+03 4.873495864868164062e+01 1.627964973449707031e+01 -7.581533789634704590e-01 7.779139518737792969e+00 2.106295824050903320e+00 6.244903206825256348e-01
3.679000000000000000e+03 4.296749114990234375e+01 2.072949028015136719e+01 2.114210277795791626e-01 5.934788227081298828e+00 1.843862771987915039e+00 2.060574054718017578e+00
3.680000000000000000e+03 4.646952438354492188e+01 1.727870559692382812e+01 -5.631485581398010254e-01 7.276396274566650391e+00 2.013974189758300781e+00 1.111676096916198730e+00
3.681000000000000000e+03 5.429220581054687500e+01 1.167672061920166016e+01 -8.393757939338684082e-01 7.844692230224609375e+00 2.101594924926757812e+00 -3.246144354343414307e-01
3.682000000000000000e+03 5.112622451782226562e+01 1.792542076110839844e+01 -7.497584819793701172e-01 8.583457946777343750e+00 2.350109815597534180e+00 1.290358155965805054e-01
3.683000000000000000e+03 5.328365707397460938e+01 1.530075550079345703e+01 -8.106549382209777832e-01 8.297572135925292969e+00 2.246075153350830078e+00 -2.491515278816223145e-01
3.684000000000000000e+03 5.407784271240234375e+01 1.745247077941894531e+01 -6.949166655540466309e-01 8.727108001708984375e+00 2.409657478332519531e+00 -4.715421497821807861e-01
3.685000000000000000e+03 5.561953735351562500e+01 1.001664543151855469e+01 -8.008267879486083984e-01 7.736351966857910156e+00 2.080657482147216797e+00 -4.394291043281555176e-01
3.686000000000000000e+03 5.366429138183593750e+01 1.061694240570068359e+01 -8.392066359519958496e-01 7.660389423370361328e+00 2.046354770660400391e+00 -2.378869503736495972e-01
3.687000000000000000e+03 5.055926895141601562e+01 6.585144519805908203e+00 -7.849540710449218750e-01 6.794791698455810547e+00 1.802951335906982422e+00 9.242039918899536133e-02
3.688000000000000000e+03 4.746184158325195312e+01 1.130265903472900391e+01 -7.433288097381591797e-01 6.716958999633789062e+00 1.792089104652404785e+00 5.755612254142761230e-01
3.689000000000000000e+03 5.118488693237304688e+01 7.931478500366210938e+00 -8.148589730262756348e-01 7.027913570404052734e+00 1.863916397094726562e+00 4.725890606641769409e-02
3.690000000000000000e+03 4.911891937255859375e+01 -4.110007286071777344e+00 -5.390345454216003418e-01 5.841443538665771484e+00 1.590722799301147461e+00 8.604852110147476196e-02
3.691000000000000000e+03 5.231433486938476562e+01 -3.854267358779907227e+00 -5.606541037559509277e-01 6.342551231384277344e+00 1.734569191932678223e+00 -6.800609827041625977e-02
3.692000000000000000e+03 5.194973754882812500e+01 1.739146614074707031e+01 -7.588257789611816406e-01 8.563902854919433594e+00 2.341522932052612305e+00 -7.021219283342361450e-02
3.693000000000000000e+03 4.896082687377929688e+01 1.775512886047363281e+01 -7.308883666992187500e-01 8.158490180969238281e+00 2.228280544281005859e+00 6.435299515724182129e-01
3.694000000000000000e+03 4.766938781738281250e+01 1.031404781341552734e+01 -7.530051469802856445e-01 6.638333320617675781e+00 1.765598416328430176e+00 4.993789792060852051e-01
3.695000000000000000e+03 5.221090698242187500e+01 9.621373176574707031e+00 -8.385702371597290039e-01 7.347966194152832031e+00 1.952818751335144043e+00 -5.747783556580543518e-02
3.696000000000000000e+03 4.868303680419921875e+01 -6.662849903106689453e+00 -4.827359020709991455e-01 5.655711650848388672e+00 1.551892757415771484e+00 9.380070865154266357e-02
3.697000000000000000e+03 4.838613510131835938e+01 -8.020109176635742188e+00 -4.420627355575561523e-01 5.565732955932617188e+00 1.537101149559020996e+00 8.031728118658065796e-02
3.698000000000000000e+03 4.990275955200195312e+01 -9.450586318969726562e+00 -4.272167980670928955e-01 5.770178318023681641e+00 1.602888464927673340e+00 1.739846915006637573e-02
3.699000000000000000e+03 4.968767166137695312e+01 -7.910857200622558594e+00 -4.570285081863403320e-01 5.784265041351318359e+00 1.598170995712280273e+00 3.627421706914901733e-02
3.700000000000000000e+03 5.050744247436523438e+01 -6.203986167907714844e+00 -5.027366876602172852e-01 5.971916198730468750e+00 1.640753865242004395e+00 1.044388022273778915e-02
3.701000000000000000e+03 5.127078628540039062e+01 -1.204397916793823242e+00 -6.216580867767333984e-01 6.334739208221435547e+00 1.713924407958984375e+00 -1.097223814576864243e-02
3.702000000000000000e+03 5.106530380249023438e+01 1.956239342689514160e+00 -7.041206955909729004e-01 6.508038043975830078e+00 1.741175174713134766e+00 1.706255041062831879e-02
3.703000000000000000e+03 4.964985275268554688e+01 1.273278617858886719e+01 -8.170653581619262695e-01 7.338166713714599609e+00 1.956330418586730957e+00 3.152250349521636963e-01
3.704000000000000000e+03 5.069837188720703125e+01 1.698971176147460938e+01 -7.966840267181396484e-01 8.342149734497070312e+00 2.263639926910400391e+00 2.241629064083099365e-01
3.705000000000000000e+03 5.183763885498046875e+01 8.572644233703613281e+00 -8.338897824287414551e-01 7.196098804473876953e+00 1.908662676811218262e+00 -1.362723391503095627e-02
3.706000000000000000e+03 5.006361389160156250e+01 8.613105773925781250e+00 -8.124763965606689453e-01 6.930729866027832031e+00 1.835476040840148926e+00 1.792712360620498657e-01
3.707000000000000000e+03 5.153252029418945312e+01 1.447455406188964844e+01 -8.440612554550170898e-01 7.969825267791748047e+00 2.137729167938232422e+00 4.965042695403099060e-02
3.708000000000000000e+03 4.771673965454101562e+01 1.295365715026855469e+01 -7.483776211738586426e-01 6.962136745452880859e+00 1.864127755165100098e+00 6.087399125099182129e-01
3.709000000000000000e+03 4.700923156738281250e+01 1.803751564025878906e+01 -5.879352688789367676e-01 7.601544380187988281e+00 2.104082822799682617e+00 1.081442475318908691e+00
3.710000000000000000e+03 4.722945785522460938e+01 1.674295234680175781e+01 -6.517782807350158691e-01 7.430015087127685547e+00 2.033471107482910156e+00 9.268328547477722168e-01
3.711000000000000000e+03 5.258819198608398438e+01 1.247129631042480469e+01 -8.547689914703369141e-01 7.792832374572753906e+00 2.081418991088867188e+00 -1.123983561992645264e-01
3.712000000000000000e+03 5.279796600341796875e+01 1.398142719268798828e+01 -8.397200107574462891e-01 8.038395881652832031e+00 2.159602642059326172e+00 -1.558456867933273315e-01
3.713000000000000000e+03 4.772810745239257812e+01 1.543896579742431641e+01 -7.197483777999877930e-01 7.365432739257812500e+00 1.993705272674560547e+00 7.582475543022155762e-01
3.714000000000000000e+03 5.157785415649414062e+01 3.093376636505126953e+00 -7.279048562049865723e-01 6.657103538513183594e+00 1.778759598731994629e+00 -1.736010983586311340e-02
3.715000000000000000e+03 5.102542495727539062e+01 8.752475738525390625e+00 -8.288474678993225098e-01 7.091557979583740234e+00 1.878813147544860840e+00 7.680947333574295044e-02
3.716000000000000000e+03 5.264695739746093750e+01 7.987011909484863281e+00 -8.222224116325378418e-01 7.233139038085937500e+00 1.923274993896484375e+00 -1.017941832542419434e-01
3.717000000000000000e+03 5.326420593261718750e+01 9.224907875061035156e+00 -8.291323184967041016e-01 7.429037094116210938e+00 1.979971408843994141e+00 -1.755169630050659180e-01
3.718000000000000000e+03 4.960895919799804688e+01 1.627430725097656250e+01 -7.884455323219299316e-01 7.950602531433105469e+00 2.148647069931030273e+00 4.413376748561859131e-01
3.719000000000000000e+03 5.131836700439453125e+01 -8.997888565063476562e+00 -4.412110745906829834e-01 5.993534564971923828e+00 1.665697097778320312e+00 -2.650465071201324463e-02
3.720000000000000000e+03 5.138468551635742188e+01 1.644426727294921875e+01 -8.040799498558044434e-01 8.304903030395507812e+00 2.250246763229370117e+00 7.637908309698104858e-02
3.721000000000000000e+03 5.249735260009765625e+01 1.095366668701171875e+01 -8.436757922172546387e-01 7.551580905914306641e+00 2.012371540069580078e+00 -1.014625281095504761e-01
3.722000000000000000e+03 4.786852645874023438e+01 -6.223081111907958984e+00 -4.753281176090240479e-01 5.561201095581054688e+00 1.525761842727661133e+00 1.044121012091636658e-01
3.723000000000000000e+03 4.954758453369140625e+01 -6.644425868988037109e+00 -4.933207631111145020e-01 5.809451103210449219e+00 1.594839096069335938e+00 4.891653358936309814e-02
3.724000000000000000e+03 5.168383026123046875e+01 7.121743202209472656e+00 -8.076937794685363770e-01 7.012308597564697266e+00 1.861384391784667969e+00 -2.867198083549737930e-03
3.725000000000000000e+03 5.123787307739257812e+01 1.094919395446777344e+01 -8.471459746360778809e-01 7.402582645416259766e+00 1.966631054878234863e+00 6.769456714391708374e-02
3.726000000000000000e+03 5.178566741943359375e+01 -1.061462116241455078e+01 -4.048049747943878174e-01 6.011356353759765625e+00 1.681965351104736328e+00 -3.998713940382003784e-02
3.727000000000000000e+03 4.994933700561523438e+01 -5.075156688690185547e+00 -5.199921727180480957e-01 5.934051513671875000e+00 1.624217748641967773e+00 3.796923905611038208e-02
3.728000000000000000e+03 4.770967102050781250e+01 1.752058982849121094e+01 -6.583326458930969238e-01 7.756309986114501953e+00 2.129393100738525391e+00 9.054013490676879883e-01
3.729000000000000000e+03 4.797406005859375000e+01 1.633791923522949219e+01 -7.153669595718383789e-01 7.570388793945312500e+00 2.056506633758544922e+00 7.798892855644226074e-01
3.730000000000000000e+03 4.898638916015625000e+01 1.462651348114013672e+01 -7.925050854682922363e-01 7.543276786804199219e+00 2.025231599807739258e+00 5.039501190185546875e-01
3.731000000000000000e+03 4.866024398803710938e+01 1.159593200683593750e+01 -7.910017371177673340e-01 6.999928951263427734e+00 1.862678170204162598e+00 4.371094405651092529e-01
3.732000000000000000e+03 4.983316040039062500e+01 1.730322837829589844e+01 -7.645139694213867188e-01 8.236408233642578125e+00 2.241568326950073242e+00 4.060320258140563965e-01
3.733000000000000000e+03 4.981594085693359375e+01 1.407103729248046875e+01 -8.193601965904235840e-01 7.610038280487060547e+00 2.037203550338745117e+00 3.354012966156005859e-01
3.734000000000000000e+03 4.829064941406250000e+01 1.389885902404785156e+01 -7.690427303314208984e-01 7.275538444519042969e+00 1.951948761940002441e+00 5.715379714965820312e-01
3.735000000000000000e+03 5.114076232910156250e+01 9.761850357055664062e+00 -8.413453102111816406e-01 7.229672431945800781e+00 1.916498064994812012e+00 7.348436862230300903e-02
3.736000000000000000e+03 5.000588989257812500e+01 1.077491092681884766e+01 -8.309816122055053711e-01 7.176834583282470703e+00 1.903755784034729004e+00 2.398708462715148926e-01
3.737000000000000000e+03 5.398517990112304688e+01 -1.157821941375732422e+01 -3.790584206581115723e-01 6.294643878936767578e+00 1.774675607681274414e+00 -9.642347693443298340e-02
3.738000000000000000e+03 4.738773345947265625e+01 -1.721250343322753906e+01 -2.581980228424072266e-01 5.201462268829345703e+00 1.482979297637939453e+00 3.327772393822669983e-02
3.739000000000000000e+03 5.126187133789062500e+01 -1.694101905822753906e+01 -2.873932123184204102e-01 5.787250518798828125e+00 1.649957180023193359e+00 -1.753118634223937988e-02
3.740000000000000000e+03 4.501791381835937500e+01 -1.868090820312500000e+01 -2.340212911367416382e-01 4.784325599670410156e+00 1.365091204643249512e+00 7.764692604541778564e-02
3.741000000000000000e+03 4.865097808837890625e+01 1.536511707305908203e+01 -7.727729082107543945e-01 7.577395439147949219e+00 2.041386842727661133e+00 5.833913683891296387e-01
3.742000000000000000e+03 5.041854095458984375e+01 1.502730560302734375e+01 -8.312839269638061523e-01 7.894819736480712891e+00 2.119060754776000977e+00 2.653549313545227051e-01
3.743000000000000000e+03 4.989241409301757812e+01 1.183511447906494141e+01 -8.309115767478942871e-01 7.289743900299072266e+00 1.937649726867675781e+00 2.772771418094635010e-01
3.744000000000000000e+03 5.003163909912109375e+01 9.679608345031738281e+00 -8.262686729431152344e-01 7.043744087219238281e+00 1.865242600440979004e+00 2.085975408554077148e-01
3.745000000000000000e+03 4.707696914672851562e+01 -1.928405952453613281e+01 -2.450897842645645142e-01 5.128342151641845703e+00 1.464975714683532715e+00 3.592858836054801941e-02
3.746000000000000000e+03 4.930488204956054688e+01 -1.955318069458007812e+01 -2.346000522375106812e-01 5.459261894226074219e+00 1.567398548126220703e+00 2.245577052235603333e-03
3.747000000000000000e+03 5.067216873168945312e+01 1.336286449432373047e+01 -8.419758677482604980e-01 7.645332336425781250e+00 2.041007041931152344e+00 1.785261183977127075e-01
3.748000000000000000e+03 5.164418029785156250e+01 -1.945807647705078125e+01 -2.421675473451614380e-01 5.805896282196044922e+00 1.669118642807006836e+00 -2.102851681411266327e-02
3.749000000000000000e+03 5.169350814819335938e+01 -2.244906234741210938e+01 -1.992167830467224121e-01 5.785838603973388672e+00 1.675986528396606445e+00 -1.921953260898590088e-02
3.750000000000000000e+03 3.344804000854492188e+01 -2.226739883422851562e+01 -8.818297833204269409e-02 2.939976453781127930e+00 8.555380105972290039e-01 1.406777501106262207e-01
3.751000000000000000e+03 5.404111480712890625e+01 -2.622631645202636719e+01 -1.537343561649322510e-01 6.068399429321289062e+00 1.774399399757385254e+00 -3.355414420366287231e-02
3.752000000000000000e+03 1.819291496276855469e+01 -4.126161956787109375e+01 4.531656578183174133e-02 3.465139269828796387e-01 1.175491437315940857e-01 5.098406597971916199e-02
3.753000000000000000e+03 6.619691467285156250e+01 -3.751914596557617188e+01 -3.412255272269248962e-02 7.814227581024169922e+00 2.334031581878662109e+00 -2.160825207829475403e-02
3.754000000000000000e+03 6.440248870849609375e+01 3.429518890380859375e+01 8.901780843734741211e-01 7.920872211456298828e+00 2.643315076828002930e+00 -5.327776074409484863e-01
3.755000000000000000e+03 3.405881118774414062e+01 -2.708128929138183594e+01 -7.121846079826354980e-02 2.999805450439453125e+00 8.785760998725891113e-01 7.316715270280838013e-02
3.756000000000000000e+03 6.640522766113281250e+01 3.642458343505859375e+01 6.651133298873901367e-01 7.443395137786865234e+00 2.432552576065063477e+00 -3.594926893711090088e-01
3.757000000000000000e+03 6.975239276885986328e+00 3.624742507934570312e+01 2.008564333664253354e-04 -1.191882765851914883e-03 -2.973079099319875240e-04 -1.057152287103235722e-03
3.758000000000000000e+03 7.669820785522460938e+00 3.447257995605468750e+01 -8.681455510668456554e-04 1.704972703009843826e-03 2.510481281206011772e-04 9.589293040335178375e-04
3.759000000000000000e+03 4.136729812622070312e+01 -2.256731796264648438e+01 -1.683374047279357910e-01 4.119795322418212891e+00 1.185437321662902832e+00 7.574308663606643677e-02
3.760000000000000000e+03 4.436429977416992188e+01 -2.096577644348144531e+01 -2.093203812837600708e-01 4.652759075164794922e+00 1.333031654357910156e+00 5.791671201586723328e-02
3.761000000000000000e+03 4.367151260375976562e+01 -2.329978370666503906e+01 -1.736398488283157349e-01 4.546027183532714844e+00 1.311716079711914062e+00 5.457008630037307739e-02
3.762000000000000000e+03 5.950897979736328125e+01 -2.697066307067871094e+01 -1.189358159899711609e-01 6.837538242340087891e+00 2.015580654144287109e+00 -6.936682015657424927e-02
3.763000000000000000e+03 6.142594337463378906e+00 3.835383224487304688e+01 -4.137681098654866219e-04 1.345354598015546799e-03 2.794759639073163271e-04 8.755411254242062569e-04
3.764000000000000000e+03 3.454244995117187500e+01 -2.980680847167968750e+01 -6.964112073183059692e-02 3.067463397979736328e+00 8.993467092514038086e-01 4.826058074831962585e-02
3.765000000000000000e+03 5.312818908691406250e+01 3.873377227783203125e+01 1.166356801986694336e-01 1.225549221038818359e+01 3.711638450622558594e+00 1.111356139183044434e+00
3.766000000000000000e+03 6.175326156616210938e+01 -3.722877120971679688e+01 -6.146875768899917603e-02 7.179125308990478516e+00 2.135296821594238281e+00 -1.999058388173580170e-02
3.767000000000000000e+03 5.720143890380859375e+01 -3.724087142944335938e+01 -8.314115554094314575e-02 6.477911472320556641e+00 1.918431162834167480e+00 -1.652458868920803070e-02
3.768000000000000000e+03 4.075131225585937500e+01 -3.638400268554687500e+01 -8.496847003698348999e-02 4.053529262542724609e+00 1.190568208694458008e+00 1.545132137835025787e-02
3.769000000000000000e+03 3.643296051025390625e+01 -3.761479568481445312e+01 -5.796367302536964417e-02 3.375546216964721680e+00 9.952747821807861328e-01 7.135199382901191711e-03
3.770000000000000000e+03 7.150853729248046875e+01 -4.093442535400390625e+01 -1.203047670423984528e-02 8.644160270690917969e+00 2.589638948440551758e+00 -1.142510585486888885e-02
3.771000000000000000e+03 6.084527587890625000e+01 -3.347983551025390625e+01 -8.026047050952911377e-02 7.048716545104980469e+00 2.090536832809448242e+00 -3.428046032786369324e-02
3.772000000000000000e+03 6.382372665405273438e+01 -3.221796798706054688e+01 -6.694491952657699585e-02 7.474462509155273438e+00 2.222255229949951172e+00 -5.489043891429901123e-02
3.773000000000000000e+03 3.482828903198242188e+01 -2.328637886047363281e+01 -8.688201755285263062e-02 3.125143289566040039e+00 9.114783406257629395e-01 1.206076070666313171e-01
3.774000000000000000e+03 3.875248718261718750e+01 -2.568223762512207031e+01 -1.180172637104988098e-01 3.721238136291503906e+00 1.080966234207153320e+00 7.360697537660598755e-02
3.775000000000000000e+03 4.851696777343750000e+01 -2.501358032226562500e+01 -1.651919335126876831e-01 5.283688068389892578e+00 1.535548806190490723e+00 1.284530758857727051e-02
3.776000000000000000e+03 5.044078445434570312e+01 -2.899027824401855469e+01 -1.279112100601196289e-01 5.522557258605957031e+00 1.618393778800964355e+00 -6.911741802468895912e-04
3.777000000000000000e+03 4.176924896240234375e+01 -2.719976997375488281e+01 -1.229836419224739075e-01 4.167792320251464844e+00 1.213442683219909668e+00 4.868771880865097046e-02
3.778000000000000000e+03 5.700709152221679688e+01 -3.365347290039062500e+01 -9.749380499124526978e-02 6.467104911804199219e+00 1.910883307456970215e+00 -3.532908111810684204e-02
3.779000000000000000e+03 4.094160461425781250e+01 -2.502192306518554688e+01 -1.357805579900741577e-01 4.055360794067382812e+00 1.175874114036560059e+00 6.842560321092605591e-02
3.780000000000000000e+03 4.940000152587890625e+01 -3.242849349975585938e+01 -1.097514182329177856e-01 5.331393718719482422e+00 1.566492676734924316e+00 8.265334181487560272e-03
3.781000000000000000e+03 3.718712615966796875e+01 -2.958558273315429688e+01 -9.210753440856933594e-02 3.474599361419677734e+00 1.014747500419616699e+00 6.766577064990997314e-02
3.782000000000000000e+03 4.617493820190429688e+01 -3.097405815124511719e+01 -1.105611547827720642e-01 4.892948150634765625e+00 1.434715986251831055e+00 1.692094281315803528e-02
3.783000000000000000e+03 4.362672805786132812e+01 -2.911633491516113281e+01 -1.188005283474922180e-01 4.474019050598144531e+00 1.306565642356872559e+00 2.163256146013736725e-02
3.784000000000000000e+03 4.758575439453125000e+01 -2.796148109436035156e+01 -1.413092762231826782e-01 5.112562179565429688e+00 1.491375923156738281e+00 2.006000094115734100e-02
3.785000000000000000e+03 5.266876220703125000e+01 -3.692356872558593750e+01 -9.532560408115386963e-02 5.813408851623535156e+00 1.715425014495849609e+00 -1.868166588246822357e-02
3.786000000000000000e+03 4.509231567382812500e+01 -2.672540664672851562e+01 -1.476140022277832031e-01 4.750679016113281250e+00 1.380919575691223145e+00 3.017909824848175049e-02
3.787000000000000000e+03 4.297602844238281250e+01 -2.552360725402832031e+01 -1.431788951158523560e-01 4.403089523315429688e+00 1.277973175048828125e+00 4.310034587979316711e-02
3.788000000000000000e+03 4.386506271362304688e+01 3.515356445312500000e+01 8.945435285568237305e-01 3.360669851303100586e+00 1.276564002037048340e+00 -2.529540300369262695e+00
3.789000000000000000e+03 4.075034713745117188e+01 3.581954956054687500e+01 -5.226368904113769531e-01 2.512856721878051758e-01 -8.140536397695541382e-02 1.473144255578517914e-02
3.790000000000000000e+03 4.170660018920898438e+01 3.686990356445312500e+01 4.559445679187774658e-01 1.297117948532104492e+00 5.259187817573547363e-01 -6.795858740806579590e-01
3.791000000000000000e+03 4.420306015014648438e+01 3.461491775512695312e+01 1.180166006088256836e+00 3.287789821624755859e+00 1.340386748313903809e+00 -2.968542575836181641e+00
3.792000000000000000e+03 4.438973236083984375e+01 3.460058593750000000e+01 1.304285168647766113e+00 4.172108650207519531e+00 1.642918229103088379e+00 -3.333239316940307617e+00
3.793000000000000000e+03 4.462749099731445312e+01 3.478305053710937500e+01 1.278932213783264160e+00 5.899721622467041016e+00 2.153596162796020508e+00 -3.961438417434692383e+00
3.794000000000000000e+03 4.439593124389648438e+01 3.483652114868164062e+01 1.176844954490661621e+00 4.619620323181152344e+00 1.738939523696899414e+00 -3.465188026428222656e+00
3.795000000000000000e+03 3.765401077270507812e+01 3.756276702880859375e+01 -8.901544660329818726e-02 2.782567739486694336e-01 5.677239969372749329e-02 5.345104932785034180e-01
3.796000000000000000e+03 3.606592178344726562e+01 3.756796646118164062e+01 -1.901291012763977051e-01 -2.179926931858062744e-01 -1.224365383386611938e-01 6.632471084594726562e-01
3.797000000000000000e+03 3.532820510864257812e+01 3.730055236816406250e+01 -1.860303878784179688e-01 -2.821368873119354248e-01 -1.404501795768737793e-01 6.784374713897705078e-01
3.798000000000000000e+03 2.701054382324218750e+01 3.933600997924804688e+01 -2.656580507755279541e-02 -7.335820049047470093e-02 -2.997720241546630859e-02 8.786142617464065552e-02
3.799000000000000000e+03 4.524460983276367188e+01 3.071465301513671875e+01 4.124168872833251953e+00 1.093247509002685547e+01 4.516993045806884766e+00 7.181436061859130859e+00
3.800000000000000000e+03 4.485293960571289062e+01 3.097917175292968750e+01 5.389282703399658203e+00 7.348294258117675781e+00 3.821273088455200195e+00 7.169951438903808594e+00
3.801000000000000000e+03 4.402910995483398438e+01 3.137351799011230469e+01 4.536991119384765625e+00 1.968421459197998047e+00 1.951623797416687012e+00 3.807364225387573242e+00
3.802000000000000000e+03 4.383466339111328125e+01 3.139699363708496094e+01 4.248156070709228516e+00 1.541263222694396973e+00 1.736825823783874512e+00 3.348480939865112305e+00
3.803000000000000000e+03 4.366292953491210938e+01 3.111592483520507812e+01 4.065107822418212891e+00 1.872624158859252930e+00 1.781319618225097656e+00 3.505327463150024414e+00
3.804000000000000000e+03 4.319951248168945312e+01 3.096727180480957031e+01 3.431724548339843750e+00 1.548959851264953613e+00 1.494205355644226074e+00 2.897080183029174805e+00
3.805000000000000000e+03 7.803862762451171875e+01 4.164328765869140625e+01 -1.103373765945434570e-01 3.998962402343750000e+00 1.166587471961975098e+00 3.093547374010086060e-02
3.806000000000000000e+03 1.270654082298278809e+00 2.704834222793579102e+00 1.182498235721141100e-04 -2.162998280255123973e-04 -2.941500133601948619e-05 1.203176361741498113e-05
3.807000000000000000e+03 2.362641716003417969e+01 -3.893810272216796875e+01 -1.960787735879421234e-02 1.389952659606933594e+00 4.111034274101257324e-01 6.327542476356029510e-03
3.808000000000000000e+03 2.442668676376342773e+00 2.682077884674072266e+00 -4.047267138957977295e-04 -1.933729508891701698e-04 -1.794298877939581871e-04 4.566522329696454108e-05
3.809000000000000000e+03 1.044523239135742188e+01 -3.652344512939453125e+01 -1.456561731174588203e-03 1.632377388887107372e-03 5.274468639981932938e-05 4.920513834804296494e-03
3.810000000000000000e+03 3.126455116271972656e+01 3.838622283935546875e+01 -4.103437811136245728e-02 -2.531270384788513184e-01 -8.824842423200607300e-02 3.050413429737091064e-01
3.811000000000000000e+03 3.331910324096679688e+01 3.845626831054687500e+01 4.939154163002967834e-02 -3.578360974788665771e-01 -9.253336489200592041e-02 3.775896728038787842e-01
3.812000000000000000e+03 1.880671691894531250e+01 3.829015731811523438e+01 -1.281184726394712925e-03 3.118329215794801712e-03 5.511433701030910015e-04 -4.445391241461038589e-03
3.813000000000000000e+03 1.967622184753417969e+01 3.876402282714843750e+01 1.118092238903045654e-02 -2.198937349021434784e-03 2.694595372304320335e-03 -5.403847433626651764e-03
3.814000000000000000e+03 1.810301208496093750e+01 3.850338745117187500e+01 1.035147719085216522e-02 3.032316162716597319e-04 3.196412697434425354e-03 -6.681851227767765522e-04
3.815000000000000000e+03 4.504669570922851562e+01 3.017694282531738281e+01 3.460637569427490234e+00 9.834108352661132812e+00 3.988424062728881836e+00 6.468247890472412109e+00
3.816000000000000000e+03 4.536420822143554688e+01 3.035255622863769531e+01 3.283664941787719727e+00 1.172460365295410156e+01 4.502480506896972656e+00 6.904119014739990234e+00
3.817000000000000000e+03 1.063973999023437500e+01 -2.056873130798339844e+01 -5.582358571700751781e-04 -2.187809004681184888e-04 -2.331050200155004859e-04 1.026767422445118427e-03
3.818000000000000000e+03 7.827351379394531250e+01 3.565300369262695312e+01 5.000863224267959595e-02 4.139235496520996094e+00 1.256773352622985840e+00 -5.667541176080703735e-02
3.819000000000000000e+03 4.559653091430664062e+01 3.008526992797851562e+01 2.322628021240234375e+00 1.351372814178466797e+01 4.750906944274902344e+00 5.848964214324951172e+00
3.820000000000000000e+03 4.584252166748046875e+01 3.541331100463867188e+01 -5.366894006729125977e-01 1.349273681640625000e+01 3.886814117431640625e+00 -3.517074823379516602e+00
3.821000000000000000e+03 4.573593139648437500e+01 3.470267868041992188e+01 -3.150028362870216370e-02 1.413077926635742188e+01 4.229783535003662109e+00 -4.546644687652587891e+00
3.822000000000000000e+03 4.476530075073242188e+01 3.541648864746093750e+01 6.175878047943115234e-01 8.168716430664062500e+00 2.635891437530517578e+00 -3.824510574340820312e+00
3.823000000000000000e+03 4.496018600463867188e+01 3.506888580322265625e+01 6.069349050521850586e-01 8.723761558532714844e+00 2.799208879470825195e+00 -4.355656147003173828e+00
3.824000000000000000e+03 4.467390060424804688e+01 3.507117080688476562e+01 8.371500968933105469e-01 6.430247783660888672e+00 2.180219411849975586e+00 -3.743242502212524414e+00
3.825000000000000000e+03 2.942059040069580078e+00 -2.964783430099487305e+00 -2.041396655840799212e-04 9.889389912132173777e-05 -3.157373066642321646e-05 -8.382075611734762788e-05
3.826000000000000000e+03 4.459704208374023438e+01 3.062993621826171875e+01 4.502161026000976562e+00 6.666639328002929688e+00 3.350640058517456055e+00 6.254684448242187500e+00
3.827000000000000000e+03 4.467687606811523438e+01 2.995336532592773438e+01 3.477638483047485352e+00 8.105574607849121094e+00 3.474963903427124023e+00 6.051178455352783203e+00
3.828000000000000000e+03 4.407315063476562500e+01 3.500619506835937500e+01 1.059752583503723145e+00 3.896472215652465820e+00 1.486867427825927734e+00 -2.822200775146484375e+00
3.829000000000000000e+03 2.301620483398437500e+01 -2.529302787780761719e+01 -6.712734699249267578e-03 1.317585945129394531e+00 3.932619690895080566e-01 5.124313384294509888e-02
3.830000000000000000e+03 4.287789535522460938e+01 3.050772857666015625e+01 3.268912315368652344e+00 1.773137807846069336e+00 1.512615084648132324e+00 2.894358634948730469e+00
3.831000000000000000e+03 4.361164474487304688e+01 3.072895240783691406e+01 4.098060131072998047e+00 2.578383207321166992e+00 2.002933025360107422e+00 3.987004756927490234e+00
3.832000000000000000e+03 4.384571456909179688e+01 3.112672042846679688e+01 4.367708683013916016e+00 2.183476924896240234e+00 1.965355634689331055e+00 3.885324954986572266e+00
3.833000000000000000e+03 4.440005493164062500e+01 3.103096199035644531e+01 5.189107418060302734e+00 4.454811573028564453e+00 2.893175601959228516e+00 5.524696826934814453e+00
3.834000000000000000e+03 1.251303291320800781e+01 -3.374413013458251953e+00 -7.088499842211604118e-04 1.511150330770760775e-04 -1.673204824328422546e-04 -8.459270611638203263e-05
3.835000000000000000e+03 1.912123107910156250e+01 3.873035430908203125e+01 1.061438396573066711e-02 3.351230407133698463e-03 4.189684521406888962e-03 -1.176894269883632660e-02
3.836000000000000000e+03 4.924729537963867188e+01 3.598826599121093750e+01 9.573250412940979004e-01 1.486081027984619141e+01 4.745440483093261719e+00 1.932543516159057617e+00
3.837000000000000000e+03 4.433035278320312500e+01 3.556290817260742188e+01 7.525328993797302246e-01 5.495865345001220703e+00 1.874519467353820801e+00 -3.109984636306762695e+00
3.838000000000000000e+03 7.599562835693359375e+01 3.444910049438476562e+01 1.175736188888549805e-01 5.011505603790283203e+00 1.538723707199096680e+00 -3.093091249465942383e-01
3.839000000000000000e+03 7.758809661865234375e+01 3.487494277954101562e+01 8.927993476390838623e-02 4.367124557495117188e+00 1.336921334266662598e+00 -1.489265561103820801e-01
3.840000000000000000e+03 4.412174224853515625e+01 3.092096710205078125e+01 4.710144996643066406e+00 3.471045017242431641e+00 2.454356908798217773e+00 4.834174156188964844e+00
3.841000000000000000e+03 4.432978057861328125e+01 3.077125549316406250e+01 4.685881137847900391e+00 4.798297405242919922e+00 2.845253705978393555e+00 5.575816154479980469e+00
3.842000000000000000e+03 4.494283676147460938e+01 3.586637115478515625e+01 1.332365125417709351e-01 8.641338348388671875e+00 2.632372617721557617e+00 -3.753714084625244141e+00
3.843000000000000000e+03 4.442964172363281250e+01 3.030459213256835938e+01 4.145784854888916016e+00 6.461714744567871094e+00 3.182249784469604492e+00 5.926165103912353516e+00
3.844000000000000000e+03 3.234319686889648438e+00 -3.736830472946166992e+00 3.110795223619788885e-04 -1.674436061875894666e-04 4.309077121433801949e-05 4.492171283345669508e-04
3.845000000000000000e+03 1.093628120422363281e+01 -4.398312091827392578e+00 3.789862385019659996e-04 2.285925293108448386e-04 1.822736376198008657e-04 -3.695953346323221922e-04
3.846000000000000000e+03 2.389266395568847656e+01 -3.241967391967773438e+01 1.610659435391426086e-02 1.443927168846130371e+00 4.380101263523101807e-01 4.755930230021476746e-02
3.847000000000000000e+03 4.399011230468750000e+01 3.037280082702636719e+01 4.247748374938964844e+00 4.443871974945068359e+00 2.607486248016357422e+00 5.067532062530517578e+00
3.848000000000000000e+03 4.491137695312500000e+01 2.950051498413085938e+01 2.627444505691528320e+00 9.510801315307617188e+00 3.641473770141601562e+00 5.593648433685302734e+00
3.849000000000000000e+03 1.066887855529785156e+01 2.025072860717773438e+01 8.316046441905200481e-04 -1.044563687173649669e-04 2.181444870075210929e-04 5.892086774110794067e-04
3.850000000000000000e+03 1.175421047210693359e+01 3.361097335815429688e+01 -4.228071775287389755e-03 6.850583595223724842e-04 -1.062904018908739090e-03 -1.092479680664837360e-03
3.851000000000000000e+03 4.503144454956054688e+01 2.902661514282226562e+01 2.074160337448120117e+00 9.790785789489746094e+00 3.559483766555786133e+00 5.139944553375244141e+00
3.852000000000000000e+03 4.376792526245117188e+01 2.999369812011718750e+01 3.762346982955932617e+00 4.388246059417724609e+00 2.445177793502807617e+00 4.727600097656250000e+00
3.853000000000000000e+03 1.165034008026123047e+01 3.498721313476562500e+01 4.289115313440561295e-03 -1.349805155768990517e-03 8.817929774522781372e-04 2.169348997995257378e-03
3.854000000000000000e+03 4.806066894531250000e+01 2.812822151184082031e+01 7.655803561210632324e-01 1.323815345764160156e+01 4.201120376586914062e+00 1.015448927879333496e+00
3.855000000000000000e+03 8.669209480285644531e+00 -3.354143524169921875e+01 -6.308879237622022629e-03 4.925797838950529695e-05 -1.877886359579861164e-03 -2.410276094451546669e-03
3.856000000000000000e+03 4.179170989990234375e+01 2.958836174011230469e+01 2.630331277847290039e+00 1.670736789703369141e+00 1.290320396423339844e+00 2.417651653289794922e+00
3.857000000000000000e+03 3.768044948577880859e+00 6.347629547119140625e+00 -5.341111682355403900e-04 -2.777304907795041800e-04 -2.435524947941303253e-04 5.116898100823163986e-04
3.858000000000000000e+03 2.261675262451171875e+01 -3.213566970825195312e+01 5.061126314103603363e-03 1.278255939483642578e+00 3.849951326847076416e-01 4.241836071014404297e-02
3.859000000000000000e+03 2.539652633666992188e+01 -3.325798797607421875e+01 4.372680559754371643e-03 1.671778440475463867e+00 5.028453469276428223e-01 1.846005395054817200e-02
3.860000000000000000e+03 3.079340362548828125e+01 -3.315805053710937500e+01 -1.733819954097270966e-02 2.511108160018920898e+00 7.481310367584228516e-01 2.495332993566989899e-02
3.861000000000000000e+03 4.375282287597656250e+01 3.032826042175292969e+01 4.046625137329101562e+00 3.843151569366455078e+00 2.366932868957519531e+00 4.610413551330566406e+00
3.862000000000000000e+03 5.397693157196044922e+00 2.942100715637207031e+01 -1.285964535782113671e-04 -2.321521023986861110e-04 -1.082245726138353348e-04 7.276690448634326458e-04
3.863000000000000000e+03 4.205317306518554688e+01 2.894941329956054688e+01 2.704463005065917969e+00 2.518968820571899414e+00 1.567029476165771484e+00 2.963042497634887695e+00
3.864000000000000000e+03 6.634660243988037109e+00 -1.947109031677246094e+01 -7.797937141731381416e-04 -7.394856074824929237e-04 -4.557837964966893196e-04 -4.216778615955263376e-04
3.865000000000000000e+03 4.399240493774414062e+01 2.815453338623046875e+01 2.176148414611816406e+00 6.792232990264892578e+00 2.690514564514160156e+00 4.473057270050048828e+00
3.866000000000000000e+03 6.099249362945556641e+00 1.640039443969726562e+01 -1.270006177946925163e-03 -6.947311248950427398e-06 -3.830860659945756197e-04 -6.827588076703250408e-04
3.867000000000000000e+03 5.850821971893310547e+00 1.788167381286621094e+01 1.627859892323613167e-03 -1.564105150464456528e-05 4.836656444240361452e-04 6.110750255174934864e-04
3.868000000000000000e+03 4.443691635131835938e+01 2.794543266296386719e+01 1.728411316871643066e+00 7.981781482696533203e+00 2.913057804107666016e+00 4.356096744537353516e+00
3.869000000000000000e+03 1.023599147796630859e+01 -6.158267974853515625e+00 -5.155021790415048599e-04 2.417336800135672092e-04 -8.213055116357281804e-05 -2.124243183061480522e-04
3.870000000000000000e+03 7.307304382324218750e+01 2.115750122070312500e+01 3.627138957381248474e-02 6.754629135131835938e+00 2.037270069122314453e+00 -9.628583788871765137e-01
3.871000000000000000e+03 2.931329727172851562e+01 2.943696594238281250e+01 1.717904582619667053e-02 1.101577058434486389e-01 3.820102661848068237e-02 -3.459999263286590576e-01
3.872000000000000000e+03 4.211767959594726562e+01 2.829784393310546875e+01 2.523481369018554688e+00 3.230224132537841797e+00 1.726111650466918945e+00 3.192647933959960938e+00
3.873000000000000000e+03 2.665325546264648438e+01 2.881023979187011719e+01 3.068235144019126892e-02 -4.297390580177307129e-02 -3.687466494739055634e-03 -3.450567424297332764e-01
3.874000000000000000e+03 7.977364063262939453e+00 6.774602413177490234e+00 -6.641451182076707482e-05 -1.047818950610235333e-04 -5.135892206453718245e-05 2.454447676427662373e-04
3.875000000000000000e+03 7.392864227294921875e+00 2.708427429199218750e+01 -1.688594347797334194e-03 -3.071676474064588547e-04 -5.987285985611379147e-04 1.499213394708931446e-04
3.876000000000000000e+03 7.270300292968750000e+01 2.470085144042968750e+01 1.100330501794815063e-01 6.493612766265869141e+00 1.981093645095825195e+00 -9.180321693420410156e-01
3.877000000000000000e+03 7.111374664306640625e+01 -2.554224967956542969e+01 -3.714977204799652100e-02 8.511130332946777344e+00 2.542194366455078125e+00 -7.765356451272964478e-02
3.878000000000000000e+03 7.307713317871093750e+01 2.221672058105468750e+01 6.321104615926742554e-02 6.635160923004150391e+00 2.009511709213256836e+00 -9.509608745574951172e-01
3.879000000000000000e+03 4.490538406372070312e+01 2.657644081115722656e+01 9.368255138397216797e-01 8.608847618103027344e+00 2.863701820373535156e+00 3.599088191986083984e+00
3.880000000000000000e+03 2.842170906066894531e+01 -5.682760238647460938e+00 -7.514309138059616089e-02 1.895143151283264160e+00 5.460000038146972656e-01 3.322885632514953613e-01
3.881000000000000000e+03 4.423283386230468750e+01 2.738687324523925781e+01 1.563566565513610840e+00 7.413249492645263672e+00 2.693044900894165039e+00 4.047907352447509766e+00
3.882000000000000000e+03 3.195807456970214844e+01 -1.175903511047363281e+01 -1.209572181105613708e-01 2.615636825561523438e+00 7.484038472175598145e-01 2.609112262725830078e-01
3.883000000000000000e+03 3.013845443725585938e+01 -3.078732490539550781e+01 -3.267043456435203552e-02 2.403026580810546875e+00 7.111068367958068848e-01 5.871634185314178467e-02
3.884000000000000000e+03 8.499051094055175781e+00 -5.629283428192138672e+00 -3.785143780987709761e-04 -2.427211002213880420e-04 -1.863706420408561826e-04 1.044929304043762386e-04
3.885000000000000000e+03 3.370815658569335938e+01 -1.243483638763427734e+01 -1.484635621309280396e-01 2.928323268890380859e+00 8.339579105377197266e-01 2.624663710594177246e-01
3.886000000000000000e+03 7.182190704345703125e+01 1.800295829772949219e+01 -3.681285679340362549e-02 7.150005817413330078e+00 2.133957862854003906e+00 -1.060107827186584473e+00
3.887000000000000000e+03 7.171656799316406250e+01 -2.460640335083007812e+01 -3.728174418210983276e-02 8.592160224914550781e+00 2.566463470458984375e+00 -7.992511987686157227e-02
3.888000000000000000e+03 5.266616058349609375e+01 2.528107261657714844e+01 4.830509722232818604e-01 1.049266052246093750e+01 3.292713642120361328e+00 -8.109132051467895508e-01
3.889000000000000000e+03 5.706790542602539062e+01 1.988318061828613281e+01 -2.987571954727172852e-01 8.920323371887207031e+00 2.586469888687133789e+00 -1.046401619911193848e+00
3.890000000000000000e+03 7.206929779052734375e+01 -2.334946823120117188e+01 -3.045178949832916260e-02 8.660348892211914062e+00 2.588969230651855469e+00 -9.580713510513305664e-02
3.891000000000000000e+03 7.196866512298583984e+00 2.831106567382812500e+01 1.139163621701300144e-03 9.493560646660625935e-04 6.265558768063783646e-04 -8.127758628688752651e-04
3.892000000000000000e+03 4.272731399536132812e+01 2.541044998168945312e+01 1.322355031967163086e+00 5.445192813873291016e+00 2.030264377593994141e+00 3.100657224655151367e+00
3.893000000000000000e+03 3.454549407958984375e+01 -1.060455989837646484e+01 -1.781040132045745850e-01 3.100103139877319336e+00 8.765997886657714844e-01 2.961332798004150391e-01
3.894000000000000000e+03 4.321508789062500000e+01 2.538905525207519531e+01 1.170313000679016113e+00 6.043872833251953125e+00 2.164255619049072266e+00 3.182280540466308594e+00
3.895000000000000000e+03 4.708226013183593750e+01 2.336011505126953125e+01 -2.418677657842636108e-01 9.217611312866210938e+00 2.692723035812377930e+00 1.665708303451538086e+00
3.896000000000000000e+03 6.298789596557617188e+01 -1.525140190124511719e+01 -2.054629921913146973e-01 7.381742477416992188e+00 2.152883768081665039e+00 -2.139448225498199463e-01
3.897000000000000000e+03 5.748883819580078125e+01 -1.537761306762695312e+01 -2.706066370010375977e-01 6.684431552886962891e+00 1.924147367477416992e+00 -1.333078742027282715e-01
3.898000000000000000e+03 3.075735092163085938e+01 2.562013816833496094e+01 5.207316875457763672e-01 4.103662371635437012e-01 2.793293893337249756e-01 -5.255910102277994156e-03
3.899000000000000000e+03 6.993362426757812500e+01 1.438868427276611328e+01 -1.637751162052154541e-01 7.560059547424316406e+00 2.218885183334350586e+00 -1.110489368438720703e+00
3.900000000000000000e+03 2.919671630859375000e+01 2.526463127136230469e+01 3.689303100109100342e-01 2.556110322475433350e-01 1.873624026775360107e-01 -1.073163375258445740e-01
3.901000000000000000e+03 5.103092575073242188e+01 2.106789779663085938e+01 -5.423979163169860840e-01 9.409646987915039062e+00 2.660174846649169922e+00 7.743144035339355469e-02
3.902000000000000000e+03 5.225738906860351562e+01 1.987771415710449219e+01 -6.016911268234252930e-01 9.149764060974121094e+00 2.564421653747558594e+00 -2.018134146928787231e-01
3.903000000000000000e+03 6.975095367431640625e+01 -1.533013248443603516e+01 -1.008551046252250671e-01 8.258624076843261719e+00 2.447330713272094727e+00 -2.056732326745986938e-01
3.904000000000000000e+03 5.002750015258789062e+01 2.022800445556640625e+01 -6.273921132087707520e-01 9.076835632324218750e+00 2.534832954406738281e+00 3.895519077777862549e-01
3.905000000000000000e+03 3.778113555908203125e+01 -7.724778175354003906e+00 -2.664059996604919434e-01 3.713626146316528320e+00 1.034166097640991211e+00 3.237435221672058105e-01
3.906000000000000000e+03 6.642195129394531250e+01 -1.617314720153808594e+01 -1.399123519659042358e-01 7.821120262145996094e+00 2.304362297058105469e+00 -2.092245668172836304e-01
3.907000000000000000e+03 5.022708129882812500e+01 -1.113421440124511719e+01 -3.959891498088836670e-01 5.768058300018310547e+00 1.611620664596557617e+00 4.955081734806299210e-03
3.908000000000000000e+03 5.563339614868164062e+01 1.657410430908203125e+01 -6.726310849189758301e-01 8.558191299438476562e+00 2.365668058395385742e+00 -6.740887761116027832e-01
3.909000000000000000e+03 4.044940185546875000e+01 -6.707111358642578125e+00 -3.433098196983337402e-01 4.205626964569091797e+00 1.158695101737976074e+00 3.344494700431823730e-01
3.910000000000000000e+03 7.043350982666015625e+01 -3.107155799865722656e+00 -1.684488058090209961e-01 8.141803741455078125e+00 2.392006635665893555e+00 -4.664591252803802490e-01
3.911000000000000000e+03 6.756784820556640625e+01 -7.856209754943847656e+00 -2.062747627496719360e-01 7.932087421417236328e+00 2.317743778228759766e+00 -3.747847080230712891e-01
3.912000000000000000e+03 6.128005599975585938e+01 1.315253925323486328e+01 -5.402330756187438965e-01 8.074090957641601562e+00 2.260157585144042969e+00 -1.038951039314270020e+00
3.913000000000000000e+03 3.886808776855468750e+01 2.660163307189941406e+01 1.651562809944152832e+00 1.750538110733032227e+00 1.020630240440368652e+00 1.558709621429443359e+00
3.914000000000000000e+03 6.712784576416015625e+01 -1.332547950744628906e+01 -1.578186154365539551e-01 7.906655311584472656e+00 2.324651002883911133e+00 -2.549521028995513916e-01
3.915000000000000000e+03 6.323203277587890625e+01 1.249313640594482422e+01 -4.595330357551574707e-01 7.956833362579345703e+00 2.249190092086791992e+00 -1.089596986770629883e+00
3.916000000000000000e+03 6.749326324462890625e+01 -1.658677864074707031e+01 -1.219354942440986633e-01 7.971844673156738281e+00 2.354972839355468750e+00 -2.055049538612365723e-01
3.917000000000000000e+03 4.603797912597656250e+01 1.945759582519531250e+01 -4.115936458110809326e-01 7.516166687011718750e+00 2.131371974945068359e+00 1.458257317543029785e+00
3.918000000000000000e+03 3.722933959960937500e+01 2.512888717651367188e+01 1.333584070205688477e+00 1.631451606750488281e+00 8.895106911659240723e-01 1.219636440277099609e+00
3.919000000000000000e+03 5.109286880493164062e+01 1.943781089782714844e+01 -6.696488857269287109e-01 8.938175201416015625e+00 2.480557918548583984e+00 1.062737554311752319e-01
3.920000000000000000e+03 6.272574615478515625e+01 1.378036499023437500e+01 -4.549803435802459717e-01 8.020858764648437500e+00 2.269763469696044922e+00 -1.123925089836120605e+00
3.921000000000000000e+03 5.093622207641601562e+01 2.044584274291992188e+01 -5.934575796127319336e-01 9.217017173767089844e+00 2.587067842483520508e+00 1.421154439449310303e-01
3.922000000000000000e+03 5.489258956909179688e+01 1.252142524719238281e+01 -8.059731125831604004e-01 8.009657859802246094e+00 2.161105394363403320e+00 -4.394536614418029785e-01
3.923000000000000000e+03 3.704055786132812500e+01 2.432432937622070312e+01 1.249794602394104004e+00 1.797342896461486816e+00 9.141412377357482910e-01 1.260079860687255859e+00
3.924000000000000000e+03 4.636858367919921875e+01 1.866801071166992188e+01 -4.959697127342224121e-01 7.512678623199462891e+00 2.105012655258178711e+00 1.291526794433593750e+00
3.925000000000000000e+03 3.891688537597656250e+01 4.209867954254150391e+00 -3.589394390583038330e-01 4.069561004638671875e+00 1.113186478614807129e+00 7.094386816024780273e-01
3.926000000000000000e+03 3.685904312133789062e+01 9.350768089294433594e+00 -1.561014950275421143e-01 3.529056310653686523e+00 1.011886477470397949e+00 9.312697649002075195e-01
3.927000000000000000e+03 6.098506164550781250e+01 8.114274024963378906e+00 -6.126602888107299805e-01 7.796839237213134766e+00 2.155253648757934570e+00 -7.940416336059570312e-01
3.928000000000000000e+03 6.650612640380859375e+01 -9.595153331756591797e-01 -3.187158405780792236e-01 7.826611995697021484e+00 2.252368927001953125e+00 -5.795159935951232910e-01
3.929000000000000000e+03 5.057643127441406250e+01 1.607650184631347656e+01 -8.054768443107604980e-01 8.119500160217285156e+00 2.194207191467285156e+00 2.291534245014190674e-01
3.930000000000000000e+03 5.045190811157226562e+01 -3.214011669158935547e+00 -5.797445178031921387e-01 6.087450504302978516e+00 1.652311801910400391e+00 3.474745899438858032e-02
3.931000000000000000e+03 4.947450256347656250e+01 1.533329010009765625e+01 -8.053334951400756836e-01 7.776644706726074219e+00 2.091393232345581055e+00 4.373297691345214844e-01
3.932000000000000000e+03 4.910860824584960938e+01 1.335281276702880859e+01 -8.002736568450927734e-01 7.354084968566894531e+00 1.966143369674682617e+00 4.251026511192321777e-01
3.933000000000000000e+03 3.814728546142578125e+01 1.788024902343750000e+01 3.937604725360870361e-01 3.498613834381103516e+00 1.167712330818176270e+00 1.414144515991210938e+00
3.934000000000000000e+03 4.792955398559570312e+01 7.150025844573974609e+00 -7.424201369285583496e-01 6.366136550903320312e+00 1.687114953994750977e+00 3.563700616359710693e-01
3.935000000000000000e+03 4.629019165039062500e+01 1.263746547698974609e+01 -6.704187393188476562e-01 6.552390575408935547e+00 1.764591574668884277e+00 7.709243893623352051e-01
3.936000000000000000e+03 3.862977981567382812e+01 1.290415859222412109e+01 -6.679550558328628540e-02 3.996284484863281250e+00 1.178846716880798340e+00 1.162060379981994629e+00
3.937000000000000000e+03 4.867050552368164062e+01 1.256791400909423828e+01 -7.944853901863098145e-01 7.134198188781738281e+00 1.901913762092590332e+00 4.753907620906829834e-01
3.938000000000000000e+03 5.022855758666992188e+01 7.589376449584960938e+00 -7.990764379501342773e-01 6.838533401489257812e+00 1.811837196350097656e+00 1.422618627548217773e-01
3.939000000000000000e+03 1.426702117919921875e+01 1.252673983573913574e+00 2.101515128742903471e-04 -4.280416760593652725e-06 6.176133319968357682e-05 2.092030917992815375e-04
3.940000000000000000e+03 1.462149238586425781e+01 1.164639949798583984e+00 -6.055803969502449036e-04 -1.045874305418692529e-04 -2.130503562511876225e-04 6.346665031742304564e-05
3.941000000000000000e+03 1.332876110076904297e+01 1.093653082847595215e+00 5.208603033679537475e-05 7.454317528754472733e-05 3.798876059590838850e-05 7.704235031269490719e-05
3.942000000000000000e+03 1.406522464752197266e+01 3.572364747524261475e-01 6.770028994651511312e-05 4.530873775365762413e-05 3.390270649106241763e-05 5.023694029659964144e-06
3.943000000000000000e+03 1.336003494262695312e+01 3.511472940444946289e-01 -2.778055204544216394e-05 -8.303992945002391934e-05 -3.324614590383134782e-05 -2.912936906795948744e-05
3.944000000000000000e+03 1.476313018798828125e+01 5.016638040542602539e-01 -2.402802238066215068e-05 -2.525003947084769607e-05 -1.478341891925083473e-05 -1.170514315163018182e-05
3.945000000000000000e+03 1.414069938659667969e+01 9.322270154953002930e-01 -3.549672255758196115e-04 1.246603060280904174e-04 -6.909207877470180392e-05 -1.842443452915176749e-04
3.946000000000000000e+03 1.384797477722167969e+01 1.187353014945983887e+00 -2.620933264552149922e-05 1.458174028812209144e-05 -3.488277570795617066e-06 -7.603764242958277464e-05
3.947000000000000000e+03 1.112969017028808594e+01 3.708996772766113281e-01 4.411736881593242288e-05 6.083764674258418381e-05 3.148650284856557846e-05 -1.536943273094948381e-05
3.948000000000000000e+03 1.113907623291015625e+01 1.110847473144531250e+00 -1.482830557506531477e-04 -4.131922833039425313e-05 -5.688068267772905529e-05 3.929873855668120086e-05
3.949000000000000000e+03 1.263169097900390625e+01 3.451149165630340576e-01 3.222428131266497076e-05 1.049835336743853986e-04 4.116234413231723011e-05 -6.252320190469617955e-07
3.950000000000000000e+03 1.037880802154541016e+01 3.837110698223114014e-01 -5.048291859566234052e-05 -4.175545473117381334e-05 -2.767151090665720403e-05 5.051916105003328994e-06
3.951000000000000000e+03 1.188065242767333984e+01 3.580341637134552002e-01 -3.851353903883136809e-05 -8.957213140092790127e-05 -3.842570004053413868e-05 1.399553639203077182e-05
3.952000000000000000e+03 1.264514160156250000e+01 1.084993243217468262e+00 -7.421972986776381731e-05 -7.982224633451551199e-05 -4.621259358827956021e-05 5.895275990042136982e-06
3.953000000000000000e+03 1.038616180419921875e+01 1.123693704605102539e+00 1.587216393090784550e-04 3.946245851693674922e-05 5.945522934780456126e-05 -6.769688297936227173e-06
3.954000000000000000e+03 1.189207077026367188e+01 1.097947120666503906e+00 1.098710126825608313e-04 6.352432683343067765e-05 5.201860039960592985e-05 -4.722686935565434396e-05
3.955000000000000000e+03 9.625078201293945312e+00 3.871397972106933594e-01 4.909105700789950788e-05 4.841273403144441545e-05 2.925113767560105771e-05 1.142628661909839138e-05
3.956000000000000000e+03 8.868724822998046875e+00 3.828192353248596191e-01 -4.884972804575227201e-05 -7.801847823429852724e-05 -3.806046152021735907e-05 -2.269946526212152094e-05
3.957000000000000000e+03 9.644926071166992188e+00 1.127139806747436523e+00 -1.563451223773881793e-04 -5.516618330148048699e-05 -6.345339352265000343e-05 -2.942227001767605543e-05
3.958000000000000000e+03 8.112174034118652344e+00 3.804100155830383301e-01 4.715708200819790363e-05 1.146245485870167613e-04 4.853448990616016090e-05 2.880413194361608475e-05
3.959000000000000000e+03 7.356014251708984375e+00 3.793691694736480713e-01 -4.797532528755255044e-05 -1.454243465559557080e-04 -5.801990118925459683e-05 -3.073229527217335999e-05
3.960000000000000000e+03 5.843623161315917969e+00 3.767499327659606934e-01 -4.661571438191458583e-05 -1.564903359394520521e-04 -6.093181582400575280e-05 -2.288720497745089233e-05
3.961000000000000000e+03 5.088051319122314453e+00 3.757717311382293701e-01 3.612669388530775905e-05 1.306476915488019586e-04 5.003231854061596096e-05 9.162221431324724108e-06
3.962000000000000000e+03 3.576755046844482422e+00 3.680583238601684570e-01 4.713612725026905537e-05 5.237067307461984456e-05 2.985203900607302785e-05 -2.141277036571409553e-06
3.963000000000000000e+03 2.822042465209960938e+00 3.613462746143341064e-01 -6.686974666081368923e-05 -3.656296394183300436e-05 -3.102981281699612737e-05 -8.452781912637874484e-06
3.964000000000000000e+03 2.068703651428222656e+00 3.577998280525207520e-01 4.783945041708648205e-05 3.452787132118828595e-05 2.471019615768454969e-05 9.580886398907750845e-06
3.965000000000000000e+03 2.358754634857177734e+00 1.097799897193908691e+00 -1.413849240634590387e-04 -6.086556822992861271e-05 -6.067514550522901118e-05 -2.041753941739443690e-05
3.966000000000000000e+03 1.327708005905151367e+00 3.658417165279388428e-01 -4.621078915079124272e-06 -7.111075774446362630e-06 -3.519646497807116248e-06 3.119251050520688295e-05
3.967000000000000000e+03 1.644779324531555176e+00 1.105841755867004395e+00 6.966648652451112866e-05 1.143232657341286540e-04 5.519692422240041196e-05 1.194368178403237835e-05
3.968000000000000000e+03 6.509408354759216309e-01 3.937322795391082764e-01 -1.348004298051819205e-04 -1.054162421496585011e-04 -7.206499867606908083e-05 -1.547880674479529262e-04
3.969000000000000000e+03 3.482567369937896729e-01 9.569563269615173340e-01 2.261537010781466961e-04 1.461179490434005857e-04 1.116814964916557074e-04 3.874766480294056237e-05
3.970000000000000000e+03 3.085073232650756836e+00 1.101346254348754883e+00 1.612220512470230460e-04 5.551530193770304322e-05 6.502120959339663386e-05 3.976620348566939356e-07
3.971000000000000000e+03 3.812765598297119141e+00 1.108058333396911621e+00 -1.429162366548553109e-04 -7.870854460634291172e-05 -6.648743874393403530e-05 2.883496199501678348e-05
3.972000000000000000e+03 4.332499980926513672e+00 3.732680678367614746e-01 -4.669063491746783257e-05 -8.908817108022049069e-05 -4.073364107171073556e-05 1.240119559042796027e-06
3.973000000000000000e+03 5.998572826385498047e+00 1.116749882698059082e+00 1.061888106050901115e-04 1.315700355917215347e-04 7.132765313144773245e-05 4.524293217400554568e-06
3.974000000000000000e+03 6.600036144256591797e+00 3.784387111663818359e-01 4.546265336102806032e-05 1.604527496965602040e-04 6.177461909828707576e-05 2.849508928193245083e-05
3.975000000000000000e+03 8.186062812805175781e+00 1.120409965515136719e+00 -1.302748423768207431e-04 -1.007043683785013855e-04 -6.929376104380935431e-05 -5.314697773428633809e-05
3.976000000000000000e+03 8.915593147277832031e+00 1.122819185256958008e+00 1.410532277077436447e-04 7.711076614214107394e-05 6.544919597217813134e-05 5.046511068940162659e-05
3.977000000000000000e+03 7.456923484802246094e+00 1.119369149208068848e+00 1.226229651365429163e-04 1.186647277791053057e-04 7.238631224026903510e-05 4.272249134373851120e-05
3.978000000000000000e+03 6.727965354919433594e+00 1.118438720703125000e+00 -1.174459757748991251e-04 -1.301511074416339397e-04 -7.427912350976839662e-05 -2.752807267825119197e-05
3.979000000000000000e+03 5.270021438598632812e+00 1.115771770477294922e+00 -1.001096461550332606e-04 -1.270147913601249456e-04 -6.813733489252626896e-05 1.521433750895084813e-05
3.980000000000000000e+03 4.541490077972412109e+00 1.113268017768859863e+00 1.050587306963279843e-04 1.104101247619837523e-04 6.464065518230199814e-05 -3.484424451016820967e-05
3.981000000000000000e+03 9.950323700904846191e-01 1.133732318878173828e+00 4.249124322086572647e-05 -2.380637743044644594e-04 -5.867175786988809705e-05 7.693156658206135035e-05
3.982000000000000000e+03 7.951600551605224609e+00 -3.791473805904388428e-01 -5.356999463401734829e-05 -2.898592792917042971e-04 -1.030287821777164936e-04 5.159001011634245515e-05
3.983000000000000000e+03 8.812386512756347656e+00 -1.121279358863830566e+00 -1.267828920390456915e-04 -1.738310820655897260e-04 -9.018419223139062524e-05 8.704722858965396881e-05
3.984000000000000000e+03 9.587816238403320312e+00 -3.863115906715393066e-01 -4.858444663113914430e-05 -1.849889231380075216e-04 -7.007201202213764191e-05 4.445659942575730383e-05
3.985000000000000000e+03 7.132064342498779297e+00 -3.779651820659637451e-01 5.889624299015849829e-05 3.176215977873653173e-04 1.129553565988317132e-04 -5.904597128392197192e-05
3.986000000000000000e+03 6.306247234344482422e+00 -3.772793114185333252e-01 -5.221860919846221805e-05 -3.288646112196147442e-04 -1.143249683082103729e-04 5.916796726523898542e-05
3.987000000000000000e+03 5.442752361297607422e+00 -3.835102021694183350e-01 -8.001129003787355032e-07 2.970687055494636297e-04 8.888058073353022337e-05 -8.575632818974554539e-06
3.988000000000000000e+03 4.552286148071289062e+00 -3.399353623390197754e-01 -4.744121542898938060e-05 -2.791630977299064398e-04 -9.798129758564755321e-05 -3.403666050871834159e-05
3.989000000000000000e+03 4.371328830718994141e+00 -8.708365559577941895e-01 3.359259862918406725e-04 1.660868147155269980e-04 1.506038388470187783e-04 1.770866801962256432e-04
3.990000000000000000e+03 2.785328388214111328e+00 -7.796061038970947266e-01 1.444552908651530743e-04 -1.230514026246964931e-04 6.421165380743332207e-06 3.516321594361215830e-04
3.991000000000000000e+03 1.180722951889038086e+00 -3.608860373497009277e-01 -3.050804953090846539e-04 1.162244807346723974e-04 -5.665680146194063127e-05 -4.310782969696447253e-05
3.992000000000000000e+03 4.099212884902954102e-01 -5.526853203773498535e-01 -1.795261960069183260e-05 -1.117282226914539933e-04 -3.890425068675540388e-05 -6.356238736771047115e-05
3.993000000000000000e+03 7.477942705154418945e-01 -1.100885987281799316e+00 8.765456732362508774e-04 1.206661909236572683e-04 2.991635410580784082e-04 1.646637683734297752e-04
3.994000000000000000e+03 9.597747802734375000e+00 -1.126311540603637695e+00 1.287785707972943783e-04 1.509432622697204351e-04 8.391655137529596686e-05 -1.064818134182132781e-04
3.995000000000000000e+03 8.026608467102050781e+00 -1.119147419929504395e+00 1.299303112318739295e-04 1.810505200410261750e-04 9.329424938187003136e-05 -6.715221388731151819e-05
3.996000000000000000e+03 7.239610195159912109e+00 -1.117965221405029297e+00 -1.359305315418168902e-04 -1.683903537923470140e-04 -9.129627142101526260e-05 4.563837501336820424e-05
3.997000000000000000e+03 6.446331024169921875e+00 -1.117279291152954102e+00 1.092558013624511659e-04 1.286734623135998845e-04 7.137878128560259938e-05 -1.873384826467372477e-05
3.998000000000000000e+03 5.615375041961669922e+00 -1.123510241508483887e+00 -2.100473466271068901e-05 -8.218298171414062381e-05 -3.095631473115645349e-05 -6.265810952754691243e-06
3.999000000000000000e+03 4.879715442657470703e+00 -1.221276640892028809e+00 -1.338350266451016068e-04 -8.476919902022927999e-05 -6.558126915479078889e-05 -1.201577251777052879e-04
4.000000000000000000e+03 4.223337173461914062e+00 -1.290901184082031250e+00 -2.044679276878014207e-04 1.257770491065457463e-04 -2.360726466577034444e-05 -1.675587554927915335e-05
4.001000000000000000e+03 3.489140987396240234e+00 -1.263193726539611816e+00 1.905654935399070382e-04 -1.899643757496960461e-05 5.147071715327911079e-05 2.453054185025393963e-04
4.002000000000000000e+03 2.723763942718505859e+00 -1.258556365966796875e+00 -3.766438749153167009e-05 -1.710784708848223090e-04 -6.262285751290619373e-05 -4.021287313662469387e-04
4.003000000000000000e+03 1.357383847236633301e+00 -1.202877521514892578e+00 -9.704979602247476578e-04 -3.094988642260432243e-04 -3.839990531560033560e-04 -9.670379949966445565e-05
4.004000000000000000e+03 8.769917488098144531e+00 -3.812793791294097900e-01 4.784867996932007372e-05 2.456463407725095749e-04 8.804850949672982097e-05 -4.804009950021281838e-05
4.005000000000000000e+03 3.581377506256103516e+00 -7.854385375976562500e-01 -1.952469901880249381e-04 -8.362058724742382765e-05 -8.366027032025158405e-05 -2.250236721010878682e-04
4.006000000000000000e+03 3.695749998092651367e+00 -2.822447717189788818e-01 4.734304093290120363e-05 2.737638133112341166e-04 9.633205627324059606e-05 8.760619675740599632e-05
4.007000000000000000e+03 2.864297151565551758e+00 -2.810497581958770752e-01 -1.219606638187542558e-04 -2.140598517144098878e-04 -1.008061517495661974e-04 -1.060820941347628832e-04
4.008000000000000000e+03 1.994235515594482422e+00 -3.319245874881744385e-01 8.407839231949765235e-06 7.551688031526282430e-05 2.517741631891112775e-05 1.644470903556793928e-04
4.009000000000000000e+03 1.981270551681518555e+00 -1.274680376052856445e+00 1.677867403486743569e-04 3.950443060602992773e-04 1.688493066467344761e-04 3.683141840156167746e-04
4.010000000000000000e+03 1.973554253578186035e+00 -8.466050028800964355e-01 3.880225413013249636e-04 1.838049502111971378e-04 1.715482503641396761e-04 -4.871938726864755154e-04
4.011000000000000000e+03 1.332448291778564453e+01 -3.621845245361328125e-01 6.820763519499450922e-05 -6.341581320157274604e-05 1.437545051885535941e-06 2.027636946877464652e-05
4.012000000000000000e+03 1.426397991180419922e+01 -1.317608714103698730e+00 -2.049177419394254684e-04 -1.186862427857704461e-04 -9.708119614515453577e-05 -9.023043821798637509e-05
4.013000000000000000e+03 1.327361392974853516e+01 -1.248556852340698242e+00 -2.095222153002396226e-04 -1.911833533085882664e-05 -6.859216227894648910e-05 1.559761876706033945e-04
4.014000000000000000e+03 1.480296707153320312e+01 -1.047354817390441895e+00 1.409756077919155359e-04 9.264492109650745988e-05 7.008615648373961449e-05 5.420502566266804934e-05
4.015000000000000000e+03 1.356446647644042969e+01 -7.579438090324401855e-01 -8.248255767284717876e-07 -2.251951627840753645e-05 -7.003302471275674179e-06 -1.615587243577465415e-04
4.016000000000000000e+03 1.393659019470214844e+01 -3.302382230758666992e-01 -2.685088475118391216e-06 5.386458360590040684e-05 1.535384762973990291e-05 5.006584615330211818e-05
4.017000000000000000e+03 1.449034786224365234e+01 -4.399540424346923828e-01 -9.898338612401857972e-05 -1.045053140842355788e-04 -6.104660860728472471e-05 -1.275060785701498389e-04
4.018000000000000000e+03 1.380024147033691406e+01 -1.352263331413269043e+00 3.703655384015291929e-04 -1.539290678920224309e-05 1.064917960320599377e-04 -4.848456592299044132e-05
4.019000000000000000e+03 1.402595424652099609e+01 -9.610455632209777832e-01 1.415673905285075307e-04 3.574150468921288848e-05 5.319267074810341001e-05 1.940262882271781564e-04
4.020000000000000000e+03 1.185737037658691406e+01 -1.162281751632690430e+00 -1.335945271421223879e-04 -4.782454561791382730e-05 -5.442572000902146101e-05 7.132389146136119962e-05
4.021000000000000000e+03 1.112013435363769531e+01 -4.102526009082794189e-01 -4.868195901508443058e-05 -5.996465915814042091e-05 -3.259398727095685899e-05 3.341166666359640658e-05
4.022000000000000000e+03 1.261753940582275391e+01 -4.348734915256500244e-01 -5.764982415712438524e-05 5.729986878577619791e-05 -1.049871727332174487e-07 3.123551869066432118e-05
4.023000000000000000e+03 1.037124824523925781e+01 -3.971002995967864990e-01 4.738379720947705209e-05 1.273006928386166692e-04 5.240534665063023567e-05 -4.129181616008281708e-05
4.024000000000000000e+03 1.036389350891113281e+01 -1.137082934379577637e+00 -1.494629977969452739e-04 -1.156617800006642938e-04 -7.953742897370830178e-05 1.152664190158247948e-04
4.025000000000000000e+03 1.260408973693847656e+01 -1.174751639366149902e+00 1.415120932506397367e-04 3.853599264402873814e-05 5.401442831498570740e-05 -7.805696805007755756e-05
4.026000000000000000e+03 1.111074829101562500e+01 -1.150200366973876953e+00 1.531947928015142679e-04 6.614989251829683781e-05 6.580340414075180888e-05 -9.478281572228297591e-05
4.027000000000000000e+03 1.186878871917724609e+01 -4.223687946796417236e-01 3.748369999811984599e-05 -5.961236411167192273e-07 1.106627314584329724e-05 -3.605452002375386655e-05
4.028000000000000000e+03 4.587921905517578125e+01 3.268391036987304688e+01 3.712368774414062500e+01 3.184102296829223633e+00 1.209233665466308594e+01 7.347064495086669922e+00
4.029000000000000000e+03 4.587971496582031250e+01 3.266444778442382812e+01 3.865368652343750000e+01 1.147698211669921875e+01 1.503919982910156250e+01 2.087038803100585938e+01
4.030000000000000000e+03 4.588398742675781250e+01 3.264545440673828125e+01 3.801771163940429688e+01 2.231982421875000000e+01 1.810126113891601562e+01 2.725190162658691406e+01
4.031000000000000000e+03 4.589187622070312500e+01 3.262765502929687500e+01 3.494992065429687500e+01 3.415188598632812500e+01 2.073054122924804688e+01 3.113260841369628906e+01
4.032000000000000000e+03 4.590307998657226562e+01 3.261173629760742188e+01 3.126820182800292969e+01 4.653816604614257812e+01 2.334190940856933594e+01 3.182156753540039062e+01
4.033000000000000000e+03 4.591717147827148438e+01 3.259830093383789062e+01 2.670359420776367188e+01 5.745027542114257812e+01 2.524616050720214844e+01 2.989933586120605469e+01
4.034000000000000000e+03 4.593360519409179688e+01 3.258786392211914062e+01 2.338649749755859375e+01 6.705811309814453125e+01 2.713338470458984375e+01 2.520639801025390625e+01
4.035000000000000000e+03 4.595175552368164062e+01 3.258082962036132812e+01 2.077796554565429688e+01 7.351825714111328125e+01 2.828886795043945312e+01 1.880455017089843750e+01
4.036000000000000000e+03 4.597093200683593750e+01 3.257746124267578125e+01 2.052449226379394531e+01 7.687287139892578125e+01 2.921920967102050781e+01 1.158222103118896484e+01
4.037000000000000000e+03 4.599039459228515625e+01 3.257788848876953125e+01 2.227490806579589844e+01 7.702468109130859375e+01 2.978987503051757812e+01 4.468228340148925781e+00
4.038000000000000000e+03 4.600940322875976562e+01 3.258209991455078125e+01 2.614396858215332031e+01 7.455544281005859375e+01 3.020982360839843750e+01 -1.506534457206726074e+00
4.039000000000000000e+03 4.602722549438476562e+01 3.258993148803710938e+01 3.003255462646484375e+01 6.962100219726562500e+01 2.989606666564941406e+01 -5.785151004791259766e+00
4.040000000000000000e+03 4.604318237304687500e+01 3.260108184814453125e+01 3.586797714233398438e+01 6.510913085937500000e+01 3.029313278198242188e+01 -7.373331069946289062e+00
4.041000000000000000e+03 4.605666732788085938e+01 3.261512374877929688e+01 4.098813247680664062e+01 5.893252563476562500e+01 2.997619819641113281e+01 -7.339177131652832031e+00
4.042000000000000000e+03 4.606715774536132812e+01 3.263152313232421875e+01 4.448460006713867188e+01 5.431529998779296875e+01 2.963996887207031250e+01 -5.703664779663085938e+00
4.043000000000000000e+03 4.607425308227539062e+01 3.264965438842773438e+01 4.814632034301757812e+01 5.195555496215820312e+01 3.003056335449218750e+01 -2.053326606750488281e+00
4.044000000000000000e+03 4.607768630981445312e+01 3.266881561279296875e+01 4.932070922851562500e+01 4.952682876586914062e+01 2.965426063537597656e+01 2.113739252090454102e+00
4.045000000000000000e+03 4.607732391357421875e+01 3.268828201293945312e+01 4.939231872558593750e+01 5.028327560424804688e+01 2.990267753601074219e+01 6.622784614562988281e+00
4.046000000000000000e+03 4.607317352294921875e+01 3.270730209350585938e+01 4.748077011108398438e+01 5.231464385986328125e+01 2.993862533569335938e+01 1.085430240631103516e+01
4.047000000000000000e+03 4.606540298461914062e+01 3.272515106201171875e+01 4.390736389160156250e+01 5.676540756225585938e+01 3.020182991027832031e+01 1.434372615814208984e+01
4.048000000000000000e+03 4.605430603027343750e+01 3.274114990234375000e+01 3.860095214843750000e+01 6.189728546142578125e+01 3.014947128295898438e+01 1.633620643615722656e+01
4.049000000000000000e+03 4.604030609130859375e+01 3.275467681884765625e+01 3.249405670166015625e+01 6.781188201904296875e+01 3.009178352355957031e+01 1.618831062316894531e+01
4.050000000000000000e+03 4.602394104003906250e+01 3.276522064208984375e+01 2.605808258056640625e+01 7.378165435791015625e+01 2.995192146301269531e+01 1.352377510070800781e+01
4.051000000000000000e+03 4.600583648681640625e+01 3.277238082885742188e+01 2.000543403625488281e+01 7.798489379882812500e+01 2.939709854125976562e+01 8.702054023742675781e+00
4.052000000000000000e+03 4.598668670654296875e+01 3.277587509155273438e+01 1.483847427368164062e+01 7.968370056152343750e+01 2.835665321350097656e+01 1.908344268798828125e+00
4.053000000000000000e+03 4.596722030639648438e+01 3.277557373046875000e+01 1.285301971435546875e+01 7.872731781005859375e+01 2.747410202026367188e+01 -5.627764225006103516e+00
4.054000000000000000e+03 4.594818496704101562e+01 3.277149200439453125e+01 1.145540332794189453e+01 7.347566986083984375e+01 2.547932243347167969e+01 -1.368355464935302734e+01
4.055000000000000000e+03 4.593030929565429688e+01 3.276378250122070312e+01 1.323941326141357422e+01 6.595889282226562500e+01 2.375949287414550781e+01 -1.998910713195800781e+01
4.056000000000000000e+03 4.591427612304687500e+01 3.275273513793945312e+01 1.558111858367919922e+01 5.480674362182617188e+01 2.111635780334472656e+01 -2.477090072631835938e+01
4.057000000000000000e+03 4.590069961547851562e+01 3.273878097534179688e+01 1.980125617980957031e+01 4.243070220947265625e+01 1.866958808898925781e+01 -2.652412223815917969e+01
4.058000000000000000e+03 4.589010238647460938e+01 3.272245407104492188e+01 2.327975463867187500e+01 2.838407516479492188e+01 1.549914932250976562e+01 -2.536312484741210938e+01
4.059000000000000000e+03 4.588288497924804688e+01 3.270437240600585938e+01 2.999593353271484375e+01 1.239472103118896484e+01 1.271719646453857422e+01 -1.709796142578125000e+01
