# el_label, x, y, sXX, sYY, sZZ, sXY
1.000000000000000000e+00 3.389686965942382812e+01 3.496657943725585938e+01 -5.799386501312255859e+00 -1.557040095329284668e+00 -2.206928014755249023e+00 -1.869844675064086914e+00
2.000000000000000000e+00 3.369864273071289062e+01 3.498455047607421875e+01 -6.635048985481262207e-01 6.210246682167053223e-01 -1.274406164884567261e-02 9.903338551521301270e-01
3.000000000000000000e+00 3.350041580200195312e+01 3.500252532958984375e+01 -2.033741712570190430e+00 -4.570958018302917480e-01 -7.472512125968933105e-01 2.698466181755065918e-01
4.000000000000000000e+00 3.330218505859375000e+01 3.502050018310546875e+01 -2.116281509399414062e+00 1.286121159791946411e-01 -5.963008403778076172e-01 5.444667339324951172e-01
5.000000000000000000e+00 3.389730834960937500e+01 3.490817642211914062e+01 9.273341178894042969e+00 -2.384483337402343750e+00 2.066657304763793945e+00 -4.916597306728363037e-01
6.000000000000000000e+00 3.369937515258789062e+01 3.488721466064453125e+01 2.964718580245971680e+00 -1.148841902613639832e-01 8.549503684043884277e-01 6.308141350746154785e-01
7.000000000000000000e+00 3.350144195556640625e+01 3.486625289916992188e+01 3.223138809204101562e+00 1.992774754762649536e-01 1.026724934577941895e+00 1.391207337379455566e+00
8.000000000000000000e+00 3.330350494384765625e+01 3.484529113769531250e+01 1.882834911346435547e+00 -1.796553134918212891e-01 5.109538435935974121e-01 8.012550473213195801e-01
9.000000000000000000e+00 3.390911102294921875e+01 3.485097503662109375e+01 1.624268150329589844e+01 -3.819821476936340332e-01 4.758210182189941406e+00 5.387012004852294922e+00
1.000000000000000000e+01 3.371904373168945312e+01 3.479188156127929688e+01 9.532953262329101562e+00 4.021401703357696533e-02 2.871950149536132812e+00 3.090811014175415039e+00
1.100000000000000000e+01 3.352897644042968750e+01 3.473278808593750000e+01 6.445487499237060547e+00 5.295222997665405273e-01 2.092503070831298828e+00 2.733810663223266602e+00
1.200000000000000000e+01 3.333891296386718750e+01 3.467369079589843750e+01 5.752632141113281250e+00 7.012969255447387695e-01 1.936178803443908691e+00 2.677350521087646484e+00
1.300000000000000000e+01 3.393182373046875000e+01 3.479716873168945312e+01 1.973463058471679688e+01 4.207516193389892578e+00 7.182644367218017578e+00 1.080123996734619141e+01
1.400000000000000000e+01 3.375689697265625000e+01 3.470220184326171875e+01 1.249180507659912109e+01 2.275127410888671875e+00 4.430079936981201172e+00 7.022548675537109375e+00
1.500000000000000000e+01 3.358197402954101562e+01 3.460723495483398438e+01 9.788073539733886719e+00 2.223565340042114258e+00 3.603491544723510742e+00 5.492959499359130859e+00
1.600000000000000000e+01 3.340704727172851562e+01 3.451227188110351562e+01 7.729859828948974609e+00 1.848491191864013672e+00 2.873505353927612305e+00 4.685911178588867188e+00
1.700000000000000000e+01 3.396457672119140625e+01 3.474880981445312500e+01 1.936489868164062500e+01 1.046085357666015625e+01 8.947726249694824219e+00 1.538458061218261719e+01
1.800000000000000000e+01 3.381148529052734375e+01 3.462160491943359375e+01 1.376568508148193359e+01 6.619847774505615234e+00 6.115660190582275391e+00 1.046010208129882812e+01
1.900000000000000000e+01 3.365839767456054688e+01 3.449440383911132812e+01 1.068631267547607422e+01 5.089530944824218750e+00 4.732753276824951172e+00 8.394771575927734375e+00
2.000000000000000000e+01 3.350530624389648438e+01 3.436719894409179688e+01 9.021696090698242188e+00 4.691843032836914062e+00 4.114061832427978516e+00 7.270055770874023438e+00
2.100000000000000000e+01 3.400611495971679688e+01 3.470775604248046875e+01 1.741317749023437500e+01 1.800811004638671875e+01 1.062638568878173828e+01 1.785124397277832031e+01
2.200000000000000000e+01 3.388071823120117188e+01 3.455318069458007812e+01 1.278059196472167969e+01 1.200668144226074219e+01 7.436182022094726562e+00 1.287537956237792969e+01
2.300000000000000000e+01 3.375532531738281250e+01 3.439860916137695312e+01 1.044507312774658203e+01 9.466943740844726562e+00 5.973605155944824219e+00 1.053963661193847656e+01
2.400000000000000000e+01 3.362992858886718750e+01 3.424403762817382812e+01 8.807855606079101562e+00 7.992102146148681641e+00 5.039987564086914062e+00 9.196504592895507812e+00
2.500000000000000000e+01 3.405485534667968750e+01 3.467557525634765625e+01 1.429017162322998047e+01 2.579528427124023438e+01 1.202563667297363281e+01 1.798327064514160156e+01
2.600000000000000000e+01 3.396195220947265625e+01 3.449954605102539062e+01 1.102767276763916016e+01 1.781393623352050781e+01 8.652482032775878906e+00 1.374073123931884766e+01
2.700000000000000000e+01 3.386904525756835938e+01 3.432351684570312500e+01 9.060245513916015625e+00 1.444670200347900391e+01 7.052084445953369141e+00 1.145981597900390625e+01
2.800000000000000000e+01 3.377614212036132812e+01 3.414748764038085938e+01 7.600910663604736328e+00 1.226267051696777344e+01 5.959074497222900391e+00 1.001391792297363281e+01
2.900000000000000000e+01 3.410892486572265625e+01 3.465349578857421875e+01 1.132449436187744141e+01 3.248025512695312500e+01 1.314142513275146484e+01 1.607686233520507812e+01
3.000000000000000000e+01 3.405206680297851562e+01 3.446274948120117188e+01 9.167413711547851562e+00 2.350732612609863281e+01 9.802421569824218750e+00 1.283883285522460938e+01
3.100000000000000000e+01 3.399520874023437500e+01 3.427200317382812500e+01 7.249765396118164062e+00 1.921930503845214844e+01 7.940721035003662109e+00 1.113147544860839844e+01
3.200000000000000000e+01 3.393835067749023438e+01 3.408125305175781250e+01 6.207010746002197266e+00 1.690951538085937500e+01 6.934957981109619141e+00 9.756916046142578125e+00
3.300000000000000000e+01 3.416625976562500000e+01 3.464236831665039062e+01 9.884836196899414062e+00 3.770267868041992188e+01 1.427625465393066406e+01 1.241760730743408203e+01
3.400000000000000000e+01 3.414762496948242188e+01 3.444419860839843750e+01 7.366661548614501953e+00 2.809086036682128906e+01 1.063725662231445312e+01 1.075757694244384766e+01
3.500000000000000000e+01 3.412899017333984375e+01 3.424603271484375000e+01 6.181379795074462891e+00 2.348286056518554688e+01 8.899271965026855469e+00 9.367962837219238281e+00
3.600000000000000000e+01 3.411035537719726562e+01 3.404786682128906250e+01 4.814532756805419922e+00 2.060201835632324219e+01 7.624965667724609375e+00 8.649415016174316406e+00
3.700000000000000000e+01 3.422466278076171875e+01 3.464261245727539062e+01 9.523237228393554688e+00 4.068039321899414062e+01 1.506108856201171875e+01 8.022335052490234375e+00
3.800000000000000000e+01 3.424496459960937500e+01 3.444461059570312500e+01 7.095157623291015625e+00 3.128396224975585938e+01 1.151373672485351562e+01 7.730050086975097656e+00
3.900000000000000000e+01 3.426526641845703125e+01 3.424660491943359375e+01 5.302625656127929688e+00 2.657246971130371094e+01 9.562528610229492188e+00 6.928434848785400391e+00
4.000000000000000000e+01 3.428556823730468750e+01 3.404860305786132812e+01 4.735539913177490234e+00 2.344865036010742188e+01 8.455256462097167969e+00 6.396654605865478516e+00
4.100000000000000000e+01 3.428190231323242188e+01 3.465422439575195312e+01 1.088763809204101562e+01 4.160076141357421875e+01 1.574652004241943359e+01 3.964499473571777344e+00
4.200000000000000000e+01 3.434036254882812500e+01 3.446396255493164062e+01 7.787207603454589844e+00 3.295973587036132812e+01 1.222408294677734375e+01 4.272202968597412109e+00
4.300000000000000000e+01 3.439882278442382812e+01 3.427369689941406250e+01 5.863444328308105469e+00 2.807033538818359375e+01 1.018013381958007812e+01 4.236218452453613281e+00
4.400000000000000000e+01 3.445728302001953125e+01 3.408343887329101562e+01 4.852972984313964844e+00 2.511490821838378906e+01 8.990364074707031250e+00 3.872827768325805664e+00
4.500000000000000000e+01 3.433578491210937500e+01 3.467675781250000000e+01 1.412341880798339844e+01 4.090295410156250000e+01 1.650791168212890625e+01 5.831372737884521484e-01
4.600000000000000000e+01 3.443016815185546875e+01 3.450151443481445312e+01 9.058443069458007812e+00 3.294562149047851562e+01 1.260122013092041016e+01 1.353030443191528320e+00
4.700000000000000000e+01 3.452454757690429688e+01 3.432627487182617188e+01 7.798676490783691406e+00 2.845722961425781250e+01 1.087677192687988281e+01 1.517493009567260742e+00
4.800000000000000000e+01 3.461893463134765625e+01 3.415103530883789062e+01 5.853708744049072266e+00 2.518668365478515625e+01 9.312117576599121094e+00 1.640684127807617188e+00
4.900000000000000000e+01 3.438425064086914062e+01 3.470934677124023438e+01 1.678181648254394531e+01 3.880277633666992188e+01 1.667537689208984375e+01 -1.621609330177307129e+00
5.000000000000000000e+01 3.451094436645507812e+01 3.455583572387695312e+01 1.238242530822753906e+01 3.197735977172851562e+01 1.330793571472167969e+01 -5.838128924369812012e-01
5.100000000000000000e+01 3.463763427734375000e+01 3.440232086181640625e+01 9.177747726440429688e+00 2.740918159484863281e+01 1.097607898712158203e+01 -5.129568576812744141e-01
5.200000000000000000e+01 3.476432800292968750e+01 3.424880981445312500e+01 8.633616447448730469e+00 2.513236618041992188e+01 1.012979412078857422e+01 -1.790710240602493286e-01
5.300000000000000000e+01 3.442544555664062500e+01 3.475075149536132812e+01 2.076345062255859375e+01 3.678060913085937500e+01 1.726321792602539062e+01 -2.083806514739990234e+00
5.400000000000000000e+01 3.457959747314453125e+01 3.462483978271484375e+01 1.476079082489013672e+01 2.982112503051757812e+01 1.337457466125488281e+01 -1.739775776863098145e+00
5.500000000000000000e+01 3.473375320434570312e+01 3.449892807006835938e+01 1.228839683532714844e+01 2.615868759155273438e+01 1.153412532806396484e+01 -1.158527255058288574e+00
5.600000000000000000e+01 3.488790893554687500e+01 3.437301635742187500e+01 9.846710205078125000e+00 2.339357185363769531e+01 9.972084999084472656e+00 -8.691687583923339844e-01
5.700000000000000000e+01 3.445778656005859375e+01 3.479938125610351562e+01 2.330119514465332031e+01 3.437437820434570312e+01 1.730267333984375000e+01 -1.619944930076599121e+00
5.800000000000000000e+01 3.463350677490234375e+01 3.470589065551757812e+01 1.787044715881347656e+01 2.794524574279785156e+01 1.374470806121826172e+01 -1.323980331420898438e+00
5.900000000000000000e+01 3.480922317504882812e+01 3.461240005493164062e+01 1.428360843658447266e+01 2.434480667114257812e+01 1.158852386474609375e+01 -1.008035778999328613e+00
6.000000000000000000e+01 3.498494338989257812e+01 3.451890945434570312e+01 1.254756832122802734e+01 2.125303459167480469e+01 1.014018058776855469e+01 -5.076370239257812500e-01
6.100000000000000000e+01 3.448004531860351562e+01 3.485337829589843750e+01 2.566572761535644531e+01 3.271255493164062500e+01 1.751348495483398438e+01 1.884019076824188232e-01
6.200000000000000000e+01 3.467060089111328125e+01 3.479588317871093750e+01 1.942560195922851562e+01 2.637942123413085938e+01 1.374150753021240234e+01 -1.561515480279922485e-01
6.300000000000000000e+01 3.486116027832031250e+01 3.473839569091796875e+01 1.643781661987304688e+01 2.267516517639160156e+01 1.173389434814453125e+01 3.221897482872009277e-01
6.400000000000000000e+01 3.505171585083007812e+01 3.468090057373046875e+01 1.411857604980468750e+01 2.039097785949707031e+01 1.035286617279052734e+01 -8.997307717800140381e-02
6.500000000000000000e+01 3.449136734008789062e+01 3.491067504882812500e+01 2.629033851623535156e+01 3.160321617126464844e+01 1.736806678771972656e+01 2.135670423507690430e+00
6.600000000000000000e+01 3.468946838378906250e+01 3.489138031005859375e+01 2.042614555358886719e+01 2.575877380371093750e+01 1.385547542572021484e+01 2.268074512481689453e+00
6.700000000000000000e+01 3.488757324218750000e+01 3.487208557128906250e+01 1.686117362976074219e+01 2.191555976867675781e+01 1.163302040100097656e+01 1.496372699737548828e+00
6.800000000000000000e+01 3.508567810058593750e+01 3.485279464721679688e+01 1.488193416595458984e+01 1.996380043029785156e+01 1.045372009277343750e+01 1.785978555679321289e+00
6.900000000000000000e+01 3.449131393432617188e+01 3.496907806396484375e+01 2.588934707641601562e+01 3.211902236938476562e+01 1.740251159667968750e+01 4.825270175933837891e+00
7.000000000000000000e+01 3.468938446044921875e+01 3.498872375488281250e+01 1.988027763366699219e+01 2.545721626281738281e+01 1.360124874114990234e+01 4.235678195953369141e+00
7.100000000000000000e+01 3.488745117187500000e+01 3.500836563110351562e+01 1.612120819091796875e+01 2.286432838439941406e+01 1.169566059112548828e+01 3.797186851501464844e+00
7.200000000000000000e+01 3.508552551269531250e+01 3.502800750732421875e+01 1.399392890930175781e+01 1.967897605895996094e+01 1.010187149047851562e+01 2.781636714935302734e+00
7.300000000000000000e+01 3.447989273071289062e+01 3.502635574340820312e+01 2.400046157836914062e+01 3.300366210937500000e+01 1.710123634338378906e+01 7.092727661132812500e+00
7.400000000000000000e+01 3.467034912109375000e+01 3.508418273925781250e+01 1.783352661132812500e+01 2.696361160278320312e+01 1.343914127349853516e+01 6.068335056304931641e+00
7.500000000000000000e+01 3.486080551147460938e+01 3.514200973510742188e+01 1.461149787902832031e+01 2.342185592651367188e+01 1.141000652313232422e+01 5.469385623931884766e+00
7.600000000000000000e+01 3.505126190185546875e+01 3.519983673095703125e+01 1.183947372436523438e+01 2.194426918029785156e+01 1.013512325286865234e+01 4.494816780090332031e+00
7.700000000000000000e+01 3.445754241943359375e+01 3.508031463623046875e+01 2.075700950622558594e+01 3.492388153076171875e+01 1.670426750183105469e+01 8.730569839477539062e+00
7.800000000000000000e+01 3.463309478759765625e+01 3.517411422729492188e+01 1.481365966796875000e+01 2.905527305603027344e+01 1.316067981719970703e+01 7.017784118652343750e+00
7.900000000000000000e+01 3.480864715576171875e+01 3.526791000366210938e+01 1.186443996429443359e+01 2.477275276184082031e+01 1.099115848541259766e+01 6.118309020996093750e+00
8.000000000000000000e+01 3.498420333862304688e+01 3.536170959472656250e+01 1.009715270996093750e+01 2.333468246459960938e+01 1.002955055236816406e+01 5.881997585296630859e+00
8.100000000000000000e+01 3.442511367797851562e+01 3.512888717651367188e+01 1.678430557250976562e+01 3.754808425903320312e+01 1.629971694946289062e+01 8.933444023132324219e+00
8.200000000000000000e+01 3.457904434204101562e+01 3.525506973266601562e+01 1.100332927703857422e+01 3.115627479553222656e+01 1.264788150787353516e+01 7.107077121734619141e+00
8.300000000000000000e+01 3.473297882080078125e+01 3.538124847412109375e+01 8.695543289184570312e+00 2.699722290039062500e+01 1.070783042907714844e+01 5.478428840637207031e+00
8.400000000000000000e+01 3.488691329956054688e+01 3.550743103027343750e+01 7.042330265045166016e+00 2.338043022155761719e+01 9.126828193664550781e+00 5.264998435974121094e+00
8.500000000000000000e+01 3.438384628295898438e+01 3.517021942138671875e+01 1.196369743347167969e+01 4.056701660156250000e+01 1.575921344757080078e+01 7.731816291809082031e+00
8.600000000000000000e+01 3.451026916503906250e+01 3.532395172119140625e+01 7.493698120117187500e+00 3.253026962280273438e+01 1.200718975067138672e+01 5.587589740753173828e+00
8.700000000000000000e+01 3.463669204711914062e+01 3.547768783569335938e+01 5.241422176361083984e+00 2.904217147827148438e+01 1.028507804870605469e+01 4.350172996520996094e+00
8.800000000000000000e+01 3.476311492919921875e+01 3.563142395019531250e+01 3.686054229736328125e+00 2.503490447998046875e+01 8.616288185119628906e+00 3.214007139205932617e+00
8.900000000000000000e+01 3.433532333374023438e+01 3.520272445678710938e+01 7.504276275634765625e+00 4.202783203125000000e+01 1.485963249206542969e+01 5.137165546417236328e+00
9.000000000000000000e+01 3.442940139770507812e+01 3.537813186645507812e+01 4.395713806152343750e+00 3.387192153930664062e+01 1.148029041290283203e+01 2.650449037551879883e+00
9.100000000000000000e+01 3.452347564697265625e+01 3.555353546142578125e+01 2.519767045974731445e+00 2.877710723876953125e+01 9.389062881469726562e+00 2.348455667495727539e+00
9.200000000000000000e+01 3.461754989624023438e+01 3.572894287109375000e+01 1.992986917495727539e+00 2.755837249755859375e+01 8.865407943725585938e+00 2.012024164199829102e+00
9.300000000000000000e+01 3.428140258789062500e+01 3.522516632080078125e+01 4.155333995819091797e+00 4.270916366577148438e+01 1.405934906005859375e+01 7.119123339653015137e-01
9.400000000000000000e+01 3.433953094482421875e+01 3.541552734375000000e+01 2.218108892440795898e+00 3.296706390380859375e+01 1.055555152893066406e+01 -5.714733004570007324e-01
9.500000000000000000e+01 3.439765548706054688e+01 3.560589218139648438e+01 9.374134540557861328e-01 2.829403686523437500e+01 8.769434928894042969e+00 -7.685361504554748535e-01
9.600000000000000000e+01 3.445578384399414062e+01 3.579625701904296875e+01 1.598940372467041016e+00 2.460685920715332031e+01 7.861740112304687500e+00 -1.264763325452804565e-01
9.700000000000000000e+01 3.422414398193359375e+01 3.523667526245117188e+01 2.687502145767211914e+00 4.095421600341796875e+01 1.309251499176025391e+01 -4.035469055175781250e+00
9.800000000000000000e+01 3.424409866333007812e+01 3.543471145629882812e+01 9.225528240203857422e-01 3.076723480224609375e+01 9.506936073303222656e+00 -4.471782684326171875e+00
9.900000000000000000e+01 3.426404953002929688e+01 3.563275146484375000e+01 1.078410863876342773e+00 2.558705711364746094e+01 7.999640464782714844e+00 -3.540135622024536133e+00
1.000000000000000000e+02 3.428400421142578125e+01 3.583078765869140625e+01 -1.821036450564861298e-02 2.166937637329101562e+01 6.495349884033203125e+00 -4.299741268157958984e+00
1.010000000000000000e+02 3.416573715209960938e+01 3.523681640625000000e+01 2.245332956314086914e+00 3.668878936767578125e+01 1.168023681640625000e+01 -9.124236106872558594e+00
1.020000000000000000e+02 3.414675521850585938e+01 3.543495178222656250e+01 1.770612716674804688e+00 2.684077644348144531e+01 8.583416938781738281e+00 -7.241653919219970703e+00
1.030000000000000000e+02 3.412777328491210938e+01 3.563308715820312500e+01 9.759662151336669922e-01 2.152231788635253906e+01 6.749485492706298828e+00 -6.869113922119140625e+00
1.040000000000000000e+02 3.410879135131835938e+01 3.583121871948242188e+01 2.215364724397659302e-01 1.936799621582031250e+01 5.876859664916992188e+00 -5.830305576324462891e+00
1.050000000000000000e+02 3.410842514038085938e+01 3.522558975219726562e+01 4.121824741363525391e+00 3.064912796020507812e+01 1.043128585815429688e+01 -1.235246181488037109e+01
1.060000000000000000e+02 3.405123138427734375e+01 3.541623687744140625e+01 2.838896751403808594e+00 2.099414634704589844e+01 7.149912834167480469e+00 -9.665431022644042969e+00
1.070000000000000000e+02 3.399403762817382812e+01 3.560688400268554688e+01 1.913966774940490723e+00 1.738819694519042969e+01 5.790649414062500000e+00 -8.036117553710937500e+00
1.080000000000000000e+02 3.393684768676757812e+01 3.579753112792968750e+01 1.456429839134216309e+00 1.467461872100830078e+01 4.839314460754394531e+00 -7.039578437805175781e+00
1.090000000000000000e+02 3.405438995361328125e+01 3.520341491699218750e+01 6.523828029632568359e+00 2.236428833007812500e+01 8.666435241699218750e+00 -1.404061222076416016e+01
1.100000000000000000e+02 3.396117782592773438e+01 3.537928009033203125e+01 4.356582164764404297e+00 1.513582897186279297e+01 5.847723007202148438e+00 -9.989745140075683594e+00
1.110000000000000000e+02 3.386796569824218750e+01 3.555514907836914062e+01 3.111182212829589844e+00 1.177672958374023438e+01 4.466373443603515625e+00 -8.023010253906250000e+00
1.120000000000000000e+02 3.377475357055664062e+01 3.573101425170898438e+01 2.264240980148315430e+00 1.057723236083984375e+01 3.852442026138305664e+00 -6.895406246185302734e+00
1.130000000000000000e+02 3.400571060180664062e+01 3.517114639282226562e+01 8.885139465332031250e+00 1.398238658905029297e+01 6.860257625579833984e+00 -1.298927021026611328e+01
1.140000000000000000e+02 3.388004302978515625e+01 3.532550430297851562e+01 5.155547142028808594e+00 8.586029052734375000e+00 4.122472763061523438e+00 -8.497279167175292969e+00
1.150000000000000000e+02 3.375437545776367188e+01 3.547985458374023438e+01 3.694562196731567383e+00 7.259966373443603516e+00 3.286358594894409180e+00 -6.596210479736328125e+00
1.160000000000000000e+02 3.362870788574218750e+01 3.563420867919921875e+01 2.580234050750732422e+00 6.005680084228515625e+00 2.575774192810058594e+00 -5.458234310150146484e+00
1.170000000000000000e+02 3.396424102783203125e+01 3.513002014160156250e+01 9.012309074401855469e+00 5.636233329772949219e+00 4.394562721252441406e+00 -9.437146186828613281e+00
1.180000000000000000e+02 3.381092834472656250e+01 3.525695800781250000e+01 4.877649307250976562e+00 3.575553417205810547e+00 2.535960912704467773e+00 -5.384516239166259766e+00
1.190000000000000000e+02 3.365761566162109375e+01 3.538389205932617188e+01 2.525686502456665039e+00 3.228971958160400391e+00 1.726397514343261719e+00 -3.880306005477905273e+00
1.200000000000000000e+02 3.350430297851562500e+01 3.551082611083984375e+01 1.819635629653930664e+00 3.357262134552001953e+00 1.553069353103637695e+00 -3.635461807250976562e+00
1.210000000000000000e+02 3.393157196044921875e+01 3.508160781860351562e+01 6.784804344177246094e+00 -1.036357641220092773e+00 1.724534034729003906e+00 -3.445600032806396484e+00
1.220000000000000000e+02 3.375648117065429688e+01 3.517626571655273438e+01 8.474970459938049316e-01 5.734972953796386719e-01 4.262982904911041260e-01 -1.298454165458679199e+00
1.230000000000000000e+02 3.358139038085937500e+01 3.527092742919921875e+01 5.485359430313110352e-01 1.686572194099426270e+00 6.705324053764343262e-01 -1.813563227653503418e+00
1.240000000000000000e+02 3.340629959106445312e+01 3.536558532714843750e+01 -3.472614288330078125e-01 5.178458094596862793e-01 5.117530375719070435e-02 -1.114920496940612793e+00
1.250000000000000000e+02 3.390895462036132812e+01 3.502775955200195312e+01 -5.274669647216796875e+00 -3.807204484939575195e+00 -2.724562406539916992e+00 3.120301246643066406e+00
1.260000000000000000e+02 3.371878433227539062e+01 3.508652114868164062e+01 -2.479219436645507812e+00 1.276444554328918457e+00 -3.608324229717254639e-01 6.871717423200607300e-02
1.270000000000000000e+02 3.352861785888671875e+01 3.514528274536132812e+01 -3.350048065185546875e+00 -7.399921417236328125e-01 -1.227012038230895996e+00 6.007172465324401855e-01
1.280000000000000000e+02 3.333844757080078125e+01 3.520404434204101562e+01 -3.557365417480468750e+00 2.852657437324523926e-01 -9.816299080848693848e-01 7.043987512588500977e-01
1.290000000000000000e+02 2.333872413635253906e+01 3.602074050903320312e+01 -3.696956634521484375e-01 7.879388867877423763e-04 -1.106723174452781677e-01 -8.170410245656967163e-02
1.300000000000000000e+02 2.389290046691894531e+01 3.609888076782226562e+01 -5.009560585021972656e-01 5.940520670264959335e-03 -1.485046595335006714e-01 -7.651091367006301880e-02
1.310000000000000000e+02 2.284308815002441406e+01 3.526721954345703125e+01 -2.193476557731628418e-01 -2.762659639120101929e-02 -7.409227639436721802e-02 -2.073566317558288574e-01
1.320000000000000000e+02 2.421754455566406250e+01 3.556056594848632812e+01 -4.593918323516845703e-01 1.181398238986730576e-02 -1.342733502388000488e-01 -1.950181871652603149e-01
1.330000000000000000e+02 2.498613166809082031e+01 3.604191207885742188e+01 -7.470953464508056641e-01 1.352285966277122498e-02 -2.200717478990554810e-01 -4.602210223674774170e-02
1.340000000000000000e+02 2.485820960998535156e+01 3.530118560791015625e+01 -5.406844615936279297e-01 4.108845442533493042e-02 -1.498787999153137207e-01 -2.140912711620330811e-01
1.350000000000000000e+02 2.364893722534179688e+01 3.528245925903320312e+01 -3.396453261375427246e-01 4.627509973943233490e-03 -1.005053445696830750e-01 -2.414204627275466919e-01
1.360000000000000000e+02 2.269410705566406250e+01 3.600639724731445312e+01 -2.397339344024658203e-01 4.670521244406700134e-03 -7.051902264356613159e-02 -8.841081708669662476e-02
1.370000000000000000e+02 2.440931320190429688e+01 3.610589981079101562e+01 -6.651739478111267090e-01 3.233392024412751198e-03 -1.985821723937988281e-01 -6.277663260698318481e-02
1.380000000000000000e+02 2.713174057006835938e+01 3.578996658325195312e+01 -1.370336532592773438e+00 7.303140591830015182e-03 -4.089100360870361328e-01 7.252530753612518311e-02
1.390000000000000000e+02 2.639669990539550781e+01 3.588855361938476562e+01 -1.147228002548217773e+00 1.624440029263496399e-02 -3.392950594425201416e-01 3.460545465350151062e-02
1.400000000000000000e+02 2.560692596435546875e+01 3.524289321899414062e+01 -6.721959710121154785e-01 8.156454563140869141e-02 -1.771894395351409912e-01 -2.018656283617019653e-01
1.410000000000000000e+02 2.704477500915527344e+01 3.505500793457031250e+01 -8.334817290306091309e-01 8.874849975109100342e-02 -2.234199643135070801e-01 -1.392609924077987671e-01
1.420000000000000000e+02 2.786719703674316406e+01 3.568653869628906250e+01 -1.561411261558532715e+00 1.005015987902879715e-02 -4.654083251953125000e-01 1.155379340052604675e-01
1.430000000000000000e+02 2.776436805725097656e+01 3.495370483398437500e+01 -8.920422196388244629e-01 6.999761611223220825e-02 -2.466133683919906616e-01 -1.049633398652076721e-01
1.440000000000000000e+02 2.632559776306152344e+01 3.515146636962890625e+01 -7.575260400772094727e-01 7.292571663856506348e-02 -2.053800970315933228e-01 -1.830925196409225464e-01
1.450000000000000000e+02 2.566216468811035156e+01 3.598210525512695312e+01 -9.041779041290283203e-01 2.513545192778110504e-02 -2.637127339839935303e-01 -1.005146466195583344e-02
1.460000000000000000e+02 2.861565017700195312e+01 3.556940460205078125e+01 -1.773561477661132812e+00 -4.804943222552537918e-03 -5.335099101066589355e-01 1.604570746421813965e-01
1.470000000000000000e+02 3.051566314697265625e+01 3.445326614379882812e+01 8.582023531198501587e-02 1.575798243284225464e-01 7.302001863718032837e-02 3.131316602230072021e-01
1.480000000000000000e+02 2.846566390991210938e+01 3.484425354003906250e+01 -8.442165851593017578e-01 9.751123934984207153e-02 -2.240116149187088013e-01 -4.825862497091293335e-02
1.490000000000000000e+02 3.084904289245605469e+01 3.506602859497070312e+01 -1.531085848808288574e+00 1.355025768280029297e-01 -4.186749756336212158e-01 3.349769115447998047e-01
1.500000000000000000e+02 3.001933479309082031e+01 3.493351364135742188e+01 -1.159072160720825195e+00 3.591995686292648315e-02 -3.369456827640533447e-01 1.368609964847564697e-01
1.510000000000000000e+02 2.944907760620117188e+01 3.494507980346679688e+01 -1.087055325508117676e+00 5.678468570113182068e-02 -3.090811967849731445e-01 7.667723298072814941e-02
1.520000000000000000e+02 3.077088928222656250e+01 3.420075988769531250e+01 7.705487608909606934e-01 1.606241911649703979e-01 2.793518900871276855e-01 5.743099451065063477e-01
1.530000000000000000e+02 3.048573493957519531e+01 3.485851669311523438e+01 -9.743453860282897949e-01 1.785690709948539734e-02 -2.869465351104736328e-01 2.433793693780899048e-01
1.540000000000000000e+02 3.057710838317871094e+01 3.525170135498046875e+01 -2.160439014434814453e+00 -8.243766427040100098e-02 -6.728630065917968750e-01 2.676138877868652344e-01
1.550000000000000000e+02 3.095031929016113281e+01 3.541913986206054688e+01 -2.709040641784667969e+00 6.203799974173307419e-03 -8.108510375022888184e-01 3.938207626342773438e-01
1.560000000000000000e+02 2.953991127014160156e+01 3.450340652465820312e+01 -2.700075209140777588e-01 1.711549907922744751e-01 -2.965575270354747772e-02 7.902076840400695801e-02
1.570000000000000000e+02 3.079648399353027344e+01 3.482836151123046875e+01 -8.781896233558654785e-01 4.675355926156044006e-02 -2.494308203458786011e-01 3.275454342365264893e-01
1.580000000000000000e+02 3.093728256225585938e+01 3.463048934936523438e+01 -2.364396899938583374e-01 -2.577641606330871582e-02 -7.866483181715011597e-02 3.664923310279846191e-01
1.590000000000000000e+02 3.104698181152343750e+01 3.518014526367187500e+01 -1.861247420310974121e+00 1.505518555641174316e-01 -5.132086873054504395e-01 3.143903911113739014e-01
1.600000000000000000e+02 3.007008171081542969e+01 3.444308090209960938e+01 -2.132679708302021027e-02 1.126824244856834412e-01 2.740668691694736481e-02 2.228278964757919312e-01
1.610000000000000000e+02 3.007202339172363281e+01 3.543123626708984375e+01 -2.287433147430419922e+00 -1.383089926093816757e-02 -6.903792619705200195e-01 2.947287261486053467e-01
1.620000000000000000e+02 2.904291152954101562e+01 3.465597152709960938e+01 -6.665762066841125488e-01 5.908017605543136597e-02 -1.822488009929656982e-01 -2.709552412852644920e-03
1.630000000000000000e+02 2.937100219726562500e+01 3.549404525756835938e+01 -2.019065856933593750e+00 -6.374938879162073135e-03 -6.076322793960571289e-01 2.093324810266494751e-01
1.640000000000000000e+02 3.104744911193847656e+01 3.499425506591796875e+01 -1.287652134895324707e+00 8.346365392208099365e-02 -3.612565398216247559e-01 2.405776232481002808e-01
1.650000000000000000e+02 3.100992584228515625e+01 3.480615997314453125e+01 -8.122850656509399414e-01 4.139745980501174927e-02 -2.312662899494171143e-01 2.145735472440719604e-01
1.660000000000000000e+02 3.086532974243164062e+01 3.442910385131835938e+01 2.515327930450439453e-01 -6.997847929596900940e-03 7.336048036813735962e-02 3.780906200408935547e-01
1.670000000000000000e+02 3.132969856262207031e+01 3.537450790405273438e+01 -2.841574430465698242e+00 -1.806033998727798462e-01 -9.066533446311950684e-01 5.304115414619445801e-01
1.680000000000000000e+02 3.283147048950195312e+01 3.457678985595703125e+01 3.219037294387817383e+00 4.301424622535705566e-01 1.094753861427307129e+00 1.743606686592102051e+00
1.690000000000000000e+02 3.231129074096679688e+01 3.518396759033203125e+01 -2.837423086166381836e+00 -9.076096117496490479e-02 -8.784552216529846191e-01 5.384669303894042969e-01
1.700000000000000000e+02 3.401113510131835938e+01 3.380367660522460938e+01 4.363034248352050781e+00 1.785618972778320312e+01 6.665767192840576172e+00 7.636471271514892578e+00
1.710000000000000000e+02 3.496689605712890625e+01 3.406054687500000000e+01 6.423849105834960938e+00 2.141591453552246094e+01 8.351929664611816406e+00 -5.412138625979423523e-02
1.720000000000000000e+02 3.515440368652343750e+01 3.447451019287109375e+01 1.131255054473876953e+01 1.995462226867675781e+01 9.380151748657226562e+00 -5.933181047439575195e-01
1.730000000000000000e+02 3.551671600341796875e+01 3.497968292236328125e+01 1.108324623107910156e+01 1.697056388854980469e+01 8.416143417358398438e+00 2.782041788101196289e+00
1.740000000000000000e+02 3.433171844482421875e+01 3.630946350097656250e+01 -2.582873404026031494e-01 1.767334556579589844e+01 5.224517345428466797e+00 -3.450292110443115234e+00
1.750000000000000000e+02 3.409538650512695312e+01 3.606605911254882812e+01 1.047933176159858704e-01 1.689883422851562500e+01 5.101088047027587891e+00 -5.255996704101562500e+00
1.760000000000000000e+02 3.109737968444824219e+01 3.413001632690429688e+01 1.302188873291015625e+00 3.173300325870513916e-01 4.858556687831878662e-01 8.691408634185791016e-01
1.770000000000000000e+02 3.113552665710449219e+01 3.433675003051757812e+01 7.169273495674133301e-01 2.432747930288314819e-01 2.880606353282928467e-01 6.361036300659179688e-01
1.780000000000000000e+02 3.248367309570312500e+01 3.394754791259765625e+01 4.470056056976318359e+00 1.519853234291076660e+00 1.796972751617431641e+00 3.171887874603271484e+00
1.790000000000000000e+02 3.345163726806640625e+01 3.409112930297851562e+01 7.770715713500976562e+00 6.813391208648681641e+00 4.375232219696044922e+00 7.810232639312744141e+00
1.800000000000000000e+02 3.330835342407226562e+01 3.422850418090820312e+01 7.595031738281250000e+00 3.846764326095581055e+00 3.432538747787475586e+00 6.106728553771972656e+00
1.810000000000000000e+02 3.306232833862304688e+01 3.410935974121093750e+01 6.364295959472656250e+00 2.841045856475830078e+00 2.761602640151977539e+00 5.165724277496337891e+00
1.820000000000000000e+02 3.310294342041015625e+01 3.460844802856445312e+01 4.369706630706787109e+00 2.192923724651336670e-01 1.376699686050415039e+00 2.148654937744140625e+00
1.830000000000000000e+02 3.225986862182617188e+01 3.396445465087890625e+01 3.838739871978759766e+00 1.100151062011718750e+00 1.481667280197143555e+00 2.570425033569335938e+00
1.840000000000000000e+02 3.186061477661132812e+01 3.396878814697265625e+01 2.821573972702026367e+00 6.675863862037658691e-01 1.046748042106628418e+00 1.804306268692016602e+00
1.850000000000000000e+02 3.129340362548828125e+01 3.409144973754882812e+01 1.582504391670227051e+00 3.810348808765411377e-01 5.890617966651916504e-01 1.057204246520996094e+00
1.860000000000000000e+02 3.160267448425292969e+01 3.686832427978515625e+01 -4.176235198974609375e-01 1.129362106323242188e+00 2.135215848684310913e-01 -7.502288818359375000e-01
1.870000000000000000e+02 3.196764945983886719e+01 3.652790451049804688e+01 -5.551055073738098145e-01 9.614222645759582520e-01 1.218950301408767700e-01 -7.228301167488098145e-01
1.880000000000000000e+02 3.166432571411132812e+01 3.635773086547851562e+01 -1.506500124931335449e+00 3.692414164543151855e-01 -3.411776125431060791e-01 -7.417092472314834595e-02
1.890000000000000000e+02 3.218670272827148438e+01 3.603692626953125000e+01 -1.720073103904724121e+00 4.811080098152160645e-01 -3.716894984245300293e-01 -2.920775413513183594e-01
1.900000000000000000e+02 3.317934417724609375e+01 3.634345245361328125e+01 9.692067503929138184e-01 5.228127479553222656e+00 1.859200239181518555e+00 -3.874418258666992188e+00
1.910000000000000000e+02 3.355544662475585938e+01 3.643270874023437500e+01 7.589799165725708008e-01 9.061126708984375000e+00 2.946032047271728516e+00 -4.728416442871093750e+00
1.920000000000000000e+02 3.137384033203125000e+01 3.562518692016601562e+01 -4.905275344848632812e+00 -4.044636487960815430e-01 -1.592921733856201172e+00 8.400452136993408203e-01
1.930000000000000000e+02 3.176517486572265625e+01 3.554339218139648438e+01 -4.728122711181640625e+00 -2.314383387565612793e-01 -1.487868428230285645e+00 9.263771176338195801e-01
1.940000000000000000e+02 3.199928665161132812e+01 3.677888870239257812e+01 -1.916752010583877563e-01 1.640542745590209961e+00 4.346602559089660645e-01 -1.318582415580749512e+00
1.950000000000000000e+02 3.151127815246582031e+01 3.645429229736328125e+01 -1.296643614768981934e+00 4.469603300094604492e-01 -2.549049854278564453e-01 -8.373361080884933472e-02
1.960000000000000000e+02 3.215781784057617188e+01 3.549121475219726562e+01 -4.544195175170898438e+00 -1.345691531896591187e-01 -1.403629302978515625e+00 8.567870855331420898e-01
1.970000000000000000e+02 3.263924789428710938e+01 3.573395538330078125e+01 -1.706189870834350586e+00 3.618979454040527344e-01 -4.032875895500183105e-01 -3.502761721611022949e-01
1.980000000000000000e+02 3.271429061889648438e+01 3.635674667358398438e+01 4.152441024780273438e-01 2.418091297149658203e+00 8.500006198883056641e-01 -2.223084211349487305e+00
1.990000000000000000e+02 3.240626144409179688e+01 3.575362014770507812e+01 -2.316368818283081055e+00 2.980292737483978271e-01 -6.055018901824951172e-01 3.558869659900665283e-02
2.000000000000000000e+02 3.524948120117187500e+01 3.545387649536132812e+01 7.564870834350585938e+00 2.003513526916503906e+01 8.280001640319824219e+00 4.556109428405761719e+00
2.010000000000000000e+02 3.349992370605468750e+01 3.580419158935546875e+01 1.871366739273071289e+00 5.948014259338378906e+00 2.345814228057861328e+00 -5.022353172302246094e+00
2.020000000000000000e+02 3.310062026977539062e+01 3.504018020629882812e+01 -2.330422163009643555e+00 -2.473848611116409302e-01 -7.733420729637145996e-01 4.560793638229370117e-01
2.030000000000000000e+02 3.269943618774414062e+01 3.510235977172851562e+01 -2.624874114990234375e+00 -1.567807942628860474e-01 -8.344964385032653809e-01 5.424688458442687988e-01
2.040000000000000000e+02 3.318414306640625000e+01 3.440635681152343750e+01 6.560995101928710938e+00 1.575384140014648438e+00 2.440913915634155273e+00 4.014687538146972656e+00
2.050000000000000000e+02 3.383979797363281250e+01 3.357890701293945312e+01 4.914343833923339844e+00 1.302106666564941406e+01 5.380623340606689453e+00 7.572660446166992188e+00
2.060000000000000000e+02 3.488652420043945312e+01 3.380535888671875000e+01 4.790933609008789062e+00 2.121548843383789062e+01 7.801926612854003906e+00 4.313855171203613281e-01
2.070000000000000000e+02 3.512909317016601562e+01 3.424554061889648438e+01 8.902486801147460938e+00 2.053705215454101562e+01 8.831861495971679688e+00 -8.245307207107543945e-01
2.080000000000000000e+02 3.168830108642578125e+01 3.400508880615234375e+01 2.285425424575805664e+00 5.545931458473205566e-01 8.520055413246154785e-01 1.421602725982666016e+00
2.090000000000000000e+02 3.180599594116210938e+01 3.414389419555664062e+01 2.169024467468261719e+00 3.938736915588378906e-01 7.688694596290588379e-01 1.327319622039794922e+00
2.100000000000000000e+02 3.153067779541015625e+01 3.533079528808593750e+01 -2.852493524551391602e+00 -5.615669116377830505e-02 -8.725950121879577637e-01 5.034574866294860840e-01
2.110000000000000000e+02 3.150559806823730469e+01 3.510356140136718750e+01 -1.853514313697814941e+00 -4.818622395396232605e-02 -5.705101490020751953e-01 3.592697978019714355e-01
2.120000000000000000e+02 3.519156646728515625e+01 3.463310623168945312e+01 1.374086284637451172e+01 1.964902687072753906e+01 1.001696681976318359e+01 -7.862866669893264771e-02
2.130000000000000000e+02 3.362714385986328125e+01 3.359654235839843750e+01 4.865820884704589844e+00 1.140193367004394531e+01 4.880326271057128906e+00 7.990120410919189453e+00
2.140000000000000000e+02 3.424401855468750000e+01 3.358103179931640625e+01 2.991901159286499023e+00 1.859201622009277344e+01 6.475174903869628906e+00 6.139662265777587891e+00
2.150000000000000000e+02 3.354793930053710938e+01 3.392737197875976562e+01 6.824443817138671875e+00 9.111470222473144531e+00 4.780774116516113281e+00 8.281716346740722656e+00
2.160000000000000000e+02 3.541097640991210938e+01 3.443511199951171875e+01 1.000805950164794922e+01 1.854148101806640625e+01 8.564862251281738281e+00 -3.759110569953918457e-01
2.170000000000000000e+02 3.286180114746093750e+01 3.482873153686523438e+01 5.995873212814331055e-01 -1.305543482303619385e-01 1.407098919153213501e-01 6.861607432365417480e-01
2.180000000000000000e+02 3.471922302246093750e+01 3.396908950805664062e+01 4.977137565612792969e+00 2.355647659301757812e+01 8.560084342956542969e+00 1.264527201652526855e+00
2.190000000000000000e+02 3.345558547973632812e+01 3.364453125000000000e+01 5.786975860595703125e+00 8.355134010314941406e+00 4.242632865905761719e+00 8.005902290344238281e+00
2.200000000000000000e+02 3.382580566406250000e+01 3.375757598876953125e+01 5.007690429687500000e+00 1.365791416168212891e+01 5.599681377410888672e+00 7.938353061676025391e+00
2.210000000000000000e+02 3.498844528198242188e+01 3.581340789794921875e+01 4.415597438812255859e+00 2.138554000854492188e+01 7.740341186523437500e+00 3.297582149505615234e+00
2.220000000000000000e+02 3.414002609252929688e+01 3.633577728271484375e+01 -4.602873325347900391e-01 1.631537055969238281e+01 4.756525039672851562e+00 -4.354399681091308594e+00
2.230000000000000000e+02 3.532558822631835938e+01 3.524945449829101562e+01 9.771748542785644531e+00 1.845422363281250000e+01 8.467791557312011719e+00 3.804752826690673828e+00
2.240000000000000000e+02 3.507177352905273438e+01 3.562103271484375000e+01 6.539010047912597656e+00 2.267269897460937500e+01 8.763512611389160156e+00 5.753660678863525391e+00
2.250000000000000000e+02 3.474897003173828125e+01 3.602827835083007812e+01 8.394897580146789551e-01 2.221762084960937500e+01 6.917133331298828125e+00 9.184780716896057129e-01
2.260000000000000000e+02 3.388282394409179688e+01 3.602087783813476562e+01 6.136735081672668457e-01 1.358922958374023438e+01 4.260870933532714844e+00 -6.146848201751708984e+00
2.270000000000000000e+02 3.285961151123046875e+01 3.566221618652343750e+01 -1.294627666473388672e+00 7.687062025070190430e-01 -1.577764302492141724e-01 -6.694683432579040527e-01
2.280000000000000000e+02 3.323175430297851562e+01 3.546083450317382812e+01 -7.580600380897521973e-01 9.328377246856689453e-01 5.243329703807830811e-02 -9.689616560935974121e-01
2.290000000000000000e+02 3.525615310668945312e+01 3.477505111694335938e+01 1.283199596405029297e+01 1.936834144592285156e+01 9.660100936889648438e+00 1.266118884086608887e+00
2.300000000000000000e+02 3.377226638793945312e+01 3.643616867065429688e+01 2.834878861904144287e-01 1.157210922241210938e+01 3.556679010391235352e+00 -5.118617534637451172e+00
2.310000000000000000e+02 3.528905868530273438e+01 3.498047256469726562e+01 1.314180469512939453e+01 1.866543769836425781e+01 9.542173385620117188e+00 2.748409032821655273e+00
2.320000000000000000e+02 3.309055328369140625e+01 3.392209243774414062e+01 6.223953723907470703e+00 4.136490345001220703e+00 3.108133316040039062e+00 5.623739242553710938e+00
2.330000000000000000e+02 3.208899307250976562e+01 3.500504684448242188e+01 -1.505060434341430664e+00 -7.725077122449874878e-02 -4.746933579444885254e-01 4.394641816616058350e-01
2.340000000000000000e+02 3.253009414672851562e+01 3.430117797851562500e+01 3.627297163009643555e+00 5.999969840049743652e-01 1.268188238143920898e+00 2.110520839691162109e+00
2.350000000000000000e+02 3.271050262451171875e+01 3.388696289062500000e+01 5.154946804046630859e+00 2.254948854446411133e+00 2.222968816757202148e+00 3.992972135543823242e+00
2.360000000000000000e+02 3.121769142150878906e+01 3.474447631835937500e+01 -5.657234787940979004e-01 8.295499533414840698e-02 -1.448305547237396240e-01 3.007439672946929932e-01
2.370000000000000000e+02 3.211701965332031250e+01 3.522220611572265625e+01 -2.869154214859008789e+00 -1.041208803653717041e-01 -8.919825553894042969e-01 5.356173515319824219e-01
2.380000000000000000e+02 3.265176391601562500e+01 3.486054229736328125e+01 -1.032237932085990906e-01 3.296205401420593262e-02 -2.107852324843406677e-02 6.270799040794372559e-01
2.390000000000000000e+02 3.129610061645507812e+01 3.515951538085937500e+01 -1.964348316192626953e+00 -1.543149799108505249e-01 -6.355990171432495117e-01 3.449358940124511719e-01
2.400000000000000000e+02 3.239267730712890625e+01 3.671002578735351562e+01 3.660718798637390137e-01 2.409990072250366211e+00 8.328185677528381348e-01 -2.063821077346801758e+00
2.410000000000000000e+02 3.168966484069824219e+01 3.600144195556640625e+01 -2.554114818572998047e+00 -1.269861403852701187e-02 -7.700440287590026855e-01 3.685454726219177246e-01
2.420000000000000000e+02 3.276401519775390625e+01 3.537902069091796875e+01 -4.149754047393798828e+00 -2.376391887664794922e-01 -1.316218018531799316e+00 7.821009159088134766e-01
2.430000000000000000e+02 3.314893722534179688e+01 3.526277542114257812e+01 -3.820554018020629883e+00 -4.184482395648956299e-01 -1.271700739860534668e+00 6.423988938331604004e-01
2.440000000000000000e+02 3.395137405395507812e+01 3.639195632934570312e+01 1.591962203383445740e-02 1.380759525299072266e+01 4.147054672241210938e+00 -5.051577091217041016e+00
2.450000000000000000e+02 3.335162734985351562e+01 3.648712158203125000e+01 9.321401119232177734e-01 6.566250324249267578e+00 2.249517202377319336e+00 -4.426729679107666016e+00
2.460000000000000000e+02 3.317388534545898438e+01 3.655551147460937500e+01 8.493732810020446777e-01 5.837401390075683594e+00 2.006032466888427734e+00 -3.758162498474121094e+00
2.470000000000000000e+02 3.293922424316406250e+01 3.633856582641601562e+01 7.783661484718322754e-01 3.407889604568481445e+00 1.255876779556274414e+00 -3.044259548187255859e+00
2.480000000000000000e+02 3.219693374633789062e+01 3.674488830566406250e+01 2.112755924463272095e-02 2.002642631530761719e+00 6.071310639381408691e-01 -1.554268836975097656e+00
2.490000000000000000e+02 3.147356224060058594e+01 3.488385772705078125e+01 -9.232814908027648926e-01 -3.146759793162345886e-02 -2.864247262477874756e-01 3.295367062091827393e-01
2.500000000000000000e+02 3.147067260742187500e+01 3.605526733398437500e+01 -2.695538997650146484e+00 2.709107473492622375e-02 -8.005343675613403320e-01 5.165622830390930176e-01
2.510000000000000000e+02 3.180153274536132812e+01 3.573945617675781250e+01 -3.743943691253662109e+00 -8.193398267030715942e-02 -1.147763252258300781e+00 7.357203960418701172e-01
2.520000000000000000e+02 3.162059783935546875e+01 3.579189682006835938e+01 -3.825407505035400391e+00 -9.625546634197235107e-02 -1.176498889923095703e+00 6.913349628448486328e-01
2.530000000000000000e+02 3.157095336914062500e+01 3.558414459228515625e+01 -4.733710765838623047e+00 -1.054382100701332092e-01 -1.451744675636291504e+00 1.023857951164245605e+00
2.540000000000000000e+02 3.176034164428710938e+01 3.657770538330078125e+01 -7.527772188186645508e-01 8.057165741920471191e-01 1.588181033730506897e-02 -6.317964196205139160e-01
2.550000000000000000e+02 3.186291694641113281e+01 3.445505905151367188e+01 1.301355957984924316e+00 1.228661239147186279e-01 4.272666275501251221e-01 8.650727868080139160e-01
2.560000000000000000e+02 3.149825096130371094e+01 3.405747222900390625e+01 2.003022432327270508e+00 3.981373310089111328e-01 7.203479409217834473e-01 1.228000402450561523e+00
2.570000000000000000e+02 3.172834396362304688e+01 3.529190444946289062e+01 -2.875760078430175781e+00 -1.082851812243461609e-01 -8.952136039733886719e-01 5.179800391197204590e-01
2.580000000000000000e+02 3.238735580444335938e+01 3.468257522583007812e+01 1.030040025711059570e+00 9.268426150083541870e-02 3.368172943592071533e-01 8.803795576095581055e-01
2.590000000000000000e+02 3.195984840393066406e+01 3.551389694213867188e+01 -4.639564037322998047e+00 -1.443827003240585327e-01 -1.435184001922607422e+00 9.349183440208435059e-01
2.600000000000000000e+02 3.218233489990234375e+01 3.628317642211914062e+01 -7.544317841529846191e-01 8.675109148025512695e-01 3.392374143004417419e-02 -7.158416509628295898e-01
2.610000000000000000e+02 3.335689163208007812e+01 3.599654006958007812e+01 1.548563480377197266e+00 5.074053287506103516e+00 1.986785054206848145e+00 -4.380214214324951172e+00
2.620000000000000000e+02 3.367887115478515625e+01 3.592876815795898438e+01 1.700658679008483887e+00 9.034966468811035156e+00 3.220687389373779297e+00 -5.990794181823730469e+00
2.630000000000000000e+02 3.217797088623046875e+01 3.576228332519531250e+01 -2.860176324844360352e+00 2.392467297613620758e-02 -8.508755564689636230e-01 3.804142177104949951e-01
2.640000000000000000e+02 3.308826065063476562e+01 3.482690811157226562e+01 1.342213153839111328e+00 -2.325166389346122742e-02 3.956884443759918213e-01 9.084347486495971680e-01
2.650000000000000000e+02 3.334953308105468750e+01 3.564239120483398438e+01 1.175642371177673340e+00 2.451328516006469727e+00 1.088091254234313965e+00 -2.928737163543701172e+00
2.660000000000000000e+02 3.258022689819335938e+01 3.460046386718750000e+01 1.996656298637390137e+00 1.347959339618682861e-01 6.394357085227966309e-01 1.075568675994873047e+00
2.670000000000000000e+02 3.225367355346679688e+01 3.429396438598632812e+01 2.718174695968627930e+00 4.365647137165069580e-01 9.464218020439147949e-01 1.552576184272766113e+00
2.680000000000000000e+02 3.305320739746093750e+01 3.555669021606445312e+01 -9.801660180091857910e-01 4.701334834098815918e-01 -1.530097573995590210e-01 -8.457883000373840332e-01
2.690000000000000000e+02 3.267794418334960938e+01 3.605745697021484375e+01 -1.885204315185546875e-01 1.552516460418701172e+00 4.091988205909729004e-01 -1.587877392768859863e+00
2.700000000000000000e+02 3.301232910156250000e+01 3.589373397827148438e+01 4.267801046371459961e-01 1.992887377738952637e+00 7.259002327919006348e-01 -2.247560024261474609e+00
2.710000000000000000e+02 3.197504806518554688e+01 3.607838821411132812e+01 -1.945788383483886719e+00 2.128813117742538452e-01 -5.198721289634704590e-01 7.593853515572845936e-04
2.720000000000000000e+02 3.292343521118164062e+01 3.608605575561523438e+01 4.467313289642333984e-01 2.312896013259887695e+00 8.278881907463073730e-01 -2.303060770034790039e+00
2.730000000000000000e+02 3.235996627807617188e+01 3.649729156494140625e+01 -8.299585431814193726e-02 1.830434560775756836e+00 5.242316126823425293e-01 -1.565425872802734375e+00
2.740000000000000000e+02 3.142762756347656250e+01 3.468126296997070312e+01 -1.953262239694595337e-01 4.074310511350631714e-02 -4.637493565678596497e-02 3.518509566783905029e-01
2.750000000000000000e+02 3.180145645141601562e+01 3.682033157348632812e+01 -3.537523150444030762e-01 1.157678365707397461e+00 2.411778122186660767e-01 -7.909926772117614746e-01
2.760000000000000000e+02 3.156319046020507812e+01 3.665274047851562500e+01 -9.500561356544494629e-01 7.948815226554870605e-01 -4.655237495899200439e-02 -2.434476912021636963e-01
2.770000000000000000e+02 3.149059677124023438e+01 3.626564788818359375e+01 -2.034626960754394531e+00 1.378196775913238525e-01 -5.690421462059020996e-01 2.685781717300415039e-01
2.780000000000000000e+02 3.141825866699218750e+01 3.583573913574218750e+01 -3.627281427383422852e+00 -3.119766414165496826e-01 -1.181777358055114746e+00 7.663747072219848633e-01
2.790000000000000000e+02 3.197545051574707031e+01 3.573964691162109375e+01 -3.362203598022460938e+00 -2.743652835488319397e-02 -1.016892075538635254e+00 4.862488806247711182e-01
2.800000000000000000e+02 3.236078643798828125e+01 3.546313858032226562e+01 -4.410822391510009766e+00 -1.732558906078338623e-01 -1.375223398208618164e+00 8.215116858482360840e-01
2.810000000000000000e+02 3.256443023681640625e+01 3.542731475830078125e+01 -4.274910449981689453e+00 -1.174042895436286926e-01 -1.317694425582885742e+00 7.980023622512817383e-01
2.820000000000000000e+02 3.295847320556640625e+01 3.532152557373046875e+01 -4.013496398925781250e+00 6.985708326101303101e-02 -1.183091759681701660e+00 7.574508786201477051e-01
2.830000000000000000e+02 3.318795394897460938e+01 3.577230453491210938e+01 5.711742043495178223e-01 2.357202291488647461e+00 8.785129189491271973e-01 -2.580173492431640625e+00
2.840000000000000000e+02 3.125874328613281250e+01 3.494906616210937500e+01 -1.160667777061462402e+00 8.054535835981369019e-03 -3.457839787006378174e-01 2.030650079250335693e-01
2.850000000000000000e+02 3.137328720092773438e+01 3.448957824707031250e+01 4.904497265815734863e-01 1.311609745025634766e-01 1.864832192659378052e-01 5.385504364967346191e-01
2.860000000000000000e+02 3.192312049865722656e+01 3.525714874267578125e+01 -2.881287097930908203e+00 -7.598826289176940918e-02 -8.871826529502868652e-01 5.269973278045654297e-01
2.870000000000000000e+02 3.170946311950683594e+01 3.505858612060546875e+01 -1.745070695877075195e+00 -4.791284352540969849e-02 -5.378950834274291992e-01 3.469744026660919189e-01
2.880000000000000000e+02 3.190270423889160156e+01 3.503102493286132812e+01 -1.675821423530578613e+00 -1.065187156200408936e-02 -5.059419870376586914e-01 4.056620001792907715e-01
2.890000000000000000e+02 3.189688873291015625e+01 3.480432510375976562e+01 -3.789340555667877197e-01 4.700053110718727112e-02 -9.958005696535110474e-02 4.222858250141143799e-01
2.900000000000000000e+02 3.227546310424804688e+01 3.496492004394531250e+01 -1.164665818214416504e+00 -6.998851895332336426e-02 -3.703963160514831543e-01 4.490529596805572510e-01
2.910000000000000000e+02 3.117548942565917969e+01 3.454161453247070312e+01 1.417961567640304565e-01 1.331656277179718018e-01 8.248853683471679688e-02 3.779348433017730713e-01
2.920000000000000000e+02 3.133007240295410156e+01 3.429436111450195312e+01 1.175349473953247070e+00 2.219000756740570068e-01 4.191748797893524170e-01 7.725650072097778320e-01
2.930000000000000000e+02 3.204997253417968750e+01 3.397022628784179688e+01 3.207917213439941406e+00 8.124907612800598145e-01 1.206122398376464844e+00 2.044342041015625000e+00
2.940000000000000000e+02 3.200545120239257812e+01 3.423309326171875000e+01 2.345200061798095703e+00 4.093151986598968506e-01 8.263545632362365723e-01 1.432494044303894043e+00
2.950000000000000000e+02 3.306632232666015625e+01 3.373488998413085938e+01 5.953289508819580078e+00 4.878211021423339844e+00 3.249450206756591797e+00 6.000265598297119141e+00
2.960000000000000000e+02 3.289588928222656250e+01 3.379121017456054688e+01 5.776875495910644531e+00 3.571221113204956055e+00 2.804429054260253906e+00 5.215585231781005859e+00
2.970000000000000000e+02 3.327059173583984375e+01 3.370481109619140625e+01 5.870007514953613281e+00 6.863235473632812500e+00 3.819972991943359375e+00 6.905123233795166016e+00
2.980000000000000000e+02 3.423676300048828125e+01 3.373794174194335938e+01 3.398717880249023438e+00 2.022462272644042969e+01 7.087001800537109375e+00 7.127979278564453125e+00
2.990000000000000000e+02 3.380424118041992188e+01 3.623672103881835938e+01 5.942518115043640137e-01 1.235447025299072266e+01 3.884616374969482422e+00 -5.471386432647705078e+00
3.000000000000000000e+02 3.445148849487304688e+01 3.609344863891601562e+01 -2.014837116003036499e-01 2.032956123352050781e+01 6.038423538208007812e+00 -1.954056262969970703e+00
3.010000000000000000e+02 3.428563308715820312e+01 3.605902099609375000e+01 -5.899168252944946289e-01 2.044021797180175781e+01 5.955090045928955078e+00 -3.570184707641601562e+00
3.020000000000000000e+02 3.528876876831054688e+01 3.570883941650390625e+01 6.242068290710449219e+00 2.010560798645019531e+01 7.904302597045898438e+00 4.679270267486572266e+00
3.030000000000000000e+02 3.297745132446289062e+01 3.658115386962890625e+01 8.965844511985778809e-01 4.520561218261718750e+00 1.625143647193908691e+00 -3.396329641342163086e+00
3.040000000000000000e+02 3.277823257446289062e+01 3.661753082275390625e+01 7.180544137954711914e-01 3.617978096008300781e+00 1.300809741020202637e+00 -2.985839366912841797e+00
3.050000000000000000e+02 3.258530807495117188e+01 3.666489028930664062e+01 5.425016880035400391e-01 2.777854204177856445e+00 9.961067438125610352e-01 -2.354796648025512695e+00
3.060000000000000000e+02 3.252568817138671875e+01 3.643294143676757812e+01 1.541930586099624634e-01 2.184744834899902344e+00 7.016813755035400391e-01 -2.010389328002929688e+00
3.070000000000000000e+02 3.246034240722656250e+01 3.491238784790039062e+01 -7.459467649459838867e-01 -3.038783185184001923e-02 -2.329003810882568359e-01 4.261042773723602295e-01
3.080000000000000000e+02 3.250508880615234375e+01 3.514290618896484375e+01 -2.742945432662963867e+00 -7.042533159255981445e-02 -8.440112471580505371e-01 5.770319700241088867e-01
3.090000000000000000e+02 3.289768600463867188e+01 3.506689071655273438e+01 -2.458923578262329102e+00 -3.513927012681961060e-02 -7.482188344001770020e-01 5.700167417526245117e-01
3.100000000000000000e+02 3.278858184814453125e+01 3.431752777099609375e+01 4.648236751556396484e+00 1.024248242378234863e+00 1.701745510101318359e+00 2.667741537094116211e+00
3.110000000000000000e+02 3.450722122192382812e+01 3.389461517333984375e+01 4.799463272094726562e+00 2.229418563842773438e+01 8.128094673156738281e+00 3.219475269317626953e+00
3.120000000000000000e+02 3.375387954711914062e+01 3.395206451416015625e+01 6.577709674835205078e+00 1.270392131805419922e+01 5.784489154815673828e+00 9.363719940185546875e+00
3.130000000000000000e+02 3.360051727294921875e+01 3.374094009399414062e+01 5.897861957550048828e+00 1.046936225891113281e+01 4.910167217254638672e+00 8.353224754333496094e+00
3.140000000000000000e+02 3.392444610595703125e+01 3.392492675781250000e+01 5.653646469116210938e+00 1.521285247802734375e+01 6.259949684143066406e+00 8.665903091430664062e+00
3.150000000000000000e+02 3.408896636962890625e+01 3.389905166625976562e+01 4.014185905456542969e+00 2.046973609924316406e+01 7.345176696777343750e+00 8.073619842529296875e+00
3.160000000000000000e+02 3.528179550170898438e+01 3.459190750122070312e+01 1.215385913848876953e+01 1.931494331359863281e+01 9.440641403198242188e+00 -1.955017149448394775e-01
3.170000000000000000e+02 3.452857971191406250e+01 3.369709014892578125e+01 3.896401882171630859e+00 1.888162040710449219e+01 6.833406448364257812e+00 4.067752361297607422e+00
3.180000000000000000e+02 3.428602600097656250e+01 3.387869262695312500e+01 3.958832263946533203e+00 2.069151306152343750e+01 7.395103454589843750e+00 7.054204463958740234e+00
3.190000000000000000e+02 3.206354141235351562e+01 3.480015563964843750e+01 -2.565920948982238770e-01 -2.586393617093563080e-02 -8.473680913448333740e-02 4.910638928413391113e-01
3.200000000000000000e+02 3.197986412048339844e+01 3.629076766967773438e+01 -1.097673058509826660e+00 6.301231980323791504e-01 -1.402649581432342529e-01 -4.909539818763732910e-01
3.210000000000000000e+02 3.217459487915039062e+01 3.651237487792968750e+01 -2.057812809944152832e-01 1.460413694381713867e+00 3.763897120952606201e-01 -1.293123364448547363e+00
3.220000000000000000e+02 3.238589859008789062e+01 3.629908370971679688e+01 -1.714255511760711670e-01 1.289478659629821777e+00 3.354159295558929443e-01 -1.361991763114929199e+00
3.230000000000000000e+02 3.298055267333984375e+01 3.427291488647460938e+01 5.783220291137695312e+00 1.334108948707580566e+00 2.135198831558227539e+00 3.788344144821166992e+00
3.240000000000000000e+02 3.284820175170898438e+01 3.412677383422851562e+01 5.225616455078125000e+00 2.174108028411865234e+00 2.219917297363281250e+00 3.799083948135375977e+00
3.250000000000000000e+02 3.332785034179687500e+01 3.391116714477539062e+01 6.641261577606201172e+00 5.881659507751464844e+00 3.756876230239868164e+00 7.309988498687744141e+00
3.260000000000000000e+02 3.169929885864257812e+01 3.430693817138671875e+01 1.635691046714782715e+00 3.127939403057098389e-01 5.845454931259155273e-01 1.054397821426391602e+00
3.270000000000000000e+02 3.357230758666992188e+01 3.615859222412109375e+01 1.106270074844360352e+00 8.558154106140136719e+00 2.899327278137207031e+00 -5.229707717895507812e+00
3.280000000000000000e+02 3.169727134704589844e+01 3.481713867187500000e+01 -5.588122010231018066e-01 -8.441466838121414185e-03 -1.701761037111282349e-01 4.002257883548736572e-01
3.290000000000000000e+02 3.152384567260742188e+01 3.425699234008789062e+01 1.497161746025085449e+00 2.778427898883819580e-01 5.325013399124145508e-01 9.870589375495910645e-01
3.300000000000000000e+02 3.164822006225585938e+01 3.459881591796875000e+01 3.438708484172821045e-01 5.487127229571342468e-02 1.196226403117179871e-01 5.121323466300964355e-01
3.310000000000000000e+02 3.156093597412109375e+01 3.442639923095703125e+01 1.014515876770019531e+00 1.054799407720565796e-01 3.359987437725067139e-01 6.796346306800842285e-01
3.320000000000000000e+02 3.199975776672363281e+01 3.461963653564453125e+01 8.352557420730590820e-01 8.762665092945098877e-02 2.768647372722625732e-01 6.524141430854797363e-01
3.330000000000000000e+02 3.223056411743164062e+01 3.475997924804687500e+01 -8.183929324150085449e-02 -1.098583266139030457e-01 -5.750928819179534912e-02 4.959011971950531006e-01
3.340000000000000000e+02 3.221989059448242188e+01 3.455846023559570312e+01 1.494605660438537598e+00 1.283387690782546997e-01 4.868833422660827637e-01 9.340922236442565918e-01
3.350000000000000000e+02 3.242515945434570312e+01 3.605194473266601562e+01 -1.017079710960388184e+00 7.751401662826538086e-01 -7.258187234401702881e-02 -7.442106604576110840e-01
3.360000000000000000e+02 3.187987518310546875e+01 3.590252685546875000e+01 -2.777861833572387695e+00 1.321169734001159668e-01 -7.937234640121459961e-01 3.674490749835968018e-01
3.370000000000000000e+02 3.180472564697265625e+01 3.620099639892578125e+01 -1.774949073791503906e+00 3.885894417762756348e-01 -4.159078896045684814e-01 2.683507744222879410e-03
3.380000000000000000e+02 3.316028594970703125e+01 3.611084365844726562e+01 1.188646912574768066e+00 4.459760665893554688e+00 1.694522261619567871e+00 -3.729165554046630859e+00
3.390000000000000000e+02 3.114323234558105469e+01 3.588272476196289062e+01 -3.547184467315673828e+00 -5.356763303279876709e-02 -1.080225706100463867e+00 8.981055021286010742e-01
3.400000000000000000e+02 3.002803611755371094e+01 3.708573532104492188e+01 -1.159119725227355957e+00 7.311823964118957520e-02 -3.258004188537597656e-01 5.609287023544311523e-01
3.410000000000000000e+02 3.076958465576171875e+01 3.590295028686523438e+01 -3.975525140762329102e+00 -1.800606101751327515e-01 -1.246675729751586914e+00 8.148974180221557617e-01
3.420000000000000000e+02 2.947796630859375000e+01 3.704498672485351562e+01 -1.393262743949890137e+00 -2.820792496204376221e-01 -5.026025772094726562e-01 6.725817322731018066e-01
3.430000000000000000e+02 3.095024490356445312e+01 3.615601730346679688e+01 -2.958179712295532227e+00 -9.216292947530746460e-02 -9.151028394699096680e-01 5.967870354652404785e-01
3.440000000000000000e+02 3.084753608703613281e+01 3.660699844360351562e+01 -1.624656677246093750e+00 1.390668749809265137e-01 -4.456769526004791260e-01 3.852501511573791504e-01
3.450000000000000000e+02 3.123647689819335938e+01 3.691577148437500000e+01 -6.123015880584716797e-01 6.450397968292236328e-01 9.821467101573944092e-03 -1.484939903020858765e-01
3.460000000000000000e+02 2.882187843322753906e+01 3.707262802124023438e+01 -1.432957768440246582e+00 -1.221462711691856384e-01 -4.665311872959136963e-01 7.224028110504150391e-01
3.470000000000000000e+02 2.950619506835937500e+01 3.613537597656250000e+01 -3.120260715484619141e+00 -9.761528670787811279e-02 -9.653627872467041016e-01 7.874506711959838867e-01
3.480000000000000000e+02 3.035758972167968750e+01 3.633478927612304688e+01 -2.607296466827392578e+00 -1.344327330589294434e-01 -8.225187659263610840e-01 7.939922213554382324e-01
3.490000000000000000e+02 3.021828842163085938e+01 3.595002746582031250e+01 -3.787383079528808594e+00 -1.923819482326507568e-01 -1.193929553031921387e+00 7.812463045120239258e-01
3.500000000000000000e+02 2.874584579467773438e+01 3.633499526977539062e+01 -2.701854705810546875e+00 -2.435033321380615234e-01 -8.836073875427246094e-01 6.379035115242004395e-01
3.510000000000000000e+02 3.100322532653808594e+01 3.569427490234375000e+01 -4.489036083221435547e+00 -9.058013558387756348e-02 -1.373884916305541992e+00 9.321035146713256836e-01
3.520000000000000000e+02 3.124671936035156250e+01 3.666999435424804688e+01 -1.172145009040832520e+00 3.022437095642089844e-01 -2.609703838825225830e-01 -6.469508260488510132e-02
3.530000000000000000e+02 3.124102401733398438e+01 3.625932693481445312e+01 -2.134409189224243164e+00 2.258051745593547821e-02 -6.335486173629760742e-01 3.435087203979492188e-01
3.540000000000000000e+02 3.123802757263183594e+01 3.645254516601562500e+01 -1.650673508644104004e+00 1.517963856458663940e-01 -4.496631324291229248e-01 2.057532966136932373e-01
3.550000000000000000e+02 3.078413200378417969e+01 3.683878326416015625e+01 -9.181045293807983398e-01 1.942519098520278931e-01 -2.171557992696762085e-01 2.457908391952514648e-01
3.560000000000000000e+02 3.049665069580078125e+01 3.702068710327148438e+01 -9.178993105888366699e-01 2.949372231960296631e-01 -1.868886351585388184e-01 2.082751989364624023e-01
3.570000000000000000e+02 2.981299972534179688e+01 3.656204605102539062e+01 -2.283000707626342773e+00 -1.587596088647842407e-01 -7.325280904769897461e-01 7.196511626243591309e-01
3.580000000000000000e+02 3.019610023498535156e+01 3.679941177368164062e+01 -1.474204182624816895e+00 -7.499816268682479858e-02 -4.647606909275054932e-01 6.294255852699279785e-01
3.590000000000000000e+02 3.120615959167480469e+01 3.607474899291992188e+01 -3.185112237930297852e+00 -8.085980266332626343e-02 -9.797916412353515625e-01 6.442379951477050781e-01
3.600000000000000000e+02 3.051069641113281250e+01 3.661814498901367188e+01 -1.817282557487487793e+00 4.141863435506820679e-02 -5.327591896057128906e-01 4.961486160755157471e-01
3.610000000000000000e+02 3.083820533752441406e+01 3.635610198974609375e+01 -2.329572200775146484e+00 -5.606193467974662781e-02 -7.156902551651000977e-01 4.942487180233001709e-01
3.620000000000000000e+02 2.797564125061035156e+01 3.645804595947265625e+01 -2.298147201538085938e+00 -5.891393870115280151e-02 -7.071183919906616211e-01 5.449506044387817383e-01
3.630000000000000000e+02 2.654333496093750000e+01 3.739851379394531250e+01 -1.048924446105957031e+00 -2.430290281772613525e-01 -3.875860273838043213e-01 4.892801344394683838e-01
3.640000000000000000e+02 2.807846832275390625e+01 3.719087982177734375e+01 -1.271001219749450684e+00 -4.033932089805603027e-01 -5.023183226585388184e-01 6.090784072875976562e-01
3.650000000000000000e+02 2.577564430236816406e+01 3.749948883056640625e+01 -9.479442834854125977e-01 -8.376271277666091919e-02 -3.095120787620544434e-01 4.149090945720672607e-01
3.660000000000000000e+02 2.647223281860351562e+01 3.666142654418945312e+01 -1.625085115432739258e+00 1.923174783587455750e-02 -4.817560017108917236e-01 3.714078664779663086e-01
3.670000000000000000e+02 2.572040748596191406e+01 3.676027679443359375e+01 -1.366540312767028809e+00 -1.704646050930023193e-01 -4.611014723777770996e-01 2.935499250888824463e-01
3.680000000000000000e+02 2.722403526306152344e+01 3.656066131591796875e+01 -1.924301505088806152e+00 -1.862108707427978516e-01 -6.331536769866943359e-01 4.111219346523284912e-01
3.690000000000000000e+02 2.731099891662597656e+01 3.729562377929687500e+01 -1.198670625686645508e+00 -7.301773130893707275e-02 -3.815065026283264160e-01 5.622004270553588867e-01
3.700000000000000000e+02 2.340743637084960938e+01 3.754123687744140625e+01 -3.879527151584625244e-01 -7.275475561618804932e-02 -1.382122486829757690e-01 2.638486623764038086e-01
3.710000000000000000e+02 2.266618919372558594e+01 3.679620742797851562e+01 -3.414086997509002686e-01 -1.415083743631839752e-02 -1.066678613424301147e-01 6.796614825725555420e-02
3.720000000000000000e+02 2.419788742065429688e+01 3.680555725097656250e+01 -7.521182894706726074e-01 -3.583814576268196106e-02 -2.363869249820709229e-01 1.415510028600692749e-01
3.730000000000000000e+02 2.496211051940917969e+01 3.680892944335937500e+01 -1.081499457359313965e+00 3.984129056334495544e-03 -3.232546150684356689e-01 1.755492389202117920e-01
3.740000000000000000e+02 2.499495697021484375e+01 3.754912567138671875e+01 -7.145587205886840820e-01 -1.413665711879730225e-01 -2.567775845527648926e-01 4.950120747089385986e-01
3.750000000000000000e+02 2.261228370666503906e+01 3.753591537475585938e+01 -2.603558301925659180e-01 -5.324960500001907349e-02 -9.408163279294967651e-02 1.760434210300445557e-01
3.760000000000000000e+02 2.343242454528808594e+01 3.680136489868164062e+01 -5.101112127304077148e-01 -1.039447262883186340e-02 -1.561516970396041870e-01 9.244003146886825562e-02
3.770000000000000000e+02 2.420181655883789062e+01 3.754558944702148438e+01 -5.243458747863769531e-01 -7.930190861225128174e-02 -1.810943484306335449e-01 3.272870182991027832e-01
3.780000000000000000e+02 1.998039245605468750e+01 3.692026138305664062e+01 -5.412487313151359558e-02 -4.371375963091850281e-02 -2.935159020125865936e-02 3.844979405403137207e-02
3.790000000000000000e+02 2.062745285034179688e+01 3.732268142700195312e+01 -9.150453656911849976e-02 -1.921269297599792480e-02 -3.321516886353492737e-02 4.467803612351417542e-02
3.800000000000000000e+02 2.113145446777343750e+01 3.686664581298828125e+01 -8.760257810354232788e-02 1.897494681179523468e-02 -2.058828994631767273e-02 4.483638331294059753e-02
3.810000000000000000e+02 2.021580696105957031e+01 3.715901565551757812e+01 -9.327150136232376099e-02 -2.335114032030105591e-02 -3.498679026961326599e-02 4.786485433578491211e-02
3.820000000000000000e+02 2.186282539367675781e+01 3.673282623291015625e+01 -1.851515024900436401e-01 -1.132641732692718506e-02 -5.894337594509124756e-02 3.012791089713573456e-02
3.830000000000000000e+02 2.186202239990234375e+01 3.748466491699218750e+01 -1.839195042848587036e-01 -2.731257863342761993e-02 -6.336962431669235229e-02 1.448795795440673828e-01
3.840000000000000000e+02 2.119230079650878906e+01 3.743341445922851562e+01 -1.552457511425018311e-01 -8.666371926665306091e-03 -4.917363449931144714e-02 8.769354224205017090e-02
3.850000000000000000e+02 2.068652153015136719e+01 3.649208450317382812e+01 -4.606018587946891785e-02 2.430872991681098938e-03 -1.308879349380731583e-02 2.460870891809463501e-02
3.860000000000000000e+02 2.102560424804687500e+01 3.579481887817382812e+01 -1.751704327762126923e-02 -1.243927795439958572e-02 -8.986895903944969177e-03 -3.449752554297447205e-02
3.870000000000000000e+02 2.197462081909179688e+01 3.519912338256835938e+01 -1.090577021241188049e-01 -6.382101029157638550e-02 -5.186361446976661682e-02 -1.658561825752258301e-01
3.880000000000000000e+02 2.189435958862304688e+01 3.593660354614257812e+01 -1.149907186627388000e-01 -3.074401803314685822e-02 -4.372042044997215271e-02 -6.492097675800323486e-02
3.890000000000000000e+02 2.057264900207519531e+01 3.514139175415039062e+01 -4.687633831053972244e-03 -5.401673540472984314e-02 -1.761130988597869873e-02 -1.426818897016346455e-03
3.900000000000000000e+02 2.112965202331542969e+01 3.506163787841796875e+01 -4.366826638579368591e-02 -1.170061379671096802e-01 -4.820232093334197998e-02 -9.234275668859481812e-02
3.910000000000000000e+02 2.112962150573730469e+01 3.337190246582031250e+01 -2.177967131137847900e-02 -3.614048361778259277e-01 -1.149553582072257996e-01 -1.460225135087966919e-01
3.920000000000000000e+02 2.118027496337890625e+01 3.421144485473632812e+01 -9.687318466603755951e-03 -2.059237807989120483e-01 -6.468332558870315552e-02 -1.430305540561676025e-01
3.930000000000000000e+02 2.465121078491210938e+01 3.345500564575195312e+01 2.033090451732277870e-03 7.933669537305831909e-02 2.441093698143959045e-02 -3.462275862693786621e-01
3.940000000000000000e+02 2.624733352661132812e+01 3.437116622924804688e+01 -3.392641842365264893e-01 1.373141258955001831e-01 -6.058501824736595154e-02 -2.776763737201690674e-01
3.950000000000000000e+02 2.100413322448730469e+01 2.543058586120605469e+01 1.457458361983299255e-02 -4.473355710506439209e-01 -1.298282891511917114e-01 1.363708376884460449e-01
3.960000000000000000e+02 2.593047142028808594e+01 1.698756217956542969e+01 -1.620177626609802246e-01 3.721312284469604492e+00 1.067788362503051758e+00 1.143680214881896973e+00
3.970000000000000000e+02 3.331380844116210938e+01 1.147269916534423828e+01 -5.625440478324890137e-01 6.168296813964843750e+00 1.681725859642028809e+00 1.025597095489501953e+00
3.980000000000000000e+02 4.605823516845703125e+01 -3.443516492843627930e+00 -4.433296024799346924e-01 7.072195053100585938e+00 1.988659620285034180e+00 4.126976057887077332e-02
3.990000000000000000e+02 5.890903091430664062e+01 -9.762898445129394531e+00 -2.322823852300643921e-01 7.628410339355468750e+00 2.218838453292846680e+00 -2.236928641796112061e-01
4.000000000000000000e+02 6.733586883544921875e+01 -1.683843612670898438e+01 -7.970140874385833740e-02 8.032351493835449219e+00 2.385794878005981445e+00 -1.606409847736358643e-01
4.010000000000000000e+02 7.085071563720703125e+01 -2.467356872558593750e+01 -2.998388186097145081e-02 8.303928375244140625e+00 2.482183456420898438e+00 -7.849778234958648682e-02
4.020000000000000000e+02 7.793099212646484375e+01 -3.031087303161621094e+01 -4.179176408797502518e-03 8.857630729675292969e+00 2.656035423278808594e+00 -1.439552381634712219e-02
4.030000000000000000e+02 7.932589721679687500e+01 -2.636167716979980469e+01 3.586266248021274805e-04 8.941104888916015625e+00 2.682438850402832031e+00 -9.110859595239162445e-03
4.040000000000000000e+02 7.804730987548828125e+01 -2.334120750427246094e+01 -2.552695805206894875e-03 8.811090469360351562e+00 2.642561435699462891e+00 -2.536721527576446533e-02
4.050000000000000000e+02 7.935431671142578125e+01 -2.218560409545898438e+01 -4.076936456840485334e-04 8.900077819824218750e+00 2.669901132583618164e+00 -1.219512522220611572e-02
4.060000000000000000e+02 7.284524536132812500e+01 -1.240419769287109375e+01 -3.660746663808822632e-02 8.311466217041015625e+00 2.482457637786865234e+00 -1.497471332550048828e-01
4.070000000000000000e+02 6.616124725341796875e+01 -5.077546119689941406e+00 -1.589047163724899292e-01 7.923791885375976562e+00 2.329466104507446289e+00 -3.279017210006713867e-01
4.080000000000000000e+02 5.934199523925781250e+01 4.230497837066650391e+00 -3.606850504875183105e-01 7.834011077880859375e+00 2.241997718811035156e+00 -5.008890628814697266e-01
4.090000000000000000e+02 5.061446380615234375e+01 1.437926769256591797e+01 -5.414931178092956543e-01 8.235856056213378906e+00 2.308308839797973633e+00 -5.050339102745056152e-01
4.100000000000000000e+02 4.524677658081054688e+01 2.093203735351562500e+01 -4.521032869815826416e-01 8.891550064086914062e+00 2.531833887100219727e+00 -3.918282389640808105e-01
4.110000000000000000e+02 3.448713684082031250e+01 2.844688415527343750e+01 6.715428084135055542e-02 9.543483734130859375e+00 2.883191347122192383e+00 2.493768930435180664e+00
4.120000000000000000e+02 3.142584609985351562e+01 3.376737976074218750e+01 2.450691223144531250e+00 6.605252623558044434e-01 9.333649873733520508e-01 1.527977228164672852e+00
4.130000000000000000e+02 2.229661560058593750e+01 -3.412272644042968750e+01 3.607046306133270264e-01 4.817884445190429688e+00 1.553576707839965820e+00 2.137073129415512085e-01
4.140000000000000000e+02 1.660589981079101562e+01 -3.861380386352539062e+01 -3.660700619220733643e-01 -5.077961087226867676e-02 -1.250548958778381348e-01 1.786093413829803467e-01
4.150000000000000000e+02 1.879008674621582031e+01 -3.915118789672851562e+01 -4.006952047348022461e-01 2.832903623580932617e+00 7.296625375747680664e-01 8.915289640426635742e-01
4.160000000000000000e+02 1.451908302307128906e+01 -3.644311141967773438e+01 -9.596501290798187256e-02 -7.639352977275848389e-02 -5.170756205916404724e-02 5.497147887945175171e-02
4.170000000000000000e+02 1.534903144836425781e+01 -3.758512115478515625e+01 -2.823612093925476074e-01 -6.865715980529785156e-02 -1.053055077791213989e-01 9.712523221969604492e-02
4.180000000000000000e+02 1.307279396057128906e+01 -3.130210876464843750e+01 -6.368990987539291382e-03 -6.524597760289907455e-03 -3.868076717481017113e-03 6.446682848036289215e-03
4.190000000000000000e+02 6.588823795318603516e-01 -2.488202095031738281e+01 -2.902757376432418823e-03 1.201014267280697823e-03 -5.105229211039841175e-04 1.440090563846752048e-04
4.200000000000000000e+02 6.386219263076782227e-01 -3.050368881225585938e+01 -7.252145092934370041e-03 -6.792286876589059830e-04 -2.379412297159433365e-03 -1.138997962698340416e-03
4.210000000000000000e+02 6.394757032394409180e-01 -3.189417266845703125e+01 8.105328306555747986e-03 -2.961105434224009514e-03 1.543266815133392811e-03 -7.044498925097286701e-04
4.220000000000000000e+02 6.734611988067626953e-01 -3.736250305175781250e+01 1.696027442812919617e-02 -2.056478895246982574e-02 -1.081354334019124508e-03 -6.106942892074584961e-04
4.230000000000000000e+02 8.883925437927246094e+00 -3.928975677490234375e+01 3.597464412450790405e-02 2.303649112582206726e-02 1.770334132015705109e-02 -4.965135827660560608e-02
4.240000000000000000e+02 1.210231113433837891e+01 -4.142444992065429688e+01 1.720847785472869873e-01 5.022031068801879883e-02 6.669152528047561646e-02 -2.669413387775421143e-02
4.250000000000000000e+02 2.101796722412109375e+01 -3.369527816772460938e+01 2.269368022680282593e-01 5.029787540435791016e+00 1.577017307281494141e+00 3.426198363304138184e-01
4.260000000000000000e+02 1.970322799682617188e+01 -2.803030776977539062e+01 2.745451964437961578e-02 4.766492843627929688e+00 1.438184261322021484e+00 4.188362136483192444e-02
4.270000000000000000e+02 2.124062538146972656e+01 -3.097362327575683594e+01 1.957054436206817627e-02 4.975946903228759766e+00 1.498655200004577637e+00 1.620769202709197998e-01
4.280000000000000000e+02 1.960618782043457031e+01 -3.503495788574218750e+01 1.673940867185592651e-01 5.523838043212890625e+00 1.707369565963745117e+00 5.032427310943603516e-01
4.290000000000000000e+02 1.946002197265625000e+01 -3.643873977661132812e+01 6.604608297348022461e-01 5.007031440734863281e+00 1.700247764587402344e+00 9.065810441970825195e-01
4.300000000000000000e+02 1.973682975769042969e+01 -2.381021499633789062e+01 -5.685352906584739685e-02 4.502779006958007812e+00 1.333777666091918945e+00 1.083423867821693420e-01
4.310000000000000000e+02 1.982198143005371094e+01 -2.099478149414062500e+01 1.228515803813934326e-02 4.609016895294189453e+00 1.386390686035156250e+00 1.297203302383422852e-01
4.320000000000000000e+02 2.133499908447265625e+01 -2.532444000244140625e+01 -5.776926875114440918e-02 4.779885292053222656e+00 1.416634917259216309e+00 1.314892768859863281e-01
4.330000000000000000e+02 2.067951965332031250e+01 -1.333406448364257812e+00 3.332457691431045532e-02 4.650701999664306641e+00 1.405207872390747070e+00 2.332685887813568115e-01
4.340000000000000000e+02 2.035742759704589844e+01 -6.934022903442382812e+00 -2.483955770730972290e-02 4.568627834320068359e+00 1.363136529922485352e+00 1.144684180617332458e-01
4.350000000000000000e+02 2.162862968444824219e+01 -1.114300441741943359e+01 2.000132016837596893e-02 4.996185302734375000e+00 1.504856109619140625e+00 1.889487504959106445e-01
4.360000000000000000e+02 2.675744056701660156e+01 -2.299105262756347656e+01 -5.295716226100921631e-02 5.227652072906494141e+00 1.552408456802368164e+00 1.513953357934951782e-01
4.370000000000000000e+02 3.585671615600585938e+01 -3.511368560791015625e+01 -1.099978834390640259e-01 5.857596397399902344e+00 1.724279522895812988e+00 -7.306011393666267395e-03
4.380000000000000000e+02 4.102213287353515625e+01 -3.738488006591796875e+01 -1.308925300836563110e-01 6.255963802337646484e+00 1.837521433830261230e+00 -1.676524057984352112e-02
4.390000000000000000e+02 5.220972824096679688e+01 -4.033417892456054688e+01 -1.042992994189262390e-01 7.033390045166015625e+00 2.078727245330810547e+00 -6.642841268330812454e-03
4.400000000000000000e+02 4.704443740844726562e+01 -4.033633804321289062e+01 -1.187923625111579895e-01 6.701523780822753906e+00 1.974819421768188477e+00 -7.907328195869922638e-03
4.410000000000000000e+02 6.215587615966796875e+01 -4.097874450683593750e+01 -5.710935965180397034e-02 7.738273143768310547e+00 2.304349184036254883e+00 -6.362426560372114182e-03
4.420000000000000000e+02 5.731764602661132812e+01 -4.078054046630859375e+01 -8.214423805475234985e-02 7.404152870178222656e+00 2.196602582931518555e+00 -9.773269295692443848e-03
4.430000000000000000e+02 6.140656280517578125e+01 -3.202760696411132812e+01 -7.617458701133728027e-02 7.683242321014404297e+00 2.282120466232299805e+00 -5.541909113526344299e-02
4.440000000000000000e+02 6.066741180419921875e+01 -2.317935180664062500e+01 -1.074391305446624756e-01 7.646675586700439453e+00 2.261770963668823242e+00 -1.053141057491302490e-01
4.450000000000000000e+02 5.568306350708007812e+01 -1.834550094604492188e+01 -1.768510639667510986e-01 7.375136375427246094e+00 2.159485578536987305e+00 -1.122998967766761780e-01
4.460000000000000000e+02 5.698105239868164062e+01 -6.979677677154541016e+00 -2.942408919334411621e-01 7.580412864685058594e+00 2.185851573944091797e+00 -2.442171722650527954e-01
4.470000000000000000e+02 5.195541381835937500e+01 -1.225812911987304688e+01 -2.666459977626800537e-01 7.213192939758300781e+00 2.083964109420776367e+00 -1.042985022068023682e-01
4.480000000000000000e+02 5.352351379394531250e+01 -3.847940683364868164e+00 -3.816833794116973877e-01 7.490689277648925781e+00 2.132701635360717773e+00 -2.083477973937988281e-01
4.490000000000000000e+02 4.071723556518554688e+01 -1.131543874740600586e+00 -4.481306970119476318e-01 6.711391448974609375e+00 1.878978252410888672e+00 2.642655074596405029e-01
4.500000000000000000e+02 3.311497879028320312e+01 -1.068693161010742188e+00 -2.583258748054504395e-01 5.849171638488769531e+00 1.677253723144531250e+00 4.609661698341369629e-01
4.510000000000000000e+02 2.808943176269531250e+01 -2.655793428421020508e+00 -1.115804091095924377e-01 5.303829193115234375e+00 1.557674646377563477e+00 4.033951163291931152e-01
4.520000000000000000e+02 2.060156631469726562e+01 -2.738963603973388672e+00 6.536783277988433838e-02 4.723677635192871094e+00 1.436713695526123047e+00 3.039272427558898926e-01
4.530000000000000000e+02 2.032203674316406250e+01 -9.737576484680175781e+00 4.818395897746086121e-02 4.980490684509277344e+00 1.508602380752563477e+00 1.494647264480590820e-01
4.540000000000000000e+02 1.998496246337890625e+01 -1.676715660095214844e+01 -2.192165935412049294e-03 4.578827381134033203e+00 1.372990608215332031e+00 3.540031909942626953e-01
4.550000000000000000e+02 2.150084114074707031e+01 -1.680007553100585938e+01 -5.120233446359634399e-02 4.853408336639404297e+00 1.440661787986755371e+00 1.895509809255599976e-01
4.560000000000000000e+02 2.879972076416015625e+01 -3.343924713134765625e+01 1.240656897425651550e-02 5.254086971282958984e+00 1.579948067665100098e+00 8.214234374463558197e-03
4.570000000000000000e+02 3.728992462158203125e+01 -4.106560897827148438e+01 -1.570257842540740967e-01 5.979839801788330078e+00 1.746844291687011719e+00 -1.154282130300998688e-02
4.580000000000000000e+02 4.211557388305664062e+01 -4.079975128173828125e+01 -1.348451077938079834e-01 6.318958282470703125e+00 1.855234026908874512e+00 -3.183398861438035965e-03
4.590000000000000000e+02 1.322024250030517578e+01 -3.567292022705078125e+01 -6.322040408849716187e-02 -4.048703238368034363e-03 -2.018073387444019318e-02 4.219209402799606323e-02
4.600000000000000000e+02 1.384929943084716797e+01 -3.432770156860351562e+01 4.796570283360779285e-04 -2.708173170685768127e-02 -7.980622351169586182e-03 1.415586564689874649e-02
4.610000000000000000e+02 1.415984725952148438e+01 -3.300422286987304688e+01 -1.199335698038339615e-02 -5.716880317777395248e-03 -5.313071422278881073e-03 6.615134887397289276e-03
4.620000000000000000e+02 1.329181575775146484e+01 -2.624931907653808594e+01 -3.769377712160348892e-03 -8.758354233577847481e-04 -1.393563929013907909e-03 -1.206632005050778389e-03
4.630000000000000000e+02 1.887730836868286133e+00 -1.772607421875000000e+01 -2.190393628552556038e-03 1.308071077801287174e-04 -6.178759504109621048e-04 1.659995323279872537e-04
4.640000000000000000e+02 6.638188362121582031e-01 -2.345853614807128906e+01 2.436890034005045891e-03 9.225660469383001328e-04 1.007836777716875076e-03 4.875175363849848509e-05
4.650000000000000000e+02 1.449084568023681641e+01 -3.032964515686035156e+01 -7.613309659063816071e-03 1.313505927100777626e-03 -1.889941049739718437e-03 2.446059603244066238e-03
4.660000000000000000e+02 1.333694076538085938e+01 -2.884737777709960938e+01 -4.068804904818534851e-03 -2.479023998603224754e-03 -1.964348601177334785e-03 2.080256585031747818e-03
4.670000000000000000e+02 1.421738529205322266e+01 -2.200681877136230469e+01 -4.655615426599979401e-03 7.215837831608951092e-04 -1.180209452286362648e-03 -5.025790887884795666e-04
4.680000000000000000e+02 1.452223873138427734e+01 -1.348050308227539062e+01 -3.248085966333746910e-03 -9.142944327322766185e-05 -1.001854659989476204e-03 3.788477624766528606e-04
4.690000000000000000e+02 1.460882282257080078e+01 -6.545957565307617188e+00 2.058500889688730240e-03 6.319844396784901619e-05 6.365097942762076855e-04 -1.895782952487934381e-05
4.700000000000000000e+02 1.461253166198730469e+01 -3.839167833328247070e+00 1.711481367237865925e-03 2.259934408357366920e-04 5.812424351461231709e-04 3.636601031757891178e-04
4.710000000000000000e+02 1.445022773742675781e+01 -2.822714567184448242e+00 -1.763264415785670280e-03 -2.580340660642832518e-04 -6.063895416446030140e-04 -7.098088390193879604e-04
4.720000000000000000e+02 1.034132575988769531e+01 -2.724373579025268555e+00 -5.619153962470591068e-04 -2.076619857689365745e-04 -2.308732218807563186e-04 2.868786395993083715e-04
4.730000000000000000e+02 1.349718856811523438e+01 -1.063049983978271484e+01 2.500812755897641182e-03 1.332881220150738955e-04 7.902302895672619343e-04 -2.894178614951670170e-04
4.740000000000000000e+02 1.279863929748535156e+01 -1.869710350036621094e+01 2.781806979328393936e-03 6.575913866981863976e-04 1.031819498166441917e-03 -1.286006532609462738e-03
4.750000000000000000e+02 1.323869895935058594e+01 -2.495493698120117188e+01 3.969112876802682877e-03 1.649526064284145832e-03 1.685591647401452065e-03 1.430332311429083347e-03
4.760000000000000000e+02 1.450591373443603516e+01 -2.622169876098632812e+01 4.027631599456071854e-03 2.283315639942884445e-03 1.893284148536622524e-03 1.505983527749776840e-04
4.770000000000000000e+02 1.109880065917968750e+01 -1.917398571968078613e+00 -5.427346331998705864e-04 -9.879952267510816455e-05 -1.924602402141317725e-04 1.656293025007471442e-04
4.780000000000000000e+02 4.227689266204833984e+00 -1.936644554138183594e+00 3.089862293563783169e-04 2.266644005430862308e-04 1.606951991561800241e-04 1.395869039697572589e-04
4.790000000000000000e+02 1.718816995620727539e+00 -1.071660804748535156e+01 1.592675806023180485e-03 -5.046059959568083286e-05 4.626645531971007586e-04 4.433893263922072947e-05
4.800000000000000000e+02 6.307389140129089355e-01 -1.775227165222167969e+01 1.636037719435989857e-03 2.079194528050720692e-04 5.531871574930846691e-04 6.884949925733963028e-06
4.810000000000000000e+02 2.656129598617553711e+00 -3.767520904541015625e+01 7.889716885983943939e-03 -1.651174575090408325e-02 -2.586608985438942909e-03 -8.079111576080322266e-03
4.820000000000000000e+02 2.136693763732910156e+01 -3.651823806762695312e+01 3.657974898815155029e-01 4.445750713348388672e+00 1.443464517593383789e+00 2.132363617420196533e-02
4.830000000000000000e+02 2.379643249511718750e+01 -3.649140930175781250e+01 7.729388773441314697e-02 4.756979942321777344e+00 1.450282216072082520e+00 -6.980822235345840454e-02
4.840000000000000000e+02 3.233303833007812500e+01 -3.857406997680664062e+01 -1.592437773942947388e-01 5.607809543609619141e+00 1.634569764137268066e+00 -1.864131167531013489e-02
4.850000000000000000e+02 3.169342231750488281e+01 -3.307104492187500000e+01 -3.654306381940841675e-02 5.479887485504150391e+00 1.633003234863281250e+00 -8.838295936584472656e-03
4.860000000000000000e+02 1.968050956726074219e+01 -3.084108543395996094e+01 4.877810925245285034e-02 4.953547954559326172e+00 1.500697851181030273e+00 6.561630964279174805e-02
4.870000000000000000e+02 6.439484405517578125e+01 -2.633299255371093750e+01 -6.913246214389801025e-02 7.868995189666748047e+00 2.339958906173706055e+00 -8.180566132068634033e-02
4.880000000000000000e+02 6.569276428222656250e+01 -1.691318130493164062e+01 -9.486334770917892456e-02 7.941301345825195312e+00 2.353931427001953125e+00 -1.629032641649246216e-01
4.890000000000000000e+02 6.684405517578125000e+01 -4.096408462524414062e+01 -3.732232749462127686e-02 8.064921379089355469e+00 2.408279895782470703e+00 -5.452605430036783218e-03
4.900000000000000000e+02 6.897957611083984375e+01 -3.737571716308593750e+01 -2.584188617765903473e-02 8.227588653564453125e+00 2.460524082183837891e+00 -2.326801046729087830e-02
4.910000000000000000e+02 7.119298553466796875e+01 -3.093395423889160156e+01 -2.434568852186203003e-02 8.362441062927246094e+00 2.501428604125976562e+00 -4.463186487555503845e-02
4.920000000000000000e+02 7.270413970947265625e+01 -2.456790733337402344e+01 -2.010847441852092743e-02 8.437167167663574219e+00 2.525117635726928711e+00 -6.865613162517547607e-02
4.930000000000000000e+02 7.791083526611328125e+01 -4.160408020019531250e+01 1.871543191373348236e-02 8.896024703979492188e+00 2.674422264099121094e+00 5.237791221588850021e-03
4.940000000000000000e+02 7.788827514648437500e+01 -3.677979660034179688e+01 -7.409829180687665939e-03 8.879276275634765625e+00 2.661559820175170898e+00 1.208984013646841049e-02
4.950000000000000000e+02 7.931941986083984375e+01 -3.333051681518554688e+01 -1.058931375155225396e-04 8.979820251464843750e+00 2.693914175033569336e+00 -3.309742780402302742e-03
4.960000000000000000e+02 7.806751251220703125e+01 -1.649701309204101562e+01 -3.029946703463792801e-03 8.720429420471191406e+00 2.615219831466674805e+00 -3.871117159724235535e-02
4.970000000000000000e+02 7.934304809570312500e+01 -1.247872543334960938e+01 -8.132703369483351707e-04 8.733582496643066406e+00 2.619830608367919922e+00 -2.188576757907867432e-02
4.980000000000000000e+02 7.282668304443359375e+01 -5.511865615844726562e+00 -5.054479837417602539e-02 8.177931785583496094e+00 2.438216209411621094e+00 -2.272627651691436768e-01
4.990000000000000000e+02 6.423410034179687500e+01 2.564187765121459961e+00 -2.322622835636138916e-01 7.856405735015869141e+00 2.287243127822875977e+00 -4.954214096069335938e-01
5.000000000000000000e+02 5.766622161865234375e+01 6.930983066558837891e+00 -4.089104533195495605e-01 7.883711338043212891e+00 2.242440223693847656e+00 -5.370495915412902832e-01
5.010000000000000000e+02 5.014537811279296875e+01 2.027556991577148438e+01 -2.636197209358215332e-01 8.580444335937500000e+00 2.495047569274902344e+00 -7.095707058906555176e-01
5.020000000000000000e+02 4.316774749755859375e+01 2.705128479003906250e+01 4.089104235172271729e-01 9.726859092712402344e+00 3.040730953216552734e+00 -6.122739315032958984e-01
5.030000000000000000e+02 3.559024047851562500e+01 3.271483612060546875e+01 2.488380432128906250e+00 1.538798427581787109e+01 5.362909317016601562e+00 8.108702301979064941e-01
5.040000000000000000e+02 3.371379089355468750e+01 3.325488662719726562e+01 3.831556558609008789e+00 1.181971263885498047e+01 4.695380687713623047e+00 7.233220577239990234e+00
5.050000000000000000e+02 7.801225280761718750e+01 -9.599114418029785156e+00 -4.193592816591262817e-03 8.567595481872558594e+00 2.569020748138427734e+00 -6.202296540141105652e-02
5.060000000000000000e+02 7.933142089843750000e+01 -5.520990371704101562e+00 -1.119173597544431686e-03 8.525588989257812500e+00 2.557341098785400391e+00 -3.220736980438232422e-02
5.070000000000000000e+02 6.630100250244140625e+01 9.302284240722656250e+00 -1.752872467041015625e-01 7.793456077575683594e+00 2.285450696945190430e+00 -6.368362307548522949e-01
5.080000000000000000e+02 5.507955932617187500e+01 1.881523323059082031e+01 -1.974544972181320190e-01 8.241954803466796875e+00 2.413350105285644531e+00 -8.319126367568969727e-01
5.090000000000000000e+02 4.633411026000976562e+01 2.562701606750488281e+01 2.527734637260437012e-01 9.174029350280761719e+00 2.828041076660156250e+00 -7.555612325668334961e-01
5.100000000000000000e+02 4.108208847045898438e+01 3.293885040283203125e+01 2.898222208023071289e+00 1.050802516937255859e+01 4.021874427795410156e+00 -2.259200215339660645e-01
5.110000000000000000e+02 3.601456451416015625e+01 3.350471496582031250e+01 5.275149345397949219e+00 1.598708152770996094e+01 6.378669261932373047e+00 -5.642330050468444824e-01
5.120000000000000000e+02 3.501298141479492188e+01 3.251152801513671875e+01 1.662313818931579590e+00 1.551337242126464844e+01 5.152705669403076172e+00 2.006620407104492188e+00
5.130000000000000000e+02 7.798263549804687500e+01 -2.632918119430541992e+00 -5.841725971549749374e-03 8.333442687988281250e+00 2.498280525207519531e+00 -9.367833286523818970e-02
5.140000000000000000e+02 7.932755279541015625e+01 2.854148864746093750e+00 -7.818024605512619019e-04 8.131427764892578125e+00 2.439193964004516602e+00 -4.750978201627731323e-02
5.150000000000000000e+02 7.299044036865234375e+01 9.924319267272949219e+00 -5.208303406834602356e-02 7.662942886352539062e+00 2.283257961273193359e+00 -4.451997578144073486e-01
5.160000000000000000e+02 6.636303710937500000e+01 1.891218185424804688e+01 -2.706570550799369812e-02 7.586387157440185547e+00 2.267796516418457031e+00 -7.830612659454345703e-01
5.170000000000000000e+02 5.742316436767578125e+01 2.280376625061035156e+01 1.099865734577178955e-01 8.111684799194335938e+00 2.466501474380493164e+00 -9.212089180946350098e-01
5.180000000000000000e+02 4.768666076660156250e+01 2.989562225341796875e+01 1.042378544807434082e+00 9.075833320617675781e+00 3.035463571548461914e+00 -7.805464863777160645e-01
5.190000000000000000e+02 4.431801223754882812e+01 3.683642578125000000e+01 1.988055467605590820e+00 1.019582843780517578e+01 3.655165195465087891e+00 3.975270390510559082e-01
5.200000000000000000e+02 3.451080322265625000e+01 3.737005233764648438e+01 -8.598358035087585449e-01 1.416381454467773438e+01 3.991193771362304688e+00 -2.094252824783325195e+00
5.210000000000000000e+02 3.573984527587890625e+01 3.604732894897460938e+01 4.526034832000732422e+00 1.769504928588867188e+01 6.666325092315673828e+00 3.783569812774658203e+00
5.220000000000000000e+02 3.612950134277343750e+01 3.419044494628906250e+01 7.511462211608886719e+00 1.544116783142089844e+01 6.885788917541503906e+00 -2.783344388008117676e-01
5.230000000000000000e+02 7.799683380126953125e+01 4.377795696258544922e+00 -5.839757621288299561e-03 7.993852615356445312e+00 2.396403789520263672e+00 -1.298520565032958984e-01
5.240000000000000000e+02 7.933647155761718750e+01 8.432921409606933594e+00 -5.533546791411936283e-04 7.762446403503417969e+00 2.328567981719970703e+00 -5.763728544116020203e-02
5.250000000000000000e+02 7.199474334716796875e+01 1.673268699645996094e+01 -2.881411090493202209e-02 7.373949050903320312e+00 2.203540563583374023e+00 -5.663545131683349609e-01
5.260000000000000000e+02 6.453562927246093750e+01 2.402340888977050781e+01 1.294276863336563110e-01 7.580281734466552734e+00 2.312912702560424805e+00 -8.225596547126770020e-01
5.270000000000000000e+02 5.673921585083007812e+01 3.184792327880859375e+01 7.481949329376220703e-01 8.056525230407714844e+00 2.641415834426879883e+00 -7.079414129257202148e-01
5.280000000000000000e+02 4.807809448242187500e+01 3.675817871093750000e+01 1.579939365386962891e+00 9.410827636718750000e+00 3.297230005264282227e+00 -1.410197615623474121e-01
5.290000000000000000e+02 7.800722503662109375e+01 1.133862400054931641e+01 -5.671579390764236450e-03 7.537112236022949219e+00 2.259432077407836914e+00 -1.656043678522109985e-01
5.300000000000000000e+02 7.931779479980468750e+01 1.679610824584960938e+01 1.155606121756136417e-03 7.060224533081054688e+00 2.118414163589477539e+00 -7.005194574594497681e-02
5.310000000000000000e+02 7.180078887939453125e+01 2.469988441467285156e+01 5.377428606152534485e-02 7.021945476531982422e+00 2.122715950012207031e+00 -5.584476590156555176e-01
5.320000000000000000e+02 6.291984939575195312e+01 3.043966293334960938e+01 4.500102996826171875e-01 7.580100059509277344e+00 2.409033060073852539e+00 -7.089301347732543945e-01
5.330000000000000000e+02 5.214025497436523438e+01 3.626663970947265625e+01 1.294167399406433105e+00 8.667007446289062500e+00 2.988352537155151367e+00 -3.785151839256286621e-01
5.340000000000000000e+02 4.777183532714843750e+01 4.061632537841796875e+01 1.559157252311706543e+00 9.696070671081542969e+00 3.376568317413330078e+00 -1.379969529807567596e-02
5.350000000000000000e+02 7.792950439453125000e+01 1.973517417907714844e+01 -2.410530811175704002e-03 6.871756076812744141e+00 2.060803651809692383e+00 -1.942345947027206421e-01
5.360000000000000000e+02 7.932428741455078125e+01 2.377444458007812500e+01 -2.483903081156313419e-04 6.404027938842773438e+00 1.921133756637573242e+00 -6.972260028123855591e-02
5.370000000000000000e+02 7.318092346191406250e+01 3.059193992614746094e+01 9.885739535093307495e-02 6.641645431518554688e+00 2.022150754928588867e+00 -4.004035890102386475e-01
5.380000000000000000e+02 6.288545989990234375e+01 4.049176406860351562e+01 6.845772862434387207e-01 7.478758335113525391e+00 2.449000597000122070e+00 -1.301485449075698853e-01
5.390000000000000000e+02 5.780654144287109375e+01 4.009294509887695312e+01 1.026327610015869141e+00 7.992483615875244141e+00 2.705643415451049805e+00 -1.826848089694976807e-01
5.400000000000000000e+02 7.656747436523437500e+01 2.271518898010253906e+01 8.316357620060443878e-03 6.738031387329101562e+00 2.023904323577880859e+00 -3.015251159667968750e-01
5.410000000000000000e+02 7.942172241210937500e+01 2.926714515686035156e+01 1.173779135569930077e-03 5.926203727722167969e+00 1.778213262557983398e+00 -4.649606719613075256e-02
5.420000000000000000e+02 6.821680450439453125e+01 3.785480499267578125e+01 3.612449765205383301e-01 6.959038734436035156e+00 2.196085214614868164e+00 -2.362271845340728760e-01
5.430000000000000000e+02 7.923578643798828125e+01 3.202788925170898438e+01 -2.746527083218097687e-03 5.742190837860107422e+00 1.721833348274230957e+00 -4.960706084966659546e-02
5.440000000000000000e+02 7.897811889648437500e+01 3.761677932739257812e+01 -7.992042228579521179e-03 5.540897369384765625e+00 1.659871578216552734e+00 -3.075203858315944672e-02
5.450000000000000000e+02 7.702353668212890625e+01 3.749105834960937500e+01 1.046736445277929306e-02 5.857985019683837891e+00 1.760535717010498047e+00 -5.545632168650627136e-02
5.460000000000000000e+02 3.464317703247070312e+01 3.685279083251953125e+01 -2.920584678649902344e-01 1.643559837341308594e+01 4.843061923980712891e+00 -1.130969643592834473e+00
5.470000000000000000e+02 3.088222122192382812e+01 3.803488159179687500e+01 2.111818939447402954e-01 1.664139389991760254e+00 5.625963807106018066e-01 -6.312530040740966797e-01
5.480000000000000000e+02 3.187682342529296875e+01 3.720971298217773438e+01 4.806332588195800781e-01 2.156026363372802734e+00 7.909978628158569336e-01 -1.456168532371520996e+00
5.490000000000000000e+02 2.888562011718750000e+01 3.774598693847656250e+01 -4.163506031036376953e-01 -3.972704410552978516e-01 -2.440863102674484253e-01 5.144609212875366211e-01
5.500000000000000000e+02 2.246977996826171875e+01 3.818419265747070312e+01 -1.958667039871215820e-01 -7.793275266885757446e-02 -8.213983476161956787e-02 2.502524554729461670e-01
5.510000000000000000e+02 2.586527252197265625e+01 3.862667083740234375e+01 -1.497613489627838135e-01 -2.411398440599441528e-01 -1.172703579068183899e-01 5.900821685791015625e-01
5.520000000000000000e+02 2.175079345703125000e+01 3.985332870483398438e+01 1.386690437793731689e-01 -2.380093485116958618e-01 -2.980209141969680786e-02 2.249283343553543091e-01
5.530000000000000000e+02 2.116801071166992188e+01 3.810503005981445312e+01 -1.136206611990928650e-01 -4.060614481568336487e-02 -4.626804217696189880e-02 1.378862708806991577e-01
5.540000000000000000e+02 1.950823402404785156e+01 3.809390640258789062e+01 -6.822552531957626343e-02 -3.696746751666069031e-02 -3.155789896845817566e-02 6.175110861659049988e-02
5.550000000000000000e+02 1.969357013702392578e+00 2.587545394897460938e+01 -1.388579490594565868e-03 4.481403811951167881e-05 -4.031296120956540108e-04 -6.294391641858965158e-05
5.560000000000000000e+02 2.102865219116210938e+00 3.027827644348144531e+01 1.549766166135668755e-03 5.036036600358784199e-04 6.160109187476336956e-04 -3.898301802109926939e-04
5.570000000000000000e+02 3.691937208175659180e+00 3.834281539916992188e+01 -1.725390029605478048e-05 1.056268112733960152e-03 3.117042651865631342e-04 1.283672900171950459e-04
5.580000000000000000e+02 1.961867928504943848e+00 4.166991806030273438e+01 -9.322130354121327400e-04 2.708909101784229279e-03 5.330088315531611443e-04 -2.953910443466156721e-04
5.590000000000000000e+02 1.378510570526123047e+01 3.667544174194335938e+01 -3.430931828916072845e-04 -5.152015946805477142e-03 -1.648532692342996597e-03 -1.871031825430691242e-03
5.600000000000000000e+02 1.087909698486328125e+01 3.465897750854492188e+01 1.504655927419662476e-03 -2.409713808447122574e-03 -2.715174050536006689e-04 -1.069254940375685692e-03
5.610000000000000000e+02 1.455940914154052734e+01 2.297977638244628906e+01 -1.480544684454798698e-03 -5.833328032167628407e-05 -4.616633814293891191e-04 1.011044369079172611e-04
5.620000000000000000e+02 1.448090553283691406e+01 1.739747619628906250e+01 -1.260474324226379395e-03 -1.670744859438855201e-05 -3.831545182038098574e-04 8.450927271042019129e-05
5.630000000000000000e+02 1.447752952575683594e+01 1.043315696716308594e+01 7.621754775755107403e-04 -1.654896732361521572e-05 2.236879518022760749e-04 -3.281531098764389753e-05
5.640000000000000000e+02 1.369277858734130859e+01 1.827032804489135742e+00 9.633595618652179837e-05 5.523767322301864624e-05 4.547209027805365622e-05 6.155047594802454114e-05
5.650000000000000000e+02 1.317676353454589844e+01 1.783350229263305664e+00 -1.199616817757487297e-04 -7.061450742185115814e-05 -5.717285966966301203e-05 -2.631033567013218999e-05
5.660000000000000000e+02 7.007245421409606934e-01 3.469677734375000000e+01 1.178050064481794834e-03 1.953152008354663849e-03 9.393606451340019703e-04 -2.032039337791502476e-04
5.670000000000000000e+02 6.744662523269653320e-01 2.754562759399414062e+01 -1.130861346609890461e-03 1.127860523411072791e-04 -3.054226108361035585e-04 3.166180613334290683e-05
5.680000000000000000e+02 6.045532822608947754e-01 2.046201896667480469e+01 1.524680992588400841e-03 -1.341497954854276031e-05 4.533797909971326590e-04 -2.337646146770566702e-04
5.690000000000000000e+02 1.778050184249877930e+00 1.603215217590332031e+01 1.268812338821589947e-03 6.662966188741847873e-05 4.006325907539576292e-04 -2.464106073603034019e-04
5.700000000000000000e+02 1.164677333831787109e+01 1.150575447082519531e+01 -5.988728371448814869e-04 -2.565109753049910069e-04 -2.566151379141956568e-04 -3.582030767574906349e-04
5.710000000000000000e+02 1.321263408660888672e+01 1.611865425109863281e+01 -1.192224910482764244e-03 3.251199086662381887e-05 -3.479138831607997417e-04 4.185440411674790084e-05
5.720000000000000000e+02 1.197163009643554688e+01 1.882698249816894531e+01 1.630082610063254833e-03 -1.363253250019624829e-04 4.481271898839622736e-04 6.688578287139534950e-05
5.730000000000000000e+02 1.334501647949218750e+01 2.454882049560546875e+01 -1.774822478182613850e-03 1.451062853448092937e-04 -4.889148403890430927e-04 2.068078465526923537e-04
5.740000000000000000e+02 1.239269924163818359e+01 2.886403465270996094e+01 -2.154844580218195915e-03 -3.704365808516740799e-04 -7.575842901133000851e-04 1.596598849573638290e-05
5.750000000000000000e+02 5.943900346755981445e-01 1.483048534393310547e+01 1.323345117270946503e-03 4.583390909829176962e-05 4.107537097297608852e-04 -2.406517305644229054e-04
5.760000000000000000e+02 1.672793745994567871e+00 9.034112930297851562e+00 -8.742802892811596394e-04 -6.452078378060832620e-05 -2.816403284668922424e-04 2.086622989736497402e-04
5.770000000000000000e+02 8.902983665466308594e+00 2.555428504943847656e+00 1.616955705685541034e-04 2.141685545211657882e-04 1.127592404372990131e-04 1.430224619980435818e-05
5.780000000000000000e+02 9.637916564941406250e+00 1.835418581962585449e+00 1.397784653818234801e-04 1.914772874442860484e-04 9.937672439264133573e-05 2.165099976991768926e-05
5.790000000000000000e+02 1.118426561355590820e+00 3.776874780654907227e+00 2.738608454819768667e-04 -2.578525745775550604e-04 4.802482180821243674e-06 4.703463928308337927e-04
5.800000000000000000e+02 5.261439085006713867e-01 6.388134002685546875e+00 7.661339477635920048e-04 7.729711069259792566e-05 2.530293131712824106e-04 -6.684090476483106613e-05
5.810000000000000000e+02 3.686662673950195312e+00 3.680814981460571289e+00 4.479404597077518702e-04 1.197756500914692879e-04 1.703148300293833017e-04 -1.526115374872460961e-04
5.820000000000000000e+02 1.323411178588867188e+01 1.038508510589599609e+01 -8.604284957982599735e-04 8.863315088092349470e-06 -2.554695529397577047e-04 -1.162915650638751686e-04
5.830000000000000000e+02 1.444542980194091797e+01 2.018123245239257812e+01 -1.273172674700617790e-03 -7.049085979815572500e-05 -4.030990821775048971e-04 9.053834946826100349e-05
5.840000000000000000e+02 1.551319694519042969e+01 3.139700126647949219e+01 -2.994633046910166740e-03 1.789800706319510937e-03 -3.614496963564306498e-04 1.185901113785803318e-03
5.850000000000000000e+02 1.522664356231689453e+01 2.999365997314453125e+01 2.366119064390659332e-03 1.204787986353039742e-03 1.071272068656980991e-03 3.163942601531744003e-04
5.860000000000000000e+02 1.764981079101562500e+01 3.801334381103515625e+01 8.054776117205619812e-03 6.586882285773754120e-03 4.392497707158327103e-03 1.719142869114875793e-02
5.870000000000000000e+02 1.816557312011718750e+01 3.971877288818359375e+01 -2.763610100373625755e-03 -6.028793007135391235e-02 -1.891546323895454407e-02 4.693130776286125183e-02
5.880000000000000000e+02 1.231326103210449219e+01 4.116425323486328125e+01 -1.068672444671392441e-02 -7.638179231435060501e-03 -5.497470963746309280e-03 -6.135314702987670898e-03
5.890000000000000000e+02 1.998348045349121094e+01 3.796867752075195312e+01 -5.127118155360221863e-02 -2.621999010443687439e-02 -2.324735186994075775e-02 4.797960445284843445e-02
5.900000000000000000e+02 2.817512512207031250e+01 2.429242706298828125e+01 2.406946122646331787e-01 3.785174846649169922e+00 1.207760810852050781e+00 1.806791305541992188e+00
5.910000000000000000e+02 2.635146331787109375e+01 2.594700622558593750e+01 4.609723687171936035e-01 2.272023916244506836e+00 8.198989033699035645e-01 1.328240513801574707e+00
5.920000000000000000e+02 3.805864334106445312e+01 2.973458671569824219e+01 7.444185018539428711e-01 1.147339439392089844e+01 3.665343761444091797e+00 2.739389240741729736e-02
5.930000000000000000e+02 4.222399520874023438e+01 2.802289581298828125e+01 6.104462146759033203e-01 9.969203948974609375e+00 3.173895120620727539e+00 -5.861101746559143066e-01
5.940000000000000000e+02 4.749930191040039062e+01 2.696256637573242188e+01 5.273216962814331055e-01 9.056824684143066406e+00 2.875243902206420898e+00 -8.349856734275817871e-01
5.950000000000000000e+02 5.407652282714843750e+01 2.757159042358398438e+01 5.347470045089721680e-01 8.408095359802246094e+00 2.682852745056152344e+00 -8.964126110076904297e-01
5.960000000000000000e+02 6.304697799682617188e+01 2.047885894775390625e+01 2.860344015061855316e-03 7.753744602203369141e+00 2.326981544494628906e+00 -8.578035831451416016e-01
5.970000000000000000e+02 7.300614929199218750e+01 2.567564773559570312e+01 5.287637189030647278e-02 6.865136146545410156e+00 2.075403690338134766e+00 -4.910376369953155518e-01
5.980000000000000000e+02 7.162234497070312500e+01 3.073004913330078125e+01 1.414760500192642212e-01 6.790600776672363281e+00 2.079622983932495117e+00 -4.452640712261199951e-01
5.990000000000000000e+02 6.084991455078125000e+01 3.186357307434082031e+01 6.217286586761474609e-01 7.789354324340820312e+00 2.523324966430664062e+00 -6.665036082267761230e-01
6.000000000000000000e+02 5.535475158691406250e+01 2.987346458435058594e+01 7.195680737495422363e-01 8.251943588256835938e+00 2.691453456878662109e+00 -8.112843036651611328e-01
6.010000000000000000e+02 4.850787734985351562e+01 3.327097320556640625e+01 1.499276280403137207e+00 9.087416648864746094e+00 3.176007986068725586e+00 -4.557849168777465820e-01
6.020000000000000000e+02 3.329573059082031250e+01 1.533290290832519531e+01 -6.446192860603332520e-01 6.360842227935791016e+00 1.714866876602172852e+00 1.254752159118652344e+00
6.030000000000000000e+02 3.283026885986328125e+01 1.721054458618164062e+01 -6.284360289573669434e-01 6.331741333007812500e+00 1.710991501808166504e+00 1.388355970382690430e+00
6.040000000000000000e+02 4.017818069458007812e+01 1.535978984832763672e+01 -8.557246923446655273e-01 7.886775493621826172e+00 2.109315156936645508e+00 5.035961866378784180e-01
6.050000000000000000e+02 5.345503616333007812e+01 1.711591148376464844e+01 -3.419245481491088867e-01 8.273266792297363281e+00 2.379402637481689453e+00 -7.314226627349853516e-01
6.060000000000000000e+02 6.501811218261718750e+01 1.576972389221191406e+01 -1.123107969760894775e-01 7.725152969360351562e+00 2.283852577209472656e+00 -7.791512608528137207e-01
6.070000000000000000e+02 7.186949920654296875e+01 1.839491462707519531e+01 -1.694344915449619293e-02 7.299885272979736328e+00 2.184882640838623047e+00 -5.792862772941589355e-01
6.080000000000000000e+02 2.710924530029296875e+01 1.692910766601562500e+01 -2.301594018936157227e-01 4.165266036987304688e+00 1.180532097816467285e+00 1.273562431335449219e+00
6.090000000000000000e+02 2.719887351989746094e+01 1.280738162994384766e+01 -2.214514166116714478e-01 4.549558162689208984e+00 1.298431992530822754e+00 1.040634870529174805e+00
6.100000000000000000e+02 2.606578063964843750e+01 4.489604473114013672e+00 -2.575933001935482025e-02 4.847150325775146484e+00 1.446417331695556641e+00 5.675683617591857910e-01
6.110000000000000000e+02 2.618568611145019531e+01 3.117173194885253906e+00 -3.062136471271514893e-02 4.922801494598388672e+00 1.467654109001159668e+00 5.147863030433654785e-01
6.120000000000000000e+02 3.520474624633789062e+01 4.992260932922363281e+00 -4.558525383472442627e-01 6.263053894042968750e+00 1.742160320281982422e+00 6.436392664909362793e-01
6.130000000000000000e+02 3.337556838989257812e+01 3.832596778869628906e+00 -3.536712825298309326e-01 5.955532073974609375e+00 1.680558204650878906e+00 6.410466432571411133e-01
6.140000000000000000e+02 3.343505859375000000e+01 1.019476032257080078e+01 -5.367575883865356445e-01 6.165200233459472656e+00 1.688532829284667969e+00 9.479253888130187988e-01
6.150000000000000000e+02 2.848580551147460938e+01 1.001387023925781250e+01 -2.409432232379913330e-01 5.021518230438232422e+00 1.434172511100769043e+00 9.515649080276489258e-01
6.160000000000000000e+02 4.032098770141601562e+01 9.294613838195800781e+00 -7.299211025238037109e-01 7.281776905059814453e+00 1.965556740760803223e+00 4.465299844741821289e-01
6.170000000000000000e+02 3.924874877929687500e+01 1.025967884063720703e+01 -7.422609329223632812e-01 7.215867996215820312e+00 1.942082166671752930e+00 5.621258020401000977e-01
6.180000000000000000e+02 4.682395172119140625e+01 1.271846389770507812e+01 -7.123700976371765137e-01 8.092356681823730469e+00 2.213995933532714844e+00 -1.636757254600524902e-01
6.190000000000000000e+02 5.801738357543945312e+01 1.051792526245117188e+01 -3.726856708526611328e-01 7.957916736602783203e+00 2.275569438934326172e+00 -6.508749723434448242e-01
6.200000000000000000e+02 6.287854003906250000e+01 9.427528381347656250e+00 -2.529051005840301514e-01 7.855893135070800781e+00 2.280896425247192383e+00 -6.681107878684997559e-01
6.210000000000000000e+02 7.298385620117187500e+01 1.122740459442138672e+01 -4.903884232044219971e-02 7.602795600891113281e+00 2.266126871109008789e+00 -4.622476696968078613e-01
6.220000000000000000e+02 2.105500411987304688e+01 1.838635444641113281e+01 -4.599935375154018402e-03 1.625756502151489258e+00 4.863469600677490234e-01 1.798519194126129150e-01
6.230000000000000000e+02 2.105656814575195312e+01 1.697628593444824219e+01 -4.593978170305490494e-03 2.027670860290527344e+00 6.069230437278747559e-01 1.699800193309783936e-01
6.240000000000000000e+02 2.106414222717285156e+01 9.938549041748046875e+00 -3.853806527331471443e-03 3.658602714538574219e+00 1.096424698829650879e+00 1.172645539045333862e-01
6.250000000000000000e+02 2.102445411682128906e+01 4.289793491363525391e+00 8.158089220523834229e-02 4.761183261871337891e+00 1.452829360961914062e+00 2.791483402252197266e-01
6.260000000000000000e+02 2.105796241760253906e+01 5.707211494445800781e+00 3.902819752693176270e-02 4.531845569610595703e+00 1.371262192726135254e+00 1.577831655740737915e-01
6.270000000000000000e+02 4.793260192871093750e+01 6.492664337158203125e+00 -6.360422968864440918e-01 7.681060314178466797e+00 2.113505363464355469e+00 -1.123385801911354065e-01
6.280000000000000000e+02 4.672275161743164062e+01 5.474249362945556641e+00 -6.350401043891906738e-01 7.555397033691406250e+00 2.076107025146484375e+00 -2.179778926074504852e-02
6.290000000000000000e+02 5.841593170166015625e+01 1.571837425231933594e+00 -3.672880232334136963e-01 7.782021999359130859e+00 2.224420070648193359e+00 -4.244914352893829346e-01
6.300000000000000000e+02 6.736186218261718750e+01 3.477040052413940430e+00 -1.630733609199523926e-01 7.868122577667236328e+00 2.311514616012573242e+00 -4.892928898334503174e-01
6.310000000000000000e+02 7.277178955078125000e+01 4.540203094482421875e+00 -6.216888874769210815e-02 7.882504463195800781e+00 2.346100568771362305e+00 -3.743601143360137939e-01
6.320000000000000000e+02 2.106204605102539062e+01 1.275293636322021484e+01 -5.030732601881027222e-03 3.080033063888549805e+00 9.225007295608520508e-01 1.348637193441390991e-01
6.330000000000000000e+02 4.032844543457031250e+01 3.585259437561035156e+00 -5.619477033615112305e-01 6.888877868652343750e+00 1.898079156875610352e+00 3.536611795425415039e-01
6.340000000000000000e+02 5.976313781738281250e+01 -6.581778526306152344e+00 -2.585583925247192383e-01 7.693677425384521484e+00 2.230535745620727539e+00 -2.812462747097015381e-01
6.350000000000000000e+02 6.072428894042968750e+01 -4.976078033447265625e+00 -2.553933262825012207e-01 7.746084690093994141e+00 2.247207403182983398e+00 -3.179786801338195801e-01
6.360000000000000000e+02 6.622409057617187500e+01 -3.451580286026000977e+00 -1.664614081382751465e-01 7.915862560272216797e+00 2.324820280075073242e+00 -3.572874665260314941e-01
6.370000000000000000e+02 7.041986083984375000e+01 -1.870406746864318848e+00 -9.331300109624862671e-02 8.016875267028808594e+00 2.377068758010864258e+00 -3.302879035472869873e-01
6.380000000000000000e+02 2.893928527832031250e+01 -4.509667873382568359e+00 -1.223233714699745178e-01 5.397227764129638672e+00 1.582471251487731934e+00 3.738719522953033447e-01
6.390000000000000000e+02 2.730954742431640625e+01 -1.054345512390136719e+01 -3.449648618698120117e-02 5.261940479278564453e+00 1.568233251571655273e+00 2.666992247104644775e-01
6.400000000000000000e+02 3.456653976440429688e+01 -1.522936820983886719e+01 -1.365321427583694458e-01 5.871219158172607422e+00 1.720406174659729004e+00 1.611772328615188599e-01
6.410000000000000000e+02 4.349959182739257812e+01 -2.295360565185546875e+01 -1.518012732267379761e-01 6.469837665557861328e+00 1.895410895347595215e+00 7.889444939792156219e-03
6.420000000000000000e+02 5.055537796020507812e+01 -3.106904602050781250e+01 -1.154812052845954895e-01 6.960266113281250000e+00 2.053435325622558594e+00 -3.461503982543945312e-02
6.430000000000000000e+02 6.130490112304687500e+01 -3.494581222534179688e+01 -6.644772738218307495e-02 7.680437088012695312e+00 2.284196853637695312e+00 -3.966586664319038391e-02
6.440000000000000000e+02 3.458990859985351562e+01 -3.643904209136962891e+00 -2.608942985534667969e-01 5.994304180145263672e+00 1.720023036003112793e+00 3.791759312152862549e-01
6.450000000000000000e+02 3.474398422241210938e+01 -8.956102371215820312e+00 -1.954756826162338257e-01 5.938392162322998047e+00 1.722874999046325684e+00 2.616918683052062988e-01
6.460000000000000000e+02 4.314857101440429688e+01 -1.554899406433105469e+01 -2.123272269964218140e-01 6.531857490539550781e+00 1.895859122276306152e+00 5.211790651082992554e-02
6.470000000000000000e+02 4.972838592529296875e+01 -2.627393150329589844e+01 -1.412975788116455078e-01 6.915235042572021484e+00 2.032181262969970703e+00 -4.152897000312805176e-02
6.480000000000000000e+02 5.991451644897460938e+01 -2.573145103454589844e+01 -9.767237305641174316e-02 7.588953971862792969e+00 2.247384548187255859e+00 -8.440636098384857178e-02
6.490000000000000000e+02 4.080490493774414062e+01 -2.923738718032836914e+00 -4.091103076934814453e-01 6.657048225402832031e+00 1.874381303787231445e+00 2.358630448579788208e-01
6.500000000000000000e+02 4.229093551635742188e+01 -8.967452049255371094e+00 -2.999126613140106201e-01 6.613820552825927734e+00 1.894172430038452148e+00 1.170152723789215088e-01
6.510000000000000000e+02 5.339720153808593750e+01 -1.065959453582763672e+01 -2.859700620174407959e-01 7.330166339874267578e+00 2.113258838653564453e+00 -1.377393752336502075e-01
6.520000000000000000e+02 6.007395553588867188e+01 -1.810415267944335938e+01 -1.410530656576156616e-01 7.625871658325195312e+00 2.245445489883422852e+00 -1.432075351476669312e-01
6.530000000000000000e+02 6.431596374511718750e+01 -1.337287807464599609e+01 -1.307984441518783569e-01 7.867330551147460938e+00 2.320959568023681641e+00 -2.029861509799957275e-01
6.540000000000000000e+02 6.581165313720703125e+01 -1.084037399291992188e+01 -1.232019811868667603e-01 7.939376831054687500e+00 2.344852447509765625e+00 -2.395683825016021729e-01
6.550000000000000000e+02 7.143087005615234375e+01 -1.117373752593994141e+01 -5.469593778252601624e-02 8.212476730346679688e+00 2.447334289550781250e+00 -1.856592595577239990e-01
6.560000000000000000e+02 2.873398017883300781e+01 -1.010775089263916016e+01 -6.501927226781845093e-02 5.390531539916992188e+00 1.597653746604919434e+00 2.803445756435394287e-01
6.570000000000000000e+02 2.797110939025878906e+01 -1.618222999572753906e+01 -5.081368237733840942e-02 5.316740512847900391e+00 1.579778075218200684e+00 1.680105179548263550e-01
6.580000000000000000e+02 3.542179107666015625e+01 -2.442098236083984375e+01 -9.753952175378799438e-02 5.841876029968261719e+00 1.723300933837890625e+00 6.323625892400741577e-02
6.590000000000000000e+02 4.312705993652343750e+01 -2.794908905029296875e+01 -1.287744790315628052e-01 6.430794239044189453e+00 1.890605926513671875e+00 -1.035397057421505451e-03
6.600000000000000000e+02 4.551527023315429688e+01 -3.077225303649902344e+01 -1.284121572971343994e-01 6.576340675354003906e+00 1.934378504753112793e+00 -1.814077422022819519e-02
6.610000000000000000e+02 3.646407318115234375e+01 -1.141930580139160156e+01 -1.941076666116714478e-01 6.067129135131835938e+00 1.761906504631042480e+00 1.942536681890487671e-01
6.620000000000000000e+02 5.453250503540039062e+01 -8.898379325866699219e+00 -2.951189577579498291e-01 7.432628154754638672e+00 2.141252756118774414e+00 -1.779440194368362427e-01
6.630000000000000000e+02 7.297354888916015625e+01 -1.866156387329101562e+01 -2.335337363183498383e-02 8.401678085327148438e+00 2.513497352600097656e+00 -9.939405322074890137e-02
6.640000000000000000e+02 7.167270660400390625e+01 -1.847120094299316406e+01 -3.409373387694358826e-02 8.319173812866210938e+00 2.485523939132690430e+00 -1.139980554580688477e-01
6.650000000000000000e+02 2.010217285156250000e+01 -1.536140060424804688e+01 5.111906304955482483e-02 4.907873630523681641e+00 1.487697839736938477e+00 3.867715597152709961e-01
6.660000000000000000e+02 4.059669113159179688e+01 -1.638574218750000000e+01 -1.870607137680053711e-01 6.328573703765869141e+00 1.842453837394714355e+00 8.786910772323608398e-02
6.670000000000000000e+02 4.230781173706054688e+01 -1.742388153076171875e+01 -1.923069059848785400e-01 6.452116012573242188e+00 1.877942800521850586e+00 5.323413014411926270e-02
6.680000000000000000e+02 5.215944290161132812e+01 -1.734012222290039062e+01 -2.025116384029388428e-01 7.162163257598876953e+00 2.087895631790161133e+00 -8.396640419960021973e-02
6.690000000000000000e+02 2.593588447570800781e+01 -2.722172164916992188e+01 -1.517845317721366882e-02 5.144580841064453125e+00 1.538820743560791016e+00 1.460222899913787842e-01
6.700000000000000000e+02 3.845444107055664062e+01 -2.123659515380859375e+01 -1.293219923973083496e-01 6.134484767913818359e+00 1.801548838615417480e+00 6.264489889144897461e-02
6.710000000000000000e+02 4.084575271606445312e+01 -2.375134086608886719e+01 -1.352328807115554810e-01 6.278540134429931641e+00 1.842992186546325684e+00 3.000600263476371765e-02
6.720000000000000000e+02 5.155651092529296875e+01 -2.416262817382812500e+01 -1.465775370597839355e-01 7.056633472442626953e+00 2.073016881942749023e+00 -5.563037842512130737e-02
6.730000000000000000e+02 6.547543334960937500e+01 -2.812764358520507812e+01 -6.180774420499801636e-02 7.939589977264404297e+00 2.363334655761718750e+00 -7.319264858961105347e-02
6.740000000000000000e+02 4.046300506591796875e+01 -2.663339042663574219e+01 -1.199002787470817566e-01 6.217411041259765625e+00 1.829253196716308594e+00 1.257922034710645676e-02
6.750000000000000000e+02 3.949301147460937500e+01 -3.404832077026367188e+01 -1.155326813459396362e-01 6.139031887054443359e+00 1.807049870491027832e+00 -1.995742321014404297e-02
6.760000000000000000e+02 6.416816711425781250e+01 -3.245038604736328125e+01 -6.093455106019973755e-02 7.867109775543212891e+00 2.341852664947509766e+00 -4.743104800581932068e-02
6.770000000000000000e+02 7.292536926269531250e+01 -3.221076583862304688e+01 -1.338588073849678040e-02 8.493031501770019531e+00 2.543893575668334961e+00 -2.749224938452243805e-02
6.780000000000000000e+02 1.134808731079101562e+01 -3.164078521728515625e+01 -1.036533620208501816e-02 -7.117142085917294025e-04 -3.323114942759275436e-03 1.216200552880764008e-02
6.790000000000000000e+02 1.439567089080810547e+01 -1.764587402343750000e+01 4.013217985630035400e-03 4.635974473785609007e-04 1.343044568784534931e-03 -8.905262220650911331e-04
6.800000000000000000e+02 1.165304851531982422e+01 -1.697369003295898438e+01 2.258109161630272865e-03 8.046983857639133930e-04 9.188422700390219688e-04 -8.009574958123266697e-04
6.810000000000000000e+02 1.457557773590087891e+01 -1.070888423919677734e+01 -2.923456486314535141e-03 -5.314751979312859476e-05 -8.929811883717775345e-04 2.068812609650194645e-04
6.820000000000000000e+02 1.239638137817382812e+01 -1.051323795318603516e+01 -2.163108438253402710e-03 -1.265324535779654980e-04 -6.868922500871121883e-04 2.875196223612874746e-04
6.830000000000000000e+02 5.727543830871582031e-01 -1.069582176208496094e+01 -1.289655570872128010e-03 1.936583612405229360e-05 -3.810869238805025816e-04 -1.831306508393026888e-05
6.840000000000000000e+02 1.342681789398193359e+01 9.026931762695312500e+00 7.456685416400432587e-04 2.220105307060293853e-05 2.303608926013112068e-04 9.126580698648467660e-05
6.850000000000000000e+02 2.551998329162597656e+01 3.441809463500976562e+01 -3.320773541927337646e-01 9.747677296400070190e-02 -7.038018107414245605e-02 -3.097245991230010986e-01
6.860000000000000000e+02 2.381947898864746094e+01 3.440971374511718750e+01 -2.116212099790573120e-01 -2.671490423381328583e-03 -6.428781151771545410e-02 -3.305686116218566895e-01
6.870000000000000000e+02 2.095488357543945312e+01 2.962804222106933594e+01 1.833105087280273438e-02 -9.419121146202087402e-01 -2.770743072032928467e-01 -1.058079581707715988e-02
6.880000000000000000e+02 2.097259521484375000e+01 2.823743629455566406e+01 2.103763073682785034e-02 -9.059791564941406250e-01 -2.654824554920196533e-01 4.191665351390838623e-02
6.890000000000000000e+02 2.218626785278320312e+01 2.409171676635742188e+01 3.635690361261367798e-02 5.769352316856384277e-01 1.839876472949981689e-01 4.685736894607543945e-01
6.900000000000000000e+02 2.101935768127441406e+01 2.402168083190917969e+01 1.006244961172342300e-02 -7.726673036813735962e-02 -2.016128413379192352e-02 1.670880168676376343e-01
6.910000000000000000e+02 2.104414939880371094e+01 2.120586204528808594e+01 2.975713287014514208e-04 7.726904153823852539e-01 2.318964004516601562e-01 1.871805936098098755e-01
6.920000000000000000e+02 2.229882240295410156e+01 1.559525299072265625e+01 -2.699589356780052185e-02 2.744203567504882812e+00 8.151623010635375977e-01 4.558409452438354492e-01
6.930000000000000000e+02 2.105771446228027344e+01 1.556733226776123047e+01 -5.872692447155714035e-03 2.405696868896484375e+00 7.199472188949584961e-01 1.586336791515350342e-01
6.940000000000000000e+02 2.105959510803222656e+01 1.415977954864501953e+01 -5.450060125440359116e-03 2.756695747375488281e+00 8.253737092018127441e-01 1.462441533803939819e-01
6.950000000000000000e+02 2.231524658203125000e+01 1.137129211425781250e+01 -2.086633257567882538e-02 3.590588092803955078e+00 1.070916533470153809e+00 3.644085228443145752e-01
6.960000000000000000e+02 2.106373405456542969e+01 8.530532836914062500e+00 1.886538113467395306e-03 3.926569700241088867e+00 1.178536891937255859e+00 1.153875961899757385e-01
6.970000000000000000e+02 2.106152343750000000e+01 7.120790958404541016e+00 -2.401466015726327896e-03 4.190718173980712891e+00 1.256495118141174316e+00 1.149511709809303284e-01
6.980000000000000000e+02 2.228023529052734375e+01 4.281108379364013672e+00 1.259592771530151367e-01 4.545531272888183594e+00 1.401447176933288574e+00 3.398473858833312988e-01
6.990000000000000000e+02 2.093885231018066406e+01 2.874794483184814453e+00 6.720674782991409302e-02 4.668004989624023438e+00 1.420563578605651855e+00 3.839454054832458496e-01
7.000000000000000000e+02 2.082345771789550781e+01 1.468500852584838867e+00 -4.247567150741815567e-03 4.419816493988037109e+00 1.324670672416687012e+00 3.675461709499359131e-01
7.010000000000000000e+02 2.073100090026855469e+01 6.875599920749664307e-02 -4.856424406170845032e-02 4.368136405944824219e+00 1.295871734619140625e+00 2.644468843936920166e-01
7.020000000000000000e+02 2.048591232299804688e+01 -4.140884876251220703e+00 -2.155271545052528381e-02 4.479699611663818359e+00 1.337444067001342773e+00 2.969308197498321533e-01
7.030000000000000000e+02 2.198386955261230469e+01 -2.804948568344116211e+00 3.599191084504127502e-02 4.654005527496337891e+00 1.406999230384826660e+00 2.497221082448959351e-01
7.040000000000000000e+02 2.034070587158203125e+01 -8.333882331848144531e+00 6.054786499589681625e-03 4.793168067932128906e+00 1.439766883850097656e+00 9.426502883434295654e-02
7.050000000000000000e+02 2.024006080627441406e+01 -1.254402732849121094e+01 4.819299560040235519e-03 4.997421741485595703e+00 1.500672340393066406e+00 1.767352372407913208e-01
7.060000000000000000e+02 2.027630996704101562e+01 -1.114049339294433594e+01 -1.757119316607713699e-03 4.903341770172119141e+00 1.470475316047668457e+00 1.840624213218688965e-01
7.070000000000000000e+02 2.160962486267089844e+01 -1.254221343994140625e+01 6.404995173215866089e-02 5.008322238922119141e+00 1.521711587905883789e+00 2.771307826042175293e-01
7.080000000000000000e+02 1.983678054809570312e+01 -1.958381462097167969e+01 -4.481763765215873718e-02 4.417100906372070312e+00 1.311684966087341309e+00 1.641013324260711670e-01
7.090000000000000000e+02 2.146652793884277344e+01 -1.822970771789550781e+01 -9.320046752691268921e-02 4.789074420928955078e+00 1.408762216567993164e+00 2.013175189495086670e-01
7.100000000000000000e+02 1.978706932067871094e+01 -2.240489578247070312e+01 1.723214425146579742e-02 4.604456424713134766e+00 1.386506557464599609e+00 1.473056972026824951e-01
7.110000000000000000e+02 1.970986747741699219e+01 -2.662134170532226562e+01 -2.572184242308139801e-02 4.686030864715576172e+00 1.398092627525329590e+00 4.436710476875305176e-02
7.120000000000000000e+02 1.971805572509765625e+01 -2.521434402465820312e+01 6.533731240779161453e-03 4.595343589782714844e+00 1.380563259124755859e+00 5.884667858481407166e-02
7.130000000000000000e+02 1.969508743286132812e+01 -2.943825340270996094e+01 -2.406575903296470642e-02 4.850128650665283203e+00 1.447818875312805176e+00 4.919512942433357239e-02
7.140000000000000000e+02 1.965304946899414062e+01 -3.223601531982421875e+01 -3.147397935390472412e-02 5.096066951751708984e+00 1.519377946853637695e+00 8.776430785655975342e-02
7.150000000000000000e+02 2.116110610961914062e+01 -3.236536407470703125e+01 1.632847040891647339e-01 5.065314769744873047e+00 1.568579792976379395e+00 2.632840871810913086e-01
7.160000000000000000e+02 1.962710571289062500e+01 -3.363510894775390625e+01 1.727745532989501953e-01 5.422149181365966797e+00 1.678477048873901367e+00 2.163426727056503296e-01
7.170000000000000000e+02 1.439383697509765625e+01 -3.167950820922851562e+01 9.040635079145431519e-03 1.701214234344661236e-03 3.222554922103881836e-03 -1.901774317957460880e-03
7.180000000000000000e+02 1.451913070678710938e+01 -2.759539985656738281e+01 -4.380948841571807861e-03 1.652123406529426575e-03 -8.186476770788431168e-04 2.736313035711646080e-04
7.190000000000000000e+02 1.332089042663574219e+01 -2.755602073669433594e+01 3.410700941458344460e-03 2.366948407143354416e-03 1.733294804580509663e-03 -4.702943551819771528e-04
7.200000000000000000e+02 1.308801078796386719e+01 -2.366924858093261719e+01 -4.356776829808950424e-03 -3.503307234495878220e-04 -1.412132289260625839e-03 -2.958941273391246796e-03
7.210000000000000000e+02 1.440093803405761719e+01 -2.345718193054199219e+01 4.687195178121328354e-03 8.970072958618402481e-04 1.675260835327208042e-03 4.855947627220302820e-04
7.220000000000000000e+02 1.417672061920166016e+01 -2.050817680358886719e+01 4.800136201083660126e-03 6.567429954884573817e-05 1.459743129089474678e-03 -5.148753407411277294e-04
7.230000000000000000e+02 1.299790954589843750e+01 -1.734334754943847656e+01 -2.914462238550186157e-03 -4.900743952021002769e-04 -1.021360978484153748e-03 8.680407772772014141e-04
7.240000000000000000e+02 1.444975662231445312e+01 -1.625325202941894531e+01 -3.643616335466504097e-03 -8.615030674263834953e-05 -1.118930056691169739e-03 6.547627854160964489e-04
7.250000000000000000e+02 1.459555339813232422e+01 -9.322720527648925781e+00 2.678266027942299843e-03 4.420170444063842297e-05 8.167403284460306168e-04 -1.529696746729314327e-04
7.260000000000000000e+02 1.254788208007812500e+01 -1.930025219917297363e+00 -3.360628033988177776e-05 -3.228597925044596195e-04 -1.069398203981108963e-04 1.661194401094689965e-04
7.270000000000000000e+02 1.307386684417724609e+01 -2.841286659240722656e+00 -6.579430919373407960e-05 -5.027130828239023685e-04 -1.705522154225036502e-04 5.938786198385059834e-04
7.280000000000000000e+02 1.429492759704589844e+01 -2.014064788818359375e+00 7.990208105184137821e-04 1.590654210303910077e-05 2.444782003294676542e-04 5.453973426483571529e-04
7.290000000000000000e+02 1.375366878509521484e+01 -2.023770570755004883e+00 -9.510995005257427692e-04 1.433660145266912878e-05 -2.810288569889962673e-04 3.214583848603069782e-04
7.300000000000000000e+02 1.318901252746582031e+01 -1.985390067100524902e+00 6.056331767467781901e-05 4.057206097058951855e-04 1.398851891281083226e-04 -4.760861047543585300e-04
7.310000000000000000e+02 1.182943820953369141e+01 -1.910735726356506348e+00 3.995101724285632372e-04 1.741105370456352830e-04 1.720862201182171702e-04 -2.802137169055640697e-05
7.320000000000000000e+02 9.596867561340332031e+00 -1.898970246315002441e+00 -3.972251724917441607e-04 -2.143548044841736555e-04 -1.834739960031583905e-04 1.966913696378469467e-04
7.330000000000000000e+02 1.035432624816894531e+01 -1.909561276435852051e+00 4.583904228638857603e-04 1.701296714600175619e-04 1.885560195660218596e-04 -2.366858534514904022e-04
7.340000000000000000e+02 8.831893920898437500e+00 -1.893850803375244141e+00 3.776821249630302191e-04 2.344513632124289870e-04 1.836400479078292847e-04 -1.596693036844953895e-04
7.350000000000000000e+02 7.300521850585937500e+00 -1.893474459648132324e+00 3.348554891999810934e-04 2.781152143143117428e-04 1.838912139646708965e-04 -7.084843673510476947e-05
7.360000000000000000e+02 5.764426231384277344e+00 -1.908666253089904785e+00 2.738295297604054213e-04 3.212275041732937098e-04 1.785171043593436480e-04 6.949714588699862361e-05
7.370000000000000000e+02 3.467272758483886719e+00 -1.952537417411804199e+00 -3.779303806368261576e-04 -1.084984614863060415e-04 -1.459286577301099896e-04 -7.981084490893408656e-05
7.380000000000000000e+02 4.994643211364746094e+00 -1.921626567840576172e+00 -2.418460644548758864e-04 -3.381369460839778185e-04 -1.739949075272306800e-04 -1.391544356010854244e-04
7.390000000000000000e+02 4.243808269500732422e+00 -2.820310115814208984e+00 -4.043552617076784372e-04 -2.990555076394230127e-04 -2.110232308041304350e-04 -2.644062333274632692e-04
7.400000000000000000e+02 2.709327459335327148e+00 -1.980113506317138672e+00 2.761113573797047138e-04 1.647240133024752140e-04 1.322506141150370240e-04 2.456374022585805506e-05
7.410000000000000000e+02 1.952996850013732910e+00 -2.052072525024414062e+00 -2.701955672819167376e-04 -2.109850465785712004e-04 -1.443541841581463814e-04 -1.098357533919624984e-04
7.420000000000000000e+02 1.187747597694396973e+00 -2.140253067016601562e+00 5.633396212942898273e-04 8.240204624598845840e-05 1.937225024448707700e-04 9.811436757445335388e-05
7.430000000000000000e+02 2.059455871582031250e+00 -4.161711883544921875e+01 -1.362597104161977768e-03 -3.005912527441978455e-02 -9.426516480743885040e-03 5.176324630156159401e-04
7.440000000000000000e+02 5.157180309295654297e+00 -3.736922454833984375e+01 7.684313226491212845e-03 -1.243694778531789780e-02 -1.425790484063327312e-03 -1.707818172872066498e-02
7.450000000000000000e+02 9.789806604385375977e-01 -3.861836242675781250e+01 -1.107441261410713196e-02 -2.769325487315654755e-02 -1.163030043244361877e-02 -5.684076342731714249e-03
7.460000000000000000e+02 7.512626647949218750e-01 -3.471389007568359375e+01 1.136371959000825882e-02 -1.015245448797941208e-02 3.633793385233730078e-04 -4.187648883089423180e-04
7.470000000000000000e+02 6.675693988800048828e-01 -3.328142547607421875e+01 -9.961403906345367432e-03 -6.664858199656009674e-03 -4.987878724932670593e-03 -2.858459949493408203e-03
7.480000000000000000e+02 6.455584764480590820e-01 -2.910808372497558594e+01 5.485525354743003845e-03 4.110095615033060312e-04 1.768960384652018547e-03 -6.857017433503642678e-05
7.490000000000000000e+02 6.500624418258666992e-01 -2.770596122741699219e+01 -4.423536360263824463e-03 9.780297987163066864e-04 -1.033651991747319698e-03 -2.960994897875934839e-04
7.500000000000000000e+02 6.537468433380126953e-01 -2.629753303527832031e+01 3.403226844966411591e-03 1.213094685226678848e-03 1.384896459057927132e-03 -5.497414895216934383e-05
7.510000000000000000e+02 6.668992042541503906e-01 -2.202999877929687500e+01 -2.116998890414834023e-03 7.876181043684482574e-04 -3.988142707385122776e-04 1.325733755948022008e-04
7.520000000000000000e+02 6.647319793701171875e-01 -2.060197257995605469e+01 1.879809307865798473e-03 5.011503817513585091e-04 7.142879185266792774e-04 9.501899330643936992e-05
7.530000000000000000e+02 1.994524955749511719e+00 -2.063428688049316406e+01 -2.508773701265454292e-03 3.389291523490101099e-04 -6.509533850476145744e-04 1.642495044507086277e-04
7.540000000000000000e+02 6.080878973007202148e-01 -1.633368492126464844e+01 -1.609371509402990341e-03 1.413086720276623964e-04 -4.404188366606831551e-04 6.853848026366904378e-05
7.550000000000000000e+02 5.900139212608337402e-01 -1.492199230194091797e+01 1.603630604222416878e-03 5.944182339590042830e-05 4.989217268303036690e-04 -1.128809435613220558e-05
7.560000000000000000e+02 5.779054760932922363e-01 -1.351447391510009766e+01 -1.545532606542110443e-03 4.576000719680450857e-05 -4.499317728914320469e-04 2.924962063843850046e-05
7.570000000000000000e+02 1.734300494194030762e+00 -1.350618839263916016e+01 1.907928497530519962e-03 2.218829649791587144e-06 5.730441771447658539e-04 1.788983536243904382e-05
7.580000000000000000e+02 5.763502120971679688e-01 -9.280250549316406250e+00 1.116631552577018738e-03 2.164069883292540908e-06 3.356386732775717974e-04 3.452465534792281687e-05
7.590000000000000000e+02 5.763418674468994141e-01 -7.863376617431640625e+00 -9.446492185816168785e-04 -2.025329592925118050e-07 -2.834555343724787235e-04 -3.683726390590891242e-05
7.600000000000000000e+02 5.595521330833435059e-01 -6.441394329071044922e+00 7.861381163820624352e-04 1.298348979617003351e-05 2.397364733042195439e-04 3.172704600729048252e-05
7.610000000000000000e+02 7.452928161621093750e+01 -3.986005401611328125e+01 9.544030763208866119e-03 8.641523361206054688e+00 2.595320224761962891e+00 -2.156267873942852020e-02
7.620000000000000000e+02 3.246414184570312500e+01 -4.121832656860351562e+01 -1.850095689296722412e-01 5.587307453155517578e+00 1.620689392089843750e+00 -2.954530064016580582e-03
7.630000000000000000e+02 1.153060245513916016e+01 -3.938302612304687500e+01 1.927422173321247101e-02 4.144104197621345520e-02 1.821457967162132263e-02 -9.097754955291748047e-02
7.640000000000000000e+02 7.608312225341796875e+01 4.063051223754882812e+01 3.895663097500801086e-02 5.827571392059326172e+00 1.759958386421203613e+00 -9.803391993045806885e-02
7.650000000000000000e+02 7.810945892333984375e+01 4.177015304565429688e+01 -7.910711318254470825e-02 5.617340564727783203e+00 1.661470055580139160e+00 2.206397801637649536e-02
7.660000000000000000e+02 7.882775878906250000e+01 3.901057434082031250e+01 7.298397272825241089e-02 5.529874324798583984e+00 1.680857539176940918e+00 1.160258892923593521e-02
7.670000000000000000e+02 7.726509094238281250e+01 3.615371704101562500e+01 1.699284836649894714e-02 5.831485748291015625e+00 1.754543542861938477e+00 -8.678621053695678711e-02
7.680000000000000000e+02 7.910258483886718750e+01 3.483524703979492188e+01 1.820763573050498962e-02 5.610100746154785156e+00 1.688492536544799805e+00 -2.923974953591823578e-02
7.690000000000000000e+02 7.732842254638671875e+01 3.339424514770507812e+01 1.924274303019046783e-02 5.974446773529052734e+00 1.798106789588928223e+00 -1.405113488435745239e-01
7.700000000000000000e+02 7.913716125488281250e+01 3.344044494628906250e+01 5.387182813137769699e-03 5.665101051330566406e+00 1.701146483421325684e+00 -4.737036302685737610e-02
7.710000000000000000e+02 7.934162139892578125e+01 3.063292503356933594e+01 -6.823184085078537464e-04 5.829321861267089844e+00 1.748591899871826172e+00 -4.615532606840133667e-02
7.720000000000000000e+02 7.644183349609375000e+01 2.829671287536621094e+01 2.314994111657142639e-02 6.337346553802490234e+00 1.908148884773254395e+00 -2.629758715629577637e-01
7.730000000000000000e+02 7.935828399658203125e+01 2.656312942504882812e+01 1.835115836001932621e-03 6.154510974884033203e+00 1.846903800964355469e+00 -5.816802009940147400e-02
7.740000000000000000e+02 7.665068817138671875e+01 2.551618003845214844e+01 1.870496757328510284e-02 6.528653621673583984e+00 1.964207649230957031e+00 -2.806409001350402832e-01
7.750000000000000000e+02 7.933307647705078125e+01 2.517124366760253906e+01 4.936970770359039307e-03 6.274990558624267578e+00 1.883978247642517090e+00 -6.572998315095901489e-02
7.760000000000000000e+02 7.931600189208984375e+01 2.098312377929687500e+01 -1.143033965490758419e-03 6.668993473052978516e+00 2.000355243682861328e+00 -7.131977379322052002e-02
7.770000000000000000e+02 7.931430816650390625e+01 1.958720016479492188e+01 1.624786644242703915e-03 6.801123619079589844e+00 2.040824651718139648e+00 -7.205796986818313599e-02
7.780000000000000000e+02 7.931496429443359375e+01 1.819192695617675781e+01 -2.192370826378464699e-03 6.931741714477539062e+00 2.078864812850952148e+00 -7.082917541265487671e-02
7.790000000000000000e+02 7.932666778564453125e+01 1.400931549072265625e+01 6.843055598437786102e-04 7.309479236602783203e+00 2.193049192428588867e+00 -6.684044003486633301e-02
7.800000000000000000e+02 7.932987213134765625e+01 1.261325168609619141e+01 -2.035963814705610275e-03 7.429429531097412109e+00 2.228218078613281250e+00 -6.493873149156570435e-02
7.810000000000000000e+02 7.933335876464843750e+01 1.121844482421875000e+01 -2.430813910905271769e-04 7.545276165008544922e+00 2.263509750366210938e+00 -6.264025717973709106e-02
7.820000000000000000e+02 7.933542633056640625e+01 7.040750503540039062e+00 -1.565381302498281002e-03 7.863011837005615234e+00 2.358433961868286133e+00 -5.512815341353416443e-02
7.830000000000000000e+02 7.933366394042968750e+01 5.646401405334472656e+00 -7.542239618487656116e-04 7.958175182342529297e+00 2.387226343154907227e+00 -5.269172042608261108e-02
7.840000000000000000e+02 7.933073425292968750e+01 4.251542568206787109e+00 -1.602963195182383060e-03 8.047677993774414062e+00 2.413822412490844727e+00 -4.998348653316497803e-02
7.850000000000000000e+02 7.932415008544921875e+01 6.471435725688934326e-02 -8.152410155162215233e-04 8.282522201538085938e+00 2.484512090682983398e+00 -4.229744523763656616e-02
7.860000000000000000e+02 7.932388305664062500e+01 -1.331706881523132324e+00 -1.420312677510082722e-03 8.350424766540527344e+00 2.504701375961303711e+00 -3.981815278530120850e-02
7.870000000000000000e+02 7.799245452880859375e+01 -4.033039569854736328e+00 -5.401761736720800400e-03 8.388442039489746094e+00 2.514912128448486328e+00 -8.632004261016845703e-02
7.880000000000000000e+02 7.932848358154296875e+01 -4.124602794647216797e+00 -1.267807558178901672e-03 8.471846580505371094e+00 2.541173458099365234e+00 -3.472296893596649170e-02
7.890000000000000000e+02 7.933488464355468750e+01 -8.305144309997558594e+00 -9.526258218102157116e-04 8.620015144348144531e+00 2.585718631744384766e+00 -2.766301482915878296e-02
7.900000000000000000e+02 7.801889801025390625e+01 -1.098372745513916016e+01 -3.912774845957756042e-03 8.603543281555175781e+00 2.579889059066772461e+00 -5.690816044807434082e-02
7.910000000000000000e+02 7.933889770507812500e+01 -1.108809471130371094e+01 -8.830568986013531685e-04 8.699064254760742188e+00 2.609454393386840820e+00 -2.374218218028545380e-02
7.920000000000000000e+02 7.935040283203125000e+01 -1.525498485565185547e+01 -7.732065860182046890e-04 8.793340682983398438e+00 2.637770175933837891e+00 -1.833526045083999634e-02
7.930000000000000000e+02 7.807438659667968750e+01 -1.786896705627441406e+01 -2.533841645345091820e-03 8.743032455444335938e+00 2.622149705886840820e+00 -3.550817817449569702e-02
7.940000000000000000e+02 7.935714721679687500e+01 -1.803017425537109375e+01 -7.333835237659513950e-04 8.842071533203125000e+00 2.652401447296142578e+00 -1.537304278463125229e-02
7.950000000000000000e+02 7.934584045410156250e+01 -2.357386207580566406e+01 -4.865454102400690317e-04 8.915957450866699219e+00 2.674641370773315430e+00 -1.118033565580844879e-02
7.960000000000000000e+02 7.801343536376953125e+01 -2.473236846923828125e+01 -2.877593971788883209e-03 8.823316574096679688e+00 2.646131753921508789e+00 -2.296225167810916901e-02
7.970000000000000000e+02 7.933543395996093750e+01 -2.496711349487304688e+01 -9.732621838338673115e-04 8.929283142089843750e+00 2.678493022918701172e+00 -9.561395272612571716e-03
7.980000000000000000e+02 7.931500244140625000e+01 -2.914378166198730469e+01 -3.737377701327204704e-04 8.963189125061035156e+00 2.688844680786132812e+00 -7.810619194060564041e-03
7.990000000000000000e+02 7.790796661376953125e+01 -3.172660636901855469e+01 -3.689909819513559341e-03 8.866109848022460938e+00 2.658725976943969727e+00 -1.069849729537963867e-02
8.000000000000000000e+02 7.930917358398437500e+01 -3.194045639038085938e+01 -8.288608514703810215e-04 8.976722717285156250e+00 2.692768096923828125e+00 -4.109564237296581268e-03
8.010000000000000000e+02 7.934449005126953125e+01 -3.606388092041015625e+01 1.326065976172685623e-03 8.969259262084960938e+00 2.691175460815429688e+00 2.787410747259855270e-03
8.020000000000000000e+02 7.923409271240234375e+01 -3.737714004516601562e+01 -8.635254576802253723e-03 8.946852684020996094e+00 2.681465148925781250e+00 1.336367335170507431e-02
8.030000000000000000e+02 7.897507476806640625e+01 -3.866202163696289062e+01 3.188429167494177818e-03 8.923132896423339844e+00 2.677896499633789062e+00 1.365504320710897446e-02
8.040000000000000000e+02 7.856884002685546875e+01 -4.000612640380859375e+01 -4.150592721998691559e-03 8.903248786926269531e+00 2.669729471206665039e+00 1.673946715891361237e-02
8.050000000000000000e+02 5.372236728668212891e+00 3.844842529296875000e+01 -3.235809854231774807e-04 4.173953086137771606e-03 1.155111589469015598e-03 -6.685835542157292366e-04
8.060000000000000000e+02 2.752659606933593750e+01 3.808891677856445312e+01 -4.471336305141448975e-01 -3.768841922283172607e-01 -2.472053468227386475e-01 5.266360640525817871e-01
8.070000000000000000e+02 6.768179321289062500e+01 4.093514251708984375e+01 3.676888346672058105e-01 6.985030174255371094e+00 2.205815792083740234e+00 -7.459434866905212402e-02
8.080000000000000000e+02 1.270744442939758301e+00 2.702630043029785156e+00 1.153923585661686957e-04 -1.655183732509613037e-04 -1.503780276834731922e-05 -1.461692863813368604e-05
8.090000000000000000e+02 3.103037357330322266e+00 2.731024980545043945e+00 3.383064176887273788e-04 2.055428776657208800e-04 1.631547929719090462e-04 -4.456019814824685454e-05
8.100000000000000000e+02 5.293594360351562500e+00 2.701272010803222656e+00 -1.658782712183892727e-04 -2.283427456859499216e-04 -1.182663036161102355e-04 1.087223135982640088e-04
8.110000000000000000e+02 1.622743129730224609e+00 6.226391315460205078e+00 -6.317519000731408596e-04 -1.538001961307600141e-04 -2.356656332267448306e-04 1.682270230958238244e-04
8.120000000000000000e+02 5.570737719535827637e-01 9.196105003356933594e+00 9.295970667153596878e-04 3.092208135058172047e-05 2.881557447835803032e-04 -1.658368564676493406e-04
8.130000000000000000e+02 5.816802382469177246e-01 1.201168632507324219e+01 1.126467599533498287e-03 3.345107325003482401e-05 3.479755832813680172e-04 -1.961872767424210906e-04
8.140000000000000000e+02 1.747835159301757812e+00 1.182151794433593750e+01 -1.016830909065902233e-03 -7.382321928162127733e-05 -3.271962632425129414e-04 2.268573298351839185e-04
8.150000000000000000e+02 5.930187106132507324e-01 1.623951721191406250e+01 -1.421531313098967075e-03 -8.465113205602392554e-05 -4.518547211773693562e-04 2.685453218873590231e-04
8.160000000000000000e+02 1.770594120025634766e+00 1.743083381652832031e+01 -1.382624381221830845e-03 -6.676921475445851684e-05 -4.348180664237588644e-04 2.668154193088412285e-04
8.170000000000000000e+02 5.911152362823486328e-01 1.764892196655273438e+01 1.501177670434117317e-03 1.698996129562146962e-05 4.554502665996551514e-04 -2.635912969708442688e-04
8.180000000000000000e+02 6.207042336463928223e-01 2.187154006958007812e+01 -1.459111343137919903e-03 -9.248572314390912652e-05 -4.654790973290801048e-04 2.046249428531154990e-04
8.190000000000000000e+02 6.363427042961120605e-01 2.328377723693847656e+01 1.381941372528672218e-03 -1.426286326022818685e-05 4.103035607840865850e-04 -1.813330454751849174e-04
8.200000000000000000e+02 1.909128665924072266e+00 2.301507377624511719e+01 -1.477703102864325047e-03 -1.460532712371787056e-05 -4.476925532799214125e-04 3.330934123368933797e-05
8.210000000000000000e+02 6.492283344268798828e-01 2.469902420043945312e+01 -1.285606063902378082e-03 -6.341611879179254174e-05 -4.047066322527825832e-04 1.401630725013092160e-04
8.220000000000000000e+02 6.907868981361389160e-01 2.897735786437988281e+01 1.117590581998229027e-03 3.252869064453989267e-04 4.328632494434714317e-04 -1.692655641818419099e-04
8.230000000000000000e+02 7.070558071136474609e-01 3.041549110412597656e+01 -1.056432956829667091e-03 5.537523538805544376e-04 -1.508041750639677048e-04 -1.052952429745346308e-04
8.240000000000000000e+02 2.129822254180908203e+00 3.178187561035156250e+01 -1.355980872176587582e-03 6.370808696374297142e-04 -2.156699920305982232e-04 -5.506540182977914810e-04
8.250000000000000000e+02 7.130690217018127441e-01 3.185445594787597656e+01 1.162249478511512280e-03 9.612819994799792767e-04 6.370594492182135582e-04 -2.523548610042780638e-04
8.260000000000000000e+02 7.130826115608215332e-01 3.608591461181640625e+01 -1.275368384085595608e-03 2.235295949503779411e-03 2.879782405216246843e-04 -1.231951609952375293e-04
8.270000000000000000e+02 2.213052749633789062e+00 3.725372314453125000e+01 -1.528276945464313030e-03 1.643778174184262753e-03 3.465037298155948520e-05 -2.583284222055226564e-04
8.280000000000000000e+02 8.784012198448181152e-01 3.881748962402343750e+01 -1.510434900410473347e-03 2.365835243836045265e-03 2.566201146692037582e-04 3.255315241403877735e-04
8.290000000000000000e+02 1.194482922554016113e+00 4.016755676269531250e+01 1.681442488916218281e-03 2.448449842631816864e-03 1.238967757672071457e-03 -2.570351643953472376e-04
8.300000000000000000e+02 1.036521148681640625e+01 1.817632317543029785e+00 -1.519112993264570832e-04 -1.629644248168915510e-04 -9.446271724300459027e-05 -4.191810512566007674e-05
8.310000000000000000e+02 8.923464775085449219e+00 1.848166584968566895e+00 -1.333892723778262734e-04 -2.054071956081315875e-04 -1.016389433061704040e-04 7.557699518656590953e-06
8.320000000000000000e+02 8.209305763244628906e+00 1.859569430351257324e+00 1.357268192805349827e-04 2.137558185495436192e-04 1.048447884386405349e-04 -3.370702688698656857e-05
8.330000000000000000e+02 8.190742492675781250e+00 2.593006610870361328e+00 -1.611472980584949255e-04 -2.294185251230373979e-04 -1.171697440440766513e-04 2.368344939895905554e-05
8.340000000000000000e+02 7.495728492736816406e+00 1.870481967926025391e+00 -1.448113471269607544e-04 -2.172169188270345330e-04 -1.086084812413901091e-04 5.614920883090235293e-05
8.350000000000000000e+02 5.337389945983886719e+00 1.898753285408020020e+00 1.369664678350090981e-04 2.035500656347721815e-04 1.021549614961259067e-04 -9.919337753672152758e-05
8.360000000000000000e+02 4.612502574920654297e+00 1.909111380577087402e+00 -1.591239124536514282e-04 -1.905742246890440583e-04 -1.049094353220425546e-04 1.057563786162063479e-04
8.370000000000000000e+02 3.894203662872314453e+00 1.911662459373474121e+00 2.113785012625157833e-04 1.778371952241286635e-04 1.167647060356102884e-04 -9.799101826502010226e-05
8.380000000000000000e+02 3.187984228134155273e+00 1.901483058929443359e+00 -2.634914417285472155e-04 -1.630969054531306028e-04 -1.279764983337372541e-04 4.375187199912033975e-05
8.390000000000000000e+02 2.492827177047729492e+00 1.885488629341125488e+00 2.283606008859351277e-04 1.785981876309961081e-04 1.220876438310369849e-04 2.567729461588896811e-05
8.400000000000000000e+02 1.803754448890686035e+00 1.880833268165588379e+00 -1.177477606688626111e-04 -2.178733411710709333e-04 -1.006863312795758247e-04 -4.278348569641821086e-05
8.410000000000000000e+02 1.183766174316406250e+01 1.781045556068420410e+00 -2.092033537337556481e-04 -7.366196223301813006e-05 -8.485959551762789488e-05 -5.123762093717232347e-05
8.420000000000000000e+02 1.439490318298339844e+01 2.999413967132568359e+00 5.586754014075268060e-06 3.452800592640414834e-05 1.203442843689117581e-05 -1.570969907334074378e-04
8.430000000000000000e+02 1.465041542053222656e+01 3.796821594238281250e+00 -3.481920575723052025e-04 -5.382282688515260816e-05 -1.206044689752161503e-04 9.713221515994518995e-05
8.440000000000000000e+02 1.479631900787353516e+01 2.014971017837524414e+00 2.281118213431909680e-04 6.375313387252390385e-05 8.755948510952293873e-05 2.486762423359323293e-05
8.450000000000000000e+02 1.291980171203613281e+01 2.979193925857543945e+00 -5.764197558164596558e-04 1.673127699177712202e-04 -1.227321045007556677e-04 5.933801003266125917e-05
8.460000000000000000e+02 1.464679145812988281e+01 6.338967323303222656e+00 -6.391703500412404537e-04 -3.649077189038507640e-05 -2.026983420364558697e-04 6.735785427736118436e-05
8.470000000000000000e+02 1.460352611541748047e+01 7.684906482696533203e+00 7.092645973898470402e-04 1.950830119312740862e-05 2.186318743042647839e-04 -3.631753861554898322e-05
8.480000000000000000e+02 1.454658985137939453e+01 9.049795150756835938e+00 -7.513815653510391712e-04 -2.564635224189260043e-06 -2.261838671984151006e-04 2.086860513372812420e-05
8.490000000000000000e+02 1.440975093841552734e+01 1.183322906494140625e+01 -7.879625773057341576e-04 -3.474393088254146278e-05 -2.468119491823017597e-04 1.525632706034230068e-05
8.500000000000000000e+02 1.439585971832275391e+01 1.323536586761474609e+01 9.096806170418858528e-04 -7.135547093639615923e-06 2.707635285332798958e-04 1.553147012600675225e-05
8.510000000000000000e+02 1.443559932708740234e+01 1.462912845611572266e+01 -1.083924784325063229e-03 2.069045876851305366e-05 -3.189702983945608139e-04 8.513787179253995419e-06
8.520000000000000000e+02 1.447121810913085938e+01 1.601420593261718750e+01 1.210934715345501900e-03 -3.940088208764791489e-05 3.514601557981222868e-04 -6.372769712470471859e-05
8.530000000000000000e+02 1.309687042236328125e+01 2.025310516357421875e+01 1.373438281007111073e-03 4.255220846971496940e-05 4.247971519362181425e-04 -1.306113554164767265e-04
8.540000000000000000e+02 1.447599411010742188e+01 2.158079147338867188e+01 1.340596703812479973e-03 -6.846748146926984191e-05 3.816387616097927094e-04 -9.458641579840332270e-05
8.550000000000000000e+02 1.478410625457763672e+01 2.576238059997558594e+01 -1.746074063703417778e-03 2.886763832066208124e-05 -5.151618970558047295e-04 2.776841865852475166e-04
8.560000000000000000e+02 1.320368957519531250e+01 2.313789367675781250e+01 1.652784878388047218e-03 -8.889625314623117447e-05 4.691665817517787218e-04 -5.874586713616736233e-05
8.570000000000000000e+02 1.489392280578613281e+01 2.715909194946289062e+01 1.861121854744851589e-03 1.390336401527747512e-04 6.000466528348624706e-04 -1.924905081978067756e-04
8.580000000000000000e+02 1.504256629943847656e+01 2.856904411315917969e+01 -1.578105613589286804e-03 4.554454062599688768e-04 -3.367980534676462412e-04 7.048670086078345776e-04
8.590000000000000000e+02 1.594105243682861328e+01 3.272932815551757812e+01 5.982278380542993546e-03 2.382419770583510399e-03 2.509409561753273010e-03 3.150023112539201975e-04
8.600000000000000000e+02 1.642172813415527344e+01 3.400179290771484375e+01 -4.794392734766006470e-03 3.777982434257864952e-03 -3.049231017939746380e-04 3.997647669166326523e-03
8.610000000000000000e+02 1.561126422882080078e+01 3.548638534545898438e+01 -8.074205834418535233e-04 1.856152201071381569e-03 3.146194794680923223e-04 6.318008992820978165e-03
8.620000000000000000e+02 1.722010612487792969e+01 3.646463012695312500e+01 2.012763638049364090e-03 1.096179429441690445e-02 3.892367240041494370e-03 8.422279730439186096e-03
8.630000000000000000e+02 2.183554267883300781e+01 3.811846923828125000e+01 -1.487421542406082153e-01 -7.105306535959243774e-02 -6.593856960535049438e-02 1.680415570735931396e-01
8.640000000000000000e+02 2.398026847839355469e+01 3.848392105102539062e+01 -2.262826710939407349e-01 -1.773652285337448120e-01 -1.210943683981895447e-01 3.933458924293518066e-01
8.650000000000000000e+02 2.316650772094726562e+01 3.833576202392578125e+01 -2.045862376689910889e-01 -1.330768913030624390e-01 -1.012989357113838196e-01 2.881366610527038574e-01
8.660000000000000000e+02 2.730299758911132812e+01 3.931216812133789062e+01 2.812939286231994629e-01 -2.685286402702331543e-01 3.829587018117308617e-03 3.087284862995147705e-01
8.670000000000000000e+02 2.823248481750488281e+01 3.789104461669921875e+01 -5.202608704566955566e-01 -1.942732483148574829e-01 -2.143602520227432251e-01 6.096892952919006348e-01
8.680000000000000000e+02 3.007927131652832031e+01 3.758365249633789062e+01 -5.441473126411437988e-01 1.677795052528381348e-01 -1.129103377461433411e-01 1.828495860099792480e-01
8.690000000000000000e+02 3.119751739501953125e+01 3.739092636108398438e+01 -5.621875077486038208e-02 1.332084417343139648e+00 3.827597200870513916e-01 -7.175201177597045898e-01
8.700000000000000000e+02 3.160532569885253906e+01 3.731736755371093750e+01 2.905426025390625000e-01 1.542056918144226074e+00 5.497798919677734375e-01 -1.070507168769836426e+00
8.710000000000000000e+02 3.208892059326171875e+01 3.712123489379882812e+01 5.498722195625305176e-01 2.407176256179809570e+00 8.871145248413085938e-01 -1.657146334648132324e+00
8.720000000000000000e+02 3.226808166503906250e+01 3.701855087280273438e+01 6.004654765129089355e-01 2.570552825927734375e+00 9.513055086135864258e-01 -2.115078449249267578e+00
8.730000000000000000e+02 3.282877349853515625e+01 3.692249679565429688e+01 6.347640752792358398e-01 4.439029216766357422e+00 1.522137880325317383e+00 -3.180570602416992188e+00
8.740000000000000000e+02 3.303158569335937500e+01 3.687905502319335938e+01 5.752594470977783203e-01 5.252817630767822266e+00 1.748423099517822266e+00 -3.426767826080322266e+00
8.750000000000000000e+02 3.365542984008789062e+01 3.673678970336914062e+01 1.591562777757644653e-01 1.016440963745117188e+01 3.097069740295410156e+00 -4.484107017517089844e+00
8.760000000000000000e+02 3.384687423706054688e+01 3.669167327880859375e+01 4.114247485995292664e-02 1.220621967315673828e+01 3.674208641052246094e+00 -4.477087974548339844e+00
8.770000000000000000e+02 3.423516464233398438e+01 3.656669998168945312e+01 -4.025952816009521484e-01 1.568279647827148438e+01 4.584060192108154297e+00 -3.590996980667114258e+00
8.780000000000000000e+02 3.441885757446289062e+01 3.653256225585937500e+01 -1.141965389251708984e+00 1.784695625305175781e+01 5.011497020721435547e+00 -3.200201272964477539e+00
8.790000000000000000e+02 3.337044143676757812e+01 3.344423294067382812e+01 4.836487293243408203e+00 9.187227249145507812e+00 4.207114219665527344e+00 7.285214424133300781e+00
8.800000000000000000e+02 3.239154815673828125e+01 3.334180831909179688e+01 4.348846435546875000e+00 3.066299438476562500e+00 2.224543809890747070e+00 4.228786945343017578e+00
8.810000000000000000e+02 3.241023635864257812e+01 3.361283111572265625e+01 4.639407634735107422e+00 2.326967477798461914e+00 2.089912652969360352e+00 3.810068607330322266e+00
8.820000000000000000e+02 2.889539527893066406e+01 3.412352752685546875e+01 5.313643068075180054e-02 1.620248854160308838e-01 6.454839557409286499e-02 6.975892931222915649e-02
8.830000000000000000e+02 2.830648040771484375e+01 3.419676589965820312e+01 -9.758750349283218384e-02 1.717515438795089722e-01 2.224921062588691711e-02 -4.834765195846557617e-02
8.840000000000000000e+02 2.471119117736816406e+01 3.443240737915039062e+01 -2.769882082939147949e-01 6.053498014807701111e-02 -6.493597477674484253e-02 -3.287274241447448730e-01
8.850000000000000000e+02 2.696204185485839844e+01 3.432093811035156250e+01 -3.206580281257629395e-01 1.390231400728225708e-01 -5.449046567082405090e-02 -2.352843880653381348e-01
8.860000000000000000e+02 2.202854537963867188e+01 3.430877685546875000e+01 -6.921989470720291138e-02 -1.439550668001174927e-01 -6.395248323678970337e-02 -2.316715419292449951e-01
8.870000000000000000e+02 3.300817871093750000e+01 3.350136184692382812e+01 5.298973083496093750e+00 5.718714714050292969e+00 3.305306434631347656e+00 6.121160507202148438e+00
8.880000000000000000e+02 3.171242141723632812e+01 3.351646423339843750e+01 3.305485963821411133e+00 1.209383606910705566e+00 1.354460835456848145e+00 2.346762895584106445e+00
8.890000000000000000e+02 3.281138610839843750e+01 3.354540634155273438e+01 5.187613964080810547e+00 3.967282533645629883e+00 2.746469020843505859e+00 5.120433807373046875e+00
8.900000000000000000e+02 3.164005279541015625e+01 3.375522613525390625e+01 2.791307210922241211e+00 7.871249914169311523e-01 1.073529720306396484e+00 1.782582163810729980e+00
8.910000000000000000e+02 3.122166061401367188e+01 3.382827377319335938e+01 2.193663835525512695e+00 5.458041429519653320e-01 8.218403458595275879e-01 1.296329259872436523e+00
8.920000000000000000e+02 3.100294494628906250e+01 3.383562850952148438e+01 1.838231563568115234e+00 4.702770709991455078e-01 6.925526261329650879e-01 1.120864152908325195e+00
8.930000000000000000e+02 3.221591567993164062e+01 3.366516494750976562e+01 4.257222175598144531e+00 1.780008077621459961e+00 1.811169147491455078e+00 3.216416120529174805e+00
8.940000000000000000e+02 3.319950103759765625e+01 3.348302459716796875e+01 5.285148143768310547e+00 6.616175651550292969e+00 3.570397138595581055e+00 6.486579418182373047e+00
8.950000000000000000e+02 3.344297790527343750e+01 3.306561660766601562e+01 4.035884857177734375e+00 1.006898689270019531e+01 4.231461524963378906e+00 6.843615055084228516e+00
8.960000000000000000e+02 3.261527633666992188e+01 3.358610153198242188e+01 4.813413619995117188e+00 3.139104604721069336e+00 2.385755538940429688e+00 4.406360626220703125e+00
8.970000000000000000e+02 3.004570388793945312e+01 3.395600128173828125e+01 7.690193057060241699e-01 2.819946706295013428e-01 3.153041899204254150e-01 4.153915047645568848e-01
8.980000000000000000e+02 3.117498588562011719e+01 3.304427719116210938e+01 3.018641471862792969e+00 1.478653907775878906e+00 1.349188566207885742e+00 2.291287183761596680e+00
8.990000000000000000e+02 3.479560852050781250e+01 3.647692108154296875e+01 1.851577460765838623e-01 1.890983009338378906e+01 5.728496551513671875e+00 1.736920624971389771e-01
9.000000000000000000e+02 3.346045303344726562e+01 3.684388351440429688e+01 3.355043530464172363e-01 8.937568664550781250e+00 2.781921863555908203e+00 -4.205666065216064453e+00
9.010000000000000000e+02 3.020842361450195312e+01 3.831231689453125000e+01 3.512512147426605225e-01 1.132184147834777832e+00 4.450306296348571777e-01 1.676983237266540527e-01
9.020000000000000000e+02 3.315337371826171875e+01 3.719827651977539062e+01 4.979162812232971191e-01 6.557520866394042969e+00 2.116631269454956055e+00 -3.630313396453857422e+00
9.030000000000000000e+02 3.405401611328125000e+01 3.664803695678710938e+01 -4.791531562805175781e-01 1.449989509582519531e+01 4.206222534179687500e+00 -4.282562255859375000e+00
9.040000000000000000e+02 3.323859786987304688e+01 3.687572479248046875e+01 5.722301006317138672e-01 6.732110500335693359e+00 2.191302299499511719e+00 -3.715196847915649414e+00
9.050000000000000000e+02 2.048917388916015625e+01 3.799341964721679688e+01 -7.765090465545654297e-02 -6.208259984850883484e-02 -4.192005097866058350e-02 8.546143025159835815e-02
9.060000000000000000e+02 1.421359729766845703e+01 1.896224260330200195e+00 -9.238118946086615324e-05 -6.764146382920444012e-05 -4.800679744221270084e-05 1.749418697727378458e-05
9.070000000000000000e+02 1.255665588378906250e+01 1.773053407669067383e+00 1.750550727592781186e-04 4.000662011094391346e-05 6.451850640587508678e-05 1.019653154799016193e-05
9.080000000000000000e+02 2.766278457641601562e+01 3.426350021362304688e+01 -2.320483177900314331e-01 1.547085791826248169e-01 -2.320192195475101471e-02 -1.513372212648391724e-01
9.090000000000000000e+02 2.947486305236816406e+01 3.404415130615234375e+01 3.006457090377807617e-01 2.001432478427886963e-01 1.502366960048675537e-01 2.282555550336837769e-01
9.100000000000000000e+02 3.104862213134765625e+01 3.355400848388671875e+01 2.241376399993896484e+00 6.614384651184082031e-01 8.708444833755493164e-01 1.476801633834838867e+00
9.110000000000000000e+02 3.060281753540039062e+01 3.385932922363281250e+01 1.370863318443298340e+00 3.905341625213623047e-01 5.284192562103271484e-01 7.946214675903320312e-01
9.120000000000000000e+02 2.760139846801757812e+01 3.362032699584960938e+01 2.549956738948822021e-01 2.492542266845703125e-01 1.512749791145324707e-01 -6.154152005910873413e-02
9.130000000000000000e+02 2.881954193115234375e+01 3.359350204467773438e+01 6.248791813850402832e-01 2.984339892864227295e-01 2.769939601421356201e-01 2.053997963666915894e-01
9.140000000000000000e+02 2.938247489929199219e+01 3.354640197753906250e+01 9.420140981674194336e-01 3.493100106716156006e-01 3.873972296714782715e-01 4.211495220661163330e-01
9.150000000000000000e+02 2.955640029907226562e+01 3.824605560302734375e+01 2.857808172702789307e-01 -1.086061671376228333e-01 5.315239354968070984e-02 3.955500125885009766e-01
9.160000000000000000e+02 3.065661048889160156e+01 3.745317077636718750e+01 -4.535506665706634521e-01 5.512089729309082031e-01 2.929749712347984314e-02 1.532633006572723389e-01
9.170000000000000000e+02 2.947932624816894531e+01 3.765389251708984375e+01 -5.019218325614929199e-01 1.700374335050582886e-01 -9.956531226634979248e-02 6.116034984588623047e-01
9.180000000000000000e+02 2.676399230957031250e+01 3.832634735107421875e+01 -3.711526095867156982e-01 -1.003424599766731262e-01 -1.414485275745391846e-01 5.624164938926696777e-01
9.190000000000000000e+02 2.904282188415527344e+01 3.830344009399414062e+01 -6.185144186019897461e-02 -3.749271482229232788e-02 -2.980324625968933105e-02 4.381056725978851318e-01
9.200000000000000000e+02 2.124868392944335938e+01 3.896401214599609375e+01 -5.054404959082603455e-02 -1.350163072347640991e-01 -5.566810443997383118e-02 1.496749520301818848e-01
9.210000000000000000e+02 2.258628082275390625e+01 3.911645889282226562e+01 -7.755905389785766602e-02 -1.427546590566635132e-01 -6.609411537647247314e-02 3.241579234600067139e-01
9.220000000000000000e+02 6.061893939971923828e+00 1.889120459556579590e+00 -1.398126187268644571e-04 -2.125329629052430391e-04 -1.057036715792492032e-04 7.833104609744623303e-05
9.230000000000000000e+02 9.613183021545410156e+00 2.517796993255615234e+00 -1.729834184516221285e-04 -1.915681932587176561e-04 -1.093654864234849811e-04 -4.243008152116090059e-05
9.240000000000000000e+02 6.781354904174804688e+00 1.880705833435058594e+00 1.499978097854182124e-04 2.133017696905881166e-04 1.089898723876103759e-04 -6.729664164595305920e-05
9.250000000000000000e+02 7.479101657867431641e+00 2.629635810852050781e+00 1.822039339458569884e-04 2.337020414415746927e-04 1.247717882506549358e-04 -5.071608757134526968e-05
9.260000000000000000e+02 8.205339431762695312e+00 3.362679719924926758e+00 1.628840545890852809e-04 2.474211505614221096e-04 1.230915513588115573e-04 9.644661986385472119e-06
9.270000000000000000e+02 5.987367630004882812e+00 4.284945011138916016e+00 2.115570532623678446e-04 2.959780395030975342e-04 1.522605307400226593e-04 -1.252077636308968067e-04
9.280000000000000000e+02 1.640870094299316406e+00 7.647544384002685547e+00 7.979700458236038685e-04 8.521050767740234733e-05 2.649541711434721947e-04 -1.824329810915514827e-04
9.290000000000000000e+02 3.847482204437255859e-01 3.772815227508544922e+00 8.515840745531022549e-04 1.421480410499498248e-04 2.981196448672562838e-04 1.699412678135558963e-04
9.300000000000000000e+02 2.416372060775756836e+00 4.387459754943847656e+00 1.867090177256613970e-04 -1.954995968844741583e-05 5.014771886635571718e-05 3.148342948406934738e-04
9.310000000000000000e+02 3.841526210308074951e-01 2.093568086624145508e+00 -2.774503373075276613e-04 -1.667198375798761845e-04 -1.332510437350720167e-04 1.078395362128503621e-04
9.320000000000000000e+02 1.114154696464538574e+00 1.931959629058837891e+00 -4.182831617072224617e-05 2.688303065951913595e-04 6.810059858253225684e-05 2.586160462669795379e-06
9.330000000000000000e+02 1.110415840148925781e+01 1.797252655029296875e+00 1.762844476616010070e-04 1.306500344071537256e-04 9.208034316543489695e-05 5.831000453326851130e-05
9.340000000000000000e+02 9.615756988525390625e+00 3.222903013229370117e+00 2.187045174650847912e-04 1.758922298904508352e-04 1.183790227514691651e-04 7.040060154395177960e-05
9.350000000000000000e+02 2.692148017883300781e+01 3.360035324096679688e+01 1.488349139690399170e-01 2.244880348443984985e-01 1.119968891143798828e-01 -1.666722148656845093e-01
9.360000000000000000e+02 2.823205757141113281e+01 3.361743927001953125e+01 4.005207419395446777e-01 2.684243023395538330e-01 2.006835043430328369e-01 5.164690315723419189e-02
9.370000000000000000e+02 2.292059326171875000e+01 3.438107681274414062e+01 -1.341020911931991577e-01 -7.175284624099731445e-02 -6.175648048520088196e-02 -3.030573129653930664e-01
9.380000000000000000e+02 2.291715049743652344e+01 3.223044967651367188e+01 1.022352799773216248e-01 -1.527199298143386841e-01 -1.514539681375026703e-02 -2.859877645969390869e-01
9.390000000000000000e+02 1.182639598846435547e+01 -2.673287868499755859e+00 -7.329179788939654827e-04 -3.170906857121735811e-04 -3.150026022922247648e-04 -2.100853598676621914e-04
9.400000000000000000e+02 1.030252265930175781e+01 -3.548337697982788086e+00 6.652783486060798168e-04 1.827396481530740857e-04 2.544054004829376936e-04 -2.958747209049761295e-04
9.410000000000000000e+02 1.111512374877929688e+01 -2.754720449447631836e+00 8.078484097495675087e-04 1.169180177384987473e-04 2.774299355223774910e-04 -2.546237083151936531e-04
9.420000000000000000e+02 1.238563919067382812e+01 2.415822982788085938e+00 -3.399866982363164425e-04 9.959745511878281832e-06 -9.900808800011873245e-05 -7.493487646570429206e-05
9.430000000000000000e+02 1.032364368438720703e+01 2.479619741439819336e+00 1.863542856881394982e-04 1.660975831327959895e-04 1.057355621014721692e-04 7.112220191629603505e-05
9.440000000000000000e+02 1.340377712249755859e+01 2.565904855728149414e+00 -6.682344246655702591e-05 -1.047175246640108526e-04 -5.146228795638307929e-05 -1.300477888435125351e-04
9.450000000000000000e+02 8.066502571105957031e+00 -1.891917943954467773e+00 -3.633238957263529301e-04 -2.502409042790532112e-04 -1.840694312704727054e-04 1.145854985225014389e-04
9.460000000000000000e+02 9.580780982971191406e+00 -2.699683189392089844e+00 5.251872935332357883e-04 2.194833359681069851e-04 2.234011917607858777e-04 -2.179455041186884046e-04
9.470000000000000000e+02 7.307577133178710938e+00 -2.680080652236938477e+00 -4.647141031455248594e-04 -2.591775264590978622e-04 -2.171674859710037708e-04 1.088475837605074048e-04
9.480000000000000000e+02 8.065495491027832031e+00 -2.677114486694335938e+00 4.907984985038638115e-04 2.401600795565173030e-04 2.192875836044549942e-04 -1.430730917491018772e-04
9.490000000000000000e+02 8.822677612304687500e+00 -2.684348821640014648e+00 -5.031572654843330383e-04 -2.254587161587551236e-04 -2.185847843065857887e-04 1.779104786692187190e-04
9.500000000000000000e+02 6.533414363861083984e+00 -1.899105787277221680e+00 -3.051311650779098272e-04 -2.992719528265297413e-04 -1.813209382817149162e-04 1.175281977339182049e-05
9.510000000000000000e+02 6.547016143798828125e+00 -2.694968461990356445e+00 4.059213679283857346e-04 3.020443255081772804e-04 2.123897138517349958e-04 -6.183273217175155878e-05
9.520000000000000000e+02 5.009659767150878906e+00 -2.767695903778076172e+00 3.175491001456975937e-04 3.519465681165456772e-04 2.008486917475238442e-04 1.354047999484464526e-04
9.530000000000000000e+02 1.743817925453186035e+00 -7.868564128875732422e+00 1.232990995049476624e-03 3.790258415392600000e-05 3.812680661212652922e-04 1.022159194690175354e-04
9.540000000000000000e+02 3.578191995620727539e+00 -4.856120586395263672e+00 6.608756375499069691e-04 3.890818334184587002e-04 3.149872354697436094e-04 5.138102569617331028e-04
9.550000000000000000e+02 4.544979035854339600e-01 -3.584893703460693359e+00 6.823026342317461967e-04 -2.200382368755526841e-05 1.980896486202254891e-04 -1.634544059925246984e-05
9.560000000000000000e+02 3.995434343814849854e-01 -2.191371917724609375e+00 -6.406249594874680042e-04 1.152076606558694039e-06 -1.918418565765023232e-04 -1.707414639895432629e-06
9.570000000000000000e+02 5.194790363311767578e-01 -5.007370948791503906e+00 -6.912265671417117119e-04 -4.367709334474056959e-05 -2.204711054218932986e-04 5.506355591933242977e-06
9.580000000000000000e+02 3.538217544555664062e+01 3.193294143676757812e+01 1.422695517539978027e+00 1.415149307250976562e+01 4.672256469726562500e+00 1.700202941894531250e+00
9.590000000000000000e+02 3.455010223388671875e+01 3.315190505981445312e+01 2.376391887664794922e+00 1.717440414428710938e+01 5.865238666534423828e+00 4.172831535339355469e+00
9.600000000000000000e+02 3.816806793212890625e+01 3.333221435546875000e+01 4.292553901672363281e+00 1.208943843841552734e+01 4.914597988128662109e+00 -2.625553309917449951e-01
9.610000000000000000e+02 3.519862747192382812e+01 3.338311004638671875e+01 3.764908313751220703e+00 1.846557617187500000e+01 6.669145107269287109e+00 5.847856402397155762e-01
9.620000000000000000e+02 3.779284286499023438e+01 3.480940246582031250e+01 5.308860778808593750e+00 1.228365421295166016e+01 5.277754306793212891e+00 9.802225232124328613e-01
9.630000000000000000e+02 3.646459197998046875e+01 3.666286849975585938e+01 2.675225496292114258e+00 1.517185497283935547e+01 5.354124069213867188e+00 2.640417337417602539e+00
9.640000000000000000e+02 3.601981353759765625e+01 3.536911010742187500e+01 8.120662689208984375e+00 1.563728713989257812e+01 7.127385139465332031e+00 2.844464302062988281e+00
9.650000000000000000e+02 3.606842803955078125e+01 3.825531387329101562e+01 -3.790853619575500488e-01 1.423656463623046875e+01 4.157243728637695312e+00 7.276049852371215820e-01
9.660000000000000000e+02 3.422560119628906250e+01 3.686275863647460938e+01 -3.536902964115142822e-01 1.456073284149169922e+01 4.262112617492675781e+00 -3.424327850341796875e+00
9.670000000000000000e+02 2.800955963134765625e+01 3.887934112548828125e+01 2.322541922330856323e-01 -1.642128378152847290e-01 2.041240595281124115e-02 4.675340354442596436e-01
9.680000000000000000e+02 2.850302696228027344e+01 3.851050186157226562e+01 8.541863644495606422e-04 -3.116652071475982666e-01 -9.324330091476440430e-02 3.748614192008972168e-01
9.690000000000000000e+02 2.427261924743652344e+01 3.994210815429687500e+01 1.376549303531646729e-01 -2.785983383655548096e-01 -4.228301718831062317e-02 4.040951728820800781e-01
9.700000000000000000e+02 2.489792633056640625e+01 3.867952728271484375e+01 -1.417433917522430420e-01 -2.489256560802459717e-01 -1.172007173299789429e-01 4.467198550701141357e-01
9.710000000000000000e+02 2.342697525024414062e+01 3.946895980834960938e+01 -1.434500142931938171e-02 -2.260028868913650513e-01 -7.210436463356018066e-02 3.548452854156494141e-01
9.720000000000000000e+02 2.202402114868164062e+01 3.329832077026367188e+01 -9.407437406480312347e-03 -2.656688690185546875e-01 -8.252289146184921265e-02 -2.722452580928802490e-01
9.730000000000000000e+02 2.620490646362304688e+01 3.356123352050781250e+01 7.180800288915634155e-02 1.859962940216064453e-01 7.734128832817077637e-02 -2.501035034656524658e-01
9.740000000000000000e+02 2.549486541748046875e+01 3.259845352172851562e+01 3.362559974193572998e-01 2.313879281282424927e-01 1.702931672334671021e-01 -1.966966539621353149e-01
9.750000000000000000e+02 2.060535240173339844e+01 3.400308227539062500e+01 1.450828043743968010e-03 -3.159810304641723633e-01 -9.435906261205673218e-02 -2.890210598707199097e-02
9.760000000000000000e+02 2.095898628234863281e+01 3.232894515991210938e+01 9.895039722323417664e-03 -5.957797169685363770e-01 -1.757653951644897461e-01 -1.013325452804565430e-01
9.770000000000000000e+02 2.041337966918945312e+01 3.876945114135742188e+01 -5.794537812471389771e-02 -9.473355859518051147e-02 -4.580368101596832275e-02 1.054555028676986694e-01
9.780000000000000000e+02 1.967994499206542969e+01 3.943951797485351562e+01 -9.891832014545798302e-04 -6.981300562620162964e-02 -2.124065719544887543e-02 8.239758759737014771e-02
9.790000000000000000e+02 2.278476524353027344e+01 -4.127239227294921875e+01 -5.818917155265808105e-01 4.544184684753417969e+00 1.188687801361083984e+00 -8.970627188682556152e-02
9.800000000000000000e+02 1.901696395874023438e+01 -3.773365402221679688e+01 4.966483712196350098e-01 3.887325763702392578e+00 1.315192222595214844e+00 1.111016035079956055e+00
9.810000000000000000e+02 1.301582908630371094e+01 -3.712355804443359375e+01 -1.096167564392089844e-01 3.178604692220687866e-02 -2.334921248257160187e-02 3.384919092059135437e-02
9.820000000000000000e+02 1.347841358184814453e+01 2.593946075439453125e+01 2.173702698200941086e-03 -3.743299021152779460e-05 6.408808985725045204e-04 -6.461062002927064896e-05
9.830000000000000000e+02 1.204595279693603516e+01 2.477665328979492188e+01 1.980328466743230820e-03 -6.189283158164471388e-05 5.755306920036673546e-04 -1.221680213348008692e-05
9.840000000000000000e+02 1.399667167663574219e+01 3.192988777160644531e+01 4.984929692000150681e-03 1.005511221592314541e-04 1.525644329376518726e-03 1.617740374058485031e-03
9.850000000000000000e+02 1.683864402770996094e+01 3.525876998901367188e+01 6.549448240548372269e-03 6.781158503144979477e-03 3.999182023108005524e-03 1.177951460704207420e-03
9.860000000000000000e+02 1.655447196960449219e+01 3.761114501953125000e+01 1.904369518160820007e-02 1.903821481391787529e-03 6.284255068749189377e-03 6.731201428920030594e-03
9.870000000000000000e+02 1.526341342926025391e+01 3.442724609375000000e+01 5.506100598722696304e-03 1.203657360747456551e-03 2.012927317991852760e-03 3.390782512724399567e-04
9.880000000000000000e+02 1.446608257293701172e+01 1.878622055053710938e+01 1.264677033759653568e-03 -4.619072933564893901e-05 3.655459149740636349e-04 -1.123374677263200283e-04
9.890000000000000000e+02 1.319010734558105469e+01 1.883899116516113281e+01 -1.391316880472004414e-03 2.956741082016378641e-05 -4.085248219780623913e-04 1.208671383210457861e-04
9.900000000000000000e+02 1.467385768890380859e+01 2.437277030944824219e+01 1.662715920247137547e-03 -8.287811942864209414e-05 4.739513387903571129e-04 -1.465686946175992489e-04
9.910000000000000000e+02 1.368243885040283203e+01 2.878083801269531250e+01 3.204968525096774101e-03 1.605210127308964729e-04 1.009646803140640259e-03 3.419088898226618767e-04
9.920000000000000000e+02 1.359169960021972656e+01 2.733910942077636719e+01 -2.118311589583754539e-03 3.063786716666072607e-04 -5.435798666439950466e-04 5.193920223973691463e-04
9.930000000000000000e+02 1.372095203399658203e+01 3.033997154235839844e+01 -2.216977765783667564e-03 -1.825602375902235508e-04 -7.198613602668046951e-04 7.906303508207201958e-04
9.940000000000000000e+02 1.324574375152587891e+01 1.746614837646484375e+01 1.319983741268515587e-03 -9.323113044956699014e-05 3.680257650557905436e-04 -9.304617560701444745e-05
9.950000000000000000e+02 1.297290802001953125e+01 1.183254718780517578e+01 9.403780568391084671e-04 3.174052108079195023e-05 2.916355733759701252e-04 7.933626329759135842e-05
9.960000000000000000e+02 1.310061645507812500e+01 1.475899887084960938e+01 1.069600344635546207e-03 -6.989930261624976993e-05 2.999103453475981951e-04 -6.570943514816462994e-05
9.970000000000000000e+02 1.466870498657226562e+01 5.028080463409423828e+00 5.264634964987635612e-04 4.279439599486067891e-05 1.707773626549169421e-04 -9.361184493172913790e-05
9.980000000000000000e+02 1.172584438323974609e+01 2.424143552780151367e+00 2.669811947271227837e-04 7.853274291846901178e-05 1.036541798384860158e-04 1.290579821215942502e-04
9.990000000000000000e+02 1.032617378234863281e+01 3.871848106384277344e+00 2.829137956723570824e-04 1.278304262086749077e-04 1.232232752954587340e-04 8.038870146265253425e-05
1.000000000000000000e+03 1.357350444793701172e+01 7.721313953399658203e+00 -6.559406174346804619e-04 -4.774999615619890392e-05 -2.111071953549981117e-04 -6.810606282670050859e-05
1.001000000000000000e+03 1.292457389831542969e+01 1.332699108123779297e+01 -1.019467366859316826e-03 5.247909211902879179e-05 -2.900964755099266768e-04 -6.305872830125736073e-06
1.002000000000000000e+03 7.931945800781250000e+01 -2.775287055969238281e+01 -5.608100909739732742e-04 8.952564239501953125e+00 2.685600996017456055e+00 -8.771321736276149750e-03
1.003000000000000000e+03 7.722422027587890625e+01 -3.769513320922851562e+01 -8.395211771130561829e-03 8.843380928039550781e+00 2.650495767593383789e+00 1.825986430048942566e-02
1.004000000000000000e+03 7.934156799316406250e+01 -3.470818328857421875e+01 -3.711134195327758789e-03 8.977445602416992188e+00 2.692120313644409180e+00 1.329970196820795536e-03
1.005000000000000000e+03 7.773492431640625000e+01 3.188032531738281250e+01 7.292749825865030289e-03 5.991759300231933594e+00 1.799715638160705566e+00 -1.390753686428070068e-01
1.006000000000000000e+03 7.907044219970703125e+01 3.622014999389648438e+01 -6.497697439044713974e-03 5.575029850006103516e+00 1.670559644699096680e+00 -2.031628042459487915e-02
1.007000000000000000e+03 7.935952758789062500e+01 -2.080107116699218750e+01 -5.764323286712169647e-04 8.882488250732421875e+00 2.664573669433593750e+00 -1.322586834430694580e-02
1.008000000000000000e+03 7.795571136474609375e+01 -2.751898384094238281e+01 -6.464998587034642696e-04 8.841437339782714844e+00 2.652237415313720703e+00 -1.861894316971302032e-02
1.009000000000000000e+03 7.797850799560546875e+01 -2.613061714172363281e+01 -1.586245023645460606e-03 8.833625793457031250e+00 2.649611949920654297e+00 -2.022334747016429901e-02
1.010000000000000000e+03 7.931038665771484375e+01 -3.054162406921386719e+01 -1.176939113065600395e-03 8.971508979797363281e+00 2.691099643707275391e+00 -6.120997946709394455e-03
1.011000000000000000e+03 7.800479888916015625e+01 -3.449803161621093750e+01 -4.105996340513229370e-03 8.885234832763671875e+00 2.664338827133178711e+00 -3.247828222811222076e-03
1.012000000000000000e+03 7.792043304443359375e+01 -3.312646484375000000e+01 -4.591945558786392212e-03 8.872687339782714844e+00 2.660428762435913086e+00 -4.261379595845937729e-03
1.013000000000000000e+03 7.491638946533203125e+01 -3.700498962402343750e+01 -2.420306392014026642e-02 8.699045181274414062e+00 2.602452516555786133e+00 -3.155886009335517883e-02
1.014000000000000000e+03 7.622104644775390625e+01 -3.871830368041992188e+01 3.587370971217751503e-03 8.810242652893066406e+00 2.644149065017700195e+00 -2.175873814849182963e-04
1.015000000000000000e+03 7.798171997070312500e+01 1.413717460632324219e+01 -4.838591441512107849e-03 7.324176788330078125e+00 2.195801496505737305e+00 -1.786022931337356567e-01
1.016000000000000000e+03 7.932240295410156250e+01 1.540233898162841797e+01 -2.307758433744311333e-03 7.186195850372314453e+00 2.155166387557983398e+00 -6.828787922859191895e-02
1.017000000000000000e+03 7.793728637695312500e+01 2.114045524597167969e+01 2.400733763352036476e-03 6.753688812255859375e+00 2.026826858520507812e+00 -1.954407989978790283e-01
1.018000000000000000e+03 7.931910705566406250e+01 2.237901496887207031e+01 1.657217042520642281e-03 6.536557674407958984e+00 1.961464524269104004e+00 -7.135327160358428955e-02
1.019000000000000000e+03 7.803981018066406250e+01 3.048686599731445312e+01 4.828450269997119904e-03 6.013908386230468750e+00 1.805621027946472168e+00 -1.318213045597076416e-01
1.020000000000000000e+03 7.824345397949218750e+01 2.809541893005371094e+01 7.513076532632112503e-03 6.168141841888427734e+00 1.852696537971496582e+00 -1.445232927799224854e-01
1.021000000000000000e+03 7.941430664062500000e+01 2.792227363586425781e+01 3.521351376548409462e-03 6.040832996368408203e+00 1.813306331634521484e+00 -5.257534980773925781e-02
1.022000000000000000e+03 7.799408721923828125e+01 2.535421752929687500e+01 1.055370829999446869e-02 6.404916286468505859e+00 1.924641013145446777e+00 -1.790242195129394531e-01
1.023000000000000000e+03 7.796910858154296875e+01 2.394876480102539062e+01 4.693161230534315109e-03 6.521280765533447266e+00 1.957792162895202637e+00 -1.875161528587341309e-01
1.024000000000000000e+03 7.793260955810546875e+01 1.833171653747558594e+01 -7.953977328725159168e-04 6.986664295196533203e+00 2.095760583877563477e+00 -1.921633630990982056e-01
1.025000000000000000e+03 7.794558715820312500e+01 1.692805671691894531e+01 -3.675548126921057701e-03 7.101219177246093750e+00 2.129263162612915039e+00 -1.882039010524749756e-01
1.026000000000000000e+03 7.799569702148437500e+01 1.273553371429443359e+01 -3.397658700123429298e-03 7.432461261749267578e+00 2.228718996047973633e+00 -1.718830764293670654e-01
1.027000000000000000e+03 7.670120239257812500e+01 1.140588092803955078e+01 -1.180231012403964996e-02 7.541679859161376953e+00 2.258963108062744141e+00 -2.565245330333709717e-01
1.028000000000000000e+03 7.801617431640625000e+01 8.558406829833984375e+00 -6.156126037240028381e-03 7.733663082122802734e+00 2.318252086639404297e+00 -1.512994617223739624e-01
1.029000000000000000e+03 7.933599090576171875e+01 9.824790954589843750e+00 -1.828020438551902771e-03 7.656426429748535156e+00 2.296379566192626953e+00 -6.011090427637100220e-02
1.030000000000000000e+03 7.935976409912109375e+01 -1.941623687744140625e+01 -3.207961271982640028e-04 8.863073348999023438e+00 2.658825874328613281e+00 -1.428990904241800308e-02
1.031000000000000000e+03 7.934702301025390625e+01 -1.386746597290039062e+01 -8.382858941331505775e-04 8.764995574951171875e+00 2.629247188568115234e+00 -2.011406421661376953e-02
1.032000000000000000e+03 7.933364105224609375e+01 -6.914255619049072266e+00 -1.084312796592712402e-03 8.574932098388671875e+00 2.572154283523559570e+00 -2.981572784483432770e-02
1.033000000000000000e+03 7.797319793701171875e+01 1.755844801664352417e-01 -6.222234107553958893e-03 8.211060523986816406e+00 2.461451530456542969e+00 -1.080062910914421082e-01
1.034000000000000000e+03 7.932541656494140625e+01 1.458438634872436523e+00 -1.623049611225724220e-03 8.209657669067382812e+00 2.462410449981689453e+00 -4.480548575520515442e-02
1.035000000000000000e+03 7.670414733886718750e+01 7.256762504577636719e+00 -1.490741129964590073e-02 7.799517631530761719e+00 2.335382938385009766e+00 -2.242297828197479248e-01
1.036000000000000000e+03 7.831869506835937500e+01 2.923214149475097656e+01 1.242649275809526443e-02 6.058467388153076172e+00 1.821268081665039062e+00 -1.263073682785034180e-01
1.037000000000000000e+03 7.872352600097656250e+01 4.037166976928710938e+01 1.735121197998523712e-02 5.571148395538330078e+00 1.676549911499023438e+00 6.097902357578277588e-02
1.038000000000000000e+03 7.509429931640625000e+01 3.758139038085937500e+01 9.163051843643188477e-02 6.103143215179443359e+00 1.858432054519653320e+00 -1.385018080472946167e-01
1.039000000000000000e+03 7.562226104736328125e+01 3.565795898437500000e+01 7.218429446220397949e-02 6.130793094635009766e+00 1.860893249511718750e+00 -1.698594093322753906e-01
1.040000000000000000e+03 7.801459503173828125e+01 9.947260856628417969e+00 -4.724929574877023697e-03 7.637713909149169922e+00 2.289896726608276367e+00 -1.582529991865158081e-01
1.041000000000000000e+03 7.661856079101562500e+01 2.440256774425506592e-01 -1.444616727530956268e-02 8.150191307067871094e+00 2.440723657608032227e+00 -1.685798168182373047e-01
1.042000000000000000e+03 7.798646545410156250e+01 2.973061561584472656e+00 -6.505258847028017044e-03 8.071518898010253906e+00 2.419503927230834961e+00 -1.223656982183456421e-01
1.043000000000000000e+03 7.797463226318359375e+01 -1.227118253707885742e+00 -5.385200027376413345e-03 8.274038314819335938e+00 2.480596065521240234e+00 -1.007284075021743774e-01
1.044000000000000000e+03 7.932566833496093750e+01 -2.728685379028320312e+00 -1.049195998348295689e-03 8.413440704345703125e+00 2.523717641830444336e+00 -3.724592551589012146e-02
1.045000000000000000e+03 7.800890350341796875e+01 -8.212068557739257812e+00 -4.583990667015314102e-03 8.528651237487792969e+00 2.557220220565795898e+00 -6.745390594005584717e-02
1.046000000000000000e+03 7.800109863281250000e+01 -5.434096813201904297e+00 -5.167522467672824860e-03 8.439398765563964844e+00 2.530269384384155273e+00 -7.963446527719497681e-02
1.047000000000000000e+03 7.933641815185546875e+01 -9.697152137756347656e+00 -9.042048477567732334e-04 8.661319732666015625e+00 2.598124504089355469e+00 -2.563977614045143127e-02
1.048000000000000000e+03 7.803179168701171875e+01 -1.236787796020507812e+01 -3.736556973308324814e-03 8.636841773986816406e+00 2.589931488037109375e+00 -5.209301784634590149e-02
1.049000000000000000e+03 7.935410308837890625e+01 -1.664313316345214844e+01 -5.948308389633893967e-04 8.818923950195312500e+00 2.645498752593994141e+00 -1.688216626644134521e-02
1.050000000000000000e+03 7.808124542236328125e+01 -2.060306930541992188e+01 -2.031868789345026016e-03 8.782196998596191406e+00 2.634049415588378906e+00 -3.016325458884239197e-02
1.051000000000000000e+03 7.808057403564453125e+01 -1.923806762695312500e+01 -2.105117309838533401e-03 8.764015197753906250e+00 2.628573179244995117e+00 -3.259276226162910461e-02
1.052000000000000000e+03 1.329074478149414062e+01 -3.010527610778808594e+01 3.513964824378490448e-03 1.232132664881646633e-03 1.423829235136508942e-03 -2.329458482563495636e-03
1.053000000000000000e+03 2.220038604736328125e+01 1.420240283012390137e+00 -3.758147358894348145e-02 4.674104213714599609e+00 1.390956759452819824e+00 2.933120727539062500e-01
1.054000000000000000e+03 2.359338378906250000e+01 1.415510535240173340e+00 -8.567770011723041534e-03 4.774202823638916016e+00 1.429690480232238770e+00 3.622732460498809814e-01
1.055000000000000000e+03 2.020163154602050781e+01 -1.395296669006347656e+01 1.139321699738502502e-01 5.188620090484619141e+00 1.590765714645385742e+00 2.839043140411376953e-01
1.056000000000000000e+03 1.377002620697021484e+01 -3.869739532470703125e+01 -1.727231889963150024e-01 5.064083263278007507e-02 -3.662470728158950806e-02 -9.261510521173477173e-02
1.057000000000000000e+03 1.989241218566894531e+01 -1.817469787597656250e+01 -4.384081438183784485e-02 4.415039062500000000e+00 1.311359405517578125e+00 2.629097104072570801e-01
1.058000000000000000e+03 1.209368896484375000e+01 -3.360949325561523438e+01 -2.807558327913284302e-02 -8.426390704698860645e-04 -8.675466291606426239e-03 2.480742707848548889e-02
1.059000000000000000e+03 2.039770698547363281e+01 -5.537687301635742188e+00 -4.714125022292137146e-02 4.408212661743164062e+00 1.308321475982666016e+00 1.951358914375305176e-01
1.060000000000000000e+03 2.214846801757812500e+01 9.856045246124267578e-03 -5.442254990339279175e-02 4.718682289123535156e+00 1.399277925491333008e+00 3.602907657623291016e-01
1.061000000000000000e+03 2.167643547058105469e+01 -8.357439041137695312e+00 1.680774986743927002e-02 4.842366218566894531e+00 1.457752108573913574e+00 2.436605393886566162e-01
1.062000000000000000e+03 2.145044708251953125e+01 -1.965806388854980469e+01 -8.099507540464401245e-02 4.771157264709472656e+00 1.407048583030700684e+00 2.245772629976272583e-01
1.063000000000000000e+03 2.177794837951660156e+01 -5.594840526580810547e+00 -9.223026782274246216e-02 4.762728691101074219e+00 1.401149630546569824e+00 2.531200945377349854e-01
1.064000000000000000e+03 2.154899406433105469e+01 -1.537487697601318359e+01 6.603632867336273193e-02 4.903605461120605469e+00 1.490892648696899414e+00 1.696730554103851318e-01
1.065000000000000000e+03 2.158889198303222656e+01 -1.395352745056152344e+01 1.155301257967948914e-01 4.890150547027587891e+00 1.501704216003417969e+00 2.368049323558807373e-01
1.066000000000000000e+03 2.187144088745117188e+01 -4.207874298095703125e+00 -4.946087673306465149e-02 4.747260093688964844e+00 1.409339785575866699e+00 2.166481316089630127e-01
1.067000000000000000e+03 2.230906105041503906e+01 7.137866497039794922e+00 1.815196685492992401e-02 4.298111438751220703e+00 1.294879078865051270e+00 3.412908315658569336e-01
1.068000000000000000e+03 2.491465759277343750e+01 -2.276936340332031250e+01 -7.126395404338836670e-02 5.076684951782226562e+00 1.501626253128051758e+00 1.525420546531677246e-01
1.069000000000000000e+03 1.209402179718017578e+01 -2.752787208557128906e+01 -3.205060958862304688e-03 -4.180736374109983444e-03 -2.215739106759428978e-03 -1.837780837377067655e-05
1.070000000000000000e+03 2.224642562866210938e+01 2.845943927764892578e+00 7.112899422645568848e-02 4.612632274627685547e+00 1.405128359794616699e+00 2.942194938659667969e-01
1.071000000000000000e+03 1.447672462463378906e+01 -2.484652709960937500e+01 -4.374776966869831085e-03 1.182630308903753757e-03 -9.576439624652266502e-04 -9.627646068111062050e-04
1.072000000000000000e+03 1.204597187042236328e+01 -2.504637718200683594e+01 -3.498809644952416420e-03 -1.973041100427508354e-03 -1.641555223613977432e-03 -2.507295692339539528e-03
1.073000000000000000e+03 2.130366706848144531e+01 -2.673179054260253906e+01 1.328744646161794662e-02 4.816602706909179688e+00 1.448967099189758301e+00 1.188018098473548889e-01
1.074000000000000000e+03 2.098868942260742188e+01 2.683680915832519531e+01 1.897975057363510132e-02 -7.342333793640136719e-01 -2.145760804414749146e-01 9.389313310384750366e-02
1.075000000000000000e+03 2.545428466796875000e+01 3.351250076293945312e+01 3.717295452952384949e-02 1.439070999622344971e-01 5.432401970028877258e-02 -3.045946061611175537e-01
1.076000000000000000e+03 2.106356620788574219e+01 1.134579563140869141e+01 -3.688108408823609352e-03 3.379112005233764648e+00 1.012627124786376953e+00 1.253983378410339355e-01
1.077000000000000000e+03 2.094329833984375000e+01 3.100184249877929688e+01 1.945345662534236908e-02 -8.332634568214416504e-01 -2.441429942846298218e-01 -6.224517524242401123e-02
1.078000000000000000e+03 1.483206844329833984e+01 -2.148068189620971680e+00 -6.120689213275909424e-04 -1.050128776114434004e-04 -2.151245425920933485e-04 -8.255123975686728954e-05
1.079000000000000000e+03 2.165154838562011719e+01 -9.748254776000976562e+00 5.055274069309234619e-02 4.866573810577392578e+00 1.475137948989868164e+00 1.980338990688323975e-01
1.080000000000000000e+03 2.171509552001953125e+01 -6.973985671997070312e+00 -5.339666828513145447e-02 4.776868820190429688e+00 1.417041659355163574e+00 2.508729398250579834e-01
1.081000000000000000e+03 2.231695556640625000e+01 9.963363647460937500e+00 -1.197232306003570557e-02 3.836293220520019531e+00 1.147296309471130371e+00 3.450648486614227295e-01
1.082000000000000000e+03 2.352440452575683594e+01 1.702459907531738281e+01 -6.096772849559783936e-02 2.840976238250732422e+00 8.340026140213012695e-01 7.545499801635742188e-01
1.083000000000000000e+03 2.103336524963378906e+01 2.261315536499023438e+01 2.782616764307022095e-03 3.397891521453857422e-01 1.027715355157852173e-01 1.828398704528808594e-01
1.084000000000000000e+03 2.319432067871093750e+01 2.699393272399902344e+01 2.135747373104095459e-01 4.825231134891510010e-01 2.088293582201004028e-01 4.624928236007690430e-01
1.085000000000000000e+03 2.105122375488281250e+01 1.979691696166992188e+01 -1.603259588591754436e-03 1.204765677452087402e+00 3.609487116336822510e-01 1.863241493701934814e-01
1.086000000000000000e+03 2.228605461120605469e+01 1.984972763061523438e+01 -1.230144780129194260e-02 1.707193255424499512e+00 5.084675550460815430e-01 5.311685204505920410e-01
1.087000000000000000e+03 2.352708625793457031e+01 1.989387130737304688e+01 -2.522568590939044952e-02 2.226458549499511719e+00 6.603698730468750000e-01 8.288813233375549316e-01
1.088000000000000000e+03 2.229600334167480469e+01 1.700852203369140625e+01 -2.439582534134387970e-02 2.418139219284057617e+00 7.181230187416076660e-01 4.893508851528167725e-01
1.089000000000000000e+03 2.229364967346191406e+01 1.842819023132324219e+01 -1.811775937676429749e-02 2.070479869842529297e+00 6.157086491584777832e-01 5.149211883544921875e-01
1.090000000000000000e+03 2.205570983886718750e+01 2.830520057678222656e+01 9.568490833044052124e-02 -2.866395711898803711e-01 -5.728640034794807434e-02 1.274785250425338745e-01
1.091000000000000000e+03 2.334830284118652344e+01 2.417273902893066406e+01 9.317302703857421875e-02 1.174109578132629395e+00 3.801847696304321289e-01 7.338849902153015137e-01
1.092000000000000000e+03 2.230435943603515625e+01 1.418676948547363281e+01 -2.656381390988826752e-02 3.045959234237670898e+00 9.058186411857604980e-01 4.228098094463348389e-01
1.093000000000000000e+03 1.323901748657226562e+01 -1.464928054809570312e+01 -2.778082853183150291e-03 -3.560673212632536888e-04 -9.402450523339211941e-04 4.898401093669235706e-04
1.094000000000000000e+03 1.359966945648193359e+01 -7.949633598327636719e+00 2.129376167431473732e-03 1.072679879143834114e-04 6.709932349622249603e-04 -2.871701726689934731e-04
1.095000000000000000e+03 1.460710906982421875e+01 -7.934382915496826172e+00 -2.369326539337635040e-03 -4.417231684783473611e-05 -7.240496925078332424e-04 9.493920515524223447e-05
1.096000000000000000e+03 1.177919387817382812e+01 -3.839598894119262695e+00 1.618540700292214751e-04 -1.589515741216018796e-04 8.707501706339826342e-07 -9.161325288005173206e-04
1.097000000000000000e+03 1.341785240173339844e+01 -1.196819782257080078e+01 -2.598739461973309517e-03 -1.855773443821817636e-04 -8.352950098924338818e-04 2.917691890615969896e-04
1.098000000000000000e+03 1.455096244812011719e+01 -1.209490299224853516e+01 3.102652495726943016e-03 1.075103136827237904e-04 9.630488348193466663e-04 -2.908591122832149267e-04
1.099000000000000000e+03 1.357773590087890625e+01 -5.240683555603027344e+00 1.565813436172902584e-03 2.435305359540507197e-04 5.428032018244266510e-04 -1.775677810655906796e-04
1.100000000000000000e+03 1.460764694213867188e+01 -5.166539669036865234e+00 -1.821856596507132053e-03 -1.612733904039487243e-04 -5.949389887973666191e-04 -1.349256926914677024e-04
1.101000000000000000e+03 1.448937606811523438e+01 -1.486585903167724609e+01 3.418510081246495247e-03 2.555361716076731682e-04 1.102213864214718342e-03 -5.469689494930207729e-04
1.102000000000000000e+03 1.431444263458251953e+01 -1.905124092102050781e+01 -4.512263461947441101e-03 1.225083105964586139e-04 -1.316926558502018452e-03 8.822022355161607265e-04
1.103000000000000000e+03 2.200570297241210938e+01 2.966852378845214844e+01 9.670143574476242065e-02 -4.067251682281494141e-01 -9.300712496042251587e-02 -1.830926910042762756e-02
1.104000000000000000e+03 2.315106391906738281e+01 2.838865470886230469e+01 2.355152815580368042e-01 2.099181413650512695e-01 1.336300224065780640e-01 2.491396218538284302e-01
1.105000000000000000e+03 1.383753061294555664e+00 -4.000941467285156250e+01 8.675902150571346283e-03 -3.035234846174716949e-02 -6.502933800220489502e-03 -9.081006865017116070e-04
1.106000000000000000e+03 7.572112083435058594e-01 3.745721435546875000e+01 1.240264042280614376e-03 2.592298667877912521e-03 1.149768824689090252e-03 -1.955316693056374788e-04
1.107000000000000000e+03 7.051038742065429688e-01 3.328482818603515625e+01 -1.176939345896244049e-03 1.434315228834748268e-03 7.721278234384953976e-05 -2.673477574717253447e-04
1.108000000000000000e+03 6.612781286239624023e-01 2.611994171142578125e+01 1.224006875418126583e-03 4.773130058310925961e-05 3.815214440692216158e-04 -1.590566826052963734e-04
1.109000000000000000e+03 2.049599170684814453e+00 2.878879165649414062e+01 -1.339528360404074192e-03 2.327442925889045000e-04 -3.320352407172322273e-04 -2.739173360168933868e-04
1.110000000000000000e+03 6.746184229850769043e-01 -3.611321640014648438e+01 -1.710605248808860779e-02 -1.398815773427486420e-02 -9.328262880444526672e-03 -4.375225398689508438e-03
1.111000000000000000e+03 1.989480733871459961e+00 -3.318512725830078125e+01 7.785152178257703781e-03 -3.758528502658009529e-03 1.207987195812165737e-03 -2.998740645125508308e-03
1.112000000000000000e+03 3.290737390518188477e+00 2.709865379333496094e+01 -1.492347102612257004e-03 2.217808469140436500e-05 -4.410507099237293005e-04 -2.330697025172412395e-04
1.113000000000000000e+03 3.216413021087646484e+00 2.417781448364257812e+01 -1.537883188575506210e-03 1.055731172527885064e-05 -4.581977555062621832e-04 -1.049213169608265162e-04
1.114000000000000000e+03 2.100919008255004883e+00 3.325261688232421875e+01 1.806221553124487400e-03 9.325084974989295006e-04 8.216190035454928875e-04 -6.294855265878140926e-04
1.115000000000000000e+03 2.393727779388427734e+00 3.845281600952148438e+01 1.029089791700243950e-03 2.883324865251779556e-03 1.173724420368671417e-03 -5.936447414569556713e-04
1.116000000000000000e+03 3.018279314041137695e+00 3.947298049926757812e+01 -1.047592610120773315e-03 1.424249145202338696e-03 1.129969750763848424e-04 7.379724411293864250e-04
1.117000000000000000e+03 1.925609707832336426e+00 -3.057065773010253906e+01 6.063006818294525146e-03 -2.192962216213345528e-03 1.161013380624353886e-03 -5.794911994598805904e-04
1.118000000000000000e+03 1.960976600646972656e+00 -2.782617950439453125e+01 4.059715196490287781e-03 2.750887942966073751e-04 1.300441217608749866e-03 -4.509175050770863891e-05
1.119000000000000000e+03 2.753745079040527344e+00 -3.552474594116210938e+01 1.448879949748516083e-03 -6.729266140609979630e-03 -1.584115903824567795e-03 -4.406435880810022354e-03
1.120000000000000000e+03 1.997233629226684570e+00 -2.209916877746582031e+01 2.814866602420806885e-03 2.251475525554269552e-04 9.120042668655514717e-04 3.206551191397011280e-04
1.121000000000000000e+03 5.939741730690002441e-01 1.905586814880371094e+01 -1.540592638775706291e-03 -9.683240205049514771e-05 -4.912275471724569798e-04 2.631377428770065308e-04
1.122000000000000000e+03 5.907784700393676758e-01 1.342156600952148438e+01 -1.222100108861923218e-03 -6.333742931019514799e-05 -3.856312832795083523e-04 2.176865673391148448e-04
1.123000000000000000e+03 5.455216169357299805e-01 7.790667533874511719e+00 -8.242856711149215698e-04 -4.371092290966771543e-05 -2.603989851195365191e-04 1.406088558724150062e-04
1.124000000000000000e+03 3.653158187866210938e+00 -3.891626358032226562e+01 -8.980814018286764622e-04 -1.759084872901439667e-02 -5.546679254621267319e-03 -1.466987654566764832e-02
1.125000000000000000e+03 2.130038261413574219e+00 -3.447670745849609375e+01 -7.932771928608417511e-03 -1.578221656382083893e-02 -7.114496547728776932e-03 -1.251404546201229095e-02
1.126000000000000000e+03 1.912465572357177734e+00 -3.189632797241210938e+01 -9.577748365700244904e-03 -2.839606022462248802e-03 -3.725206246599555016e-03 -4.611981101334095001e-03
1.127000000000000000e+03 3.283394813537597656e+00 -2.798454475402832031e+01 -5.717864725738763809e-03 -7.162146503105759621e-04 -1.930223894305527210e-03 -1.582551863975822926e-03
1.128000000000000000e+03 1.986834645271301270e+00 -2.356028556823730469e+01 -3.194439923390746117e-03 6.083723856136202812e-04 -7.758202846162021160e-04 2.017517399508506060e-04
1.129000000000000000e+03 1.966104149818420410e+00 -2.642496681213378906e+01 -4.295371472835540771e-03 3.616205940488725901e-04 -1.180125284008681774e-03 -3.583629149943590164e-04
1.130000000000000000e+03 3.336737871170043945e+00 -2.067229080200195312e+01 3.254119772464036942e-03 -1.003323559416458011e-04 9.461362496949732304e-04 4.776720306836068630e-04
1.131000000000000000e+03 6.522071361541748047e-01 -1.917612075805664062e+01 -1.687199459411203861e-03 3.392432699911296368e-04 -4.043868393637239933e-04 8.910078031476587057e-05
1.132000000000000000e+03 1.956218957901000977e+00 -1.917490959167480469e+01 2.405749401077628136e-03 2.392901369603350759e-04 7.935118628665804863e-04 1.978681248147040606e-04
1.133000000000000000e+03 1.820110797882080078e+00 -1.629939460754394531e+01 2.172850770875811577e-03 4.101824742974713445e-05 6.641607033088803291e-04 9.356894224765710533e-06
1.134000000000000000e+03 5.723871588706970215e-01 -1.210710811614990234e+01 1.444796100258827209e-03 1.588156351317593362e-06 4.339152656029909849e-04 3.890811512974323705e-06
1.135000000000000000e+03 1.717631101608276367e+00 -1.211736392974853516e+01 -1.729197800159454346e-03 5.944447912042960525e-05 -5.009259912185370922e-04 1.301199881709180772e-05
1.136000000000000000e+03 5.820433139801025391e+00 -3.527590274810791016e+00 4.076536279171705246e-04 3.683326649479568005e-04 2.327958936803042889e-04 -6.015729013597592711e-05
1.137000000000000000e+03 3.495024442672729492e+00 -2.867983579635620117e+00 6.552337436005473137e-04 9.351761400466784835e-05 2.246254152851179242e-04 1.963121612789109349e-04
1.138000000000000000e+03 2.785911321640014648e+00 -2.897876024246215820e+00 -5.854003829881548882e-04 -2.432787368888966739e-05 -1.829184766393154860e-04 1.074883257388137281e-04
1.139000000000000000e+03 1.360172390937805176e+00 -3.463452816009521484e+00 -7.661601412110030651e-04 -1.311885444010840729e-05 -2.337837067898362875e-04 -1.498479396104812622e-04
1.140000000000000000e+03 4.650264680385589600e-01 5.019606113433837891e+00 -8.227138896472752094e-04 -7.566701242467388511e-05 -2.695142757147550583e-04 -4.477926631807349622e-05
1.141000000000000000e+03 1.710321664810180664e+00 1.042352867126464844e+01 9.401557617820799351e-04 5.658668669639155269e-05 2.990227367263287306e-04 -2.131561195710673928e-04
1.142000000000000000e+03 5.694788098335266113e-01 1.060281085968017578e+01 -1.031373860314488411e-03 -4.477196853258647025e-05 -3.228437271900475025e-04 1.832627021940425038e-04
1.143000000000000000e+03 1.778856635093688965e+00 1.322499465942382812e+01 1.095600659027695656e-03 7.162373367464169860e-05 3.501673345454037189e-04 -2.301657223142683506e-04
1.144000000000000000e+03 1.813205242156982422e+00 2.020137214660644531e+01 -1.520779333077371120e-03 -1.806531327019911259e-05 -4.616533988155424595e-04 1.593632623553276062e-04
1.145000000000000000e+03 1.780716061592102051e+00 1.881728172302246094e+01 1.488388865254819393e-03 -1.078288460121257231e-05 4.432817804627120495e-04 -2.056120574707165360e-04
1.146000000000000000e+03 1.941159486770629883e+00 2.443814086914062500e+01 1.476669101975858212e-03 4.141566387261264026e-05 4.554254119284451008e-04 -6.653439777437597513e-05
1.147000000000000000e+03 3.202890396118164062e+01 3.370056152343750000e+01 3.764089345932006836e+00 1.264597058296203613e+00 1.508605957031250000e+00 2.640626668930053711e+00
1.148000000000000000e+03 3.153377914428710938e+01 3.330686950683593750e+01 3.250158071517944336e+00 1.393389463424682617e+00 1.393064260482788086e+00 2.415289163589477539e+00
1.149000000000000000e+03 3.188003158569335938e+01 3.331447601318359375e+01 3.692989110946655273e+00 2.076346397399902344e+00 1.730800628662109375e+00 3.132702112197875977e+00
1.150000000000000000e+03 3.262839508056640625e+01 3.692770767211914062e+01 5.709383487701416016e-01 3.964766025543212891e+00 1.360711336135864258e+00 -2.729604482650756836e+00
1.151000000000000000e+03 3.181512260437011719e+01 3.774913024902343750e+01 4.235972464084625244e-01 2.403072357177734375e+00 8.480008840560913086e-01 -1.500254750251770020e+00
1.152000000000000000e+03 3.234166717529296875e+01 3.734629440307617188e+01 5.493567585945129395e-01 3.473928213119506836e+00 1.206985473632812500e+00 -2.140935420989990234e+00
1.153000000000000000e+03 3.285522460937500000e+01 3.731639480590820312e+01 5.282296538352966309e-01 5.530726909637451172e+00 1.817686915397644043e+00 -3.162556409835815430e+00
1.154000000000000000e+03 3.202992630004882812e+01 3.309344482421875000e+01 3.950982809066772461e+00 2.501314640045166016e+00 1.935689210891723633e+00 3.701470851898193359e+00
1.155000000000000000e+03 3.369005584716796875e+01 3.722057342529296875e+01 -3.513581156730651855e-01 1.059916210174560547e+01 3.074341058731079102e+00 -4.018494606018066406e+00
1.156000000000000000e+03 2.930650520324707031e+01 3.305358123779296875e+01 1.364938497543334961e+00 5.598485469818115234e-01 5.774360895156860352e-01 6.720325350761413574e-01
1.157000000000000000e+03 1.244956684112548828e+01 -2.665430545806884766e+00 -1.713675446808338165e-04 5.262328777462244034e-04 1.064596071955747902e-04 -1.363987539662048221e-04
1.158000000000000000e+03 2.877997016906738281e+01 3.307362365722656250e+01 1.065282106399536133e+00 4.693008065223693848e-01 4.603748619556427002e-01 4.247512817382812500e-01
1.159000000000000000e+03 2.828169441223144531e+01 3.249238967895507812e+01 1.185517907142639160e+00 6.060573458671569824e-01 5.374725461006164551e-01 4.917895197868347168e-01
1.160000000000000000e+03 2.992044448852539062e+01 3.347046661376953125e+01 1.348379373550415039e+00 4.627910256385803223e-01 5.433511137962341309e-01 7.323697209358215332e-01
1.161000000000000000e+03 2.822164916992187500e+01 3.304701995849609375e+01 8.414394259452819824e-01 4.089708924293518066e-01 3.751230835914611816e-01 2.443373352289199829e-01
1.162000000000000000e+03 2.980084228515625000e+01 3.298334503173828125e+01 1.753481030464172363e+00 7.322967052459716797e-01 7.457333207130432129e-01 1.000635027885437012e+00
1.163000000000000000e+03 3.001832008361816406e+01 3.914908599853515625e+01 8.795793056488037109e-01 7.430661916732788086e-01 4.867936372756958008e-01 1.229284182190895081e-01
1.164000000000000000e+03 2.872631263732910156e+01 3.910979843139648438e+01 4.364381432533264160e-01 3.301228955388069153e-02 1.408351212739944458e-01 1.966359913349151611e-01
1.165000000000000000e+03 3.258477783203125000e+01 3.721131515502929688e+01 5.350091457366943359e-01 4.274849414825439453e+00 1.442957520484924316e+00 -2.545717716217041016e+00
1.166000000000000000e+03 3.148796081542968750e+01 3.848175430297851562e+01 6.591625809669494629e-01 2.601834774017333984e+00 9.782992005348205566e-01 -1.407278418540954590e+00
1.167000000000000000e+03 3.514356613159179688e+01 3.762836074829101562e+01 -7.112655639648437500e-01 1.524181079864501953e+01 4.359163284301757812e+00 -2.009583413600921631e-01
1.168000000000000000e+03 3.343935012817382812e+01 3.762579345703125000e+01 -2.099337428808212280e-01 9.213769912719726562e+00 2.701150894165039062e+00 -3.199856996536254883e+00
1.169000000000000000e+03 2.762029647827148438e+01 3.298135757446289062e+01 6.725811362266540527e-01 3.768169581890106201e-01 3.148194253444671631e-01 1.013609766960144043e-01
1.170000000000000000e+03 3.234305191040039062e+01 3.786609649658203125e+01 5.463173985481262207e-01 4.131269454956054688e+00 1.403276085853576660e+00 -2.158588409423828125e+00
1.171000000000000000e+03 3.406719970703125000e+01 3.284019088745117188e+01 2.433392524719238281e+00 1.370779037475585938e+01 4.842354774475097656e+00 5.491672515869140625e+00
1.172000000000000000e+03 2.203452110290527344e+01 3.864891433715820312e+01 -6.202856078743934631e-02 -1.223084032535552979e-01 -5.530108883976936340e-02 2.418172955513000488e-01
1.173000000000000000e+03 1.387569141387939453e+01 2.746776819229125977e+00 3.523523919284343719e-04 -8.615915430709719658e-05 7.985797128640115261e-05 1.348093064734712243e-05
1.174000000000000000e+03 3.804660320281982422e+00 2.760361671447753906e+00 -3.029204381164163351e-04 -1.623025455046445131e-04 -1.395668950863182545e-04 1.019910996546968818e-04
1.175000000000000000e+03 6.036679744720458984e+00 2.674922227859497070e+00 1.820251491153612733e-04 2.287552051711827517e-04 1.232341019203886390e-04 -7.542718230979517102e-05
1.176000000000000000e+03 6.023153781890869141e+00 3.479643821716308594e+00 -1.913921441882848740e-04 -2.625193446874618530e-04 -1.361734466627240181e-04 7.317415293073281646e-05
1.177000000000000000e+03 6.764494419097900391e+00 3.473969936370849609e+00 2.435143396724015474e-04 2.513537183403968811e-04 1.484604144934564829e-04 -4.366874418337829411e-05
1.178000000000000000e+03 8.916194915771484375e+00 3.288702487945556641e+00 -1.931118749780580401e-04 -2.063008578261360526e-04 -1.198238169308751822e-04 -5.364384924178011715e-05
1.179000000000000000e+03 6.764889717102050781e+00 2.656758308410644531e+00 -1.940725051099434495e-04 -2.343281666981056333e-04 -1.285202015424147248e-04 6.248187128221616149e-05
1.180000000000000000e+03 7.487828731536865234e+00 3.436557054519653320e+00 -1.974363694898784161e-04 -2.616288838908076286e-04 -1.377195731038227677e-04 5.265814615995623171e-05
1.181000000000000000e+03 4.495133399963378906e+00 3.573642969131469727e+00 -2.546214382164180279e-04 -2.106472384184598923e-04 -1.395806029904633760e-04 1.830451947171241045e-04
1.182000000000000000e+03 4.544141292572021484e+00 2.737882614135742188e+00 2.163854660466313362e-04 1.920781214721500874e-04 1.225390733452513814e-04 -1.415334845660254359e-04
1.183000000000000000e+03 1.827287435531616211e+00 2.610847711563110352e+00 2.475564833730459213e-04 1.807468361221253872e-04 1.284909958485513926e-04 8.374822209589183331e-05
1.184000000000000000e+03 1.103198909759521484e+01 2.446290254592895508e+00 -2.136776165571063757e-04 -1.312637614319100976e-04 -1.034824090311303735e-04 -1.011816202662885189e-04
1.185000000000000000e+03 1.098187351226806641e+01 3.119776725769042969e+00 2.368191780988126993e-04 1.540535304229706526e-04 1.172618140117265284e-04 1.395030703861266375e-04
1.186000000000000000e+03 2.772789192199707031e+01 3.235458374023437500e+01 1.021166920661926270e+00 5.640126466751098633e-01 4.755538702011108398e-01 3.568508625030517578e-01
1.187000000000000000e+03 2.379537963867187500e+01 3.338827133178710938e+01 -3.820873098447918892e-03 -1.375124044716358185e-02 -5.271634086966514587e-03 -3.568327724933624268e-01
1.188000000000000000e+03 2.468192100524902344e+01 3.244725799560546875e+01 2.615028023719787598e-01 1.377291083335876465e-01 1.197695732116699219e-01 -2.465372681617736816e-01
1.189000000000000000e+03 2.196868324279785156e+01 3.221662521362304688e+01 4.787138476967811584e-02 -3.536160290241241455e-01 -9.172338992357254028e-02 -2.510461509227752686e-01
1.190000000000000000e+03 2.482433700561523438e+01 3.138958740234375000e+01 4.472061395645141602e-01 2.790858149528503418e-01 2.178875803947448730e-01 -6.005925312638282776e-02
1.191000000000000000e+03 1.229233932495117188e+01 3.065868616104125977e+00 4.940325161442160606e-04 -1.059277383319567889e-05 1.450319250579923391e-04 2.117540134349837899e-04
1.192000000000000000e+03 9.551468849182128906e+00 -3.507517337799072266e+00 -6.345054716803133488e-04 -1.960192894330248237e-04 -2.491574268788099289e-04 2.440349198877811432e-04
1.193000000000000000e+03 1.096618270874023438e+01 -4.445744514465332031e+00 7.631201297044754028e-04 2.515371306799352169e-04 3.043971955776214600e-04 -5.542825674638152122e-04
1.194000000000000000e+03 1.365064811706542969e+01 -3.974065303802490234e+00 -1.374682644382119179e-03 -1.013274886645376682e-04 -4.428030224516987801e-04 3.467897186055779457e-04
1.195000000000000000e+03 1.024143695831298828e+01 -4.378772258758544922e+00 -7.991712191142141819e-04 -1.454862504033371806e-04 -2.833972394000738859e-04 3.843249869532883167e-04
1.196000000000000000e+03 1.376355361938476562e+01 4.265975475311279297e+00 6.195504101924598217e-04 -3.290953463874757290e-05 1.759922597557306290e-04 3.936822395189665258e-05
1.197000000000000000e+03 6.573291301727294922e+00 -3.484284400939941406e+00 -5.374531028792262077e-04 -2.833266626112163067e-04 -2.462339180056005716e-04 1.388730888720601797e-04
1.198000000000000000e+03 2.977798223495483398e+00 -7.892383098602294922e+00 -1.513953437097370625e-03 1.325903303950326517e-05 -4.502083174884319305e-04 -8.640552550787106156e-05
1.199000000000000000e+03 7.313666343688964844e+00 -5.058063507080078125e+00 1.033409731462597847e-03 1.212426723213866353e-04 3.463957109488546848e-04 -6.994247814873233438e-05
1.200000000000000000e+03 5.780494689941406250e+00 -2.724127054214477539e+00 -3.359772090334445238e-04 -3.466505440883338451e-04 -2.047883172053843737e-04 -2.570635115262120962e-05
1.201000000000000000e+03 7.316946983337402344e+00 -3.467019319534301758e+00 6.235166219994425774e-04 2.252839185530319810e-04 2.546401519794017076e-04 -1.540017692605033517e-04
1.202000000000000000e+03 2.688581705093383789e+00 -3.757834672927856445e+00 1.162101048976182938e-03 -1.214149961015209556e-04 3.122058114968240261e-04 -1.026523750624619424e-04
1.203000000000000000e+03 5.163389682769775391e+00 -4.424247741699218750e+00 3.135620790999382734e-04 4.867763782385736704e-04 2.401015372015535831e-04 -2.456304628140060231e-06
1.204000000000000000e+03 2.128342390060424805e+00 -3.142701864242553711e+00 1.830470137065276504e-04 1.711504592094570398e-04 1.062592418747954071e-04 1.364546333206817508e-04
1.205000000000000000e+03 1.560463428497314453e+00 -4.916342258453369141e+00 9.167529060505330563e-04 2.056376433756668121e-05 2.811950107570737600e-04 9.206400136463344097e-05
1.206000000000000000e+03 8.803636550903320312e+00 -3.480971574783325195e+00 6.233215099200606346e-04 2.163030731026083231e-04 2.518873661756515503e-04 -1.855765003710985184e-04
1.207000000000000000e+03 3.455385589599609375e+01 3.224163055419921875e+01 1.277598023414611816e+00 1.462973880767822266e+01 4.772201061248779297e+00 3.572935104370117188e+00
1.208000000000000000e+03 3.493115234375000000e+01 3.169916343688964844e+01 1.045900821685791016e+00 1.352873611450195312e+01 4.372391223907470703e+00 2.447796583175659180e+00
1.209000000000000000e+03 2.768368530273437500e+01 4.029729461669921875e+01 7.382057905197143555e-01 7.710297405719757080e-02 2.445926219224929810e-01 1.068773344159126282e-01
1.210000000000000000e+03 2.291554069519042969e+01 3.332936477661132812e+01 -1.258300896733999252e-02 -1.231253966689109802e-01 -4.071252048015594482e-02 -3.355951905250549316e-01
1.211000000000000000e+03 2.268597984313964844e+01 4.166813659667968750e+01 2.900089323520660400e-01 -3.553035557270050049e-01 -1.958838105201721191e-02 8.696998655796051025e-02
1.212000000000000000e+03 1.861816787719726562e+01 3.818415832519531250e+01 -5.010273307561874390e-02 -2.583023160696029663e-02 -2.277988940477371216e-02 5.335604399442672729e-02
1.213000000000000000e+03 3.656510543823242188e+01 3.221608734130859375e+01 2.497455596923828125e+00 1.400550937652587891e+01 4.950889587402343750e+00 -8.249881118535995483e-02
1.214000000000000000e+03 3.630333328247070312e+01 3.284186172485351562e+01 3.139266014099121094e+00 1.494940948486328125e+01 5.426602363586425781e+00 -2.014498412609100342e-01
1.215000000000000000e+03 3.687406539916992188e+01 3.317997741699218750e+01 4.690715312957763672e+00 1.381592941284179688e+01 5.551993370056152344e+00 -7.976447343826293945e-01
1.216000000000000000e+03 3.794569015502929688e+01 3.607603073120117188e+01 4.057495117187500000e+00 1.277988719940185547e+01 5.051214694976806641e+00 2.413550138473510742e+00
1.217000000000000000e+03 3.684193801879882812e+01 3.582025527954101562e+01 5.058465003967285156e+00 1.393831157684326172e+01 5.699032783508300781e+00 2.984650850296020508e+00
1.218000000000000000e+03 1.198751544952392578e+01 1.629850959777832031e+01 1.112814294174313545e-03 -2.844667869794648141e-05 3.253102768212556839e-04 3.697558349813334644e-05
1.219000000000000000e+03 1.206028938293457031e+01 1.018520736694335938e+01 7.025047088973224163e-04 1.407595555065199733e-04 2.529792836867272854e-04 3.064451739192008972e-04
1.220000000000000000e+03 1.220908927917480469e+01 2.613821601867675781e+01 -2.011437667533755302e-03 2.433631307212635875e-04 -5.304223741404712200e-04 2.238190645584836602e-04
1.221000000000000000e+03 2.300660705566406250e+01 -1.111133575439453125e+01 5.550180003046989441e-02 4.978986740112304688e+00 1.510346531867980957e+00 2.606720924377441406e-01
1.222000000000000000e+03 2.360733413696289062e+01 -3.101696074008941650e-02 -2.227066643536090851e-02 4.790711879730224609e+00 1.430532336235046387e+00 3.568706810474395752e-01
1.223000000000000000e+03 6.766303181648254395e-01 3.015679121017456055e+00 -3.468827344477176666e-04 1.393693964928388596e-04 -6.225400284165516496e-05 -5.021189572289586067e-04
1.224000000000000000e+03 2.436958885192871094e+01 -7.051662921905517578e+00 -4.646360129117965698e-02 5.016176700592041016e+00 1.490913867950439453e+00 2.948952913284301758e-01
1.225000000000000000e+03 2.305347251892089844e+01 -7.016282558441162109e+00 -5.236822366714477539e-02 4.923448562622070312e+00 1.461324095726013184e+00 2.903566658496856689e-01
1.226000000000000000e+03 2.309059143066406250e+01 -1.824451828002929688e+01 -7.885869592428207397e-02 4.966341018676757812e+00 1.466244697570800781e+00 1.735928207635879517e-01
1.227000000000000000e+03 2.208194732666015625e+01 -1.395398378372192383e+00 2.441919967532157898e-02 4.644824028015136719e+00 1.400772929191589355e+00 3.593519330024719238e-01
1.228000000000000000e+03 2.354479217529296875e+01 -1.467785120010375977e+00 -3.065312094986438751e-02 4.822927474975585938e+00 1.437682271003723145e+00 3.354488015174865723e-01
1.229000000000000000e+03 1.249305534362792969e+01 3.276510238647460938e+01 -1.445490197511389852e-04 -1.387888682074844837e-03 -4.597312945406883955e-04 8.446495630778372288e-04
1.230000000000000000e+03 1.460817718505859375e+01 3.331464385986328125e+01 -2.053643809631466866e-03 2.418653806671500206e-03 1.095030602300539613e-04 2.867783186957240105e-03
1.231000000000000000e+03 1.309421730041503906e+01 2.169862365722656250e+01 -1.436772290617227554e-03 -1.879661067505367100e-05 -4.366706416476517916e-04 4.054822784382849932e-05
1.232000000000000000e+03 1.207051181793212891e+01 1.753865814208984375e+01 -1.435332698747515678e-03 1.415745500707998872e-04 -3.881274315062910318e-04 -1.083342140191234648e-04
1.233000000000000000e+03 2.306960678100585938e+01 -1.677881050109863281e+01 -2.258327044546604156e-02 4.968115806579589844e+00 1.483659744262695312e+00 1.467454284429550171e-01
1.234000000000000000e+03 1.179701614379882812e+01 1.503692150115966797e+01 -7.914268062449991703e-04 -7.502257358282804489e-05 -2.599348081275820732e-04 8.826874545775353909e-05
1.235000000000000000e+03 1.368808269500732422e+01 6.466163158416748047e+00 5.808211280964314938e-04 4.702578735304996371e-05 1.883540826383978128e-04 5.369294376578181982e-05
1.236000000000000000e+03 1.041705799102783203e+01 4.609129428863525391e+00 -4.481578362174332142e-04 2.353347190364729613e-05 -1.273873058380559087e-04 -4.561544119496829808e-05
1.237000000000000000e+03 1.148379325866699219e+01 1.372115707397460938e+01 5.697979358956217766e-04 -4.522832114162156358e-06 1.695825194474309683e-04 -2.423028927296400070e-04
1.238000000000000000e+03 1.376209449768066406e+01 5.294468402862548828e+00 -5.536266253329813480e-04 -1.699473432381637394e-05 -1.711864024400711060e-04 -4.826174699701368809e-05
1.239000000000000000e+03 8.980692863464355469e+00 4.046802997589111328e+00 2.495669759809970856e-04 1.661297283135354519e-04 1.247090112883597612e-04 1.116002822527661920e-04
1.240000000000000000e+03 9.301188468933105469e+00 -3.141744804382324219e+01 -1.090393960475921631e-02 6.848398596048355103e-03 -1.216662465594708920e-03 4.452402237802743912e-03
1.241000000000000000e+03 7.475299835205078125e+01 -3.286119461059570312e+01 -1.124251261353492737e-02 8.617726325988769531e+00 2.581944942474365234e+00 -2.530985325574874878e-02
1.242000000000000000e+03 7.704911804199218750e+01 -3.582085037231445312e+01 -1.651843823492527008e-02 8.815241813659667969e+00 2.639617204666137695e+00 1.229955814778804779e-03
1.243000000000000000e+03 7.554547882080078125e+01 -2.155679893493652344e+01 -9.068988263607025146e-03 8.607385635375976562e+00 2.579494953155517578e+00 -5.722054839134216309e-02
1.244000000000000000e+03 7.794684600830078125e+01 -2.890391349792480469e+01 -1.924345036968588829e-03 8.849367141723632812e+00 2.654232740402221680e+00 -1.789761707186698914e-02
1.245000000000000000e+03 7.326301574707031250e+01 -3.723452377319335938e+01 -2.618162147700786591e-02 8.512200355529785156e+00 2.545805692672729492e+00 -2.756926417350769043e-02
1.246000000000000000e+03 7.530258178710937500e+01 1.420022296905517578e+01 -1.756101846694946289e-02 7.387479305267333984e+00 2.210975408554077148e+00 -3.674287497997283936e-01
1.247000000000000000e+03 7.796338653564453125e+01 1.553050041198730469e+01 -1.562232733704149723e-03 7.213271617889404297e+00 2.163512706756591797e+00 -1.838462054729461670e-01
1.248000000000000000e+03 7.726096343994140625e+01 3.484143447875976562e+01 5.910574272274971008e-02 5.917847156524658203e+00 1.793085813522338867e+00 -1.282519400119781494e-01
1.249000000000000000e+03 7.578716278076171875e+01 3.288403320312500000e+01 4.395631328225135803e-02 6.168932914733886719e+00 1.863866806030273438e+00 -2.252044528722763062e-01
1.250000000000000000e+03 7.806990051269531250e+01 -2.196660804748535156e+01 -2.063796157017350197e-03 8.797987937927246094e+00 2.638777256011962891e+00 -2.804620377719402313e-02
1.251000000000000000e+03 7.677370452880859375e+01 -2.310426330566406250e+01 -5.498498212546110153e-03 8.712278366088867188e+00 2.612034082412719727e+00 -3.890345245599746704e-02
1.252000000000000000e+03 7.656729888916015625e+01 -3.007004165649414062e+01 -5.613683257251977921e-03 8.744394302368164062e+00 2.621634244918823242e+00 -2.261065319180488586e-02
1.253000000000000000e+03 7.658382415771484375e+01 -2.866879081726074219e+01 -5.146521609276533127e-03 8.742129325866699219e+00 2.621094942092895508e+00 -2.415934205055236816e-02
1.254000000000000000e+03 7.545134735107421875e+01 -2.422233200073242188e+01 -9.149975143373012543e-03 8.624067306518554688e+00 2.584475278854370117e+00 -4.630724713206291199e-02
1.255000000000000000e+03 7.657086944580078125e+01 -2.728594207763671875e+01 -2.462793374434113503e-03 8.735609054565429688e+00 2.619943618774414062e+00 -2.896126359701156616e-02
1.256000000000000000e+03 7.671320343017578125e+01 -2.448659133911132812e+01 -5.865335464477539062e-03 8.720119476318359375e+00 2.614276409149169922e+00 -3.570078685879707336e-02
1.257000000000000000e+03 7.646483612060546875e+01 -3.150286674499511719e+01 -7.122360169887542725e-03 8.747756958007812500e+00 2.622190237045288086e+00 -2.166663669049739838e-02
1.258000000000000000e+03 7.642163848876953125e+01 -3.297694396972656250e+01 -9.450124576687812805e-03 8.764831542968750000e+00 2.626614570617675781e+00 -1.947250403463840485e-02
1.259000000000000000e+03 7.520565795898437500e+01 -2.852194786071777344e+01 -9.506551548838615417e-03 8.634342193603515625e+00 2.587450504302978516e+00 -3.393303230404853821e-02
1.260000000000000000e+03 7.795032501220703125e+01 2.254639244079589844e+01 1.107639283873140812e-03 6.635768890380859375e+00 1.991062998771667480e+00 -1.915767937898635864e-01
1.261000000000000000e+03 7.650750732421875000e+01 1.986313056945800781e+01 -2.508634701371192932e-03 6.949502944946289062e+00 2.084098339080810547e+00 -3.042507767677307129e-01
1.262000000000000000e+03 7.519681549072265625e+01 2.287798500061035156e+01 1.012246869504451752e-02 6.847597599029541016e+00 2.057316064834594727e+00 -3.930276930332183838e-01
1.263000000000000000e+03 7.653450775146484375e+01 2.128896522521972656e+01 -4.834691571886651218e-05 6.846962451934814453e+00 2.054074287414550781e+00 -3.045631349086761475e-01
1.264000000000000000e+03 7.667628479003906250e+01 1.280555725097656250e+01 -1.151379570364952087e-02 7.447245597839355469e+00 2.230719566345214844e+00 -2.681753933429718018e-01
1.265000000000000000e+03 7.543148803710937500e+01 8.672307014465332031e+00 -2.599846012890338898e-02 7.711468219757080078e+00 2.305640935897827148e+00 -3.091574013233184814e-01
1.266000000000000000e+03 7.664004516601562500e+01 1.420902824401855469e+01 -8.600611239671707153e-03 7.349927902221679688e+00 2.202398300170898438e+00 -2.775499224662780762e-01
1.267000000000000000e+03 7.659473419189453125e+01 2.413182258605957031e+01 1.040802430361509323e-02 6.629289627075195312e+00 1.991909265518188477e+00 -2.890241146087646484e-01
1.268000000000000000e+03 7.802755737304687500e+01 2.680423355102539062e+01 8.521124720573425293e-03 6.282023906707763672e+00 1.887163519859313965e+00 -1.651505678892135620e-01
1.269000000000000000e+03 7.680049133300781250e+01 -2.175212287902832031e+01 -5.398143548518419266e-03 8.700373649597167969e+00 2.608492612838745117e+00 -4.258725047111511230e-02
1.270000000000000000e+03 7.666946411132812500e+01 2.693057632446289062e+01 2.366233430802822113e-02 6.414038658142089844e+00 1.931310176849365234e+00 -2.647251486778259277e-01
1.271000000000000000e+03 7.554497528076171875e+01 -1.628208923339843750e+01 -1.299073640257120132e-02 8.539558410644531250e+00 2.557970285415649414e+00 -7.982259243726730347e-02
1.272000000000000000e+03 7.680757904052734375e+01 -1.907554244995117188e+01 -5.141938570886850357e-03 8.668045997619628906e+00 2.598871231079101562e+00 -5.025951564311981201e-02
1.273000000000000000e+03 7.537850189208984375e+01 -9.520323753356933594e+00 -1.946934126317501068e-02 8.401792526245117188e+00 2.514697074890136719e+00 -1.274653077125549316e-01
1.274000000000000000e+03 7.805715179443359375e+01 -1.512161827087402344e+01 -3.447145223617553711e-03 8.695163726806640625e+00 2.607515096664428711e+00 -4.306657239794731140e-02
1.275000000000000000e+03 7.533455657958984375e+01 -2.600970268249511719e+00 -2.598760090768337250e-02 8.204572677612304688e+00 2.453575611114501953e+00 -1.916878223419189453e-01
1.276000000000000000e+03 7.669039154052734375e+01 -6.779888153076171875e+00 -1.213134173303842545e-02 8.406335830688476562e+00 2.518261194229125977e+00 -1.136392354965209961e-01
1.277000000000000000e+03 7.800623321533203125e+01 5.774055004119873047e+00 -6.287273019552230835e-03 7.911871910095214844e+00 2.371675252914428711e+00 -1.368972361087799072e-01
1.278000000000000000e+03 7.665317535400390625e+01 3.055612564086914062e+00 -1.551760267466306686e-02 8.023400306701660156e+00 2.402364969253540039e+00 -1.911737024784088135e-01
1.279000000000000000e+03 7.801282501220703125e+01 7.168355464935302734e+00 -5.275703966617584229e-03 7.825007915496826172e+00 2.345919609069824219e+00 -1.440588682889938354e-01
1.280000000000000000e+03 7.669214630126953125e+01 5.864178180694580078e+00 -1.451030652970075607e-02 7.877873420715332031e+00 2.359009027481079102e+00 -2.133112549781799316e-01
1.281000000000000000e+03 7.665082550048828125e+01 -2.584509849548339844e+00 -1.381475664675235748e-02 8.264077186584472656e+00 2.475078821182250977e+00 -1.450049430131912231e-01
1.282000000000000000e+03 7.669367218017578125e+01 -9.538081169128417969e+00 -1.043622102588415146e-02 8.481458663940429688e+00 2.541306972503662109e+00 -9.615518897771835327e-02
1.283000000000000000e+03 7.679641723632812500e+01 -1.637602996826171875e+01 -7.526525761932134628e-03 8.627360343933105469e+00 2.585950374603271484e+00 -6.054340302944183350e-02
1.284000000000000000e+03 7.181529998779296875e+01 3.513847351074218750e+01 1.938969790935516357e-01 6.599640846252441406e+00 2.038061380386352539e+00 -2.867568135261535645e-01
1.285000000000000000e+03 7.635883331298828125e+01 3.151696395874023438e+01 3.510008379817008972e-02 6.172158241271972656e+00 1.862177491188049316e+00 -2.167444080114364624e-01
1.286000000000000000e+03 7.651427459716796875e+01 1.843549156188964844e+01 -4.911039024591445923e-03 7.050719261169433594e+00 2.113742351531982422e+00 -3.010856211185455322e-01
1.287000000000000000e+03 7.510821533203125000e+01 1.702797317504882812e+01 -1.244948431849479675e-02 7.216651439666748047e+00 2.161260604858398438e+00 -3.938443362712860107e-01
1.288000000000000000e+03 7.671317291259765625e+01 1.002001476287841797e+01 -1.383585762232542038e-02 7.631397724151611328e+00 2.285268545150756836e+00 -2.459338158369064331e-01
1.289000000000000000e+03 7.804578399658203125e+01 -1.374709796905517578e+01 -3.609179751947522163e-03 8.667419433593750000e+00 2.599143266677856445e+00 -4.734952747821807861e-02
1.290000000000000000e+03 7.677821350097656250e+01 -1.501722240447998047e+01 -8.104510605335235596e-03 8.602756500244140625e+00 2.578395843505859375e+00 -6.643819063901901245e-02
1.291000000000000000e+03 7.800658416748046875e+01 -6.827203273773193359e+00 -4.902337677776813507e-03 8.486124038696289062e+00 2.544366359710693359e+00 -7.339677959680557251e-02
1.292000000000000000e+03 7.669038391113281250e+01 -8.157114982604980469e+00 -1.137912273406982422e-02 8.445165634155273438e+00 2.530135869979858398e+00 -1.047100424766540527e-01
1.293000000000000000e+03 7.797779083251953125e+01 1.570662498474121094e+00 -5.675895605236291885e-03 8.143740653991699219e+00 2.441419363021850586e+00 -1.152035668492317200e-01
1.294000000000000000e+03 7.662712860107421875e+01 -1.166873812675476074e+00 -1.465529575943946838e-02 8.208795547485351562e+00 2.458241939544677734e+00 -1.572477221488952637e-01
1.295000000000000000e+03 7.667561340332031250e+01 4.464258670806884766e+00 -1.563337817788124084e-02 7.952558040618896484e+00 2.381077527999877930e+00 -2.023575305938720703e-01
1.296000000000000000e+03 7.667294311523437500e+01 -3.990403175354003906e+00 -1.357380766421556473e-02 8.315468788146972656e+00 2.490568637847900391e+00 -1.340020596981048584e-01
1.297000000000000000e+03 7.675512695312500000e+01 -1.365833950042724609e+01 -8.755351416766643524e-03 8.576147079467773438e+00 2.570217370986938477e+00 -7.329180836677551270e-02
1.298000000000000000e+03 7.670495605468750000e+01 -1.091652107238769531e+01 -9.717227891087532043e-03 8.514966011047363281e+00 2.551574468612670898e+00 -8.822573721408843994e-02
1.299000000000000000e+03 7.539577484130859375e+01 -1.089638996124267578e+01 -1.770037598907947540e-02 8.432943344116210938e+00 2.524573087692260742e+00 -1.167990267276763916e-01
1.300000000000000000e+03 7.680899810791015625e+01 -2.041590499877929688e+01 -4.636029712855815887e-03 8.685921669006347656e+00 2.604385852813720703e+00 -4.660652950406074524e-02
1.301000000000000000e+03 2.230018806457519531e+01 5.714454174041748047e+00 7.956413924694061279e-02 4.454235076904296875e+00 1.360139727592468262e+00 3.663271367549896240e-01
1.302000000000000000e+03 2.355643081665039062e+01 9.982444763183593750e+00 -3.695992007851600647e-02 4.031029224395751953e+00 1.198220849037170410e+00 5.330317020416259766e-01
1.303000000000000000e+03 2.289583969116210938e+01 -2.685487365722656250e+01 -3.387660533189773560e-02 4.941845893859863281e+00 1.472390770912170410e+00 1.482592374086380005e-01
1.304000000000000000e+03 2.141945648193359375e+01 -2.250881767272949219e+01 -3.756888210773468018e-02 4.723665714263916016e+00 1.405829071998596191e+00 1.122718378901481628e-01
1.305000000000000000e+03 2.196243095397949219e+01 3.098784255981445312e+01 8.494985848665237427e-02 -4.222228229045867920e-01 -1.011818870902061462e-01 -1.520817130804061890e-01
1.306000000000000000e+03 2.354602622985839844e+01 1.279538917541503906e+01 -5.820850655436515808e-02 3.605454683303833008e+00 1.064173817634582520e+00 6.101531982421875000e-01
1.307000000000000000e+03 1.206384181976318359e+01 -2.626316452026367188e+01 2.733369357883930206e-03 2.131110988557338715e-03 1.459344057366251945e-03 1.254025846719741821e-03
1.308000000000000000e+03 2.392677688598632812e+01 3.115926551818847656e+01 3.307437598705291748e-01 1.126455366611480713e-01 1.330167949199676514e-01 -1.145416945219039917e-01
1.309000000000000000e+03 2.209589004516601562e+01 2.691257667541503906e+01 8.730388432741165161e-02 -7.480230927467346191e-02 3.750472795218229294e-03 2.647112309932708740e-01
1.310000000000000000e+03 1.359874916076660156e+01 -6.599790096282958984e+00 -1.888113096356391907e-03 -1.906686666188761592e-04 -6.236345507204532623e-04 2.160686708521097898e-04
1.311000000000000000e+03 2.213821220397949219e+01 2.550499343872070312e+01 6.823126971721649170e-02 2.219880074262619019e-01 8.706577867269515991e-02 3.872809410095214844e-01
1.312000000000000000e+03 2.468102264404296875e+01 2.285377120971679688e+01 6.358495354652404785e-02 2.146567583084106445e+00 6.630457639694213867e-01 1.073111057281494141e+00
1.313000000000000000e+03 2.128587722778320312e+01 -2.814659309387207031e+01 -1.704671978950500488e-02 4.866871356964111328e+00 1.454947471618652344e+00 1.146752983331680298e-01
1.314000000000000000e+03 2.223294639587402344e+01 2.267846870422363281e+01 1.531931385397911072e-02 9.505856633186340332e-01 2.897714972496032715e-01 5.139796137809753418e-01
1.315000000000000000e+03 2.344321632385253906e+01 2.275510787963867188e+01 3.826065734028816223e-02 1.547111988067626953e+00 4.756117761135101318e-01 8.100584745407104492e-01
1.316000000000000000e+03 2.350570487976074219e+01 2.133020591735839844e+01 -3.730305470526218414e-03 1.899963736534118652e+00 5.688700675964355469e-01 8.323416113853454590e-01
1.317000000000000000e+03 2.226742744445800781e+01 2.126660728454589844e+01 -8.645636844448745251e-04 1.330445051193237305e+00 3.988741338253021240e-01 5.351694226264953613e-01
1.318000000000000000e+03 2.477571105957031250e+01 1.991463851928710938e+01 -4.980835691094398499e-02 2.785953521728515625e+00 8.208435773849487305e-01 1.092120766639709473e+00
1.319000000000000000e+03 1.313433742523193359e+01 -1.599461364746093750e+01 2.917932113632559776e-03 6.001683068461716175e-04 1.055430155247449875e-03 -8.236398571170866489e-04
1.320000000000000000e+03 1.141216468811035156e+01 -1.823025703430175781e+01 -2.052199328318238258e-03 -4.055856843478977680e-04 -7.373355329036712646e-04 5.105032469145953655e-04
1.321000000000000000e+03 1.182632446289062500e+01 -1.568577384948730469e+01 -2.208890160545706749e-03 -7.188142044469714165e-04 -8.783112862147390842e-04 4.550459270831197500e-04
1.322000000000000000e+03 1.252542495727539062e+01 -9.244113922119140625e+00 2.103016711771488190e-03 8.849096047924831510e-05 6.574523285962641239e-04 -3.146785020362585783e-04
1.323000000000000000e+03 1.356338787078857422e+01 -9.293408393859863281e+00 -2.339920960366725922e-03 -7.385150092886760831e-05 -7.241317071020603180e-04 2.884308050852268934e-04
1.324000000000000000e+03 1.225007915496826172e+01 -1.179181003570556641e+01 2.239997265860438347e-03 2.683459315448999405e-04 7.525029941461980343e-04 -3.003323217853903770e-04
1.325000000000000000e+03 2.353631782531738281e+01 1.420216751098632812e+01 -6.217905133962631226e-02 3.367922782897949219e+00 9.917231202125549316e-01 6.577888727188110352e-01
1.326000000000000000e+03 2.352697372436523438e+01 1.560888290405273438e+01 -6.418280303478240967e-02 3.110818147659301758e+00 9.139905571937561035e-01 7.048951387405395508e-01
1.327000000000000000e+03 2.231033134460449219e+01 1.277879238128662109e+01 -2.299184724688529968e-02 3.328344583511352539e+00 9.916058182716369629e-01 3.927273750305175781e-01
1.328000000000000000e+03 2.355428504943847656e+01 1.138929653167724609e+01 -4.750690981745719910e-02 3.828351974487304688e+00 1.134253501892089844e+00 5.708299279212951660e-01
1.329000000000000000e+03 1.105628395080566406e+01 -1.942109870910644531e+01 2.396657597273588181e-03 -1.109450473450124264e-03 3.861621371470391750e-04 -1.401375862769782543e-03
1.330000000000000000e+03 1.199361801147460938e+01 -2.394330406188964844e+01 3.226293949410319328e-03 2.173221204429864883e-03 1.619854476302862167e-03 2.834364073351025581e-03
1.331000000000000000e+03 2.231402778625488281e+01 8.552644729614257812e+00 -6.951525341719388962e-03 4.064943790435791016e+00 1.217397689819335938e+00 3.282487094402313232e-01
1.332000000000000000e+03 2.354454040527343750e+01 7.158501625061035156e+00 2.337532490491867065e-02 4.372975349426269531e+00 1.318905234336853027e+00 4.932680726051330566e-01
1.333000000000000000e+03 2.312973594665527344e+01 -5.661633014678955078e+00 -6.883133202791213989e-02 4.897933483123779297e+00 1.448730587959289551e+00 2.674830555915832520e-01
1.334000000000000000e+03 2.324801826477050781e+01 -4.291083812713623047e+00 -4.526436701416969299e-02 4.852949619293212891e+00 1.442305564880371094e+00 2.791090607643127441e-01
1.335000000000000000e+03 3.458284378051757812e+00 3.012240791320800781e+01 -1.492618233896791935e-03 6.788322934880852699e-05 -4.274205130059272051e-04 -4.882988869212567806e-04
1.336000000000000000e+03 2.003053903579711914e+00 2.732384109497070312e+01 1.508576213382184505e-03 1.508890709374099970e-04 4.978395882062613964e-04 -1.675209205131977797e-04
1.337000000000000000e+03 5.409556865692138672e+00 3.287359619140625000e+01 1.508449669927358627e-03 -1.070314785465598106e-03 1.314404362346976995e-04 -2.429844113066792488e-03
1.338000000000000000e+03 2.132268190383911133e+00 3.598383712768554688e+01 1.334516447968780994e-03 2.054382115602493286e-03 1.016669557429850101e-03 -1.929356076288968325e-04
1.339000000000000000e+03 3.362378120422363281e+00 2.858537483215332031e+01 1.901441253721714020e-03 2.142958110198378563e-04 6.347211310639977455e-04 -3.520807658787816763e-04
1.340000000000000000e+03 2.098870277404785156e+00 3.465491485595703125e+01 -1.955111976712942123e-03 1.485059619881212711e-03 -1.410156546626240015e-04 -9.691022569313645363e-04
1.341000000000000000e+03 3.451137781143188477e+00 3.328508758544921875e+01 -2.302190987393260002e-03 9.595766314305365086e-04 -4.027843242511153221e-04 -1.204358995892107487e-03
1.342000000000000000e+03 6.049527645111083984e+00 3.170500946044921875e+01 1.013120752759277821e-03 6.608456606045365334e-04 5.021899123676121235e-04 3.789625188801437616e-04
1.343000000000000000e+03 3.554647684097290039e+00 3.175460052490234375e+01 2.211246173828840256e-03 4.916647449135780334e-04 8.108732872642576694e-04 -8.509976905770599842e-04
1.344000000000000000e+03 3.425653696060180664e+00 -3.432540130615234375e+01 3.468648937996476889e-04 -2.141198143362998962e-03 -5.382999661378562450e-04 -1.078825816512107849e-02
1.345000000000000000e+03 3.231651067733764648e+00 -3.072598457336425781e+01 -7.519593462347984314e-03 -1.616908702999353409e-03 -2.740950789302587509e-03 -6.035850383341312408e-03
1.346000000000000000e+03 1.950384855270385742e+00 -2.921224784851074219e+01 -5.939465016126632690e-03 -8.489793399348855019e-04 -2.036533318459987640e-03 -2.459471113979816437e-03
1.347000000000000000e+03 1.863060593605041504e+00 2.160133743286132812e+01 1.513417810201644897e-03 -3.507752626319415867e-05 4.435020673554390669e-04 -9.419636626262217760e-05
1.348000000000000000e+03 3.182552337646484375e+00 2.273198890686035156e+01 1.602782751433551311e-03 4.165330210526008159e-06 4.820844333153218031e-04 1.048556259775068611e-05
1.349000000000000000e+03 3.268641233444213867e+00 -1.915297126770019531e+01 -2.816190477460622787e-03 -1.533759641461074352e-04 -8.908698800951242447e-04 1.224217267008498311e-04
1.350000000000000000e+03 2.865472078323364258e+00 -1.213822937011718750e+01 1.996141858398914337e-03 -1.964944203791674227e-05 5.929477047175168991e-04 4.320314474171027541e-05
1.351000000000000000e+03 1.734232783317565918e+00 -9.299386024475097656e+00 -1.412338926456868649e-03 4.548300785245373845e-05 -4.100567603018134832e-04 -9.200186468660831451e-05
1.352000000000000000e+03 2.938979148864746094e+00 1.722071075439453125e+01 1.293335342779755592e-03 4.634225479094311595e-05 4.019032639916986227e-04 -2.230424142908304930e-04
1.353000000000000000e+03 2.917814254760742188e+00 1.161573410034179688e+01 9.415873792022466660e-04 5.855318886460736394e-05 3.000421856995671988e-04 -2.532419457565993071e-04
1.354000000000000000e+03 1.768439531326293945e+00 -1.489577388763427734e+01 -2.024702494964003563e-03 1.119863663916476071e-04 -5.738148465752601624e-04 8.546215394744649529e-05
1.355000000000000000e+03 2.893993377685546875e+00 -1.349507522583007812e+01 -2.179710194468498230e-03 2.849308293662033975e-05 -6.453651003539562225e-04 -3.452944656601175666e-05
1.356000000000000000e+03 4.477752208709716797e+00 5.136337280273437500e+00 -2.540616551414132118e-04 -2.271173289045691490e-04 -1.443537039449438453e-04 4.374623822513967752e-04
1.357000000000000000e+03 2.736351251602172852e+00 7.525086879730224609e+00 -7.284370367415249348e-04 -1.380936155328527093e-04 -2.599591971375048161e-04 1.412676938343793154e-04
1.358000000000000000e+03 1.788230419158935547e+00 1.462904834747314453e+01 -1.189230126328766346e-03 -1.024067241814918816e-04 -3.874910471495240927e-04 2.517926623113453388e-04
1.359000000000000000e+03 2.956092119216918945e+00 1.584122467041015625e+01 -1.199750578962266445e-03 -6.815873348386958241e-05 -3.803728031925857067e-04 2.552875666879117489e-04
1.360000000000000000e+03 2.791543722152709961e+00 8.868398666381835938e+00 7.505248649977147579e-04 1.231864298461005092e-04 2.621134044602513313e-04 -2.132632944267243147e-04
1.361000000000000000e+03 5.886507987976074219e+00 -4.301135063171386719e+00 -5.110273486934602261e-04 -3.461309825070202351e-04 -2.571475051809102297e-04 1.984889240702614188e-04
1.362000000000000000e+03 2.609050512313842773e+00 -4.899744510650634766e+00 -1.071142498403787613e-03 -2.984548154927324504e-05 -3.302964032627642155e-04 -1.163377673947252333e-04
1.363000000000000000e+03 1.683382391929626465e+00 -6.418499946594238281e+00 -1.096808700822293758e-03 -4.928724229102954268e-05 -3.438287822064012289e-04 -5.179979052627459168e-05
1.364000000000000000e+03 3.277488946914672852e+00 -2.937645530700683594e+01 2.752115018665790558e-03 3.556497540557757020e-05 8.363039814867079258e-04 -1.106744864955544472e-03
1.365000000000000000e+03 3.323272705078125000e+00 -2.219338798522949219e+01 -3.498558187857270241e-03 3.880579315591603518e-04 -9.331500623375177383e-04 2.478914393577724695e-04
1.366000000000000000e+03 1.781731486320495605e+00 -3.659552764892578125e+01 -2.272377489134669304e-03 -2.063384279608726501e-02 -6.871866062283515930e-03 -8.376885205507278442e-03
1.367000000000000000e+03 3.299735069274902344e+00 -2.368961906433105469e+01 3.625889075919985771e-03 -2.406940184300765395e-04 1.015558489598333836e-03 1.622790587134659290e-04
1.368000000000000000e+03 3.019860744476318359e+00 -1.623840713500976562e+01 -2.725671976804733276e-03 1.595414214534685016e-04 -7.698392146266996861e-04 -4.875405284110456705e-05
1.369000000000000000e+03 3.106635093688964844e+00 2.130117607116699219e+01 -1.564835547469556332e-03 1.260012068087235093e-04 -4.316502891015261412e-04 5.098946712678298354e-05
1.370000000000000000e+03 2.865665674209594727e+00 -1.076233005523681641e+01 -1.777729252353310585e-03 8.750762935960665345e-05 -5.070664919912815094e-04 2.598523860797286034e-05
1.371000000000000000e+03 2.902271986007690430e+00 -9.358143806457519531e+00 1.688273856416344643e-03 -1.043165393639355898e-04 4.751872038468718529e-04 3.721522261912468821e-06
1.372000000000000000e+03 3.311130523681640625e+00 -3.306322097778320312e+01 -1.201792620122432709e-02 -7.407422177493572235e-03 -5.827604327350854874e-03 -7.985967211425304413e-03
1.373000000000000000e+03 1.975252509117126465e+00 -2.500372314453125000e+01 3.403921145945787430e-03 3.687166026793420315e-04 1.131791272200644016e-03 1.756925921654328704e-04
1.374000000000000000e+03 4.599415779113769531e+00 -2.385079002380371094e+01 -4.133702721446752548e-03 -1.647839235374704003e-04 -1.289546024054288864e-03 5.886352155357599258e-04
1.375000000000000000e+03 3.280725002288818359e+00 -2.657956314086914062e+01 3.503636689856648445e-03 8.118667756207287312e-05 1.075446954928338528e-03 -7.286974141607061028e-05
1.376000000000000000e+03 2.944278001785278320e+00 -1.485462665557861328e+01 2.512169769033789635e-03 -1.472781514166854322e-05 7.492325385101139545e-04 2.129968634108081460e-04
1.377000000000000000e+03 2.853600025177001953e+00 1.023382377624511719e+01 -8.415710180997848511e-04 -9.109527309192344546e-05 -2.797998895402997732e-04 2.717503812164068222e-04
1.378000000000000000e+03 2.984390258789062500e+00 1.301579570770263672e+01 -9.947281796485185623e-04 -9.250029688701033592e-05 -3.261685487814247608e-04 2.360850776312872767e-04
1.379000000000000000e+03 2.965520620346069336e+00 1.856608200073242188e+01 -1.418181695044040680e-03 -2.822568603733088821e-05 -4.339221923146396875e-04 2.820951340254396200e-04
1.380000000000000000e+03 2.356632804870605469e+01 2.863890409469604492e+00 3.959383815526962280e-02 4.688210010528564453e+00 1.418341159820556641e+00 3.659133911132812500e-01
1.381000000000000000e+03 2.300249671936035156e+01 -9.736704826354980469e+00 1.309813652187585831e-02 4.977751255035400391e+00 1.497254848480224609e+00 2.537305355072021484e-01
1.382000000000000000e+03 1.165950965881347656e+01 3.138683700561523438e+01 2.165539423003792763e-03 -1.129201147705316544e-03 3.109014942310750484e-04 -1.262007281184196472e-03
1.383000000000000000e+03 1.234432411193847656e+01 3.029264259338378906e+01 3.199582220986485481e-03 1.343716983683407307e-03 1.362989773042500019e-03 1.872958848252892494e-03
1.384000000000000000e+03 1.185733795166015625e+01 2.336326980590820312e+01 -1.542032114230096340e-03 1.254836242878809571e-04 -4.249645571690052748e-04 2.302994689671322703e-04
1.385000000000000000e+03 1.573684310913085938e+01 3.673011398315429688e+01 1.173851732164621353e-02 1.303248922340571880e-03 3.912529908120632172e-03 7.966301054693758488e-04
1.386000000000000000e+03 1.437359619140625000e+01 3.524185943603515625e+01 6.505005061626434326e-03 4.691916983574628830e-04 2.092259004712104797e-03 5.122811067849397659e-03
1.387000000000000000e+03 2.306044960021972656e+01 -1.532872295379638672e+01 2.808132767677307129e-02 4.957045078277587891e+00 1.495537996292114258e+00 1.764749139547348022e-01
1.388000000000000000e+03 2.302108001708984375e+01 -1.249785423278808594e+01 6.936199218034744263e-02 4.976390361785888672e+00 1.513725757598876953e+00 2.160221636295318604e-01
1.389000000000000000e+03 1.137177658081054688e+01 -3.492346191406250000e+01 -3.965251147747039795e-02 6.632677745074033737e-03 -9.905950166285037994e-03 7.565821520984172821e-03
1.390000000000000000e+03 2.354179573059082031e+01 5.735879898071289062e+00 6.594303250312805176e-02 4.497983455657958984e+00 1.369177937507629395e+00 4.588623344898223877e-01
1.391000000000000000e+03 1.328921794891357422e+01 3.425171661376953125e+01 5.241593345999717712e-03 -3.265302861109375954e-03 5.928871687501668930e-04 5.074638174846768379e-04
1.392000000000000000e+03 2.340081024169921875e+01 -2.891565084457397461e+00 -3.224151581525802612e-02 4.835556507110595703e+00 1.440994501113891602e+00 3.172006607055664062e-01
1.393000000000000000e+03 2.312881660461425781e+01 -1.970725631713867188e+01 -6.310392916202545166e-02 4.920946121215820312e+00 1.457352638244628906e+00 1.776915788650512695e-01
1.394000000000000000e+03 1.233375072479248047e+01 2.749063491821289062e+01 3.015184309333562851e-03 -1.329291699221357703e-04 8.646764908917248249e-04 3.628846898209303617e-04
1.395000000000000000e+03 2.144494819641113281e+01 -2.108433341979980469e+01 -1.429363247007131577e-02 4.691608428955078125e+00 1.403194427490234375e+00 1.964247971773147583e-01
1.396000000000000000e+03 2.455741119384765625e+01 -3.133678245544433594e+01 1.090325936675071716e-01 4.967887401580810547e+00 1.523075938224792480e+00 1.415909230709075928e-01
1.397000000000000000e+03 2.286723518371582031e+01 -2.826939201354980469e+01 4.364813491702079773e-02 4.953750610351562500e+00 1.499219655990600586e+00 1.594543009996414185e-01
1.398000000000000000e+03 2.446327590942382812e+01 -2.700220298767089844e+01 1.355405710637569427e-02 5.047642707824707031e+00 1.518359065055847168e+00 1.614479124546051025e-01
1.399000000000000000e+03 2.127263641357421875e+01 -2.956424522399902344e+01 5.752085894346237183e-02 4.920514583587646484e+00 1.493410587310791016e+00 1.352020204067230225e-01
1.400000000000000000e+03 2.638279914855957031e+01 3.987194824218750000e+01 4.304060935974121094e-01 5.927180871367454529e-02 1.469033807516098022e-01 5.057524442672729492e-01
1.401000000000000000e+03 2.521692848205566406e+01 4.097389602661132812e+01 5.946461558341979980e-01 -3.650428950786590576e-01 6.888098269701004028e-02 2.948676347732543945e-01
1.402000000000000000e+03 1.512398910522460938e+01 -4.036709976196289062e+01 2.230885922908782959e-01 1.428604423999786377e-01 1.097847148776054382e-01 -4.534616693854331970e-02
1.403000000000000000e+03 2.118698692321777344e+01 -3.497338867187500000e+01 4.173955619335174561e-01 4.825048923492431641e+00 1.572733402252197266e+00 3.554461896419525146e-01
1.404000000000000000e+03 5.102887153625488281e+00 -4.041790008544921875e+01 1.720482110977172852e-02 -3.154218196868896484e-02 -4.301207605749368668e-03 -1.016058493405580521e-02
1.405000000000000000e+03 8.032478332519531250e+00 -4.138918685913085938e+01 4.359158873558044434e-02 -1.341927237808704376e-02 9.051694534718990326e-03 -2.323095127940177917e-02
1.406000000000000000e+03 3.259910964965820312e+01 3.308154296875000000e+01 4.180666446685791016e+00 4.451326847076416016e+00 2.589597940444946289e+00 4.904535293579101562e+00
1.407000000000000000e+03 3.275795745849609375e+01 3.328295516967773438e+01 4.681257247924804688e+00 4.845042228698730469e+00 2.857889890670776367e+00 5.212050437927246094e+00
1.408000000000000000e+03 3.323301696777343750e+01 3.259918212890625000e+01 3.126338005065917969e+00 8.815653800964355469e+00 3.582597494125366211e+00 5.752874851226806641e+00
1.409000000000000000e+03 3.296608734130859375e+01 3.788613510131835938e+01 2.229819893836975098e-01 6.836053848266601562e+00 2.117710590362548828e+00 -2.716169357299804688e+00
1.410000000000000000e+03 3.042131042480468750e+01 3.336581039428710938e+01 1.874904513359069824e+00 7.022075653076171875e-01 7.731336355209350586e-01 1.113455772399902344e+00
1.411000000000000000e+03 3.411635971069335938e+01 3.707154464721679688e+01 -6.240323185920715332e-01 1.343537521362304688e+01 3.843403100967407227e+00 -3.390728712081909180e+00
1.412000000000000000e+03 3.407693862915039062e+01 3.741579818725585938e+01 -7.064719796180725098e-01 1.209058856964111328e+01 3.415234804153442383e+00 -3.395481348037719727e+00
1.413000000000000000e+03 3.373200225830078125e+01 3.232309722900390625e+01 2.325015783309936523e+00 1.091753673553466797e+01 3.972765684127807617e+00 5.230831623077392578e+00
1.414000000000000000e+03 3.568242263793945312e+01 3.139312553405761719e+01 1.034085035324096680e+00 1.339827156066894531e+01 4.329707145690917969e+00 1.391744017601013184e+00
1.415000000000000000e+03 2.793588829040527344e+01 3.174791717529296875e+01 1.308413982391357422e+00 8.245912194252014160e-01 6.399015188217163086e-01 6.649399995803833008e-01
1.416000000000000000e+03 2.696534538269042969e+01 3.288029098510742188e+01 5.429679155349731445e-01 3.441914021968841553e-01 2.661477923393249512e-01 -3.882513381540775299e-03
1.417000000000000000e+03 3.025563240051269531e+01 3.287077331542968750e+01 2.179353713989257812e+00 9.898195862770080566e-01 9.507520198822021484e-01 1.434805631637573242e+00
1.418000000000000000e+03 3.258072280883789062e+01 3.333303451538085938e+01 4.771990299224853516e+00 3.363501310348510742e+00 2.440647363662719727e+00 4.591794967651367188e+00
1.419000000000000000e+03 3.500549697875976562e+01 3.831089019775390625e+01 -7.551622390747070312e-01 1.327919387817382812e+01 3.757209300994873047e+00 -8.332409858703613281e-01
1.420000000000000000e+03 3.083566284179687500e+01 3.320006561279296875e+01 2.492600202560424805e+00 9.959623813629150391e-01 1.046568751335144043e+00 1.611138820648193359e+00
1.421000000000000000e+03 2.710620307922363281e+01 3.217506027221679688e+01 8.781099319458007812e-01 5.243565440177917480e-01 4.207399487495422363e-01 2.285031825304031372e-01
1.422000000000000000e+03 2.878269004821777344e+01 3.257991790771484375e+01 1.375610828399658203e+00 6.812396645545959473e-01 6.170551776885986328e-01 6.711679697036743164e-01
1.423000000000000000e+03 3.245344161987304688e+01 3.941806030273437500e+01 1.301793605089187622e-01 6.238030433654785156e+00 1.910462975502014160e+00 -1.751882314682006836e+00
1.424000000000000000e+03 3.121029090881347656e+01 3.956066513061523438e+01 6.694552898406982422e-01 3.504571199417114258e+00 1.252207994461059570e+00 -6.858198642730712891e-01
1.425000000000000000e+03 8.279338836669921875e+00 4.168998241424560547e+00 -1.768114307196810842e-04 -2.349579008296132088e-04 -1.235308009199798107e-04 -8.580174471717327833e-05
1.426000000000000000e+03 1.030506801605224609e+01 3.165326118469238281e+00 -2.207540674135088921e-04 -1.654340885579586029e-04 -1.158564482466317713e-04 -8.934090874390676618e-05
1.427000000000000000e+03 7.133894443511962891e+00 5.721695899963378906e+00 -1.527743006590753794e-04 -2.638076330185867846e-05 -5.374651664169505239e-05 1.104580733226612210e-04
1.428000000000000000e+03 5.234078407287597656e+00 4.290147781372070312e+00 -2.218206063844263554e-04 -2.547729236539453268e-04 -1.429780677426606417e-04 2.154007961507886648e-04
1.429000000000000000e+03 4.542150974273681641e+00 5.926557540893554688e+00 -1.452569704269990325e-04 2.480126859154552221e-04 3.082671537413261831e-05 -2.812357270158827305e-04
1.430000000000000000e+03 5.264442920684814453e+00 3.508053541183471680e+00 1.952041493495926261e-04 2.415366179775446653e-04 1.310222287429496646e-04 -1.387460069963708520e-04
1.431000000000000000e+03 3.029811143875122070e+00 5.056308269500732422e+00 -7.139159133657813072e-04 -4.712323425337672234e-05 -2.283117355545982718e-04 -1.113922553486190736e-04
1.432000000000000000e+03 2.949699401855468750e+00 3.614533185958862305e+00 -3.130334371235221624e-04 -3.372256469447165728e-04 -1.950777223100885749e-04 -1.062449227902106941e-04
1.433000000000000000e+03 1.455960154533386230e+00 4.854833602905273438e+00 2.935902739409357309e-04 1.156452926807105541e-04 1.227706670761108398e-04 -2.333957963855937123e-04
1.434000000000000000e+03 1.651215553283691406e+00 3.294418811798095703e+00 -5.822386592626571655e-04 -1.884833750409597997e-06 -1.752370444592088461e-04 -7.563513645436614752e-05
1.435000000000000000e+03 9.662744522094726562e+00 3.953124523162841797e+00 -2.914907818194478750e-04 -1.217459139297716320e-04 -1.239710109075531363e-04 -1.025365636451169848e-04
1.436000000000000000e+03 1.017853546142578125e+01 -5.229093074798583984e+00 6.845091120339930058e-04 3.005935286637395620e-04 2.955307718366384506e-04 -5.276034935377538204e-04
1.437000000000000000e+03 1.166473102569580078e+01 -4.531329154968261719e+00 -4.839082539547234774e-04 -6.885919719934463501e-04 -3.517500590533018112e-04 1.029371866025030613e-03
1.438000000000000000e+03 1.106290817260742188e+01 -3.614476680755615234e+00 -7.969777216203510761e-04 -8.677481673657894135e-06 -2.416965580778196454e-04 5.177199491299688816e-04
1.439000000000000000e+03 2.625596618652343750e+01 3.274784469604492188e+01 4.338322281837463379e-01 3.076434433460235596e-01 2.224427014589309692e-01 -1.068787574768066406e-01
1.440000000000000000e+03 2.641430282592773438e+01 3.194668960571289062e+01 7.443126440048217773e-01 4.822753071784973145e-01 3.679763972759246826e-01 1.310660243034362793e-01
1.441000000000000000e+03 8.059555053710937500e+00 -3.466540813446044922e+00 -6.397204706445336342e-04 -2.048984752036631107e-04 -2.533856895752251148e-04 1.525006809970363975e-04
1.442000000000000000e+03 1.166003894805908203e+01 -5.366749763488769531e+00 -9.658790804678574204e-05 8.174707763828337193e-04 2.162648743251338601e-04 -4.739553551189601421e-04
1.443000000000000000e+03 1.164641094207763672e+01 3.091881752014160156e+00 -3.045357298105955124e-04 -1.100308290915563703e-04 -1.243699662154540420e-04 -1.968272845260798931e-04
1.444000000000000000e+03 1.296881198883056641e+01 3.639782905578613281e+00 5.955130327492952347e-04 -5.843106919201090932e-05 1.611245970707386732e-04 1.108918295358307660e-04
1.445000000000000000e+03 9.109642028808593750e+00 4.817944526672363281e+00 -2.884193963836878538e-04 -1.255177630810067058e-04 -1.241811405634507537e-04 -1.407029340043663979e-04
1.446000000000000000e+03 9.504968643188476562e+00 -4.319701194763183594e+00 7.068932754918932915e-04 2.149357751477509737e-04 2.765487006399780512e-04 -2.632541873026639223e-04
1.447000000000000000e+03 5.056992053985595703e+00 -3.609587430953979492e+00 -3.225504187867045403e-04 -4.488494887482374907e-04 -2.314199809916317463e-04 -1.138842198997735977e-04
1.448000000000000000e+03 5.956483364105224609e+00 -5.014212131500244141e+00 6.440284196287393570e-04 2.698163443710654974e-04 2.741534262895584106e-04 -4.493969609029591084e-04
1.449000000000000000e+03 4.286171436309814453e+00 -3.720464229583740234e+00 4.069504211656749249e-04 4.397952288854867220e-04 2.540237037464976311e-04 3.201236249879002571e-04
1.450000000000000000e+03 4.741828918457031250e+00 -5.547017097473144531e+00 2.261417539557442069e-04 3.107950324192643166e-04 1.610810286365449429e-04 2.225434727733954787e-04
1.451000000000000000e+03 4.267927646636962891e+00 -8.173165321350097656e+00 1.185134286060929298e-03 4.533508399617858231e-05 3.691407910082489252e-04 -2.199854498030617833e-04
1.452000000000000000e+03 3.502226591110229492e+00 -3.806935548782348633e+00 -8.631680975668132305e-04 -2.007689472520723939e-04 -3.191811265423893929e-04 -4.514881002251058817e-04
1.453000000000000000e+03 4.744273662567138672e+00 -7.054794788360595703e+00 -5.654292763210833073e-04 2.282358473166823387e-04 -1.011580388876609504e-04 7.328303181566298008e-04
1.454000000000000000e+03 2.854035615921020508e+00 -6.377657413482666016e+00 1.291444874368607998e-03 5.439694723463617265e-05 4.037525504827499390e-04 1.595706271473318338e-04
1.455000000000000000e+03 1.283591175079345703e+01 -3.727737188339233398e+00 -8.857326611177995801e-05 1.248816715815337375e-05 -2.282552850374486297e-05 -5.118921981193125248e-04
1.456000000000000000e+03 3.401138305664062500e+01 3.793656539916992188e+01 -8.190209269523620605e-01 1.147377490997314453e+01 3.196426153182983398e+00 -3.092890739440917969e+00
1.457000000000000000e+03 1.160158348083496094e+01 3.773751735687255859e+00 2.903675194829702377e-04 1.758119324222207069e-04 1.398538297507911921e-04 2.661193138919770718e-04
1.458000000000000000e+03 1.369714546203613281e+01 3.458342313766479492e+00 -7.285207393579185009e-04 1.259442942682653666e-04 -1.807729277061298490e-04 8.670508577779401094e-06
1.459000000000000000e+03 2.382096099853515625e+01 3.231478118896484375e+01 1.718741506338119507e-01 1.630211062729358673e-02 5.645287781953811646e-02 -2.820303738117218018e-01
1.460000000000000000e+03 2.296777343750000000e+01 3.103410911560058594e+01 2.042324990034103394e-01 -1.084162294864654541e-01 2.874488197267055511e-02 -1.591598540544509888e-01
1.461000000000000000e+03 1.373557662963867188e+01 -2.935053825378417969e+00 1.378528773784637451e-03 1.468216942157596350e-04 4.576051142066717148e-04 -5.757696926593780518e-04
1.462000000000000000e+03 3.763774490356445312e+01 3.257613372802734375e+01 3.402476310729980469e+00 1.257656955718994141e+01 4.793714046478271484e+00 -5.513938665390014648e-01
1.463000000000000000e+03 1.210642528533935547e+01 -1.308409023284912109e+01 -2.235989319160580635e-03 -3.934033156838268042e-04 -7.888177642598748207e-04 2.618152066133916378e-04
1.464000000000000000e+03 1.196872520446777344e+01 -1.438464164733886719e+01 2.308761933818459511e-03 6.098597659729421139e-04 8.755865273997187614e-04 -4.589754389598965645e-04
1.465000000000000000e+03 1.256607246398925781e+01 -6.679193973541259766e+00 1.785182394087314606e-03 2.452711632940918207e-04 6.091360701248049736e-04 -3.359481925144791603e-04
1.466000000000000000e+03 1.259521007537841797e+01 -7.971478939056396484e+00 -2.015462610870599747e-03 -1.046566321747377515e-04 -6.360357510857284069e-04 3.151416603941470385e-04
1.467000000000000000e+03 1.251586532592773438e+01 7.681300640106201172e+00 6.020787986926734447e-04 1.031763240462169051e-04 2.115765382768586278e-04 1.858799223555251956e-04
1.468000000000000000e+03 2.914403152465820312e+01 3.991358566284179688e+01 9.082316756248474121e-01 1.429049372673034668e-01 3.153409659862518311e-01 -7.239068299531936646e-02
1.469000000000000000e+03 2.935264015197753906e+01 3.875753402709960938e+01 4.772244095802307129e-01 -2.506125718355178833e-02 1.356489509344100952e-01 1.035228148102760315e-01
1.470000000000000000e+03 3.408702850341796875e+01 3.872306060791015625e+01 -5.629332065582275391e-01 1.069115161895751953e+01 3.038465499877929688e+00 -2.292263984680175781e+00
1.471000000000000000e+03 1.233448600769042969e+01 -4.385638713836669922e+00 1.492204493843019009e-03 2.789708669297397137e-04 5.313525907695293427e-04 2.747181570157408714e-04
1.472000000000000000e+03 1.775460815429687500e+01 4.152207946777343750e+01 9.492804296314716339e-03 -5.566459521651268005e-02 -1.385153736919164658e-02 2.143995650112628937e-02
1.473000000000000000e+03 2.042620849609375000e+01 4.088793182373046875e+01 5.540608242154121399e-02 -2.068169265985488892e-01 -4.542325437068939209e-02 4.530560225248336792e-02
1.474000000000000000e+03 2.517708015441894531e+01 -2.651287615299224854e-02 -4.587683454155921936e-02 4.949741363525390625e+00 1.471159338951110840e+00 3.938385844230651855e-01
1.475000000000000000e+03 2.483521842956542969e+01 -3.049566030502319336e+00 -6.016571819782257080e-02 4.985419273376464844e+00 1.477576017379760742e+00 3.354729115962982178e-01
1.476000000000000000e+03 2.480356025695800781e+01 -1.819313240051269531e+01 -4.712125658988952637e-02 5.085757255554199219e+00 1.511590838432312012e+00 1.504271328449249268e-01
1.477000000000000000e+03 2.493749427795410156e+01 -1.970948600769042969e+01 -8.419795334339141846e-02 5.100092887878417969e+00 1.504768371582031250e+00 1.526939570903778076e-01
1.478000000000000000e+03 2.488323783874511719e+01 2.947200775146484375e+00 8.206925354897975922e-03 4.797472953796386719e+00 1.441704034805297852e+00 4.496230781078338623e-01
1.479000000000000000e+03 2.469860076904296875e+01 -1.668229293823242188e+01 -3.500556573271751404e-02 5.084576129913330078e+00 1.514871120452880859e+00 1.619300693273544312e-01
1.480000000000000000e+03 2.301316642761230469e+01 -8.372568130493164062e+00 -5.223878659307956696e-03 4.919231891632080078e+00 1.474202394485473633e+00 2.708401978015899658e-01
1.481000000000000000e+03 2.445553588867187500e+01 -5.749222755432128906e+00 -6.135126575827598572e-02 5.007141113281250000e+00 1.483736991882324219e+00 3.095861673355102539e-01
1.482000000000000000e+03 1.333114624023437500e+01 -1.330762290954589844e+01 2.716073300689458847e-03 3.364069852977991104e-04 9.157441090792417526e-04 -4.232448409311473370e-04
1.483000000000000000e+03 2.448058509826660156e+01 -1.238394832611083984e+01 3.900459036231040955e-02 5.063791751861572266e+00 1.530838847160339355e+00 2.360844165086746216e-01
1.484000000000000000e+03 1.096925258636474609e+01 2.639434432983398438e+01 2.503177849575877190e-03 -2.243253547931089997e-04 6.836557295173406601e-04 4.107127024326473475e-04
1.485000000000000000e+03 5.166869640350341797e+00 9.841536521911621094e+00 -5.400090012699365616e-04 -2.297041355632245541e-04 -2.309139526914805174e-04 1.560801320010796189e-04
1.486000000000000000e+03 1.232275676727294922e+01 8.910644531250000000e+00 -6.794928922317922115e-04 -1.037338079186156392e-04 -2.349679998587816954e-04 -2.364560932619497180e-04
1.487000000000000000e+03 9.318913459777832031e+00 1.909794616699218750e+01 -2.632819232530891895e-04 -6.714334012940526009e-04 -2.804145915433764458e-04 -2.940013364423066378e-04
1.488000000000000000e+03 7.537854003906250000e+01 1.280163192749023438e+01 -2.021059021353721619e-02 7.472839832305908203e+00 2.235788822174072266e+00 -3.509741723537445068e-01
1.489000000000000000e+03 7.526991271972656250e+01 -1.168581604957580566e+00 -2.641622349619865417e-02 8.151852607727050781e+00 2.437630891799926758e+00 -2.078469991683959961e-01
1.490000000000000000e+03 7.537802124023437500e+01 -8.145427703857421875e+00 -2.098966389894485474e-02 8.369237899780273438e+00 2.504474401473999023e+00 -1.386425942182540894e-01
1.491000000000000000e+03 7.410420989990234375e+01 -5.440358161926269531e+00 -3.578537330031394958e-02 8.234495162963867188e+00 2.459612846374511719e+00 -1.969078630208969116e-01
1.492000000000000000e+03 7.668618011474609375e+01 -5.391425609588623047e+00 -1.240974850952625275e-02 8.363246917724609375e+00 2.505251169204711914e+00 -1.233517155051231384e-01
1.493000000000000000e+03 7.406314086914062500e+01 -9.550088882446289062e+00 -3.102778829634189606e-02 8.328014373779296875e+00 2.489096164703369141e+00 -1.558219790458679199e-01
1.494000000000000000e+03 7.663043212890625000e+01 1.646126866340637207e+00 -1.558046787977218628e-02 8.089547157287597656e+00 2.422189950942993164e+00 -1.795760542154312134e-01
1.495000000000000000e+03 7.527641296386718750e+01 1.685686826705932617e+00 -2.920229546725749969e-02 8.044284820556640625e+00 2.404524803161621094e+00 -2.393355816602706909e-01
1.496000000000000000e+03 7.539646911621093750e+01 5.908112049102783203e+00 -2.765357308089733124e-02 7.855041503906250000e+00 2.348216295242309570e+00 -2.809873521327972412e-01
1.497000000000000000e+03 7.543376922607421875e+01 -1.226304626464843750e+01 -1.664805412292480469e-02 8.462798118591308594e+00 2.533845186233520508e+00 -1.068748980760574341e-01
1.498000000000000000e+03 7.672844696044921875e+01 -1.229213809967041016e+01 -9.015821851789951324e-03 8.546751976013183594e+00 2.561320781707763672e+00 -8.046267181634902954e-02
1.499000000000000000e+03 7.548234558105468750e+01 -1.361384773254394531e+01 -1.560122705996036530e-02 8.491010665893554688e+00 2.542623043060302734e+00 -9.729786217212677002e-02
1.500000000000000000e+03 7.158556365966796875e+01 3.276510238647460938e+01 1.794058680534362793e-01 6.719872474670410156e+00 2.069783449172973633e+00 -3.905555605888366699e-01
1.501000000000000000e+03 7.428794097900390625e+01 3.425313186645507812e+01 1.048772409558296204e-01 6.340363979339599609e+00 1.933572411537170410e+00 -2.433488965034484863e-01
1.502000000000000000e+03 7.504510498046875000e+01 3.164941406250000000e+01 6.736152619123458862e-02 6.345245838165283203e+00 1.923782229423522949e+00 -3.010352551937103271e-01
1.503000000000000000e+03 7.532628631591796875e+01 3.105392456054687500e+00 -2.879284881055355072e-02 7.984263420104980469e+00 2.386641025543212891e+00 -2.533359527587890625e-01
1.504000000000000000e+03 7.524275207519531250e+01 2.630759179592132568e-01 -2.806919626891613007e-02 8.100638389587402344e+00 2.421770811080932617e+00 -2.235957533121109009e-01
1.505000000000000000e+03 7.536838531494140625e+01 4.511994838714599609e+00 -2.758608572185039520e-02 7.921630859375000000e+00 2.368213415145874023e+00 -2.666108310222625732e-01
1.506000000000000000e+03 7.400447082519531250e+01 3.138367414474487305e+00 -4.413196071982383728e-02 7.953787326812744141e+00 2.372896671295166016e+00 -3.075901269912719727e-01
1.507000000000000000e+03 7.431940460205078125e+01 -1.621166992187500000e+01 -2.115297131240367889e-02 8.457355499267578125e+00 2.530860662460327148e+00 -9.813532233238220215e-02
1.508000000000000000e+03 7.553430175781250000e+01 -2.287146186828613281e+01 -1.092462521046400070e-02 8.619245529174804688e+00 2.582496166229248047e+00 -5.127927660942077637e-02
1.509000000000000000e+03 7.671251678466796875e+01 8.640075683593750000e+00 -1.344579365104436874e-02 7.717404842376708984e+00 2.311187744140625000e+00 -2.347751408815383911e-01
1.510000000000000000e+03 7.541552734375000000e+01 7.298213005065917969e+00 -2.620463259518146515e-02 7.784649848937988281e+00 2.327533721923828125e+00 -2.952276468276977539e-01
1.511000000000000000e+03 7.659250640869140625e+01 1.560423660278320312e+01 -8.790718391537666321e-03 7.253230094909667969e+00 2.173331737518310547e+00 -2.882531881332397461e-01
1.512000000000000000e+03 7.520287322998046875e+01 1.560027694702148438e+01 -1.406604982912540436e-02 7.300907611846923828e+00 2.186052560806274414e+00 -3.804567754268646240e-01
1.513000000000000000e+03 7.553958892822265625e+01 -1.893246841430664062e+01 -1.011315546929836273e-02 8.577948570251464844e+00 2.570350408554077148e+00 -6.728032231330871582e-02
1.514000000000000000e+03 7.680332946777343750e+01 -1.772801208496093750e+01 -6.305199582129716873e-03 8.649345397949218750e+00 2.592912197113037109e+00 -5.463592335581779480e-02
1.515000000000000000e+03 7.553884124755859375e+01 -2.024961090087890625e+01 -8.840543217957019806e-03 8.592570304870605469e+00 2.575118780136108398e+00 -6.155079975724220276e-02
1.516000000000000000e+03 7.552390289306640625e+01 -1.495102214813232422e+01 -1.510951854288578033e-02 8.517170906066894531e+00 2.550618410110473633e+00 -8.819147199392318726e-02
1.517000000000000000e+03 7.543905639648437500e+01 1.003646850585937500e+01 -2.373634837567806244e-02 7.635629653930664062e+00 2.283567905426025391e+00 -3.220768868923187256e-01
1.518000000000000000e+03 7.417720794677734375e+01 8.657402038574218750e+00 -3.913495317101478577e-02 7.713598728179931641e+00 2.302339076995849609e+00 -3.730353415012359619e-01
1.519000000000000000e+03 7.527420043945312500e+01 -2.980345916748046875e+01 -6.342635955661535263e-03 8.651919364929199219e+00 2.593672990798950195e+00 -2.924853935837745667e-02
1.520000000000000000e+03 7.424859619140625000e+01 -2.392203140258789062e+01 -1.482925005257129669e-02 8.535802841186523438e+00 2.556292295455932617e+00 -5.776408314704895020e-02
1.521000000000000000e+03 7.654811096191406250e+01 1.701309967041015625e+01 -4.656649194657802582e-03 7.151934146881103516e+00 2.144183397293090820e+00 -2.964585721492767334e-01
1.522000000000000000e+03 7.360843658447265625e+01 1.694658088684082031e+01 -1.772606000304222107e-02 7.283250808715820312e+00 2.179657459259033203e+00 -4.810570776462554932e-01
1.523000000000000000e+03 7.502445983886718750e+01 1.997896766662597656e+01 -2.548827556893229485e-03 7.029509067535400391e+00 2.108088016510009766e+00 -4.037495553493499756e-01
1.524000000000000000e+03 7.510297393798828125e+01 2.144540214538574219e+01 1.581382472068071365e-03 6.938165664672851562e+00 2.081924200057983398e+00 -3.976745903491973877e-01
1.525000000000000000e+03 7.528421020507812500e+01 -2.561821937561035156e+01 -9.999334812164306641e-03 8.621977806091308594e+00 2.583593606948852539e+00 -4.351275786757469177e-02
1.526000000000000000e+03 7.663005065917968750e+01 -2.589044189453125000e+01 -5.679439287632703781e-03 8.726828575134277344e+00 2.616344690322875977e+00 -3.204599022865295410e-02
1.527000000000000000e+03 7.354550170898437500e+01 -2.660324668884277344e+01 -1.531535107642412186e-02 8.510821342468261719e+00 2.548651933670043945e+00 -5.186368897557258606e-02
1.528000000000000000e+03 7.346780395507812500e+01 2.776270103454589844e+01 6.431326270103454590e-02 6.725713729858398438e+00 2.037008047103881836e+00 -4.380288422107696533e-01
1.529000000000000000e+03 7.381360626220703125e+01 2.429370689392089844e+01 2.818487025797367096e-02 6.860963344573974609e+00 2.066744565963745117e+00 -4.650047421455383301e-01
1.530000000000000000e+03 7.536077117919921875e+01 2.694624137878417969e+01 3.945592790842056274e-02 6.559411048889160156e+00 1.979660153388977051e+00 -3.589599430561065674e-01
1.531000000000000000e+03 7.738777923583984375e+01 2.883402061462402344e+01 1.475481502711772919e-02 6.226232528686523438e+00 1.872296214103698730e+00 -1.986531764268875122e-01
1.532000000000000000e+03 7.531163787841796875e+01 2.825386428833007812e+01 4.047531634569168091e-02 6.504885196685791016e+00 1.963608145713806152e+00 -3.450211286544799805e-01
1.533000000000000000e+03 7.577966308593750000e+01 2.939546203613281250e+01 4.590089619159698486e-02 6.359233379364013672e+00 1.921540260314941406e+00 -2.952508032321929932e-01
1.534000000000000000e+03 7.419896697998046875e+01 2.873186874389648438e+01 5.956964194774627686e-02 6.604976654052734375e+00 1.999363899230957031e+00 -3.872425556182861328e-01
1.535000000000000000e+03 7.381903076171875000e+01 -3.549648284912109375e+01 -2.039992809295654297e-02 8.547419548034667969e+00 2.558105945587158203e+00 -3.021082840859889984e-02
1.536000000000000000e+03 7.603694915771484375e+01 -3.632775115966796875e+01 -2.604789473116397858e-02 8.766466140747070312e+00 2.622125625610351562e+00 -6.916375830769538879e-03
1.537000000000000000e+03 7.350149536132812500e+01 -3.049720001220703125e+01 -1.222822442650794983e-02 8.523920059204101562e+00 2.553507566452026367e+00 -3.084084019064903259e-02
1.538000000000000000e+03 7.462909698486328125e+01 3.014698982238769531e+01 6.417043507099151611e-02 6.463376045227050781e+00 1.958263993263244629e+00 -3.389676213264465332e-01
1.539000000000000000e+03 7.498256683349609375e+01 -3.117291069030761719e+01 -9.356550872325897217e-03 8.636225700378417969e+00 2.588060855865478516e+00 -2.722219191491603851e-02
1.540000000000000000e+03 7.661277008056640625e+01 -3.447086715698242188e+01 -1.573437452316284180e-02 8.784747123718261719e+00 2.630703687667846680e+00 -5.247521679848432541e-03
1.541000000000000000e+03 7.512399291992187500e+01 -3.468255615234375000e+01 -1.859973557293415070e-02 8.658265113830566406e+00 2.591899394989013672e+00 -2.765855565667152405e-02
1.542000000000000000e+03 7.677853393554687500e+01 3.012061500549316406e+01 2.561258524656295776e-02 6.209337234497070312e+00 1.870484948158264160e+00 -2.264901995658874512e-01
1.543000000000000000e+03 2.478224372863769531e+01 1.140124320983886719e+01 -9.000951796770095825e-02 4.084493637084960938e+00 1.198345184326171875e+00 7.359719872474670410e-01
1.544000000000000000e+03 1.268137359619140625e+01 -2.237417030334472656e+01 4.065501969307661057e-03 2.053440082818269730e-03 1.835682662203907967e-03 2.464068820700049400e-03
1.545000000000000000e+03 1.247647190093994141e+01 -2.007478904724121094e+01 -2.402558689936995506e-03 8.378902566619217396e-04 -4.694005474448204041e-04 9.559054160490632057e-04
1.546000000000000000e+03 2.304417800903320312e+01 -1.390095329284667969e+01 5.848260968923568726e-02 4.997412681579589844e+00 1.516768574714660645e+00 2.041442394256591797e-01
1.547000000000000000e+03 2.455505371093750000e+01 -1.377365303039550781e+01 3.357867151498794556e-02 5.053839206695556641e+00 1.526225328445434570e+00 1.957298517227172852e-01
1.548000000000000000e+03 2.599987602233886719e+01 8.620453834533691406e+00 -8.558579534292221069e-02 4.592990875244140625e+00 1.352221488952636719e+00 7.460954189300537109e-01
1.549000000000000000e+03 2.476984977722167969e+01 1.280367183685302734e+01 -1.018650308251380920e-01 3.905662298202514648e+00 1.141139149665832520e+00 7.920119762420654297e-01
1.550000000000000000e+03 5.963940620422363281e+00 -2.257013320922851562e+01 -3.199669998139142990e-03 -3.338989918120205402e-04 -1.060070702806115150e-03 1.101535395719110966e-03
1.551000000000000000e+03 1.220507049560546875e+01 -2.988711738586425781e+01 -3.427385818213224411e-03 -7.575486786663532257e-03 -3.300861688330769539e-03 4.968815483152866364e-03
1.552000000000000000e+03 2.597804832458496094e+01 2.301206398010253906e+01 9.537604451179504395e-02 2.799697637557983398e+00 8.685221076011657715e-01 1.354530572891235352e+00
1.553000000000000000e+03 2.477822113037109375e+01 2.139239883422851562e+01 -1.585832331329584122e-03 2.475422859191894531e+00 7.421511411666870117e-01 1.106781125068664551e+00
1.554000000000000000e+03 2.475279808044433594e+01 1.420441532135009766e+01 -1.115727275609970093e-01 3.708061218261718750e+00 1.078946590423583984e+00 8.475187420845031738e-01
1.555000000000000000e+03 2.352748107910156250e+01 1.845475959777832031e+01 -4.576888307929039001e-02 2.546071052551269531e+00 7.500906586647033691e-01 8.023504614830017090e-01
1.556000000000000000e+03 2.475090408325195312e+01 1.845313262939453125e+01 -9.162291139364242554e-02 3.045007944107055664e+00 8.860155344009399414e-01 1.033813357353210449e+00
1.557000000000000000e+03 2.473708534240722656e+01 1.701891517639160156e+01 -1.073839366436004639e-01 3.274775266647338867e+00 9.502174258232116699e-01 9.703428745269775391e-01
1.558000000000000000e+03 9.079632759094238281e+00 -1.628034400939941406e+01 2.012040233239531517e-03 7.336543058045208454e-04 8.237083093263208866e-04 -3.824878149316646159e-05
1.559000000000000000e+03 1.012346458435058594e+01 -1.778033638000488281e+01 2.198719419538974762e-03 2.048898895736783743e-04 7.210827898234128952e-04 -6.194734014570713043e-04
1.560000000000000000e+03 2.306992721557617188e+01 2.974477958679199219e+01 2.359004616737365723e-01 1.975354738533496857e-02 7.669620215892791748e-02 4.072248190641403198e-02
1.561000000000000000e+03 2.426325035095214844e+01 2.847514343261718750e+01 4.335593283176422119e-01 6.600044965744018555e-01 3.280691504478454590e-01 4.402132332324981689e-01
1.562000000000000000e+03 2.325656700134277344e+01 2.558587074279785156e+01 1.482190489768981934e-01 8.201649785041809082e-01 2.905152142047882080e-01 6.205158829689025879e-01
1.563000000000000000e+03 2.355027770996093750e+01 8.572390556335449219e+00 -1.568911224603652954e-02 4.223444461822509766e+00 1.262326598167419434e+00 5.104976296424865723e-01
1.564000000000000000e+03 2.477667808532714844e+01 8.594629287719726562e+00 -4.098691046237945557e-02 4.388963222503662109e+00 1.304392933845520020e+00 6.446812152862548828e-01
1.565000000000000000e+03 7.718821048736572266e+00 -7.944233417510986328e+00 1.293325913138687611e-03 7.950877770781517029e-04 6.265240954235196114e-04 9.925552876666188240e-04
1.566000000000000000e+03 2.449999618530273438e+01 2.427956771850585938e+01 1.642520427703857422e-01 1.756304502487182617e+00 5.761669874191284180e-01 9.947651624679565430e-01
1.567000000000000000e+03 2.425745582580566406e+01 2.705688858032226562e+01 3.498127162456512451e-01 9.841315746307373047e-01 4.001832902431488037e-01 6.785079836845397949e-01
1.568000000000000000e+03 2.532995223999023438e+01 2.834925079345703125e+01 6.243622899055480957e-01 1.098013758659362793e+00 5.167128443717956543e-01 7.015196681022644043e-01
1.569000000000000000e+03 2.477123260498046875e+01 7.191500186920166016e+00 -6.838165223598480225e-03 4.512622356414794922e+00 1.351735234260559082e+00 5.985285639762878418e-01
1.570000000000000000e+03 1.051408195495605469e+01 -2.051188087463378906e+01 -7.950206054374575615e-04 1.888074795715510845e-03 3.279162629041820765e-04 2.155025489628314972e-03
1.571000000000000000e+03 3.133165597915649414e+00 -1.766759681701660156e+01 2.991535933688282967e-03 -5.396227606979664415e-06 8.958419202826917171e-04 1.876513124443590641e-04
1.572000000000000000e+03 4.126647472381591797e+00 -1.480516719818115234e+01 -2.582076704129576683e-03 -1.282503508264198899e-04 -8.130981004796922207e-04 -3.886034828610718250e-04
1.573000000000000000e+03 4.353487491607666016e+00 2.096583366394042969e+01 1.655588857829570770e-03 -3.571985580492764711e-04 3.895170812029391527e-04 -3.536364820320159197e-04
1.574000000000000000e+03 3.019556522369384766e+00 1.991163825988769531e+01 1.569703803397715092e-03 -9.713396138977259398e-05 4.417709715198725462e-04 -2.049031754722818732e-04
1.575000000000000000e+03 4.468580722808837891e+00 2.244598388671875000e+01 -1.807738910429179668e-03 1.604331482667475939e-04 -4.941917140968143940e-04 -9.278591460315510631e-05
1.576000000000000000e+03 4.344265460968017578e+00 -1.755558204650878906e+01 -3.646719735115766525e-03 2.617913742142263800e-05 -1.086162170395255089e-03 -6.821501883678138256e-04
1.577000000000000000e+03 4.203920841217041016e+00 -1.615234375000000000e+01 3.227038774639368057e-03 9.776073056855238974e-06 9.710444719530642033e-04 8.103857398964464664e-04
1.578000000000000000e+03 5.778254032135009766e+00 2.663088989257812500e+01 -1.407268806360661983e-03 -3.305548743810504675e-04 -5.213471013121306896e-04 -6.450372166000306606e-04
1.579000000000000000e+03 4.800988197326660156e+00 2.990957832336425781e+01 2.085891552269458771e-03 3.385795280337333679e-04 7.273413357324898243e-04 -7.882616482675075531e-04
1.580000000000000000e+03 4.587880134582519531e+00 -2.817271614074707031e+01 2.667621709406375885e-03 4.016358288936316967e-04 9.207772673107683659e-04 -8.206435595639050007e-04
1.581000000000000000e+03 3.285641670227050781e+00 -2.515034484863281250e+01 -4.307243041694164276e-03 3.597257818910293281e-05 -1.281381235457956791e-03 6.013379606883972883e-05
1.582000000000000000e+03 4.641158103942871094e+00 -2.233378028869628906e+01 3.941918723285198212e-03 -7.874232251197099686e-04 9.463487076573073864e-04 -2.513022918719798326e-04
1.583000000000000000e+03 4.093129634857177734e+00 1.701630973815917969e+01 -1.311958534643054008e-03 2.351679358980618417e-05 -3.865325415972620249e-04 1.330649101873859763e-04
1.584000000000000000e+03 4.171726703643798828e+00 1.828784370422363281e+01 1.155948382802307606e-03 1.894197193905711174e-04 4.036104073747992516e-04 -1.697486441116780043e-04
1.585000000000000000e+03 4.218186378479003906e+00 1.958890724182128906e+01 -1.274518552236258984e-03 -2.312163451279047877e-05 -3.892920503858476877e-04 4.449604602996259928e-04
1.586000000000000000e+03 4.095498085021972656e+00 1.570322227478027344e+01 1.243021222762763500e-03 -6.283682068897178397e-06 3.710212477017194033e-04 -1.821239711716771126e-04
1.587000000000000000e+03 4.727003097534179688e+00 -2.072911834716796875e+01 -3.961612470448017120e-03 4.608756571542471647e-04 -1.050221035256981850e-03 3.325253783259540796e-04
1.588000000000000000e+03 4.610188484191894531e+00 -1.908761024475097656e+01 4.212893079966306686e-03 -8.961220373748801649e-06 1.261179568246006966e-03 6.942631443962454796e-04
1.589000000000000000e+03 3.245617151260375977e+00 2.563421058654785156e+01 1.707148505374789238e-03 8.940011321101337671e-05 5.389645812101662159e-04 -5.185100235394202173e-05
1.590000000000000000e+03 4.485142230987548828e+00 2.540658760070800781e+01 -1.617679372429847717e-03 -4.367891961010172963e-05 -4.984074621461331844e-04 -3.353663196321576834e-04
1.591000000000000000e+03 4.464173316955566406e+00 2.394143486022949219e+01 1.947489450685679913e-03 -1.292961314902640879e-06 5.838589277118444443e-04 1.584881683811545372e-04
1.592000000000000000e+03 9.986948966979980469e+00 -2.346327781677246094e+01 2.213826403021812439e-03 -2.353657910134643316e-04 5.935381632298231125e-04 -8.387776324525475502e-04
1.593000000000000000e+03 4.584861755371093750e+00 -2.531910514831542969e+01 3.512730356305837631e-03 -1.663664879743009806e-04 1.003909157589077950e-03 -4.452062421478331089e-05
1.594000000000000000e+03 2.998485803604125977e+00 1.443105983734130859e+01 1.077043940313160419e-03 1.096950727514922619e-04 3.560216864570975304e-04 -2.431537868687883019e-04
1.595000000000000000e+03 4.231831073760986328e+00 1.278331375122070312e+01 9.358577081002295017e-04 2.622931333462474868e-06 2.815441985148936510e-04 -3.150761476717889309e-04
1.596000000000000000e+03 4.248223304748535156e+00 1.426106929779052734e+01 -1.098763081245124340e-03 -1.021332136588171124e-04 -3.602688666433095932e-04 2.261404006276279688e-04
1.597000000000000000e+03 4.020946502685546875e+00 -1.085090541839599609e+01 1.820187666453421116e-03 -4.484696546569466591e-05 5.326021928340196609e-04 -1.651772254263050854e-05
1.598000000000000000e+03 4.093204498291015625e+00 -9.517190933227539062e+00 -1.531218644231557846e-03 3.136584928142838180e-05 -4.499558417592197657e-04 1.360081951133906841e-04
1.599000000000000000e+03 4.068507194519042969e+00 -1.348589611053466797e+01 2.358302474021911621e-03 1.468938717152923346e-04 7.515589240938425064e-04 2.719123731367290020e-04
1.600000000000000000e+03 4.636738300323486328e+00 2.835272216796875000e+01 -1.297042239457368851e-03 -3.146099043078720570e-04 -4.834956489503383636e-04 -2.947736356873065233e-04
1.601000000000000000e+03 4.866596221923828125e+00 3.665282440185546875e+01 -4.012471064925193787e-03 1.055156113579869270e-03 -8.871945319697260857e-04 -2.369296038523316383e-03
1.602000000000000000e+03 3.569837331771850586e+00 3.593417358398437500e+01 -2.499399706721305847e-03 1.476378529332578182e-03 -3.069063823204487562e-04 -2.551183570176362991e-03
1.603000000000000000e+03 3.128438234329223633e+00 -3.194459915161132812e+01 6.060824263840913773e-03 -5.327892489731311798e-03 2.198794682044535875e-04 -2.505975542590022087e-03
1.604000000000000000e+03 4.590885162353515625e+00 -2.959945297241210938e+01 -8.163632825016975403e-03 -8.551994687877595425e-04 -2.705649705603718758e-03 -2.894437639042735100e-03
1.605000000000000000e+03 6.226987361907958984e+00 1.140443897247314453e+01 -2.138113195542246103e-04 -3.913592372555285692e-04 -1.815511641325429082e-04 -1.170364485005848110e-04
1.606000000000000000e+03 4.023114681243896484e+00 -1.217655277252197266e+01 -2.028571208938956261e-03 -5.131965008331462741e-05 -6.239672657102346420e-04 -2.497381319699343294e-05
1.607000000000000000e+03 5.383017063140869141e+00 -6.275905609130859375e+00 2.632487157825380564e-04 -4.978169454261660576e-05 6.404010491678491235e-05 -6.737411604262888432e-04
1.608000000000000000e+03 4.078507423400878906e+00 1.138741302490234375e+01 -7.841000915504992008e-04 -1.204126820084638894e-04 -2.713538415264338255e-04 3.997676249127835035e-04
1.609000000000000000e+03 6.689599037170410156e+00 3.049806785583496094e+01 2.485467121005058289e-04 -9.298837976530194283e-04 -2.044011198449879885e-04 -1.805664040148258209e-03
1.610000000000000000e+03 4.599537372589111328e+00 3.400139236450195312e+01 -1.871357671916484833e-04 3.311584296170622110e-04 4.320679727243259549e-05 -8.206823258660733700e-04
1.611000000000000000e+03 3.513757944107055664e+00 3.465029144287109375e+01 2.733758650720119476e-03 6.852722144685685635e-04 1.025709207169711590e-03 -6.477400893345475197e-04
1.612000000000000000e+03 5.573565959930419922e+00 -3.309415817260742188e+01 -7.316404022276401520e-03 1.738564576953649521e-03 -1.673351856879889965e-03 -1.293307263404130936e-02
1.613000000000000000e+03 4.229775428771972656e+00 -3.237525558471679688e+01 -5.654012318700551987e-03 2.673612209036946297e-03 -8.941199630498886108e-04 -8.809876628220081329e-03
1.614000000000000000e+03 3.910455465316772461e+00 8.694670677185058594e+00 -6.333370693027973175e-04 -1.732235250528901815e-04 -2.419681841274723411e-04 2.081137354252859950e-04
1.615000000000000000e+03 5.876666545867919922e+00 5.037033557891845703e+00 -3.737014776561409235e-04 -1.804698986234143376e-04 -1.662514114286750555e-04 2.512469945941120386e-04
1.616000000000000000e+03 3.898740291595458984e+00 -3.636862182617187500e+01 -5.681242328137159348e-03 -8.719583041965961456e-03 -4.320247564464807510e-03 -1.782261021435260773e-02
1.617000000000000000e+03 6.253882884979248047e+00 -3.569406127929687500e+01 -1.182677969336509705e-02 6.440941710025072098e-03 -1.615751418285071850e-03 -2.664896845817565918e-02
1.618000000000000000e+03 2.312246704101562500e+01 -2.262121582031250000e+01 -4.682203009724617004e-02 4.920791149139404297e+00 1.462190747261047363e+00 1.745032072067260742e-01
1.619000000000000000e+03 2.137512588500976562e+01 -2.392132377624511719e+01 -3.796851634979248047e-02 4.799304008483886719e+00 1.428400635719299316e+00 1.249394938349723816e-01
1.620000000000000000e+03 9.078645706176757812e+00 3.417818832397460938e+01 4.098442848771810532e-03 -9.879865683615207672e-04 9.331369656138122082e-04 -2.361433580517768860e-03
1.621000000000000000e+03 2.462731742858886719e+01 -1.520593833923339844e+01 3.838797099888324738e-03 5.081492900848388672e+00 1.525599479675292969e+00 1.717473864555358887e-01
1.622000000000000000e+03 3.839579010009765625e+01 3.193371391296386719e+01 2.637629747390747070e+00 1.195453453063964844e+01 4.377649307250976562e+00 -5.437479019165039062e-01
1.623000000000000000e+03 3.884468460083007812e+01 3.425512313842773438e+01 4.269302368164062500e+00 1.149246406555175781e+01 4.728529930114746094e+00 4.335574209690093994e-01
1.624000000000000000e+03 2.354731941223144531e+01 4.304203033447265625e+00 7.715320587158203125e-02 4.595522880554199219e+00 1.401802778244018555e+00 4.128707945346832275e-01
1.625000000000000000e+03 2.500104141235351562e+01 1.492997527122497559e+00 -1.405161898583173752e-02 4.867754936218261719e+00 1.456110954284667969e+00 4.165564775466918945e-01
1.626000000000000000e+03 2.477718734741210938e+01 5.783468723297119141e+00 2.166300266981124878e-02 4.611686229705810547e+00 1.390004754066467285e+00 5.491929054260253906e-01
1.627000000000000000e+03 1.206492710113525391e+01 3.568719863891601562e+01 1.349347527138888836e-03 -1.290350686758756638e-03 1.769907430571038276e-05 4.171729378867894411e-04
1.628000000000000000e+03 8.019832611083984375e+00 3.289160156250000000e+01 2.587476512417197227e-03 -2.295569283887743950e-04 7.073759334161877632e-04 7.947813137434422970e-04
1.629000000000000000e+03 2.441884231567382812e+01 -1.102151966094970703e+01 2.504878677427768707e-02 5.053316593170166016e+00 1.523509621620178223e+00 2.482745498418807983e-01
1.630000000000000000e+03 3.945741271972656250e+01 3.654748153686523438e+01 2.980719089508056641e+00 1.189931583404541016e+01 4.464010238647460938e+00 1.536728262901306152e+00
1.631000000000000000e+03 2.284615707397460938e+01 -3.115442848205566406e+01 1.381987184286117554e-01 4.969272136688232422e+00 1.532241344451904297e+00 2.081276178359985352e-01
1.632000000000000000e+03 2.460811424255371094e+01 -4.423752784729003906e+00 -6.603449583053588867e-02 4.993287563323974609e+00 1.478175997734069824e+00 3.187840580940246582e-01
1.633000000000000000e+03 2.298394012451171875e+01 4.035951614379882812e+01 2.253106236457824707e-01 -2.801763117313385010e-01 -1.645970717072486877e-02 3.514000773429870605e-01
1.634000000000000000e+03 1.081116962432861328e+01 1.261798763275146484e+01 -6.264974672376411036e-07 2.046453737420961261e-04 6.120566104073077440e-05 5.512977950274944305e-04
1.635000000000000000e+03 3.843737411499023438e+01 3.837699127197265625e+01 8.387725353240966797e-01 1.331172180175781250e+01 4.245148181915283203e+00 2.048306941986083984e+00
1.636000000000000000e+03 3.731052780151367188e+01 3.737741088867187500e+01 1.782200455665588379e+00 1.354502391815185547e+01 4.598167419433593750e+00 2.428093433380126953e+00
1.637000000000000000e+03 1.113711547851562500e+01 2.765394020080566406e+01 -2.154567046090960503e-03 1.592536282259970903e-04 -5.985940224491059780e-04 5.427631094789830968e-06
1.638000000000000000e+03 1.169416904449462891e+01 2.026667022705078125e+01 -1.578277908265590668e-03 -3.770419425563886762e-05 -4.847946111112833023e-04 1.375000283587723970e-05
1.639000000000000000e+03 6.912488460540771484e+00 1.039267921447753906e+01 1.711688237264752388e-04 2.208280056947842240e-04 1.175990473711863160e-04 5.997490734443999827e-05
1.640000000000000000e+03 2.075871849060058594e+01 -3.833073425292968750e+01 -1.122197881340980530e-01 4.050900936126708984e+00 1.181604385375976562e+00 -2.229085564613342285e-01
1.641000000000000000e+03 2.357446670532226562e+01 -3.875201797485351562e+01 -1.828994303941726685e-01 4.696891784667968750e+00 1.354197740554809570e+00 -1.515561342239379883e-01
1.642000000000000000e+03 2.315014648437500000e+01 -2.116385841369628906e+01 -8.194872736930847168e-02 4.931132793426513672e+00 1.454755306243896484e+00 1.610686033964157104e-01
1.643000000000000000e+03 9.732950210571289062e+00 -3.381190490722656250e+01 -2.625229582190513611e-02 1.650881022214889526e-02 -2.923046005889773369e-03 1.078475546091794968e-02
1.644000000000000000e+03 2.462841224670410156e+01 -2.565157127380371094e+01 -4.499108344316482544e-02 5.049698829650878906e+00 1.501412391662597656e+00 1.484057903289794922e-01
1.645000000000000000e+03 3.068013191223144531e+01 3.272711563110351562e+01 2.553953647613525391e+00 1.392359375953674316e+00 1.183893918991088867e+00 1.936974287033081055e+00
1.646000000000000000e+03 3.279699325561523438e+01 3.281139755249023438e+01 4.019344329833984375e+00 5.959415912628173828e+00 2.993628025054931641e+00 5.521328449249267578e+00
1.647000000000000000e+03 3.524490356445312500e+01 3.119131088256835938e+01 8.092193007469177246e-01 1.298059463500976562e+01 4.136944293975830078e+00 2.133509397506713867e+00
1.648000000000000000e+03 3.234669494628906250e+01 3.246923446655273438e+01 3.562270641326904297e+00 4.969293117523193359e+00 2.559468984603881836e+00 4.637797355651855469e+00
1.649000000000000000e+03 3.312134170532226562e+01 3.128411293029785156e+01 1.918201327323913574e+00 8.204792022705078125e+00 3.036897897720336914e+00 4.440685749053955078e+00
1.650000000000000000e+03 2.904845428466796875e+01 3.182616615295410156e+01 1.800722718238830566e+00 1.187114357948303223e+00 8.963511586189270020e-01 1.240247130393981934e+00
1.651000000000000000e+03 3.341122817993164062e+01 3.179620933532714844e+01 2.104279756546020508e+00 9.342969894409179688e+00 3.434174776077270508e+00 4.977220058441162109e+00
1.652000000000000000e+03 2.920329284667968750e+01 3.216940307617187500e+01 1.796586513519287109e+00 1.011445164680480957e+00 8.424094915390014648e-01 1.142081856727600098e+00
1.653000000000000000e+03 2.969237136840820312e+01 3.251800155639648438e+01 1.950954198837280273e+00 9.898604154586791992e-01 8.822444081306457520e-01 1.248468041419982910e+00
1.654000000000000000e+03 2.565435981750488281e+01 3.167736244201660156e+01 5.968565344810485840e-01 4.204725325107574463e-01 3.051987290382385254e-01 3.395149111747741699e-02
1.655000000000000000e+03 2.734370803833007812e+01 3.150870323181152344e+01 1.147726058959960938e+00 7.868013381958007812e-01 5.803582072257995605e-01 5.384254455566406250e-01
1.656000000000000000e+03 3.723928928375244141e+00 4.504358291625976562e+00 -3.772422496695071459e-04 4.158122465014457703e-05 -1.006983075058087707e-04 5.111027276143431664e-04
1.657000000000000000e+03 4.486114025115966797e+00 4.368844985961914062e+00 3.225222462788224220e-04 1.661551214056089520e-04 1.466032117605209351e-04 -2.884216664824634790e-04
1.658000000000000000e+03 6.756019592285156250e+00 4.367757320404052734e+00 -2.556721155997365713e-04 -3.182893851771950722e-04 -1.721884473226964474e-04 4.039507984998635948e-05
1.659000000000000000e+03 4.995326995849609375e+00 6.354069232940673828e+00 1.015098998323082924e-03 -1.293010427616536617e-04 2.657393633853644133e-04 -3.282713878434151411e-04
1.660000000000000000e+03 5.181972980499267578e+00 5.026984691619873047e+00 2.975600946228951216e-04 1.901669311337172985e-04 1.463181106373667717e-04 -2.482395211700350046e-04
1.661000000000000000e+03 2.873265266418457031e+01 3.148031425476074219e+01 1.693718194961547852e+00 1.273303747177124023e+00 8.901065587997436523e-01 1.199799418449401855e+00
1.662000000000000000e+03 2.995695686340332031e+01 3.195993041992187500e+01 2.225983619689941406e+00 1.576368570327758789e+00 1.140705704689025879e+00 1.763529300689697266e+00
1.663000000000000000e+03 1.096539115905761719e+01 3.802200317382812500e+00 -2.375299809500575066e-04 -1.790593087207525969e-04 -1.249767956323921680e-04 -1.332255924353376031e-04
1.664000000000000000e+03 8.626574516296386719e+00 6.490588665008544922e+00 4.389743262436240911e-04 1.189456015708856285e-04 1.673759834375232458e-04 3.955998545279726386e-05
1.665000000000000000e+03 7.534936428070068359e+00 4.334231376647949219e+00 1.475195313105359674e-04 3.046886704396456480e-04 1.356624561594799161e-04 -1.864683326857630163e-05
1.666000000000000000e+03 8.452619552612304688e+00 4.975378990173339844e+00 2.853882906492799520e-04 1.119252265198156238e-04 1.191940536955371499e-04 1.288504427066072822e-04
1.667000000000000000e+03 8.770187377929687500e+00 -4.280899047851562500e+00 -7.593611371703445911e-04 -1.834397844504565001e-04 -2.828402793966233730e-04 1.718260609777644277e-04
1.668000000000000000e+03 1.149178981781005859e+01 -9.154295921325683594e+00 -1.690939068794250488e-03 -1.564381964271888137e-04 -5.542131839320063591e-04 3.975352447014302015e-04
1.669000000000000000e+03 2.668259048461914062e+01 3.120266914367675781e+01 9.767796397209167480e-01 7.254928350448608398e-01 5.106817483901977539e-01 4.185141623020172119e-01
1.670000000000000000e+03 1.125751686096191406e+01 5.071811199188232422e+00 -1.853926369221881032e-04 2.151685912394896150e-04 8.932786840887274593e-06 2.484482829459011555e-04
1.671000000000000000e+03 6.616788864135742188e+00 -5.056409835815429688e+00 -1.008610823191702366e-03 -4.683587030740454793e-05 -3.166340175084769726e-04 3.353359934408217669e-04
1.672000000000000000e+03 4.411308765411376953e+00 -4.641727924346923828e+00 -2.830151643138378859e-04 -5.654063425026834011e-04 -2.545264433138072491e-04 -2.773964952211827040e-04
1.673000000000000000e+03 3.923219442367553711e+00 -6.066233634948730469e+00 -4.620201943907886744e-04 -4.058170015923678875e-04 -2.603511675260961056e-04 -4.739093710668385029e-04
1.674000000000000000e+03 8.043071746826171875e+00 -4.260495662689208984e+00 8.032294572331011295e-04 1.614326465642079711e-04 2.893986238632351160e-04 -1.510251313447952271e-04
1.675000000000000000e+03 7.746180057525634766e+00 -6.532134056091308594e+00 -4.116186755709350109e-04 8.107122994260862470e-05 -9.916423005051910877e-05 1.011687912978231907e-03
1.676000000000000000e+03 1.225652122497558594e+01 3.757367849349975586e+00 -4.853888822253793478e-04 -6.098027733969502151e-05 -1.639107504161074758e-04 -3.050719678867608309e-04
1.677000000000000000e+03 1.268494224548339844e+01 6.509139537811279297e+00 -5.611478700302541256e-04 -8.289991092169657350e-05 -1.932143350131809711e-04 -1.518921781098470092e-04
1.678000000000000000e+03 7.321116447448730469e+00 -4.257586479187011719e+00 -8.302231435663998127e-04 -1.485108659835532308e-04 -2.936201926786452532e-04 1.760887389536947012e-04
1.679000000000000000e+03 6.568107604980468750e+00 -5.900690555572509766e+00 1.278199837543070316e-03 -6.511198444059118629e-05 3.639263450168073177e-04 -3.987915406469255686e-04
1.680000000000000000e+03 6.605349540710449219e+00 -4.266385555267333984e+00 7.285835454240441322e-04 2.195416163885965943e-04 2.844375558197498322e-04 -2.528645563870668411e-04
1.681000000000000000e+03 1.254046726226806641e+01 -5.386270523071289062e+00 -1.490827649831771851e-03 -3.683699760586023331e-04 -5.577593110501766205e-04 1.686982723185792565e-04
1.682000000000000000e+03 1.292883014678955078e+01 4.489384651184082031e+00 -6.075965357013046741e-04 2.576218685135245323e-05 -1.745503104757517576e-04 -1.532193418825045228e-04
1.683000000000000000e+03 1.035411834716796875e+01 7.415114879608154297e+00 5.759850610047578812e-04 1.652109785936772823e-04 2.223588235210627317e-04 1.469994022045284510e-04
1.684000000000000000e+03 3.792046737670898438e+01 3.122337722778320312e+01 1.842118024826049805e+00 1.208834648132324219e+01 4.179139614105224609e+00 -3.316032290458679199e-01
1.685000000000000000e+03 3.592097854614257812e+01 3.210735321044921875e+01 1.839550375938415527e+00 1.441319274902343750e+01 4.875823020935058594e+00 7.704616785049438477e-01
1.686000000000000000e+03 3.463578033447265625e+01 3.782221221923828125e+01 -8.118263483047485352e-01 1.272887325286865234e+01 3.575114011764526367e+00 -1.860945105552673340e+00
1.687000000000000000e+03 3.301180648803710938e+01 3.865368652343750000e+01 -2.871479280292987823e-02 7.534857273101806641e+00 2.251842737197875977e+00 -2.424327611923217773e+00
1.688000000000000000e+03 3.227250289916992188e+01 3.860577774047851562e+01 4.170978963375091553e-01 4.464277267456054688e+00 1.464412569999694824e+00 -1.744574427604675293e+00
1.689000000000000000e+03 3.305851745605468750e+01 4.155127716064453125e+01 -8.676130324602127075e-03 6.899215698242187500e+00 2.067161798477172852e+00 -7.038428783416748047e-01
1.690000000000000000e+03 3.027503395080566406e+01 4.093321228027343750e+01 8.881021142005920410e-01 2.137796640396118164e+00 9.077696800231933594e-01 -1.213703751564025879e-01
1.691000000000000000e+03 3.618905258178710938e+01 3.152784156799316406e+01 1.389502644538879395e+00 1.343059349060058594e+01 4.446029186248779297e+00 6.959829926490783691e-01
1.692000000000000000e+03 3.891334915161132812e+01 3.268012619018554688e+01 3.289165496826171875e+00 1.147464942932128906e+01 4.429144382476806641e+00 -4.663819670677185059e-01
1.693000000000000000e+03 2.414639091491699219e+01 2.987931060791015625e+01 4.352837204933166504e-01 3.672255873680114746e-01 2.407527863979339600e-01 1.614934802055358887e-01
1.694000000000000000e+03 1.216817378997802734e+01 4.539627075195312500e+00 4.658871039282530546e-04 8.293800055980682373e-05 1.646475284360349178e-04 3.452362143434584141e-04
1.695000000000000000e+03 2.512378311157226562e+01 -1.578509449958801270e+00 -5.414194613695144653e-02 4.973776817321777344e+00 1.475890398025512695e+00 3.719888031482696533e-01
1.696000000000000000e+03 2.672757911682128906e+01 3.138290047645568848e-01 -6.826769560575485229e-02 5.084811687469482422e+00 1.504963159561157227e+00 4.441735446453094482e-01
1.697000000000000000e+03 2.719297885894775391e+00 6.192397594451904297e+00 7.217866950668394566e-04 1.896322937682271004e-04 2.734256850089877844e-04 -5.074131695437245071e-05
1.698000000000000000e+03 2.655244445800781250e+01 -1.801696395874023438e+01 -6.699626147747039795e-02 5.230223655700683594e+00 1.548968195915222168e+00 1.542754471302032471e-01
1.699000000000000000e+03 2.634624481201171875e+01 -1.648018646240234375e+01 -3.603368625044822693e-02 5.200158596038818359e+00 1.549237489700317383e+00 1.669870465993881226e-01
1.700000000000000000e+03 2.593573379516601562e+01 -4.640751838684082031e+00 -7.723668217658996582e-02 5.119596481323242188e+00 1.512707829475402832e+00 3.403297662734985352e-01
1.701000000000000000e+03 2.760533905029296875e+01 4.167969131469726562e+01 1.101758122444152832e+00 1.675829142332077026e-01 3.808023035526275635e-01 6.234010681509971619e-02
1.702000000000000000e+03 2.434222221374511719e+01 -8.359047889709472656e+00 -3.075109608471393585e-02 5.043227672576904297e+00 1.503742933273315430e+00 2.934544384479522705e-01
1.703000000000000000e+03 1.052410125732421875e+01 -1.536196613311767578e+01 1.992526231333613396e-03 8.029449381865561008e-04 8.386413683183491230e-04 -3.112791455350816250e-04
1.704000000000000000e+03 1.098327732086181641e+01 9.891472816467285156e+00 -5.678198649547994137e-04 -2.143625315511599183e-04 -2.346547262277454138e-04 -3.044510667677968740e-04
1.705000000000000000e+03 9.900533676147460938e+00 5.450162887573242188e+00 -4.692223737947642803e-04 -4.529902798822149634e-05 -1.543564285384491086e-04 -3.658269706647843122e-04
1.706000000000000000e+03 1.099286937713623047e+01 1.764864730834960938e+01 1.401372137479484081e-03 -2.758642949629575014e-04 3.376523673068732023e-04 3.070253878831863403e-04
1.707000000000000000e+03 1.022241210937500000e+01 1.433012104034423828e+01 -4.671906353905797005e-04 -4.802354305866174400e-05 -1.545642444398254156e-04 1.976996136363595724e-04
1.708000000000000000e+03 1.076638031005859375e+01 2.509483337402343750e+01 -1.356161083094775677e-03 -4.457584509509615600e-05 -4.202210693620145321e-04 5.755664824391715229e-05
1.709000000000000000e+03 3.640836715698242188e+01 3.959830474853515625e+01 -6.973970532417297363e-01 1.280791282653808594e+01 3.633154630661010742e+00 7.074682116508483887e-01
1.710000000000000000e+03 1.104524803161621094e+01 -1.155521488189697266e+01 -1.875799382105469704e-03 -2.526765456423163414e-04 -6.385427550412714481e-04 1.993711048271507025e-04
1.711000000000000000e+03 1.085031318664550781e+01 -1.281915855407714844e+01 1.975983846932649612e-03 4.176590591669082642e-04 7.180928369052708149e-04 -2.172317181248217821e-04
1.712000000000000000e+03 5.919619560241699219e+00 -3.140265083312988281e+01 -1.478058006614446640e-02 1.450172043405473232e-03 -3.999122418463230133e-03 -3.343866206705570221e-03
1.713000000000000000e+03 1.543040275573730469e+01 4.070098876953125000e+01 1.539989002048969269e-02 -5.846471060067415237e-03 2.866025781258940697e-03 3.348191268742084503e-03
1.714000000000000000e+03 2.585940933227539062e+01 -1.084208297729492188e+01 6.197140319272875786e-04 5.150073051452636719e+00 1.545207858085632324e+00 2.676835656166076660e-01
1.715000000000000000e+03 2.436797523498535156e+01 -9.681295394897460938e+00 1.060563605278730392e-02 5.037438392639160156e+00 1.514413237571716309e+00 2.844490110874176025e-01
1.716000000000000000e+03 7.508883666992187500e+01 -2.708897590637207031e+01 -8.115995675325393677e-03 8.620218276977539062e+00 2.583630561828613281e+00 -3.885385394096374512e-02
1.717000000000000000e+03 7.415024566650390625e+01 -2.910745048522949219e+01 -1.119445916265249252e-02 8.566102027893066406e+00 2.566472291946411133e+00 -3.492527455091476440e-02
1.718000000000000000e+03 2.566072082519531250e+01 -7.076858997344970703e+00 -5.936000496149063110e-02 5.127794742584228516e+00 1.520530462265014648e+00 3.171951472759246826e-01
1.719000000000000000e+03 7.362356567382812500e+01 2.169360733032226562e+01 1.007305551320314407e-02 7.023557662963867188e+00 2.110089302062988281e+00 -4.891670346260070801e-01
1.720000000000000000e+03 7.515470123291015625e+01 2.434827232360839844e+01 2.120608463883399963e-02 6.747070312500000000e+00 2.030483007431030273e+00 -3.905694782733917236e-01
1.721000000000000000e+03 7.503911590576171875e+01 1.848901939392089844e+01 -5.747189745306968689e-03 7.124866962432861328e+00 2.135735988616943359e+00 -4.043084681034088135e-01
1.722000000000000000e+03 7.434320831298828125e+01 -2.266664314270019531e+01 -1.590896584093570709e-02 8.530546188354492188e+00 2.554391145706176758e+00 -6.255044043064117432e-02
1.723000000000000000e+03 7.542396545410156250e+01 1.140913391113281250e+01 -2.289582788944244385e-02 7.555634021759033203e+00 2.259821414947509766e+00 -3.364045321941375732e-01
1.724000000000000000e+03 7.397705841064453125e+01 1.409541893005371094e+01 -2.873880788683891296e-02 7.434170722961425781e+00 2.221629619598388672e+00 -4.431048333644866943e-01
1.725000000000000000e+03 7.414739990234375000e+01 7.299696445465087891e+00 -4.179277271032333374e-02 7.778042793273925781e+00 2.320875167846679688e+00 -3.573954403400421143e-01
1.726000000000000000e+03 7.429644012451171875e+01 -1.750014114379882812e+01 -1.707991957664489746e-02 8.473267555236816406e+00 2.536856412887573242e+00 -9.022872895002365112e-02
1.727000000000000000e+03 7.554518127441406250e+01 -1.760814285278320312e+01 -1.188405137509107590e-02 8.558838844299316406e+00 2.564086437225341797e+00 -7.392404973506927490e-02
1.728000000000000000e+03 7.406852722167968750e+01 4.533345222473144531e+00 -4.422424733638763428e-02 7.898829936981201172e+00 2.356381654739379883e+00 -3.242685198783874512e-01
1.729000000000000000e+03 7.529010009765625000e+01 2.569858932495117188e+01 2.931150607764720917e-02 6.654954910278320312e+00 2.005280017852783203e+00 -3.736535012722015381e-01
1.730000000000000000e+03 7.429713439941406250e+01 -1.492333984375000000e+01 -2.315160445868968964e-02 8.436811447143554688e+00 2.524097919464111328e+00 -1.077728867530822754e-01
1.731000000000000000e+03 7.422454071044921875e+01 2.650110244750976562e+01 4.004526883363723755e-02 6.715910911560058594e+00 2.026786804199218750e+00 -4.217249155044555664e-01
1.732000000000000000e+03 7.388047027587890625e+01 -1.255970716476440430e+00 -4.356535151600837708e-02 8.104697227478027344e+00 2.418339490890502930e+00 -2.546969354152679443e-01
1.733000000000000000e+03 7.391519165039062500e+01 1.714917182922363281e+00 -4.589110612869262695e-02 8.004632949829101562e+00 2.387622594833374023e+00 -2.923882901668548584e-01
1.734000000000000000e+03 7.538502502441406250e+01 -6.776663780212402344e+00 -2.201273851096630096e-02 8.333948135375976562e+00 2.493580579757690430e+00 -1.502316743135452271e-01
1.735000000000000000e+03 7.406787109375000000e+01 -8.171001434326171875e+00 -3.296400979161262512e-02 8.298213958740234375e+00 2.479574918746948242e+00 -1.693507879972457886e-01
1.736000000000000000e+03 7.419592285156250000e+01 1.000150775909423828e+01 -3.780287876725196838e-02 7.646756172180175781e+00 2.282685995101928711e+00 -3.886434733867645264e-01
1.737000000000000000e+03 7.538815307617187500e+01 -5.396198272705078125e+00 -2.319469489157199860e-02 8.295600891113281250e+00 2.481721878051757812e+00 -1.627559810876846313e-01
1.738000000000000000e+03 7.537532043457031250e+01 -4.006350040435791016e+00 -2.380596846342086792e-02 8.253191947937011719e+00 2.468815803527832031e+00 -1.760260313749313354e-01
1.739000000000000000e+03 7.410236358642578125e+01 -4.077244281768798828e+00 -3.711503744125366211e-02 8.198086738586425781e+00 2.448291301727294922e+00 -2.124791443347930908e-01
1.740000000000000000e+03 7.408599853515625000e+01 -1.093068313598632812e+01 -2.820438332855701447e-02 8.356591224670410156e+00 2.498516082763671875e+00 -1.423899978399276733e-01
1.741000000000000000e+03 7.414429473876953125e+01 -1.229405403137207031e+01 -2.538604475557804108e-02 8.384421348571777344e+00 2.507710695266723633e+00 -1.301584541797637939e-01
1.742000000000000000e+03 7.426292419433593750e+01 -1.880258369445800781e+01 -1.697540096938610077e-02 8.486632347106933594e+00 2.540897130966186523e+00 -8.482973277568817139e-02
1.743000000000000000e+03 7.405171203613281250e+01 -2.702579259872436523e+00 -3.925402089953422546e-02 8.157786369323730469e+00 2.435559749603271484e+00 -2.297551929950714111e-01
1.744000000000000000e+03 7.379545593261718750e+01 1.549224567413330078e+01 -2.293949760496616364e-02 7.361414909362792969e+00 2.201542615890502930e+00 -4.657775759696960449e-01
1.745000000000000000e+03 7.395765686035156250e+01 -2.520832443237304688e+01 -1.351682096719741821e-02 8.529010772705078125e+00 2.554648160934448242e+00 -5.438942462205886841e-02
1.746000000000000000e+03 7.308730316162109375e+01 2.904429626464843750e+01 8.344557881355285645e-02 6.712893486022949219e+00 2.038901805877685547e+00 -4.368143975734710693e-01
1.747000000000000000e+03 7.411315917968750000e+01 5.920055389404296875e+00 -4.238175228238105774e-02 7.840050220489501953e+00 2.339300632476806641e+00 -3.406880497932434082e-01
1.748000000000000000e+03 7.349761962890625000e+01 3.235909652709960938e+01 1.225545704364776611e-01 6.535205841064453125e+00 1.997328042984008789e+00 -3.347937762737274170e-01
1.749000000000000000e+03 6.888691711425781250e+01 3.501703262329101562e+01 3.106586039066314697e-01 6.923001766204833984e+00 2.170098066329956055e+00 -3.818476200103759766e-01
1.750000000000000000e+03 7.428795623779296875e+01 -2.140627670288085938e+01 -1.534307189285755157e-02 8.518944740295410156e+00 2.551080465316772461e+00 -6.907121092081069946e-02
1.751000000000000000e+03 7.411012268066406250e+01 1.271720027923583984e+01 -3.227575123310089111e-02 7.505162715911865234e+00 2.241866111755371094e+00 -4.228865802288055420e-01
1.752000000000000000e+03 7.418101501464843750e+01 1.134769058227539062e+01 -3.465772047638893127e-02 7.577473163604736328e+00 2.262844562530517578e+00 -4.046122431755065918e-01
1.753000000000000000e+03 7.345973968505859375e+01 2.010978317260742188e+01 -1.948970835655927658e-03 7.124315738677978516e+00 2.136709928512573242e+00 -5.014815330505371094e-01
1.754000000000000000e+03 7.350135040283203125e+01 1.847260093688964844e+01 -1.257774047553539276e-02 7.213553905487060547e+00 2.160292863845825195e+00 -4.922163486480712891e-01
1.755000000000000000e+03 6.588994026184082031e+00 -1.600518035888671875e+01 2.569897100329399109e-03 6.599802873097360134e-04 9.689631988294422626e-04 1.092964783310890198e-03
1.756000000000000000e+03 4.535393714904785156e+00 -3.103015136718750000e+01 -1.240886864252388477e-03 1.525580650195479393e-03 8.540813723811879754e-05 -3.820103593170642853e-03
1.757000000000000000e+03 5.856729984283447266e+00 -2.981563186645507812e+01 2.284016227349638939e-03 1.087466487661004066e-03 1.011444837786257267e-03 -1.768440823070704937e-03
1.758000000000000000e+03 1.173499870300292969e+01 -2.129088020324707031e+01 -7.083549862727522850e-04 -1.478653866797685623e-03 -6.561026675626635551e-04 -3.392561106011271477e-03
1.759000000000000000e+03 1.113735389709472656e+01 3.021393775939941406e+01 -6.401857826858758926e-04 -1.823853584937751293e-03 -7.392117986455559731e-04 1.368328812532126904e-03
1.760000000000000000e+03 2.600464820861816406e+01 1.140880203247070312e+01 -1.396220177412033081e-01 4.362365722656250000e+00 1.266823172569274902e+00 8.695574402809143066e-01
1.761000000000000000e+03 5.877032279968261719e+00 -2.550992202758789062e+01 -5.062177777290344238e-03 -9.393807849846780300e-04 -1.800467609427869320e-03 1.744424807839095592e-04
1.762000000000000000e+03 4.542477130889892578e+00 2.687105178833007812e+01 1.911768456920981407e-03 2.045216388069093227e-04 6.348870228976011276e-04 -5.276464435155503452e-05
1.763000000000000000e+03 6.057849407196044922e+00 2.949684524536132812e+01 -1.727230992401018739e-04 -1.080860500223934650e-03 -3.760750696528702974e-04 -4.182324919383972883e-04
1.764000000000000000e+03 2.612346076965332031e+01 2.144302749633789062e+01 -2.126350998878479004e-02 3.149364948272705078e+00 9.384304285049438477e-01 1.364687442779541016e+00
1.765000000000000000e+03 2.595398139953613281e+01 1.840954017639160156e+01 -1.446589231491088867e-01 3.535930156707763672e+00 1.017381429672241211e+00 1.214302539825439453e+00
1.766000000000000000e+03 2.478363990783691406e+01 9.997791290283203125e+00 -6.932851672172546387e-02 4.250498294830322266e+00 1.254351019859313965e+00 6.890926361083984375e-01
1.767000000000000000e+03 1.452095794677734375e+01 -2.896491050720214844e+01 5.532923620194196701e-03 3.225026885047554970e-03 2.627385081723332405e-03 -1.379056018777191639e-03
1.768000000000000000e+03 2.473907661437988281e+01 1.560613059997558594e+01 -1.127279624342918396e-01 3.499965190887451172e+00 1.016171097755432129e+00 9.098706245422363281e-01
1.769000000000000000e+03 3.055352020263671875e+01 1.784505271911621094e+01 -4.553600847721099854e-01 5.502518653869628906e+00 1.514147639274597168e+00 1.511630654335021973e+00
1.770000000000000000e+03 5.701399326324462891e+00 2.375136947631835938e+01 -1.838673953898251057e-03 -2.988236701639834791e-05 -5.605668993666768074e-04 -5.881259567104279995e-04
1.771000000000000000e+03 1.020350456237792969e+01 2.229195594787597656e+01 -6.848035845905542374e-04 9.711779057397507131e-06 -2.025275462074205279e-04 3.635395260062068701e-04
1.772000000000000000e+03 6.267112731933593750e+00 -1.115242195129394531e+01 1.801952254027128220e-03 -2.192631509387865663e-04 4.748067294713109732e-04 3.852336085401475430e-04
1.773000000000000000e+03 5.306568145751953125e+00 -9.775533676147460938e+00 1.546088373288512230e-03 -1.214705389429582283e-05 4.601824039127677679e-04 1.341962924925610423e-04
1.774000000000000000e+03 2.703246879577636719e+01 3.056665039062500000e+01 1.123122930526733398e+00 1.036533355712890625e+00 6.478968858718872070e-01 7.185385823249816895e-01
1.775000000000000000e+03 2.513429832458496094e+01 3.027023506164550781e+01 6.318813562393188477e-01 5.788927674293518066e-01 3.632322251796722412e-01 2.666836380958557129e-01
1.776000000000000000e+03 2.599309921264648438e+01 7.237460136413574219e+00 -5.494336783885955811e-02 4.682621479034423828e+00 1.388303399085998535e+00 6.874946355819702148e-01
1.777000000000000000e+03 2.434095764160156250e+01 2.567455101013183594e+01 2.463653385639190674e-01 1.336125731468200684e+00 4.747473299503326416e-01 8.514727950096130371e-01
1.778000000000000000e+03 2.526540184020996094e+01 2.706714057922363281e+01 4.755017459392547607e-01 1.419113755226135254e+00 5.683846473693847656e-01 9.081175327301025391e-01
1.779000000000000000e+03 2.595937347412109375e+01 1.419954776763916016e+01 -1.680229604244232178e-01 4.065359115600585938e+00 1.169200778007507324e+00 1.001534581184387207e+00
1.780000000000000000e+03 9.495132446289062500e+00 2.551519584655761719e+01 1.586179714649915695e-03 1.546540152048692107e-04 5.222501349635422230e-04 3.533747803885489702e-04
1.781000000000000000e+03 5.689190864562988281e+00 2.520038032531738281e+01 2.119017532095313072e-03 4.944548709318041801e-05 6.505388882942497730e-04 3.988734679296612740e-04
1.782000000000000000e+03 6.620688438415527344e+00 -1.718459320068359375e+01 -2.174590481445193291e-03 -1.460115541703999043e-03 -1.090411795303225517e-03 -1.349687227047979832e-03
1.783000000000000000e+03 5.386664867401123047e+00 -1.605942153930664062e+01 -2.804937539622187614e-03 -5.127114709466695786e-04 -9.952946566045284271e-04 -1.090280129574239254e-03
1.784000000000000000e+03 5.338293075561523438e+00 -1.475995731353759766e+01 2.535550855100154877e-03 3.786223824135959148e-04 8.742519421502947807e-04 8.140285499393939972e-04
1.785000000000000000e+03 1.078401565551757812e+01 1.659877395629882812e+01 -8.777486509643495083e-04 -7.268042099894955754e-05 -2.851287135854363441e-04 -2.670983376447111368e-04
1.786000000000000000e+03 6.991850852966308594e+00 1.623863601684570312e+01 -7.709256024099886417e-04 -5.184498149901628494e-04 -3.868126368615776300e-04 -1.903658558148890734e-04
1.787000000000000000e+03 4.582706451416015625e+00 -2.675447082519531250e+01 -5.885576829314231873e-03 -5.933798965997993946e-04 -1.943686977028846741e-03 -6.173318834044039249e-04
1.788000000000000000e+03 5.869410037994384766e+00 -2.694729042053222656e+01 2.809816505759954453e-03 5.136458203196525574e-04 9.970386745408177376e-04 2.446864091325551271e-04
1.789000000000000000e+03 5.905364036560058594e+00 2.807152366638183594e+01 1.725026522763073444e-03 4.995545023120939732e-04 6.673742900602519512e-04 2.561127257649786770e-05
1.790000000000000000e+03 7.165766716003417969e+00 -2.571940612792968750e+01 3.098889719694852829e-03 1.638118410483002663e-04 9.788104798644781113e-04 1.913802261697128415e-04
1.791000000000000000e+03 8.339320182800292969e+00 -9.984074592590332031e+00 1.716714468784630299e-03 1.421528868377208710e-04 5.576601834036409855e-04 6.947400397621095181e-04
1.792000000000000000e+03 9.798011779785156250e+00 3.022948265075683594e+01 3.809112589806318283e-03 -3.187732072547078133e-04 1.047101803123950958e-03 8.824764518067240715e-05
1.793000000000000000e+03 4.896465778350830078e+00 3.154731369018554688e+01 -1.049962826073169708e-03 -7.213943754322826862e-04 -5.314071313478052616e-04 -2.627957728691399097e-04
1.794000000000000000e+03 5.690132617950439453e+00 2.235331344604492188e+01 2.306287642568349838e-03 -1.614826614968478680e-04 6.434415117837488651e-04 7.003018399700522423e-04
1.795000000000000000e+03 6.896820068359375000e+00 1.762103843688964844e+01 7.299943827092647552e-04 5.702642374671995640e-04 3.900775918737053871e-04 2.637486904859542847e-04
1.796000000000000000e+03 6.747648715972900391e+00 2.196923828125000000e+01 -1.757534337230026722e-04 2.063031279249116778e-04 9.164909897663164884e-06 3.849666973110288382e-04
1.797000000000000000e+03 6.138504505157470703e+00 -2.106189537048339844e+01 2.675750991329550743e-03 -1.140379463322460651e-03 4.606114525813609362e-04 -1.061527174897491932e-03
1.798000000000000000e+03 5.823816776275634766e+00 -1.872751808166503906e+01 -2.630622824653983116e-03 -1.881938776932656765e-03 -1.353768515400588512e-03 -2.091611037030816078e-03
1.799000000000000000e+03 5.881971836090087891e+00 3.534329986572265625e+01 9.451440419070422649e-04 -1.751276315189898014e-03 -2.418396761640906334e-04 -3.084446303546428680e-03
1.800000000000000000e+03 5.487446308135986328e+00 1.795716285705566406e+01 -8.905836730264127254e-04 -3.458306891843676567e-04 -3.709243028424680233e-04 5.872551355423638597e-06
1.801000000000000000e+03 2.666682815551757812e+01 2.476973533630371094e+01 3.072576820850372314e-01 2.729360818862915039e+00 9.109855294227600098e-01 1.454353213310241699e+00
1.802000000000000000e+03 5.410953044891357422e+00 1.439487171173095703e+01 7.049441919662058353e-04 4.712100198958069086e-04 3.528462548274546862e-04 3.289383021183311939e-04
1.803000000000000000e+03 6.334782600402832031e+00 1.481680583953857422e+01 -4.683328006649389863e-05 -8.921996341086924076e-04 -2.817098866216838360e-04 -2.988823980558663607e-04
1.804000000000000000e+03 2.561769485473632812e+01 2.445378112792968750e+01 2.333135306835174561e-01 2.267899513244628906e+00 7.503638863563537598e-01 1.244250059127807617e+00
1.805000000000000000e+03 5.859917163848876953e+00 -2.836837387084960938e+01 -9.346835315227508545e-03 -1.538012002129107714e-04 -2.850190969184041023e-03 -1.994880614802241325e-03
1.806000000000000000e+03 8.762547492980957031e+00 -3.513675308227539062e+01 -3.558325767517089844e-02 2.188378013670444489e-02 -4.109843634068965912e-03 -1.560917031019926071e-02
1.807000000000000000e+03 3.997277021408081055e+00 1.003570461273193359e+01 6.380539271049201488e-04 1.937353954417631030e-04 2.495367953088134527e-04 -2.677682496141642332e-04
1.808000000000000000e+03 9.621348381042480469e+00 1.048673725128173828e+01 -7.689217454753816128e-04 1.319519651588052511e-04 -1.910909195430576801e-04 -3.702222893480211496e-04
1.809000000000000000e+03 5.407817840576171875e+00 1.231151771545410156e+01 -3.066929057240486145e-04 8.596933912485837936e-05 -6.621707143494859338e-05 4.491116560529917479e-04
1.810000000000000000e+03 5.283271789550781250e+00 -1.347458744049072266e+01 -2.084119245409965515e-03 -4.861018096562474966e-04 -7.710662903264164925e-04 -3.349184407852590084e-04
1.811000000000000000e+03 5.179246902465820312e+00 -1.098517894744873047e+01 -1.826391089707612991e-03 1.155478967120870948e-04 -5.132529768161475658e-04 -2.344214772165287286e-05
1.812000000000000000e+03 5.517442703247070312e+00 -8.637012481689453125e+00 -1.194460783153772354e-03 -1.922182418638840318e-04 -4.160037206020206213e-04 3.181944703101180494e-05
1.813000000000000000e+03 5.020940303802490234e+00 8.507583618164062500e+00 5.781935760751366615e-04 1.873322762548923492e-04 2.296577586093917489e-04 -1.911656145239248872e-04
1.814000000000000000e+03 3.839356184005737305e+00 7.386016368865966797e+00 5.433047772385179996e-04 1.957004860742017627e-04 2.217015862697735429e-04 -2.153243985958397388e-04
1.815000000000000000e+03 7.303809642791748047e+00 -2.287173652648925781e+01 3.272388828918337822e-03 -4.864371148869395256e-04 8.357854676432907581e-04 -5.012517794966697693e-04
1.816000000000000000e+03 1.088932514190673828e+01 -2.498633384704589844e+01 2.910005394369363785e-03 1.437431783415377140e-03 1.304231118410825729e-03 1.335016801021993160e-03
1.817000000000000000e+03 1.084509658813476562e+01 -2.621607017517089844e+01 -4.070543684065341949e-03 -3.492612391710281372e-03 -2.268946729600429535e-03 -1.386917312629520893e-03
1.818000000000000000e+03 1.054825782775878906e+01 1.545319461822509766e+01 5.481121479533612728e-04 2.538270491641014814e-04 2.405817504040896893e-04 2.875300197047181427e-05
1.819000000000000000e+03 9.691272735595703125e+00 1.335301685333251953e+01 3.065126657020300627e-04 -2.653966657817363739e-04 1.233479724760400131e-05 -6.909280200488865376e-04
1.820000000000000000e+03 2.575713539123535156e+01 -5.870240211486816406e+00 -6.768713891506195068e-02 5.114337444305419922e+00 1.513995051383972168e+00 3.246213793754577637e-01
1.821000000000000000e+03 2.624670028686523438e+01 -3.367122411727905273e+00 -8.121216297149658203e-02 5.116897583007812500e+00 1.510705590248107910e+00 3.670345246791839600e-01
1.822000000000000000e+03 2.598156166076660156e+01 -1.217673492431640625e+01 5.524309817701578140e-03 5.155831336975097656e+00 1.548406720161437988e+00 2.302561998367309570e-01
1.823000000000000000e+03 2.573595809936523438e+01 -9.551653861999511719e+00 -2.254772558808326721e-02 5.144319534301757812e+00 1.536531567573547363e+00 2.803250849246978760e-01
1.824000000000000000e+03 1.097057151794433594e+01 -2.881970977783203125e+01 -4.447208251804113388e-03 -7.582039106637239456e-03 -3.608774160966277122e-03 1.849691034294664860e-03
1.825000000000000000e+03 1.215030288696289062e+01 -2.876603507995605469e+01 1.300212112255394459e-03 2.316507045179605484e-03 1.085015712305903435e-03 6.230614235391840339e-05
1.826000000000000000e+03 2.481083679199218750e+01 4.371274948120117188e+00 2.752272598445415497e-02 4.705964088439941406e+00 1.420046091079711914e+00 4.905575513839721680e-01
1.827000000000000000e+03 2.564342880249023438e+01 -8.297766685485839844e+00 -3.305695578455924988e-02 5.128105163574218750e+00 1.528514385223388672e+00 3.030823469161987305e-01
1.828000000000000000e+03 1.164039230346679688e+01 2.183969116210937500e+01 1.543515478260815144e-03 -3.320683390484191477e-05 4.530925943981856108e-04 -1.174238204839639366e-04
1.829000000000000000e+03 1.039436531066894531e+01 1.988019371032714844e+01 8.920266991481184959e-04 4.428531974554061890e-04 4.004639631602913141e-04 4.316885315347462893e-04
1.830000000000000000e+03 2.498132896423339844e+01 -2.123226165771484375e+01 -6.022225320339202881e-02 5.083925247192382812e+00 1.507110953330993652e+00 1.672781556844711304e-01
1.831000000000000000e+03 2.305362319946289062e+01 -2.405566406250000000e+01 -5.400153994560241699e-02 4.907637119293212891e+00 1.456090688705444336e+00 1.410523802042007446e-01
1.832000000000000000e+03 1.055739688873291016e+01 1.095139217376708984e+01 6.185767124406993389e-04 1.006926904665306211e-04 2.157808339688926935e-04 1.841383782448247075e-04
1.833000000000000000e+03 1.004858207702636719e+01 2.892142105102539062e+01 -1.941818278282880783e-03 -3.416277759242802858e-04 -6.850337958894670010e-04 4.070381692145019770e-05
1.834000000000000000e+03 1.088788700103759766e+01 1.866132354736328125e+01 -1.281755277886986732e-03 -6.834144005551934242e-05 -4.050289862789213657e-04 -4.503306699916720390e-04
1.835000000000000000e+03 7.255703449249267578e+00 -3.127829551696777344e+01 -1.103263814002275467e-03 8.265262469649314880e-03 2.148599596694111824e-03 1.141226151958107948e-03
1.836000000000000000e+03 2.667708396911621094e+01 -2.014943838119506836e+00 -8.318349719047546387e-02 5.134915828704833984e+00 1.515519738197326660e+00 3.980475962162017822e-01
1.837000000000000000e+03 2.600692367553710938e+01 5.859331607818603516e+00 -3.245559707283973694e-02 4.767815113067626953e+00 1.420607924461364746e+00 6.234326958656311035e-01
1.838000000000000000e+03 2.639014816284179688e+01 1.727682590484619141e+00 -5.212852358818054199e-02 5.006110668182373047e+00 1.486194729804992676e+00 4.725344181060791016e-01
1.839000000000000000e+03 2.610119438171386719e+01 -1.356067752838134766e+01 6.069567170925438404e-04 5.178482055664062500e+00 1.553726673126220703e+00 2.089744210243225098e-01
1.840000000000000000e+03 2.287236404418945312e+01 -2.970237350463867188e+01 3.050995618104934692e-02 4.965058326721191406e+00 1.498670458793640137e+00 1.647599041461944580e-01
1.841000000000000000e+03 2.451243782043457031e+01 -2.980914688110351562e+01 8.623439818620681763e-02 5.027410507202148438e+00 1.534093499183654785e+00 1.678178906440734863e-01
1.842000000000000000e+03 1.117948055267333984e+01 2.891615676879882812e+01 3.280723001807928085e-03 1.687794720055535436e-04 1.034850720316171646e-03 2.630273811519145966e-04
1.843000000000000000e+03 8.041520118713378906e+00 2.468619537353515625e+01 1.363638672046363354e-03 2.953374350909143686e-04 4.976928466930985451e-04 4.081846564076840878e-04
1.844000000000000000e+03 7.084621429443359375e+00 3.238722991943359375e+01 8.926666341722011566e-04 -2.022717846557497978e-03 -3.390153578948229551e-04 -2.924727275967597961e-03
1.845000000000000000e+03 7.238397216796875000e+01 4.098139572143554688e+01 1.399983912706375122e-01 6.450793266296386719e+00 1.977237462997436523e+00 -5.892635136842727661e-02
1.846000000000000000e+03 7.214232635498046875e+01 3.794343566894531250e+01 1.713632345199584961e-01 6.489001750946044922e+00 1.998109459877014160e+00 -1.753124594688415527e-01
1.847000000000000000e+03 3.959424209594726562e+01 3.339061737060546875e+01 3.434757471084594727e+00 1.100778770446777344e+01 4.332763671875000000e+00 -1.508179605007171631e-01
1.848000000000000000e+03 3.708705520629882812e+01 4.144684982299804688e+01 -1.004557847976684570e+00 1.293230438232421875e+01 3.578324079513549805e+00 3.907783925533294678e-01
1.849000000000000000e+03 2.638379859924316406e+01 -3.330494689941406250e+01 9.427423030138015747e-02 5.016043663024902344e+00 1.533095359802246094e+00 1.942120492458343506e-02
1.850000000000000000e+03 2.270303535461425781e+01 -3.262750244140625000e+01 1.772733777761459351e-01 4.883348464965820312e+00 1.518186569213867188e+00 2.088538110256195068e-01
1.851000000000000000e+03 1.122349929809570312e+01 3.336464691162109375e+01 5.185595247894525528e-03 -5.048924504080787301e-05 1.540531869977712631e-03 1.768923597410321236e-03
1.852000000000000000e+03 7.781599044799804688e+00 3.113242340087890625e+01 1.202624058350920677e-03 5.192217940930277109e-05 3.763638669624924660e-04 1.482810708694159985e-03
1.853000000000000000e+03 1.265232944488525391e+01 -3.244407272338867188e+01 -2.510955673642456532e-04 -1.108565740287303925e-02 -3.401025896891951561e-03 6.269664037972688675e-03
1.854000000000000000e+03 3.221080398559570312e+01 3.326392745971679688e+01 4.137073993682861328e+00 2.680254459381103516e+00 2.045198440551757812e+00 3.789012670516967773e+00
1.855000000000000000e+03 3.111819267272949219e+01 3.258283233642578125e+01 2.976304054260253906e+00 2.079860210418701172e+00 1.516849279403686523e+00 2.611247777938842773e+00
1.856000000000000000e+03 3.299034881591796875e+01 3.203610229492187500e+01 2.694122314453125000e+00 7.737558364868164062e+00 3.129504203796386719e+00 5.050257205963134766e+00
1.857000000000000000e+03 3.215887832641601562e+01 3.284183502197265625e+01 3.956726312637329102e+00 3.497468948364257812e+00 2.236258506774902344e+00 4.219545841217041016e+00
1.858000000000000000e+03 3.096474647521972656e+01 3.209347915649414062e+01 2.790552377700805664e+00 2.434541463851928711e+00 1.567528247833251953e+00 2.740146875381469727e+00
1.859000000000000000e+03 2.843718338012695312e+01 3.196314048767089844e+01 1.442767858505249023e+00 8.752134442329406738e-01 6.953943967819213867e-01 7.923218607902526855e-01
1.860000000000000000e+03 2.815347099304199219e+01 2.993025016784667969e+01 1.404737114906311035e+00 1.765489101409912109e+00 9.510678648948669434e-01 1.391498804092407227e+00
1.861000000000000000e+03 3.381198883056640625e+01 3.146412849426269531e+01 1.487785577774047852e+00 1.043881893157958984e+01 3.577981472015380859e+00 4.381916046142578125e+00
1.862000000000000000e+03 2.824730682373046875e+01 3.116691780090332031e+01 1.519812226295471191e+00 1.235727071762084961e+00 8.266618251800537109e-01 1.065449476242065430e+00
1.863000000000000000e+03 3.453218078613281250e+01 3.140400886535644531e+01 8.431426882743835449e-01 1.261632251739501953e+01 4.037839412689208984e+00 3.246537208557128906e+00
1.864000000000000000e+03 3.485310745239257812e+01 3.093554306030273438e+01 7.069632411003112793e-01 1.223429775238037109e+01 3.882378339767456055e+00 2.628936290740966797e+00
1.865000000000000000e+03 3.052708435058593750e+01 3.226945877075195312e+01 2.544435501098632812e+00 1.711064815521240234e+00 1.276650071144104004e+00 2.117600917816162109e+00
1.866000000000000000e+03 5.677835464477539062e+00 6.273123741149902344e+00 -2.590811636764556170e-04 -1.573516638018190861e-04 -1.249298511538654566e-04 4.782217147294431925e-04
1.867000000000000000e+03 8.704573631286621094e+00 5.768485069274902344e+00 -4.153049376327544451e-04 -1.197781239170581102e-04 -1.605249126441776752e-04 -1.626336452318355441e-04
1.868000000000000000e+03 9.765991210937500000e+00 4.706162929534912109e+00 3.852793015539646149e-04 4.616622391040436924e-05 1.294336543651297688e-04 1.921955990837886930e-04
1.869000000000000000e+03 6.178173065185546875e+00 5.885017395019531250e+00 -2.918230602517724037e-04 -3.791948620346374810e-05 -9.892276284517720342e-05 3.379797635716386139e-05
1.870000000000000000e+03 7.763312816619873047e+00 5.221531391143798828e+00 -8.112091745715588331e-05 -1.353363477392122149e-04 -6.493717955891042948e-05 -6.456383562181144953e-05
1.871000000000000000e+03 5.142037391662597656e+00 5.695962905883789062e+00 -5.948658217675983906e-04 9.667707490734755993e-05 -1.494566095061600208e-04 2.683095226529985666e-04
1.872000000000000000e+03 3.753923654556274414e+00 5.250219821929931641e+00 4.138533840887248516e-04 1.627687743166461587e-04 1.729866489768028259e-04 -5.951012135483324528e-04
1.873000000000000000e+03 6.556510925292968750e+00 5.221609115600585938e+00 3.550448745954781771e-04 2.014161873375996947e-04 1.669383200351148844e-04 -1.317034621024504304e-04
1.874000000000000000e+03 5.711531162261962891e+00 5.690289974212646484e+00 5.892933113500475883e-04 -2.673953167686704546e-05 1.687661278992891312e-04 -3.926175413653254509e-04
1.875000000000000000e+03 9.436517715454101562e+00 -5.113801002502441406e+00 -8.346635149791836739e-04 -1.521815574960783124e-04 -2.960535057354718447e-04 1.423961366526782513e-04
1.876000000000000000e+03 8.015714645385742188e+00 -5.051611900329589844e+00 -8.985437452793121338e-04 -1.713256933726370335e-04 -3.209608257748186588e-04 2.213558182120323181e-04
1.877000000000000000e+03 8.130753517150878906e+00 5.967615604400634766e+00 -1.164940258604474366e-04 1.219193582073785365e-04 1.627600113351945765e-06 9.217640035785734653e-05
1.878000000000000000e+03 1.062057304382324219e+01 5.404458522796630859e+00 7.119748042896389961e-04 -1.478278281865641475e-04 1.692440855549648404e-04 8.366071415366604924e-05
1.879000000000000000e+03 2.939943695068359375e+01 3.164682579040527344e+01 1.958540678024291992e+00 1.434412717819213867e+00 1.017886042594909668e+00 1.506211757659912109e+00
1.880000000000000000e+03 2.979263114929199219e+01 3.152932357788085938e+01 2.116948843002319336e+00 1.839268445968627930e+00 1.186865210533142090e+00 1.862577557563781738e+00
1.881000000000000000e+03 5.371261596679687500e+00 -5.152599334716796875e+00 -2.707558451220393181e-04 -3.222262312192469835e-04 -1.778946170816197991e-04 -3.827401451417244971e-05
1.882000000000000000e+03 1.154060363769531250e+01 4.455747127532958984e+00 -1.331180537817999721e-04 -3.152246063109487295e-04 -1.345027994830161333e-04 -3.399676643311977386e-04
1.883000000000000000e+03 9.104607582092285156e+00 8.723806381225585938e+00 3.619451599661260843e-04 1.684476592345163226e-04 1.591178443050011992e-04 -1.088541466742753983e-04
1.884000000000000000e+03 6.828935623168945312e+00 -7.978523731231689453e+00 -1.231410191394388676e-03 -1.238744007423520088e-04 -4.065853718202561140e-04 3.577852039597928524e-04
1.885000000000000000e+03 7.982470989227294922e+00 -5.820087432861328125e+00 6.358034443110227585e-04 4.165370482951402664e-04 3.157021419610828161e-04 -6.561644840985536575e-04
1.886000000000000000e+03 5.825159549713134766e+00 -5.642756462097167969e+00 -5.295411101542413235e-04 -5.907311424380168319e-05 -1.765842753229662776e-04 5.556418909691274166e-04
1.887000000000000000e+03 8.721652030944824219e+00 -5.074836730957031250e+00 1.028699800372123718e-03 5.499611870618537068e-05 3.251087910030037165e-04 -2.106390747940167785e-04
1.888000000000000000e+03 1.165536499023437500e+01 6.429359436035156250e+00 5.516841192729771137e-04 1.055104730767197907e-04 1.971583842532709241e-04 2.273575810249894857e-04
1.889000000000000000e+03 1.283474636077880859e+01 5.439311027526855469e+00 5.845642881467938423e-04 3.594777444959618151e-05 1.861536293290555477e-04 1.478942431276664138e-04
1.890000000000000000e+03 2.595831108093261719e+01 3.080151176452636719e+01 8.216873407363891602e-01 6.742565631866455078e-01 4.487831592559814453e-01 3.357883393764495850e-01
1.891000000000000000e+03 3.607720947265625000e+01 3.051616477966308594e+01 6.403763890266418457e-01 1.235178279876708984e+01 3.897647857666015625e+00 1.190729737281799316e+00
1.892000000000000000e+03 3.677708053588867188e+01 3.159105110168457031e+01 1.647784113883972168e+00 1.314708805084228516e+01 4.438461780548095703e+00 1.725730448961257935e-01
1.893000000000000000e+03 7.974040508270263672e+00 1.311075019836425781e+01 -1.884702396637294441e-05 -1.669138000579550862e-04 -5.572824738919734955e-05 -5.126103642396628857e-04
1.894000000000000000e+03 2.692769813537597656e+01 -1.961616134643554688e+01 -5.996097996830940247e-02 5.255002975463867188e+00 1.558512568473815918e+00 1.556400358676910400e-01
1.895000000000000000e+03 7.438400745391845703e+00 7.632050514221191406e+00 1.066727054421789944e-04 -4.593883568304590881e-05 1.822016020014416426e-05 7.308882777579128742e-05
1.896000000000000000e+03 2.772447013854980469e+01 2.091578245162963867e+00 -9.378428012132644653e-02 5.153241634368896484e+00 1.517837285995483398e+00 5.309845209121704102e-01
1.897000000000000000e+03 2.746092033386230469e+01 3.366363048553466797e+00 -8.607530593872070312e-02 5.079038143157958984e+00 1.497888803482055664e+00 5.732743740081787109e-01
1.898000000000000000e+03 1.127448940277099609e+01 -1.033439254760742188e+01 1.889627776108682156e-03 7.058063783915713429e-05 5.880625103600323200e-04 -3.717553627211600542e-04
1.899000000000000000e+03 9.597485542297363281e+00 -8.728797912597656250e+00 -2.838603686541318893e-04 -9.963808115571737289e-04 -3.840723657049238682e-04 3.755636862479150295e-04
1.900000000000000000e+03 3.391025924682617188e+01 3.989665222167968750e+01 -4.236415326595306396e-01 9.068481445312500000e+00 2.593451976776123047e+00 -1.826905488967895508e+00
1.901000000000000000e+03 1.004685115814208984e+01 1.810336112976074219e+01 -4.048340488225221634e-04 5.080736591480672359e-04 3.097187800449319184e-05 5.844569750479422510e-05
1.902000000000000000e+03 8.190877914428710938e+00 1.614812660217285156e+01 7.362826145254075527e-04 4.795359564013779163e-04 3.647455596365034580e-04 2.229790115961804986e-04
1.903000000000000000e+03 7.338697910308837891e+00 2.273961257934570312e+01 8.729255932848900557e-05 -5.113009246997535229e-04 -1.272025110665708780e-04 -9.981226176023483276e-04
1.904000000000000000e+03 8.924998283386230469e+00 2.298735427856445312e+01 8.182988385669887066e-04 2.861747816496063024e-06 2.463481796439737082e-04 -2.227669610874727368e-04
1.905000000000000000e+03 6.139515876770019531e+00 1.320063209533691406e+01 -3.569010004866868258e-04 -2.486089360900223255e-04 -1.816529838833957911e-04 -6.580657209269702435e-04
1.906000000000000000e+03 9.942378997802734375e+00 1.185528945922851562e+01 -3.323360579088330269e-04 -8.267148950835689902e-05 -1.245022722287103534e-04 -2.351759903831407428e-04
1.907000000000000000e+03 2.719087791442871094e+01 -4.960966110229492188e+00 -9.316835552453994751e-02 5.232592582702636719e+00 1.541827201843261719e+00 3.602575659751892090e-01
1.908000000000000000e+03 2.761975288391113281e+01 -3.860112905502319336e+00 -1.032097041606903076e-01 5.256412982940673828e+00 1.545961022377014160e+00 3.814072310924530029e-01
1.909000000000000000e+03 1.068055248260498047e+01 -1.409424114227294922e+01 -1.891969237476587296e-03 -6.665909313596785069e-04 -7.675680099055171013e-04 1.185258224722929299e-04
1.910000000000000000e+03 7.004858398437500000e+01 -2.578488922119140625e+01 -3.261427581310272217e-02 8.252196311950683594e+00 2.465874671936035156e+00 -7.789076864719390869e-02
1.911000000000000000e+03 6.869537353515625000e+01 -3.083724784851074219e+01 -3.457749262452125549e-02 8.177242279052734375e+00 2.442799329757690430e+00 -5.433682352304458618e-02
1.912000000000000000e+03 7.022101593017578125e+01 -3.240874481201171875e+01 -2.622251957654953003e-02 8.296998977661132812e+00 2.481232881546020508e+00 -4.600086435675621033e-02
1.913000000000000000e+03 7.206640625000000000e+01 -3.402911758422851562e+01 -1.298325043171644211e-02 8.444536209106445312e+00 2.529465913772583008e+00 -2.462687343358993530e-02
1.914000000000000000e+03 9.742964744567871094e+00 2.677408790588378906e+01 -1.396633451804518700e-03 3.916126661351881921e-05 -4.072416631970554590e-04 -3.666828270070254803e-04
1.915000000000000000e+03 7.316987609863281250e+01 -2.356003952026367188e+01 -1.952663809061050415e-02 8.460205078125000000e+00 2.532203674316406250e+00 -6.841959059238433838e-02
1.916000000000000000e+03 6.937861633300781250e+01 1.724648094177246094e+01 -4.118147492408752441e-02 7.474582195281982422e+00 2.230020284652709961e+00 -6.759250164031982422e-01
1.917000000000000000e+03 7.238941955566406250e+01 1.522826099395751953e+01 -3.752101585268974304e-02 7.432129859924316406e+00 2.218382596969604492e+00 -5.334503650665283203e-01
1.918000000000000000e+03 7.182471466064453125e+01 9.843636512756347656e+00 -6.970997899770736694e-02 7.682746887207031250e+00 2.283910989761352539e+00 -4.924088716506958008e-01
1.919000000000000000e+03 7.294442749023437500e+01 8.614081382751464844e+00 -5.622408911585807800e-02 7.721289634704589844e+00 2.299519777297973633e+00 -4.287883341312408447e-01
1.920000000000000000e+03 7.313105010986328125e+01 -1.615425872802734375e+01 -2.937282808125019073e-02 8.380868911743164062e+00 2.505448818206787109e+00 -1.134520843625068665e-01
1.921000000000000000e+03 7.305314636230468750e+01 -1.738090133666992188e+01 -2.460732497274875641e-02 8.391777992248535156e+00 2.510151386260986328e+00 -1.067195832729339600e-01
1.922000000000000000e+03 7.279558563232421875e+01 -6.863124847412109375e+00 -4.897777736186981201e-02 8.205969810485839844e+00 2.447097539901733398e+00 -2.114067822694778442e-01
1.923000000000000000e+03 7.274560546875000000e+01 -9.625535011291503906e+00 -4.411830008029937744e-02 8.257896423339843750e+00 2.464133501052856445e+00 -1.807573139667510986e-01
1.924000000000000000e+03 7.147604370117187500e+01 4.543944358825683594e+00 -8.425545692443847656e-02 7.870848655700683594e+00 2.335978031158447266e+00 -4.181689023971557617e-01
1.925000000000000000e+03 7.254870605468750000e+01 1.788373947143554688e+00 -6.412174552679061890e-02 7.972845554351806641e+00 2.372617006301879883e+00 -3.380759954452514648e-01
1.926000000000000000e+03 7.276693725585937500e+01 -1.102578449249267578e+01 -4.113042727112770081e-02 8.284638404846191406e+00 2.473052501678466797e+00 -1.654847264289855957e-01
1.927000000000000000e+03 7.282110595703125000e+01 -2.885718822479248047e+00 -5.271251127123832703e-02 8.114210128784179688e+00 2.418449401855468750e+00 -2.599017024040222168e-01
1.928000000000000000e+03 7.284356689453125000e+01 -4.186616897583007812e+00 -5.225882679224014282e-02 8.147434234619140625e+00 2.428552627563476562e+00 -2.434751242399215698e-01
1.929000000000000000e+03 7.266122436523437500e+01 -1.609930753707885742e+00 -5.898890271782875061e-02 8.072904586791992188e+00 2.404174804687500000e+00 -2.840707302093505859e-01
1.930000000000000000e+03 7.422567749023437500e+01 -1.362314128875732422e+01 -2.454860135912895203e-02 8.411997795104980469e+00 2.516234874725341797e+00 -1.187769919633865356e-01
1.931000000000000000e+03 7.038311767578125000e+01 7.239611625671386719e+00 -1.012287586927413940e-01 7.787116527557373047e+00 2.305766344070434570e+00 -5.018275976181030273e-01
1.932000000000000000e+03 7.288014221191406250e+01 -2.001928520202636719e+01 -2.440046146512031555e-02 8.406799316406250000e+00 2.514719724655151367e+00 -9.160196781158447266e-02
1.933000000000000000e+03 7.424571228027343750e+01 -2.011393928527832031e+01 -1.509606000036001205e-02 8.504534721374511719e+00 2.546831607818603516e+00 -7.757746428251266479e-02
1.934000000000000000e+03 7.139392852783203125e+01 -2.694684028625488281e+01 -2.629556693136692047e-02 8.356602668762207031e+00 2.499092102050781250e+00 -6.463697552680969238e-02
1.935000000000000000e+03 7.287511444091796875e+01 -2.803239631652832031e+01 -1.962325908243656158e-02 8.472452163696289062e+00 2.535848617553710938e+00 -4.891331866383552551e-02
1.936000000000000000e+03 7.219890594482421875e+01 2.724110794067382812e+01 7.532802969217300415e-02 6.872166156768798828e+00 2.084248304367065430e+00 -5.047452449798583984e-01
1.937000000000000000e+03 7.046049499511718750e+01 1.606853675842285156e+01 -4.505047574639320374e-02 7.466254234313964844e+00 2.226361274719238281e+00 -6.261464953422546387e-01
1.938000000000000000e+03 5.195482730865478516e+00 -1.222385883331298828e+01 2.095109550282359123e-03 2.152319648303091526e-04 6.931024836376309395e-04 8.696545410202816129e-05
1.939000000000000000e+03 1.123457622528076172e+01 8.735440254211425781e+00 5.434021586552262306e-04 2.186913625337183475e-04 2.286280505359172821e-04 2.711713314056396484e-04
1.940000000000000000e+03 2.621511650085449219e+01 2.705998992919921875e+01 6.118730902671813965e-01 1.883192300796508789e+00 7.485195994377136230e-01 1.172024369239807129e+00
1.941000000000000000e+03 2.537437820434570312e+01 2.578503227233886719e+01 3.596584200859069824e-01 1.816638588905334473e+00 6.528891324996948242e-01 1.088850617408752441e+00
1.942000000000000000e+03 1.196345615386962891e+01 -3.079990577697753906e+01 -3.204188309609889984e-03 -3.793567186221480370e-03 -2.099326578900218010e-03 2.397426869720220566e-03
1.943000000000000000e+03 9.748980522155761719e+00 -2.901405334472656250e+01 -5.646829959005117416e-04 5.525656510144472122e-03 1.488292007707059383e-03 4.808019846677780151e-03
1.944000000000000000e+03 8.673864364624023438e+00 -1.846863365173339844e+01 2.236547879874706268e-03 -6.543626659549772739e-04 4.746555350720882416e-04 -1.220955862663686275e-03
1.945000000000000000e+03 1.035108089447021484e+01 -1.659974670410156250e+01 -1.805301755666732788e-03 -8.811083971522748470e-04 -8.059230167418718338e-04 2.091665519401431084e-04
1.946000000000000000e+03 2.724362754821777344e+01 1.972773170471191406e+01 -1.652005314826965332e-01 3.904614210128784180e+00 1.121824145317077637e+00 1.442429661750793457e+00
1.947000000000000000e+03 2.627264404296875000e+01 2.808325958251953125e+01 7.932753562927246094e-01 1.605300188064575195e+00 7.195726633071899414e-01 1.044266939163208008e+00
1.948000000000000000e+03 9.381910324096679688e+00 -1.991520881652832031e+01 2.593693789094686508e-03 -2.694125287234783173e-03 -3.012947308889124542e-05 -2.465818310156464577e-03
1.949000000000000000e+03 2.722843933105468750e+01 8.642723083496093750e+00 -1.448064297437667847e-01 4.818159580230712891e+00 1.402005910873413086e+00 8.249866962432861328e-01
1.950000000000000000e+03 2.722799682617187500e+01 1.141228485107421875e+01 -2.007605731487274170e-01 4.652929306030273438e+00 1.335650563240051270e+00 9.649287462234497070e-01
1.951000000000000000e+03 2.600803756713867188e+01 1.001099205017089844e+01 -1.163770630955696106e-01 4.484476089477539062e+00 1.310429692268371582e+00 8.066164255142211914e-01
1.952000000000000000e+03 2.598594665527343750e+01 1.280753135681152344e+01 -1.586913019418716431e-01 4.219564437866210938e+00 1.218261957168579102e+00 9.319914579391479492e-01
1.953000000000000000e+03 2.968513488769531250e+01 1.141274261474609375e+01 -3.435477018356323242e-01 5.269135475158691406e+00 1.477676391601562500e+00 1.069858551025390625e+00
1.954000000000000000e+03 9.516503334045410156e+00 2.106736183166503906e+01 -1.067583652911707759e-04 -2.493800420779734850e-04 -1.068415222107432783e-04 -7.596272043883800507e-04
1.955000000000000000e+03 6.541668415069580078e+00 -1.008931922912597656e+01 -1.328843063674867153e-03 -6.644816312473267317e-05 -4.185873840469866991e-04 -1.966139680007472634e-04
1.956000000000000000e+03 2.593663978576660156e+01 1.558882427215576172e+01 -1.724767982959747314e-01 3.895148038864135742e+00 1.116801381111145020e+00 1.070221066474914551e+00
1.957000000000000000e+03 2.716048431396484375e+01 1.418919086456298828e+01 -2.357871532440185547e-01 4.428637504577636719e+00 1.257855057716369629e+00 1.115365982055664062e+00
1.958000000000000000e+03 5.500448703765869141e+00 -1.736574554443359375e+01 3.353682579472661018e-03 6.626256508752703667e-04 1.204892527312040329e-03 1.938436646014451981e-03
1.959000000000000000e+03 2.653908538818359375e+01 2.893178176879882812e+01 9.057853221893310547e-01 1.458817839622497559e+00 7.093809247016906738e-01 9.704152345657348633e-01
1.960000000000000000e+03 2.575352287292480469e+01 2.940354156494140625e+01 7.516719698905944824e-01 9.691866636276245117e-01 5.162575840950012207e-01 5.986827015876770020e-01
1.961000000000000000e+03 5.898867607116699219e+00 -2.405029487609863281e+01 3.380798036232590675e-03 -3.998769388999789953e-04 8.942763088271021843e-04 -2.951690112240612507e-04
1.962000000000000000e+03 7.676708698272705078e+00 -1.817285346984863281e+01 -1.656236709095537663e-03 -6.439195713028311729e-04 -6.900468724779784679e-04 6.103666382841765881e-04
1.963000000000000000e+03 8.522535324096679688e+00 2.736065483093261719e+01 2.072539413347840309e-03 -2.077424433082342148e-04 5.594390677288174629e-04 4.712696827482432127e-04
1.964000000000000000e+03 5.114743232727050781e+00 1.567210006713867188e+01 -8.604255854152143002e-04 -2.853903570212423801e-04 -3.437447885517030954e-04 2.556504477979615331e-05
1.965000000000000000e+03 1.068410968780517578e+01 -2.231002807617187500e+01 1.094203325919806957e-03 6.333943456411361694e-04 5.182793247513473034e-04 2.240093657746911049e-03
1.966000000000000000e+03 1.159484958648681641e+01 -2.305533790588378906e+01 -1.550042419694364071e-03 -2.126668812707066536e-03 -1.103013288229703903e-03 -2.673015231266617775e-03
1.967000000000000000e+03 6.998280048370361328e+00 2.035657501220703125e+01 4.873021389357745647e-04 9.720447997096925974e-05 1.753519900375977159e-04 7.654764922335743904e-04
1.968000000000000000e+03 5.488891124725341797e+00 2.044678306579589844e+01 -7.467534742318093777e-04 4.713941598311066628e-04 -8.260780305135995150e-05 7.147879805415868759e-04
1.969000000000000000e+03 5.230169773101806641e+00 1.674989891052246094e+01 1.082484028302133083e-03 -2.277347521157935262e-04 2.564247697591781616e-04 -1.789239759091287851e-04
1.970000000000000000e+03 6.316504478454589844e+00 1.958320808410644531e+01 -6.563050555996596813e-05 -4.568596486933529377e-04 -1.567470462759956717e-04 -2.539925335440784693e-04
1.971000000000000000e+03 6.659355640411376953e+00 -1.981637763977050781e+01 2.050436887657269835e-04 1.303541590459644794e-03 4.525755648501217365e-04 3.262614831328392029e-03
1.972000000000000000e+03 8.295720100402832031e+00 -1.945155334472656250e+01 -1.781714381650090218e-03 1.565788872539997101e-03 -6.477762508438900113e-05 3.064573742449283600e-03
1.973000000000000000e+03 2.781750106811523438e+01 -1.469842720031738281e+01 -3.503423556685447693e-02 5.311583042144775391e+00 1.582964658737182617e+00 1.908419281244277954e-01
1.974000000000000000e+03 5.980887889862060547e+00 1.597531795501708984e+01 -2.180555202357936651e-05 9.861608268693089485e-04 2.893065684475004673e-04 1.976462226593866944e-04
1.975000000000000000e+03 7.228484153747558594e+00 1.494426822662353516e+01 7.153737242333590984e-04 3.614056331571191549e-04 3.230338043067604303e-04 5.367320773075334728e-05
1.976000000000000000e+03 2.747638130187988281e+01 2.120431518554687500e+01 -7.920310646295547485e-02 3.833114624023437500e+00 1.126173496246337891e+00 1.554363608360290527e+00
1.977000000000000000e+03 6.591700553894042969e+00 -1.341643047332763672e+01 2.102537080645561218e-03 6.563478382304310799e-04 8.276654989458620548e-04 5.887024453841149807e-04
1.978000000000000000e+03 1.086351585388183594e+01 -2.751618766784667969e+01 1.410064985975623131e-03 2.873580902814865112e-03 1.285093720071017742e-03 2.516519743949174881e-03
1.979000000000000000e+03 7.876557350158691406e+00 8.346363067626953125e+00 2.471565967425704002e-04 -1.284858444705605507e-04 3.560122422641143203e-05 1.850743137765675783e-05
1.980000000000000000e+03 6.741119861602783203e+00 8.143319129943847656e+00 -7.995498890522867441e-05 1.915316970553249121e-04 3.347301390022039413e-05 1.253359077963978052e-04
1.981000000000000000e+03 6.372035026550292969e+00 -1.220133399963378906e+01 -1.994041958823800087e-03 -4.631252086255699396e-04 -7.371501997113227844e-04 -3.854184760712087154e-04
1.982000000000000000e+03 2.807953071594238281e+01 2.249505805969238281e+01 -6.828680634498596191e-03 3.965700387954711914e+00 1.187661528587341309e+00 1.692599177360534668e+00
1.983000000000000000e+03 8.241473197937011719e+00 9.084641456604003906e+00 -5.543523584492504597e-04 1.301522279391065240e-04 -1.272600347874686122e-04 3.246731284889392555e-05
1.984000000000000000e+03 5.836272239685058594e+00 -7.624182224273681641e+00 1.136501086875796318e-03 -1.641470735194161534e-04 2.917061792686581612e-04 -6.239310023374855518e-04
1.985000000000000000e+03 6.279800415039062500e+00 -6.753332614898681641e+00 -1.063764793798327446e-03 3.980998299084603786e-04 -1.996994978981092572e-04 9.364969446323812008e-04
1.986000000000000000e+03 2.882581329345703125e+01 -1.896777915954589844e+01 -7.309510558843612671e-02 5.389202117919921875e+00 1.594832181930541992e+00 1.475984305143356323e-01
1.987000000000000000e+03 1.059508037567138672e+01 -3.264037704467773438e+01 -1.767563074827194214e-02 4.107728600502014160e-04 -5.179456900805234909e-03 5.134206730872392654e-03
1.988000000000000000e+03 2.685868072509765625e+01 -8.170359611511230469e+00 -5.734058097004890442e-02 5.227375984191894531e+00 1.551010727882385254e+00 3.030387461185455322e-01
1.989000000000000000e+03 2.721056175231933594e+01 7.292726039886474609e+00 -1.131375953555107117e-01 4.883997917175292969e+00 1.431258082389831543e+00 7.525806427001953125e-01
1.990000000000000000e+03 2.621943664550781250e+01 -1.499615573883056641e+01 -1.490260194987058640e-02 5.179521083831787109e+00 1.549385547637939453e+00 1.816588789224624634e-01
1.991000000000000000e+03 2.813761711120605469e+01 8.659921884536743164e-01 -1.126730293035507202e-01 5.251156330108642578e+00 1.541545033454895020e+00 5.013992190361022949e-01
1.992000000000000000e+03 2.730899429321289062e+01 4.654697418212890625e+00 -8.254585415124893188e-02 5.009563922882080078e+00 1.478105425834655762e+00 6.279571652412414551e-01
1.993000000000000000e+03 4.137775421142578125e+01 3.488520050048828125e+01 2.959125518798828125e+00 1.056910705566406250e+01 4.058469772338867188e+00 5.035123825073242188e-01
1.994000000000000000e+03 4.010920333862304688e+01 3.978517150878906250e+01 5.319261550903320312e-01 1.258962821960449219e+01 3.936466217041015625e+00 9.257339835166931152e-01
1.995000000000000000e+03 2.698554229736328125e+01 -2.130118751525878906e+01 -8.438166230916976929e-02 5.260072708129882812e+00 1.552707314491271973e+00 1.438150703907012939e-01
1.996000000000000000e+03 6.622927856445312500e+01 3.408154296875000000e+01 3.822880983352661133e-01 7.209484100341796875e+00 2.277531623840332031e+00 -4.742141962051391602e-01
1.997000000000000000e+03 9.260418891906738281e+00 2.421974754333496094e+01 -7.332891109399497509e-04 -2.738171606324613094e-04 -3.021318698301911354e-04 -1.071998212864855304e-05
1.998000000000000000e+03 2.601851844787597656e+01 1.988081932067871094e+01 -1.005036085844039917e-01 3.364156484603881836e+00 9.790958762168884277e-01 1.291885614395141602e+00
1.999000000000000000e+03 2.442707633972167969e+01 -2.837598228454589844e+01 9.552506729960441589e-03 5.039348602294921875e+00 1.514670252799987793e+00 1.556498408317565918e-01
2.000000000000000000e+03 1.065745925903320312e+01 3.212388610839843750e+01 1.885582314571365714e-04 -5.364125827327370644e-04 -1.043563024722971022e-04 6.861066794954240322e-04
2.001000000000000000e+03 1.157472896575927734e+01 -6.885269165039062500e+00 -1.704571652226150036e-03 -3.179491905029863119e-04 -6.067562499083578587e-04 9.186977695208042860e-05
2.002000000000000000e+03 8.667302131652832031e+00 -5.877986431121826172e+00 -1.576087321154773235e-03 3.581986820790916681e-04 -3.653666062746196985e-04 4.954540054313838482e-04
2.003000000000000000e+03 1.003560352325439453e+01 2.787809371948242188e+01 3.280045697465538979e-03 -9.095175191760063171e-04 7.111584418453276157e-04 4.697499680332839489e-04
2.004000000000000000e+03 7.325228118896484375e+01 -2.256894111633300781e+01 -2.143378742039203644e-02 8.456658363342285156e+00 2.530567407608032227e+00 -7.334844022989273071e-02
2.005000000000000000e+03 1.017704963684082031e+01 3.371780014038085938e+01 1.732614589855074883e-03 -4.024863708764314651e-03 -6.876747938804328442e-04 -4.170222964603453875e-04
2.006000000000000000e+03 7.310852050781250000e+01 -1.494900608062744141e+01 -3.379525244235992432e-02 8.362457275390625000e+00 2.498598575592041016e+00 -1.253310739994049072e-01
2.007000000000000000e+03 7.191058158874511719e+00 -3.401382446289062500e+01 -1.495408918708562851e-02 1.415078435093164444e-02 -2.409914304735139012e-04 -7.005878724157810211e-03
2.008000000000000000e+03 2.745379257202148438e+01 -8.671301603317260742e-01 -9.297700226306915283e-02 5.179836273193359375e+00 1.526057720184326172e+00 4.294819831848144531e-01
2.009000000000000000e+03 7.380782318115234375e+01 2.440876364707946777e-01 -4.603918641805648804e-02 8.054347991943359375e+00 2.402492761611938477e+00 -2.758768796920776367e-01
2.010000000000000000e+03 4.237689208984375000e+01 3.156513023376464844e+01 1.882914900779724121e+00 1.006812286376953125e+01 3.585311174392700195e+00 -6.300508379936218262e-01
2.011000000000000000e+03 4.049457550048828125e+01 3.399704742431640625e+01 3.361605882644653320e+00 1.064826297760009766e+01 4.202960968017578125e+00 2.391880564391613007e-02
2.012000000000000000e+03 1.054133129119873047e+01 3.742208862304687500e+01 4.378427751362323761e-03 -3.496905555948615074e-03 2.644566702656447887e-04 -2.680653939023613930e-03
2.013000000000000000e+03 7.198275756835937500e+01 2.003965568542480469e+01 6.969636888243257999e-04 7.208868026733398438e+00 2.162869453430175781e+00 -5.777697563171386719e-01
2.014000000000000000e+03 7.288911437988281250e+01 7.277903079986572266e+00 -5.828075855970382690e-02 7.776741981506347656e+00 2.315538406372070312e+00 -4.116784930229187012e-01
2.015000000000000000e+03 7.408681488037109375e+01 -6.805918216705322266e+00 -3.445618227124214172e-02 8.267725944519042969e+00 2.469980955123901367e+00 -1.828607022762298584e-01
2.016000000000000000e+03 9.795126914978027344e+00 -1.124044036865234375e+01 1.781776314601302147e-03 1.495955220889300108e-04 5.794115713797509670e-04 -2.974666131194680929e-04
2.017000000000000000e+03 9.364775657653808594e+00 -1.380008029937744141e+01 1.873544184491038322e-03 6.368395406752824783e-04 7.531151059083640575e-04 5.814200630993582308e-05
2.018000000000000000e+03 2.388923072814941406e+01 -3.466459655761718750e+01 2.233742922544479370e-01 4.762638092041015625e+00 1.495803713798522949e+00 3.950552269816398621e-02
2.019000000000000000e+03 2.440772247314453125e+01 -3.296780014038085938e+01 1.895989030599594116e-01 4.914276599884033203e+00 1.531162619590759277e+00 1.265678554773330688e-01
2.020000000000000000e+03 7.181873321533203125e+01 2.892955589294433594e+01 1.092428416013717651e-01 6.829880714416503906e+00 2.081737041473388672e+00 -4.894589781761169434e-01
2.021000000000000000e+03 8.444956779479980469e+00 -2.892730903625488281e+01 -9.489474818110466003e-03 -2.432970795780420303e-03 -3.576733637601137161e-03 -5.954057560302317142e-04
2.022000000000000000e+03 3.253001403808593750e+01 3.199824333190917969e+01 2.960024595260620117e+00 6.125016212463378906e+00 2.725512266159057617e+00 4.700039863586425781e+00
2.023000000000000000e+03 3.034332656860351562e+01 3.183002853393554688e+01 2.444177627563476562e+00 2.076826333999633789e+00 1.356301188468933105e+00 2.236416578292846680e+00
2.024000000000000000e+03 3.180202484130859375e+01 3.216981506347656250e+01 3.176162958145141602e+00 3.744869470596313477e+00 2.076309680938720703e+00 3.758743762969970703e+00
2.025000000000000000e+03 3.381788253784179688e+01 3.069018745422363281e+01 1.022347688674926758e+00 9.949306488037109375e+00 3.291496276855468750e+00 3.813496828079223633e+00
2.026000000000000000e+03 2.912839317321777344e+01 3.064221954345703125e+01 1.776576757431030273e+00 2.011703252792358398e+00 1.136484026908874512e+00 1.731852769851684570e+00
2.027000000000000000e+03 3.449332046508789062e+01 3.060772705078125000e+01 6.228135228157043457e-01 1.132273769378662109e+01 3.583665370941162109e+00 3.065168380737304688e+00
2.028000000000000000e+03 2.918377113342285156e+01 3.119228172302246094e+01 1.857077479362487793e+00 1.652594685554504395e+00 1.052901625633239746e+00 1.571731448173522949e+00
2.029000000000000000e+03 8.101471900939941406e+00 7.091391563415527344e+00 -2.319863124284893274e-04 3.576944800443015993e-05 -5.886505823582410812e-05 -1.476940669817849994e-04
2.030000000000000000e+03 6.298379898071289062e+00 7.569239616394042969e+00 5.185900954529643059e-04 -5.367411358747631311e-05 1.394747960148379207e-04 1.781925384420901537e-04
2.031000000000000000e+03 2.741657447814941406e+01 3.005396652221679688e+01 1.204805850982666016e+00 1.386432170867919922e+00 7.773714065551757812e-01 1.002422332763671875e+00
2.032000000000000000e+03 2.850916481018066406e+01 3.058982086181640625e+01 1.587495207786560059e+00 1.638030648231506348e+00 9.676577448844909668e-01 1.376925349235534668e+00
2.033000000000000000e+03 7.596015930175781250e+00 6.424068927764892578e+00 2.290997072122991085e-04 -7.900549826445057988e-05 4.502826413954608142e-05 4.301316948840394616e-06
2.034000000000000000e+03 6.569253444671630859e+00 6.366361618041992188e+00 8.996287942864000797e-05 2.409336048003751785e-05 3.421687142690643668e-05 6.384703010553494096e-05
2.035000000000000000e+03 1.064864253997802734e+01 6.332544803619384766e+00 -6.544121424667537212e-04 -8.140369027387350798e-05 -2.207447541877627373e-04 -1.893859443953260779e-04
2.036000000000000000e+03 7.323826313018798828e+00 -5.880903244018554688e+00 -1.097450498491525650e-03 -3.487624053377658129e-04 -4.338638682384043932e-04 -3.993215505033731461e-04
2.037000000000000000e+03 3.069920921325683594e+01 3.167370414733886719e+01 2.563059091567993164e+00 2.595610857009887695e+00 1.547600984573364258e+00 2.656287908554077148e+00
2.038000000000000000e+03 1.071683597564697266e+01 -7.108594894409179688e+00 1.305541954934597015e-03 4.747044295072555542e-04 5.340739153325557709e-04 -1.072418599505908787e-04
2.039000000000000000e+03 1.192634582519531250e+01 5.409729003906250000e+00 -5.000672535970807076e-04 -8.334793528774753213e-05 -1.750245573930442333e-04 -3.246297710575163364e-04
2.040000000000000000e+03 1.144378185272216797e+01 7.572279930114746094e+00 -5.552096990868449211e-04 -1.597319351276382804e-04 -2.144824829883873463e-04 -2.036763762589544058e-04
2.041000000000000000e+03 1.120349407196044922e+01 -6.010424137115478516e+00 2.059633610770106316e-03 -3.647460252977907658e-04 5.084662698209285736e-04 2.819567744154483080e-04
2.042000000000000000e+03 1.048397159576416016e+01 -6.428537368774414062e+00 -1.888285391032695770e-03 5.938853719271719456e-04 -3.883200115524232388e-04 -2.686794614419341087e-04
2.043000000000000000e+03 3.551715087890625000e+01 3.071422958374023438e+01 6.232689023017883301e-01 1.243207645416259766e+01 3.916603565216064453e+00 1.787561178207397461e+00
2.044000000000000000e+03 9.014172554016113281e+00 1.140425205230712891e+01 9.809377370402216911e-04 -4.511155566433444619e-05 2.807478595059365034e-04 -3.760178515221923590e-05
2.045000000000000000e+03 6.968387126922607422e+00 1.394138526916503906e+01 -2.022999979089945555e-04 3.603427030611783266e-04 4.741281009046360850e-05 4.890463314950466156e-04
2.046000000000000000e+03 9.159551620483398438e+00 1.481734943389892578e+01 3.341737610753625631e-04 2.809610450640320778e-04 1.845404476625844836e-04 -7.224470755318179727e-05
2.047000000000000000e+03 8.287628173828125000e+00 1.740750122070312500e+01 -7.926500984467566013e-04 -5.275924340821802616e-04 -3.960727772209793329e-04 -4.892413853667676449e-04
2.048000000000000000e+03 7.899289131164550781e+00 -1.483565330505371094e+01 2.089521847665309906e-03 6.112686824053525925e-04 8.102371357381343842e-04 3.034232649952173233e-04
2.049000000000000000e+03 8.604758262634277344e+00 -1.102357387542724609e+01 -1.929678255692124367e-03 -2.443907433189451694e-04 -6.522207404486835003e-04 -3.182705258950591087e-04
2.050000000000000000e+03 1.003981399536132812e+01 9.648319244384765625e+00 5.784881650470197201e-04 2.280974003951996565e-04 2.419756638118997216e-04 2.193875552620738745e-04
2.051000000000000000e+03 2.982200431823730469e+01 5.058647632598876953e+00 -2.072962075471878052e-01 5.381142139434814453e+00 1.552153825759887695e+00 7.136452198028564453e-01
2.052000000000000000e+03 5.983735084533691406e+00 8.400305747985839844e+00 -5.146410549059510231e-04 -3.001670120283961296e-04 -2.444424026180058718e-04 -1.165931189461844042e-05
2.053000000000000000e+03 4.926220417022705078e+00 7.274468898773193359e+00 -6.101772887632250786e-04 -1.267003390239551663e-04 -2.210632810601964593e-04 2.457774244248867035e-04
2.054000000000000000e+03 7.288475036621093750e+01 1.254362964630126953e+01 -4.517997056245803833e-02 7.542468070983886719e+00 2.249186515808105469e+00 -4.826953411102294922e-01
2.055000000000000000e+03 7.268525695800781250e+01 1.386585617065429688e+01 -4.170764610171318054e-02 7.484268665313720703e+00 2.232768297195434570e+00 -5.060946941375732422e-01
2.056000000000000000e+03 6.238743782043457031e+00 9.469279289245605469e+00 2.504457079339772463e-04 1.373531413264572620e-04 1.163396591437049210e-04 4.649090624297969043e-05
2.057000000000000000e+03 1.161315631866455078e+01 -8.001354217529296875e+00 1.672831480391323566e-03 2.829935401678085327e-04 5.867474828846752644e-04 -2.355362958041951060e-04
2.058000000000000000e+03 1.013637828826904297e+01 -1.004577350616455078e+01 -1.314139924943447113e-03 4.890761556453071535e-05 -3.795697120949625969e-04 7.262738072313368320e-04
2.059000000000000000e+03 7.169078826904296875e+00 1.878947067260742188e+01 -3.606022510211914778e-04 -2.000982640311121941e-04 -1.682101574260741472e-04 1.175333381979726255e-04
2.060000000000000000e+03 7.276271057128906250e+01 -8.232784271240234375e+00 -4.683550819754600525e-02 8.232440948486328125e+00 2.455681800842285156e+00 -1.957581341266632080e-01
2.061000000000000000e+03 7.142880249023437500e+01 -9.730482101440429688e+00 -5.823886394500732422e-02 8.191280364990234375e+00 2.439912319183349609e+00 -2.010267823934555054e-01
2.062000000000000000e+03 7.097442150115966797e+00 8.897606849670410156e+00 -2.855441998690366745e-04 1.274299429496750236e-04 -4.743427780340425670e-05 -2.008829033002257347e-04
2.063000000000000000e+03 7.268157196044921875e+01 3.170697927474975586e+00 -6.422265619039535522e-02 7.929606437683105469e+00 2.359615087509155273e+00 -3.559398353099822998e-01
2.064000000000000000e+03 7.118096923828125000e+01 1.894588351249694824e+00 -8.801303803920745850e-02 7.944415569305419922e+00 2.356920719146728516e+00 -3.803881704807281494e-01
2.065000000000000000e+03 7.298143005371093750e+01 -2.138139724731445312e+01 -2.302392199635505676e-02 8.425912857055664062e+00 2.520866632461547852e+00 -8.319281786680221558e-02
2.066000000000000000e+03 7.159031677246093750e+01 -3.049264192581176758e+00 -7.264653593301773071e-02 8.072110176086425781e+00 2.399838924407958984e+00 -2.909938693046569824e-01
2.067000000000000000e+03 2.837004852294921875e+01 -8.833488464355468750e+00 -7.293847203254699707e-02 5.358502388000488281e+00 1.585669159889221191e+00 3.018544614315032959e-01
2.068000000000000000e+03 9.710820198059082031e+00 -7.819178581237792969e+00 4.746094928123056889e-04 9.825816377997398376e-04 4.371573159005492926e-04 -3.065165947191417217e-04
2.069000000000000000e+03 8.246018409729003906e+00 2.597991752624511719e+01 -1.053244457580149174e-03 -3.472829994279891253e-04 -4.201582341920584440e-04 -4.016175225842744112e-04
2.070000000000000000e+03 9.360219001770019531e+00 1.587993049621582031e+01 -5.901530385017395020e-04 -3.490961971692740917e-04 -2.817747881636023521e-04 -1.630549522815272212e-04
2.071000000000000000e+03 7.283551025390625000e+01 5.912136554718017578e+00 -6.131238490343093872e-02 7.831047534942626953e+00 2.330920696258544922e+00 -3.936012387275695801e-01
2.072000000000000000e+03 7.002315521240234375e+01 3.265280485153198242e+00 -1.099438965320587158e-01 7.893362998962402344e+00 2.335025787353515625e+00 -4.346729815006256104e-01
2.073000000000000000e+03 3.135920906066894531e+01 -1.728934478759765625e+01 -8.706016093492507935e-02 5.589615821838378906e+00 1.650766730308532715e+00 1.590231806039810181e-01
2.074000000000000000e+03 2.816340065002441406e+01 -1.764763832092285156e+01 -6.301212310791015625e-02 5.327803134918212891e+00 1.579437255859375000e+00 1.659035682678222656e-01
2.075000000000000000e+03 7.155065917968750000e+01 -5.599295616149902344e+00 -6.722540408372879028e-02 8.124881744384765625e+00 2.417296886444091797e+00 -2.532112896442413330e-01
2.076000000000000000e+03 7.393595123291015625e+01 2.303275680541992188e+01 1.605366729199886322e-02 6.919219017028808594e+00 2.080581665039062500e+00 -4.634704291820526123e-01
2.077000000000000000e+03 7.161277770996093750e+01 -2.368548393249511719e+01 -2.686711214482784271e-02 8.348603248596191406e+00 2.496520996093750000e+00 -7.916051894426345825e-02
2.078000000000000000e+03 7.211081695556640625e+01 -2.571265411376953125e+01 -2.305121719837188721e-02 8.397480964660644531e+00 2.512328863143920898e+00 -6.573757529258728027e-02
2.079000000000000000e+03 9.806513786315917969e+00 -1.888582420349121094e+01 -2.064245985820889473e-03 7.063397206366062164e-04 -4.073719028383493423e-04 1.066366792656481266e-03
2.080000000000000000e+03 8.737513542175292969e+00 -2.186487197875976562e+01 5.132312886416912079e-03 -6.228908314369618893e-04 1.352826599031686783e-03 -1.161581720225512981e-03
2.081000000000000000e+03 7.199919128417968750e+01 -1.606598663330078125e+01 -3.958583623170852661e-02 8.310322761535644531e+00 2.481221199035644531e+00 -1.288929283618927002e-01
2.082000000000000000e+03 7.185195922851562500e+01 1.106430721282958984e+01 -6.383303552865982056e-02 7.629668235778808594e+00 2.269750595092773438e+00 -5.116345882415771484e-01
2.083000000000000000e+03 9.815205574035644531e+00 3.264682769775390625e+01 4.906048998236656189e-03 -1.855465001426637173e-03 9.151751874014735222e-04 -4.530704754870384932e-04
2.084000000000000000e+03 7.021404266357421875e+01 1.873708152770996094e+01 -1.818119548261165619e-02 7.377517223358154297e+00 2.207800865173339844e+00 -6.522153019905090332e-01
2.085000000000000000e+03 2.723925399780273438e+01 1.001828861236572266e+01 -1.731367707252502441e-01 4.742963314056396484e+00 1.370948076248168945e+00 8.950735330581665039e-01
2.086000000000000000e+03 2.712491607666015625e+01 1.555999469757080078e+01 -2.370369732379913330e-01 4.302664279937744141e+00 1.219688296318054199e+00 1.193748831748962402e+00
2.087000000000000000e+03 6.819034576416015625e+00 2.373459815979003906e+01 1.624846365302801132e-03 6.316591170616447926e-04 6.769516621716320515e-04 1.058148918673396111e-03
2.088000000000000000e+03 2.962655258178710938e+01 1.279996585845947266e+01 -3.660152554512023926e-01 5.228071212768554688e+00 1.458616852760314941e+00 1.155899763107299805e+00
2.089000000000000000e+03 2.959413146972656250e+01 1.918367576599121094e+01 -3.402516543865203857e-01 5.065482139587402344e+00 1.417569160461425781e+00 1.605202794075012207e+00
2.090000000000000000e+03 2.844257736206054688e+01 1.946874809265136719e+01 -2.422446608543395996e-01 4.495555400848388672e+00 1.275993227958679199e+00 1.564270138740539551e+00
2.091000000000000000e+03 2.713813972473144531e+01 1.831050109863281250e+01 -2.017099410295486450e-01 4.035849571228027344e+00 1.150241971015930176e+00 1.356209516525268555e+00
2.092000000000000000e+03 2.970878982543945312e+01 2.438018989562988281e+01 1.604955494403839111e-01 4.733339786529541016e+00 1.468150615692138672e+00 2.066244602203369141e+00
2.093000000000000000e+03 7.297681427001953125e+01 -1.371463680267333984e+01 -3.313693776726722717e-02 8.336847305297851562e+00 2.491112947463989258e+00 -1.371924728155136108e-01
2.094000000000000000e+03 7.044281005859375000e+01 -1.685556602478027344e+01 -4.867338761687278748e-02 8.220513343811035156e+00 2.451551914215087891e+00 -1.400434821844100952e-01
2.095000000000000000e+03 2.694818687438964844e+01 2.957460403442382812e+01 1.032503128051757812e+00 1.371969103813171387e+00 7.213416695594787598e-01 9.454863667488098145e-01
2.096000000000000000e+03 6.785432338714599609e+00 -1.823606109619140625e+01 2.366494853049516678e-03 1.478472142480313778e-03 1.153490040451288223e-03 1.441662781871855259e-03
2.097000000000000000e+03 7.209489345550537109e+00 -2.428036499023437500e+01 -4.125733394175767899e-03 -1.022361917421221733e-03 -1.544428640045225620e-03 4.694433591794222593e-04
2.098000000000000000e+03 7.131267070770263672e+00 -2.859377861022949219e+01 9.421777795068919659e-04 2.006096532568335533e-03 8.844822878018021584e-04 1.949097611941397190e-03
2.099000000000000000e+03 2.781620407104492188e+01 2.790654182434082031e+01 9.319913983345031738e-01 2.528456449508666992e+00 1.038134336471557617e+00 1.597412705421447754e+00
2.100000000000000000e+03 7.823423862457275391e+00 -1.606846809387207031e+01 -1.902281073853373528e-03 -9.758187807165086269e-04 -8.634299738332629204e-04 -5.014178459532558918e-04
2.101000000000000000e+03 7.104511260986328125e+01 1.472162818908691406e+01 -5.259683355689048767e-02 7.498477935791015625e+00 2.233764410018920898e+00 -5.863547325134277344e-01
2.102000000000000000e+03 7.171612548828125000e+01 1.227644824981689453e+01 -5.867656320333480835e-02 7.580252170562744141e+00 2.256472826004028320e+00 -5.310102105140686035e-01
2.103000000000000000e+03 2.828460502624511719e+01 1.684622764587402344e+01 -3.019976317882537842e-01 4.620179176330566406e+00 1.295454502105712891e+00 1.365170955657958984e+00
2.104000000000000000e+03 7.151488494873046875e+01 -1.261198806762695312e+01 -5.112053826451301575e-02 8.240092277526855469e+00 2.456691503524780273e+00 -1.685452759265899658e-01
2.105000000000000000e+03 7.189864635467529297e+00 -1.164041996002197266e+01 -5.812746821902692318e-04 3.341245756018906832e-04 -7.414503488689661026e-05 -3.336450317874550819e-04
2.106000000000000000e+03 3.099200248718261719e+01 -2.698587179183959961e+00 -1.827712506055831909e-01 5.608661651611328125e+00 1.627767086029052734e+00 4.310338199138641357e-01
2.107000000000000000e+03 2.836087608337402344e+01 1.417373275756835938e+01 -3.068598210811614990e-01 4.802363872528076172e+00 1.348651170730590820e+00 1.194881677627563477e+00
2.108000000000000000e+03 1.104138660430908203e+01 -2.388933563232421875e+01 -2.154867397621273994e-03 -1.166528905741870403e-03 -9.964188793674111366e-04 -9.863035520538687706e-04
2.109000000000000000e+03 9.775327682495117188e+00 -2.149288558959960938e+01 -1.188051071949303150e-03 -2.689570421352982521e-03 -1.163286506198346615e-03 -2.763082971796393394e-03
2.110000000000000000e+03 9.730691909790039062e+00 -2.476676559448242188e+01 -3.813812276348471642e-03 -2.169718733057379723e-03 -1.795059302821755409e-03 -1.600833638804033399e-04
2.111000000000000000e+03 8.913233757019042969e+00 -1.741705513000488281e+01 -1.858901348896324635e-03 -6.854118546470999718e-04 -7.632939959876239300e-04 1.735225087031722069e-04
2.112000000000000000e+03 9.346614837646484375e+00 -5.849233150482177734e+00 1.437411527149379253e-03 -2.416642673779278994e-04 3.587241808418184519e-04 3.123451606370508671e-04
2.113000000000000000e+03 8.643951416015625000e+00 -6.748058795928955078e+00 1.887681311927735806e-03 -4.749583968077786267e-05 5.520556587725877762e-04 -2.312695723958313465e-04
2.114000000000000000e+03 8.706543922424316406e+00 7.798233032226562500e+00 -9.597070311428979039e-05 1.018822804326191545e-04 1.773472263266739901e-06 2.004411653615534306e-04
2.115000000000000000e+03 2.841199684143066406e+01 1.280367755889892578e+01 -2.922729551792144775e-01 4.883471012115478516e+00 1.377359509468078613e+00 1.113217234611511230e+00
2.116000000000000000e+03 8.430160522460937500e+00 -2.592335891723632812e+01 -5.607429426163434982e-03 -2.156280446797609329e-03 -2.329112961888313293e-03 -3.914437547791749239e-05
2.117000000000000000e+03 7.157852649688720703e+00 -2.716117095947265625e+01 -6.879398599267005920e-03 -1.687612384557723999e-03 -2.570103388279676437e-03 -4.526876145973801613e-04
2.118000000000000000e+03 2.872400283813476562e+01 2.071892738342285156e+01 -1.884842813014984131e-01 4.557101726531982422e+00 1.310585260391235352e+00 1.673308968544006348e+00
2.119000000000000000e+03 2.718682479858398438e+01 2.351564407348632812e+01 1.425865143537521362e-01 3.328542947769165039e+00 1.041338801383972168e+00 1.588793277740478516e+00
2.120000000000000000e+03 2.893295860290527344e+01 2.348402976989746094e+01 7.769540697336196899e-02 4.337041854858398438e+00 1.324421286582946777e+00 1.881698250770568848e+00
2.121000000000000000e+03 2.722807502746582031e+01 5.961773872375488281e+00 -9.145800024271011353e-02 4.943527221679687500e+00 1.455620646476745605e+00 6.898657083511352539e-01
2.122000000000000000e+03 2.705491065979003906e+01 -6.027365684509277344e+00 -8.272416144609451294e-02 5.239618301391601562e+00 1.547068238258361816e+00 3.351979851722717285e-01
2.123000000000000000e+03 7.244562625885009766e+00 2.928315544128417969e+01 2.020099433138966560e-03 6.363784195855259895e-04 7.969433791004121304e-04 7.752950186841189861e-04
2.124000000000000000e+03 7.159003448486328125e+01 -1.975411224365234375e+01 -3.196757659316062927e-02 8.322935104370117188e+00 2.487290382385253906e+00 -1.057188734412193298e-01
2.125000000000000000e+03 2.750176239013671875e+01 -1.187080192565917969e+01 -2.798493392765522003e-02 5.284082889556884766e+00 1.576829433441162109e+00 2.469610571861267090e-01
2.126000000000000000e+03 2.922202873229980469e+01 -1.287040710449218750e+01 -5.934523791074752808e-02 5.427969455718994141e+00 1.610587239265441895e+00 2.260414063930511475e-01
2.127000000000000000e+03 7.202758026123046875e+01 -2.945076179504394531e+01 -2.309382148087024689e-02 8.419067382812500000e+00 2.518791913986206055e+00 -4.798832535743713379e-02
2.128000000000000000e+03 2.842817306518554688e+01 6.079113483428955078e+00 -1.547537147998809814e-01 5.145989418029785156e+00 1.497370600700378418e+00 7.330859303474426270e-01
2.129000000000000000e+03 7.930830001831054688e+00 1.102361202239990234e+01 -7.533323368988931179e-04 -1.038124319165945053e-04 -2.571434306446462870e-04 -1.461107603972777724e-04
2.130000000000000000e+03 7.148129463195800781e+00 1.216638278961181641e+01 4.127763677388429642e-04 1.792645489331334829e-04 1.776122662704437971e-04 5.163326277397572994e-04
2.131000000000000000e+03 3.638710021972656250e+01 3.098663902282714844e+01 1.043420433998107910e+00 1.280236053466796875e+01 4.153734207153320312e+00 7.491022944450378418e-01
2.132000000000000000e+03 3.956419372558593750e+01 3.206642532348632812e+01 2.677037954330444336e+00 1.112684535980224609e+01 4.141165256500244141e+00 -5.106437802314758301e-01
2.133000000000000000e+03 7.048999023437500000e+01 2.570350265502929688e+01 8.509903401136398315e-02 7.070639133453369141e+00 2.146721601486206055e+00 -6.024734973907470703e-01
2.134000000000000000e+03 7.137359619140625000e+01 2.130573654174804688e+01 1.245762780308723450e-02 7.192204952239990234e+00 2.161398887634277344e+00 -5.996259450912475586e-01
2.135000000000000000e+03 7.055602264404296875e+01 -2.824213027954101562e+01 -3.099183365702629089e-02 8.303365707397460938e+00 2.481712102890014648e+00 -6.204835698008537292e-02
2.136000000000000000e+03 2.866564750671386719e+01 -1.465751290321350098e+00 -1.304148584604263306e-01 5.347709655761718750e+00 1.565188527107238770e+00 4.401282668113708496e-01
2.137000000000000000e+03 9.100107192993164062e+00 2.847559165954589844e+01 9.407887409906834364e-05 7.727438351139426231e-04 2.600467996671795845e-04 7.175743230618536472e-04
2.138000000000000000e+03 7.234822082519531250e+01 3.839556276798248291e-01 -6.732861697673797607e-02 8.011337280273437500e+00 2.383202791213989258e+00 -3.219644725322723389e-01
2.139000000000000000e+03 7.191241455078125000e+01 -8.306859731674194336e-01 -7.013776898384094238e-02 8.033830642700195312e+00 2.389107942581176758e+00 -3.142713606357574463e-01
2.140000000000000000e+03 7.147438049316406250e+01 -8.319094657897949219e+00 -6.263406574726104736e-02 8.171135902404785156e+00 2.432550668716430664e+00 -2.179802209138870239e-01
2.141000000000000000e+03 2.942362976074218750e+01 1.372955203056335449e+00 -1.539633721113204956e-01 5.380234718322753906e+00 1.567881345748901367e+00 5.428034663200378418e-01
2.142000000000000000e+03 2.854228210449218750e+01 4.850942134857177734e+00 -1.452986896038055420e-01 5.183583259582519531e+00 1.511485338211059570e+00 6.722082495689392090e-01
2.143000000000000000e+03 7.156435394287109375e+01 5.892223358154296875e+00 -8.173065632581710815e-02 7.827663898468017578e+00 2.323780059814453125e+00 -4.391621947288513184e-01
2.144000000000000000e+03 2.988477706909179688e+01 3.909247636795043945e+00 -2.010726779699325562e-01 5.420959472656250000e+00 1.565966010093688965e+00 6.629726886749267578e-01
2.145000000000000000e+03 2.479810905456542969e+01 -2.425649833679199219e+01 -4.194770380854606628e-02 5.077136516571044922e+00 1.510556697845458984e+00 1.693598628044128418e-01
2.146000000000000000e+03 7.013075828552246094e+00 2.635836029052734375e+01 2.099913777783513069e-03 1.338209840469062328e-04 6.701204110868275166e-04 4.916440811939537525e-04
2.147000000000000000e+03 1.028755569458007812e+01 -3.049437904357910156e+01 -1.080065034329891205e-02 -4.783077631145715714e-03 -4.675118252635002136e-03 3.361216513440012932e-03
2.148000000000000000e+03 7.198288726806640625e+01 -1.507723236083984375e+01 -4.296096041798591614e-02 8.294065475463867188e+00 2.475331306457519531e+00 -1.387923806905746460e-01
2.149000000000000000e+03 7.144416046142578125e+01 1.348298263549804688e+01 -5.653928965330123901e-02 7.538840293884277344e+00 2.244690418243408203e+00 -5.560610294342041016e-01
2.150000000000000000e+03 2.712911033630371094e+01 -2.789987373352050781e+01 1.939310878515243530e-02 5.205241203308105469e+00 1.567390322685241699e+00 1.337334811687469482e-01
2.151000000000000000e+03 2.848677825927734375e+01 -2.325657844543457031e+01 -7.075801491737365723e-02 5.341310977935791016e+00 1.581165790557861328e+00 1.357675194740295410e-01
2.152000000000000000e+03 8.252406120300292969e+00 -3.260900878906250000e+01 -2.256450802087783813e-02 6.349228322505950928e-03 -4.864583723247051239e-03 -5.831424146890640259e-03
2.153000000000000000e+03 2.623112678527832031e+01 -2.975541877746582031e+01 4.957256838679313660e-02 5.106028556823730469e+00 1.546680331230163574e+00 1.245088577270507812e-01
2.154000000000000000e+03 6.978890228271484375e+01 -2.140610694885253906e+01 -4.150699079036712646e-02 8.212561607360839844e+00 2.451316356658935547e+00 -1.070761159062385559e-01
2.155000000000000000e+03 7.236686706542968750e+01 -2.289277648925781250e+01 -2.560837008059024811e-02 8.399032592773437500e+00 2.512027502059936523e+00 -7.963406294584274292e-02
2.156000000000000000e+03 7.220958709716796875e+01 2.239673042297363281e+01 2.217901125550270081e-02 7.087668418884277344e+00 2.132954120635986328e+00 -5.639966130256652832e-01
2.157000000000000000e+03 4.026622772216796875e+01 3.173206138610839844e+01 2.366445302963256836e+00 1.079355716705322266e+01 3.948000669479370117e+00 -5.110698938369750977e-01
2.158000000000000000e+03 8.430950164794921875e+00 -2.737041473388671875e+01 2.513328334316611290e-03 1.486097811721265316e-03 1.199827878735959530e-03 1.513972179964184761e-03
2.159000000000000000e+03 7.036766052246093750e+00 -2.994361877441406250e+01 -1.572528481483459473e-02 2.724442631006240845e-03 -3.900252748280763626e-03 -5.476212594658136368e-03
2.160000000000000000e+03 6.965176391601562500e+01 -2.955979537963867188e+01 -3.578204289078712463e-02 8.243816375732421875e+00 2.462410449981689453e+00 -5.944046005606651306e-02
2.161000000000000000e+03 8.683854103088378906e+00 1.400276279449462891e+01 3.334125212859362364e-04 1.043697266140952706e-04 1.313346729148179293e-04 6.705097621306777000e-04
2.162000000000000000e+03 8.453588485717773438e+00 2.973810195922851562e+01 1.448512484785169363e-04 -1.795249176211655140e-03 -4.951193695887923241e-04 -1.233375980518758297e-03
2.163000000000000000e+03 9.567885398864746094e+00 -1.252938175201416016e+01 -1.855577342212200165e-03 -2.672156551852822304e-04 -6.368379108607769012e-04 -7.802404979884158820e-06
2.164000000000000000e+03 9.216751098632812500e+00 -1.506249618530273438e+01 -1.696099177934229374e-03 -9.000520803965628147e-04 -7.788453949615359306e-04 -8.830132719594985247e-05
2.165000000000000000e+03 6.934169769287109375e+01 2.685620117187500000e+01 1.284975558519363403e-01 7.131503582000732422e+00 2.178000450134277344e+00 -6.255643963813781738e-01
2.166000000000000000e+03 2.766510772705078125e+01 -1.325714302062988281e+01 -2.956036664545536041e-02 5.289373397827148438e+00 1.577943921089172363e+00 2.120927870273590088e-01
2.167000000000000000e+03 7.705789566040039062e+00 2.111392402648925781e+01 -2.052790077868849039e-04 -1.454871089663356543e-04 -1.052298321155831218e-04 -9.033031528815627098e-04
2.168000000000000000e+03 4.143708419799804688e+01 3.690659332275390625e+01 2.457854747772216797e+00 1.094642353057861328e+01 4.021283626556396484e+00 9.258556962013244629e-01
2.169000000000000000e+03 7.229652404785156250e+00 2.781631088256835938e+01 -1.152166980318725109e-03 -7.614532369188964367e-04 -5.740860942751169205e-04 -1.005283207632601261e-03
2.170000000000000000e+03 7.000955200195312500e+01 3.053651046752929688e+01 1.877100765705108643e-01 6.937923908233642578e+00 2.137690305709838867e+00 -5.024097561836242676e-01
2.171000000000000000e+03 9.577581405639648438e+00 1.706696128845214844e+01 6.730771274305880070e-04 2.685050712898373604e-04 2.824746479745954275e-04 2.866723807528614998e-04
2.172000000000000000e+03 7.823449611663818359e+00 2.355409240722656250e+01 -5.269233370199799538e-04 -3.013751411344856024e-04 -2.484895521774888039e-04 -3.107114025624468923e-05
2.173000000000000000e+03 9.449628829956054688e+00 -3.751194763183593750e+01 -3.606370836496353149e-02 4.607389494776725769e-02 3.003056626766920090e-03 -5.193184316158294678e-02
2.174000000000000000e+03 1.123378467559814453e+01 -3.755279922485351562e+01 -9.945920109748840332e-02 5.278899520635604858e-02 -1.400106120854616165e-02 -2.958302758634090424e-02
2.175000000000000000e+03 9.528940200805664062e+00 3.565292358398437500e+01 -1.437750062905251980e-03 -3.514092648401856422e-03 -1.485552871599793434e-03 -1.128046496887691319e-04
2.176000000000000000e+03 2.839779090881347656e+01 -3.600802230834960938e+01 -5.192556604743003845e-02 5.175024986267089844e+00 1.536929845809936523e+00 -7.047512382268905640e-02
2.177000000000000000e+03 2.646252632141113281e+01 -3.141278266906738281e+01 8.857936412096023560e-02 5.097621917724609375e+00 1.555860280990600586e+00 9.842707216739654541e-02
2.178000000000000000e+03 6.948614501953125000e+01 3.259095001220703125e+01 2.264706045389175415e-01 6.923832416534423828e+00 2.145090818405151367e+00 -4.567098021507263184e-01
2.179000000000000000e+03 7.702049255371093750e+00 3.602861022949218750e+01 4.752757493406534195e-03 -1.139623345807194710e-03 1.083940267562866211e-03 -6.065487395972013474e-04
2.180000000000000000e+03 3.017202758789062500e+01 3.140722274780273438e+01 2.243016481399536133e+00 2.332704544067382812e+00 1.372716307640075684e+00 2.256103038787841797e+00
2.181000000000000000e+03 3.205501937866210938e+01 3.170624923706054688e+01 2.850299358367919922e+00 5.032464504241943359e+00 2.364829063415527344e+00 4.196250438690185547e+00
2.182000000000000000e+03 3.157775306701660156e+01 3.262312316894531250e+01 3.356755971908569336e+00 2.694471120834350586e+00 1.815368175506591797e+00 3.274610042572021484e+00
2.183000000000000000e+03 2.779394531250000000e+01 2.967037200927734375e+01 1.267430067062377930e+00 1.737352371215820312e+00 9.014347195625305176e-01 1.275570988655090332e+00
2.184000000000000000e+03 2.709795951843261719e+01 2.794165611267089844e+01 8.875189423561096191e-01 2.082143306732177734e+00 8.908987045288085938e-01 1.350020885467529297e+00
2.185000000000000000e+03 3.484613800048828125e+01 3.019664764404296875e+01 4.317436516284942627e-01 1.129894447326660156e+01 3.519206523895263672e+00 2.597086668014526367e+00
2.186000000000000000e+03 2.964337539672851562e+01 3.112037277221679688e+01 1.977170467376708984e+00 2.059427976608276367e+00 1.210979580879211426e+00 1.913153648376464844e+00
2.187000000000000000e+03 2.709049987792968750e+01 2.710778999328613281e+01 7.225836515426635742e-01 2.354935169219970703e+00 9.232556819915771484e-01 1.431624412536621094e+00
2.188000000000000000e+03 2.808012962341308594e+01 2.650456428527832031e+01 6.675161719322204590e-01 3.166453123092651367e+00 1.150190711021423340e+00 1.793889641761779785e+00
2.189000000000000000e+03 3.160378074645996094e+01 3.136630249023437500e+01 2.624199390411376953e+00 4.347921371459960938e+00 2.091636180877685547e+00 3.665001630783081055e+00
2.190000000000000000e+03 3.054636001586914062e+01 3.127232933044433594e+01 2.350668430328369141e+00 2.828315734863281250e+00 1.553695201873779297e+00 2.641120672225952148e+00
2.191000000000000000e+03 9.375709533691406250e+00 7.001224040985107422e+00 -2.459060633555054665e-04 -2.604897017590701580e-04 -1.519187353551387787e-04 -1.506248663645237684e-04
2.192000000000000000e+03 9.789095878601074219e+00 6.153515338897705078e+00 3.114566206932067871e-04 2.426181745249778032e-04 1.662224385654553771e-04 3.225636028219014406e-04
2.193000000000000000e+03 7.064891815185546875e+01 -6.326657533645629883e-01 -9.204720705747604370e-02 7.992729187011718750e+00 2.370204448699951172e+00 -3.493072688579559326e-01
2.194000000000000000e+03 7.159822845458984375e+01 -1.883113980293273926e+00 -7.820948213338851929e-02 8.051079750061035156e+00 2.391860961914062500e+00 -3.081411123275756836e-01
2.195000000000000000e+03 7.027977752685546875e+01 -4.418237209320068359e+00 -8.845789730548858643e-02 8.055081367492675781e+00 2.389986991882324219e+00 -2.940237820148468018e-01
2.196000000000000000e+03 1.092288017272949219e+01 -5.270720958709716797e+00 -1.048664911650121212e-03 -2.486096927896142006e-04 -3.891823871526867151e-04 2.206021308666095138e-04
2.197000000000000000e+03 9.958074569702148438e+00 -5.981271266937255859e+00 5.878342199139297009e-04 -5.101379356347024441e-04 2.330889037693850696e-05 4.816487780772149563e-04
2.198000000000000000e+03 2.764352035522460938e+01 3.090821266174316406e+01 1.302787661552429199e+00 1.120085120201110840e+00 7.268618345260620117e-01 8.582823872566223145e-01
2.199000000000000000e+03 2.640989494323730469e+01 3.008776855468750000e+01 9.443493485450744629e-01 9.860559701919555664e-01 5.791215896606445312e-01 6.293159127235412598e-01
2.200000000000000000e+03 1.014094829559326172e+01 8.577837944030761719e+00 -5.508280009962618351e-04 -2.338347985642030835e-04 -2.353988384129479527e-04 -1.683465088717639446e-04
2.201000000000000000e+03 7.589218139648437500e+00 9.588780403137207031e+00 1.786835928214713931e-04 -4.311592201702296734e-04 -7.574268238386139274e-05 -4.771814565174281597e-05
2.202000000000000000e+03 2.726345634460449219e+01 2.864396858215332031e+01 1.040825963020324707e+00 1.878864765167236328e+00 8.759071826934814453e-01 1.291613459587097168e+00
2.203000000000000000e+03 2.762089157104492188e+01 2.522704696655273438e+01 3.875866234302520752e-01 3.214335441589355469e+00 1.080576658248901367e+00 1.681012988090515137e+00
2.204000000000000000e+03 7.152082824707031250e+01 -6.942002773284912109e+00 -6.490433961153030396e-02 8.149019241333007812e+00 2.425234556198120117e+00 -2.355037778615951538e-01
2.205000000000000000e+03 7.157241821289062500e+01 -4.303305625915527344e+00 -6.916912645101547241e-02 8.100375175476074219e+00 2.409361839294433594e+00 -2.706062495708465576e-01
2.206000000000000000e+03 7.018581390380859375e+01 4.556129932403564453e+00 -1.075993478298187256e-01 7.862773418426513672e+00 2.326552391052246094e+00 -4.550998508930206299e-01
2.207000000000000000e+03 7.751719474792480469e+00 -1.719166755676269531e+01 2.176001435145735741e-03 7.313055684790015221e-04 8.721921476535499096e-04 3.075486165471374989e-04
2.208000000000000000e+03 1.049028110504150391e+01 -8.983365058898925781e+00 9.468715288676321507e-04 5.182871245779097080e-04 4.395475843921303749e-04 -6.395556265488266945e-04
2.209000000000000000e+03 2.831256103515625000e+01 1.816088676452636719e+01 -2.802962660789489746e-01 4.535142421722412109e+00 1.276453852653503418e+00 1.457196831703186035e+00
2.210000000000000000e+03 2.920002174377441406e+01 2.182966804504394531e+01 -1.459811627864837646e-01 4.697858810424804688e+00 1.365563392639160156e+00 1.782411694526672363e+00
2.211000000000000000e+03 7.008865356445312500e+01 -1.134522151947021484e+01 -6.862793117761611938e-02 8.144505500793457031e+00 2.422763109207153320e+00 -2.003315836191177368e-01
2.212000000000000000e+03 7.016852569580078125e+01 -1.290418148040771484e+01 -6.681541353464126587e-02 8.163162231445312500e+00 2.428904294967651367e+00 -1.821021735668182373e-01
2.213000000000000000e+03 6.970156860351562500e+01 -2.351855278015136719e+01 -4.075818881392478943e-02 8.219805717468261719e+00 2.453714370727539062e+00 -9.497663378715515137e-02
2.214000000000000000e+03 6.817542266845703125e+01 -2.820822906494140625e+01 -4.562706500291824341e-02 8.126077651977539062e+00 2.424135208129882812e+00 -7.120335102081298828e-02
2.215000000000000000e+03 7.033544158935546875e+01 -1.834536170959472656e+01 -4.536616057157516479e-02 8.225002288818359375e+00 2.453891038894653320e+00 -1.262796521186828613e-01
2.216000000000000000e+03 7.043157958984375000e+01 -1.965986061096191406e+01 -4.188985377550125122e-02 8.239147186279296875e+00 2.459177017211914062e+00 -1.158018186688423157e-01
2.217000000000000000e+03 7.135249328613281250e+01 3.212248325347900391e+00 -8.562101423740386963e-02 7.910012245178222656e+00 2.347317457199096680e+00 -3.984305858612060547e-01
2.218000000000000000e+03 7.213349819183349609e+00 -7.205893039703369141e+00 3.177933976985514164e-04 -3.596010501496493816e-04 -1.254230028280289844e-05 -1.133590005338191986e-03
2.219000000000000000e+03 6.735233306884765625e+00 -8.975749015808105469e+00 1.351976650767028332e-03 4.162161785643547773e-04 5.304578808136284351e-04 1.843307109083980322e-05
2.220000000000000000e+03 7.061344146728515625e+01 1.190964412689208984e+01 -7.670981436967849731e-02 7.626447200775146484e+00 2.264921188354492188e+00 -5.681412816047668457e-01
2.221000000000000000e+03 7.171588897705078125e+01 8.582113265991210938e+00 -7.306428253650665283e-02 7.729673385620117188e+00 2.296982765197753906e+00 -4.774250090122222900e-01
2.222000000000000000e+03 7.022174072265625000e+01 -8.388974189758300781e+00 -7.870475202798843384e-02 8.112488746643066406e+00 2.410135030746459961e+00 -2.362493574619293213e-01
2.223000000000000000e+03 2.845653343200683594e+01 1.141182613372802734e+01 -2.694533467292785645e-01 4.961302757263183594e+00 1.407554864883422852e+00 1.033738255500793457e+00
2.224000000000000000e+03 2.831220245361328125e+01 1.552117156982421875e+01 -3.134912252426147461e-01 4.708969116210937500e+00 1.318643450736999512e+00 1.279173970222473145e+00
2.225000000000000000e+03 6.863869476318359375e+01 1.955517005920410156e+01 -7.209097500890493393e-03 7.441227436065673828e+00 2.230205535888671875e+00 -7.177997827529907227e-01
2.226000000000000000e+03 3.062383842468261719e+01 1.669222450256347656e+01 -4.720962345600128174e-01 5.503752708435058594e+00 1.509496927261352539e+00 1.425072312355041504e+00
2.227000000000000000e+03 3.648258972167968750e+01 3.049855232238769531e+01 7.298691868782043457e-01 1.232517528533935547e+01 3.916513204574584961e+00 8.134141564369201660e-01
2.228000000000000000e+03 3.693454360961914062e+01 3.098863983154296875e+01 1.292217135429382324e+00 1.270551395416259766e+01 4.199319362640380859e+00 2.561299204826354980e-01
2.229000000000000000e+03 3.747449493408203125e+01 3.058974647521972656e+01 1.119477748870849609e+00 1.225883293151855469e+01 4.013493061065673828e+00 1.027042269706726074e-01
2.230000000000000000e+03 4.120389556884765625e+01 3.165715026855468750e+01 2.115026950836181641e+00 1.053923511505126953e+01 3.796278715133666992e+00 -5.212416052818298340e-01
2.231000000000000000e+03 3.092175865173339844e+01 -9.066242575645446777e-01 -1.921634525060653687e-01 5.586510181427001953e+00 1.618304014205932617e+00 4.796744287014007568e-01
2.232000000000000000e+03 6.863204193115234375e+01 1.314656639099121094e+01 -9.685074537992477417e-02 7.644406318664550781e+00 2.264266729354858398e+00 -6.572939157485961914e-01
2.233000000000000000e+03 2.694059181213378906e+01 -7.119776725769042969e+00 -6.689874082803726196e-02 5.226701259613037109e+00 1.547940731048583984e+00 3.217110931873321533e-01
2.234000000000000000e+03 2.847792243957519531e+01 8.642637252807617188e+00 -2.089239060878753662e-01 5.061339855194091797e+00 1.455724835395812988e+00 8.764295578002929688e-01
2.235000000000000000e+03 3.090574455261230469e+01 1.142442989349365234e+01 -4.153520166873931885e-01 5.577672958374023438e+00 1.548696160316467285e+00 1.076400995254516602e+00
2.236000000000000000e+03 8.906091690063476562e+00 -2.086160659790039062e+01 -3.024918725714087486e-03 2.496736822649836540e-03 -1.584545534569770098e-04 3.042514203116297722e-03
2.237000000000000000e+03 9.205973625183105469e+00 -9.506494522094726562e+00 -3.394794766791164875e-04 -2.443538396619260311e-04 -1.751499949023127556e-04 -8.084388100542128086e-04
2.238000000000000000e+03 2.842233085632324219e+01 7.338092803955078125e+00 -1.783761382102966309e-01 5.099832534790039062e+00 1.476436972618103027e+00 8.084381818771362305e-01
2.239000000000000000e+03 2.979600524902343750e+01 8.569369316101074219e+00 -2.830545008182525635e-01 5.341465950012207031e+00 1.517523407936096191e+00 9.036811590194702148e-01
2.240000000000000000e+03 2.950757408142089844e+01 1.547898674011230469e+01 -3.925416171550750732e-01 5.122813701629638672e+00 1.419081687927246094e+00 1.326480627059936523e+00
2.241000000000000000e+03 8.685847282409667969e+00 -2.311727333068847656e+01 -3.963098395615816116e-03 -7.224992732517421246e-04 -1.405679271556437016e-03 4.217400273773819208e-04
2.242000000000000000e+03 7.866981029510498047e+00 -8.965065002441406250e+00 -1.431699725799262524e-03 -7.330376538448035717e-04 -6.494212429970502853e-04 -8.176547707989811897e-04
2.243000000000000000e+03 7.609953880310058594e+00 -1.062298583984375000e+01 5.450216121971607208e-04 1.666520984144881368e-04 2.135021059075370431e-04 3.694487386383116245e-04
2.244000000000000000e+03 7.345529556274414062e+00 -1.897858428955078125e+01 -3.421976580284535885e-04 -1.095015555620193481e-03 -4.311639640945941210e-04 -2.889520255848765373e-03
2.245000000000000000e+03 7.822183132171630859e+00 -2.043884849548339844e+01 2.924824599176645279e-03 -2.526894444599747658e-03 1.193790449178777635e-04 -3.341744421049952507e-03
2.246000000000000000e+03 2.937651824951171875e+01 -3.207061529159545898e+00 -1.382503807544708252e-01 5.434118270874023438e+00 1.588760375976562500e+00 4.018100202083587646e-01
2.247000000000000000e+03 7.988294124603271484e+00 -1.351035022735595703e+01 -1.674317987635731697e-03 -7.232007919810712337e-04 -7.192556513473391533e-04 -1.764260086929425597e-04
2.248000000000000000e+03 6.596742630004882812e+00 -1.474376583099365234e+01 -2.182708121836185455e-03 -6.707838620059192181e-04 -8.560475544072687626e-04 -7.174555794335901737e-04
2.249000000000000000e+03 2.961078262329101562e+01 2.573799514770507812e+01 4.558481872081756592e-01 4.436437129974365234e+00 1.467685580253601074e+00 2.158725261688232422e+00
2.250000000000000000e+03 7.472960948944091797e+00 -2.156628417968750000e+01 -3.188928589224815369e-03 1.258873817278072238e-04 -9.189123520627617836e-04 1.427368726581335068e-03
2.251000000000000000e+03 8.504333496093750000e+00 -2.451598548889160156e+01 3.666355041787028313e-03 -2.072752977255731821e-04 1.037723966874182224e-03 -1.421984779881313443e-04
2.252000000000000000e+03 6.812314605712890625e+01 2.589423179626464844e+01 1.303652971982955933e-01 7.241824150085449219e+00 2.211656808853149414e+00 -6.807746887207031250e-01
2.253000000000000000e+03 7.040527343750000000e+01 2.873896598815917969e+01 1.285077482461929321e-01 6.962934017181396484e+00 2.127432584762573242e+00 -5.366463661193847656e-01
2.254000000000000000e+03 9.182457923889160156e+00 9.768415451049804688e+00 -3.107434604316949844e-04 -2.965680323541164398e-04 -1.821934565668925643e-04 3.148309187963604927e-04
2.255000000000000000e+03 9.647338867187500000e+00 -2.609567260742187500e+01 3.417484927922487259e-03 1.200626487843692303e-03 1.385433482937514782e-03 1.404366106726229191e-03
2.256000000000000000e+03 3.012164497375488281e+01 -2.033484840393066406e+01 -8.223188668489456177e-02 5.481196403503417969e+00 1.619689345359802246e+00 1.428724229335784912e-01
2.257000000000000000e+03 2.880940246582031250e+01 -2.175881004333496094e+01 -6.589733064174652100e-02 5.369882583618164062e+00 1.591195583343505859e+00 1.452630162239074707e-01
2.258000000000000000e+03 7.094281768798828125e+01 6.063290238380432129e-01 -9.156487137079238892e-02 7.970747947692871094e+00 2.363754987716674805e+00 -3.649364411830902100e-01
2.259000000000000000e+03 2.980605697631835938e+01 -2.826193809509277344e+01 -3.391741309314966202e-03 5.382115364074707031e+00 1.613617181777954102e+00 9.901700168848037720e-02
2.260000000000000000e+03 2.995517158508300781e+01 -2.297178077697753906e+01 -7.692261785268783569e-02 5.471142768859863281e+00 1.618265986442565918e+00 1.419734358787536621e-01
2.261000000000000000e+03 6.882946014404296875e+01 -2.457386970520019531e+01 -4.449652507901191711e-02 8.170081138610839844e+00 2.437675237655639648e+00 -8.717189729213714600e-02
2.262000000000000000e+03 8.261396408081054688e+00 -1.220969963073730469e+01 1.776277902536094189e-03 1.427874394721584395e-05 5.371670122258365154e-04 5.218330261413939297e-05
2.263000000000000000e+03 7.030663299560546875e+01 5.877634525299072266e+00 -1.049970164895057678e-01 7.827179908752441406e+00 2.316654920578002930e+00 -4.773585796356201172e-01
2.264000000000000000e+03 8.198945999145507812e+00 1.494494247436523438e+01 -8.595108520239591599e-04 -3.208322450518608093e-04 -3.541029291227459908e-04 -3.030180814675986767e-04
2.265000000000000000e+03 8.150435447692871094e+00 -3.036073875427246094e+01 -6.577551830559968948e-03 6.880122818984091282e-04 -1.766861882060766220e-03 2.277403604239225388e-03
2.266000000000000000e+03 2.956096649169921875e+01 6.205633640289306641e+00 -2.149803340435028076e-01 5.326300144195556641e+00 1.533396005630493164e+00 7.613446116447448730e-01
2.267000000000000000e+03 4.193758392333984375e+01 3.001132011413574219e+01 1.355336546897888184e+00 1.017261981964111328e+01 3.458386898040771484e+00 -6.712950468063354492e-01
2.268000000000000000e+03 4.375115203857421875e+01 3.117031669616699219e+01 1.685023665428161621e+00 9.730404853820800781e+00 3.424628496170043945e+00 -6.431581974029541016e-01
2.269000000000000000e+03 6.981096649169921875e+01 1.399343204498291016e+01 -7.039507478475570679e-02 7.568769454956054688e+00 2.249512434005737305e+00 -6.288922429084777832e-01
2.270000000000000000e+03 2.662584877014160156e+01 -2.457933235168457031e+01 -5.357633531093597412e-02 5.185495376586914062e+00 1.539575695991516113e+00 1.413358151912689209e-01
2.271000000000000000e+03 6.930397033691406250e+01 2.098540115356445312e+01 1.373617351055145264e-02 7.344267368316650391e+00 2.207401037216186523e+00 -6.860400438308715820e-01
2.272000000000000000e+03 2.869012451171875000e+01 3.659700155258178711e+00 -1.376240402460098267e-01 5.234764575958251953e+00 1.529142260551452637e+00 6.268068552017211914e-01
2.273000000000000000e+03 9.653756141662597656e+00 -2.749119377136230469e+01 -6.883252412080764771e-03 -4.115993157029151917e-03 -3.299773670732975006e-03 -1.085565541870892048e-03
2.274000000000000000e+03 2.956789016723632812e+01 1.415705204010009766e+01 -3.844792246818542480e-01 5.173660278320312500e+00 1.436754345893859863e+00 1.240970849990844727e+00
2.275000000000000000e+03 9.662457466125488281e+00 3.156381607055664062e+01 -2.891934243962168694e-03 -4.549761943053454161e-04 -1.004073070362210274e-03 -8.182778401533141732e-05
2.276000000000000000e+03 6.864381408691406250e+01 2.331219100952148438e+01 6.491404026746749878e-02 7.296432495117187500e+00 2.208404064178466797e+00 -6.970477104187011719e-01
2.277000000000000000e+03 7.090208435058593750e+01 2.346529769897460938e+01 4.791926220059394836e-02 7.142536640167236328e+00 2.157136678695678711e+00 -6.130247116088867188e-01
2.278000000000000000e+03 7.066573333740234375e+01 -2.260778427124023438e+01 -3.944415599107742310e-02 8.273791313171386719e+00 2.470304250717163086e+00 -9.416867047548294067e-02
2.279000000000000000e+03 2.895833969116210938e+01 2.499284982681274414e+00 -1.478977948427200317e-01 5.316502094268798828e+00 1.550581216812133789e+00 5.816563367843627930e-01
2.280000000000000000e+03 3.003460121154785156e+01 2.921077489852905273e+00 -1.886946409940719604e-01 5.438817501068115234e+00 1.575036883354187012e+00 6.098408699035644531e-01
2.281000000000000000e+03 7.097025299072265625e+01 -2.072326469421386719e+01 -3.477882593870162964e-02 8.289717674255371094e+00 2.476481437683105469e+00 -1.028938069939613342e-01
2.282000000000000000e+03 9.055464744567871094e+00 1.243854618072509766e+01 -6.967104272916913033e-04 3.508387017063796520e-04 -1.037615074892528355e-04 5.746015231125056744e-04
2.283000000000000000e+03 2.938902473449707031e+01 -1.434130096435546875e+01 -6.346727162599563599e-02 5.435323715209960938e+00 1.611557006835937500e+00 1.933015882968902588e-01
2.284000000000000000e+03 6.894836425781250000e+01 -1.490501499176025391e+01 -6.894209235906600952e-02 8.117167472839355469e+00 2.414467573165893555e+00 -1.702025383710861206e-01
2.285000000000000000e+03 6.789881896972656250e+01 1.811869621276855469e+01 -3.698509186506271362e-02 7.523313045501708984e+00 2.245898485183715820e+00 -7.344415783882141113e-01
2.286000000000000000e+03 6.922004699707031250e+01 1.505989646911621094e+01 -7.038257271051406860e-02 7.565653324127197266e+00 2.248581171035766602e+00 -6.648952960968017578e-01
2.287000000000000000e+03 7.170665740966796875e+01 -1.395719528198242188e+01 -4.361185058951377869e-02 8.269640922546386719e+00 2.467808485031127930e+00 -1.501964330673217773e-01
2.288000000000000000e+03 7.038865661621093750e+01 -1.446305561065673828e+01 -5.646804347634315491e-02 8.194940567016601562e+00 2.441541671752929688e+00 -1.618421822786331177e-01
2.289000000000000000e+03 6.915516662597656250e+01 -2.698165321350097656e+01 -3.808855637907981873e-02 8.195980072021484375e+00 2.447367429733276367e+00 -7.747715711593627930e-02
2.290000000000000000e+03 7.082932281494140625e+01 1.088307571411132812e+01 -7.624790072441101074e-02 7.651818275451660156e+00 2.272671222686767578e+00 -5.450202822685241699e-01
2.291000000000000000e+03 3.056335067749023438e+01 1.985923528671264648e+00 -2.044226974248886108e-01 5.525022029876708984e+00 1.596179723739624023e+00 5.805863142013549805e-01
2.292000000000000000e+03 3.083587837219238281e+01 3.584785461425781250e+00 -2.408581078052520752e-01 5.559751033782958984e+00 1.595667839050292969e+00 6.555480360984802246e-01
2.293000000000000000e+03 2.987642669677734375e+01 2.028530311584472656e+01 -3.079893887042999268e-01 5.151334285736083984e+00 1.453003525733947754e+00 1.704697489738464355e+00
2.294000000000000000e+03 3.028393173217773438e+01 2.127595710754394531e+01 -2.762419879436492920e-01 5.310066223144531250e+00 1.510147333145141602e+00 1.812852501869201660e+00
2.295000000000000000e+03 6.899430847167968750e+01 -3.374597930908203125e+01 -2.894279174506664276e-02 8.205078125000000000e+00 2.452840566635131836e+00 -4.180904477834701538e-02
2.296000000000000000e+03 2.633712005615234375e+01 -2.600544166564941406e+01 -1.381144486367702484e-02 5.169781684875488281e+00 1.546790957450866699e+00 1.640354841947555542e-01
2.297000000000000000e+03 8.385876655578613281e+00 2.195616531372070312e+01 -2.643505285959690809e-04 4.492383159231394529e-04 5.546634201891720295e-05 8.027587900869548321e-04
2.298000000000000000e+03 7.776906967163085938e+00 -3.668611907958984375e+01 -1.261088810861110687e-02 2.458096109330654144e-02 3.591021988540887833e-03 -2.715885825455188751e-02
2.299000000000000000e+03 6.691565036773681641e+00 -3.846255874633789062e+01 1.020064856857061386e-02 -2.415611175820231438e-03 2.335511147975921631e-03 -4.077249392867088318e-02
2.300000000000000000e+03 4.234790420532226562e+01 3.347842788696289062e+01 2.545842647552490234e+00 1.020811748504638672e+01 3.826188087463378906e+00 -1.407234668731689453e-01
2.301000000000000000e+03 7.027642059326171875e+01 -7.019874095916748047e+00 -8.166974782943725586e-02 8.095919609069824219e+00 2.404274940490722656e+00 -2.543404698371887207e-01
2.302000000000000000e+03 3.133561134338378906e+01 3.178348922729492188e+01 2.813189983367919922e+00 3.382292032241821289e+00 1.858644604682922363e+00 3.290396213531494141e+00
2.303000000000000000e+03 3.273910140991210938e+01 3.157287788391113281e+01 2.328053236007690430e+00 7.176132678985595703e+00 2.851255893707275391e+00 4.524554729461669922e+00
2.304000000000000000e+03 3.341711425781250000e+01 3.058628845214843750e+01 1.243836164474487305e+00 8.926272392272949219e+00 3.051032543182373047e+00 3.954653263092041016e+00
2.305000000000000000e+03 3.514635848999023438e+01 3.049536705017089844e+01 5.130125880241394043e-01 1.199743366241455078e+01 3.753133773803710938e+00 2.261209726333618164e+00
2.306000000000000000e+03 3.071933364868164062e+01 3.054358482360839844e+01 2.083081722259521484e+00 3.547742605209350586e+00 1.689247250556945801e+00 2.853980541229248047e+00
2.307000000000000000e+03 2.862123680114746094e+01 3.003260612487792969e+01 1.530461430549621582e+00 2.012182474136352539e+00 1.062793135643005371e+00 1.591453433036804199e+00
2.308000000000000000e+03 3.093787765502929688e+01 3.138461875915527344e+01 2.491287708282470703e+00 3.164848804473876953e+00 1.696841001510620117e+00 2.934092521667480469e+00
2.309000000000000000e+03 2.914612007141113281e+01 3.004175186157226562e+01 1.636472344398498535e+00 2.420528650283813477e+00 1.217100262641906738e+00 1.895147800445556641e+00
2.310000000000000000e+03 2.999048614501953125e+01 3.101127052307128906e+01 2.100325584411621094e+00 2.457699298858642578e+00 1.367407441139221191e+00 2.248199939727783203e+00
2.311000000000000000e+03 3.295909500122070312e+01 3.072487258911132812e+01 1.607076764106750488e+00 7.790439605712890625e+00 2.819254875183105469e+00 4.068579196929931641e+00
2.312000000000000000e+03 3.352569580078125000e+01 3.105554962158203125e+01 1.452176213264465332e+00 9.423724174499511719e+00 3.262770175933837891e+00 4.275604724884033203e+00
2.313000000000000000e+03 2.751667976379394531e+01 2.921801185607910156e+01 1.145301342010498047e+00 1.789044857025146484e+00 8.803038597106933594e-01 1.270622730255126953e+00
2.314000000000000000e+03 2.793414878845214844e+01 3.038171577453613281e+01 1.385051846504211426e+00 1.456783890724182129e+00 8.525507450103759766e-01 1.151150584220886230e+00
2.315000000000000000e+03 3.251356124877929688e+01 3.021592903137207031e+01 1.491434454917907715e+00 6.922259330749511719e+00 2.524108171463012695e+00 3.783317804336547852e+00
2.316000000000000000e+03 3.034817504882812500e+01 3.081447219848632812e+01 2.153568267822265625e+00 2.950409650802612305e+00 1.531193375587463379e+00 2.579964160919189453e+00
2.317000000000000000e+03 8.787338256835937500e+00 -8.702425956726074219e+00 1.080771791748702526e-03 9.713973267935216427e-04 6.156507297419011593e-04 7.024850929155945778e-04
2.318000000000000000e+03 8.687249183654785156e+00 -7.733391284942626953e+00 -1.361943315714597702e-03 -5.969614721834659576e-04 -5.876714130863547325e-04 -2.821658563334494829e-04
2.319000000000000000e+03 2.726160812377929688e+01 2.618620491027832031e+01 5.660204887390136719e-01 2.710485696792602539e+00 9.829518198966979980e-01 1.548769354820251465e+00
2.320000000000000000e+03 8.313666343688964844e+00 9.937799453735351562e+00 8.099448750726878643e-04 1.233119692187756300e-04 2.799770445562899113e-04 -5.569840141106396914e-05
2.321000000000000000e+03 9.968659400939941406e+00 -7.006570816040039062e+00 3.812302020378410816e-04 -6.273545441217720509e-04 -7.383731281151995063e-05 3.408814081922173500e-04
2.322000000000000000e+03 3.578580093383789062e+01 3.036761283874511719e+01 4.997756481170654297e-01 1.211644840240478516e+01 3.784867048263549805e+00 1.537043333053588867e+00
2.323000000000000000e+03 6.908032989501953125e+01 5.871879100799560547e+00 -1.293064802885055542e-01 7.828967094421386719e+00 2.309898138046264648e+00 -5.082883238792419434e-01
2.324000000000000000e+03 6.981974792480468750e+01 1.988199949264526367e+00 -1.126519218087196350e-01 7.919201850891113281e+00 2.341964960098266602e+00 -4.152899980545043945e-01
2.325000000000000000e+03 2.898279762268066406e+01 2.503023719787597656e+01 3.397960066795349121e-01 4.107406616210937500e+00 1.334160685539245605e+00 1.996956825256347656e+00
2.326000000000000000e+03 2.812978553771972656e+01 2.900636863708496094e+01 1.252920389175415039e+00 2.260633945465087891e+00 1.054066300392150879e+00 1.608334064483642578e+00
2.327000000000000000e+03 6.873423767089843750e+01 -1.149071598052978516e+01 -8.737877756357192993e-02 8.074992179870605469e+00 2.396283864974975586e+00 -2.122546136379241943e-01
2.328000000000000000e+03 6.882807159423828125e+01 -1.318453216552734375e+01 -7.908289134502410889e-02 8.095403671264648438e+00 2.404896259307861328e+00 -1.889997869729995728e-01
2.329000000000000000e+03 1.066126823425292969e+01 -7.981184959411621094e+00 -8.559988928027451038e-04 -7.576114148832857609e-04 -4.840831097681075335e-04 2.700347686186432838e-04
2.330000000000000000e+03 6.963372802734375000e+01 1.143622112274169922e+01 -9.503857791423797607e-02 7.666365146636962891e+00 2.271398067474365234e+00 -5.960001945495605469e-01
2.331000000000000000e+03 3.066516876220703125e+01 1.890652847290039062e+01 -4.351853728294372559e-01 5.552404403686523438e+00 1.535165786743164062e+00 1.607922077178955078e+00
2.332000000000000000e+03 2.946315002441406250e+01 1.799115180969238281e+01 -3.664239943027496338e-01 5.037769317626953125e+00 1.401403546333312988e+00 1.512420892715454102e+00
2.333000000000000000e+03 3.699025344848632812e+01 3.038055229187011719e+01 8.001605272293090820e-01 1.212210559844970703e+01 3.876679897308349609e+00 4.758065640926361084e-01
2.334000000000000000e+03 3.644504165649414062e+01 3.009757614135742188e+01 5.345980525016784668e-01 1.197155761718750000e+01 3.751846790313720703e+00 9.362189173698425293e-01
2.335000000000000000e+03 3.051917648315429688e+01 -3.639525175094604492e+00 -1.596062630414962769e-01 5.549259662628173828e+00 1.616896033287048340e+00 4.037087857723236084e-01
2.336000000000000000e+03 5.866944313049316406e+00 6.960899353027343750e+00 -5.734941169066587463e-06 1.360260939691215754e-04 3.908734652213752270e-05 -2.052450872724875808e-04
2.337000000000000000e+03 6.891083526611328125e+01 -1.843958282470703125e+01 -5.928051844239234924e-02 8.142421722412109375e+00 2.424942493438720703e+00 -1.365609318017959595e-01
2.338000000000000000e+03 6.849638366699218750e+01 -2.222991943359375000e+01 -5.103868618607521057e-02 8.132174491882324219e+00 2.424340963363647461e+00 -1.083366870880126953e-01
2.339000000000000000e+03 3.099464797973632812e+01 1.003683662414550781e+01 -3.859651386737823486e-01 5.585047721862792969e+00 1.559724807739257812e+00 9.946145415306091309e-01
2.340000000000000000e+03 2.945755577087402344e+01 1.675452995300292969e+01 -3.874274790287017822e-01 5.068881511688232422e+00 1.404436230659484863e+00 1.417151570320129395e+00
2.341000000000000000e+03 2.974511337280273438e+01 1.000446987152099609e+01 -3.140445947647094727e-01 5.311384201049804688e+00 1.499201893806457520e+00 9.876689910888671875e-01
2.342000000000000000e+03 2.901158142089843750e+01 -1.146189785003662109e+01 -6.194906309247016907e-02 5.403128147125244141e+00 1.602353692054748535e+00 2.468514591455459595e-01
2.343000000000000000e+03 6.790840911865234375e+01 -2.571440505981445312e+01 -4.061444103717803955e-02 8.100839614868164062e+00 2.418067693710327148e+00 -8.412097394466400146e-02
2.344000000000000000e+03 6.680690765380859375e+01 -2.451420783996582031e+01 -5.822677537798881531e-02 8.025012969970703125e+00 2.390035867691040039e+00 -9.917261451482772827e-02
2.345000000000000000e+03 6.708145904541015625e+01 2.042605209350585938e+01 7.575479801744222641e-03 7.503991127014160156e+00 2.253469944000244141e+00 -7.671019434928894043e-01
2.346000000000000000e+03 8.264716148376464844e+00 1.860127258300781250e+01 9.443715680390596390e-04 6.107569206506013870e-04 4.665385640691965818e-04 5.611805245280265808e-04
2.347000000000000000e+03 6.913899993896484375e+01 8.583099365234375000e+00 -1.183756589889526367e-01 7.757227897644042969e+00 2.291655778884887695e+00 -5.635747909545898438e-01
2.348000000000000000e+03 7.069618988037109375e+01 9.862088203430175781e+00 -8.590749651193618774e-02 7.696139335632324219e+00 2.283069610595703125e+00 -5.379016399383544922e-01
2.349000000000000000e+03 6.749603271484375000e+01 1.488331031799316406e+01 -9.376709908246994019e-02 7.639357089996337891e+00 2.263677120208740234e+00 -7.134413719177246094e-01
2.350000000000000000e+03 2.901439666748046875e+01 2.853124427795410156e+01 1.208997249603271484e+00 3.119871377944946289e+00 1.298660635948181152e+00 2.022942543029785156e+00
2.351000000000000000e+03 6.882682800292968750e+01 -9.851887702941894531e+00 -9.030731767416000366e-02 8.064976692199707031e+00 2.392400741577148438e+00 -2.326025962829589844e-01
2.352000000000000000e+03 7.163287353515625000e+01 7.252935409545898438e+00 -7.854884862899780273e-02 7.779168128967285156e+00 2.310185909271240234e+00 -4.603559374809265137e-01
2.353000000000000000e+03 2.821755218505859375e+01 -5.652825832366943359e+00 -1.051960736513137817e-01 5.339023590087890625e+00 1.570148229598999023e+00 3.579567670822143555e-01
2.354000000000000000e+03 3.109216690063476562e+01 -1.553561973571777344e+01 -8.801385015249252319e-02 5.574182987213134766e+00 1.645850658416748047e+00 1.757629811763763428e-01
2.355000000000000000e+03 2.965360450744628906e+01 -1.754389572143554688e+01 -7.638520002365112305e-02 5.458920955657958984e+00 1.614760637283325195e+00 1.497625708580017090e-01
2.356000000000000000e+03 2.962774276733398438e+01 7.293618679046630859e+00 -2.447898983955383301e-01 5.335411548614501953e+00 1.527186512947082520e+00 8.291237354278564453e-01
2.357000000000000000e+03 3.112880325317382812e+01 8.628882408142089844e+00 -3.567353188991546631e-01 5.609802722930908203e+00 1.575920224189758301e+00 9.100054502487182617e-01
2.358000000000000000e+03 3.084091567993164062e+01 1.279378604888916016e+01 -4.465258419513702393e-01 5.568752288818359375e+00 1.536667943000793457e+00 1.163322091102600098e+00
2.359000000000000000e+03 3.072467041015625000e+01 1.545086669921875000e+01 -4.752114117145538330e-01 5.528751850128173828e+00 1.516062140464782715e+00 1.344051003456115723e+00
2.360000000000000000e+03 6.681941986083984375e+01 -2.688193893432617188e+01 -4.950031265616416931e-02 8.035693168640136719e+00 2.395858049392700195e+00 -8.546372503042221069e-02
2.361000000000000000e+03 3.172442817687988281e+01 4.395238876342773438e+00 -2.894532084465026855e-01 5.693060874938964844e+00 1.621082305908203125e+00 6.851177215576171875e-01
2.362000000000000000e+03 3.218047714233398438e+01 6.134320259094238281e+00 -3.530316352844238281e-01 5.812317371368408203e+00 1.637785673141479492e+00 7.618699073791503906e-01
2.363000000000000000e+03 3.106861686706542969e+01 5.500483512878417969e+00 -2.833391427993774414e-01 5.610187530517578125e+00 1.598054528236389160e+00 7.428336739540100098e-01
2.364000000000000000e+03 7.027956390380859375e+01 -5.704513072967529297e+00 -8.548610657453536987e-02 8.077191352844238281e+00 2.397511720657348633e+00 -2.737936675548553467e-01
2.365000000000000000e+03 3.865400695800781250e+01 3.052165031433105469e+01 1.421193122863769531e+00 1.154645252227783203e+01 3.890293598175048828e+00 -3.573689460754394531e-01
2.366000000000000000e+03 7.006481170654296875e+01 2.227516174316406250e+01 3.128143399953842163e-02 7.238399982452392578e+00 2.180904388427734375e+00 -6.509878039360046387e-01
2.367000000000000000e+03 7.066642761230468750e+01 2.022132873535156250e+01 2.579870866611599922e-03 7.292758464813232422e+00 2.188601493835449219e+00 -6.359818577766418457e-01
2.368000000000000000e+03 3.091872406005859375e+01 -1.394197654724121094e+01 -8.528345823287963867e-02 5.567199707031250000e+00 1.644574880599975586e+00 2.071160376071929932e-01
2.369000000000000000e+03 2.954501724243164062e+01 -1.589289379119873047e+01 -6.327929347753524780e-02 5.456528186798095703e+00 1.617974638938903809e+00 1.748426407575607300e-01
2.370000000000000000e+03 2.787391662597656250e+01 -7.686506271362304688e+00 -7.530026882886886597e-02 5.306983470916748047e+00 1.569504976272583008e+00 3.260227739810943604e-01
2.371000000000000000e+03 2.898728561401367188e+01 -6.866436481475830078e+00 -1.040083020925521851e-01 5.412388801574707031e+00 1.592514157295227051e+00 3.329890668392181396e-01
2.372000000000000000e+03 4.302374267578125000e+01 2.940462112426757812e+01 1.123953223228454590e+00 9.887367248535156250e+00 3.303396224975585938e+00 -7.056344747543334961e-01
2.373000000000000000e+03 2.982503509521484375e+01 2.280232048034667969e+01 -9.936717897653579712e-02 4.932510852813720703e+00 1.449943184852600098e+00 1.915021181106567383e+00
2.374000000000000000e+03 3.236822509765625000e+01 3.445589542388916016e+00 -3.041715323925018311e-01 5.790963649749755859e+00 1.646037578582763672e+00 6.419199109077453613e-01
2.375000000000000000e+03 3.093661308288574219e+01 -3.052112579345703125e+01 -2.195844054222106934e-02 5.464404582977294922e+00 1.632733941078186035e+00 5.006615445017814636e-02
2.376000000000000000e+03 6.933467864990234375e+01 -5.632547140121459961e-01 -1.169391721487045288e-01 7.961828231811523438e+00 2.353466749191284180e+00 -3.770795762538909912e-01
2.377000000000000000e+03 2.862978363037109375e+01 -2.501888847351074219e+01 -3.883442282676696777e-02 5.350488185882568359e+00 1.593496203422546387e+00 1.403753012418746948e-01
2.378000000000000000e+03 3.185014724731445312e+01 -2.706246948242187500e+01 -4.900023713707923889e-02 5.567383289337158203e+00 1.655514836311340332e+00 8.630461990833282471e-02
2.379000000000000000e+03 6.634143829345703125e+01 -3.084661293029785156e+01 -4.796273633837699890e-02 8.016051292419433594e+00 2.390426635742187500e+00 -5.843927338719367981e-02
2.380000000000000000e+03 6.630971527099609375e+01 -3.253266906738281250e+01 -4.712189733982086182e-02 8.016317367553710938e+00 2.390758514404296875e+00 -4.869941249489784241e-02
2.381000000000000000e+03 4.434543609619140625e+01 3.353433227539062500e+01 2.123431444168090820e+00 9.710276603698730469e+00 3.550112485885620117e+00 -2.544703483581542969e-01
2.382000000000000000e+03 7.815669059753417969e+00 3.424570083618164062e+01 -2.001199638471007347e-03 -1.425903406925499439e-03 -1.028130878694355488e-03 -2.558294916525483131e-03
2.383000000000000000e+03 3.425639724731445312e+01 2.933484458923339844e+01 3.411668241024017334e-01 9.783403396606445312e+00 3.037371158599853516e+00 2.876968383789062500e+00
2.384000000000000000e+03 3.413117218017578125e+01 3.022081375122070312e+01 6.734524965286254883e-01 1.026360511779785156e+01 3.281117439270019531e+00 3.364034414291381836e+00
2.385000000000000000e+03 2.964377212524414062e+01 2.990122604370117188e+01 1.686026573181152344e+00 2.864804506301879883e+00 1.365249276161193848e+00 2.206415176391601562e+00
2.386000000000000000e+03 3.184466743469238281e+01 3.094856071472167969e+01 2.245679378509521484e+00 5.186792850494384766e+00 2.229741573333740234e+00 3.796890974044799805e+00
2.387000000000000000e+03 2.863442230224609375e+01 2.952949142456054688e+01 1.420557856559753418e+00 2.262961149215698242e+00 1.105055689811706543e+00 1.707396984100341797e+00
2.388000000000000000e+03 3.213628768920898438e+01 2.980369758605957031e+01 1.416776061058044434e+00 6.434994220733642578e+00 2.355531215667724609e+00 3.587638139724731445e+00
2.389000000000000000e+03 3.114891624450683594e+01 3.098461151123046875e+01 2.343195438385009766e+00 3.824845790863037109e+00 1.850412368774414062e+00 3.203444719314575195e+00
2.390000000000000000e+03 2.794975090026855469e+01 2.846663284301757812e+01 1.109853625297546387e+00 2.395186662673950195e+00 1.051512122154235840e+00 1.619294166564941406e+00
2.391000000000000000e+03 3.574090194702148438e+01 2.957964706420898438e+01 1.822583973407745361e-01 1.134701633453369141e+01 3.458782434463500977e+00 1.658600211143493652e+00
2.392000000000000000e+03 3.103766632080078125e+01 3.019052505493164062e+01 1.909729361534118652e+00 4.282388210296630859e+00 1.857635259628295898e+00 3.107312440872192383e+00
2.393000000000000000e+03 2.788422966003417969e+01 2.724603462219238281e+01 8.336849212646484375e-01 2.746774673461914062e+00 1.074137926101684570e+00 1.668238162994384766e+00
2.394000000000000000e+03 2.845081901550292969e+01 2.575211906433105469e+01 4.901757240295410156e-01 3.632077455520629883e+00 1.236675977706909180e+00 1.891410827636718750e+00
2.395000000000000000e+03 3.596288681030273438e+01 2.913946914672851562e+01 5.857480689883232117e-02 1.116040706634521484e+01 3.365694522857666016e+00 1.499002337455749512e+00
2.396000000000000000e+03 3.525426483154296875e+01 3.003260421752929688e+01 3.400996923446655273e-01 1.147650432586669922e+01 3.544981241226196289e+00 2.094273090362548828e+00
2.397000000000000000e+03 3.020754051208496094e+01 2.522733116149902344e+01 2.725717127323150635e-01 4.999145030975341797e+00 1.581514954566955566e+00 2.209123611450195312e+00
2.398000000000000000e+03 2.843851089477539062e+01 2.810011482238769531e+01 1.046308875083923340e+00 2.842991828918457031e+00 1.166790246963500977e+00 1.828714251518249512e+00
2.399000000000000000e+03 2.859166908264160156e+01 2.747144126892089844e+01 9.431232810020446777e-01 3.188354492187500000e+00 1.239443302154541016e+00 1.951043486595153809e+00
2.400000000000000000e+03 3.158243179321289062e+01 -3.605676889419555664e+00 -1.924040019512176514e-01 5.672768115997314453e+00 1.644109249114990234e+00 4.009814262390136719e-01
2.401000000000000000e+03 3.033972549438476562e+01 -4.909319400787353516e+00 -1.463725417852401733e-01 5.527286052703857422e+00 1.614274144172668457e+00 3.728881776332855225e-01
2.402000000000000000e+03 6.732377624511718750e+01 1.253692626953125000e+01 -1.237654611468315125e-01 7.702121734619140625e+00 2.273506879806518555e+00 -6.803833842277526855e-01
2.403000000000000000e+03 6.747695922851562500e+01 1.110731792449951172e+01 -1.345132887363433838e-01 7.729839801788330078e+00 2.278598070144653320e+00 -6.510055661201477051e-01
2.404000000000000000e+03 3.180351638793945312e+01 1.674587059020996094e+01 -5.582224130630493164e-01 5.943062305450439453e+00 1.615451931953430176e+00 1.412152647972106934e+00
2.405000000000000000e+03 3.159495162963867188e+01 1.862221145629882812e+01 -5.229867696762084961e-01 5.937408924102783203e+00 1.624326705932617188e+00 1.565479040145874023e+00
2.406000000000000000e+03 3.223260116577148438e+01 1.011333465576171875e+01 -4.584681093692779541e-01 5.877339839935302734e+00 1.625661492347717285e+00 9.722384214401245117e-01
2.407000000000000000e+03 3.199800682067871094e+01 1.546633720397949219e+01 -5.656934380531311035e-01 5.968784332275390625e+00 1.620927333831787109e+00 1.322171926498413086e+00
2.408000000000000000e+03 6.565188598632812500e+01 1.737685585021972656e+01 -7.090831547975540161e-02 7.664098262786865234e+00 2.277956962585449219e+00 -7.880111932754516602e-01
2.409000000000000000e+03 6.831801605224609375e+01 1.598901081085205078e+01 -6.957009434700012207e-02 7.575575351715087891e+00 2.251801729202270508e+00 -7.019104957580566406e-01
2.410000000000000000e+03 6.901158142089843750e+01 -5.854472160339355469e+00 -1.034711375832557678e-01 8.030180931091308594e+00 2.378013134002685547e+00 -2.894289791584014893e-01
2.411000000000000000e+03 6.908998107910156250e+01 -7.111539363861083984e+00 -1.001867055892944336e-01 8.049415588378906250e+00 2.384768724441528320e+00 -2.688888311386108398e-01
2.412000000000000000e+03 3.240626525878906250e+01 8.833786964416503906e+00 -4.321980178356170654e-01 5.879979133605957031e+00 1.634334325790405273e+00 9.027959704399108887e-01
2.413000000000000000e+03 3.097041893005371094e+01 1.987119674682617188e+01 -4.240810275077819824e-01 5.686171531677246094e+00 1.578627109527587891e+00 1.691628694534301758e+00
2.414000000000000000e+03 3.178495025634765625e+01 2.161873245239257812e+01 -4.068201780319213867e-01 6.122206687927246094e+00 1.714615941047668457e+00 1.834382891654968262e+00
2.415000000000000000e+03 3.013894653320312500e+01 2.811394309997558594e+01 1.068485021591186523e+00 4.232897758483886719e+00 1.590414881706237793e+00 2.488037347793579102e+00
2.416000000000000000e+03 8.602954864501953125e+00 2.020103073120117188e+01 4.606308357324451208e-04 2.905505825765430927e-04 2.253544225823134184e-04 7.584497798234224319e-04
2.417000000000000000e+03 7.782028198242187500e+00 1.953791999816894531e+01 -6.629354320466518402e-04 1.528679240436758846e-05 -1.942945964401587844e-04 -7.897167233750224113e-04
2.418000000000000000e+03 6.134170532226562500e+01 -2.081458473205566406e+01 -1.150260940194129944e-01 7.688909053802490234e+00 2.272164821624755859e+00 -1.225402653217315674e-01
2.419000000000000000e+03 6.915885925292968750e+01 7.196752071380615234e+00 -1.246820017695426941e-01 7.796416759490966797e+00 2.301520347595214844e+00 -5.336648225784301758e-01
2.420000000000000000e+03 3.078727340698242188e+01 1.413996410369873047e+01 -4.646282196044921875e-01 5.558928012847900391e+00 1.528289914131164551e+00 1.256422400474548340e+00
2.421000000000000000e+03 4.090364837646484375e+01 3.043208122253417969e+01 1.510509014129638672e+00 1.051764488220214844e+01 3.608446359634399414e+00 -6.434635519981384277e-01
2.422000000000000000e+03 3.200517654418945312e+01 1.940619087219238281e+01 -5.320348739624023438e-01 6.148612499237060547e+00 1.684973359107971191e+00 1.616155028343200684e+00
2.423000000000000000e+03 3.152082252502441406e+01 7.297105789184570312e+00 -3.450543582439422607e-01 5.682712554931640625e+00 1.601297497749328613e+00 8.336254358291625977e-01
2.424000000000000000e+03 2.995417404174804688e+01 -1.974436044692993164e+00 -1.588114649057388306e-01 5.485821247100830078e+00 1.598102927207946777e+00 4.398447275161743164e-01
2.425000000000000000e+03 3.125709533691406250e+01 1.000396609306335449e+00 -2.227228581905364990e-01 5.636420249938964844e+00 1.624109268188476562e+00 5.482006669044494629e-01
2.426000000000000000e+03 6.820149993896484375e+01 1.418506240844726562e+01 -9.309557825326919556e-02 7.630277633666992188e+00 2.261154651641845703e+00 -6.825503110885620117e-01
2.427000000000000000e+03 6.915817260742187500e+01 -2.002406692504882812e+01 -4.922274127602577209e-02 8.169247627258300781e+00 2.436007499694824219e+00 -1.202634647488594055e-01
2.428000000000000000e+03 6.757782745361328125e+01 -2.338735771179199219e+01 -6.063036248087882996e-02 8.073126792907714844e+00 2.403748989105224609e+00 -1.004905477166175842e-01
2.429000000000000000e+03 3.152350997924804688e+01 2.713701248168945312e+00 -2.573126256465911865e-01 5.673255443572998047e+00 1.624782800674438477e+00 6.225046515464782715e-01
2.430000000000000000e+03 3.077640342712402344e+01 2.218213653564453125e+01 -2.533665299415588379e-01 5.560774326324462891e+00 1.592222332954406738e+00 1.917441606521606445e+00
2.431000000000000000e+03 3.051487159729003906e+01 2.370819473266601562e+01 -2.992224507033824921e-02 5.329791545867919922e+00 1.589960813522338867e+00 2.068118572235107422e+00
2.432000000000000000e+03 3.205401611328125000e+01 1.278368854522705078e+01 -5.208370685577392578e-01 5.896988868713378906e+00 1.612845540046691895e+00 1.146355509757995605e+00
2.433000000000000000e+03 3.201790237426757812e+01 1.411611175537109375e+01 -5.448330044746398926e-01 5.928428173065185547e+00 1.615078449249267578e+00 1.226416110992431641e+00
2.434000000000000000e+03 3.313998794555664062e+01 6.779151439666748047e+00 -4.152900278568267822e-01 5.976501464843750000e+00 1.668363451957702637e+00 7.785230875015258789e-01
2.435000000000000000e+03 3.051828765869140625e+01 6.668900489807128906e+00 -2.792392671108245850e-01 5.496334552764892578e+00 1.565128564834594727e+00 8.107641935348510742e-01
2.436000000000000000e+03 3.012698364257812500e+01 -9.548268318176269531e+00 -9.870680421590805054e-02 5.509894847869873047e+00 1.623356461524963379e+00 2.790965139865875244e-01
2.437000000000000000e+03 3.036771965026855469e+01 -6.322092533111572266e+00 -1.354136765003204346e-01 5.529257774353027344e+00 1.618153214454650879e+00 3.548685908317565918e-01
2.438000000000000000e+03 6.891260528564453125e+01 4.595925331115722656e+00 -1.325087994337081909e-01 7.856462001800537109e+00 2.317185878753662109e+00 -4.853591024875640869e-01
2.439000000000000000e+03 6.822329711914062500e+01 8.023313283920288086e-01 -1.415250301361083984e-01 7.916893005371093750e+00 2.332610368728637695e+00 -4.223792552947998047e-01
2.440000000000000000e+03 3.076794624328613281e+01 -1.243021774291992188e+01 -8.994422852993011475e-02 5.549320220947265625e+00 1.637812852859497070e+00 2.236493825912475586e-01
2.441000000000000000e+03 3.205017089843750000e+01 -1.906609344482421875e+01 -8.904904127120971680e-02 5.621391773223876953e+00 1.659702777862548828e+00 1.367501169443130493e-01
2.442000000000000000e+03 6.112950801849365234e+00 2.124006843566894531e+01 -9.588571847416460514e-04 2.379186116741038859e-05 -2.805195981636643410e-04 -1.087620155885815620e-03
2.443000000000000000e+03 6.955049896240234375e+01 2.455121994018554688e+01 7.255318760871887207e-02 7.188108921051025391e+00 2.178198575973510742e+00 -6.507467627525329590e-01
2.444000000000000000e+03 3.995775985717773438e+01 3.082098960876464844e+01 1.756927728652954102e+00 1.095880222320556641e+01 3.814718961715698242e+00 -5.332001447677612305e-01
2.445000000000000000e+03 6.762213134765625000e+01 -3.332062721252441406e+00 -1.410219818353652954e-01 7.957122802734375000e+00 2.344830274581909180e+00 -3.481842279434204102e-01
2.446000000000000000e+03 6.549077510833740234e+00 3.375617980957031250e+01 8.627911447547376156e-04 6.044355686753988266e-04 4.401680198498070240e-04 6.958217127248644829e-04
2.447000000000000000e+03 2.590178871154785156e+01 -2.838464736938476562e+01 3.781533241271972656e-02 5.125492572784423828e+00 1.548992276191711426e+00 1.518336683511734009e-01
2.448000000000000000e+03 3.069386482238769531e+01 -2.483787727355957031e+01 -5.415685474872589111e-02 5.478905200958251953e+00 1.627424478530883789e+00 1.125354021787643433e-01
2.449000000000000000e+03 3.035374450683593750e+01 3.008702278137207031e+01 1.830594062805175781e+00 3.469436645507812500e+00 1.590009212493896484e+00 2.660926342010498047e+00
2.450000000000000000e+03 3.333722305297851562e+01 3.001046562194824219e+01 9.974690079689025879e-01 8.593531608581542969e+00 2.877300024032592773e+00 3.670306682586669922e+00
2.451000000000000000e+03 3.289938354492187500e+01 3.015495300292968750e+01 1.290551185607910156e+00 7.667141437530517578e+00 2.687307834625244141e+00 3.759997367858886719e+00
2.452000000000000000e+03 2.945167541503906250e+01 2.936431884765625000e+01 1.481181383132934570e+00 3.066328287124633789e+00 1.364252805709838867e+00 2.178470611572265625e+00
2.453000000000000000e+03 3.216548919677734375e+01 3.016051864624023438e+01 1.621217370033264160e+00 6.322658538818359375e+00 2.383162736892700195e+00 3.755588054656982422e+00
2.454000000000000000e+03 2.819987106323242188e+01 2.950498580932617188e+01 1.354761362075805664e+00 2.051163673400878906e+00 1.021777510643005371e+00 1.550403714179992676e+00
2.455000000000000000e+03 3.100646209716796875e+01 2.940374374389648438e+01 1.516580224037170410e+00 4.676423549652099609e+00 1.857901215553283691e+00 3.003018856048583984e+00
2.456000000000000000e+03 2.904064559936523438e+01 2.946780967712402344e+01 1.438325881958007812e+00 2.716765165328979492e+00 1.246527314186096191e+00 1.930035591125488281e+00
2.457000000000000000e+03 3.248747253417968750e+01 3.072795677185058594e+01 1.840202569961547852e+00 6.805820465087890625e+00 2.593806982040405273e+00 4.037481307983398438e+00
2.458000000000000000e+03 2.876137542724609375e+01 2.687894821166992188e+01 7.444528937339782715e-01 3.563861370086669922e+00 1.292494297027587891e+00 1.992315292358398438e+00
2.459000000000000000e+03 2.914142227172851562e+01 2.632227897644042969e+01 6.210356354713439941e-01 3.923468828201293945e+00 1.363351345062255859e+00 2.077194690704345703e+00
2.460000000000000000e+03 3.136714363098144531e+01 2.076255607604980469e+01 -4.202460646629333496e-01 5.884485721588134766e+00 1.639271974563598633e+00 1.766810417175292969e+00
2.461000000000000000e+03 3.566701507568359375e+01 3.001761054992675781e+01 3.901967108249664307e-01 1.174350070953369141e+01 3.640109062194824219e+00 1.696586370468139648e+00
2.462000000000000000e+03 3.840455627441406250e+01 2.794239807128906250e+01 9.802359342575073242e-02 1.067652034759521484e+01 3.232363224029541016e+00 2.508841454982757568e-01
2.463000000000000000e+03 3.629057693481445312e+01 2.981839752197265625e+01 4.484832286834716797e-01 1.169749355316162109e+01 3.643792867660522461e+00 1.126900196075439453e+00
2.464000000000000000e+03 3.126860046386718750e+01 2.443911552429199219e+01 -1.448566839098930359e-02 5.823742866516113281e+00 1.742777109146118164e+00 2.186313867568969727e+00
2.465000000000000000e+03 7.012358093261718750e+01 -9.828303337097167969e+00 -7.424220442771911621e-02 8.128316879272460938e+00 2.416222333908081055e+00 -2.184101492166519165e-01
2.466000000000000000e+03 3.359864425659179688e+01 1.643483924865722656e+01 -6.699309945106506348e-01 6.508080482482910156e+00 1.751444816589355469e+00 1.304848790168762207e+00
2.467000000000000000e+03 3.293461608886718750e+01 1.877689933776855469e+01 -6.281629800796508789e-01 6.491058826446533203e+00 1.758868813514709473e+00 1.478837370872497559e+00
2.468000000000000000e+03 3.198615837097167969e+01 -1.041823577880859375e+01 -1.245803683996200562e-01 5.673846721649169922e+00 1.664779901504516602e+00 2.538050115108489990e-01
2.469000000000000000e+03 2.962051010131835938e+01 -8.216381072998046875e+00 -9.906501322984695435e-02 5.478115558624267578e+00 1.613715171813964844e+00 3.100791871547698975e-01
2.470000000000000000e+03 3.131895637512207031e+01 2.302016639709472656e+01 -2.319742888212203979e-01 5.880620956420898438e+00 1.694594025611877441e+00 1.993558168411254883e+00
2.471000000000000000e+03 6.958247375488281250e+01 7.169154882431030273e-01 -1.156762763857841492e-01 7.942367553710937500e+00 2.348007440567016602e+00 -3.962931036949157715e-01
2.472000000000000000e+03 6.899439239501953125e+01 -3.225397348403930664e+00 -1.151872351765632629e-01 7.997487068176269531e+00 2.364689826965332031e+00 -3.318762183189392090e-01
2.473000000000000000e+03 3.369753646850585938e+01 8.919234275817871094e+00 -5.032771825790405273e-01 6.167237281799316406e+00 1.699188113212585449e+00 8.586127161979675293e-01
2.474000000000000000e+03 3.227568817138671875e+01 1.809527778625488281e+01 -5.838343501091003418e-01 6.173799991607666016e+00 1.676989674568176270e+00 1.490242838859558105e+00
2.475000000000000000e+03 3.211885070800781250e+01 1.144753074645996094e+01 -4.935267865657806396e-01 5.885056495666503906e+00 1.617458820343017578e+00 1.060118556022644043e+00
2.476000000000000000e+03 3.731164550781250000e+01 2.916491508483886719e+01 3.124048411846160889e-01 1.134936046600341797e+01 3.498529672622680664e+00 5.736584663391113281e-01
2.477000000000000000e+03 3.947546386718750000e+01 2.989822959899902344e+01 1.150246262550354004e+00 1.102509975433349609e+01 3.652603864669799805e+00 -4.439215362071990967e-01
2.478000000000000000e+03 3.458067703247070312e+01 1.621674537658691406e+01 -7.378969788551330566e-01 6.831126213073730469e+00 1.827968716621398926e+00 1.187458038330078125e+00
2.479000000000000000e+03 3.262576293945312500e+01 7.692941665649414062e+00 -4.172691404819488525e-01 5.902746677398681641e+00 1.645643234252929688e+00 8.510829806327819824e-01
2.480000000000000000e+03 3.372077941894531250e+01 7.705447196960449219e+00 -4.721207320690155029e-01 6.120026588439941406e+00 1.694371700286865234e+00 8.044481873512268066e-01
2.481000000000000000e+03 7.031559753417968750e+01 -3.140120029449462891e+00 -9.456700831651687622e-02 8.037181854248046875e+00 2.382784366607666016e+00 -3.133560121059417725e-01
2.482000000000000000e+03 4.130356597900390625e+01 2.874827766418457031e+01 7.821871042251586914e-01 1.024710655212402344e+01 3.308788299560546875e+00 -5.608615875244140625e-01
2.483000000000000000e+03 6.522353363037109375e+01 5.503866195678710938e+00 -2.152127027511596680e-01 7.844169616699218750e+00 2.288687229156494141e+00 -5.589014887809753418e-01
2.484000000000000000e+03 6.791233825683593750e+01 5.895521640777587891e+00 -1.541781425476074219e-01 7.831960678100585938e+00 2.303334712982177734e+00 -5.321100950241088867e-01
2.485000000000000000e+03 6.717790222167968750e+01 1.378814983367919922e+01 -1.135578602552413940e-01 7.681378364562988281e+00 2.270346164703369141e+00 -7.060006260871887207e-01
2.486000000000000000e+03 6.918280792236328125e+01 1.225250244140625000e+01 -9.674461930990219116e-02 7.653723239898681641e+00 2.267093658447265625e+00 -6.276688575744628906e-01
2.487000000000000000e+03 6.786962890625000000e+01 8.358741760253906250e+00 -1.469327211380004883e-01 7.783652305603027344e+00 2.291015863418579102e+00 -5.900567770004272461e-01
2.488000000000000000e+03 6.869218444824218750e+01 1.122625255584716797e+01 -1.099223569035530090e-01 7.692287445068359375e+00 2.274709463119506836e+00 -6.282901167869567871e-01
2.489000000000000000e+03 3.003684806823730469e+01 2.014008015394210815e-01 -1.708367764949798584e-01 5.475583553314208984e+00 1.591423988342285156e+00 5.068084001541137695e-01
2.490000000000000000e+03 6.741164398193359375e+01 -1.177472782135009766e+01 -1.025836989283561707e-01 8.012935638427734375e+00 2.373105764389038086e+00 -2.177154868841171265e-01
2.491000000000000000e+03 3.307046890258789062e+01 2.747139453887939453e+00 -3.209782242774963379e-01 5.907350540161132812e+00 1.675911784172058105e+00 6.004146337509155273e-01
2.492000000000000000e+03 3.213723754882812500e+01 2.154522808268666267e-03 -2.415345460176467896e-01 5.745719432830810547e+00 1.651255488395690918e+00 5.060568451881408691e-01
2.493000000000000000e+03 3.326183319091796875e+01 1.404278278350830078e+01 -6.206030845642089844e-01 6.271970748901367188e+00 1.695410251617431641e+00 1.177616357803344727e+00
2.494000000000000000e+03 6.798906707763671875e+01 -5.173193812370300293e-01 -1.436512023210525513e-01 7.931972980499267578e+00 2.336496591567993164e+00 -3.991456329822540283e-01
2.495000000000000000e+03 4.415359115600585938e+01 2.844187736511230469e+01 8.434033393859863281e-01 9.630010604858398438e+00 3.142024040222167969e+00 -7.160850167274475098e-01
2.496000000000000000e+03 3.244915771484375000e+01 -1.357417678833007812e+01 -1.133456826210021973e-01 5.695417404174804688e+00 1.674621462821960449e+00 1.963919401168823242e-01
2.497000000000000000e+03 6.708261871337890625e+01 1.672754859924316406e+01 -6.877128034830093384e-02 7.605287551879882812e+00 2.260954856872558594e+00 -7.456620335578918457e-01
2.498000000000000000e+03 6.733127593994140625e+01 -1.870246505737304688e+01 -7.231441140174865723e-02 8.042246818542480469e+00 2.390979766845703125e+00 -1.433739960193634033e-01
2.499000000000000000e+03 6.761105346679687500e+01 -2.059872436523437500e+01 -5.995072051882743835e-02 8.073028564453125000e+00 2.403923511505126953e+00 -1.261430829763412476e-01
2.500000000000000000e+03 6.782231903076171875e+01 2.191721725463867188e+01 3.905067965388298035e-02 7.408512592315673828e+00 2.234268903732299805e+00 -7.423834204673767090e-01
2.501000000000000000e+03 6.637850952148437500e+01 1.532496452331542969e+01 -1.020475775003433228e-01 7.675871372222900391e+00 2.272147178649902344e+00 -7.467283010482788086e-01
2.502000000000000000e+03 6.601635742187500000e+01 -2.314496803283691406e+01 -6.842035800218582153e-02 7.972120761871337891e+00 2.371109962463378906e+00 -1.118964105844497681e-01
2.503000000000000000e+03 3.143829727172851562e+01 -2.197848510742187500e+01 -7.222955673933029175e-02 5.553799629211425781e+00 1.644471049308776855e+00 1.209066361188888550e-01
2.504000000000000000e+03 6.904871368408203125e+01 -8.406404495239257812e+00 -9.301254898309707642e-02 8.061480522155761719e+00 2.390540361404418945e+00 -2.488691508769989014e-01
2.505000000000000000e+03 3.184434127807617188e+01 -4.898273468017578125e+00 -1.803029775619506836e-01 5.700452327728271484e+00 1.656044721603393555e+00 3.728235363960266113e-01
2.506000000000000000e+03 3.380616760253906250e+01 2.973526954650878906e+01 6.550894379615783691e-01 9.336381912231445312e+00 2.997441291809082031e+00 3.329107999801635742e+00
2.507000000000000000e+03 3.005165863037109375e+01 2.965961837768554688e+01 1.660748958587646484e+00 3.482504367828369141e+00 1.542976021766662598e+00 2.525836467742919922e+00
2.508000000000000000e+03 2.972364807128906250e+01 2.694500160217285156e+01 7.753006815910339355e-01 4.239685535430908203e+00 1.504495859146118164e+00 2.302000045776367188e+00
2.509000000000000000e+03 3.164476776123046875e+01 2.954129409790039062e+01 1.462033867835998535e+00 5.645091533660888672e+00 2.132137537002563477e+00 3.340900897979736328e+00
2.510000000000000000e+03 2.871453475952148438e+01 2.906308555603027344e+01 1.311081528663635254e+00 2.623447179794311523e+00 1.180358529090881348e+00 1.837238550186157227e+00
2.511000000000000000e+03 3.013200187683105469e+01 2.637748336791992188e+01 5.574548244476318359e-01 4.771665096282958984e+00 1.598736047744750977e+00 2.358801126480102539e+00
2.512000000000000000e+03 3.512753677368164062e+01 2.885485458374023438e+01 2.963223867118358612e-02 1.034570121765136719e+01 3.112600088119506836e+00 2.088564872741699219e+00
2.513000000000000000e+03 3.189697456359863281e+01 2.375775337219238281e+01 -2.113300412893295288e-01 6.232606887817382812e+00 1.806383013725280762e+00 2.079779148101806641e+00
2.514000000000000000e+03 3.090410423278808594e+01 2.523277473449707031e+01 1.789524555206298828e-01 5.508318424224853516e+00 1.706181287765502930e+00 2.283842325210571289e+00
2.515000000000000000e+03 3.533325576782226562e+01 2.951415252685546875e+01 1.845259517431259155e-01 1.106387615203857422e+01 3.374520540237426758e+00 2.036059379577636719e+00
2.516000000000000000e+03 3.356702041625976562e+01 2.354775428771972656e+01 -4.651695489883422852e-01 7.312043190002441406e+00 2.054062128067016602e+00 1.888376593589782715e+00
2.517000000000000000e+03 3.632263565063476562e+01 2.866480827331542969e+01 -1.036497578024864197e-02 1.088180160522460938e+01 3.261430740356445312e+00 1.277102589607238770e+00
2.518000000000000000e+03 3.665172576904296875e+01 2.907864952087402344e+01 1.254069656133651733e-01 1.112698650360107422e+01 3.375718116760253906e+00 1.013115644454956055e+00
2.519000000000000000e+03 3.387199401855468750e+01 2.510372734069824219e+01 -3.326584696769714355e-01 7.807213306427001953e+00 2.242366552352905273e+00 2.065273523330688477e+00
2.520000000000000000e+03 3.744713211059570312e+01 2.809821701049804688e+01 -4.391838796436786652e-03 1.077048397064208984e+01 3.229827642440795898e+00 6.467709541320800781e-01
2.521000000000000000e+03 3.219784927368164062e+01 2.244280052185058594e+01 -3.826114833354949951e-01 6.375199794769287109e+00 1.797776460647583008e+00 1.910329461097717285e+00
2.522000000000000000e+03 6.766033172607421875e+01 4.701343536376953125e+00 -1.580108106136322021e-01 7.851261615753173828e+00 2.307975292205810547e+00 -5.101531744003295898e-01
2.523000000000000000e+03 6.869667053222656250e+01 3.342583656311035156e+00 -1.356902718544006348e-01 7.879624843597412109e+00 2.323180437088012695e+00 -4.643265902996063232e-01
2.524000000000000000e+03 3.484602355957031250e+01 7.100836277008056641e+00 -5.079374313354492188e-01 6.297443866729736328e+00 1.736852049827575684e+00 7.443099617958068848e-01
2.525000000000000000e+03 3.451914978027343750e+01 1.031484222412109375e+01 -5.896332263946533203e-01 6.367270469665527344e+00 1.733291149139404297e+00 9.097098112106323242e-01
2.526000000000000000e+03 3.192638206481933594e+01 -1.917469501495361328e+00 -2.146735787391662598e-01 5.705961227416992188e+00 1.647386312484741211e+00 4.439912140369415283e-01
2.527000000000000000e+03 3.050242996215820312e+01 -1.096570301055908203e+01 -9.230107814073562622e-02 5.543242931365966797e+00 1.635282516479492188e+00 2.567099034786224365e-01
2.528000000000000000e+03 3.175250244140625000e+01 -6.418214797973632812e+00 -1.684788465499877930e-01 5.685740947723388672e+00 1.655178546905517578e+00 3.419798612594604492e-01
2.529000000000000000e+03 3.369537734985351562e+01 1.796661567687988281e+01 -6.852943897247314453e-01 6.711369991302490234e+00 1.807822704315185547e+00 1.381700873374938965e+00
2.530000000000000000e+03 3.564483261108398438e+01 1.638435554504394531e+01 -7.862870693206787109e-01 7.145463466644287109e+00 1.907752871513366699e+00 1.083189249038696289e+00
2.531000000000000000e+03 3.260285949707031250e+01 2.319866371154785156e+01 -3.680720031261444092e-01 6.683598518371582031e+00 1.894657969474792480e+00 1.961601972579956055e+00
2.532000000000000000e+03 3.448856353759765625e+01 1.147282505035400391e+01 -6.196205019950866699e-01 6.440757751464843750e+00 1.746341109275817871e+00 9.593805670738220215e-01
2.533000000000000000e+03 3.925893020629882812e+01 2.753214836120605469e+01 1.202414184808731079e-01 1.048467350006103516e+01 3.181474447250366211e+00 -1.954606501385569572e-03
2.534000000000000000e+03 3.574095153808593750e+01 8.256505012512207031e+00 -5.743909478187561035e-01 6.502149105072021484e+00 1.778327465057373047e+00 7.445067167282104492e-01
2.535000000000000000e+03 3.489455413818359375e+01 9.261583328247070312e+00 -5.727131962776184082e-01 6.410991191864013672e+00 1.751483321189880371e+00 8.319137096405029297e-01
2.536000000000000000e+03 3.239821243286132812e+01 -1.199213027954101562e+01 -1.203252673149108887e-01 5.703207492828369141e+00 1.674864649772644043e+00 2.277055978775024414e-01
2.537000000000000000e+03 3.863117599487304688e+01 -1.950885772705078125e+01 -1.487182825803756714e-01 6.164319992065429688e+00 1.804680466651916504e+00 7.202679663896560669e-02
2.538000000000000000e+03 3.254881286621093750e+01 -1.499263858795166016e+01 -1.064212322235107422e-01 5.690630912780761719e+00 1.675262808799743652e+00 1.738855391740798950e-01
2.539000000000000000e+03 6.598488616943359375e+01 1.075589275360107422e+01 -1.679254323244094849e-01 7.775879383087158203e+00 2.282386302947998047e+00 -6.747107505798339844e-01
2.540000000000000000e+03 6.799121093750000000e+01 7.105391025543212891e+00 -1.490922868251800537e-01 7.806248664855957031e+00 2.297147035598754883e+00 -5.594767332077026367e-01
2.541000000000000000e+03 3.325543212890625000e+01 9.698657393455505371e-01 -2.971005141735076904e-01 5.900800704956054688e+00 1.681110143661499023e+00 5.333193540573120117e-01
2.542000000000000000e+03 3.228388214111328125e+01 1.844115257263183594e+00 -2.760919630527496338e-01 5.778323173522949219e+00 1.650669336318969727e+00 5.763615965843200684e-01
2.543000000000000000e+03 3.412281417846679688e+01 2.137584209442138672e+00 -3.425634205341339111e-01 6.014278888702392578e+00 1.701514601707458496e+00 5.541711449623107910e-01
2.544000000000000000e+03 3.464645004272460938e+01 3.551894187927246094e+00 -3.966105282306671143e-01 6.131114482879638672e+00 1.720351099967956543e+00 6.013049483299255371e-01
2.545000000000000000e+03 6.533085632324218750e+01 -1.274756050109863281e+01 -1.239937469363212585e-01 7.915700912475585938e+00 2.337512016296386719e+00 -2.118177711963653564e-01
2.546000000000000000e+03 6.895117187500000000e+01 -1.670199775695800781e+01 -6.328396499156951904e-02 8.131212234497070312e+00 2.420378446578979492e+00 -1.539452224969863892e-01
2.547000000000000000e+03 6.693686676025390625e+01 -1.038615608215332031e+01 -1.145612895488739014e-01 7.982332229614257812e+00 2.360331296920776367e+00 -2.348954826593399048e-01
2.548000000000000000e+03 6.763953399658203125e+01 9.672675132751464844e+00 -1.430286467075347900e-01 7.760273456573486328e+00 2.285173416137695312e+00 -6.196762323379516602e-01
2.549000000000000000e+03 6.758335113525390625e+01 -4.776066780090332031e+00 -1.329640895128250122e-01 7.971265792846679688e+00 2.351490497589111328e+00 -3.212600648403167725e-01
2.550000000000000000e+03 6.771795654296875000e+01 -6.142284870147705078e+00 -1.213522702455520630e-01 7.989256381988525391e+00 2.360371112823486328e+00 -2.973756790161132812e-01
2.551000000000000000e+03 6.623760986328125000e+01 2.294204139709472656e+01 7.611188292503356934e-02 7.487534046173095703e+00 2.269093751907348633e+00 -7.811421155929565430e-01
2.552000000000000000e+03 6.587878417968750000e+01 -1.502196979522705078e+01 -1.021716073155403137e-01 7.947115898132324219e+00 2.353483200073242188e+00 -1.836501955986022949e-01
2.553000000000000000e+03 3.326293945312500000e+01 -4.435470104217529297e+00 -2.179023474454879761e-01 5.836357116699218750e+00 1.685536503791809082e+00 3.728183805942535400e-01
2.554000000000000000e+03 3.395628738403320312e+01 -2.307462930679321289e+00 -2.639496326446533203e-01 5.927878856658935547e+00 1.699178814888000488e+00 4.163337647914886475e-01
2.555000000000000000e+03 4.518066024780273438e+01 3.011770248413085938e+01 1.336421251296997070e+00 9.525792121887207031e+00 3.258664131164550781e+00 -7.081359624862670898e-01
2.556000000000000000e+03 4.640985107421875000e+01 3.205622100830078125e+01 1.618668913841247559e+00 9.337816238403320312e+00 3.286945581436157227e+00 -5.308126211166381836e-01
2.557000000000000000e+03 4.038023757934570312e+01 2.934331130981445312e+01 9.704732298851013184e-01 1.059617233276367188e+01 3.469993591308593750e+00 -4.975493848323822021e-01
2.558000000000000000e+03 3.887493515014648438e+01 2.897569465637207031e+01 5.537307858467102051e-01 1.100261878967285156e+01 3.466904878616333008e+00 -9.411489963531494141e-02
2.559000000000000000e+03 6.777632904052734375e+01 -1.899501919746398926e+00 -1.433474868535995483e-01 7.944861412048339844e+00 2.340454101562500000e+00 -3.739912509918212891e-01
2.560000000000000000e+03 6.895787811279296875e+01 -4.560353755950927734e+00 -1.100984588265419006e-01 8.014774322509765625e+00 2.371402740478515625e+00 -3.099158704280853271e-01
2.561000000000000000e+03 3.310083770751953125e+01 2.940916633605957031e+01 8.310380578041076660e-01 7.987956047058105469e+00 2.645698308944702148e+00 3.380896806716918945e+00
2.562000000000000000e+03 3.493631362915039062e+01 2.934136962890625000e+01 2.034848481416702271e-01 1.063544750213623047e+01 3.251679897308349609e+00 2.353502035140991211e+00
2.563000000000000000e+03 3.243995285034179688e+01 2.977182769775390625e+01 1.313087344169616699e+00 6.825528621673583984e+00 2.441584825515747070e+00 3.617925882339477539e+00
2.564000000000000000e+03 3.273665237426757812e+01 2.962850761413574219e+01 1.086702346801757812e+00 7.387229919433593750e+00 2.542179822921752930e+00 3.517571449279785156e+00
2.565000000000000000e+03 3.134110450744628906e+01 2.984014892578125000e+01 1.683099269866943359e+00 4.959608554840087891e+00 1.992812395095825195e+00 3.229176521301269531e+00
2.566000000000000000e+03 2.982343482971191406e+01 2.923410987854003906e+01 1.516396284103393555e+00 3.426897764205932617e+00 1.482988238334655762e+00 2.415540218353271484e+00
2.567000000000000000e+03 2.987976837158203125e+01 2.856527709960937500e+01 1.267489671707153320e+00 3.784161806106567383e+00 1.515495419502258301e+00 2.438193798065185547e+00
2.568000000000000000e+03 3.134542465209960938e+01 2.680268287658691406e+01 5.059463381767272949e-01 5.731873035430908203e+00 1.871345758438110352e+00 2.586297750473022461e+00
2.569000000000000000e+03 3.059948539733886719e+01 2.902995109558105469e+01 1.403186321258544922e+00 4.319086074829101562e+00 1.716681838035583496e+00 2.771290063858032227e+00
2.570000000000000000e+03 3.144096946716308594e+01 2.628141593933105469e+01 3.318801820278167725e-01 5.824780941009521484e+00 1.846998453140258789e+00 2.473420143127441406e+00
2.571000000000000000e+03 3.251158142089843750e+01 2.439758872985839844e+01 -2.082831859588623047e-01 6.717205524444580078e+00 1.952676653861999512e+00 2.135100364685058594e+00
2.572000000000000000e+03 3.507460021972656250e+01 2.270917129516601562e+01 -6.732934117317199707e-01 7.943892002105712891e+00 2.181179523468017578e+00 1.526481509208679199e+00
2.573000000000000000e+03 3.555577087402343750e+01 2.899803352355957031e+01 5.275669321417808533e-02 1.071555233001708984e+01 3.230492830276489258e+00 1.769132852554321289e+00
2.574000000000000000e+03 3.534680175781250000e+01 2.834178352355957031e+01 -7.602450996637344360e-02 1.013019943237304688e+01 3.016252279281616211e+00 1.961057424545288086e+00
2.575000000000000000e+03 3.059000587463378906e+01 2.588215637207031250e+01 3.885852396488189697e-01 5.207731246948242188e+00 1.678894996643066406e+00 2.382164955139160156e+00
2.576000000000000000e+03 3.199744606018066406e+01 2.500810813903808594e+01 -3.763591870665550232e-02 6.419256210327148438e+00 1.914486050605773926e+00 2.282020807266235352e+00
2.577000000000000000e+03 3.269236755371093750e+01 -3.065449237823486328e+00 -2.213534861803054810e-01 5.785387039184570312e+00 1.669210076332092285e+00 4.124027192592620850e-01
2.578000000000000000e+03 3.247540664672851562e+01 2.023504066467285156e+01 -5.476203560829162598e-01 6.398710250854492188e+00 1.755326986312866211e+00 1.663167595863342285e+00
2.579000000000000000e+03 3.327059173583984375e+01 1.275648975372314453e+01 -5.907441377639770508e-01 6.217136859893798828e+00 1.687917828559875488e+00 1.096179604530334473e+00
2.580000000000000000e+03 3.462998580932617188e+01 1.871983909606933594e+01 -7.465363144874572754e-01 7.124156951904296875e+00 1.913286089897155762e+00 1.335656881332397461e+00
2.581000000000000000e+03 3.450402450561523438e+01 1.269631671905517578e+01 -6.577383279800415039e-01 6.522668361663818359e+00 1.759479045867919922e+00 1.022354006767272949e+00
2.582000000000000000e+03 4.060375976562500000e+01 2.771535491943359375e+01 3.488129079341888428e-01 1.023686122894287109e+01 3.175702333450317383e+00 -3.365827202796936035e-01
2.583000000000000000e+03 4.412302780151367188e+01 2.576418876647949219e+01 1.657864004373550415e-01 9.475257873535156250e+00 2.892313241958618164e+00 -6.008059978485107422e-01
2.584000000000000000e+03 3.368914031982421875e+01 -1.399176979064941406e+01 -1.279523819684982300e-01 5.794319152832031250e+00 1.699909925460815430e+00 1.860170811414718628e-01
2.585000000000000000e+03 3.343201446533203125e+01 -9.780222892761230469e+00 -1.584805548191070557e-01 5.804826259613037109e+00 1.693903684616088867e+00 2.642851173877716064e-01
2.586000000000000000e+03 3.154251480102539062e+01 -8.861124992370605469e+00 -1.322223991155624390e-01 5.644251823425292969e+00 1.653608798980712891e+00 2.900307178497314453e-01
2.587000000000000000e+03 6.709000396728515625e+01 2.208485603332519531e+00 -1.676050722599029541e-01 7.882827758789062500e+00 2.314566850662231445e+00 -4.668990373611450195e-01
2.588000000000000000e+03 6.482295989990234375e+01 -3.530222415924072266e+00 -1.933418065309524536e-01 7.874235153198242188e+00 2.304268121719360352e+00 -3.599308729171752930e-01
2.589000000000000000e+03 3.316192245483398438e+01 2.199850654602050781e+01 -5.295433402061462402e-01 6.891203403472900391e+00 1.908498048782348633e+00 1.753804206848144531e+00
2.590000000000000000e+03 3.299776840209960938e+01 2.382300949096679688e+01 -3.627740740776062012e-01 6.997065544128417969e+00 1.990287423133850098e+00 2.003906011581420898e+00
2.591000000000000000e+03 7.044540405273437500e+01 8.631605148315429688e+00 -9.483176469802856445e-02 7.740215778350830078e+00 2.293615102767944336e+00 -5.252252221107482910e-01
2.592000000000000000e+03 6.550011444091796875e+01 7.440905570983886719e+00 -2.016557455062866211e-01 7.826835632324218750e+00 2.287554025650024414e+00 -6.016325950622558594e-01
2.593000000000000000e+03 3.403723144531250000e+01 5.871891021728515625e+00 -4.281136393547058105e-01 6.097053050994873047e+00 1.700681924819946289e+00 7.088850140571594238e-01
2.594000000000000000e+03 3.090134620666503906e+01 -7.545548439025878906e+00 -1.312281042337417603e-01 5.593087673187255859e+00 1.638557910919189453e+00 3.167154192924499512e-01
2.595000000000000000e+03 6.276123809814453125e+01 -9.785583496093750000e+00 -1.748334020376205444e-01 7.799709320068359375e+00 2.287462711334228516e+00 -2.536721229553222656e-01
2.596000000000000000e+03 6.626117706298828125e+01 -1.213717842102050781e+01 -1.170309856534004211e-01 7.962198257446289062e+00 2.353550195693969727e+00 -2.180809527635574341e-01
2.597000000000000000e+03 7.099841308593750000e+01 -1.562255191802978516e+01 -4.911888018250465393e-02 8.238297462463378906e+00 2.456753492355346680e+00 -1.458477973937988281e-01
2.598000000000000000e+03 6.452214813232421875e+01 1.405224895477294922e+01 -1.558254808187484741e-01 7.777514457702636719e+00 2.286506652832031250e+00 -7.598477602005004883e-01
2.599000000000000000e+03 6.594718933105468750e+01 1.384645557403564453e+01 -1.339545994997024536e-01 7.725230693817138672e+00 2.277382850646972656e+00 -7.299852371215820312e-01
2.600000000000000000e+03 3.294040679931640625e+01 5.022009849548339844e+00 -3.636446595191955566e-01 5.917243480682373047e+00 1.666079640388488770e+00 6.946328282356262207e-01
2.601000000000000000e+03 6.662674713134765625e+01 -4.721225202083587646e-01 -1.709780991077423096e-01 7.903635501861572266e+00 2.319797277450561523e+00 -4.155068695545196533e-01
2.602000000000000000e+03 6.508983612060546875e+01 -1.899825572967529297e+00 -1.984833776950836182e-01 7.879702091217041016e+00 2.304365634918212891e+00 -3.948002159595489502e-01
2.603000000000000000e+03 3.406159591674804688e+01 -5.726393699645996094e+00 -2.237066626548767090e-01 5.907064437866210938e+00 1.705007314682006836e+00 3.419931530952453613e-01
2.604000000000000000e+03 3.305675125122070312e+01 -6.930672168731689453e+00 -1.802723258733749390e-01 5.793309211730957031e+00 1.683911085128784180e+00 3.216086924076080322e-01
2.605000000000000000e+03 6.766960906982421875e+01 -9.514582633972167969e+00 -1.056337803602218628e-01 8.016571044921875000e+00 2.373281240463256836e+00 -2.471155226230621338e-01
2.606000000000000000e+03 3.678363800048828125e+01 9.035441398620605469e+00 -6.454805731773376465e-01 6.734333992004394531e+00 1.826655983924865723e+00 7.198693156242370605e-01
2.607000000000000000e+03 3.550767898559570312e+01 1.019264316558837891e+01 -6.303419470787048340e-01 6.588150024414062500e+00 1.787342429161071777e+00 8.286436200141906738e-01
2.608000000000000000e+03 3.768449783325195312e+01 1.842122459411621094e+01 -8.572895526885986328e-01 7.922458171844482422e+00 2.119550466537475586e+00 8.713524341583251953e-01
2.609000000000000000e+03 3.430621719360351562e+01 1.711891937255859375e+01 -7.237477898597717285e-01 6.832801818847656250e+00 1.832716107368469238e+00 1.286303400993347168e+00
2.610000000000000000e+03 6.402578735351562500e+01 -1.685578918457031250e+01 -1.127526089549064636e-01 7.851341247558593750e+00 2.321576595306396484e+00 -1.643595695495605469e-01
2.611000000000000000e+03 6.583298492431640625e+01 1.229944896697998047e+01 -1.560529768466949463e-01 7.757137298583984375e+00 2.280325412750244141e+00 -7.042216658592224121e-01
2.612000000000000000e+03 6.496199035644531250e+01 8.749212265014648438e+00 -2.111628651618957520e-01 7.823709487915039062e+00 2.283763885498046875e+00 -6.369410157203674316e-01
2.613000000000000000e+03 3.405777740478515625e+01 -1.126604270935058594e+01 -1.533202826976776123e-01 5.846389770507812500e+00 1.707920789718627930e+00 2.240774631500244141e-01
2.614000000000000000e+03 6.637336730957031250e+01 -6.725133419036865234e+00 -1.417301893234252930e-01 7.940690994262695312e+00 2.339688301086425781e+00 -2.959562838077545166e-01
2.615000000000000000e+03 6.475053405761718750e+01 1.969049072265625000e+01 -1.721783541142940521e-02 7.666910648345947266e+00 2.294907808303833008e+00 -8.254520297050476074e-01
2.616000000000000000e+03 6.298305130004882812e+01 1.443735599517822266e+01 -1.756777614355087280e-01 7.830607414245605469e+00 2.296478748321533203e+00 -7.820605635643005371e-01
2.617000000000000000e+03 3.325352478027343750e+01 -2.083445930480957031e+01 -9.924557060003280640e-02 5.714931011199951172e+00 1.684705734252929688e+00 1.144007518887519836e-01
2.618000000000000000e+03 3.388080215454101562e+01 -1.787218475341796875e+01 -1.118183061480522156e-01 5.783325672149658203e+00 1.701452255249023438e+00 1.343573927879333496e-01
2.619000000000000000e+03 4.642037963867187500e+01 2.856523895263671875e+01 8.732129335403442383e-01 9.282422065734863281e+00 3.046690464019775391e+00 -7.971314191818237305e-01
2.620000000000000000e+03 4.110576248168945312e+01 2.504722404479980469e+01 -2.483790814876556396e-01 9.670205116271972656e+00 2.826547622680664062e+00 -1.337306499481201172e-01
2.621000000000000000e+03 6.367695236206054688e+01 2.702913284301757812e+01 2.650151848793029785e-01 7.580123901367187500e+00 2.353541851043701172e+00 -7.974904775619506836e-01
2.622000000000000000e+03 6.642234039306640625e+01 4.959072113037109375e+00 -1.855233609676361084e-01 7.847303390502929688e+00 2.298533916473388672e+00 -5.321796536445617676e-01
2.623000000000000000e+03 3.166684532165527344e+01 3.023411560058593750e+01 1.827834010124206543e+00 5.311354637145996094e+00 2.141756772994995117e+00 3.506218671798706055e+00
2.624000000000000000e+03 3.400963211059570312e+01 2.883658599853515625e+01 2.981649935245513916e-01 9.172775268554687500e+00 2.841281890869140625e+00 2.883730649948120117e+00
2.625000000000000000e+03 3.355422592163085938e+01 2.917265892028808594e+01 5.652026534080505371e-01 8.626817703247070312e+00 2.757606267929077148e+00 3.192653656005859375e+00
2.626000000000000000e+03 3.199297904968261719e+01 2.936507797241210938e+01 1.283543944358825684e+00 6.225666999816894531e+00 2.252763271331787109e+00 3.387233495712280273e+00
2.627000000000000000e+03 3.032458114624023438e+01 2.749022102355957031e+01 8.815531134605407715e-01 4.624202251434326172e+00 1.651726603507995605e+00 2.526820898056030273e+00
2.628000000000000000e+03 3.079556274414062500e+01 2.850998115539550781e+01 1.156911849975585938e+00 4.828088760375976562e+00 1.795500159263610840e+00 2.807332515716552734e+00
2.629000000000000000e+03 3.243653488159179688e+01 2.559367942810058594e+01 -1.721206493675708771e-02 6.783028602600097656e+00 2.029744863510131836e+00 2.345811367034912109e+00
2.630000000000000000e+03 3.578541183471679688e+01 2.850452232360839844e+01 -3.997778147459030151e-02 1.055558013916015625e+01 3.154680728912353516e+00 1.613125205039978027e+00
2.631000000000000000e+03 3.179096031188964844e+01 2.874786376953125000e+01 1.040331959724426270e+00 5.996898174285888672e+00 2.111169099807739258e+00 3.137474298477172852e+00
2.632000000000000000e+03 3.063097000122070312e+01 2.690558815002441406e+01 6.449676752090454102e-01 5.059200763702392578e+00 1.711250543594360352e+00 2.520474910736083984e+00
2.633000000000000000e+03 2.951818847656250000e+01 2.807015228271484375e+01 1.084547877311706543e+00 3.712166309356689453e+00 1.439014315605163574e+00 2.249987363815307617e+00
2.634000000000000000e+03 3.192195320129394531e+01 2.650314712524414062e+01 2.637375295162200928e-01 6.350315570831298828e+00 1.984215974807739258e+00 2.525275707244873047e+00
2.635000000000000000e+03 3.318627929687500000e+01 2.483566284179687500e+01 -2.618474960327148438e-01 7.262341499328613281e+00 2.100148200988769531e+00 2.147741556167602539e+00
2.636000000000000000e+03 6.321802139282226562e+01 -5.714298725128173828e+00 -2.041049003601074219e-01 7.830035209655761719e+00 2.287779092788696289e+00 -3.198907375335693359e-01
2.637000000000000000e+03 6.606658935546875000e+01 6.479103088378906250e+00 -1.937948763370513916e-01 7.832081794738769531e+00 2.291486024856567383e+00 -5.755759477615356445e-01
2.638000000000000000e+03 6.312063598632812500e+01 5.937223911285400391e+00 -2.617080807685852051e-01 7.850952625274658203e+00 2.276773452758789062e+00 -5.780833363533020020e-01
2.639000000000000000e+03 3.364711380004882812e+01 1.962328910827636719e+01 -6.741095185279846191e-01 6.878651142120361328e+00 1.861362457275390625e+00 1.490342378616333008e+00
2.640000000000000000e+03 6.476916503906250000e+01 -1.149733734130859375e+01 -1.416925936937332153e-01 7.887477874755859375e+00 2.323735713958740234e+00 -2.286908924579620361e-01
2.641000000000000000e+03 3.408224105834960938e+01 2.066566658020019531e+01 -6.800283789634704590e-01 7.163837432861328125e+00 1.945142745971679688e+00 1.519781708717346191e+00
2.642000000000000000e+03 3.737064743041992188e+01 2.703103446960449219e+01 -2.807390689849853516e-01 1.018416690826416016e+01 2.971028566360473633e+00 8.214419484138488770e-01
2.643000000000000000e+03 3.654208755493164062e+01 2.795899963378906250e+01 -1.435956209897994995e-01 1.054765510559082031e+01 3.121217727661132812e+00 1.210440874099731445e+00
2.644000000000000000e+03 3.497629165649414062e+01 2.797264099121093750e+01 -1.110689267516136169e-01 9.719725608825683594e+00 2.882597208023071289e+00 2.101662874221801758e+00
2.645000000000000000e+03 3.286917877197265625e+01 2.111133384704589844e+01 -5.468640923500061035e-01 6.629973888397216797e+00 1.824932932853698730e+00 1.711783528327941895e+00
2.646000000000000000e+03 3.538457107543945312e+01 2.061819458007812500e+01 -7.618795037269592285e-01 7.630444526672363281e+00 2.060569524765014648e+00 1.326759934425354004e+00
2.647000000000000000e+03 3.349023056030273438e+01 2.417868232727050781e+01 -3.921773135662078857e-01 7.361585617065429688e+00 2.090822458267211914e+00 1.986343622207641602e+00
2.648000000000000000e+03 3.779772186279296875e+01 3.895503759384155273e+00 -5.138009786605834961e-01 6.592723369598388672e+00 1.823676824569702148e+00 4.961184263229370117e-01
2.649000000000000000e+03 3.657314300537109375e+01 2.705649566650390625e+01 -3.071226179599761963e-01 1.005045318603515625e+01 2.922999143600463867e+00 1.205490827560424805e+00
2.650000000000000000e+03 3.818690490722656250e+01 2.688245582580566406e+01 -2.504746615886688232e-01 1.022559547424316406e+01 2.992536306381225586e+00 5.211892724037170410e-01
2.651000000000000000e+03 3.986945343017578125e+01 2.689875984191894531e+01 8.283423259854316711e-03 1.015864658355712891e+01 3.050079107284545898e+00 -6.691873073577880859e-02
2.652000000000000000e+03 3.564100265502929688e+01 1.137779426574707031e+01 -6.754850149154663086e-01 6.694472789764404297e+00 1.805696368217468262e+00 8.735342025756835938e-01
2.653000000000000000e+03 3.574525070190429688e+01 1.259008312225341797e+01 -7.156382799148559570e-01 6.812674522399902344e+00 1.829110980033874512e+00 9.222562313079833984e-01
2.654000000000000000e+03 3.582900619506835938e+01 1.384780406951904297e+01 -7.483572959899902344e-01 6.936260700225830078e+00 1.856370925903320312e+00 9.647998809814453125e-01
2.655000000000000000e+03 3.581995010375976562e+01 1.933166313171386719e+01 -7.971789836883544922e-01 7.559651374816894531e+00 2.028741598129272461e+00 1.202497720718383789e+00
2.656000000000000000e+03 3.526095962524414062e+01 1.757822227478027344e+01 -7.784318327903747559e-01 7.186989307403564453e+00 1.922567248344421387e+00 1.185626983642578125e+00
2.657000000000000000e+03 6.437637329101562500e+01 1.033061408996582031e+01 -2.114434987306594849e-01 7.822855472564697266e+00 2.283423662185668945e+00 -6.827130913734436035e-01
2.658000000000000000e+03 6.523011016845703125e+01 -9.300922393798828125e+00 -1.425461173057556152e-01 7.904321193695068359e+00 2.328532695770263672e+00 -2.636377513408660889e-01
2.659000000000000000e+03 6.846215057373046875e+01 2.083231210708618164e+00 -1.391921341419219971e-01 7.899974346160888672e+00 2.328234672546386719e+00 -4.434068799018859863e-01
2.660000000000000000e+03 3.672199630737304688e+01 7.369199275970458984e+00 -5.812345743179321289e-01 6.615187168121337891e+00 1.810185790061950684e+00 6.520528793334960938e-01
2.661000000000000000e+03 6.742105102539062500e+01 -1.505429077148437500e+01 -8.320616930723190308e-02 8.032295227050781250e+00 2.384726524353027344e+00 -1.777590364217758179e-01
2.662000000000000000e+03 3.445155334472656250e+01 -6.990239769220352173e-02 -3.178900480270385742e-01 6.037430763244628906e+00 1.715862274169921875e+00 4.715840518474578857e-01
2.663000000000000000e+03 3.602774429321289062e+01 2.914694547653198242e+00 -4.373644590377807617e-01 6.328485965728759766e+00 1.767336487770080566e+00 5.380742549896240234e-01
2.664000000000000000e+03 3.594455337524414062e+01 6.275570869445800781e+00 -5.284643769264221191e-01 6.445023536682128906e+00 1.774967789649963379e+00 6.627862453460693359e-01
2.665000000000000000e+03 6.641699218750000000e+01 -1.913420319557189941e+00 -1.714539527893066406e-01 7.911046981811523438e+00 2.321877956390380859e+00 -3.871132433414459229e-01
2.666000000000000000e+03 6.526605987548828125e+01 -4.285831153392791748e-01 -1.984075605869293213e-01 7.879330158233642578e+00 2.304276704788208008e+00 -4.234491288661956787e-01
2.667000000000000000e+03 3.654105377197265625e+01 1.002630805969238281e+01 -6.613665819168090820e-01 6.765805244445800781e+00 1.831331610679626465e+00 7.651879191398620605e-01
2.668000000000000000e+03 3.679597473144531250e+01 1.119454479217529297e+01 -7.144702076911926270e-01 6.890375614166259766e+00 1.852771639823913574e+00 7.922372221946716309e-01
2.669000000000000000e+03 3.915898895263671875e+01 -4.618957996368408203e+00 -3.426153361797332764e-01 6.441409111022949219e+00 1.829638123512268066e+00 2.565140128135681152e-01
2.670000000000000000e+03 3.542669677734375000e+01 -1.490619540214538574e+00 -3.222001791000366211e-01 6.127622127532958984e+00 1.741626501083374023e+00 4.181019961833953857e-01
2.671000000000000000e+03 6.798075103759765625e+01 -8.311875343322753906e+00 -1.061559766530990601e-01 8.018547058105468750e+00 2.373717308044433594e+00 -2.594127058982849121e-01
2.672000000000000000e+03 6.701651763916015625e+01 -7.881922721862792969e+00 -1.267097294330596924e-01 7.969120502471923828e+00 2.352723121643066406e+00 -2.761690914630889893e-01
2.673000000000000000e+03 6.665314483642578125e+01 8.023641586303710938e+00 -1.746852397918701172e-01 7.806745052337646484e+00 2.289618015289306641e+00 -6.008111238479614258e-01
2.674000000000000000e+03 6.749452972412109375e+01 -1.338978004455566406e+01 -9.296032041311264038e-02 8.029317855834960938e+00 2.380907297134399414e+00 -1.960279792547225952e-01
2.675000000000000000e+03 3.311222839355468750e+01 -1.637590789794921875e+01 -1.042647436261177063e-01 5.724433422088623047e+00 1.686050534248352051e+00 1.536767929792404175e-01
2.676000000000000000e+03 3.973736953735351562e+01 -1.399585723876953125e+01 -2.072426229715347290e-01 6.308645248413085938e+00 1.830420851707458496e+00 1.191029995679855347e-01
2.677000000000000000e+03 6.545987701416015625e+01 2.132953453063964844e+01 3.394063189625740051e-02 7.581022262573242188e+00 2.284488916397094727e+00 -8.126743435859680176e-01
2.678000000000000000e+03 4.753131484985351562e+01 2.428198242187500000e+01 8.438761532306671143e-02 8.971285820007324219e+00 2.716701984405517578e+00 -7.607601881027221680e-01
2.679000000000000000e+03 6.137465286254882812e+01 1.498445129394531250e+01 -1.976636499166488647e-01 7.895952701568603516e+00 2.309486627578735352e+00 -8.002327680587768555e-01
2.680000000000000000e+03 4.137204742431640625e+01 2.691869163513183594e+01 2.098827958106994629e-01 9.985852241516113281e+00 3.058720588684082031e+00 -3.897077143192291260e-01
2.681000000000000000e+03 4.043455886840820312e+01 2.601733779907226562e+01 -1.314156949520111084e-01 9.914877891540527344e+00 2.935038805007934570e+00 -9.346792846918106079e-02
2.682000000000000000e+03 4.912446594238281250e+01 3.077354621887207031e+01 1.144586563110351562e+00 8.915750503540039062e+00 3.018101215362548828e+00 -7.505524754524230957e-01
2.683000000000000000e+03 3.334740829467773438e+01 2.863727760314941406e+01 4.841888844966888428e-01 8.214817047119140625e+00 2.609701871871948242e+00 3.037082672119140625e+00
2.684000000000000000e+03 3.132611083984375000e+01 2.900630378723144531e+01 1.263859272003173828e+00 5.319093227386474609e+00 1.974885821342468262e+00 3.076174497604370117e+00
2.685000000000000000e+03 3.237508392333984375e+01 2.876700019836425781e+01 8.500369787216186523e-01 6.850839614868164062e+00 2.310263156890869141e+00 3.177602291107177734e+00
2.686000000000000000e+03 3.113654327392578125e+01 2.730086517333984375e+01 6.625840663909912109e-01 5.530641555786132812e+00 1.857967734336853027e+00 2.654535531997680664e+00
2.687000000000000000e+03 3.160733032226562500e+01 2.754046440124511719e+01 6.556119918823242188e-01 5.887163162231445312e+00 1.962832570075988770e+00 2.769785881042480469e+00
2.688000000000000000e+03 3.098778343200683594e+01 2.640834617614746094e+01 4.400110840797424316e-01 5.455704212188720703e+00 1.768714547157287598e+00 2.475802421569824219e+00
2.689000000000000000e+03 3.300200271606445312e+01 2.556915664672851562e+01 -1.208864450454711914e-01 7.218317985534667969e+00 2.129229307174682617e+00 2.289530038833618164e+00
2.690000000000000000e+03 3.388179397583007812e+01 2.754383468627929688e+01 4.510070383548736572e-02 8.463936805725097656e+00 2.552711486816406250e+00 2.537356138229370117e+00
2.691000000000000000e+03 3.589287948608398438e+01 2.691187095642089844e+01 -3.296346366405487061e-01 9.745027542114257812e+00 2.824617862701416016e+00 1.559342861175537109e+00
2.692000000000000000e+03 3.424341583251953125e+01 2.267911148071289062e+01 -6.071267127990722656e-01 7.550436496734619141e+00 2.082993030548095703e+00 1.673257708549499512e+00
2.693000000000000000e+03 3.904457855224609375e+01 2.665868949890136719e+01 -1.887457370758056641e-01 1.019728565216064453e+01 3.002562046051025391e+00 2.238430082798004150e-01
2.694000000000000000e+03 3.549692916870117188e+01 2.746707153320312500e+01 -2.326900064945220947e-01 9.797814369201660156e+00 2.869537353515625000e+00 1.746372461318969727e+00
2.695000000000000000e+03 3.425143051147460938e+01 2.354350852966308594e+01 -5.506925582885742188e-01 7.717266559600830078e+00 2.149972200393676758e+00 1.777316570281982422e+00
2.696000000000000000e+03 3.498854446411132812e+01 2.363554191589355469e+01 -6.271103024482727051e-01 8.097336769104003906e+00 2.241067886352539062e+00 1.621907234191894531e+00
2.697000000000000000e+03 3.663460922241210938e+01 2.387587928771972656e+01 -6.683754324913024902e-01 8.836091041564941406e+00 2.450314760208129883e+00 1.158519268035888672e+00
2.698000000000000000e+03 3.418397140502929688e+01 2.173914909362792969e+01 -6.422010064125061035e-01 7.380713462829589844e+00 2.021553754806518555e+00 1.598709821701049805e+00
2.699000000000000000e+03 3.581834793090820312e+01 1.512577724456787109e+01 -7.719400525093078613e-01 7.051508426666259766e+00 1.883870482444763184e+00 1.010625720024108887e+00
2.700000000000000000e+03 3.638316726684570312e+01 1.801122665405273438e+01 -8.274148702621459961e-01 7.537578105926513672e+00 2.013048887252807617e+00 1.063435673713684082e+00
2.701000000000000000e+03 3.547412490844726562e+01 1.316070556640625000e+00 -3.762790262699127197e-01 6.190409183502197266e+00 1.744238972663879395e+00 5.004320144653320312e-01
2.702000000000000000e+03 3.746538543701171875e+01 2.429386377334594727e+00 -4.668453931808471680e-01 6.486916065216064453e+00 1.806021213531494141e+00 4.734263718128204346e-01
2.703000000000000000e+03 3.760418701171875000e+01 8.241554260253906250e+00 -6.434490084648132324e-01 6.807285785675048828e+00 1.849151015281677246e+00 6.375135183334350586e-01
2.704000000000000000e+03 6.568292236328125000e+01 2.379551410675048828e+00 -1.988282054662704468e-01 7.867746353149414062e+00 2.300675392150878906e+00 -4.853955805301666260e-01
2.705000000000000000e+03 6.266407775878906250e+01 -2.429621934890747070e+00 -2.440324872732162476e-01 7.820270538330078125e+00 2.272871494293212891e+00 -3.809304833412170410e-01
2.706000000000000000e+03 6.684814453125000000e+01 8.927874565124511719e-01 -1.701930463314056396e-01 7.895087718963623047e+00 2.317468404769897461e+00 -4.412183165550231934e-01
2.707000000000000000e+03 6.598947906494140625e+01 3.721483707427978516e+00 -1.915742605924606323e-01 7.857960700988769531e+00 2.299916028976440430e+00 -5.109985470771789551e-01
2.708000000000000000e+03 3.564542770385742188e+01 2.467658233642578125e+01 -5.645203590393066406e-01 8.677255630493164062e+00 2.433820724487304688e+00 1.519351720809936523e+00
2.709000000000000000e+03 3.678429031372070312e+01 1.665023040771484375e+01 -8.311715722084045410e-01 7.477278709411621094e+00 1.993832111358642578e+00 9.530252814292907715e-01
2.710000000000000000e+03 3.697736358642578125e+01 1.241637897491455078e+01 -7.452580332756042480e-01 7.024439334869384766e+00 1.883754372596740723e+00 7.987585067749023438e-01
2.711000000000000000e+03 3.651586151123046875e+01 4.350934982299804688e+00 -4.898246824741363525e-01 6.445692539215087891e+00 1.786760449409484863e+00 5.649695992469787598e-01
2.712000000000000000e+03 6.435807037353515625e+01 6.568602085113525391e+00 -2.342182397842407227e-01 7.843440055847167969e+00 2.282766580581665039e+00 -5.882436037063598633e-01
2.713000000000000000e+03 3.714026260375976562e+01 7.465491890907287598e-01 -4.137447774410247803e-01 6.381308078765869141e+00 1.790269017219543457e+00 4.356092214584350586e-01
2.714000000000000000e+03 3.818163299560546875e+01 5.199778556823730469e+00 -5.631197094917297363e-01 6.718276500701904297e+00 1.846547007560729980e+00 5.075764060020446777e-01
2.715000000000000000e+03 6.481674957275390625e+01 -7.390334606170654297e+00 -1.643765270709991455e-01 7.884111404418945312e+00 2.315920352935791016e+00 -2.891629636287689209e-01
2.716000000000000000e+03 6.278113555908203125e+01 -1.479512882232666016e+01 -1.425962448120117188e-01 7.785037517547607422e+00 2.292732238769531250e+00 -1.861826777458190918e-01
2.717000000000000000e+03 6.350449752807617188e+01 1.627326393127441406e+01 -1.245756819844245911e-01 7.790816307067871094e+00 2.299872159957885742e+00 -8.106887936592102051e-01
2.718000000000000000e+03 6.059458923339843750e+01 9.041706085205078125e+00 -3.170153498649597168e-01 7.894556522369384766e+00 2.273262262344360352e+00 -6.448123455047607422e-01
2.719000000000000000e+03 3.628239440917968750e+01 -4.466114997863769531e+00 -2.877651751041412354e-01 6.166150569915771484e+00 1.763515591621398926e+00 3.216971457004547119e-01
2.720000000000000000e+03 3.596166229248046875e+01 -3.070002555847167969e+00 -3.062326908111572266e-01 6.161839008331298828e+00 1.756681919097900391e+00 3.583796620368957520e-01
2.721000000000000000e+03 4.526004791259765625e+01 2.711190223693847656e+01 5.267321467399597168e-01 9.412138938903808594e+00 2.981661319732666016e+00 -7.391156554222106934e-01
2.722000000000000000e+03 4.215467071533203125e+01 2.593909645080566406e+01 4.378318786621093750e-02 9.727679252624511719e+00 2.931438684463500977e+00 -3.950853049755096436e-01
2.723000000000000000e+03 6.418775939941406250e+01 1.217757892608642578e+01 -1.934928745031356812e-01 7.810576915740966797e+00 2.285125255584716797e+00 -7.229477763175964355e-01
2.724000000000000000e+03 6.371178054809570312e+01 7.974702358245849609e+00 -2.432238310575485229e-01 7.843215942382812500e+00 2.279997587203979492e+00 -6.278437376022338867e-01
2.725000000000000000e+03 6.235647583007812500e+01 -1.661513710021972656e+01 -1.303821057081222534e-01 7.759424209594726562e+00 2.288712739944458008e+00 -1.648333966732025146e-01
2.726000000000000000e+03 6.409284973144531250e+01 1.801871681213378906e+01 -6.854545325040817261e-02 7.732255935668945312e+00 2.299113035202026367e+00 -8.232284188270568848e-01
2.727000000000000000e+03 6.188240432739257812e+01 1.684911346435546875e+01 -1.340513378381729126e-01 7.863947391510009766e+00 2.318968772888183594e+00 -8.338590264320373535e-01
2.728000000000000000e+03 3.453406143188476562e+01 1.393621063232421875e+01 -6.945356130599975586e-01 6.627555847167968750e+00 1.779906034469604492e+00 1.084923028945922852e+00
2.729000000000000000e+03 3.635263442993164062e+01 -1.792075920104980469e+01 -1.343293040990829468e-01 5.992572784423828125e+00 1.757473111152648926e+00 1.128340587019920349e-01
2.730000000000000000e+03 3.594634246826171875e+01 -1.397995948791503906e+01 -1.610165536403656006e-01 5.990698814392089844e+00 1.748904705047607422e+00 1.590692102909088135e-01
2.731000000000000000e+03 6.685962677001953125e+01 6.010532379150390625e+00 -1.777040958404541016e-01 7.833348274230957031e+00 2.296693325042724609e+00 -5.528707504272460938e-01
2.732000000000000000e+03 4.980474472045898438e+01 2.645847129821777344e+01 4.395578205585479736e-01 8.810510635375976562e+00 2.775020360946655273e+00 -8.623463511466979980e-01
2.733000000000000000e+03 6.430608367919921875e+01 -1.496063995361328125e+01 -1.195596978068351746e-01 7.867124557495117188e+00 2.324269533157348633e+00 -1.859991699457168579e-01
2.734000000000000000e+03 3.353490447998046875e+01 2.791157913208007812e+01 2.244538366794586182e-01 8.217902183532714844e+00 2.532706737518310547e+00 2.762104988098144531e+00
2.735000000000000000e+03 3.289907836914062500e+01 2.879759216308593750e+01 6.973036527633666992e-01 7.616342544555664062e+00 2.494093894958496094e+00 3.196513414382934570e+00
2.736000000000000000e+03 3.240358352661132812e+01 2.934558486938476562e+01 1.107391238212585449e+00 6.881941318511962891e+00 2.396799802780151367e+00 3.411508798599243164e+00
2.737000000000000000e+03 3.159555053710937500e+01 2.808314132690429688e+01 8.491726517677307129e-01 5.894765377044677734e+00 2.023181438446044922e+00 2.929067373275756836e+00
2.738000000000000000e+03 3.208586120605468750e+01 2.597319221496582031e+01 1.375875025987625122e-01 6.476519107818603516e+00 1.984232068061828613e+00 2.448321819305419922e+00
2.739000000000000000e+03 3.419470977783203125e+01 2.796650314331054688e+01 4.242746904492378235e-02 8.978867530822753906e+00 2.706388473510742188e+00 2.512691497802734375e+00
2.740000000000000000e+03 3.098475265502929688e+01 2.790135383605957031e+01 9.238969683647155762e-01 5.225625514984130859e+00 1.844856858253479004e+00 2.786269187927246094e+00
2.741000000000000000e+03 3.360290527343750000e+01 2.579508018493652344e+01 -1.984847784042358398e-01 7.762646675109863281e+00 2.269248485565185547e+00 2.227560520172119141e+00
2.742000000000000000e+03 3.519837951660156250e+01 2.174482536315917969e+01 -7.169837951660156250e-01 7.786834716796875000e+00 2.120955228805541992e+00 1.426953554153442383e+00
2.743000000000000000e+03 3.592237472534179688e+01 2.626337814331054688e+01 -4.428093433380126953e-01 9.486957550048828125e+00 2.713244438171386719e+00 1.495649099349975586e+00
2.744000000000000000e+03 3.544273757934570312e+01 2.651326179504394531e+01 -3.666380047798156738e-01 9.313478469848632812e+00 2.684052228927612305e+00 1.743458867073059082e+00
2.745000000000000000e+03 3.842596435546875000e+01 1.338424587249755859e+01 -8.116310238838195801e-01 7.399227619171142578e+00 1.976279020309448242e+00 6.920258998870849609e-01
2.746000000000000000e+03 3.724337768554687500e+01 2.609642219543457031e+01 -4.393755793571472168e-01 9.755369186401367188e+00 2.794798135757446289e+00 9.282965064048767090e-01
2.747000000000000000e+03 3.484763717651367188e+01 2.456323623657226562e+01 -5.198281407356262207e-01 8.280971527099609375e+00 2.328343152999877930e+00 1.753474950790405273e+00
2.748000000000000000e+03 3.503217697143554688e+01 2.699225807189941406e+01 -2.670058906078338623e-01 9.215341567993164062e+00 2.684500694274902344e+00 1.945965528488159180e+00
2.749000000000000000e+03 3.910906982421875000e+01 1.853507804870605469e+01 -8.586112856864929199e-01 8.212444305419921875e+00 2.206149816513061523e+00 6.423718929290771484e-01
2.750000000000000000e+03 3.517959213256835938e+01 -4.863435745239257812e+00 -2.563077807426452637e-01 6.029069900512695312e+00 1.731828689575195312e+00 3.369341492652893066e-01
2.751000000000000000e+03 3.925874710083007812e+01 4.912482261657714844e+00 -5.770429968833923340e-01 6.813420772552490234e+00 1.870913267135620117e+00 4.505424797534942627e-01
2.752000000000000000e+03 3.895838928222656250e+01 2.182139873504638672e+00 -4.970523715019226074e-01 6.655776500701904297e+00 1.847617268562316895e+00 3.989191353321075439e-01
2.753000000000000000e+03 6.295283126831054688e+01 4.371757984161376953e+00 -2.692913711071014404e-01 7.849788665771484375e+00 2.274149179458618164e+00 -5.383598208427429199e-01
2.754000000000000000e+03 3.753862762451171875e+01 9.794877052307128906e+00 -6.886522173881530762e-01 6.929180145263671875e+00 1.872158408164978027e+00 6.783508658409118652e-01
2.755000000000000000e+03 3.803917312622070312e+01 1.090996360778808594e+01 -7.382652759552001953e-01 7.093984127044677734e+00 1.906715750694274902e+00 6.731296181678771973e-01
2.756000000000000000e+03 3.799675369262695312e+01 2.592171478271484375e+01 -4.119981825351715088e-01 9.862435340881347656e+00 2.835131168365478516e+00 6.663886308670043945e-01
2.757000000000000000e+03 3.715739822387695312e+01 -1.073956966400146484e+00 -3.757175803184509277e-01 6.329112529754638672e+00 1.786018490791320801e+00 3.878380656242370605e-01
2.758000000000000000e+03 3.705672454833984375e+01 5.626191139221191406e+00 -5.415276885032653809e-01 6.574667453765869141e+00 1.809941887855529785e+00 5.844609141349792480e-01
2.759000000000000000e+03 6.164753723144531250e+01 1.061888885498046875e+01 -2.716949582099914551e-01 7.882238388061523438e+00 2.283163070678710938e+00 -6.952304840087890625e-01
2.760000000000000000e+03 6.374154663085937500e+01 2.225934791564941406e+01 6.607858836650848389e-02 7.682996273040771484e+00 2.324722528457641602e+00 -8.475525975227355957e-01
2.761000000000000000e+03 6.242731475830078125e+01 1.868680000305175781e+01 -6.588339805603027344e-02 7.818685054779052734e+00 2.325840473175048828e+00 -8.558425307273864746e-01
2.762000000000000000e+03 6.262683105468750000e+01 7.134506702423095703e+00 -2.719552814960479736e-01 7.857720851898193359e+00 2.275729656219482422e+00 -6.110311150550842285e-01
2.763000000000000000e+03 4.292431259155273438e+01 2.470332717895507812e+01 -1.257757544517517090e-01 9.486735343933105469e+00 2.808287858963012695e+00 -3.992243111133575439e-01
2.764000000000000000e+03 4.510076522827148438e+01 2.417877769470214844e+01 -6.939226388931274414e-02 9.224773406982421875e+00 2.746614456176757812e+00 -5.887965559959411621e-01
2.765000000000000000e+03 3.720862960815429688e+01 1.982083511352539062e+01 -8.378208279609680176e-01 8.065481185913085938e+00 2.168298006057739258e+00 9.674687385559082031e-01
2.766000000000000000e+03 3.646285629272460938e+01 2.474482727050781250e+01 -5.970351099967956543e-01 9.068100929260253906e+00 2.541319608688354492e+00 1.228555202484130859e+00
2.767000000000000000e+03 4.005314254760742188e+01 2.428110122680664062e+01 -4.816330373287200928e-01 9.515128135681152344e+00 2.710048437118530273e+00 1.888283491134643555e-01
2.768000000000000000e+03 6.403092956542968750e+01 -1.025581073760986328e+01 -1.557903587818145752e-01 7.854387283325195312e+00 2.309579133987426758e+00 -2.491027265787124634e-01
2.769000000000000000e+03 6.247333908081054688e+01 1.247535896301269531e+01 -2.260838299989700317e-01 7.861285209655761719e+00 2.290560483932495117e+00 -7.401949763298034668e-01
2.770000000000000000e+03 3.716641235351562500e+01 1.375826072692871094e+01 -7.909337282180786133e-01 7.221407413482666016e+00 1.929142117500305176e+00 8.165767788887023926e-01
2.771000000000000000e+03 3.794823837280273438e+01 1.698020744323730469e+01 -8.547099232673645020e-01 7.744817733764648438e+00 2.067032337188720703e+00 8.074460029602050781e-01
2.772000000000000000e+03 6.373104858398437500e+01 -1.891906929016113281e+01 -1.018731072545051575e-01 7.835542201995849609e+00 2.320100784301757812e+00 -1.444214731454849243e-01
2.773000000000000000e+03 6.557563018798828125e+01 -1.893115234375000000e+01 -8.714767545461654663e-02 7.935636520385742188e+00 2.354546785354614258e+00 -1.444311439990997314e-01
2.774000000000000000e+03 6.382876968383789062e+01 -1.225289821624755859e+01 -1.494872123003005981e-01 7.839048862457275391e+00 2.306868314743041992e+00 -2.153294235467910767e-01
2.775000000000000000e+03 3.514863586425781250e+01 -6.823360443115234375e+00 -2.274594604969024658e-01 6.008969783782958984e+00 1.734453201293945312e+00 2.916797995567321777e-01
2.776000000000000000e+03 3.896994400024414062e+01 -1.087124466896057129e+00 -4.190962016582489014e-01 6.539695739746093750e+00 1.836179852485656738e+00 3.322703242301940918e-01
2.777000000000000000e+03 6.545307922363281250e+01 2.574561882019042969e+01 1.748311966657638550e-01 7.466757774353027344e+00 2.292476654052734375e+00 -7.672355771064758301e-01
2.778000000000000000e+03 3.762858200073242188e+01 6.690722942352294922e+00 -5.912677645683288574e-01 6.702110767364501953e+00 1.833252906799316406e+00 5.910689830780029297e-01
2.779000000000000000e+03 3.844066619873046875e+01 7.401211261749267578e+00 -6.396377682685852051e-01 6.879971504211425781e+00 1.872100114822387695e+00 5.562885403633117676e-01
2.780000000000000000e+03 3.593990325927734375e+01 -8.029313087463378906e+00 -2.298299223184585571e-01 6.073798179626464844e+00 1.753190517425537109e+00 2.611551880836486816e-01
2.781000000000000000e+03 4.946381759643554688e+01 2.213331222534179688e+01 -1.110244989395141602e-01 8.719189643859863281e+00 2.582449674606323242e+00 -7.528583407402038574e-01
2.782000000000000000e+03 5.238754272460937500e+01 2.936492347717285156e+01 8.033012151718139648e-01 8.603334426879882812e+00 2.821990728378295898e+00 -8.223538398742675781e-01
2.783000000000000000e+03 4.872920227050781250e+01 2.810474967956542969e+01 7.372937798500061035e-01 8.945041656494140625e+00 2.904700517654418945e+00 -8.371598124504089355e-01
2.784000000000000000e+03 3.319183349609375000e+01 2.816631889343261719e+01 3.900875151157379150e-01 7.923257350921630859e+00 2.494003534317016602e+00 2.935100317001342773e+00
2.785000000000000000e+03 3.236402511596679688e+01 2.673023033142089844e+01 2.303560972213745117e-01 6.790953636169433594e+00 2.106392860412597656e+00 2.589007139205932617e+00
2.786000000000000000e+03 3.279528808593750000e+01 2.692395401000976562e+01 1.706655174493789673e-01 7.271574974060058594e+00 2.232672214508056641e+00 2.613650560379028320e+00
2.787000000000000000e+03 3.570463943481445312e+01 2.553816032409667969e+01 -4.979859292507171631e-01 9.034036636352539062e+00 2.560815095901489258e+00 1.547145605087280273e+00
2.788000000000000000e+03 3.356116104125976562e+01 2.720316314697265625e+01 5.470525100827217102e-02 8.059619903564453125e+00 2.434297561645507812e+00 2.552127361297607422e+00
2.789000000000000000e+03 3.327305221557617188e+01 2.751142692565917969e+01 2.082616835832595825e-01 7.783688068389892578e+00 2.397584915161132812e+00 2.698386669158935547e+00
2.790000000000000000e+03 3.654251861572265625e+01 2.620801162719726562e+01 -4.435948133468627930e-01 9.561240196228027344e+00 2.735293626785278320e+00 1.234110713005065918e+00
2.791000000000000000e+03 3.507157897949218750e+01 2.591245651245117188e+01 -4.055636525154113770e-01 8.832742691040039062e+00 2.528153896331787109e+00 1.820302963256835938e+00
2.792000000000000000e+03 3.422947311401367188e+01 2.706169509887695312e+01 -1.283748000860214233e-01 8.637608528137207031e+00 2.552770137786865234e+00 2.311670064926147461e+00
2.793000000000000000e+03 3.918403244018554688e+01 2.354417228698730469e+01 -6.374425292015075684e-01 9.293954849243164062e+00 2.596953630447387695e+00 4.515100121498107910e-01
2.794000000000000000e+03 3.884386062622070312e+01 2.574605178833007812e+01 -3.698709011077880859e-01 9.898054122924804688e+00 2.858455181121826172e+00 3.810917437076568604e-01
2.795000000000000000e+03 3.614047241210937500e+01 2.205701446533203125e+01 -7.622369527816772461e-01 8.192394256591796875e+00 2.229047060012817383e+00 1.248903632164001465e+00
2.796000000000000000e+03 3.662117004394531250e+01 2.108652877807617188e+01 -8.040148615837097168e-01 8.147505760192871094e+00 2.203047275543212891e+00 1.103984713554382324e+00
2.797000000000000000e+03 3.939563369750976562e+01 1.621991920471191406e+01 -8.574478030204772949e-01 7.877316951751708984e+00 2.105960845947265625e+00 5.974592566490173340e-01
2.798000000000000000e+03 3.920915603637695312e+01 1.442231750488281250e+01 -8.363553285598754883e-01 7.607933521270751953e+00 2.031473398208618164e+00 6.225470304489135742e-01
2.799000000000000000e+03 3.848376846313476562e+01 2.392929267883300781e+01 -6.294381022453308105e-01 9.275855064392089844e+00 2.593925237655639648e+00 6.241624355316162109e-01
2.800000000000000000e+03 3.846746826171875000e+01 9.129846572875976562e+00 -6.961098313331604004e-01 7.004238128662109375e+00 1.892438530921936035e+00 6.072615981101989746e-01
2.801000000000000000e+03 3.712466812133789062e+01 1.521104335784912109e+01 -8.215082883834838867e-01 7.363917827606201172e+00 1.962722897529602051e+00 8.649716973304748535e-01
2.802000000000000000e+03 6.192582702636718750e+01 6.127538204193115234e+00 -2.943193018436431885e-01 7.860298156738281250e+00 2.269793748855590820e+00 -5.789029598236083984e-01
2.803000000000000000e+03 3.952043914794921875e+01 2.520490074157714844e+01 -4.036617577075958252e-01 9.747291564941406250e+00 2.803088903427124023e+00 2.337747514247894287e-01
2.804000000000000000e+03 4.058633804321289062e+01 2.330140304565429688e+01 -5.589884519577026367e-01 9.313080787658691406e+00 2.626227855682373047e+00 1.434029042720794678e-01
2.805000000000000000e+03 3.890375900268554688e+01 5.947397947311401367e-01 -4.554564356803894043e-01 6.589299678802490234e+00 1.840152978897094727e+00 3.630811572074890137e-01
2.806000000000000000e+03 4.361677932739257812e+01 2.316034889221191406e+01 -3.159746527671813965e-01 9.208847045898437500e+00 2.667861700057983398e+00 -3.582949042320251465e-01
2.807000000000000000e+03 4.902544784545898438e+01 2.397810935974121094e+01 7.723674178123474121e-02 8.828418731689453125e+00 2.671696662902832031e+00 -8.108880519866943359e-01
2.808000000000000000e+03 3.945933532714843750e+01 1.987214088439941406e+01 -8.314573764801025391e-01 8.483836174011230469e+00 2.295713663101196289e+00 5.606338381767272949e-01
2.809000000000000000e+03 3.772687149047851562e+01 2.165175247192382812e+01 -8.013454079627990723e-01 8.513744354248046875e+00 2.313719749450683594e+00 9.050119519233703613e-01
2.810000000000000000e+03 6.356641006469726562e+01 -3.252903223037719727e+00 -2.174265086650848389e-01 7.843015193939208984e+00 2.287676572799682617e+00 -3.639376759529113770e-01
2.811000000000000000e+03 6.302982711791992188e+01 -1.129487133026123047e+01 -1.719479411840438843e-01 7.802730560302734375e+00 2.289234638214111328e+00 -2.299758940935134888e-01
2.812000000000000000e+03 6.014212417602539062e+01 1.142200088500976562e+01 -3.009290099143981934e-01 7.924980163574218750e+00 2.287215232849121094e+00 -7.082545757293701172e-01
2.813000000000000000e+03 5.968822479248046875e+01 7.583842277526855469e+00 -3.519472777843475342e-01 7.888039588928222656e+00 2.260827541351318359e+00 -5.939455032348632812e-01
2.814000000000000000e+03 6.260036849975585938e+01 -2.152781486511230469e-01 -2.561315596103668213e-01 7.831168174743652344e+00 2.272511005401611328e+00 -4.273791909217834473e-01
2.815000000000000000e+03 6.408321380615234375e+01 1.084758281707763672e+00 -2.341796755790710449e-01 7.856787681579589844e+00 2.286782503128051758e+00 -4.618974924087524414e-01
2.816000000000000000e+03 3.723242568969726562e+01 -7.787048816680908203e+00 -2.525012493133544922e-01 6.183523654937744141e+00 1.779306650161743164e+00 2.426250427961349487e-01
2.817000000000000000e+03 5.463592147827148438e+01 1.517013835906982422e+01 -3.777953386306762695e-01 8.165627479553222656e+00 2.336349725723266602e+00 -7.060780525207519531e-01
2.818000000000000000e+03 6.082523727416992188e+01 1.315225982666015625e+01 -2.560021877288818359e-01 7.917712211608886719e+00 2.298512935638427734e+00 -7.561511397361755371e-01
2.819000000000000000e+03 6.192751693725585938e+01 2.319185638427734375e+01 1.144325360655784607e-01 7.786758422851562500e+00 2.370357275009155273e+00 -8.728314042091369629e-01
2.820000000000000000e+03 6.125072479248046875e+01 2.127230262756347656e+01 2.794566564261913300e-02 7.862428188323974609e+00 2.367112159729003906e+00 -8.865607380867004395e-01
2.821000000000000000e+03 3.762219619750976562e+01 -4.496466636657714844e+00 -3.173206150531768799e-01 6.297008037567138672e+00 1.793906211853027344e+00 2.949520647525787354e-01
2.822000000000000000e+03 3.837601470947265625e+01 1.559497070312500000e+01 -8.467655181884765625e-01 7.630643367767333984e+00 2.035163402557373047e+00 7.251524925231933594e-01
2.823000000000000000e+03 4.226884841918945312e+01 2.121921539306640625e+01 -6.246908307075500488e-01 8.972527503967285156e+00 2.504350900650024414e+00 -1.287461724132299423e-02
2.824000000000000000e+03 6.317533874511718750e+01 -1.326655101776123047e+01 -1.423343420028686523e-01 7.807084083557128906e+00 2.299424886703491211e+00 -2.069089412689208984e-01
2.825000000000000000e+03 6.266760635375976562e+01 2.623698234558105469e+00 -2.680348753929138184e-01 7.842876911163330078e+00 2.272452592849731445e+00 -4.937155246734619141e-01
2.826000000000000000e+03 3.494045257568359375e+01 -1.267403793334960938e+01 -1.589708328247070312e-01 5.919290542602539062e+00 1.728095889091491699e+00 1.928681433200836182e-01
2.827000000000000000e+03 6.188148498535156250e+01 -1.862631225585937500e+01 -1.204462870955467224e-01 7.727583885192871094e+00 2.282141208648681641e+00 -1.457024514675140381e-01
2.828000000000000000e+03 6.018576431274414062e+01 1.746164703369140625e+01 -1.424865126609802246e-01 7.949419498443603516e+00 2.342079877853393555e+00 -8.532682657241821289e-01
2.829000000000000000e+03 3.668957519531250000e+01 -9.105710983276367188e+00 -2.257041037082672119e-01 6.123089313507080078e+00 1.769215583801269531e+00 2.273052632808685303e-01
2.830000000000000000e+03 6.136074829101562500e+01 -1.433551597595214844e+01 -1.624298244714736938e-01 7.712209701538085938e+00 2.264934062957763672e+00 -1.843014955520629883e-01
2.831000000000000000e+03 6.073387908935546875e+01 -1.616104507446289062e+01 -1.496842205524444580e-01 7.670798301696777344e+00 2.256334304809570312e+00 -1.659819185733795166e-01
2.832000000000000000e+03 5.116761779785156250e+01 2.765094566345214844e+01 6.230424046516418457e-01 8.696665763854980469e+00 2.795912504196166992e+00 -8.716304898262023926e-01
2.833000000000000000e+03 4.850103378295898438e+01 2.551974296569824219e+01 3.124772608280181885e-01 8.939043045043945312e+00 2.775455951690673828e+00 -8.378645181655883789e-01
2.834000000000000000e+03 3.908088302612304688e+01 3.635744094848632812e+00 -5.389773249626159668e-01 6.744091510772705078e+00 1.861534237861633301e+00 4.294364154338836670e-01
2.835000000000000000e+03 3.261159133911132812e+01 2.752623367309570312e+01 3.755553662776947021e-01 7.115239143371582031e+00 2.247238397598266602e+00 2.766814708709716797e+00
2.836000000000000000e+03 3.413763809204101562e+01 2.609842109680175781e+01 -2.481238991022109985e-01 8.269959449768066406e+00 2.406550645828247070e+00 2.166318655014038086e+00
2.837000000000000000e+03 3.219846343994140625e+01 2.728639411926269531e+01 4.061867892742156982e-01 6.677420616149902344e+00 2.125082254409790039e+00 2.743993282318115234e+00
2.838000000000000000e+03 3.199019622802734375e+01 2.781754493713378906e+01 6.773770451545715332e-01 6.382010936737060547e+00 2.117816448211669922e+00 2.926975011825561523e+00
2.839000000000000000e+03 3.460591125488281250e+01 2.650765800476074219e+01 -2.665678560733795166e-01 8.700479507446289062e+00 2.530173301696777344e+00 2.083443403244018555e+00
2.840000000000000000e+03 3.453226089477539062e+01 2.540703010559082031e+01 -3.926205933094024658e-01 8.329171180725097656e+00 2.380964994430541992e+00 1.935906887054443359e+00
2.841000000000000000e+03 3.662203216552734375e+01 2.282278251647949219e+01 -7.394686341285705566e-01 8.504502296447753906e+00 2.329510211944580078e+00 1.145515680313110352e+00
2.842000000000000000e+03 3.639801788330078125e+01 2.545212745666503906e+01 -5.365245938301086426e-01 9.275918960571289062e+00 2.621818304061889648e+00 1.269487619400024414e+00
2.843000000000000000e+03 3.906240844726562500e+01 1.723798179626464844e+01 -8.657687306404113770e-01 7.973320484161376953e+00 2.132265567779541016e+00 6.501389145851135254e-01
2.844000000000000000e+03 3.773549270629882812e+01 2.496354675292968750e+01 -5.662389397621154785e-01 9.444256782531738281e+00 2.663405418395996094e+00 8.266568183898925781e-01
2.845000000000000000e+03 4.099261856079101562e+01 2.100080108642578125e+01 -7.195674777030944824e-01 8.876351356506347656e+00 2.447035074234008789e+00 2.177044302225112915e-01
2.846000000000000000e+03 4.642424774169921875e+01 2.266501045227050781e+01 -1.978338211774826050e-01 8.980955123901367188e+00 2.634936332702636719e+00 -6.071767807006835938e-01
2.847000000000000000e+03 3.974052810668945312e+01 5.992320537567138672e+00 -6.254249215126037598e-01 6.962016105651855469e+00 1.900977373123168945e+00 4.398764967918395996e-01
2.848000000000000000e+03 4.213921737670898438e+01 1.153449821472167969e+01 -7.928388714790344238e-01 7.687970638275146484e+00 2.068539619445800781e+00 2.934536635875701904e-01
2.849000000000000000e+03 5.873598861694335938e+01 2.935027837753295898e+00 -3.626869916915893555e-01 7.805829524993896484e+00 2.232942819595336914e+00 -4.585097134113311768e-01
2.850000000000000000e+03 3.931291961669921875e+01 1.249212646484375000e+01 -8.016388416290283203e-01 7.440743446350097656e+00 1.991731405258178711e+00 5.767112970352172852e-01
2.851000000000000000e+03 3.821973800659179688e+01 1.216940593719482422e+01 -7.734364271163940430e-01 7.221004486083984375e+00 1.934270381927490234e+00 6.889593005180358887e-01
2.852000000000000000e+03 4.332611846923828125e+01 5.041481018066406250e+00 -6.394633650779724121e-01 7.282666683197021484e+00 1.992961049079895020e+00 1.961850225925445557e-01
2.853000000000000000e+03 4.214841842651367188e+01 2.263222312927246094e+01 -5.119446516036987305e-01 9.183166503906250000e+00 2.601366519927978516e+00 -8.410958200693130493e-02
2.854000000000000000e+03 4.051760101318359375e+01 1.826739692687988281e+01 -8.349944353103637695e-01 8.384557723999023438e+00 2.264868974685668945e+00 3.844303488731384277e-01
2.855000000000000000e+03 4.147458648681640625e+01 3.678550481796264648e+00 -5.860317945480346680e-01 7.005675315856933594e+00 1.925893068313598633e+00 2.997197508811950684e-01
2.856000000000000000e+03 3.836439132690429688e+01 2.056121444702148438e+01 -8.293570280075073242e-01 8.429222106933593750e+00 2.279959678649902344e+00 7.659009099006652832e-01
2.857000000000000000e+03 3.992635726928710938e+01 2.188448143005371094e+01 -7.210803627967834473e-01 8.992896080017089844e+00 2.481544733047485352e+00 3.740807473659515381e-01
2.858000000000000000e+03 4.043210601806640625e+01 2.135256767272949219e+00 -5.253317356109619141e-01 6.821551799774169922e+00 1.888866066932678223e+00 3.276380300521850586e-01
2.859000000000000000e+03 6.082173538208007812e+01 6.825728893280029297e+00 -3.222925066947937012e-01 7.870225429534912109e+00 2.264379739761352539e+00 -5.868613123893737793e-01
2.860000000000000000e+03 6.170693588256835938e+01 8.132911682128906250e+00 -2.946757674217224121e-01 7.874585151672363281e+00 2.273972749710083008e+00 -6.315824389457702637e-01
2.861000000000000000e+03 4.209003829956054688e+01 1.359313201904296875e+01 -8.225547671318054199e-01 7.897534370422363281e+00 2.122493982315063477e+00 2.827234864234924316e-01
2.862000000000000000e+03 3.701033020019531250e+01 2.523416519165039062e+01 -5.511824488639831543e-01 9.350509643554687500e+00 2.639797925949096680e+00 1.051558852195739746e+00
2.863000000000000000e+03 6.271847152709960938e+01 -4.439185142517089844e+00 -2.239695489406585693e-01 7.818437099456787109e+00 2.278340339660644531e+00 -3.432610034942626953e-01
2.864000000000000000e+03 6.193330383300781250e+01 -5.644378662109375000e+00 -2.290601432323455811e-01 7.784333705902099609e+00 2.266582012176513672e+00 -3.146526515483856201e-01
2.865000000000000000e+03 6.305194473266601562e+01 -7.691078186035156250e+00 -1.919831633567810059e-01 7.816136837005615234e+00 2.287246227264404297e+00 -2.847360968589782715e-01
2.866000000000000000e+03 3.841580963134765625e+01 2.304052734375000000e+01 -7.134170532226562500e-01 8.975623130798339844e+00 2.478661775588989258e+00 6.986346244812011719e-01
2.867000000000000000e+03 3.750127792358398438e+01 2.280494880676269531e+01 -7.515275478363037109e-01 8.748103141784667969e+00 2.398972511291503906e+00 9.413543343544006348e-01
2.868000000000000000e+03 3.607685470581054688e+01 -5.729105949401855469e+00 -2.643868327140808105e-01 6.114539146423339844e+00 1.755045771598815918e+00 2.998786270618438721e-01
2.869000000000000000e+03 4.410506820678710938e+01 -7.238451480865478516e+00 -3.461113870143890381e-01 6.802898406982421875e+00 1.937036037445068359e+00 8.475954830646514893e-02
2.870000000000000000e+03 3.910643005371093750e+01 -2.826539516448974609e+00 -3.813707232475280762e-01 6.488415718078613281e+00 1.832113385200500488e+00 2.933785319328308105e-01
2.871000000000000000e+03 3.747395706176757812e+01 -2.829003334045410156e+00 -3.437463045120239258e-01 6.318212985992431641e+00 1.792340040206909180e+00 3.356438577175140381e-01
2.872000000000000000e+03 3.552530670166015625e+01 -1.020084476470947266e+01 -1.964110136032104492e-01 6.013801097869873047e+00 1.745216965675354004e+00 2.282130569219589233e-01
2.873000000000000000e+03 5.839940261840820312e+01 -1.094305324554443359e+01 -2.332415878772735596e-01 7.592027187347412109e+00 2.207635641098022461e+00 -2.060705721378326416e-01
2.874000000000000000e+03 4.042371749877929688e+01 -1.066709804534912109e+01 -2.565056383609771729e-01 6.415713787078857422e+00 1.847762465476989746e+00 1.452126950025558472e-01
2.875000000000000000e+03 4.778471755981445312e+01 2.116422271728515625e+01 -2.749799191951751709e-01 8.768804550170898438e+00 2.548147439956665039e+00 -6.274574995040893555e-01
2.876000000000000000e+03 5.248657226562500000e+01 2.578307342529296875e+01 3.576304018497467041e-01 8.547224044799804688e+00 2.671456336975097656e+00 -9.068316221237182617e-01
2.877000000000000000e+03 3.297093963623046875e+01 2.779350662231445312e+01 3.442367017269134521e-01 7.536841869354248047e+00 2.364323616027832031e+00 2.835337877273559570e+00
2.878000000000000000e+03 3.863925170898437500e+01 2.484778213500976562e+01 -5.279948711395263672e-01 9.515428543090820312e+00 2.696230173110961914e+00 5.460674166679382324e-01
2.879000000000000000e+03 4.334273529052734375e+01 1.982725524902343750e+01 -6.562355160713195801e-01 8.765389442443847656e+00 2.432746171951293945e+00 -9.941338747739791870e-02
2.880000000000000000e+03 4.374739837646484375e+01 2.139867401123046875e+01 -5.052376389503479004e-01 8.983468055725097656e+00 2.543469190597534180e+00 -2.577094733715057373e-01
2.881000000000000000e+03 3.892974472045898438e+01 -1.136495208740234375e+01 -2.279687225818634033e-01 6.279306411743164062e+00 1.815401315689086914e+00 1.596039831638336182e-01
2.882000000000000000e+03 3.785090255737304688e+01 -1.004651165008544922e+01 -2.318001091480255127e-01 6.206675529479980469e+00 1.792462587356567383e+00 1.942419111728668213e-01
2.883000000000000000e+03 4.005747604370117188e+01 1.705448150634765625e+01 -8.688831329345703125e-01 8.123950958251953125e+00 2.176520347595214844e+00 5.008489489555358887e-01
2.884000000000000000e+03 4.111942672729492188e+01 1.449591732025146484e+01 -8.466029763221740723e-01 7.896138191223144531e+00 2.114860534667968750e+00 3.923328220844268799e-01
2.885000000000000000e+03 4.217782211303710938e+01 1.980647468566894531e+01 -7.227776050567626953e-01 8.728951454162597656e+00 2.401852130889892578e+00 8.107852935791015625e-02
2.886000000000000000e+03 3.990917968750000000e+01 2.097707939147949219e+01 -7.734810113906860352e-01 8.792833328247070312e+00 2.405805826187133789e+00 4.284815490245819092e-01
2.887000000000000000e+03 4.085370635986328125e+01 1.965931320190429688e+01 -7.890411019325256348e-01 8.619344711303710938e+00 2.349091053009033203e+00 2.983154356479644775e-01
2.888000000000000000e+03 3.960323333740234375e+01 2.273484611511230469e+01 -6.792225837707519531e-01 9.156329154968261719e+00 2.543132066726684570e+00 3.904347419738769531e-01
2.889000000000000000e+03 4.016380691528320312e+01 1.141983222961425781e+01 -7.836104631423950195e-01 7.446529865264892578e+00 1.998875856399536133e+00 4.879109263420104980e-01
2.890000000000000000e+03 4.116871261596679688e+01 1.249542236328125000e+01 -8.112595677375793457e-01 7.686372756958007812e+00 2.062534093856811523e+00 3.895557522773742676e-01
2.891000000000000000e+03 6.379962158203125000e+01 -1.860279798507690430e+00 -2.224550694227218628e-01 7.852783679962158203e+00 2.289098739624023438e+00 -3.969337344169616699e-01
2.892000000000000000e+03 6.068083190917968750e+01 -2.753103017807006836e+00 -2.788113653659820557e-01 7.767196178436279297e+00 2.246515512466430664e+00 -3.599760830402374268e-01
2.893000000000000000e+03 6.136399459838867188e+01 -7.321997165679931641e+00 -2.219316959381103516e-01 7.752916812896728516e+00 2.259295463562011719e+00 -2.830714881420135498e-01
2.894000000000000000e+03 5.912588500976562500e+01 -8.277007102966308594e+00 -2.454268336296081543e-01 7.656971931457519531e+00 2.223463535308837891e+00 -2.536700069904327393e-01
2.895000000000000000e+03 4.057783126831054688e+01 5.592007040977478027e-01 -4.868522882461547852e-01 6.766778469085693359e+00 1.883977890014648438e+00 2.991009652614593506e-01
2.896000000000000000e+03 4.220884704589843750e+01 6.629630923271179199e-01 -5.117147564888000488e-01 6.928082942962646484e+00 1.924910426139831543e+00 2.259730398654937744e-01
2.897000000000000000e+03 4.022518920898437500e+01 1.345488548278808594e+01 -8.221961259841918945e-01 7.655228614807128906e+00 2.049909830093383789e+00 4.844169318675994873e-01
2.898000000000000000e+03 3.904511642456054688e+01 -6.457565784454345703e+00 -3.051428198814392090e-01 6.393923282623291016e+00 1.826634168624877930e+00 2.227424532175064087e-01
2.899000000000000000e+03 3.745679855346679688e+01 -6.171484947204589844e+00 -2.791378498077392578e-01 6.236480236053466797e+00 1.787202715873718262e+00 2.646967768669128418e-01
2.900000000000000000e+03 3.870008468627929688e+01 2.218103599548339844e+01 -7.575002312660217285e-01 8.855963706970214844e+00 2.429538965225219727e+00 6.515098214149475098e-01
2.901000000000000000e+03 6.206174087524414062e+01 -1.256645298004150391e+01 -1.654436141252517700e-01 7.758676052093505859e+00 2.277969837188720703e+00 -2.129255235195159912e-01
2.902000000000000000e+03 4.651323318481445312e+01 1.980119132995605469e+01 -4.673947393894195557e-01 8.745038032531738281e+00 2.483293056488037109e+00 -4.552691876888275146e-01
2.903000000000000000e+03 5.133910369873046875e+01 2.278321266174316406e+01 2.783071622252464294e-02 8.604043960571289062e+00 2.589562416076660156e+00 -8.527956008911132812e-01
2.904000000000000000e+03 4.200701141357421875e+01 6.175012111663818359e+00 -6.617359519004821777e-01 7.221786975860595703e+00 1.968015313148498535e+00 2.940067648887634277e-01
2.905000000000000000e+03 4.056836700439453125e+01 7.104951858520507812e+00 -6.746421456336975098e-01 7.130615234375000000e+00 1.936791896820068359e+00 4.119054973125457764e-01
2.906000000000000000e+03 4.553598785400390625e+01 1.840545654296875000e+01 -6.231368184089660645e-01 8.624261856079101562e+00 2.400337457656860352e+00 -2.712611854076385498e-01
2.907000000000000000e+03 6.345191192626953125e+01 -2.123019027709960938e+01 -9.477543085813522339e-02 7.813746929168701172e+00 2.315691471099853516e+00 -1.245002597570419312e-01
2.908000000000000000e+03 3.825000381469726562e+01 -1.422548484802246094e+01 -1.885948479175567627e-01 6.184039592742919922e+00 1.798633337020874023e+00 1.384378075599670410e-01
2.909000000000000000e+03 6.891001129150390625e+01 2.845027732849121094e+01 1.666769236326217651e-01 7.105887413024902344e+00 2.181769371032714844e+00 -6.027800440788269043e-01
2.910000000000000000e+03 6.087165451049804688e+01 2.619431114196777344e+01 2.761661410331726074e-01 7.823058128356933594e+00 2.429767370223999023e+00 -8.522019386291503906e-01
2.911000000000000000e+03 4.198173141479492188e+01 1.561372756958007812e+01 -8.327116370201110840e-01 8.136574745178222656e+00 2.191159009933471680e+00 2.569865286350250244e-01
2.912000000000000000e+03 6.546103668212890625e+01 9.939391016960144043e-01 -2.026347368955612183e-01 7.875240802764892578e+00 2.301781892776489258e+00 -4.551621377468109131e-01
2.913000000000000000e+03 6.177358245849609375e+01 -1.505907893180847168e+00 -2.680340409278869629e-01 7.809774875640869141e+00 2.262522220611572266e+00 -3.950857222080230713e-01
2.914000000000000000e+03 4.174188995361328125e+01 1.764551734924316406e+01 -8.095685243606567383e-01 8.387106895446777344e+00 2.273261547088623047e+00 2.275106757879257202e-01
2.915000000000000000e+03 4.444144821166992188e+01 1.927853393554687500e+01 -6.390565633773803711e-01 8.711942672729492188e+00 2.421865701675415039e+00 -1.882025897502899170e-01
2.916000000000000000e+03 4.245753479003906250e+01 -1.146481394767761230e+00 -4.732567369937896729e-01 6.877828121185302734e+00 1.921371459960937500e+00 1.978724151849746704e-01
2.917000000000000000e+03 4.030290222167968750e+01 4.945140838623046875e+00 -6.104388236999511719e-01 6.982993602752685547e+00 1.911766409873962402e+00 3.892950415611267090e-01
2.918000000000000000e+03 4.312139892578125000e+01 2.734885215759277344e+00 -5.810369253158569336e-01 7.132221698760986328e+00 1.965355515480041504e+00 1.990562975406646729e-01
2.919000000000000000e+03 5.728327560424804688e+01 -4.131040573120117188e+00 -3.272652029991149902e-01 7.631309032440185547e+00 2.191213130950927734e+00 -2.851751446723937988e-01
2.920000000000000000e+03 5.831218338012695312e+01 -5.564349174499511719e+00 -2.889638245105743408e-01 7.650247097015380859e+00 2.208384990692138672e+00 -2.792116701602935791e-01
2.921000000000000000e+03 5.201143264770507812e+01 1.886820602416992188e+01 -2.981802225112915039e-01 8.410344123840332031e+00 2.433649301528930664e+00 -7.415004372596740723e-01
2.922000000000000000e+03 6.575041961669921875e+01 -2.552178955078125000e+01 -5.374091118574142456e-02 7.987550258636474609e+00 2.380142927169799805e+00 -9.415270388126373291e-02
2.923000000000000000e+03 6.564833068847656250e+01 -2.116458129882812500e+01 -7.613770663738250732e-02 7.946844100952148438e+00 2.361212015151977539e+00 -1.227750703692436218e-01
2.924000000000000000e+03 4.259150695800781250e+01 7.484647274017333984e+00 -6.980761885643005371e-01 7.376245498657226562e+00 2.003450632095336914e+00 2.576821446418762207e-01
2.925000000000000000e+03 5.070890045166015625e+01 2.472255706787109375e+01 2.117528468370437622e-01 8.684312820434570312e+00 2.668819904327392578e+00 -8.657036423683166504e-01
2.926000000000000000e+03 4.139685440063476562e+01 8.326704978942871094e+00 -7.133108377456665039e-01 7.316729545593261719e+00 1.981025576591491699e+00 3.557080924510955811e-01
2.927000000000000000e+03 4.221848297119140625e+01 9.474530220031738281e+00 -7.452812194824218750e-01 7.511119842529296875e+00 2.029751539230346680e+00 2.846389114856719971e-01
2.928000000000000000e+03 5.736901855468750000e+01 -1.211909103393554688e+01 -2.266760915517807007e-01 7.524841785430908203e+00 2.189449787139892578e+00 -1.822478473186492920e-01
2.929000000000000000e+03 5.484845733642578125e+01 -1.537807941436767578e+01 -2.092352062463760376e-01 7.349249362945556641e+00 2.142004251480102539e+00 -1.249163225293159485e-01
2.930000000000000000e+03 4.120852661132812500e+01 1.042755222320556641e+01 -7.644135951995849609e-01 7.477921009063720703e+00 2.014052152633666992e+00 3.803574442863464355e-01
2.931000000000000000e+03 4.311943435668945312e+01 1.054740810394287109e+01 -7.695705890655517578e-01 7.689686775207519531e+00 2.076034784317016602e+00 2.115034908056259155e-01
2.932000000000000000e+03 4.100201797485351562e+01 1.641879081726074219e+01 -8.557683229446411133e-01 8.148149490356445312e+00 2.187714099884033203e+00 3.777481913566589355e-01
2.933000000000000000e+03 6.289451217651367188e+01 -2.370168876647949219e+01 -8.720552921295166016e-02 7.780718326568603516e+00 2.308053731918334961e+00 -1.024589613080024719e-01
2.934000000000000000e+03 4.297889709472656250e+01 1.472308444976806641e+01 -8.124997615814208984e-01 8.104165077209472656e+00 2.187499523162841797e+00 1.600402295589447021e-01
2.935000000000000000e+03 4.602890014648437500e+01 9.300464630126953125e+00 -7.090819478034973145e-01 7.781947135925292969e+00 2.121859550476074219e+00 -2.741191349923610687e-02
2.936000000000000000e+03 4.306401062011718750e+01 1.263727855682373047e+01 -7.998514771461486816e-01 7.884927749633789062e+00 2.125522851943969727e+00 1.927275806665420532e-01
2.937000000000000000e+03 6.169130325317382812e+01 4.729452729225158691e-01 -2.837694883346557617e-01 7.820244312286376953e+00 2.260942459106445312e+00 -4.405834674835205078e-01
2.938000000000000000e+03 6.275325393676757812e+01 1.100545644760131836e+00 -2.621544897556304932e-01 7.840576648712158203e+00 2.273526668548583984e+00 -4.607490301132202148e-01
2.939000000000000000e+03 4.382121658325195312e+01 7.461394309997558594e+00 -6.993185877799987793e-01 7.475721836090087891e+00 2.032920837402343750e+00 1.659450083971023560e-01
2.940000000000000000e+03 4.430006027221679688e+01 3.499770879745483398e+00 -6.021850109100341797e-01 7.267241477966308594e+00 1.999516963958740234e+00 1.329709291458129883e-01
2.941000000000000000e+03 4.872486877441406250e+01 1.953753852844238281e+01 -3.735097348690032959e-01 8.612644195556640625e+00 2.471740245819091797e+00 -6.037875413894653320e-01
2.942000000000000000e+03 5.564163208007812500e+01 -6.393586635589599609e+00 -3.148427307605743408e-01 7.533627986907958984e+00 2.165635585784912109e+00 -2.247832119464874268e-01
2.943000000000000000e+03 6.167942428588867188e+01 -3.624947547912597656e+00 -2.517216503620147705e-01 7.792188644409179688e+00 2.262140035629272461e+00 -3.539303839206695557e-01
2.944000000000000000e+03 5.855396652221679688e+01 -2.961004257202148438e+00 -3.154970407485961914e-01 7.701132297515869141e+00 2.215690612792968750e+00 -3.305821120738983154e-01
2.945000000000000000e+03 4.363360595703125000e+01 1.795134353637695312e+01 -7.346191406250000000e-01 8.512887954711914062e+00 2.333480596542358398e+00 -2.302152290940284729e-02
2.946000000000000000e+03 6.235714340209960938e+01 -2.634675407409667969e+01 -8.259212225675582886e-02 7.747437477111816406e+00 2.299453735351562500e+00 -8.584909141063690186e-02
2.947000000000000000e+03 4.183550262451171875e+01 2.297480583190917969e+00 -5.470277667045593262e-01 6.974710464477539062e+00 1.928304791450500488e+00 2.614272534847259521e-01
2.948000000000000000e+03 4.383834457397460938e+01 1.588540077209472656e+01 -7.724549770355224609e-01 8.284724235534667969e+00 2.253680944442749023e+00 2.713357843458652496e-02
2.949000000000000000e+03 4.754091262817382812e+01 1.853129005432128906e+01 -4.977861642837524414e-01 8.593742370605468750e+00 2.428786993026733398e+00 -4.824712872505187988e-01
2.950000000000000000e+03 5.062773132324218750e+01 1.857857322692871094e+01 -3.609947562217712402e-01 8.459788322448730469e+00 2.429637908935546875e+00 -6.704806089401245117e-01
2.951000000000000000e+03 4.069095993041992188e+01 -6.738578796386718750e+00 -3.241998255252838135e-01 6.529071807861328125e+00 1.861461520195007324e+00 1.853525191545486450e-01
2.952000000000000000e+03 4.080130767822265625e+01 -4.800643920898437500e+00 -3.661920726299285889e-01 6.595764636993408203e+00 1.868871688842773438e+00 2.075660973787307739e-01
2.953000000000000000e+03 4.487435531616210938e+01 1.491490936279296875e+01 -7.534023523330688477e-01 8.231515884399414062e+00 2.243434190750122070e+00 -5.172512307763099670e-02
2.954000000000000000e+03 4.495703887939453125e+01 8.284136772155761719e+00 -7.045980691909790039e-01 7.626560211181640625e+00 2.076588630676269531e+00 7.035839557647705078e-02
2.955000000000000000e+03 4.317924118041992188e+01 8.575016975402832031e+00 -7.293325662612915039e-01 7.528785705566406250e+00 2.039835929870605469e+00 2.171669453382492065e-01
2.956000000000000000e+03 4.261993408203125000e+01 1.873024559020996094e+01 -7.568464279174804688e-01 8.588086128234863281e+00 2.349371910095214844e+00 7.635275274515151978e-02
2.957000000000000000e+03 4.280280685424804688e+01 1.677204322814941406e+01 -7.941707372665405273e-01 8.338660240173339844e+00 2.263346910476684570e+00 1.180225983262062073e-01
2.958000000000000000e+03 6.076736831665039062e+01 -6.685970425605773926e-01 -3.007656931877136230e-01 7.791688919067382812e+00 2.247277021408081055e+00 -4.045966267585754395e-01
2.959000000000000000e+03 5.590063095092773438e+01 -4.807747840881347656e+00 -3.388658165931701660e-01 7.572423458099365234e+00 2.170067310333251953e+00 -2.513784766197204590e-01
2.960000000000000000e+03 5.957748031616210938e+01 -4.075376510620117188e+00 -2.851991057395935059e-01 7.721904277801513672e+00 2.231011629104614258e+00 -3.246281147003173828e-01
2.961000000000000000e+03 4.468062210083007812e+01 1.709885215759277344e+01 -7.187635898590087891e-01 8.458436012268066406e+00 2.321901798248291016e+00 -1.074804142117500305e-01
2.962000000000000000e+03 4.253156661987304688e+01 -3.050185441970825195e+00 -4.278947114944458008e-01 6.811645507812500000e+00 1.915125250816345215e+00 1.707420945167541504e-01
2.963000000000000000e+03 5.970051193237304688e+01 -1.781099677085876465e+00 -3.065033257007598877e-01 7.753002166748046875e+00 2.233949661254882812e+00 -3.684492707252502441e-01
2.964000000000000000e+03 4.548899078369140625e+01 4.462140560150146484e+00 -6.201342344284057617e-01 7.404178619384765625e+00 2.035213232040405273e+00 6.018980219960212708e-02
2.965000000000000000e+03 4.242427062988281250e+01 4.118580341339111328e+00 -6.118950843811035156e-01 7.139538288116455078e+00 1.958292841911315918e+00 2.522606849670410156e-01
2.966000000000000000e+03 4.765065002441406250e+01 1.628373336791992188e+01 -6.049505472183227539e-01 8.399679183959960938e+00 2.338418483734130859e+00 -3.773358464241027832e-01
2.967000000000000000e+03 6.189746093750000000e+01 -2.916864395141601562e+01 -7.633055746555328369e-02 7.714208602905273438e+00 2.291363477706909180e+00 -6.844060868024826050e-02
2.968000000000000000e+03 3.872365951538085938e+01 -8.342858314514160156e+00 -2.674999833106994629e-01 6.318238735198974609e+00 1.815221548080444336e+00 2.031668126583099365e-01
2.969000000000000000e+03 4.426094436645507812e+01 -3.200314998626708984e+00 -4.376817345619201660e-01 6.948861598968505859e+00 1.953353881835937500e+00 1.078107506036758423e-01
2.970000000000000000e+03 4.397425842285156250e+01 1.375780963897705078e+01 -7.865875363349914551e-01 8.058870315551757812e+00 2.181684732437133789e+00 7.724427431821823120e-02
2.971000000000000000e+03 5.345401763916015625e+01 2.100587654113769531e+01 -9.730994701385498047e-02 8.386295318603515625e+00 2.486695528030395508e+00 -8.561277985572814941e-01
2.972000000000000000e+03 5.934294509887695312e+01 -2.018635559082031250e+01 -1.354989409446716309e-01 7.576441287994384766e+00 2.232282638549804688e+00 -1.228626966476440430e-01
2.973000000000000000e+03 4.408090972900390625e+01 9.483190536499023438e+00 -7.364651560783386230e-01 7.661780834197998047e+00 2.077594757080078125e+00 1.354677677154541016e-01
2.974000000000000000e+03 4.403662109375000000e+01 1.160945606231689453e+01 -7.726582884788513184e-01 7.850378990173339844e+00 2.123316287994384766e+00 1.135606914758682251e-01
2.975000000000000000e+03 4.501400375366210938e+01 1.049609756469726562e+01 -7.439846396446228027e-01 7.819639682769775391e+00 2.122696399688720703e+00 4.243488609790802002e-02
2.976000000000000000e+03 4.579750442504882812e+01 6.925128936767578125e+00 -6.747748851776123047e-01 7.596442222595214844e+00 2.076500177383422852e+00 2.361819148063659668e-02
2.977000000000000000e+03 4.450597381591796875e+01 6.008346557617187500e+00 -6.595908999443054199e-01 7.432178020477294922e+00 2.031776189804077148e+00 1.228735148906707764e-01
2.978000000000000000e+03 4.689146423339843750e+01 1.501792907714843750e+01 -6.765640974044799805e-01 8.297246932983398438e+00 2.286204814910888672e+00 -2.580952048301696777e-01
2.979000000000000000e+03 6.118430328369140625e+01 2.503120899200439453e+00 -3.053151965141296387e-01 7.829599380493164062e+00 2.257285118103027344e+00 -4.835304915904998779e-01
2.980000000000000000e+03 5.536831665039062500e+01 -3.576412916183471680e+00 -3.634276092052459717e-01 7.583080768585205078e+00 2.165895938873291016e+00 -2.584691643714904785e-01
2.981000000000000000e+03 4.381158828735351562e+01 9.606727361679077148e-01 -5.324762463569641113e-01 7.095556259155273438e+00 1.968924045562744141e+00 1.459200978279113770e-01
2.982000000000000000e+03 4.422804260253906250e+01 -1.101353168487548828e+00 -4.868244528770446777e-01 7.028556346893310547e+00 1.962519645690917969e+00 1.188580989837646484e-01
2.983000000000000000e+03 4.249480438232421875e+01 -5.007633209228515625e+00 -3.812094330787658691e-01 6.739059925079345703e+00 1.907355189323425293e+00 1.529285311698913574e-01
2.984000000000000000e+03 5.564289855957031250e+01 -7.798316955566406250e+00 -3.047506213188171387e-01 7.496240615844726562e+00 2.157446861267089844e+00 -2.011302411556243896e-01
2.985000000000000000e+03 4.837209320068359375e+01 1.732399559020996094e+01 -5.245174765586853027e-01 8.489364624023437500e+00 2.389454126358032227e+00 -4.869396090507507324e-01
2.986000000000000000e+03 5.211089324951171875e+01 1.717974090576171875e+01 -3.832416534423828125e-01 8.332428932189941406e+00 2.384756088256835938e+00 -6.834058165550231934e-01
2.987000000000000000e+03 4.187935638427734375e+01 -1.284672641754150391e+01 -2.347507774829864502e-01 6.484912395477294922e+00 1.875048398971557617e+00 9.308760613203048706e-02
2.988000000000000000e+03 4.405105209350585938e+01 -9.249240875244140625e+00 -3.131175041198730469e-01 6.743525981903076172e+00 1.929122567176818848e+00 7.269316911697387695e-02
2.989000000000000000e+03 4.658763122558593750e+01 1.734050750732421875e+01 -6.178013086318969727e-01 8.507984161376953125e+00 2.367054700851440430e+00 -3.240443170070648193e-01
2.990000000000000000e+03 4.811573791503906250e+01 8.710615158081054688e+00 -6.668919920921325684e-01 7.836483001708984375e+00 2.150877475738525391e+00 -1.616451889276504517e-01
2.991000000000000000e+03 4.524037551879882812e+01 1.779022336006164551e+00 -5.579840540885925293e-01 7.245039939880371094e+00 2.006116867065429688e+00 7.931106537580490112e-02
2.992000000000000000e+03 4.495145797729492188e+01 1.270993137359619141e+01 -7.635611891746520996e-01 8.013619422912597656e+00 2.175017595291137695e+00 5.730608012527227402e-03
2.993000000000000000e+03 4.698622512817382812e+01 7.930161952972412109e+00 -6.729055643081665039e-01 7.730973243713378906e+00 2.117420196533203125e+00 -7.380542904138565063e-02
2.994000000000000000e+03 4.589049911499023438e+01 1.385151481628417969e+01 -7.309760451316833496e-01 8.156725883483886719e+00 2.227725028991699219e+00 -1.165122464299201965e-01
2.995000000000000000e+03 5.875212860107421875e+01 -6.423744559288024902e-01 -3.395373225212097168e-01 7.744562149047851562e+00 2.221507549285888672e+00 -3.792820274829864502e-01
2.996000000000000000e+03 5.758790969848632812e+01 -1.721429586410522461e+00 -3.501768410205841064e-01 7.686861038208007812e+00 2.201005220413208008e+00 -3.343391716480255127e-01
2.997000000000000000e+03 6.140527343750000000e+01 4.775473117828369141e+00 -3.111500144004821777e-01 7.851464271545410156e+00 2.262094259262084961e+00 -5.403550267219543457e-01
2.998000000000000000e+03 4.418148040771484375e+01 -5.228810787200927734e+00 -3.926682770252227783e-01 6.873345375061035156e+00 1.944203138351440430e+00 9.324262291193008423e-02
2.999000000000000000e+03 5.465027999877929688e+01 -4.601408004760742188e+00 -3.571942150592803955e-01 7.523622035980224609e+00 2.149928331375122070e+00 -2.251646816730499268e-01
3.000000000000000000e+03 5.754102325439453125e+01 -8.490571022033691406e+00 -2.675019800662994385e-01 7.584613800048828125e+00 2.195133447647094727e+00 -2.293294966220855713e-01
3.001000000000000000e+03 5.950031661987304688e+01 -1.154062938690185547e+01 -2.121675461530685425e-01 7.634053707122802734e+00 2.226565837860107422e+00 -2.088581472635269165e-01
3.002000000000000000e+03 4.647930526733398438e+01 2.954898834228515625e+00 -5.827527642250061035e-01 7.397051334381103516e+00 2.044289588928222656e+00 1.102529093623161316e-02
3.003000000000000000e+03 4.884576416015625000e+01 1.598441696166992188e+01 -5.683537125587463379e-01 8.361339569091796875e+00 2.337895631790161133e+00 -4.536987841129302979e-01
3.004000000000000000e+03 4.018506240844726562e+01 -1.236349582672119141e+01 -2.287701964378356934e-01 6.362170219421386719e+00 1.840019941329956055e+00 1.244295164942741394e-01
3.005000000000000000e+03 4.216229248046875000e+01 -1.092565917968750000e+01 -2.718544900417327881e-01 6.554485321044921875e+00 1.884789228439331055e+00 1.026981472969055176e-01
3.006000000000000000e+03 5.350361251831054688e+01 1.894008636474609375e+01 -2.391915023326873779e-01 8.333135604858398438e+00 2.428183317184448242e+00 -7.989829182624816895e-01
3.007000000000000000e+03 5.618005752563476562e+01 9.694316864013671875e+00 -4.341917932033538818e-01 7.964218616485595703e+00 2.259007930755615234e+00 -5.840710997581481934e-01
3.008000000000000000e+03 4.754014968872070312e+01 1.580362796783447266e+00 -5.465064048767089844e-01 7.380462646484375000e+00 2.050186872482299805e+00 -3.392962366342544556e-02
3.009000000000000000e+03 5.019366073608398438e+01 6.386110782623291016e+00 -5.924001932144165039e-01 7.757250308990478516e+00 2.149455070495605469e+00 -2.359898388385772705e-01
3.010000000000000000e+03 5.643501663208007812e+01 -2.718899011611938477e+00 -3.597047924995422363e-01 7.633211135864257812e+00 2.182051897048950195e+00 -2.927434444427490234e-01
3.011000000000000000e+03 5.997011566162109375e+01 2.573043346405029297e+00 -3.424279689788818359e-01 7.815929889678955078e+00 2.242050647735595703e+00 -4.669272303581237793e-01
3.012000000000000000e+03 5.440010070800781250e+01 -2.591728210449218750e+00 -3.931228816509246826e-01 7.565269947052001953e+00 2.151644229888916016e+00 -2.480113804340362549e-01
3.013000000000000000e+03 6.007887649536132812e+01 5.503399848937988281e+00 -3.477703928947448730e-01 7.858531951904296875e+00 2.253228425979614258e+00 -5.442214012145996094e-01
3.014000000000000000e+03 4.641169357299804688e+01 3.771120011806488037e-01 -5.292471051216125488e-01 7.253305912017822266e+00 2.017217636108398438e+00 2.980372123420238495e-02
3.015000000000000000e+03 5.275462341308593750e+01 -5.239919662475585938e+00 -3.667120039463043213e-01 7.413569927215576172e+00 2.114057540893554688e+00 -1.720695793628692627e-01
3.016000000000000000e+03 4.601959991455078125e+01 -1.303229212760925293e+00 -4.844818115234375000e-01 7.158491134643554688e+00 2.002202749252319336e+00 4.299860447645187378e-02
3.017000000000000000e+03 6.123942565917968750e+01 -1.011441802978515625e+01 -2.009730935096740723e-01 7.734199523925781250e+00 2.259968042373657227e+00 -2.422719150781631470e-01
3.018000000000000000e+03 4.240420150756835938e+01 -6.987462520599365234e+00 -3.402637839317321777e-01 6.670617103576660156e+00 1.899106025695800781e+00 1.333927810192108154e-01
3.019000000000000000e+03 5.775590896606445312e+01 -9.977934837341308594e+00 -2.429583221673965454e-01 7.575170993804931641e+00 2.199663877487182617e+00 -2.102844715118408203e-01
3.020000000000000000e+03 5.329306030273437500e+01 1.548710632324218750e+01 -4.139013886451721191e-01 8.215091705322265625e+00 2.340357065200805664e+00 -6.713051795959472656e-01
3.021000000000000000e+03 5.092425155639648438e+01 1.710943984985351562e+01 -4.344066083431243896e-01 8.378458023071289062e+00 2.383215427398681641e+00 -6.281116604804992676e-01
3.022000000000000000e+03 4.574788665771484375e+01 1.610942840576171875e+01 -6.993176341056823730e-01 8.387920379638671875e+00 2.306581020355224609e+00 -1.872068941593170166e-01
3.023000000000000000e+03 4.591114425659179688e+01 1.160119915008544922e+01 -7.355688810348510742e-01 7.957275867462158203e+00 2.166512250900268555e+00 -5.518736317753791809e-02
3.024000000000000000e+03 5.202273559570312500e+01 1.569194602966308594e+01 -4.583556354045867920e-01 8.260492324829101562e+00 2.340640783309936523e+00 -6.159393787384033203e-01
3.025000000000000000e+03 4.903438568115234375e+01 7.541319370269775391e+00 -6.312017440795898438e-01 7.783640861511230469e+00 2.145731687545776367e+00 -1.924862861633300781e-01
3.026000000000000000e+03 4.919937896728515625e+01 1.427455520629882812e+01 -5.964315533638000488e-01 8.244662284851074219e+00 2.294469356536865234e+00 -4.126664400100708008e-01
3.027000000000000000e+03 4.691046524047851562e+01 1.052341651916503906e+01 -7.063317298889160156e-01 7.920656204223632812e+00 2.164297342300415039e+00 -1.150881052017211914e-01
3.028000000000000000e+03 6.080859756469726562e+01 1.175845742225646973e+00 -3.004890978336334229e-01 7.813227176666259766e+00 2.253821372985839844e+00 -4.504604935646057129e-01
3.029000000000000000e+03 5.884988784790039062e+01 6.196934700012207031e+00 -3.761364221572875977e-01 7.868288993835449219e+00 2.247645616531372070e+00 -5.428327918052673340e-01
3.030000000000000000e+03 5.723882293701171875e+01 3.291552066802978516e+00 -4.062719941139221191e-01 7.787932872772216797e+00 2.214498281478881836e+00 -4.319046437740325928e-01
3.031000000000000000e+03 5.092058944702148438e+01 4.322109818458557129e-01 -4.879597723484039307e-01 7.508012294769287109e+00 2.106015682220458984e+00 -1.746686398983001709e-01
3.032000000000000000e+03 4.984896087646484375e+01 -9.124627113342285156e-01 -4.739212989807128906e-01 7.407497882843017578e+00 2.080072879791259766e+00 -1.189572289586067200e-01
3.033000000000000000e+03 5.776496887207031250e+01 4.628704190254211426e-01 -3.734372258186340332e-01 7.738505840301513672e+00 2.209520578384399414e+00 -3.801439702510833740e-01
3.034000000000000000e+03 5.438699340820312500e+01 -2.724118530750274658e-01 -4.307066798210144043e-01 7.629127025604248047e+00 2.159526109695434570e+00 -2.825160622596740723e-01
3.035000000000000000e+03 4.582127380371093750e+01 -5.496783733367919922e+00 -3.909804224967956543e-01 6.988893508911132812e+00 1.979373812675476074e+00 4.063216969370841980e-02
3.036000000000000000e+03 5.409546661376953125e+01 -6.085377693176269531e+00 -3.418315351009368896e-01 7.466399192810058594e+00 2.137370347976684570e+00 -1.986521929502487183e-01
3.037000000000000000e+03 6.080398941040039062e+01 -1.196390342712402344e+01 -1.849864572286605835e-01 7.703389167785644531e+00 2.255520820617675781e+00 -2.106925249099731445e-01
3.038000000000000000e+03 5.078619766235351562e+01 1.583965110778808594e+01 -4.959660768508911133e-01 8.308424949645996094e+00 2.343737602233886719e+00 -5.642434954643249512e-01
3.039000000000000000e+03 5.489971160888671875e+01 1.691330528259277344e+01 -3.056320846080780029e-01 8.207190513610839844e+00 2.370467662811279297e+00 -7.723374962806701660e-01
3.040000000000000000e+03 5.673615264892578125e+01 1.850107574462890625e+01 -1.767081320285797119e-01 8.146657943725585938e+00 2.390985012054443359e+00 -8.518688082695007324e-01
3.041000000000000000e+03 5.595320129394531250e+01 -9.199981689453125000e+00 -2.812600433826446533e-01 7.482608795166015625e+00 2.160404682159423828e+00 -1.924610584974288940e-01
3.042000000000000000e+03 5.634116363525390625e+01 -1.080459117889404297e+01 -2.530158460140228271e-01 7.488905429840087891e+00 2.170766830444335938e+00 -1.824253946542739868e-01
3.043000000000000000e+03 4.579198455810546875e+01 -9.484601020812988281e+00 -3.155973553657531738e-01 6.864841461181640625e+00 1.964773178100585938e+00 2.780779823660850525e-02
3.044000000000000000e+03 4.573963165283203125e+01 -7.462284088134765625e+00 -3.530308008193969727e-01 6.920376300811767578e+00 1.970203638076782227e+00 3.468494489789009094e-02
3.045000000000000000e+03 4.393389511108398438e+01 -1.129867362976074219e+01 -2.783324420452117920e-01 6.690098285675048828e+00 1.923529744148254395e+00 6.093905866146087646e-02
3.046000000000000000e+03 4.136706924438476562e+01 -1.468028259277343750e+01 -2.142371237277984619e-01 6.420657157897949219e+00 1.861926078796386719e+00 8.884546905755996704e-02
3.047000000000000000e+03 4.788526535034179688e+01 1.369681167602539062e+01 -6.610760688781738281e-01 8.202198982238769531e+00 2.262336969375610352e+00 -2.947068810462951660e-01
3.048000000000000000e+03 4.770370864868164062e+01 4.057246685028076172e+00 -5.955700874328613281e-01 7.518614292144775391e+00 2.076913118362426758e+00 -6.324307620525360107e-02
3.049000000000000000e+03 6.061085510253906250e+01 3.590771913528442383e+00 -3.186251521110534668e-01 7.833996772766113281e+00 2.254611492156982422e+00 -5.034286379814147949e-01
3.050000000000000000e+03 5.545435333251953125e+01 -1.469490885734558105e+00 -3.944295048713684082e-01 7.635880947113037109e+00 2.172435522079467773e+00 -2.935794293880462646e-01
3.051000000000000000e+03 5.018671798706054688e+01 -3.334923982620239258e+00 -4.267949759960174561e-01 7.328052043914794922e+00 2.070377111434936523e+00 -1.107586398720741272e-01
3.052000000000000000e+03 4.986544799804687500e+01 3.756875276565551758e+00 -5.635213851928710938e-01 7.616195678710937500e+00 2.115802288055419922e+00 -1.754060685634613037e-01
3.053000000000000000e+03 5.674905014038085938e+01 5.545703887939453125e+00 -4.270828366279602051e-01 7.847855567932128906e+00 2.226231813430786133e+00 -4.813941419124603271e-01
3.054000000000000000e+03 5.329471206665039062e+01 -1.583272099494934082e+00 -4.251236021518707275e-01 7.544772624969482422e+00 2.135894775390625000e+00 -2.309426814317703247e-01
3.055000000000000000e+03 4.737934875488281250e+01 -5.935531139373779297e+00 -3.879872858524322510e-01 7.077243804931640625e+00 2.006777048110961914e+00 -6.890880875289440155e-03
3.056000000000000000e+03 5.763064193725585938e+01 -1.468264579772949219e+01 -1.951146870851516724e-01 7.512496948242187500e+00 2.195214748382568359e+00 -1.584138721227645874e-01
3.057000000000000000e+03 6.001065063476562500e+01 -1.009247970581054688e+01 -2.234136015176773071e-01 7.672245502471923828e+00 2.234649419784545898e+00 -2.310776710510253906e-01
3.058000000000000000e+03 6.059620285034179688e+01 -8.826049804687500000e+00 -2.132085263729095459e-01 7.717228889465332031e+00 2.251206159591674805e+00 -2.583900988101959229e-01
3.059000000000000000e+03 4.759349441528320312e+01 -9.564640045166015625e+00 -3.214842677116394043e-01 6.993491649627685547e+00 2.001602172851562500e+00 -1.321476697921752930e-02
3.060000000000000000e+03 5.149981689453125000e+01 -4.272455692291259766e+00 -3.960131108760833740e-01 7.374442577362060547e+00 2.093528747558593750e+00 -1.449910402297973633e-01
3.061000000000000000e+03 5.071497344970703125e+01 -7.906579494476318359e+00 -3.405147492885589600e-01 7.234496116638183594e+00 2.068194389343261719e+00 -9.762451797723770142e-02
3.062000000000000000e+03 4.847048950195312500e+01 1.232890129089355469e+01 -6.570836305618286133e-01 8.094954490661621094e+00 2.231361150741577148e+00 -2.877355515956878662e-01
3.063000000000000000e+03 4.995104217529296875e+01 8.760427474975585938e+00 -6.171159744262695312e-01 7.888859272003173828e+00 2.181523084640502930e+00 -2.817406058311462402e-01
3.064000000000000000e+03 5.090189361572265625e+01 1.270706939697265625e+01 -5.762126445770263672e-01 8.123873710632324219e+00 2.264298439025878906e+00 -4.479907751083374023e-01
3.065000000000000000e+03 5.566167449951171875e+01 4.016674041748046875e+00 -4.481039345264434814e-01 7.787306785583496094e+00 2.201760768890380859e+00 -4.084138572216033936e-01
3.066000000000000000e+03 5.801608657836914062e+01 4.819956302642822266e+00 -3.990307152271270752e-01 7.838592052459716797e+00 2.231868505477905273e+00 -4.903922379016876221e-01
3.067000000000000000e+03 4.867721176147460938e+01 2.723655700683593750e+00 -5.610306859016418457e-01 7.509466171264648438e+00 2.084530591964721680e+00 -1.010505631566047668e-01
3.068000000000000000e+03 4.865797805786132812e+01 2.871875166893005371e-01 -5.092129707336425781e-01 7.390410900115966797e+00 2.064359426498413086e+00 -7.928618043661117554e-02
3.069000000000000000e+03 4.750883865356445312e+01 -9.380260705947875977e-01 -4.854569435119628906e-01 7.266844272613525391e+00 2.034416198730468750e+00 -2.684080041944980621e-02
3.070000000000000000e+03 5.934180450439453125e+01 9.823402404785156250e+00 -3.427767455577850342e-01 7.922193050384521484e+00 2.273824930191040039e+00 -6.528264880180358887e-01
3.071000000000000000e+03 5.660554885864257812e+01 -4.440166652202606201e-01 -3.802847266197204590e-01 7.688022136688232422e+00 2.192321300506591797e+00 -3.399397730827331543e-01
3.072000000000000000e+03 5.564529418945312500e+01 9.836156964302062988e-01 -4.205517768859863281e-01 7.706663608551025391e+00 2.185833454132080078e+00 -3.473726809024810791e-01
3.073000000000000000e+03 5.234082031250000000e+01 -2.927633047103881836e+00 -4.121546745300292969e-01 7.457060337066650391e+00 2.113471746444702148e+00 -1.846859008073806763e-01
3.074000000000000000e+03 5.194379043579101562e+01 1.808893322944641113e+00 -4.973605573177337646e-01 7.607292652130126953e+00 2.132979631423950195e+00 -2.329268306493759155e-01
3.075000000000000000e+03 4.789707565307617188e+01 -4.121050834655761719e+00 -4.270518124103546143e-01 7.175690650939941406e+00 2.024591684341430664e+00 -2.279648557305335999e-02
3.076000000000000000e+03 5.805912780761718750e+01 1.613402366638183594e+01 -2.441446930170059204e-01 8.049663543701171875e+00 2.341655492782592773e+00 -8.095094561576843262e-01
3.077000000000000000e+03 5.863580322265625000e+01 -1.306127929687500000e+01 -1.982747167348861694e-01 7.580908298492431641e+00 2.214790105819702148e+00 -1.835989803075790405e-01
3.078000000000000000e+03 5.186107254028320312e+01 -6.649310588836669922e+00 -3.571280241012573242e-01 7.335342884063720703e+00 2.093464374542236328e+00 -1.359270215034484863e-01
3.079000000000000000e+03 4.949470520019531250e+01 -4.820681571960449219e+00 -4.023080766201019287e-01 7.243442535400390625e+00 2.052340269088745117e+00 -8.121296018362045288e-02
3.080000000000000000e+03 4.761503982543945312e+01 1.169503307342529297e+01 -6.911087036132812500e-01 8.046851158142089844e+00 2.206722736358642578e+00 -2.062156647443771362e-01
3.081000000000000000e+03 4.573078918457031250e+01 -1.162208938598632812e+01 -2.837950587272644043e-01 6.813033103942871094e+00 1.958771347999572754e+00 2.439277060329914093e-02
3.082000000000000000e+03 4.366364288330078125e+01 -1.342352485656738281e+01 -2.415928840637207031e-01 6.621888160705566406e+00 1.914088606834411621e+00 5.071297287940979004e-02
3.083000000000000000e+03 5.069437408447265625e+01 1.017071723937988281e+01 -5.972554087638854980e-01 7.986933708190917969e+00 2.216903448104858398e+00 -3.643946349620819092e-01
3.084000000000000000e+03 4.961781692504882812e+01 1.247529888153076172e+01 -6.200985312461853027e-01 8.106791496276855469e+00 2.246007680892944336e+00 -3.691436350345611572e-01
3.085000000000000000e+03 5.851568603515625000e+01 8.331930160522460938e+00 -3.803545236587524414e-01 7.910178661346435547e+00 2.258947372436523438e+00 -5.961712002754211426e-01
3.086000000000000000e+03 5.319963073730468750e+01 4.900930404663085938e+00 -5.088226199150085449e-01 7.769801616668701172e+00 2.178293704986572266e+00 -3.463667631149291992e-01
3.087000000000000000e+03 4.973757934570312500e+01 1.508100628852844238e+00 -5.227116346359252930e-01 7.504963874816894531e+00 2.094675540924072266e+00 -1.418379694223403931e-01
3.088000000000000000e+03 4.901591110229492188e+01 5.130915164947509766e+00 -5.988469719886779785e-01 7.649004459381103516e+00 2.115047216415405273e+00 -1.517583429813385010e-01
3.089000000000000000e+03 5.109923934936523438e+01 7.836610317230224609e+00 -5.824844837188720703e-01 7.868046760559082031e+00 2.185668706893920898e+00 -3.245832026004791260e-01
3.090000000000000000e+03 5.393680191040039062e+01 1.179542350769042969e+01 -4.834834039211273193e-01 8.066061973571777344e+00 2.274773597717285156e+00 -5.720039606094360352e-01
3.091000000000000000e+03 5.651678466796875000e+01 7.729086875915527344e+00 -4.421240687370300293e-01 7.904388427734375000e+00 2.238679170608520508e+00 -5.290250778198242188e-01
3.092000000000000000e+03 5.321761322021484375e+01 8.444288372993469238e-01 -4.656990468502044678e-01 7.619673728942871094e+00 2.146192550659179688e+00 -2.627194821834564209e-01
3.093000000000000000e+03 5.441999435424804688e+01 2.382468938827514648e+00 -4.631112813949584961e-01 7.715453624725341797e+00 2.175702810287475586e+00 -3.378019332885742188e-01
3.094000000000000000e+03 5.917010116577148438e+01 -1.552109718322753906e+01 -1.703393012285232544e-01 7.591002464294433594e+00 2.226198911666870117e+00 -1.621067672967910767e-01
3.095000000000000000e+03 5.999278640747070312e+01 -1.375581550598144531e+01 -1.800263971090316772e-01 7.644834518432617188e+00 2.239442348480224609e+00 -1.845481097698211670e-01
3.096000000000000000e+03 5.937585449218750000e+01 2.205615997314453125e+01 6.366425007581710815e-02 7.975800514221191406e+00 2.411839485168457031e+00 -9.013118743896484375e-01
3.097000000000000000e+03 5.520759963989257812e+01 2.094458007812500000e+01 -6.493445485830307007e-02 8.272562026977539062e+00 2.462288141250610352e+00 -8.861591219902038574e-01
3.098000000000000000e+03 4.724059295654296875e+01 -7.581631183624267578e+00 -3.549434244632720947e-01 7.017621994018554688e+00 1.998803615570068359e+00 -3.004502505064010620e-03
3.099000000000000000e+03 5.071556472778320312e+01 -5.540469646453857422e+00 -3.795291781425476074e-01 7.303766250610351562e+00 2.077270984649658203e+00 -1.166519224643707275e-01
3.100000000000000000e+03 5.614012145996093750e+01 -1.359285926818847656e+01 -2.185940742492675781e-01 7.445271492004394531e+00 2.168003082275390625e+00 -1.538773328065872192e-01
3.101000000000000000e+03 4.759129333496093750e+01 -1.182602214813232422e+01 -2.819916605949401855e-01 6.949229717254638672e+00 2.000171422958374023e+00 -1.765172369778156281e-02
3.102000000000000000e+03 5.478730010986328125e+01 -1.215978908538818359e+01 -2.507685124874114990e-01 7.393284320831298828e+00 2.142754793167114258e+00 -1.502881944179534912e-01
3.103000000000000000e+03 4.969271469116210938e+01 -6.388292312622070312e+00 -3.757396340370178223e-01 7.211390972137451172e+00 2.050695419311523438e+00 -7.497464865446090698e-02
3.104000000000000000e+03 5.110438537597656250e+01 -1.951145529747009277e+00 -4.441477954387664795e-01 7.426047325134277344e+00 2.094569921493530273e+00 -1.541431546211242676e-01
3.105000000000000000e+03 5.608982849121093750e+01 1.480020904541015625e+01 -3.469631373882293701e-01 8.105393409729003906e+00 2.327529191970825195e+00 -7.348903417587280273e-01
3.106000000000000000e+03 5.643912887573242188e+01 1.658259201049804688e+01 -2.687417864799499512e-01 8.130316734313964844e+00 2.358472347259521484e+00 -7.968823313713073730e-01
3.107000000000000000e+03 5.568806838989257812e+01 1.312040042877197266e+01 -4.003997147083282471e-01 8.068817138671875000e+00 2.300525188446044922e+00 -6.707825064659118652e-01
3.108000000000000000e+03 5.316840744018554688e+01 8.483595848083496094e+00 -5.287891626358032227e-01 7.922430992126464844e+00 2.218092441558837891e+00 -4.363974034786224365e-01
3.109000000000000000e+03 5.212234497070312500e+01 -5.731931924819946289e-01 -4.557277560234069824e-01 7.525173664093017578e+00 2.120833873748779297e+00 -2.056946307420730591e-01
3.110000000000000000e+03 5.560401153564453125e+01 6.476083755493164062e+00 -4.570813179016113281e-01 7.857036113739013672e+00 2.219986438751220703e+00 -4.711830317974090576e-01
3.111000000000000000e+03 5.732174301147460938e+01 9.052152633666992188e+00 -4.083913266658782959e-01 7.936527252197265625e+00 2.258440732955932617e+00 -5.928041934967041016e-01
3.112000000000000000e+03 5.235726928710937500e+01 6.997837066650390625e+00 -5.480806231498718262e-01 7.848279953002929688e+00 2.190059900283813477e+00 -3.625042140483856201e-01
3.113000000000000000e+03 5.122863388061523438e+01 3.950342893600463867e+00 -5.495148897171020508e-01 7.680306434631347656e+00 2.139237403869628906e+00 -2.387408167123794556e-01
3.114000000000000000e+03 5.281453704833984375e+01 3.332877397537231445e+00 -5.077823400497436523e-01 7.709415912628173828e+00 2.160490036010742188e+00 -3.004466891288757324e-01
3.115000000000000000e+03 5.530314254760742188e+01 1.150231647491455078e+01 -4.457327723503112793e-01 8.031155586242675781e+00 2.275626659393310547e+00 -6.095923185348510742e-01
3.116000000000000000e+03 4.871654129028320312e+01 -2.328601598739624023e+00 -4.569264352321624756e-01 7.288154125213623047e+00 2.049368381500244141e+00 -6.182062253355979919e-02
3.117000000000000000e+03 5.071607208251953125e+01 2.656107664108276367e+00 -5.266960859298706055e-01 7.592069149017333984e+00 2.119611978530883789e+00 -1.984001696109771729e-01
3.118000000000000000e+03 4.849905014038085938e+01 -7.118150711059570312e+00 -3.677637875080108643e-01 7.117921829223632812e+00 2.025047540664672852e+00 -3.579230234026908875e-02
3.119000000000000000e+03 5.424209594726562500e+01 1.349482440948486328e+01 -4.406281113624572754e-01 8.119665145874023438e+00 2.303711175918579102e+00 -6.370077729225158691e-01
3.120000000000000000e+03 5.298944091796875000e+01 1.401401901245117188e+01 -4.670009613037109375e-01 8.163414001464843750e+00 2.308923959732055664e+00 -6.050343513488769531e-01
3.121000000000000000e+03 5.662664794921875000e+01 -1.645357131958007812e+01 -1.823269724845886230e-01 7.444593906402587891e+00 2.178679943084716797e+00 -1.366675645112991333e-01
3.122000000000000000e+03 5.971900558471679688e+01 1.558234786987304688e+01 -2.203455120325088501e-01 7.971530914306640625e+00 2.325355529785156250e+00 -8.109336495399475098e-01
3.123000000000000000e+03 3.911239624023437500e+01 -1.547865104675292969e+01 -1.854313611984252930e-01 6.236512660980224609e+00 1.815324425697326660e+00 1.092557162046432495e-01
3.124000000000000000e+03 4.409128952026367188e+01 -1.889457130432128906e+01 -1.832001060247421265e-01 6.569079875946044922e+00 1.915763974189758301e+00 1.659514755010604858e-02
3.125000000000000000e+03 4.933757019042968750e+01 -1.232769298553466797e+01 -2.780237197875976562e-01 7.044351100921630859e+00 2.029898166656494141e+00 -5.329440534114837646e-02
3.126000000000000000e+03 4.930000305175781250e+01 -9.012355804443359375e+00 -3.277301192283630371e-01 7.119099617004394531e+00 2.037410974502563477e+00 -5.672641843557357788e-02
3.127000000000000000e+03 5.763112258911132812e+01 1.434796142578125000e+01 -3.116509616374969482e-01 8.040287971496582031e+00 2.318591117858886719e+00 -7.544484138488769531e-01
3.128000000000000000e+03 5.715901947021484375e+01 1.267097854614257812e+01 -3.665866255760192871e-01 8.021609306335449219e+00 2.296506881713867188e+00 -6.958193182945251465e-01
3.129000000000000000e+03 5.455524444580078125e+01 5.243206977844238281e+00 -4.849130213260650635e-01 7.807072162628173828e+00 2.196647644042968750e+00 -4.018669128417968750e-01
3.130000000000000000e+03 5.151701354980468750e+01 1.131752204895019531e+01 -5.762329101562500000e-01 8.055117607116699219e+00 2.243665456771850586e+00 -4.365622997283935547e-01
3.131000000000000000e+03 5.262597274780273438e+01 1.183675289154052734e+01 -5.255078673362731934e-01 8.081236839294433594e+00 2.266718626022338867e+00 -5.204959511756896973e-01
3.132000000000000000e+03 5.445087051391601562e+01 7.559301853179931641e+00 -4.954412579536437988e-01 7.888306617736816406e+00 2.217859506607055664e+00 -4.572605788707733154e-01
3.133000000000000000e+03 5.360256195068359375e+01 6.261798858642578125e+00 -5.184444785118103027e-01 7.836978912353515625e+00 2.195560216903686523e+00 -3.912811875343322754e-01
3.134000000000000000e+03 5.162345123291015625e+01 5.477217197418212891e+00 -5.526125431060791016e-01 7.753264904022216797e+00 2.160195589065551758e+00 -2.869971394538879395e-01
3.135000000000000000e+03 5.319496536254882812e+01 -7.751775264739990234e+00 -3.240696191787719727e-01 7.378159523010253906e+00 2.116226911544799805e+00 -1.592236459255218506e-01
3.136000000000000000e+03 5.195597076416015625e+01 -9.311668395996093750e+00 -3.139999806880950928e-01 7.274543762207031250e+00 2.088163137435913086e+00 -1.167425140738487244e-01
3.137000000000000000e+03 5.864972305297851562e+01 1.209921741485595703e+01 -3.330310881137847900e-01 7.971561431884765625e+00 2.291559219360351562e+00 -7.071717381477355957e-01
3.138000000000000000e+03 5.845590972900390625e+01 1.803478240966796875e+01 -1.553678363561630249e-01 8.049218177795410156e+00 2.368155002593994141e+00 -8.606221079826354980e-01
3.139000000000000000e+03 5.395678329467773438e+01 -1.732471656799316406e+01 -1.982280761003494263e-01 7.275201320648193359e+00 2.123091936111450195e+00 -1.002391055226325989e-01
3.140000000000000000e+03 5.372481155395507812e+01 1.008221340179443359e+01 -5.124485492706298828e-01 7.988530158996582031e+00 2.242824316024780273e+00 -5.011081695556640625e-01
3.141000000000000000e+03 5.666489410400390625e+01 1.110184860229492188e+01 -4.064909219741821289e-01 7.991786956787109375e+00 2.275588750839233398e+00 -6.358161568641662598e-01
3.142000000000000000e+03 4.953309631347656250e+01 1.087639427185058594e+01 -6.316376328468322754e-01 8.003695487976074219e+00 2.211617469787597656e+00 -3.147965371608734131e-01
3.143000000000000000e+03 5.921823501586914062e+01 1.378998756408691406e+01 -2.824498713016510010e-01 7.976587772369384766e+00 2.308241367340087891e+00 -7.615406513214111328e-01
3.144000000000000000e+03 5.501422119140625000e+01 9.924365997314453125e+00 -4.730419218540191650e-01 7.975577831268310547e+00 2.250760793685913086e+00 -5.457733273506164551e-01
3.145000000000000000e+03 5.833462524414062500e+01 -1.737485313415527344e+01 -1.620629876852035522e-01 7.533242702484130859e+00 2.211354017257690430e+00 -1.413318216800689697e-01
3.146000000000000000e+03 5.149032592773437500e+01 -1.535521221160888672e+01 -2.306064665317535400e-01 7.148385524749755859e+00 2.075333595275878906e+00 -8.196499198675155640e-02
3.147000000000000000e+03 5.542275238037109375e+01 8.644744873046875000e+00 -4.701287448406219482e-01 7.934957981109619141e+00 2.239448785781860352e+00 -5.219169259071350098e-01
3.148000000000000000e+03 5.187651062011718750e+01 9.242968559265136719e+00 -5.643051862716674805e-01 7.950654983520507812e+00 2.215904951095581055e+00 -4.035827815532684326e-01
3.149000000000000000e+03 4.897170257568359375e+01 9.558215141296386719e+00 -6.371072530746459961e-01 7.907278060913085938e+00 2.181051254272460938e+00 -2.475762516260147095e-01
3.150000000000000000e+03 6.067994308471679688e+01 1.936446189880371094e+01 -5.832435563206672668e-02 7.912676334381103516e+00 2.356305599212646484e+00 -8.764058947563171387e-01
3.151000000000000000e+03 5.702675628662109375e+01 2.057721328735351562e+01 -4.408208280801773071e-02 8.153017997741699219e+00 2.432680845260620117e+00 -9.021342396736145020e-01
3.152000000000000000e+03 4.326844406127929688e+01 4.063473510742187500e+01 1.061577796936035156e+00 1.127998924255371094e+01 3.702470064163208008e+00 3.223980963230133057e-01
3.153000000000000000e+03 4.733624267578125000e+01 -1.419963073730468750e+01 -2.486550062894821167e-01 6.871592998504638672e+00 1.986881375312805176e+00 -1.581291668117046356e-02
3.154000000000000000e+03 6.440561676025390625e+01 -2.997868156433105469e+01 -6.313700973987579346e-02 7.877824783325195312e+00 2.344406366348266602e+00 -6.491066515445709229e-02
3.155000000000000000e+03 6.769110107421875000e+01 -3.196934127807617188e+01 -3.864257782697677612e-02 8.112081527709960938e+00 2.422031641006469727e+00 -5.361123010516166687e-02
3.156000000000000000e+03 4.514490127563476562e+01 -1.652803993225097656e+01 -2.137006372213363647e-01 6.683266639709472656e+00 1.940869808197021484e+00 1.028273720294237137e-02
3.157000000000000000e+03 3.779795455932617188e+01 -1.668817901611328125e+01 -1.617172062397003174e-01 6.133795738220214844e+00 1.791623592376708984e+00 1.130880713462829590e-01
3.158000000000000000e+03 5.326842880249023438e+01 -1.392922115325927734e+01 -2.358125746250152588e-01 7.270297050476074219e+00 2.110345363616943359e+00 -1.139614880084991455e-01
3.159000000000000000e+03 6.722953033447265625e+01 -3.469395446777343750e+01 -4.291770234704017639e-02 8.082430839538574219e+00 2.411854028701782227e+00 -3.493949770927429199e-02
3.160000000000000000e+03 5.073265075683593750e+01 3.061258506774902344e+01 1.068637967109680176e+00 8.765583038330078125e+00 2.950266361236572266e+00 -7.578725814819335938e-01
3.161000000000000000e+03 4.992611312866210938e+01 2.913536071777343750e+01 8.199265003204345703e-01 8.835473060607910156e+00 2.896619796752929688e+00 -8.060859441757202148e-01
3.162000000000000000e+03 3.339681625366210938e+01 -2.946805953979492188e+01 -4.339355602860450745e-02 5.650565147399902344e+00 1.682151556015014648e+00 3.759586438536643982e-02
3.163000000000000000e+03 5.808188247680664062e+01 2.506167793273925781e+01 2.482415735721588135e-01 8.042553901672363281e+00 2.487238883972167969e+00 -8.989759683609008789e-01
3.164000000000000000e+03 7.995466232299804688e+00 3.837405014038085938e+01 -5.366134457290172577e-03 -3.037575166672468185e-03 -2.521112794056534767e-03 -4.858286119997501373e-03
3.165000000000000000e+03 7.913527965545654297e+00 4.110101318359375000e+01 -1.536987838335335255e-03 1.134773483499884605e-04 -4.270531353540718555e-04 4.193672211840748787e-04
3.166000000000000000e+03 6.752199554443359375e+01 3.182468605041503906e+01 2.803663611412048340e-01 7.113705158233642578e+00 2.218221426010131836e+00 -5.327060818672180176e-01
3.167000000000000000e+03 5.327596664428710938e+01 2.342815208435058594e+01 1.239881142973899841e-01 8.442878723144531250e+00 2.570060014724731445e+00 -9.034554362297058105e-01
3.168000000000000000e+03 3.541247558593750000e+01 -1.658541488647460938e+01 -1.326833963394165039e-01 5.926860332489013672e+00 1.738253116607666016e+00 1.322931349277496338e-01
3.169000000000000000e+03 3.852847290039062500e+01 -1.804991531372070312e+01 -1.560951024293899536e-01 6.174154281616210938e+00 1.805417776107788086e+00 9.289066493511199951e-02
3.170000000000000000e+03 2.787729263305664062e+01 -3.871700668334960938e+01 -2.188450396060943604e-01 5.174986362457275391e+00 1.486842393875122070e+00 -1.160737201571464539e-01
3.171000000000000000e+03 5.887029647827148438e+01 2.001672172546386719e+01 -4.704095795750617981e-02 8.021264076232910156e+00 2.392266988754272461e+00 -8.960717320442199707e-01
3.172000000000000000e+03 4.003736114501953125e+01 -1.944932746887207031e+01 -1.529888212680816650e-01 6.253728389739990234e+00 1.830221891403198242e+00 6.454817205667495728e-02
3.173000000000000000e+03 1.818614768981933594e+01 -4.124066543579101562e+01 -6.943010538816452026e-02 1.903687119483947754e+00 5.502771139144897461e-01 2.912915647029876709e-01
3.174000000000000000e+03 4.618160247802734375e+00 4.053625106811523438e+01 1.206890563480556011e-03 3.795181866735219955e-03 1.500621670857071877e-03 -1.030052895657718182e-03
3.175000000000000000e+03 3.210946273803710938e+01 -3.581576156616210938e+01 -1.277190595865249634e-01 5.548850536346435547e+00 1.626339435577392578e+00 -5.318210273981094360e-02
3.176000000000000000e+03 5.051506423950195312e+01 -1.073937416076660156e+01 -2.979619204998016357e-01 7.151059150695800781e+00 2.055929183959960938e+00 -7.846842706203460693e-02
3.177000000000000000e+03 5.522628784179687500e+01 -2.364374351501464844e+01 -1.362486779689788818e-01 7.298371791839599609e+00 2.148636817932128906e+00 -7.807613909244537354e-02
3.178000000000000000e+03 5.749944305419921875e+01 -2.482862854003906250e+01 -1.196417734026908875e-01 7.439367294311523438e+00 2.195917606353759766e+00 -8.234541863203048706e-02
3.179000000000000000e+03 6.474436950683593750e+01 2.887354850769042969e+01 3.102137446403503418e-01 7.437906265258789062e+00 2.324435949325561523e+00 -7.108464241027832031e-01
3.180000000000000000e+03 6.183465576171875000e+01 2.830697822570800781e+01 3.739209175109863281e-01 7.738756656646728516e+00 2.433803319931030273e+00 -7.916140556335449219e-01
3.181000000000000000e+03 5.535610580444335938e+01 2.345184898376464844e+01 1.467675417661666870e-01 8.289887428283691406e+00 2.530996322631835938e+00 -9.221171736717224121e-01
3.182000000000000000e+03 6.849664306640625000e+01 3.004273414611816406e+01 2.189477533102035522e-01 7.078710079193115234e+00 2.189297437667846680e+00 -5.667986273765563965e-01
3.183000000000000000e+03 5.122949600219726562e+01 3.301081466674804688e+01 1.224982738494873047e+00 8.760169982910156250e+00 2.995545864105224609e+00 -5.711756348609924316e-01
3.184000000000000000e+03 5.745774459838867188e+01 -1.934949493408203125e+01 -1.547528356313705444e-01 7.468597888946533203e+00 2.194153547286987305e+00 -1.200304850935935974e-01
3.185000000000000000e+03 6.158144760131835938e+01 -3.794211196899414062e+01 -6.262451410293579102e-02 7.698051452636718750e+00 2.290627956390380859e+00 -1.987731643021106720e-02
3.186000000000000000e+03 5.725333404541015625e+01 -3.744870758056640625e+01 -8.372494578361511230e-02 7.399101257324218750e+00 2.194612979888916016e+00 -2.698017470538616180e-02
3.187000000000000000e+03 2.762293815612792969e+01 -4.128352737426757812e+01 -2.895957231521606445e-01 5.261643409729003906e+00 1.491614341735839844e+00 -4.788690805435180664e-02
3.188000000000000000e+03 3.670987319946289062e+01 -3.812551879882812500e+01 -1.415785402059555054e-01 5.913222789764404297e+00 1.731493234634399414e+00 -1.972665265202522278e-02
3.189000000000000000e+03 6.460936737060546875e+01 -3.508483505249023438e+01 -5.174181982874870300e-02 7.909009933471679688e+00 2.357180356979370117e+00 -3.635647520422935486e-02
3.190000000000000000e+03 7.129693603515625000e+01 -4.067864608764648438e+01 -1.087130047380924225e-02 8.400519371032714844e+00 2.516894340515136719e+00 -1.002543605864048004e-02
3.191000000000000000e+03 6.558400726318359375e+01 -3.793721008300781250e+01 -3.638393431901931763e-02 7.983331680297851562e+00 2.384084463119506836e+00 -2.278914116322994232e-02
3.192000000000000000e+03 5.517367553710937500e+01 3.430187225341796875e+01 1.026433348655700684e+00 8.278500556945800781e+00 2.791480064392089844e+00 -5.391437411308288574e-01
3.193000000000000000e+03 5.264056015014648438e+01 4.029726028442382812e+01 1.359613418579101562e+00 8.646697998046875000e+00 3.001893520355224609e+00 -1.485661715269088745e-01
3.194000000000000000e+03 5.834090042114257812e+01 3.575543212890625000e+01 8.828200101852416992e-01 7.951022624969482422e+00 2.650152921676635742e+00 -4.394027888774871826e-01
3.195000000000000000e+03 6.188519668579101562e+01 3.466526794433593750e+01 6.588407158851623535e-01 7.615674495697021484e+00 2.482354640960693359e+00 -4.932561218738555908e-01
3.196000000000000000e+03 6.438007354736328125e+01 3.690739059448242188e+01 5.613473653793334961e-01 7.363266468048095703e+00 2.377384185791015625e+00 -3.366679847240447998e-01
3.197000000000000000e+03 4.126662826538085938e+01 -1.881174659729003906e+01 -1.709702163934707642e-01 6.366163253784179688e+00 1.858557820320129395e+00 6.075028330087661743e-02
3.198000000000000000e+03 6.003914642333984375e+01 2.411900901794433594e+01 1.730291396379470825e-01 7.918390750885009766e+00 2.427426099777221680e+00 -8.923559188842773438e-01
3.199000000000000000e+03 5.898978805541992188e+01 2.725863456726074219e+01 3.895884156227111816e-01 7.964219570159912109e+00 2.506142377853393555e+00 -8.550428152084350586e-01
3.200000000000000000e+03 3.585983657836914062e+01 -2.801410484313964844e+01 -8.891355246305465698e-02 5.873850822448730469e+00 1.735481262207031250e+00 3.177813068032264709e-02
3.201000000000000000e+03 3.252964401245117188e+01 -2.384265518188476562e+01 -8.296059072017669678e-02 5.647939205169677734e+00 1.669493675231933594e+00 1.031042039394378662e-01
3.202000000000000000e+03 3.476302719116210938e+01 -3.216528701782226562e+01 -9.010500460863113403e-02 5.761713504791259766e+00 1.701482653617858887e+00 -9.259839542210102081e-03
3.203000000000000000e+03 4.946805191040039062e+01 -1.624761962890625000e+01 -2.228808254003524780e-01 6.989246368408203125e+00 2.029909610748291016e+00 -5.076821148395538330e-02
3.204000000000000000e+03 4.235749816894531250e+01 -2.049607086181640625e+01 -1.602812856435775757e-01 6.415226459503173828e+00 1.876483559608459473e+00 3.500797227025032043e-02
3.205000000000000000e+03 5.712636947631835938e+01 2.839313888549804688e+01 5.301263332366943359e-01 8.075892448425292969e+00 2.581805706024169922e+00 -8.456761837005615234e-01
3.206000000000000000e+03 3.748199081420898438e+01 -1.274629497528076172e+01 -1.968052387237548828e-01 6.133010387420654297e+00 1.780861496925354004e+00 1.660835146903991699e-01
3.207000000000000000e+03 5.601306915283203125e+01 2.606296920776367188e+01 3.602034449577331543e-01 8.222186088562011719e+00 2.574716806411743164e+00 -9.173251390457153320e-01
3.208000000000000000e+03 6.426597595214843750e+01 3.246324920654296875e+01 4.332226216793060303e-01 7.390135765075683594e+00 2.347007513046264648e+00 -5.743299722671508789e-01
3.209000000000000000e+03 5.643958282470703125e+01 -2.144789886474609375e+01 -1.483070105314254761e-01 7.392076015472412109e+00 2.173130750656127930e+00 -9.643030911684036255e-02
3.210000000000000000e+03 5.848771667480468750e+01 -2.243042564392089844e+01 -1.254987120628356934e-01 7.511538982391357422e+00 2.215811967849731445e+00 -1.022300422191619873e-01
3.211000000000000000e+03 3.738981246948242188e+01 -1.902549171447753906e+01 -1.370425224304199219e-01 6.063711643218994141e+00 1.778000712394714355e+00 9.705567359924316406e-02
3.212000000000000000e+03 3.653680038452148438e+01 -2.065467262268066406e+01 -1.198365539312362671e-01 5.967893123626708984e+00 1.754416942596435547e+00 8.752109855413436890e-02
3.213000000000000000e+03 5.303249359130859375e+01 -1.899395561218261719e+01 -1.816542744636535645e-01 7.196593761444091797e+00 2.104481697082519531e+00 -8.632817864418029785e-02
3.214000000000000000e+03 5.458986282348632812e+01 -2.027069282531738281e+01 -1.673306077718734741e-01 7.279956340789794922e+00 2.133787631988525391e+00 -9.005215764045715332e-02
3.215000000000000000e+03 3.496846008300781250e+01 -1.944104385375976562e+01 -1.114962995052337646e-01 5.858357429504394531e+00 1.724058389663696289e+00 1.121586263179779053e-01
3.216000000000000000e+03 4.550970077514648438e+01 -1.393805885314941406e+01 -2.448242306709289551e-01 6.761119365692138672e+00 1.954888582229614258e+00 1.693418435752391815e-02
3.217000000000000000e+03 4.804770278930664062e+01 -1.955793190002441406e+01 -1.882552802562713623e-01 6.845605850219726562e+00 1.997205138206481934e+00 -3.008517995476722717e-02
3.218000000000000000e+03 3.389245605468750000e+01 -2.584458351135253906e+01 -6.900843232870101929e-02 5.722877502441406250e+00 1.696160674095153809e+00 7.959840446710586548e-02
3.219000000000000000e+03 3.783018493652343750e+01 -3.079505729675292969e+01 -9.895840287208557129e-02 6.013633728027343750e+00 1.774402618408203125e+00 6.817195564508438110e-03
3.220000000000000000e+03 5.862242889404296875e+01 3.259791564941406250e+01 7.141106724739074707e-01 7.920626640319824219e+00 2.590421199798583984e+00 -6.494297981262207031e-01
3.221000000000000000e+03 5.912662887573242188e+01 -2.842737579345703125e+01 -9.559309482574462891e-02 7.531526088714599609e+00 2.230779886245727539e+00 -6.815384328365325928e-02
3.222000000000000000e+03 5.352542495727539062e+01 3.165832328796386719e+01 9.828002452850341797e-01 8.485780715942382812e+00 2.840574264526367188e+00 -7.146862149238586426e-01
3.223000000000000000e+03 3.422426986694335938e+01 -2.274499702453613281e+01 -8.523171395063400269e-02 5.760729312896728516e+00 1.702649235725402832e+00 9.985363483428955078e-02
3.224000000000000000e+03 3.607678222656250000e+01 -2.263686943054199219e+01 -1.072728857398033142e-01 5.923568248748779297e+00 1.744888663291931152e+00 7.682628929615020752e-02
3.225000000000000000e+03 3.759826278686523438e+01 -2.587066268920898438e+01 -1.034074798226356506e-01 6.012825489044189453e+00 1.772825360298156738e+00 4.833852872252464294e-02
3.226000000000000000e+03 5.021988296508789062e+01 -1.841544151306152344e+01 -1.990210860967636108e-01 7.019680500030517578e+00 2.046197891235351562e+00 -5.490663275122642517e-02
3.227000000000000000e+03 4.732720565795898438e+01 -1.682141685485839844e+01 -2.158847153186798096e-01 6.827157020568847656e+00 1.983381748199462891e+00 -1.907393150031566620e-02
3.228000000000000000e+03 5.318536376953125000e+01 -2.218764114379882812e+01 -1.568139642477035522e-01 7.176218032836914062e+00 2.105821132659912109e+00 -7.320629805326461792e-02
3.229000000000000000e+03 5.817504501342773438e+01 3.042825317382812500e+01 6.268083453178405762e-01 7.984460353851318359e+00 2.583380460739135742e+00 -7.378404140472412109e-01
3.230000000000000000e+03 5.832397842407226562e+01 -3.127089691162109375e+01 -8.613020926713943481e-02 7.472628116607666016e+00 2.215949296951293945e+00 -5.473911762237548828e-02
3.231000000000000000e+03 4.581011962890625000e+01 -2.113399505615234375e+01 -1.722391992807388306e-01 6.676895618438720703e+00 1.951396942138671875e+00 -1.233980711549520493e-02
3.232000000000000000e+03 5.996195602416992188e+01 2.946961784362792969e+01 4.907689988613128662e-01 7.852240562438964844e+00 2.502902746200561523e+00 -7.691570520401000977e-01
3.233000000000000000e+03 5.765508651733398438e+01 -3.428946304321289062e+01 -8.979567885398864746e-02 7.419576168060302734e+00 2.198934078216552734e+00 -4.039729014039039612e-02
3.234000000000000000e+03 4.526074600219726562e+01 -3.622678756713867188e+01 -1.250265389680862427e-01 6.572794437408447266e+00 1.934330344200134277e+00 -1.302079018205404282e-02
3.235000000000000000e+03 4.044352722167968750e+01 -2.126286125183105469e+01 -1.429758965969085693e-01 6.275203704833984375e+00 1.839668273925781250e+00 5.082636699080467224e-02
3.236000000000000000e+03 5.146441268920898438e+01 -2.044137191772460938e+01 -1.782013177871704102e-01 7.082704544067382812e+00 2.071351051330566406e+00 -6.394300609827041626e-02
3.237000000000000000e+03 5.384154510498046875e+01 -2.594086837768554688e+01 -1.303741782903671265e-01 7.195877075195312500e+00 2.119650840759277344e+00 -6.257262825965881348e-02
3.238000000000000000e+03 4.960806274414062500e+01 -2.203187561035156250e+01 -1.667307168245315552e-01 6.935473918914794922e+00 2.030622959136962891e+00 -4.524869471788406372e-02
3.239000000000000000e+03 5.639718627929687500e+01 -2.736240196228027344e+01 -1.095924600958824158e-01 7.357805728912353516e+00 2.174463987350463867e+00 -6.489223986864089966e-02
3.240000000000000000e+03 5.519769287109375000e+01 -3.008393287658691406e+01 -1.036847382783889771e-01 7.266185283660888672e+00 2.148750066757202148e+00 -5.063340812921524048e-02
3.241000000000000000e+03 4.281071090698242188e+01 -3.265670394897460938e+01 -1.238788217306137085e-01 6.380417823791503906e+00 1.876961708068847656e+00 -9.681229479610919952e-03
3.242000000000000000e+03 4.525136947631835938e+01 -2.578350067138671875e+01 -1.385483145713806152e-01 6.580671310424804688e+00 1.932636857032775879e+00 -1.307104621082544327e-02
3.243000000000000000e+03 4.755775070190429688e+01 -2.381952285766601562e+01 -1.534838378429412842e-01 6.780915737152099609e+00 1.988229513168334961e+00 -3.038042411208152771e-02
3.244000000000000000e+03 5.229272842407226562e+01 -2.840229797363281250e+01 -1.205269917845726013e-01 7.082899093627929688e+00 2.088711738586425781e+00 -4.567393288016319275e-02
3.245000000000000000e+03 3.825222778320312500e+01 -2.339442062377929688e+01 -1.207590475678443909e-01 6.086028099060058594e+00 1.789580702781677246e+00 5.504259467124938965e-02
3.246000000000000000e+03 4.771612167358398438e+01 -2.851904487609863281e+01 -1.288559734821319580e-01 6.760527133941650391e+00 1.989501357078552246e+00 -3.664508834481239319e-02
3.247000000000000000e+03 5.260667037963867188e+01 -3.638298416137695312e+01 -1.049365550279617310e-01 7.065613746643066406e+00 2.088203191757202148e+00 -1.977834291756153107e-02
3.248000000000000000e+03 5.393608856201171875e+01 -3.305006027221679688e+01 -1.019684299826622009e-01 7.168996810913085938e+00 2.120108604431152344e+00 -3.528812155127525330e-02
3.249000000000000000e+03 4.849871444702148438e+01 -3.398477172851562500e+01 -1.181206479668617249e-01 6.797559738159179688e+00 2.003831624984741211e+00 -2.589230239391326904e-02
3.250000000000000000e+03 3.244990921020507812e+01 3.696043395996093750e+01 5.828565359115600586e-01 2.745902299880981445e+00 9.986276626586914062e-01 -2.128352880477905273e+00
3.251000000000000000e+03 3.384376144409179688e+01 3.695294189453125000e+01 -1.174455210566520691e-01 1.188534069061279297e+01 3.530368566513061523e+00 -4.309239864349365234e+00
3.252000000000000000e+03 3.439433670043945312e+01 3.705780792236328125e+01 -9.572644233703613281e-01 1.472500514984130859e+01 4.130321979522705078e+00 -2.675618886947631836e+00
3.253000000000000000e+03 3.438586044311523438e+01 3.671534729003906250e+01 -7.143736481666564941e-01 1.701960754394531250e+01 4.891570091247558594e+00 -2.766464710235595703e+00
3.254000000000000000e+03 3.533052062988281250e+01 3.668416213989257812e+01 7.330768704414367676e-01 1.821357727050781250e+01 5.683996200561523438e+00 1.736725091934204102e+00
3.255000000000000000e+03 3.354476928710937500e+01 3.337771606445312500e+01 4.628742218017578125e+00 1.016979980468750000e+01 4.439562320709228516e+00 7.761005401611328125e+00
3.256000000000000000e+03 3.322095108032226562e+01 3.323601531982421875e+01 4.470356464385986328e+00 8.093393325805664062e+00 3.769124984741210938e+00 6.390796661376953125e+00
3.257000000000000000e+03 3.208105087280273438e+01 3.347436523437500000e+01 3.968939542770385742e+00 1.871984958648681641e+00 1.752277374267578125e+00 3.261627435684204102e+00
3.258000000000000000e+03 3.183649253845214844e+01 3.373228454589843750e+01 3.276865482330322266e+00 1.030233025550842285e+00 1.292129635810852051e+00 2.173497200012207031e+00
3.259000000000000000e+03 3.416281890869140625e+01 3.188121795654296875e+01 1.477975487709045410e+00 1.235122013092041016e+01 4.148758888244628906e+00 4.400691032409667969e+00
3.260000000000000000e+03 3.493172454833984375e+01 3.713626861572265625e+01 -4.997773170471191406e-01 1.547429370880126953e+01 4.492354869842529297e+00 -6.717464327812194824e-01
3.261000000000000000e+03 3.579267501831054688e+01 3.732842636108398438e+01 3.202954232692718506e-01 1.615645027160644531e+01 4.943023681640625000e+00 1.538061857223510742e+00
3.262000000000000000e+03 3.661646652221679688e+01 3.496759414672851562e+01 7.671041011810302734e+00 1.409668540954589844e+01 6.530317783355712891e+00 1.631813645362854004e+00
3.263000000000000000e+03 3.726726913452148438e+01 3.386568450927734375e+01 5.352017879486083984e+00 1.260766887664794922e+01 5.387906074523925781e+00 -4.856679588556289673e-02
3.264000000000000000e+03 1.282196426391601562e+01 3.868654251098632812e+01 3.676534397527575493e-03 -4.684415180236101151e-03 -3.023641766048967838e-04 1.907308120280504227e-03
3.265000000000000000e+03 1.296098327636718750e+01 2.421688556671142578e+00 2.270318800583481789e-04 5.453368430607952178e-06 6.974557618377730250e-05 -3.570977423805743456e-05
3.266000000000000000e+03 2.440046310424804688e+00 2.675455808639526367e+00 -3.492574323900043964e-04 -1.800276804715394974e-04 -1.587855367688462138e-04 3.138549800496548414e-05
3.267000000000000000e+03 1.032622146606445312e+01 -3.618022155761718750e+01 -5.167027562856674194e-02 3.279415518045425415e-02 -5.662836134433746338e-03 1.103281881660223007e-02
3.268000000000000000e+03 1.673299407958984375e+01 3.940190887451171875e+01 -2.041420154273509979e-02 -1.439440436661243439e-02 -1.044258195906877518e-02 1.348358695395290852e-03
3.269000000000000000e+03 1.531288242340087891e+01 3.903896331787109375e+01 -1.883247308433055878e-02 -2.265304792672395706e-03 -6.329333409667015076e-03 -3.283692291006445885e-03
3.270000000000000000e+03 3.298005294799804688e+01 3.318960571289062500e+01 4.634596824645996094e+00 6.292072772979736328e+00 3.278001070022583008e+00 5.890236854553222656e+00
3.271000000000000000e+03 3.130085754394531250e+01 3.341888046264648438e+01 2.807281970977783203e+00 1.004317998886108398e+00 1.143479943275451660e+00 1.933201313018798828e+00
3.272000000000000000e+03 1.216619491577148438e+01 -3.267472743988037109e+00 3.064019838348031044e-04 1.797642325982451439e-04 1.458498591091483831e-04 6.033894605934619904e-04
3.273000000000000000e+03 3.169582366943359375e+01 3.311796188354492188e+01 3.435434103012084961e+00 2.028494119644165039e+00 1.639178514480590820e+00 2.835770368576049805e+00
3.274000000000000000e+03 3.187031936645507812e+01 3.287033462524414062e+01 3.734670877456665039e+00 3.031333923339843750e+00 2.029801368713378906e+00 3.623033761978149414e+00
3.275000000000000000e+03 2.296836090087890625e+01 -2.545760536193847656e+01 -2.043931558728218079e-02 4.944153785705566406e+00 1.477114319801330566e+00 1.489268839359283447e-01
3.276000000000000000e+03 3.416833877563476562e+01 3.104780960083007812e+01 9.490409493446350098e-01 1.123133563995361328e+01 3.654112815856933594e+00 3.740651369094848633e+00
3.277000000000000000e+03 7.811246490478515625e+01 -3.575875473022460938e+01 -1.164416316896677017e-02 8.891704559326171875e+00 2.664017915725708008e+00 9.080928750336170197e-03
3.278000000000000000e+03 7.645817565917968750e+01 3.885002899169921875e+01 1.130156964063644409e-01 5.914992332458496094e+00 1.808402538299560547e+00 -6.406277418136596680e-02
3.279000000000000000e+03 2.275199413299560547e+00 3.514695167541503906e+00 3.175780584570020437e-04 2.641666214913129807e-04 1.745234039844945073e-04 -3.506967332214117050e-04
3.280000000000000000e+03 1.126517295837402344e+01 -2.998973464965820312e+01 -1.869921223260462284e-03 1.832126057706773281e-03 -1.133855403168126941e-05 3.389698453247547150e-03
3.281000000000000000e+03 2.925082015991210938e+01 3.258693313598632812e+01 1.650304436683654785e+00 8.076196312904357910e-01 7.373772263526916504e-01 9.332529306411743164e-01
3.282000000000000000e+03 3.724097442626953125e+01 3.191755485534667969e+01 2.369436979293823242e+00 1.312074279785156250e+01 4.647053718566894531e+00 -3.743512034416198730e-01
3.283000000000000000e+03 3.231181716918945312e+01 3.123978614807128906e+01 2.304711103439331055e+00 6.207406044006347656e+00 2.553635120391845703e+00 4.220788955688476562e+00
3.284000000000000000e+03 3.991373825073242188e+01 3.500372314453125000e+01 3.595935106277465820e+00 1.109710884094238281e+01 4.407913208007812500e+00 8.164108991622924805e-01
3.285000000000000000e+03 4.079560470581054688e+01 -2.955617523193359375e+01 -1.189490482211112976e-01 6.227354526519775391e+00 1.832521677017211914e+00 1.498471014201641083e-03
3.286000000000000000e+03 7.097969055175781250e+01 -3.592489624023437500e+01 -2.193128876388072968e-02 8.355822563171386719e+00 2.500167608261108398e+00 -2.544535137712955475e-02
3.287000000000000000e+03 3.147400474548339844e+01 3.300791549682617188e+01 3.240198850631713867e+00 1.687780857086181641e+00 1.478393912315368652e+00 2.622533798217773438e+00
3.288000000000000000e+03 3.236904144287109375e+01 3.307734298706054688e+01 4.208367347717285156e+00 3.708382129669189453e+00 2.375024795532226562e+00 4.379865169525146484e+00
3.289000000000000000e+03 1.100145721435546875e+01 4.470539093017578125e+00 2.173864486394450068e-04 1.527452113805338740e-04 1.110394950956106186e-04 -6.148336069600190967e-06
3.290000000000000000e+03 4.806053638458251953e+00 -3.479805374145507812e+01 -3.566347528249025345e-03 -3.027181606739759445e-03 -1.978058833628892899e-03 -1.028701663017272949e-02
3.291000000000000000e+03 3.591835021972656250e+01 3.090785217285156250e+01 8.325393199920654297e-01 1.278320789337158203e+01 4.084724426269531250e+00 1.255805015563964844e+00
3.292000000000000000e+03 2.884455490112304688e+01 3.214064025878906250e+01 1.596382141113281250e+00 9.434741735458374023e-01 7.619568705558776855e-01 9.396641850471496582e-01
3.293000000000000000e+03 3.011139678955078125e+01 3.240785980224609375e+01 2.227348804473876953e+00 1.321456074714660645e+00 1.064641475677490234e+00 1.634142994880676270e+00
3.294000000000000000e+03 2.957017517089843750e+01 3.207339859008789062e+01 1.999445199966430664e+00 1.252703547477722168e+00 9.756446480751037598e-01 1.415090203285217285e+00
3.295000000000000000e+03 3.575779676437377930e+00 3.711548614501953125e+01 -2.305822818016167730e-06 3.519291756674647331e-03 1.055095810443162918e-03 9.435463580302894115e-04
3.296000000000000000e+03 4.015040969848632812e+01 3.257941055297851562e+01 2.915021419525146484e+00 1.080475330352783203e+01 4.115932464599609375e+00 -4.019890725612640381e-01
3.297000000000000000e+03 3.141839218139648438e+01 3.059704971313476562e+01 2.081930160522460938e+00 4.622201442718505859e+00 2.011239528656005859e+00 3.398173570632934570e+00
3.298000000000000000e+03 3.204401397705078125e+01 3.053490066528320312e+01 1.904021263122558594e+00 5.855763435363769531e+00 2.327935457229614258e+00 3.820669889450073242e+00
3.299000000000000000e+03 3.742660045623779297e+00 6.199738502502441406e+00 -3.546662628650665283e-04 -2.468175371177494526e-04 -1.804451312636956573e-04 3.081026952713727951e-04
3.300000000000000000e+03 2.572441482543945312e+01 -3.537729263305664062e+01 4.904988780617713928e-02 4.951595306396484375e+00 1.500193476676940918e+00 -6.484010070562362671e-02
3.301000000000000000e+03 1.053633022308349609e+01 2.373259544372558594e+01 1.265480532310903072e-03 1.175376892206259072e-04 4.149054584559053183e-04 -1.707558403722941875e-04
3.302000000000000000e+03 8.900686264038085938e+00 3.293761825561523438e+01 -9.284715633839368820e-04 -1.855227747000753880e-03 -8.351097931154072285e-04 1.052060280926525593e-03
3.303000000000000000e+03 8.588322639465332031e+00 3.192542266845703125e+01 2.979156095534563065e-03 -1.139151165261864662e-03 5.520014674402773380e-04 -2.187270903959870338e-03
3.304000000000000000e+03 2.860081100463867188e+01 -3.118620109558105469e+01 3.684297204017639160e-02 5.242539405822753906e+00 1.583814620971679688e+00 6.035329028964042664e-02
3.305000000000000000e+03 3.455987930297851562e+01 2.978312683105468750e+01 3.504190742969512939e-01 1.056937694549560547e+01 3.275938749313354492e+00 2.722513437271118164e+00
3.306000000000000000e+03 6.596266937255859375e+01 3.053438758850097656e+01 3.155742883682250977e-01 7.302422046661376953e+00 2.285398960113525391e+00 -6.251066327095031738e-01
3.307000000000000000e+03 6.742926025390625000e+01 2.895533561706542969e+01 2.190035730600357056e-01 7.205632686614990234e+00 2.227390766143798828e+00 -6.366166472434997559e-01
3.308000000000000000e+03 6.273393249511718750e+01 2.511754035949707031e+01 1.913894265890121460e-01 7.708912372589111328e+00 2.370090484619140625e+00 -8.430263400077819824e-01
3.309000000000000000e+03 6.650299835205078125e+01 2.739081954956054688e+01 2.072685658931732178e-01 7.332958221435546875e+00 2.262068033218383789e+00 -7.073445916175842285e-01
3.310000000000000000e+03 3.188738059997558594e+01 2.994256019592285156e+01 1.616856217384338379e+00 5.844053745269775391e+00 2.238273143768310547e+00 3.553318500518798828e+00
3.311000000000000000e+03 3.469570922851562500e+01 2.895108222961425781e+01 1.304631084203720093e-01 1.003866481781005859e+01 3.050738573074340820e+00 2.467680215835571289e+00
3.312000000000000000e+03 3.913515090942382812e+01 3.131845092773437500e+01 2.135822534561157227e+00 1.134443950653076172e+01 4.044078826904296875e+00 -5.570377707481384277e-01
3.313000000000000000e+03 5.175786209106445312e+01 2.075792121887207031e+01 -1.603022962808609009e-01 8.502873420715332031e+00 2.502771377563476562e+00 -8.049243092536926270e-01
3.314000000000000000e+03 6.711482238769531250e+01 2.448800277709960938e+01 1.112570688128471375e-01 7.376367568969726562e+00 2.246287345886230469e+00 -7.445967197418212891e-01
3.315000000000000000e+03 3.377392196655273438e+01 2.835055541992187500e+01 2.693876028060913086e-01 8.662877082824707031e+00 2.679679393768310547e+00 2.822893857955932617e+00
3.316000000000000000e+03 3.608706283569335938e+01 3.022021102905273438e+01 5.139865875244140625e-01 1.200614547729492188e+01 3.756039381027221680e+00 1.250422596931457520e+00
3.317000000000000000e+03 6.989447593688964844e+00 6.971915721893310547e+00 -2.292987046530470252e-04 4.606834045262075961e-05 -5.496911035152152181e-05 -1.427739189239218831e-04
3.318000000000000000e+03 9.302118301391601562e+00 5.601178646087646484e+00 2.480043331161141396e-04 6.087096335249952972e-05 9.266258712159469724e-05 1.128625081037171185e-04
3.319000000000000000e+03 6.716379547119140625e+01 -2.947253417968750000e+01 -5.059404298663139343e-02 8.061225891113281250e+00 2.403189659118652344e+00 -6.748457252979278564e-02
3.320000000000000000e+03 2.817568969726562500e+01 -2.672214126586914062e+01 -2.937855757772922516e-02 5.301096439361572266e+00 1.581515431404113770e+00 1.230082437396049500e-01
3.321000000000000000e+03 3.601038360595703125e+01 2.994979095458984375e+01 4.135572910308837891e-01 1.178083419799804688e+01 3.658317565917968750e+00 1.307795286178588867e+00
3.322000000000000000e+03 3.689277267456054688e+01 2.983053588867187500e+01 5.294859409332275391e-01 1.184851932525634766e+01 3.713401556015014648e+00 6.548402905464172363e-01
3.323000000000000000e+03 3.627350234985351562e+01 2.934011077880859375e+01 1.342607289552688599e-01 1.128422737121582031e+01 3.425546646118164062e+00 1.312960505485534668e+00
3.324000000000000000e+03 3.069729232788085938e+01 2.976968574523925781e+01 1.735164642333984375e+00 4.024914264678955078e+00 1.728023648262023926e+00 2.873840093612670898e+00
3.325000000000000000e+03 2.966519927978515625e+01 3.071714019775390625e+01 1.955488801002502441e+00 2.377375602722167969e+00 1.299859285354614258e+00 2.084016561508178711e+00
3.326000000000000000e+03 2.800536918640136719e+01 -2.929173660278320312e+01 1.927363499999046326e-02 5.248895645141601562e+00 1.580450773239135742e+00 1.071295440196990967e-01
3.327000000000000000e+03 2.708775329589843750e+01 -9.292330741882324219e+00 -3.956733271479606628e-02 5.240534305572509766e+00 1.560290098190307617e+00 2.946308553218841553e-01
3.328000000000000000e+03 9.453779220581054688e+00 -6.516556739807128906e+00 -1.556934323161840439e-03 -1.634352702239993960e-05 -4.719833377748727798e-04 -1.773480471456423402e-04
3.329000000000000000e+03 3.461426162719726562e+01 2.749942398071289062e+01 -1.160990521311759949e-01 9.140894889831542969e+00 2.707438707351684570e+00 2.229851245880126953e+00
3.330000000000000000e+03 2.868402862548828125e+01 -3.057384192943572998e-01 -1.274681687355041504e-01 5.324713706970214844e+00 1.559173703193664551e+00 4.728864133358001709e-01
3.331000000000000000e+03 4.171249389648437500e+01 2.392790603637695312e+01 -3.730007410049438477e-01 9.416646957397460938e+00 2.713093996047973633e+00 -1.185489743947982788e-01
3.332000000000000000e+03 5.221024513244628906e+00 1.114335441589355469e+01 5.376263870857656002e-04 3.383472503628581762e-04 2.627920766826719046e-04 -3.771241463255137205e-04
3.333000000000000000e+03 3.978491210937500000e+01 2.838263511657714844e+01 4.512576460838317871e-01 1.055132961273193359e+01 3.300776004791259766e+00 -2.447621077299118042e-01
3.334000000000000000e+03 3.606316757202148438e+01 2.965799140930175781e+01 2.738454341888427734e-01 1.154942321777343750e+01 3.546980381011962891e+00 1.374323487281799316e+00
3.335000000000000000e+03 3.655276489257812500e+01 2.953555297851562500e+01 3.596369028091430664e-01 1.144606876373291016e+01 3.541711568832397461e+00 9.558524489402770996e-01
3.336000000000000000e+03 5.404095172882080078e+00 1.929403305053710938e+01 1.027388032525777817e-03 3.414015809539705515e-04 4.106368869543075562e-04 -3.835895331576466560e-04
3.337000000000000000e+03 3.582826232910156250e+01 2.797700881958007812e+01 -1.834116876125335693e-01 1.017429065704345703e+01 2.997263669967651367e+00 1.597126245498657227e+00
3.338000000000000000e+03 6.864122867584228516e+00 2.500111007690429688e+01 -1.511529088020324707e-03 -2.632586983963847160e-04 -5.324363592080771923e-04 -7.675697561353445053e-04
3.339000000000000000e+03 2.996301841735839844e+01 3.037270355224609375e+01 1.892647027969360352e+00 2.875970363616943359e+00 1.430585145950317383e+00 2.345008373260498047e+00
3.340000000000000000e+03 3.038777351379394531e+01 2.939916038513183594e+01 1.610952973365783691e+00 3.899569272994995117e+00 1.653156638145446777e+00 2.733939170837402344e+00
3.341000000000000000e+03 3.240661239624023438e+01 2.810842895507812500e+01 6.277743577957153320e-01 6.915606021881103516e+00 2.263014078140258789e+00 2.989378452301025391e+00
3.342000000000000000e+03 3.283761596679687500e+01 2.823608589172363281e+01 5.333858132362365723e-01 7.402811050415039062e+00 2.380859136581420898e+00 2.996457576751708984e+00
3.343000000000000000e+03 4.941002655029296875e+01 1.802931594848632812e+01 -4.500186145305633545e-01 8.487668991088867188e+00 2.411295175552368164e+00 -5.727046132087707520e-01
3.344000000000000000e+03 7.076152801513671875e+01 2.708309364318847656e+01 9.796975553035736084e-02 6.987376689910888672e+00 2.125603914260864258e+00 -5.587866306304931641e-01
3.345000000000000000e+03 4.092540359497070312e+01 2.220880126953125000e+01 -6.336231827735900879e-01 9.117694854736328125e+00 2.545221567153930664e+00 1.571120172739028931e-01
3.346000000000000000e+03 3.998943710327148438e+01 -1.794935989379882812e+01 -1.719701290130615234e-01 6.267235279083251953e+00 1.828579545021057129e+00 7.766772806644439697e-02
3.347000000000000000e+03 5.056567001342773438e+01 -1.356723976135253906e+01 -2.568349838256835938e-01 7.118427753448486328e+00 2.058477878570556641e+00 -7.548977434635162354e-02
3.348000000000000000e+03 4.906173706054687500e+01 -1.418942546844482422e+01 -2.493652850389480591e-01 6.985551834106445312e+00 2.020855903625488281e+00 -4.444460570812225342e-02
3.349000000000000000e+03 6.465824890136718750e+01 -2.436680412292480469e+01 -7.621324062347412109e-02 7.884039878845214844e+00 2.342347860336303711e+00 -1.030737832188606262e-01
3.350000000000000000e+03 3.017550849914550781e+01 2.899510192871093750e+01 1.425467133522033691e+00 3.907849788665771484e+00 1.599995136260986328e+00 2.573040485382080078e+00
3.351000000000000000e+03 3.382218551635742188e+01 2.670028686523437500e+01 -9.997234493494033813e-02 8.154081344604492188e+00 2.416232585906982422e+00 2.363689899444580078e+00
3.352000000000000000e+03 3.338150787353515625e+01 2.644376564025878906e+01 -4.371613264083862305e-02 7.681102752685546875e+00 2.291216135025024414e+00 2.410034656524658203e+00
3.353000000000000000e+03 3.683585739135742188e+01 -1.534216594696044922e+01 -1.635607481002807617e-01 6.059170722961425781e+00 1.768682956695556641e+00 1.411737352609634399e-01
3.354000000000000000e+03 7.287719726562500000e+01 2.359131240844726562e+01 2.807148732244968414e-02 6.973794937133789062e+00 2.100559949874877930e+00 -5.201841592788696289e-01
3.355000000000000000e+03 3.177448463439941406e+01 2.703625297546386719e+01 4.833803474903106689e-01 6.099856853485107422e+00 1.974971175193786621e+00 2.675658464431762695e+00
3.356000000000000000e+03 3.320508193969726562e+01 2.703620147705078125e+01 1.151213943958282471e-01 7.635515213012695312e+00 2.325191020965576172e+00 2.601207256317138672e+00
3.357000000000000000e+03 2.951261901855468750e+01 2.890054702758789062e+01 1.376546382904052734e+00 3.325095653533935547e+00 1.410492658615112305e+00 2.270682334899902344e+00
3.358000000000000000e+03 4.993598937988281250e+01 1.661456680297851562e+01 -4.969633221626281738e-01 8.367681503295898438e+00 2.361215591430664062e+00 -5.468866229057312012e-01
3.359000000000000000e+03 3.248983764648437500e+01 2.617388343811035156e+01 8.440358191728591919e-02 6.948098659515380859e+00 2.109750747680664062e+00 2.468238592147827148e+00
3.360000000000000000e+03 3.292359161376953125e+01 2.627726173400878906e+01 2.796711958944797516e-02 7.266320228576660156e+00 2.188286304473876953e+00 2.463928937911987305e+00
3.361000000000000000e+03 3.152005767822265625e+01 1.779091262817382812e+01 -5.291357040405273438e-01 5.872693538665771484e+00 1.603067398071289062e+00 1.501359462738037109e+00
3.362000000000000000e+03 3.290694046020507812e+01 -8.359407424926757812e+00 -1.657961755990982056e-01 5.759266853332519531e+00 1.678041219711303711e+00 2.971909940242767334e-01
3.363000000000000000e+03 3.404056167602539062e+01 -7.772984981536865234e+00 -1.966795027256011963e-01 5.900098323822021484e+00 1.711025595664978027e+00 2.924142479896545410e-01
3.364000000000000000e+03 3.412884521484375000e+01 2.435524749755859375e+01 -4.620647430419921875e-01 7.784446716308593750e+00 2.196714639663696289e+00 1.916030168533325195e+00
3.365000000000000000e+03 3.577497100830078125e+01 2.375316810607910156e+01 -6.595374941825866699e-01 8.432223320007324219e+00 2.331805706024169922e+00 1.439737439155578613e+00
3.366000000000000000e+03 3.915435028076171875e+01 2.138811111450195312e+01 -7.846679687500000000e-01 8.780740737915039062e+00 2.398821592330932617e+00 5.672011971473693848e-01
3.367000000000000000e+03 3.157587623596191406e+01 2.563351058959960938e+01 1.518325507640838623e-01 6.047104358673095703e+00 1.859681129455566406e+00 2.377246379852294922e+00
3.368000000000000000e+03 7.174009704589843750e+01 -2.180134201049804688e+01 -3.042722307145595551e-02 8.344051361083984375e+00 2.494087219238281250e+00 -9.263555705547332764e-02
3.369000000000000000e+03 3.339943313598632812e+01 2.282794189453125000e+01 -5.026989579200744629e-01 7.136858940124511719e+00 1.990247964859008789e+00 1.824685454368591309e+00
3.370000000000000000e+03 5.187724685668945312e+01 1.434743881225585938e+01 -4.960148036479949951e-01 8.203337669372558594e+00 2.312196969985961914e+00 -5.698311924934387207e-01
3.371000000000000000e+03 5.216923141479492188e+01 1.312034606933593750e+01 -5.128991007804870605e-01 8.140567779541015625e+00 2.288300514221191406e+00 -5.440078973770141602e-01
3.372000000000000000e+03 4.045634078979492188e+01 -8.754889488220214844e+00 -2.841409444808959961e-01 6.459414958953857422e+00 1.852582216262817383e+00 1.613166481256484985e-01
3.373000000000000000e+03 3.755006790161132812e+01 2.393720817565917969e+01 -6.641452312469482422e-01 9.109026908874511719e+00 2.533464670181274414e+00 9.147178530693054199e-01
3.374000000000000000e+03 2.922328376770019531e+01 2.742082214355468750e+01 9.031264185905456543e-01 3.712376832962036133e+00 1.384650945663452148e+00 2.151400327682495117e+00
3.375000000000000000e+03 4.845364761352539062e+01 1.115692138671875000e+01 -6.684001684188842773e-01 8.010852813720703125e+00 2.202735900878906250e+00 -2.501332759857177734e-01
3.376000000000000000e+03 5.248749542236328125e+01 1.052530670166015625e+01 -5.445800423622131348e-01 8.006237030029296875e+00 2.238497257232666016e+00 -4.604550004005432129e-01
3.377000000000000000e+03 3.586000823974609375e+01 2.285455322265625000e+01 -7.192463874816894531e-01 8.269185066223144531e+00 2.264981508255004883e+00 1.375916600227355957e+00
3.378000000000000000e+03 4.798078536987304688e+01 9.951968193054199219e+00 -6.708001494407653809e-01 7.906432628631591797e+00 2.170689821243286133e+00 -1.840682774782180786e-01
3.379000000000000000e+03 7.178240966796875000e+01 -1.719549942016601562e+01 -3.276839852333068848e-02 8.314213752746582031e+00 2.484433412551879883e+00 -1.226920112967491150e-01
3.380000000000000000e+03 7.026760101318359375e+01 1.294813251495361328e+01 -7.386200875043869019e-02 7.593811511993408203e+00 2.255984783172607422e+00 -5.993107557296752930e-01
3.381000000000000000e+03 6.994217681884765625e+01 1.042965793609619141e+01 -9.391883760690689087e-02 7.689467430114746094e+00 2.278664588928222656e+00 -5.709183216094970703e-01
3.382000000000000000e+03 6.912416839599609375e+01 -1.881396651268005371e+00 -1.175078004598617554e-01 7.979372501373291016e+00 2.358559370040893555e+00 -3.554455637931823730e-01
3.383000000000000000e+03 3.456335449218750000e+01 1.513838672637939453e+01 -7.168653011322021484e-01 6.742985725402832031e+00 1.807836055755615234e+00 1.140636324882507324e+00
3.384000000000000000e+03 6.620465850830078125e+01 -1.342638492584228516e+01 -1.063669845461845398e-01 7.957951068878173828e+00 2.355475187301635742e+00 -2.000742405652999878e-01
3.385000000000000000e+03 6.891226196289062500e+01 9.942190170288085938e+00 -1.156822666525840759e-01 7.725631713867187500e+00 2.282984733581542969e+00 -5.958502888679504395e-01
3.386000000000000000e+03 6.658275604248046875e+01 -9.094540596008300781e+00 -1.301080435514450073e-01 7.956570625305175781e+00 2.347938776016235352e+00 -2.594820857048034668e-01
3.387000000000000000e+03 6.798014831542968750e+01 -7.280173301696777344e+00 -1.185827255249023438e-01 8.006550788879394531e+00 2.366390466690063477e+00 -2.782543897628784180e-01
3.388000000000000000e+03 3.942969894409179688e+01 8.182358741760253906e+00 -6.898185014724731445e-01 7.065941333770751953e+00 1.912836909294128418e+00 5.164421796798706055e-01
3.389000000000000000e+03 6.693678283691406250e+01 6.960015296936035156e+00 -1.713621616363525391e-01 7.818479537963867188e+00 2.294135332107543945e+00 -5.747579336166381836e-01
3.390000000000000000e+03 5.990264129638671875e+01 2.453005462884902954e-01 -3.261342048645019531e-01 7.785547733306884766e+00 2.237824201583862305e+00 -4.119665920734405518e-01
3.391000000000000000e+03 5.965657424926757812e+01 1.359541773796081543e+00 -3.381948471069335938e-01 7.794547080993652344e+00 2.236905813217163086e+00 -4.401404559612274170e-01
3.392000000000000000e+03 5.706040954589843750e+01 1.707782387733459473e+00 -4.020704030990600586e-01 7.751696586608886719e+00 2.204887866973876953e+00 -3.928580582141876221e-01
3.393000000000000000e+03 6.467085266113281250e+01 -5.377271175384521484e+00 -1.846954375505447388e-01 7.871531486511230469e+00 2.306050777435302734e+00 -3.270924091339111328e-01
3.394000000000000000e+03 4.144540405273437500e+01 4.914221763610839844e+00 -6.169093251228332520e-01 7.082802295684814453e+00 1.939767837524414062e+00 3.139791786670684814e-01
3.395000000000000000e+03 6.454472351074218750e+01 4.117748737335205078e+00 -2.275253385305404663e-01 7.851925373077392578e+00 2.287320137023925781e+00 -5.306712388992309570e-01
3.396000000000000000e+03 6.387248611450195312e+01 -4.149752259254455566e-01 -2.305321693420410156e-01 7.852560520172119141e+00 2.286608457565307617e+00 -4.254794418811798096e-01
3.397000000000000000e+03 3.861323928833007812e+01 6.381441593170166016e+00 -6.130742430686950684e-01 6.852357387542724609e+00 1.871784925460815430e+00 5.213105678558349609e-01
3.398000000000000000e+03 1.426702117919921875e+01 1.252673983573913574e+00 1.749153307173401117e-04 1.224402330990415066e-05 5.614780457108281553e-05 1.162850239779800177e-04
3.399000000000000000e+03 1.462149238586425781e+01 1.164639949798583984e+00 -3.162631182931363583e-04 1.172412976302439347e-05 -9.136169683188199997e-05 5.244622298050671816e-05
3.400000000000000000e+03 1.332876110076904297e+01 1.093653082847595215e+00 7.576208736281841993e-05 8.165252074832096696e-05 4.722438097815029323e-05 4.028995681437663734e-05
3.401000000000000000e+03 1.406522464752197266e+01 3.572364747524261475e-01 4.177501250524073839e-05 5.575133400270715356e-05 2.925790431618224829e-05 6.140996447356883436e-06
3.402000000000000000e+03 1.336003494262695312e+01 3.511472940444946289e-01 -2.337902697036042809e-05 -8.352356235263869166e-05 -3.207077679689973593e-05 -1.961042289622128010e-05
3.403000000000000000e+03 1.476313018798828125e+01 5.016638040542602539e-01 -1.999395681195892394e-05 -3.138420652248896658e-05 -1.541344863653648645e-05 -1.464718661736696959e-05
3.404000000000000000e+03 1.414069938659667969e+01 9.322270154953002930e-01 -1.947247801581397653e-04 5.070709812571294606e-05 -4.320530570112168789e-05 -6.016788393026217818e-05
3.405000000000000000e+03 1.384797477722167969e+01 1.187353014945983887e+00 -5.512423376785591245e-05 -6.982771446928381920e-05 -3.748558447114191949e-05 -3.942390685551799834e-05
3.406000000000000000e+03 1.112969017028808594e+01 3.708996772766113281e-01 3.251695670769549906e-05 1.345654600299894810e-04 5.012472320231609046e-05 8.457080184598453343e-06
3.407000000000000000e+03 1.113907623291015625e+01 1.110847473144531250e+00 -1.013285800581797957e-04 -1.096009436878375709e-04 -6.327885785140097141e-05 -3.037038550246506929e-05
3.408000000000000000e+03 1.263169097900390625e+01 3.451149165630340576e-01 3.035958798136562109e-05 1.049815837177447975e-04 4.060235005454160273e-05 8.855831765686161816e-06
3.409000000000000000e+03 1.037880802154541016e+01 3.837110698223114014e-01 -3.179397026542574167e-05 -1.540612720418721437e-04 -5.575657269218936563e-05 -1.166834499599644914e-05
3.410000000000000000e+03 1.188065242767333984e+01 3.580341637134552002e-01 -2.931193739641457796e-05 -1.196606681332923472e-04 -4.469178384169936180e-05 -7.638630449946504086e-06
3.411000000000000000e+03 1.264514160156250000e+01 1.084993243217468262e+00 -7.946918776724487543e-05 -7.944515527924522758e-05 -4.767430436913855374e-05 -1.978201908059418201e-05
3.412000000000000000e+03 1.038616180419921875e+01 1.123693704605102539e+00 8.774506568443030119e-05 1.352343242615461349e-04 6.689381552860140800e-05 2.990285065607167780e-05
3.413000000000000000e+03 1.189207077026367188e+01 1.097947120666503906e+00 9.757390944287180901e-05 8.919194078771397471e-05 5.602975579677149653e-05 1.646983037062454969e-05
3.414000000000000000e+03 9.625078201293945312e+00 3.871397972106933594e-01 2.988526648550760001e-05 1.745021290844306350e-04 6.131621921667829156e-05 1.283961773879127577e-05
3.415000000000000000e+03 8.868724822998046875e+00 3.828192353248596191e-01 -3.114643914159387350e-05 -1.860552438301965594e-04 -6.516050780192017555e-05 -1.109480945160612464e-05
3.416000000000000000e+03 9.644926071166992188e+00 1.127139806747436523e+00 -8.599238208262249827e-05 -1.534597249701619148e-04 -7.183563138823956251e-05 -2.250238685519434512e-05
3.417000000000000000e+03 8.112174034118652344e+00 3.804100155830383301e-01 3.186914545949548483e-05 1.820099278120324016e-04 6.416372343664988875e-05 9.420157766726333648e-06
3.418000000000000000e+03 7.356014251708984375e+00 3.793691694736480713e-01 -3.241751255700364709e-05 -1.653729414101690054e-04 -5.933713691774755716e-05 -7.280482350324746221e-06
3.419000000000000000e+03 5.843623161315917969e+00 3.767499327659606934e-01 -3.106255098828114569e-05 -1.068310157279483974e-04 -4.136806819587945938e-05 -2.760309598670573905e-07
3.420000000000000000e+03 5.088051319122314453e+00 3.757717311382293701e-01 2.421096360194496810e-05 6.697860226267948747e-05 2.735687121457885951e-05 -1.143672943726414815e-05
3.421000000000000000e+03 3.576755046844482422e+00 3.680583238601684570e-01 3.237741111661307514e-05 -1.234402134286938235e-05 6.010017386870458722e-06 -2.251542900921776891e-05
3.422000000000000000e+03 2.822042465209960938e+00 3.613462746143341064e-01 -4.818106390303000808e-05 2.294379919476341456e-05 -7.571178684884216636e-06 1.133321711677126586e-05
3.423000000000000000e+03 2.068703651428222656e+00 3.577998280525207520e-01 3.477667996776290238e-05 -1.595924913999624550e-05 5.645229521178407595e-06 -6.984364972595358267e-06
3.424000000000000000e+03 2.358754634857177734e+00 1.097799897193908691e+00 -1.204587751999497414e-04 -1.730830990709364414e-05 -4.133012407692149282e-05 -1.510306356067303568e-05
3.425000000000000000e+03 1.327708005905151367e+00 3.658417165279388428e-01 1.092417960535385646e-06 2.749990562733728439e-05 8.577696462452877313e-06 3.703375114127993584e-05
3.426000000000000000e+03 1.644779324531555176e+00 1.105841755867004395e+00 6.065403795219026506e-05 6.918325379956513643e-05 3.895118788932450116e-05 1.245481689693406224e-05
3.427000000000000000e+03 6.509408354759216309e-01 3.937322795391082764e-01 -1.332133833784610033e-04 -1.147636940004304051e-04 -7.439312321366742253e-05 -1.470280549256131053e-04
3.428000000000000000e+03 3.482567369937896729e-01 9.569563269615173340e-01 2.005914575420320034e-04 1.309832005063071847e-04 9.947239595931023359e-05 4.482227450353093445e-05
3.429000000000000000e+03 3.085073232650756836e+00 1.101346254348754883e+00 1.348319783573970199e-04 9.729075827635824680e-06 4.336831625550985336e-05 -1.138435072789434344e-05
3.430000000000000000e+03 3.812765598297119141e+00 1.108058333396911621e+00 -1.105573246604762971e-04 -3.298658702988177538e-05 -4.306317350710742176e-05 4.156684008194133639e-05
3.431000000000000000e+03 4.332499980926513672e+00 3.732680678367614746e-01 -2.896530895668547601e-05 -2.224758645752444863e-05 -1.536386844236403704e-05 2.122383921232540160e-05
3.432000000000000000e+03 5.998572826385498047e+00 1.116749882698059082e+00 7.970091974129900336e-05 1.146684153354726732e-04 5.831080125062726438e-05 -3.139120235573500395e-05
3.433000000000000000e+03 6.600036144256591797e+00 3.784387111663818359e-01 3.299464151496067643e-05 1.389104581903666258e-04 5.157152918400242925e-05 4.991251898900372908e-06
3.434000000000000000e+03 8.186062812805175781e+00 1.120409965515136719e+00 -8.347129914909601212e-05 -1.580359676154330373e-04 -7.245218148455023766e-05 4.733804416900966316e-06
3.435000000000000000e+03 8.915593147277832031e+00 1.122819185256958008e+00 8.207360951928421855e-05 1.591801119502633810e-04 7.237611134769394994e-05 1.003017223411006853e-05
3.436000000000000000e+03 7.456923484802246094e+00 1.119369149208068848e+00 8.565837197238579392e-05 1.496709010098129511e-04 7.059877680148929358e-05 -1.490920931246364489e-05
3.437000000000000000e+03 6.727965354919433594e+00 1.118438720703125000e+00 -8.534804510418325663e-05 -1.354792620986700058e-04 -6.624819070566445589e-05 2.241011316073127091e-05
3.438000000000000000e+03 5.270021438598632812e+00 1.115771770477294922e+00 -7.090236613294109702e-05 -9.354941721539944410e-05 -4.933553282171487808e-05 4.060812352690845728e-05
3.439000000000000000e+03 4.541490077972412109e+00 1.113268017768859863e+00 7.822083716746419668e-05 6.677666533505544066e-05 4.349925075075589120e-05 -5.167911513126455247e-05
3.440000000000000000e+03 9.950323700904846191e-01 1.133732318878173828e+00 4.857848762185312808e-05 -1.862575008999556303e-04 -4.130370143684558570e-05 5.448984302347525954e-05
3.441000000000000000e+03 7.951600551605224609e+00 -3.791473805904388428e-01 -1.002255303319543600e-04 -4.737599811051040888e-04 -1.721956505207344890e-04 8.225939382100477815e-05
3.442000000000000000e+03 8.812386512756347656e+00 -1.121279358863830566e+00 -2.621801395434886217e-04 -3.000308352056890726e-04 -1.686632895143702626e-04 1.464463857701048255e-04
3.443000000000000000e+03 9.587816238403320312e+00 -3.863115906715393066e-01 -1.028298793244175613e-04 -3.092824190389364958e-04 -1.236336975125595927e-04 6.839554407633841038e-05
3.444000000000000000e+03 7.132064342498779297e+00 -3.779651820659637451e-01 9.431330545339733362e-05 5.041433032602071762e-04 1.795369753381237388e-04 -8.090319170150905848e-05
3.445000000000000000e+03 6.306247234344482422e+00 -3.772793114185333252e-01 -6.644525274168699980e-05 -4.764895711559802294e-04 -1.628804457141086459e-04 4.895692472928203642e-05
3.446000000000000000e+03 5.442752361297607422e+00 -3.835102021694183350e-01 5.827008499181829393e-05 3.829897614195942879e-04 1.323779579252004623e-04 1.010040705295978114e-05
3.447000000000000000e+03 4.552286148071289062e+00 -3.399353623390197754e-01 -8.013311162358149886e-05 -3.387448959983885288e-04 -1.256633986486122012e-04 -4.200045441393740475e-05
3.448000000000000000e+03 4.371328830718994141e+00 -8.708365559577941895e-01 2.493345527909696102e-04 4.236805398249998689e-05 8.751077984925359488e-05 -7.433176961058052257e-06
3.449000000000000000e+03 2.785328388214111328e+00 -7.796061038970947266e-01 3.526097279973328114e-04 -6.444866448873654008e-05 8.644831541460007429e-05 2.451223845127969980e-04
3.450000000000000000e+03 1.180722951889038086e+00 -3.608860373497009277e-01 -3.084133495576679707e-04 -9.775626494956668466e-06 -9.545669308863580227e-05 -4.607929076883010566e-05
3.451000000000000000e+03 4.099212884902954102e-01 -5.526853203773498535e-01 2.163196222682017833e-05 -2.290092015755362809e-05 -3.806877089118643198e-07 -1.398785570927429944e-05
3.452000000000000000e+03 7.477942705154418945e-01 -1.100885987281799316e+00 8.366397232748568058e-04 7.419199846481205896e-06 2.532176731619983912e-04 4.783941039931960404e-05
3.453000000000000000e+03 9.597747802734375000e+00 -1.126311540603637695e+00 2.743080840446054935e-04 2.577146515250205994e-04 1.596068177605047822e-04 -1.670404308242723346e-04
3.454000000000000000e+03 8.026608467102050781e+00 -1.119147419929504395e+00 2.512794453650712967e-04 3.287963336333632469e-04 1.740227453410625458e-04 -1.233272341778501868e-04
3.455000000000000000e+03 7.239610195159912109e+00 -1.117965221405029297e+00 -2.354688767809420824e-04 -3.468692011665552855e-04 -1.747014321153983474e-04 8.528184116585180163e-05
3.456000000000000000e+03 6.446331024169921875e+00 -1.117279291152954102e+00 1.974759798031300306e-04 3.695892519317567348e-04 1.701195724308490753e-04 -6.068678339943289757e-05
3.457000000000000000e+03 5.615375041961669922e+00 -1.123510241508483887e+00 -1.906586403492838144e-04 -3.439777647145092487e-04 -1.603909186087548733e-04 4.279138011042959988e-05
3.458000000000000000e+03 4.879715442657470703e+00 -1.221276640892028809e+00 1.859310577856376767e-04 3.475292178336530924e-04 1.600380783202126622e-04 -4.726621773443184793e-05
3.459000000000000000e+03 4.223337173461914062e+00 -1.290901184082031250e+00 -4.348437360022217035e-04 -1.532567257527261972e-04 -1.764301414368674159e-04 3.991638095612870529e-07
3.460000000000000000e+03 3.489140987396240234e+00 -1.263193726539611816e+00 5.026887520216405392e-04 7.316021947190165520e-05 1.727546914480626583e-04 1.497478515375405550e-04
3.461000000000000000e+03 2.723763942718505859e+00 -1.258556365966796875e+00 -4.062282678205519915e-04 -1.343825861113145947e-04 -1.621832634555175900e-04 -3.030617663171142340e-04
3.462000000000000000e+03 1.357383847236633301e+00 -1.202877521514892578e+00 -9.124584612436592579e-04 -1.281393342651426792e-04 -3.121793270111083984e-04 -5.901628173887729645e-05
3.463000000000000000e+03 8.769917488098144531e+00 -3.812793791294097900e-01 9.299277007812634110e-05 4.040024359710514545e-04 1.490985596319660544e-04 -7.913470471976324916e-05
3.464000000000000000e+03 3.581377506256103516e+00 -7.854385375976562500e-01 -3.701880341395735741e-04 -4.193311906419694424e-05 -1.236363459611311555e-04 -1.087597993318922818e-04
3.465000000000000000e+03 3.695749998092651367e+00 -2.822447717189788818e-01 1.401370682287961245e-04 3.346429439261555672e-04 1.424340007361024618e-04 9.556404984323307872e-05
3.466000000000000000e+03 2.864297151565551758e+00 -2.810497581958770752e-01 -1.661456917645409703e-04 -2.808805438689887524e-04 -1.341078750556334853e-04 -1.071886508725583553e-04
3.467000000000000000e+03 1.994235515594482422e+00 -3.319245874881744385e-01 8.171768422471359372e-05 1.515846961410716176e-04 6.999071047175675631e-05 1.706723414827138186e-04
3.468000000000000000e+03 1.981270551681518555e+00 -1.274680376052856445e+00 4.543032555375248194e-04 2.386505220783874393e-04 2.078861434711143374e-04 3.332247724756598473e-04
3.469000000000000000e+03 1.973554253578186035e+00 -8.466050028800964355e-01 1.040013376041315496e-04 8.517175592714920640e-05 5.675192733178846538e-05 -3.953330451622605324e-04
3.470000000000000000e+03 1.332448291778564453e+01 -3.621845245361328125e-01 2.377881464781239629e-04 -2.654932613950222731e-04 -8.311531928484328091e-06 6.386824793480627704e-07
3.471000000000000000e+03 1.426397991180419922e+01 -1.317608714103698730e+00 -7.273743394762277603e-04 -3.326360601931810379e-04 -3.180031199008226395e-04 -2.724136575125157833e-04
3.472000000000000000e+03 1.327361392974853516e+01 -1.248556852340698242e+00 2.362993654969613999e-05 -1.953527389559894800e-04 -5.151684308657422662e-05 4.955002223141491413e-04
3.473000000000000000e+03 1.480296707153320312e+01 -1.047354817390441895e+00 5.971824284642934799e-04 3.734415222425013781e-04 2.911871706601232290e-04 2.566465118434280157e-04
3.474000000000000000e+03 1.356446647644042969e+01 -7.579438090324401855e-01 -5.731646670028567314e-04 -5.990740100969560444e-05 -1.899216149467974901e-04 -4.495236498769372702e-04
3.475000000000000000e+03 1.393659019470214844e+01 -3.302382230758666992e-01 1.003297875286079943e-04 2.611004747450351715e-04 1.084290779544971883e-04 1.464487286284565926e-04
3.476000000000000000e+03 1.449034786224365234e+01 -4.399540424346923828e-01 -5.719983018934726715e-04 -4.273303493391722441e-04 -2.997985866386443377e-04 -5.331092397682368755e-04
3.477000000000000000e+03 1.380024147033691406e+01 -1.352263331413269043e+00 6.655898760072886944e-04 -8.399158105021342635e-06 1.971572201000526547e-04 -2.555558749008923769e-04
3.478000000000000000e+03 1.402595424652099609e+01 -9.610455632209777832e-01 1.114171114750206470e-03 5.703417991753667593e-05 3.513615811243653297e-04 6.222436204552650452e-04
3.479000000000000000e+03 1.185737037658691406e+01 -1.162281751632690430e+00 -2.056249068118631840e-04 -1.310343359364196658e-04 -1.009977713692933321e-04 1.311553060077130795e-04
3.480000000000000000e+03 1.112013435363769531e+01 -4.102526009082794189e-01 -9.902541205519810319e-05 -1.379066525259986520e-04 -7.107962301233783364e-05 4.654766598832793534e-05
3.481000000000000000e+03 1.261753940582275391e+01 -4.348734915256500244e-01 -5.621835225610993803e-05 1.374944113194942474e-04 2.438281808281317353e-05 1.319805596722289920e-04
3.482000000000000000e+03 1.037124824523925781e+01 -3.971002995967864990e-01 9.354036592412739992e-05 2.300191408721730113e-04 9.706785203889012337e-05 -5.795351171400398016e-05
3.483000000000000000e+03 1.036389350891113281e+01 -1.137082934379577637e+00 -3.117247833870351315e-04 -2.027843293035402894e-04 -1.543527323519811034e-04 1.640493428567424417e-04
3.484000000000000000e+03 1.260408973693847656e+01 -1.174751639366149902e+00 1.107110874727368355e-04 1.557155483169481158e-04 7.992799510248005390e-05 -2.476280787959694862e-04
3.485000000000000000e+03 1.111074829101562500e+01 -1.150200366973876953e+00 3.006882907357066870e-04 1.431671844329684973e-04 1.331566454609856009e-04 -1.215465890709310770e-04
3.486000000000000000e+03 1.186878871917724609e+01 -4.223687946796417236e-01 6.519661837955936790e-05 3.983456554124131799e-05 3.150935299345292151e-05 -6.650192517554387450e-05
3.487000000000000000e+03 3.409509658813476562e+01 3.494860458374023438e+01 3.308618927001953125e+01 2.470806598663330078e+00 1.066709899902343750e+01 5.650856018066406250e+00
3.488000000000000000e+03 3.409524536132812500e+01 3.492913818359375000e+01 3.490869903564453125e+01 9.160315513610839844e+00 1.322070503234863281e+01 1.764158630371093750e+01
3.489000000000000000e+03 3.409917831420898438e+01 3.491007232666015625e+01 3.460668563842773438e+01 1.844781684875488281e+01 1.591635131835937500e+01 2.344085884094238281e+01
3.490000000000000000e+03 3.410674667358398438e+01 3.489213562011718750e+01 3.190408897399902344e+01 2.855141830444335938e+01 1.813665199279785156e+01 2.721032142639160156e+01
3.491000000000000000e+03 3.411766433715820312e+01 3.487601470947265625e+01 2.871419525146484375e+01 3.917602920532226562e+01 2.036706733703613281e+01 2.811116790771484375e+01
3.492000000000000000e+03 3.413151168823242188e+01 3.486233139038085938e+01 2.460881614685058594e+01 4.900683212280273438e+01 2.208469390869140625e+01 2.666821861267089844e+01
3.493000000000000000e+03 3.414775848388671875e+01 3.485160446166992188e+01 2.121119499206542969e+01 5.714479827880859375e+01 2.350679779052734375e+01 2.298287963867187500e+01
3.494000000000000000e+03 3.416578292846679688e+01 3.484424591064453125e+01 1.904601478576660156e+01 6.319536209106445312e+01 2.467241287231445312e+01 1.747576713562011719e+01
3.495000000000000000e+03 3.418489456176757812e+01 3.484053421020507812e+01 1.815222740173339844e+01 6.618017578125000000e+01 2.529971885681152344e+01 1.126669311523437500e+01
3.496000000000000000e+03 3.420436096191406250e+01 3.484061813354492188e+01 1.954165077209472656e+01 6.659702301025390625e+01 2.584160232543945312e+01 5.165609359741210938e+00
3.497000000000000000e+03 3.422344207763671875e+01 3.484448623657226562e+01 2.244242286682128906e+01 6.449775695800781250e+01 2.608205413818359375e+01 -2.047307640314102173e-01
3.498000000000000000e+03 3.424140167236328125e+01 3.485199737548828125e+01 2.576982116699218750e+01 6.067313003540039062e+01 2.593288612365722656e+01 -3.833848953247070312e+00
3.499000000000000000e+03 3.425755691528320312e+01 3.486286163330078125e+01 3.085174369812011719e+01 5.634246063232421875e+01 2.615826034545898438e+01 -5.570809364318847656e+00
3.500000000000000000e+03 3.427128982543945312e+01 3.487666320800781250e+01 3.454138565063476562e+01 5.137409591674804688e+01 2.577464485168457031e+01 -5.796214580535888672e+00
3.501000000000000000e+03 3.428207015991210938e+01 3.489287185668945312e+01 3.856327819824218750e+01 4.757574081420898438e+01 2.584170532226562500e+01 -4.102847099304199219e+00
3.502000000000000000e+03 3.428948974609375000e+01 3.491086959838867188e+01 4.096980667114257812e+01 4.461004638671875000e+01 2.567395591735839844e+01 -1.551336169242858887e+00
3.503000000000000000e+03 3.429326248168945312e+01 3.492996978759765625e+01 4.269676208496093750e+01 4.337087631225585938e+01 2.582029151916503906e+01 2.325028896331787109e+00
3.504000000000000000e+03 3.429324722290039062e+01 3.494944000244140625e+01 4.258005142211914062e+01 4.313746261596679688e+01 2.571525382995605469e+01 6.109549999237060547e+00
3.505000000000000000e+03 3.428944015502929688e+01 3.496853256225585938e+01 4.115009307861328125e+01 4.517706680297851562e+01 2.589814758300781250e+01 9.956027984619140625e+00
3.506000000000000000e+03 3.428198623657226562e+01 3.498651885986328125e+01 3.815921020507812500e+01 4.868146896362304688e+01 2.605220413208007812e+01 1.305451583862304688e+01
3.507000000000000000e+03 3.427117919921875000e+01 3.500270843505859375e+01 3.341476821899414062e+01 5.329644393920898438e+01 2.601336479187011719e+01 1.502951145172119141e+01
3.508000000000000000e+03 3.425742340087890625e+01 3.501648712158203125e+01 2.811234474182128906e+01 5.814496231079101562e+01 2.587719154357910156e+01 1.514335441589355469e+01
3.509000000000000000e+03 3.424124908447265625e+01 3.502732086181640625e+01 2.231197357177734375e+01 6.362343978881835938e+01 2.578062438964843750e+01 1.293215084075927734e+01
3.510000000000000000e+03 3.422327423095703125e+01 3.503480148315429688e+01 1.673808860778808594e+01 6.719242095947265625e+01 2.517915344238281250e+01 9.037457466125488281e+00
3.511000000000000000e+03 3.420418930053710938e+01 3.503863906860351562e+01 1.202178192138671875e+01 6.893219757080078125e+01 2.428619384765625000e+01 3.117957830429077148e+00
3.512000000000000000e+03 3.418471908569335938e+01 3.503868484497070312e+01 9.687493324279785156e+00 6.814900970458984375e+01 2.335095214843750000e+01 -3.266047000885009766e+00
3.513000000000000000e+03 3.416561508178710938e+01 3.503494262695312500e+01 8.448434829711914062e+00 6.389589691162109375e+01 2.170329856872558594e+01 -1.032460117340087891e+01
3.514000000000000000e+03 3.414760589599609375e+01 3.502754974365234375e+01 9.301196098327636719e+00 5.735435485839843750e+01 1.999666404724121094e+01 -1.596098232269287109e+01
3.515000000000000000e+03 3.413137817382812500e+01 3.501679611206054688e+01 1.121286106109619141e+01 4.798173904418945312e+01 1.775837898254394531e+01 -2.021534347534179688e+01
3.516000000000000000e+03 3.411755371093750000e+01 3.500308609008789062e+01 1.455511379241943359e+01 3.719752883911132812e+01 1.552579307556152344e+01 -2.202623939514160156e+01
3.517000000000000000e+03 3.410666656494140625e+01 3.498694610595703125e+01 1.746429061889648438e+01 2.508398437500000000e+01 1.276448249816894531e+01 -2.129771232604980469e+01
3.518000000000000000e+03 3.409912490844726562e+01 3.496899795532226562e+01 2.347479057312011719e+01 1.102767562866210938e+01 1.035073947906494141e+01 -1.444121265411376953e+01
