# el_label, x, y, sXX, sYY, sZZ, sXY
1.000000000000000000e+00 1.461748504638671875e+01 7.554884552955627441e-01 -1.625356671866029501e-04 -1.423549256287515163e-04 -9.146717638941481709e-05 2.008738956646993756e-04
2.000000000000000000e+00 1.448787879943847656e+01 1.185999155044555664e+00 -2.706362283788621426e-05 -1.881747739389538765e-04 -6.457151903305202723e-05 -9.694794425740838051e-05
3.000000000000000000e+00 1.350171279907226562e+01 7.846344709396362305e-01 3.508691152092069387e-04 8.557950059184804559e-05 1.309345825575292110e-04 7.003068458288908005e-05
4.000000000000000000e+00 1.364129066467285156e+01 1.205820679664611816e+00 -2.857733343262225389e-04 1.216805685544386506e-04 -4.922783045913092792e-05 1.284456993744242936e-05
5.000000000000000000e+00 1.489912414550781250e+01 1.114999294281005859e+00 3.833850205410271883e-04 1.896247704280540347e-04 1.719029387459158897e-04 -1.502700761193409562e-04
6.000000000000000000e+00 1.336254119873046875e+01 2.749263346195220947e-01 -6.505566125269979239e-05 2.585039510449860245e-06 -1.874118788691703230e-05 -2.545838924561394379e-06
7.000000000000000000e+00 1.405747509002685547e+01 6.954302787780761719e-01 -1.228702167281880975e-04 1.629648613743484020e-05 -3.197211844963021576e-05 -1.226661843247711658e-04
8.000000000000000000e+00 1.475060367584228516e+01 2.344564348459243774e-01 -3.118652966804802418e-05 -6.528087851620512083e-06 -1.131438511947635561e-05 -7.198405455710599199e-06
9.000000000000000000e+00 1.323138999938964844e+01 1.155172109603881836e+00 -8.817335765343159437e-05 -8.756863826420158148e-05 -5.272259659250266850e-05 -5.216194404056295753e-05
1.000000000000000000e+01 1.406383037567138672e+01 1.174657821655273438e+00 1.838612806750461459e-04 -3.998569354735082015e-06 5.395881453296169639e-05 1.625214354135096073e-04
1.100000000000000000e+01 1.405520343780517578e+01 2.013123929500579834e-01 3.115677463938482106e-05 4.399127647047862411e-06 1.066677123162662610e-05 -8.133177288982551545e-06
1.200000000000000000e+01 1.112969017028808594e+01 3.708996772766113281e-01 1.981176137633156031e-05 7.116788037819787860e-05 2.729389234445989132e-05 1.283832625631475821e-05
1.300000000000000000e+01 1.113907623291015625e+01 1.110847473144531250e+00 -7.685659511480480433e-05 -6.126525840954855084e-05 -4.143655314692296088e-05 -3.934200140065513551e-05
1.400000000000000000e+01 1.263169097900390625e+01 3.451149165630340576e-01 4.152394012635340914e-06 2.170727930206339806e-05 7.757902494631707668e-06 2.464067983964923769e-05
1.500000000000000000e+01 1.037880802154541016e+01 3.837110698223114014e-01 -3.138005195069126785e-05 -9.700697410153225064e-05 -3.851610745186917484e-05 -1.710416836431249976e-05
1.600000000000000000e+01 1.188065242767333984e+01 3.580341637134552002e-01 -3.131658741040155292e-05 -5.258559758658520877e-05 -2.517065513529814780e-05 -9.744391718413680792e-06
1.700000000000000000e+01 1.264514160156250000e+01 1.084993243217468262e+00 -3.052581087104044855e-05 -5.814516043756157160e-06 -1.090209843823686242e-05 -5.292049172567203641e-05
1.800000000000000000e+01 1.038616180419921875e+01 1.123693704605102539e+00 7.348508370341733098e-05 8.244389027822762728e-05 4.677869219449348748e-05 4.067397458129562438e-05
1.900000000000000000e+01 1.189207077026367188e+01 1.097947120666503906e+00 7.558711513411253691e-05 2.862758083210792392e-05 3.126440788037143648e-05 3.767060115933418274e-05
2.000000000000000000e+01 9.630892753601074219e+00 3.839012682437896729e-01 1.964465809578541666e-05 1.308667706325650215e-04 4.515342880040407181e-05 2.376570591877680272e-05
2.100000000000000000e+01 8.886102676391601562e+00 3.756816387176513672e-01 -3.487496724119409919e-05 -1.588354207342490554e-04 -5.811311712022870779e-05 -2.975307324959430844e-05
2.200000000000000000e+01 9.662660598754882812e+00 1.123901247978210449e+00 -7.216649100882932544e-05 -1.050845021381974220e-04 -5.317529576132073998e-05 -4.594503116095438600e-05
2.300000000000000000e+01 8.141582489013671875e+00 3.727327585220336914e-01 2.763815973594319075e-05 1.752698299242183566e-04 6.087239671614952385e-05 3.814223600784316659e-05
2.400000000000000000e+01 6.888350009918212891e+00 1.113206148147583008e+00 -6.840426067356020212e-05 -1.424735091859474778e-04 -6.326333095785230398e-05 -2.743209734035190195e-05
2.500000000000000000e+01 5.913089752197265625e+00 3.805467188358306885e-01 -3.124469003523699939e-05 -1.452841825084760785e-04 -5.295866139931604266e-05 -3.962260234402492642e-05
2.600000000000000000e+01 5.196956634521484375e+00 4.039151668548583984e-01 7.162691326811909676e-05 1.262034784303978086e-04 5.934912041993811727e-05 5.804837928735651076e-05
2.700000000000000000e+01 3.693088054656982422e+00 1.243306040763854980e+00 9.543792111799120903e-05 1.340072049060836434e-04 6.883354217279702425e-05 -2.544781636970583349e-05
2.800000000000000000e+01 3.467444419860839844e+00 8.805909752845764160e-01 -1.206360175274312496e-04 3.563802602002397180e-05 -2.549939745222218335e-05 4.694573362939991057e-05
2.900000000000000000e+01 3.095686674118041992e+00 1.276941895484924316e+00 -7.120545342331752181e-05 -5.200393934501335025e-05 -3.696281783049926162e-05 3.030538209713995457e-05
3.000000000000000000e+01 2.680696725845336914e+00 2.878341972827911377e-01 -2.117673466273117810e-05 -6.561653572134673595e-05 -2.603798020572867244e-05 3.272079629823565483e-05
3.100000000000000000e+01 2.494061231613159180e+00 1.173202753067016602e+00 6.855517131043598056e-05 6.094267064327141270e-07 2.074937947327271104e-05 -1.203677493322174996e-05
3.200000000000000000e+01 1.913507580757141113e+00 3.699090182781219482e-01 2.906498957599978894e-05 2.082641913148108870e-05 1.496742243034532294e-05 -1.566591890878044069e-05
3.300000000000000000e+01 1.786356687545776367e+00 1.109909057617187500e+00 -7.642105629201978445e-05 5.043193596065975726e-08 -2.291118835273664445e-05 2.210686216130852699e-05
3.400000000000000000e+01 1.051437735557556152e+00 1.114630222320556641e+00 6.425428728107362986e-05 4.102648745174519718e-06 2.050708098977338523e-05 -1.434513342246646062e-05
3.500000000000000000e+01 3.487006127834320068e-01 1.123972177505493164e+00 -5.871873872820287943e-05 -8.188242759388231207e-07 -1.786126813385635614e-05 5.332460659701609984e-06
3.600000000000000000e+01 3.741308152675628662e-01 3.839721679687500000e-01 1.881118441815488040e-05 6.419961664505535737e-07 5.835954198118997738e-06 -1.726414211589144543e-06
3.700000000000000000e+01 3.349468469619750977e+00 2.519162893295288086e-01 1.923455420183017850e-05 6.937183206900954247e-05 2.658191624504979700e-05 -5.488103852258063853e-06
3.800000000000000000e+01 4.585380554199218750e+00 6.860880255699157715e-01 -1.149239978985860944e-04 -1.033788867061957717e-04 -6.549086538143455982e-05 -2.665444526428473182e-06
3.900000000000000000e+01 3.989105939865112305e+00 3.636490404605865479e-01 3.930486127501353621e-05 -1.026158861350268126e-05 8.712981980352196842e-06 -3.112747435807250440e-05
4.000000000000000000e+01 6.653140068054199219e+00 3.732061982154846191e-01 3.426805051276460290e-05 1.693823724053800106e-04 6.109512469265609980e-05 4.712391091743484139e-05
4.100000000000000000e+01 7.397070407867431641e+00 3.719775974750518799e-01 -3.866708721034228802e-05 -1.785405765986070037e-04 -6.516229768749326468e-05 -4.322347740526311100e-05
4.200000000000000000e+01 6.199160099029541016e+00 1.120546698570251465e+00 6.136621959740296006e-05 1.512609742349013686e-04 6.378816033247858286e-05 3.109213866991922259e-05
4.300000000000000000e+01 5.533887386322021484e+00 1.143915176391601562e+00 -1.095803454518318176e-04 -1.432919380022212863e-04 -7.586168794659897685e-05 -1.516179963800823316e-05
4.400000000000000000e+01 8.968731880187988281e+00 1.115681648254394531e+00 7.135792111512273550e-05 1.193313946714624763e-04 5.720679473597556353e-05 4.314040052122436464e-05
4.500000000000000000e+01 8.275072097778320312e+00 1.112732768058776855e+00 -7.393062696792185307e-05 -1.313456450589001179e-04 -6.158288306323811412e-05 -3.774523793254047632e-05
4.600000000000000000e+01 7.581419944763183594e+00 1.111977577209472656e+00 6.852151273051276803e-05 1.399191532982513309e-04 6.253219908103346825e-05 3.487262802082113922e-05
4.700000000000000000e+01 4.928168296813964844e+00 1.220772147178649902e+00 7.935946632642298937e-05 1.780757738742977381e-04 7.723057206021621823e-05 -6.523168121930211782e-05
4.800000000000000000e+01 4.330192565917968750e+00 1.225538611412048340e+00 2.589952600828837603e-06 -1.712827215669676661e-04 -5.060782859800383449e-05 4.482192889554426074e-05
4.900000000000000000e+01 2.944565057754516602e+00 6.651191115379333496e-01 9.892732123262248933e-06 1.384538427373627201e-05 7.121434919099556282e-06 -5.713647624361328781e-05
5.000000000000000000e+01 1.127728343009948730e+00 3.746301829814910889e-01 -2.265338480356149375e-05 -5.373738531488925219e-06 -8.408137546211946756e-06 5.967635843262542039e-06
5.100000000000000000e+01 1.473738956451416016e+01 -8.402777671813964844e+00 -1.572734909132122993e-03 -4.420316599862417206e-06 -4.731465596705675125e-04 4.814444400835782290e-05
5.200000000000000000e+01 1.401739406585693359e+01 -1.163957691192626953e+01 2.334341406822204590e-03 2.099517951137386262e-05 7.066009566187858582e-04 -8.749926200835034251e-05
5.300000000000000000e+01 3.400462567806243896e-01 -9.719193458557128906e+00 -1.507018576376140118e-03 -6.118146120570600033e-05 -4.704600141849368811e-04 -2.459197130519896746e-04
5.400000000000000000e+01 1.037119984626770020e+00 -1.195871162414550781e+01 -1.811930094845592976e-03 -9.048992069438099861e-05 -5.707259988412261009e-04 -2.539696870371699333e-04
5.500000000000000000e+01 3.491148948669433594e-01 -1.602273368835449219e+01 -2.557863947004079819e-03 1.845233637141063809e-04 -7.120021618902683258e-04 -4.102973907720297575e-04
5.600000000000000000e+01 1.050148844718933105e+00 -1.747484207153320312e+01 2.888672053813934326e-03 6.290249293670058250e-04 1.055309083312749863e-03 5.794281023554503918e-04
5.700000000000000000e+01 3.527812361717224121e-01 -2.311855125427246094e+01 4.257610067725181580e-03 2.172518521547317505e-03 1.929038553498685360e-03 8.566573378629982471e-04
5.800000000000000000e+01 1.316074562072753906e+01 -3.211054611206054688e+01 -1.974562555551528931e-02 -3.269632160663604736e-02 -1.573258265852928162e-02 2.634815685451030731e-02
5.900000000000000000e+01 1.453698158264160156e+01 -3.314085769653320312e+01 2.449046820402145386e-02 -1.456700917333364487e-02 2.977037802338600159e-03 -4.159773234277963638e-03
6.000000000000000000e+01 1.466600799560546875e+01 -3.237497711181640625e+01 -2.128621377050876617e-02 -9.134650230407714844e-03 -9.126259014010429382e-03 8.653879165649414062e-03
6.100000000000000000e+01 1.472609043121337891e+01 -3.081311035156250000e+01 -1.394150406122207642e-02 -1.776221470208838582e-04 -4.235737957060337067e-03 3.361511975526809692e-03
6.200000000000000000e+01 1.475505638122558594e+01 -2.523100662231445312e+01 8.589786477386951447e-03 3.187166526913642883e-03 3.533085808157920837e-03 -5.990070058032870293e-04
6.300000000000000000e+01 1.327544784545898438e+01 -1.722728919982910156e+01 3.944997675716876984e-03 3.868339699693024158e-04 1.299549476243555546e-03 -4.543148097582161427e-04
6.400000000000000000e+01 1.404809951782226562e+01 -2.519948768615722656e+01 -8.609218522906303406e-03 1.941928523592650890e-03 -2.000187058001756668e-03 3.446588816586881876e-04
6.500000000000000000e+01 1.403878593444824219e+01 -2.598777198791503906e+01 9.154772385954856873e-03 1.937967725098133087e-03 3.327822079882025719e-03 -1.028762082569301128e-03
6.600000000000000000e+01 1.477447319030761719e+01 -6.796837806701660156e+00 -1.370347803458571434e-03 1.249704564543208107e-05 -4.073552263434976339e-04 6.868557102279737592e-05
6.700000000000000000e+01 1.478446388244628906e+01 -5.197552204132080078e+00 -1.013203524053096771e-03 1.911426579681574367e-06 -3.033876128029078245e-04 1.191950505017302930e-04
6.800000000000000000e+01 1.121065807342529297e+01 -1.782145142555236816e+00 -1.804441999411210418e-04 -2.652933471836149693e-04 -1.337212743237614632e-04 -5.296033850754611194e-05
6.900000000000000000e+01 3.902373552322387695e+00 -1.868798136711120605e+00 4.513290186878293753e-04 5.504327054950408638e-05 1.519116922281682491e-04 1.774712654878385365e-05
7.000000000000000000e+01 1.069485187530517578e+00 -2.693012237548828125e+01 5.557524040341377258e-03 1.486380817368626595e-03 2.113171620294451714e-03 6.046965136192739010e-04
7.100000000000000000e+01 3.640385866165161133e-01 -3.020430755615234375e+01 -7.626630831509828568e-03 -3.127039643004536629e-03 -3.226101165637373924e-03 -2.446248894557356834e-03
7.200000000000000000e+01 1.135273361206054688e+01 -3.713744354248046875e+01 -6.937666982412338257e-02 7.681218534708023071e-02 2.230654237791895866e-03 -5.271616950631141663e-02
7.300000000000000000e+01 1.547185897827148438e+01 -3.722792053222656250e+01 -3.882410228252410889e-01 -2.347680926322937012e-01 -1.869027316570281982e-01 2.266322225332260132e-01
7.400000000000000000e+01 1.600922775268554688e+01 -3.776224517822265625e+01 -4.890934824943542480e-01 -2.170702219009399414e-01 -2.118491083383560181e-01 3.649128973484039307e-01
7.500000000000000000e+01 1.364768123626708984e+01 -3.542497634887695312e+01 -1.405865848064422607e-01 -1.010493189096450806e-01 -7.249076664447784424e-02 1.308454275131225586e-01
7.600000000000000000e+01 1.417864608764648438e+01 -3.465441131591796875e+01 1.242798101156949997e-02 -9.669720381498336792e-02 -2.528076618909835815e-02 2.961581200361251831e-02
7.700000000000000000e+01 1.436542987823486328e+01 -3.390297698974609375e+01 -3.476391360163688660e-02 -4.697993025183677673e-02 -2.452315390110015869e-02 2.311538904905319214e-02
7.800000000000000000e+01 4.019903242588043213e-01 -3.256642150878906250e+01 7.047503255307674408e-03 -1.369411591440439224e-02 -1.993983751162886620e-03 -1.511383219622075558e-03
7.900000000000000000e+01 4.752483665943145752e-01 -3.657897186279296875e+01 -8.038648404181003571e-03 -4.852214083075523376e-02 -1.696823723614215851e-02 -5.913541186600923538e-03
8.000000000000000000e+01 9.834243774414062500e+00 -3.680207443237304688e+01 -7.848481833934783936e-02 7.233348488807678223e-02 -1.845400664024055004e-03 -3.358897194266319275e-02
8.100000000000000000e+01 9.872663617134094238e-01 -3.884388732910156250e+01 -7.569159846752882004e-03 -6.847541034221649170e-02 -2.281337045133113861e-02 -7.902940735220909119e-03
8.200000000000000000e+01 1.911580848693847656e+01 -3.990228652954101562e+01 -4.125281572341918945e-01 4.746395587921142578e+00 1.300160169601440430e+00 1.064674496650695801e+00
8.300000000000000000e+01 1.872457695007324219e+01 -3.766414260864257812e+01 1.392178297042846680e+00 6.832715511322021484e+00 2.467468023300170898e+00 1.981571793556213379e+00
8.400000000000000000e+01 1.935953712463378906e+01 -3.445444488525390625e+01 2.907374203205108643e-01 9.090675354003906250e+00 2.814423799514770508e+00 5.414449572563171387e-01
8.500000000000000000e+01 1.919590568542480469e+01 -3.604472351074218750e+01 5.261978507041931152e-01 8.200119018554687500e+00 2.617895126342773438e+00 1.494783163070678711e+00
8.600000000000000000e+01 2.031427764892578125e+01 -3.610003662109375000e+01 5.739335417747497559e-01 7.346230506896972656e+00 2.376049280166625977e+00 5.484378337860107422e-01
8.700000000000000000e+01 1.943258094787597656e+01 -3.202934265136718750e+01 1.101947017014026642e-02 7.872842788696289062e+00 2.365158796310424805e+00 1.200774163007736206e-01
8.800000000000000000e+01 1.931734275817871094e+01 -2.397538566589355469e+01 -8.246043324470520020e-02 6.795410156250000000e+00 2.013884782791137695e+00 1.170602589845657349e-01
8.900000000000000000e+01 1.978921699523925781e+01 -1.521631431579589844e+01 1.223266273736953735e-01 7.825808048248291016e+00 2.384440422058105469e+00 7.319296598434448242e-01
9.000000000000000000e+01 2.004049110412597656e+01 -8.789533615112304688e+00 1.225719694048166275e-02 7.837161064147949219e+00 2.354825496673583984e+00 9.021154046058654785e-02
9.100000000000000000e+01 2.030174064636230469e+01 -2.402510643005371094e+00 1.080886349081993103e-01 8.145515441894531250e+00 2.476081132888793945e+00 5.174605846405029297e-01
9.200000000000000000e+01 2.067195892333984375e+01 3.186675071716308594e+00 8.582516014575958252e-02 8.660595893859863281e+00 2.623926162719726562e+00 6.978571414947509766e-01
9.300000000000000000e+01 2.079533386230468750e+01 1.042021369934082031e+01 9.199343039654195309e-04 8.359540939331054688e+00 2.508138179779052734e+00 1.353095471858978271e-02
9.400000000000000000e+01 2.080021858215332031e+01 1.843770027160644531e+01 -9.492291719652712345e-04 8.231114387512207031e+00 2.469049453735351562e+00 4.092005838174372911e-04
9.500000000000000000e+01 2.158319473266601562e+01 2.570786476135253906e+01 -1.593663822859525681e-03 8.288772583007812500e+00 2.486153841018676758e+00 -2.659521065652370453e-02
9.600000000000000000e+01 2.169371223449707031e+01 3.203299331665039062e+01 3.045987524092197418e-02 8.658950805664062500e+00 2.606823205947875977e+00 -1.837260574102401733e-01
9.700000000000000000e+01 2.080257606506347656e+01 3.706447982788085938e+01 1.319433808326721191e+00 8.087806701660156250e+00 2.822172164916992188e+00 -1.886571764945983887e+00
9.800000000000000000e+01 2.097010231018066406e+01 3.620650100708007812e+01 1.004625201225280762e+00 1.015858745574951172e+01 3.348963975906372070e+00 -1.505145788192749023e+00
9.900000000000000000e+01 2.832371902465820312e+01 -4.069252395629882812e+01 -4.086566865444183350e-01 7.261765003204345703e+00 2.055932521820068359e+00 -6.063339114189147949e-02
1.000000000000000000e+02 2.933139801025390625e+01 -3.742790603637695312e+01 -1.797277927398681641e-01 7.301044464111328125e+00 2.136394977569580078e+00 -1.377757191658020020e-01
1.010000000000000000e+02 2.806439590454101562e+01 -2.972657775878906250e+01 6.666605919599533081e-02 7.317907810211181641e+00 2.215372085571289062e+00 1.177644208073616028e-01
1.020000000000000000e+02 2.637395095825195312e+01 -2.291003417968750000e+01 -6.412813812494277954e-02 7.453943729400634766e+00 2.216944694519042969e+00 1.697016358375549316e-01
1.030000000000000000e+02 2.734691429138183594e+01 -1.170764636993408203e+01 3.486017137765884399e-02 7.645090579986572266e+00 2.303985118865966797e+00 1.582220643758773804e-01
1.040000000000000000e+02 2.719316482543945312e+01 -5.151691913604736328e+00 -2.663921937346458435e-02 7.821268081665039062e+00 2.338388681411743164e+00 1.543397009372711182e-01
1.050000000000000000e+02 2.578388404846191406e+01 2.565721035003662109e+00 1.142910718917846680e-01 8.033267974853515625e+00 2.444267749786376953e+00 1.029360145330429077e-01
1.060000000000000000e+02 2.664958000183105469e+01 8.183268547058105469e+00 1.327427625656127930e-01 8.105820655822753906e+00 2.471568822860717773e+00 1.228704676032066345e-01
1.070000000000000000e+02 2.674227142333984375e+01 1.604209518432617188e+01 4.742885753512382507e-02 8.134535789489746094e+00 2.454589605331420898e+00 3.537007793784141541e-02
1.080000000000000000e+02 2.727898788452148438e+01 3.251588439941406250e+01 2.413073480129241943e-01 7.872596740722656250e+00 2.434171199798583984e+00 -3.857439756393432617e-02
1.090000000000000000e+02 2.957240486145019531e+01 3.957570648193359375e+01 -3.290073871612548828e-01 7.921713829040527344e+00 2.277811765670776367e+00 1.525021642446517944e-01
1.100000000000000000e+02 2.402777862548828125e+01 3.731271362304687500e+01 1.009620577096939087e-01 7.641681194305419922e+00 2.322793006896972656e+00 2.067663669586181641e-01
1.110000000000000000e+02 2.239618110656738281e+01 3.887412261962890625e+01 -6.360604763031005859e-01 7.176958560943603516e+00 1.962269425392150879e+00 1.117521524429321289e-02
1.120000000000000000e+02 1.961569404602050781e+01 3.786083221435546875e+01 6.774032711982727051e-01 3.428715467453002930e+00 1.231835603713989258e+00 -2.047099351882934570e+00
1.130000000000000000e+02 2.065865325927734375e+01 3.805305862426757812e+01 3.651971518993377686e-01 5.997829914093017578e+00 1.908908128738403320e+00 -1.381954550743103027e+00
1.140000000000000000e+02 1.886293411254882812e+01 3.914844512939453125e+01 4.503519237041473389e-01 1.836807608604431152e+00 6.861478686332702637e-01 -1.414236426353454590e+00
1.150000000000000000e+02 1.784179687500000000e+01 3.810232925415039062e+01 -1.042572140693664551e+00 -1.496122777462005615e-01 -3.576553463935852051e-01 -3.088758885860443115e-01
1.160000000000000000e+02 3.792139434814453125e+01 -4.048948287963867188e+01 -1.939261257648468018e-01 7.533669948577880859e+00 2.201923131942749023e+00 -1.514098979532718658e-02
1.170000000000000000e+02 3.633245849609375000e+01 -3.009965324401855469e+01 -6.713973730802536011e-02 7.499844551086425781e+00 2.229811429977416992e+00 -3.131100535392761230e-02
1.180000000000000000e+02 3.375567245483398438e+01 -1.638146018981933594e+01 -2.260434813797473907e-02 7.622234821319580078e+00 2.279889106750488281e+00 3.597189113497734070e-02
1.190000000000000000e+02 3.322417449951171875e+01 -1.050057506561279297e+01 7.596105802804231644e-03 7.700188159942626953e+00 2.312335252761840820e+00 5.016089975833892822e-02
1.200000000000000000e+02 3.375141143798828125e+01 -4.028147697448730469e+00 3.445523604750633240e-02 7.796360969543457031e+00 2.349244832992553711e+00 2.506486140191555023e-02
1.210000000000000000e+02 3.270804595947265625e+01 4.305220603942871094e+00 1.171340346336364746e-01 7.886730194091796875e+00 2.401159286499023438e+00 2.641023509204387665e-02
1.220000000000000000e+02 3.273517227172851562e+01 1.244224262237548828e+01 1.098837330937385559e-01 7.960769653320312500e+00 2.421195983886718750e+00 4.145476967096328735e-02
1.230000000000000000e+02 3.459079360961914062e+01 1.824478721618652344e+01 9.722422063350677490e-02 7.939887523651123047e+00 2.411133527755737305e+00 1.923981867730617523e-02
1.240000000000000000e+02 3.403343200683593750e+01 2.296765327453613281e+01 9.551586955785751343e-02 7.938245773315429688e+00 2.410128593444824219e+00 8.555535227060317993e-03
1.250000000000000000e+02 3.506045913696289062e+01 3.162034225463867188e+01 5.844158306717872620e-02 7.867331027984619141e+00 2.377731800079345703e+00 7.445240765810012817e-02
1.260000000000000000e+02 3.780438613891601562e+01 4.050954437255859375e+01 -1.361683160066604614e-01 7.930592536926269531e+00 2.338327169418334961e+00 3.001758269965648651e-02
1.270000000000000000e+02 3.390770339965820312e+01 3.742840957641601562e+01 -1.117844358086585999e-01 7.905283451080322266e+00 2.338049650192260742e+00 1.281090080738067627e-01
1.280000000000000000e+02 4.279003143310546875e+01 -4.080544662475585938e+01 -1.543253511190414429e-01 7.616430282592773438e+00 2.238631486892700195e+00 -1.283829566091299057e-02
1.290000000000000000e+02 3.938229370117187500e+01 -3.661074066162109375e+01 -1.556088030338287354e-01 7.556479930877685547e+00 2.220261335372924805e+00 -4.373883083462715149e-02
1.300000000000000000e+02 4.243206024169921875e+01 -3.006940841674804688e+01 -8.966582268476486206e-02 7.606961250305175781e+00 2.255188703536987305e+00 -4.702619835734367371e-02
1.310000000000000000e+02 4.247174453735351562e+01 -2.136804008483886719e+01 -4.556580260396003723e-02 7.646550178527832031e+00 2.280295372009277344e+00 -4.287663474678993225e-02
1.320000000000000000e+02 4.088021469116210938e+01 -1.469583225250244141e+01 -1.145147066563367844e-02 7.679771423339843750e+00 2.300496101379394531e+00 -3.529791906476020813e-02
1.330000000000000000e+02 4.048453903198242188e+01 -9.325139045715332031e+00 1.612928882241249084e-02 7.720330715179443359e+00 2.320938110351562500e+00 -3.354346379637718201e-02
1.340000000000000000e+02 3.992564392089843750e+01 -4.111064910888671875e+00 4.544530808925628662e-02 7.758924484252929688e+00 2.341310977935791016e+00 -3.167054429650306702e-02
1.350000000000000000e+02 4.085501480102539062e+01 1.416805553436279297e+01 1.024557054042816162e-01 7.838068008422851562e+00 2.382157087326049805e+00 5.305980332195758820e-03
1.360000000000000000e+02 4.002556991577148438e+01 1.772335243225097656e+01 9.727234393358230591e-02 7.855733394622802734e+00 2.385901689529418945e+00 1.524966303259134293e-02
1.370000000000000000e+02 4.112661743164062500e+01 2.436718559265136719e+01 7.378505915403366089e-02 7.848292827606201172e+00 2.376623392105102539e+00 3.162130713462829590e-02
1.380000000000000000e+02 4.632727813720703125e+01 3.032390594482421875e+01 2.103502862155437469e-02 7.827889919281005859e+00 2.354677438735961914e+00 3.971955180168151855e-02
1.390000000000000000e+02 4.275100708007812500e+01 4.049778747558593750e+01 -7.918579876422882080e-02 7.889829158782958984e+00 2.343193054199218750e+00 1.958551071584224701e-02
1.400000000000000000e+02 4.761963653564453125e+01 -4.090888595581054688e+01 -1.234272718429565430e-01 7.667769908905029297e+00 2.263302803039550781e+00 -6.603015586733818054e-03
1.410000000000000000e+02 4.854323196411132812e+01 -2.836212348937988281e+01 -7.087013870477676392e-02 7.675380706787109375e+00 2.281353235244750977e+00 -5.941580608487129211e-02
1.420000000000000000e+02 4.691611099243164062e+01 -2.279448890686035156e+01 -4.929307475686073303e-02 7.675478935241699219e+00 2.287855863571166992e+00 -6.326104700565338135e-02
1.430000000000000000e+02 5.383041381835937500e+01 -1.411314964294433594e+01 -7.616929244250059128e-03 7.727744579315185547e+00 2.316038370132446289e+00 -8.396340161561965942e-02
1.440000000000000000e+02 4.580177307128906250e+01 -7.629895687103271484e+00 2.183159999549388885e-02 7.728786945343017578e+00 2.325185537338256836e+00 -6.344521045684814453e-02
1.450000000000000000e+02 4.655570602416992188e+01 -2.998025894165039062e+00 4.521634802222251892e-02 7.745326519012451172e+00 2.337162733078002930e+00 -6.154787912964820862e-02
1.460000000000000000e+02 5.356951904296875000e+01 4.264439105987548828e+00 5.386360734701156616e-02 7.744407176971435547e+00 2.339481353759765625e+00 -5.694610625505447388e-02
1.470000000000000000e+02 5.420204544067382812e+01 1.002188396453857422e+01 5.723455920815467834e-02 7.748846530914306641e+00 2.341824293136596680e+00 -3.848896920680999756e-02
1.480000000000000000e+02 5.036717224121093750e+01 1.948877334594726562e+01 6.154191493988037109e-02 7.778692245483398438e+00 2.352070331573486328e+00 8.710146648809313774e-04
1.490000000000000000e+02 5.345445251464843750e+01 2.441241264343261719e+01 3.680547326803207397e-02 7.773691654205322266e+00 2.343149185180664062e+00 1.189705450087785721e-02
1.500000000000000000e+02 4.910602188110351562e+01 3.092955970764160156e+01 1.120231766253709793e-02 7.813875675201416016e+00 2.347523450851440430e+00 3.283119201660156250e-02
1.510000000000000000e+02 4.812282943725585938e+01 3.734193420410156250e+01 -3.208395093679428101e-02 7.841169834136962891e+00 2.342725753784179688e+00 2.333994209766387939e-02
1.520000000000000000e+02 5.247618484497070312e+01 3.747925567626953125e+01 -1.626589521765708923e-02 7.810198307037353516e+00 2.338179826736450195e+00 1.288212276995182037e-02
1.530000000000000000e+02 5.744591522216796875e+01 -4.060155105590820312e+01 -6.970648467540740967e-02 7.752843379974365234e+00 2.304940938949584961e+00 -8.615175262093544006e-03
1.540000000000000000e+02 5.537804794311523438e+01 -3.359864425659179688e+01 -7.104498147964477539e-02 7.734093189239501953e+00 2.298914432525634766e+00 -4.234707355499267578e-02
1.550000000000000000e+02 5.499045944213867188e+01 -2.427570533752441406e+01 -4.285397008061408997e-02 7.727601051330566406e+00 2.305424213409423828e+00 -7.182472944259643555e-02
1.560000000000000000e+02 5.938963317871093750e+01 -1.659149932861328125e+01 -1.188226696103811264e-02 7.748028278350830078e+00 2.320843696594238281e+00 -8.230401575565338135e-02
1.570000000000000000e+02 5.798460388183593750e+01 -9.604564666748046875e+00 8.978009223937988281e-03 7.739189147949218750e+00 2.324450254440307617e+00 -8.399882167577743530e-02
1.580000000000000000e+02 5.833798599243164062e+01 -3.489477872848510742e+00 2.419683709740638733e-02 7.737552165985107422e+00 2.328524589538574219e+00 -7.695402204990386963e-02
1.590000000000000000e+02 5.984429931640625000e+01 7.683934211730957031e+00 3.838434070348739624e-02 7.732182979583740234e+00 2.331170082092285156e+00 -4.875567555427551270e-02
1.600000000000000000e+02 5.841757965087890625e+01 1.022772026062011719e+01 4.360856860876083374e-02 7.735753059387207031e+00 2.333808422088623047e+00 -4.065989702939987183e-02
1.610000000000000000e+02 5.558280563354492188e+01 2.168899536132812500e+01 4.010925069451332092e-02 7.757876873016357422e+00 2.339395761489868164e+00 2.066900633508339524e-04
1.620000000000000000e+02 5.802885437011718750e+01 2.623481941223144531e+01 2.134120650589466095e-02 7.751771450042724609e+00 2.331933736801147461e+00 4.237256012856960297e-03
1.630000000000000000e+02 5.612964630126953125e+01 3.352000045776367188e+01 3.605703532230108976e-04 7.777041435241699219e+00 2.333220481872558594e+00 1.206267066299915314e-02
1.640000000000000000e+02 5.732286453247070312e+01 4.078641128540039062e+01 -1.140654087066650391e-02 7.777004718780517578e+00 2.329679489135742188e+00 2.352286828681826591e-03
1.650000000000000000e+02 6.248546981811523438e+01 -4.071022796630859375e+01 -4.877309128642082214e-02 7.787916660308837891e+00 2.321743011474609375e+00 -8.884803391993045807e-03
1.660000000000000000e+02 6.328882598876953125e+01 -3.738257598876953125e+01 -4.155024513602256775e-02 7.791308879852294922e+00 2.324927568435668945e+00 -2.128036692738533020e-02
1.670000000000000000e+02 6.066839599609375000e+01 -3.070120048522949219e+01 -4.472715780138969421e-02 7.769048690795898438e+00 2.317296504974365234e+00 -4.997562244534492493e-02
1.680000000000000000e+02 6.689431762695312500e+01 -2.605454063415527344e+01 -1.883508265018463135e-02 7.802043437957763672e+00 2.334962606430053711e+00 -5.397522822022438049e-02
1.690000000000000000e+02 6.531321716308593750e+01 -2.005428886413574219e+01 -1.185525674372911453e-02 7.779781818389892578e+00 2.330378055572509766e+00 -6.928115338087081909e-02
1.700000000000000000e+02 6.592152404785156250e+01 -9.033617973327636719e+00 4.406702704727649689e-03 7.753513336181640625e+00 2.327376127243041992e+00 -7.206624001264572144e-02
1.710000000000000000e+02 6.713679504394531250e+01 -2.478281021118164062e+00 1.107385940849781036e-02 7.737307071685791016e+00 2.324514389038085938e+00 -6.212195381522178650e-02
1.720000000000000000e+02 6.620735931396484375e+01 2.337631464004516602e+00 1.715603470802307129e-02 7.726815700531005859e+00 2.323191404342651367e+00 -5.601874738931655884e-02
1.730000000000000000e+02 6.600859069824218750e+01 1.043396186828613281e+01 2.133125625550746918e-02 7.714401721954345703e+00 2.320719957351684570e+00 -3.629169985651969910e-02
1.740000000000000000e+02 6.233700180053710938e+01 1.999384117126464844e+01 2.563606202602386475e-02 7.725380420684814453e+00 2.325304985046386719e+00 -1.319758035242557526e-02
1.750000000000000000e+02 6.288093566894531250e+01 2.230317687988281250e+01 2.137009985744953156e-02 7.724633216857910156e+00 2.323801040649414062e+00 -7.678892929106950760e-03
1.760000000000000000e+02 6.614116668701171875e+01 2.817420387268066406e+01 8.011065423488616943e-03 7.708371639251708984e+00 2.314914941787719727e+00 -1.018183887936174870e-03
1.770000000000000000e+02 6.218103027343750000e+01 4.058362197875976562e+01 -5.371221341192722321e-03 7.740814208984375000e+00 2.320632934570312500e+00 1.968802185729146004e-03
1.780000000000000000e+02 6.730522918701171875e+01 -4.111598205566406250e+01 -2.679806947708129883e-02 7.826421737670898438e+00 2.339887142181396484e+00 -4.330398049205541611e-03
1.790000000000000000e+02 7.312110900878906250e+01 -3.067994880676269531e+01 -6.726346444338560104e-03 7.861629962921142578e+00 2.356471061706542969e+00 -2.677382156252861023e-02
1.800000000000000000e+02 7.381687927246093750e+01 -2.256873130798339844e+01 -3.743860404938459396e-03 7.836441516876220703e+00 2.349809408187866211e+00 -3.730346262454986572e-02
1.810000000000000000e+02 7.308752441406250000e+01 -1.519026088714599609e+01 -1.784195774234831333e-03 7.796342372894287109e+00 2.338367462158203125e+00 -4.599823057651519775e-02
1.820000000000000000e+02 7.283500671386718750e+01 -8.278295516967773438e+00 1.952015561982989311e-03 7.761476516723632812e+00 2.329028606414794922e+00 -4.653166979551315308e-02
1.830000000000000000e+02 7.362576293945312500e+01 -2.503815650939941406e+00 3.305459162220358849e-03 7.733810424804687500e+00 2.321134805679321289e+00 -3.870087116956710815e-02
1.840000000000000000e+02 7.371101379394531250e+01 3.188578605651855469e+00 4.451005719602108002e-03 7.709009647369384766e+00 2.314038276672363281e+00 -3.214754164218902588e-02
1.850000000000000000e+02 7.273548126220703125e+01 1.096023082733154297e+01 6.557584740221500397e-03 7.687538146972656250e+00 2.308228731155395508e+00 -2.316212840378284454e-02
1.860000000000000000e+02 7.333606719970703125e+01 1.625793075561523438e+01 5.285413004457950592e-03 7.673941612243652344e+00 2.303768157958984375e+00 -1.368148345500230789e-02
1.870000000000000000e+02 7.385770416259765625e+01 2.505630302429199219e+01 2.200222807005047798e-03 7.661819934844970703e+00 2.299206018447875977e+00 -2.922927727922797203e-03
1.880000000000000000e+02 7.260516357421875000e+01 3.271824645996093750e+01 1.259799930267035961e-03 7.670801639556884766e+00 2.301618576049804688e+00 2.220031165052205324e-04
1.890000000000000000e+02 7.320944976806640625e+01 3.804655838012695312e+01 3.279692609794437885e-04 7.665754318237304688e+00 2.299824714660644531e+00 -3.761869156733155251e-04
1.900000000000000000e+02 7.864412689208984375e+01 -3.731598281860351562e+01 -6.790235056541860104e-04 7.940729618072509766e+00 2.382015228271484375e+00 -2.793724415823817253e-03
1.910000000000000000e+02 7.862524414062500000e+01 -3.809413909912109375e+01 1.435504091205075383e-04 7.942219734191894531e+00 2.382709026336669922e+00 -2.886389847844839096e-03
1.920000000000000000e+02 7.878255462646484375e+01 -3.102546119689941406e+01 -7.135619525797665119e-04 7.923022270202636719e+00 2.376692533493041992e+00 -6.242070347070693970e-03
1.930000000000000000e+02 7.886149597167968750e+01 -2.384378242492675781e+01 7.912270666565746069e-05 7.883341789245605469e+00 2.365026235580444336e+00 -8.183049969375133514e-03
1.940000000000000000e+02 7.889840698242187500e+01 -1.662175369262695312e+01 -2.830188313964754343e-04 7.831721782684326172e+00 2.349431514739990234e+00 -9.513293392956256866e-03
1.950000000000000000e+02 7.890677642822265625e+01 -9.405980110168457031e+00 1.842260244302451611e-04 7.775749206542968750e+00 2.332780122756958008e+00 -9.435968473553657532e-03
1.960000000000000000e+02 7.890475463867187500e+01 -2.990850448608398438e+00 1.654233929002657533e-04 7.728294372558593750e+00 2.318537950515747070e+00 -8.621946908533573151e-03
1.970000000000000000e+02 7.889848327636718750e+01 4.227093219757080078e+00 2.290244738105684519e-04 7.683038711547851562e+00 2.304980278015136719e+00 -6.905695423483848572e-03
1.980000000000000000e+02 7.888237762451171875e+01 1.144154167175292969e+01 1.577193470438942313e-04 7.650584697723388672e+00 2.295222759246826172e+00 -4.567846190184354782e-03
1.990000000000000000e+02 7.885673522949218750e+01 1.865606880187988281e+01 2.506842138245701790e-04 7.632427692413330078e+00 2.289803504943847656e+00 -2.306307433173060417e-03
2.000000000000000000e+02 7.880281066894531250e+01 2.666909217834472656e+01 1.736617996357381344e-04 7.625935554504394531e+00 2.287832736968994141e+00 -5.738922045566141605e-04
2.010000000000000000e+02 7.868981933593750000e+01 3.314226150512695312e+01 1.663398143136873841e-04 7.626625061035156250e+00 2.288037300109863281e+00 2.246769145131111145e-04
2.020000000000000000e+02 7.889722442626953125e+01 3.786447906494140625e+01 1.879222400020807981e-04 7.626414299011230469e+00 2.287980556488037109e+00 3.758912789635360241e-04
2.030000000000000000e+02 7.962271118164062500e+01 3.646795272827148438e+01 -3.076285938732326031e-04 7.621458053588867188e+00 2.286345005035400391e+00 1.757429999997839332e-04
2.040000000000000000e+02 1.596291732788085938e+01 3.626374816894531250e+01 -2.874764204025268555e-01 -2.325626276433467865e-02 -9.321980178356170654e-02 -1.867512315511703491e-01
2.050000000000000000e+02 1.729719543457031250e+01 3.673365020751953125e+01 -4.323498010635375977e-01 -4.584511816501617432e-01 -2.672402858734130859e-01 -3.615801930427551270e-01
2.060000000000000000e+02 1.341681480407714844e+00 3.715999603271484375e+01 -4.372259601950645447e-03 -5.704878270626068115e-02 -1.842631213366985321e-02 1.192863658070564270e-02
2.070000000000000000e+02 1.269811391830444336e+00 3.800094604492187500e+01 5.256017670035362244e-03 -6.446840614080429077e-02 -1.776371710002422333e-02 1.238565798848867416e-02
2.080000000000000000e+02 1.333164405822753906e+01 3.132282638549804688e+01 -3.386562690138816833e-02 -3.904702607542276382e-03 -1.133109815418720245e-02 -2.199541404843330383e-02
2.090000000000000000e+02 1.542624855041503906e+01 2.885854721069335938e+01 -9.495900943875312805e-03 -4.558995366096496582e-03 -4.216468892991542816e-03 -2.409456064924597740e-03
2.100000000000000000e+02 1.569184589385986328e+01 3.044371414184570312e+01 -1.128073409199714661e-02 -1.693091727793216705e-02 -8.463495410978794098e-03 -6.718919146806001663e-03
2.110000000000000000e+02 1.643667030334472656e+01 3.357652282714843750e+01 -3.292068839073181152e-02 -7.953682541847229004e-02 -3.373725339770317078e-02 -4.196220636367797852e-02
2.120000000000000000e+02 4.510852694511413574e-01 3.478257751464843750e+01 -7.049446925520896912e-03 -4.168985038995742798e-02 -1.462178956717252731e-02 5.881969351321458817e-03
2.130000000000000000e+02 1.171941637992858887e+00 3.053625106811523438e+01 -7.059412542730569839e-03 -8.940839208662509918e-03 -4.800075665116310120e-03 6.615291349589824677e-03
2.140000000000000000e+02 1.360236167907714844e+01 2.478419303894042969e+01 3.628932172432541847e-03 8.737641037441790104e-04 1.350808888673782349e-03 -2.723254438024014235e-04
2.150000000000000000e+02 1.478258895874023438e+01 2.091821479797363281e+01 -5.131513811647891998e-03 2.083922037854790688e-03 -9.142775088548660278e-04 1.095842453651130199e-04
2.160000000000000000e+02 1.482637596130371094e+01 2.170884323120117188e+01 5.558443255722522736e-03 2.626396249979734421e-03 2.455451758578419685e-03 5.125926109030842781e-04
2.170000000000000000e+02 3.782548308372497559e-01 2.832379722595214844e+01 -5.632453598082065582e-03 -1.217256998643279076e-03 -2.054913202300667763e-03 2.373305847868323326e-03
2.180000000000000000e+02 1.098289966583251953e+00 2.329476165771484375e+01 2.951105590909719467e-03 1.852484652772545815e-03 1.441077096387743950e-03 -1.441758358851075172e-03
2.190000000000000000e+02 1.245574283599853516e+01 1.709925842285156250e+01 -2.613028744235634804e-03 1.772828836692497134e-04 -7.307237829081714153e-04 2.882205590140074492e-04
2.200000000000000000e+02 1.472177791595458984e+01 1.210590267181396484e+01 1.942459843121469021e-03 1.474474556744098663e-04 6.269721779972314835e-04 3.012476663570851088e-04
2.210000000000000000e+02 1.472208404541015625e+01 1.695284461975097656e+01 3.290207590907812119e-03 7.295136456377804279e-04 1.205916400067508221e-03 1.514369796495884657e-04
2.220000000000000000e+02 3.650784492492675781e-01 2.028654289245605469e+01 -1.813719514757394791e-03 1.392608275637030602e-03 -1.263333688257262111e-04 5.047200829721987247e-04
2.230000000000000000e+02 1.079270124435424805e+00 1.607274246215820312e+01 -1.247560838237404823e-03 3.816018870566040277e-04 -2.597876882646232843e-04 1.639882975723594427e-04
2.240000000000000000e+02 1.401037597656250000e+01 1.117971229553222656e+01 1.476333476603031158e-03 2.281409251736477017e-04 5.113423103466629982e-04 3.951052203774452209e-04
2.250000000000000000e+02 1.254785823822021484e+01 1.782989740371704102e+00 7.699490379309281707e-05 -4.474403976928442717e-05 9.675260116637218744e-06 8.057635568547993898e-05
2.260000000000000000e+02 1.474042415618896484e+01 1.130642890930175781e+01 -1.823863829486072063e-03 1.801604230422526598e-05 -5.417543579824268818e-04 -2.874155179597437382e-04
2.270000000000000000e+02 3.601420521736145020e-01 1.466405391693115234e+01 1.031029853038489819e-03 4.119425138924270868e-04 4.328917129896581173e-04 -3.290154854767024517e-04
2.280000000000000000e+02 1.032134294509887695e+00 8.889552116394042969e+00 5.843911203555762768e-04 8.039934618864208460e-05 1.994371414184570312e-04 -1.921459188451990485e-04
2.290000000000000000e+02 1.027956199645996094e+01 2.433107852935791016e+00 1.528512657387182117e-04 5.935153603786602616e-05 6.366084562614560127e-05 8.032504410948604345e-05
2.300000000000000000e+02 9.646295547485351562e+00 1.809909701347351074e+00 1.226669992320239544e-04 6.201022188179194927e-05 5.540316487895324826e-05 5.511114795808680356e-05
2.310000000000000000e+02 4.885490417480468750e+00 2.435778141021728516e+00 1.527405984234064817e-04 9.681101073510944843e-05 7.486548565793782473e-05 -7.576026109745725989e-05
2.320000000000000000e+02 3.279447555541992188e-01 6.654983520507812500e+00 3.751181066036224365e-04 2.778330417640972883e-05 1.208704270538873971e-04 -9.194531594403088093e-05
2.330000000000000000e+02 6.295240402221679688e+00 1.809942603111267090e+00 -1.207077584695070982e-04 -7.758899300824850798e-05 -5.948902617092244327e-05 4.288310447009280324e-05
2.340000000000000000e+02 2.328904151916503906e+01 3.532927322387695312e+01 8.210616111755371094e-01 7.783923149108886719e+00 2.581495523452758789e+00 -3.610574901103973389e-01
2.350000000000000000e+02 2.160270881652832031e+01 3.125352287292480469e+01 5.175904929637908936e-02 8.572201728820800781e+00 2.587188005447387695e+00 -1.339742988348007202e-01
2.360000000000000000e+02 2.081230926513671875e+01 2.405170822143554688e+01 4.238944966346025467e-03 8.264173507690429688e+00 2.480523824691772461e+00 -6.120462436228990555e-03
2.370000000000000000e+02 2.079765129089355469e+01 1.603263282775878906e+01 1.297187409363687038e-03 8.243678092956542969e+00 2.473492622375488281e+00 2.849493641406297684e-03
2.380000000000000000e+02 2.079512214660644531e+01 8.816321372985839844e+00 2.369639696553349495e-03 8.438793182373046875e+00 2.532348871231079102e+00 2.206519991159439087e-02
2.390000000000000000e+02 2.051731300354003906e+01 1.589913249015808105e+00 6.006647646427154541e-02 7.885361194610595703e+00 2.383628368377685547e+00 7.025094628334045410e-01
2.400000000000000000e+02 2.011180114746093750e+01 -4.793862819671630859e+00 -4.509156569838523865e-02 7.128621578216552734e+00 2.125059127807617188e+00 4.381905198097229004e-01
2.410000000000000000e+02 1.993748283386230469e+01 -1.280001258850097656e+01 4.128172248601913452e-02 8.081503868103027344e+00 2.436835765838623047e+00 1.597077697515487671e-01
2.420000000000000000e+02 1.942729949951171875e+01 -1.999792098999023438e+01 -3.356966748833656311e-02 6.792076110839843750e+00 2.027551889419555664e+00 1.716083139181137085e-01
2.430000000000000000e+02 1.932027053833007812e+01 -2.477013587951660156e+01 1.772379130125045776e-02 7.039237499237060547e+00 2.117088317871093750e+00 5.838890001177787781e-02
2.440000000000000000e+02 1.940883827209472656e+01 -3.366242980957031250e+01 6.564844399690628052e-02 8.399274826049804688e+00 2.539477109909057617e+00 2.601984441280364990e-01
2.450000000000000000e+02 2.051544761657714844e+01 -3.296727752685546875e+01 1.878382414579391479e-01 7.836887359619140625e+00 2.407417774200439453e+00 4.247611761093139648e-01
2.460000000000000000e+02 1.826654815673828125e+01 -3.833583831787109375e+01 1.655818074941635132e-01 3.944859266281127930e+00 1.233132243156433105e+00 1.749963998794555664e+00
2.470000000000000000e+02 1.405477619171142578e+01 -2.361552429199218750e+01 -7.455661892890930176e-03 1.642933930270373821e-03 -1.743818400427699089e-03 5.783807137049734592e-05
2.480000000000000000e+02 1.474303245544433594e+01 -1.803128814697265625e+01 -4.080271814018487930e-03 5.801809602417051792e-04 -1.050027203746140003e-03 3.738143277587369084e-05
2.490000000000000000e+02 1.327022552490234375e+01 -1.087970066070556641e+01 2.128869993612170219e-03 -2.889170718844980001e-05 6.299935048446059227e-04 -3.591357017285190523e-05
2.500000000000000000e+02 1.258623409271240234e+01 -1.638792037963867188e+01 3.852146212011575699e-03 4.440166958374902606e-05 1.168964314274489880e-03 -6.140056066215038300e-04
2.510000000000000000e+02 1.475015735626220703e+01 -1.481929683685302734e+01 -3.181093139573931694e-03 2.022935077548027039e-04 -8.936399244703352451e-04 3.795618977164849639e-05
2.520000000000000000e+02 1.474343204498291016e+01 -1.162185764312744141e+01 -2.313503529876470566e-03 5.141997098689898849e-05 -6.786250742152333260e-04 2.382240381848532706e-05
2.530000000000000000e+02 1.067106151580810547e+01 -2.341459274291992188e+00 -3.949622041545808315e-04 -1.572752953507006168e-04 -1.656712556723505259e-04 -3.807857865467667580e-05
2.540000000000000000e+02 1.375998020172119141e+01 -3.291907882690429688e+01 -2.306264825165271759e-02 -4.013453423976898193e-02 -1.895915530622005463e-02 2.828254736959934235e-02
2.550000000000000000e+02 7.956799316406250000e+01 -3.411684417724609375e+01 -9.404931188328191638e-05 7.945568084716796875e+00 2.383642196655273438e+00 -1.480987994000315666e-03
2.560000000000000000e+02 7.187394714355468750e+01 -3.148781776428222656e+01 -9.390962310135364532e-03 7.853081226348876953e+00 2.353106975555419922e+00 -2.901597693562507629e-02
2.570000000000000000e+02 6.013112258911132812e+01 -3.521860885620117188e+01 -5.446599051356315613e-02 7.769080162048339844e+00 2.314384222030639648e+00 -3.224673867225646973e-02
2.580000000000000000e+02 5.446107864379882812e+01 -3.060078811645507812e+01 -6.621567904949188232e-02 7.726046562194824219e+00 2.297949314117431641e+00 -5.574725940823554993e-02
2.590000000000000000e+02 5.150102233886718750e+01 -3.118885421752929688e+01 -7.820965349674224854e-02 7.702137470245361328e+00 2.287178277969360352e+00 -5.333985015749931335e-02
2.600000000000000000e+02 3.848887634277343750e+01 -3.177063560485839844e+01 -9.820476919412612915e-02 7.540215969085693359e+00 2.232603311538696289e+00 -3.968529403209686279e-02
2.610000000000000000e+02 2.609716415405273438e+01 -3.102654838562011719e+01 1.450201869010925293e-01 7.260660648345947266e+00 2.221704244613647461e+00 1.474693566560745239e-01
2.620000000000000000e+02 7.961226654052734375e+01 -2.692764282226562500e+01 -3.843223967123776674e-04 7.910498619079589844e+00 2.373034238815307617e+00 -2.969740889966487885e-03
2.630000000000000000e+02 7.310701751708984375e+01 -2.689030647277832031e+01 -6.201182026416063309e-03 7.848991870880126953e+00 2.352837085723876953e+00 -3.411426022648811340e-02
2.640000000000000000e+02 5.850804138183593750e+01 -2.436721801757812500e+01 -3.745210170745849609e-02 7.748192787170410156e+00 2.313222169876098633e+00 -7.196833193302154541e-02
2.650000000000000000e+02 4.877301406860351562e+01 -2.571487617492675781e+01 -6.027640774846076965e-02 7.683484554290771484e+00 2.286962270736694336e+00 -6.477380543947219849e-02
2.660000000000000000e+02 4.101616287231445312e+01 -2.635584259033203125e+01 -6.773821264505386353e-02 7.602387905120849609e+00 2.260395050048828125e+00 -3.733372688293457031e-02
2.670000000000000000e+02 3.400634002685546875e+01 -2.494104957580566406e+01 -4.188189283013343811e-02 7.508781433105468750e+00 2.240069866180419922e+00 3.590169921517372131e-02
2.680000000000000000e+02 2.779233932495117188e+01 -2.803085708618164062e+01 2.108550071716308594e-02 7.370680809020996094e+00 2.217529773712158203e+00 1.386695206165313721e-01
2.690000000000000000e+02 2.015406990051269531e+01 -2.549811172485351562e+01 -2.490443876013159752e-03 7.180447101593017578e+00 2.153387069702148438e+00 1.254110336303710938e-01
2.700000000000000000e+02 2.012586021423339844e+01 -2.393686676025390625e+01 -1.117055490612983704e-01 7.141650199890136719e+00 2.108983278274536133e+00 2.127015590667724609e-01
2.710000000000000000e+02 7.962826538085937500e+01 -2.051081657409667969e+01 -2.715233713388442993e-04 7.866225242614746094e+00 2.359786033630371094e+00 -3.535684896633028984e-03
2.720000000000000000e+02 7.352819061279296875e+01 -1.770141792297363281e+01 -2.508800476789474487e-03 7.810738086700439453e+00 2.342468738555908203e+00 -4.297843202948570251e-02
2.730000000000000000e+02 6.602909088134765625e+01 -1.814267539978027344e+01 -8.654319681227207184e-03 7.777932167053222656e+00 2.330783367156982422e+00 -6.970036029815673828e-02
2.740000000000000000e+02 6.014708328247070312e+01 -1.865759849548339844e+01 -1.756679452955722809e-02 7.752206802368164062e+00 2.320391893386840820e+00 -7.970233261585235596e-02
2.750000000000000000e+02 5.352067184448242188e+01 -1.565682983398437500e+01 -1.211676560342311859e-02 7.724073886871337891e+00 2.313587188720703125e+00 -8.210811018943786621e-02
2.760000000000000000e+02 4.241000747680664062e+01 -1.508958053588867188e+01 -1.647735387086868286e-02 7.683803558349609375e+00 2.300197839736938477e+00 -4.514705389738082886e-02
2.770000000000000000e+02 3.482525253295898438e+01 -1.778119659423828125e+01 -2.935904636979103088e-02 7.618420124053955078e+00 2.276718139648437500e+00 2.294086664915084839e-02
2.780000000000000000e+02 2.772190475463867188e+01 -1.842354011535644531e+01 -4.875706508755683899e-02 7.546195507049560547e+00 2.249231576919555664e+00 1.090980917215347290e-01
2.790000000000000000e+02 2.034307479858398438e+01 -1.763976478576660156e+01 -8.285361528396606445e-02 7.114880084991455078e+00 2.109607934951782227e+00 4.325233399868011475e-01
2.800000000000000000e+02 1.954839897155761719e+01 -1.760701751708984375e+01 -1.113073993474245071e-02 6.864142417907714844e+00 2.055903434753417969e+00 4.776709973812103271e-01
2.810000000000000000e+02 7.963463592529296875e+01 -1.329343509674072266e+01 1.987626892514526844e-04 7.808456420898437500e+00 2.342596530914306641e+00 -3.713981015607714653e-03
2.820000000000000000e+02 7.374367523193359375e+01 -1.063945770263671875e+01 7.987293065525591373e-04 7.774944782257080078e+00 2.332722902297973633e+00 -4.258845746517181396e-02
2.830000000000000000e+02 6.653652954101562500e+01 -1.114507293701171875e+01 1.104098977521061897e-03 7.760726451873779297e+00 2.328549146652221680e+00 -7.125173509120941162e-02
2.840000000000000000e+02 6.047026062011718750e+01 -8.548466682434082031e+00 8.501435630023479462e-03 7.743132114410400391e+00 2.325489997863769531e+00 -8.174583315849304199e-02
2.850000000000000000e+02 4.583679199218750000e+01 -9.069293975830078125e+00 1.678511872887611389e-02 7.723596096038818359e+00 2.322114467620849609e+00 -6.334058195352554321e-02
2.860000000000000000e+02 3.416537094116210938e+01 -1.180841255187988281e+01 1.484303851611912251e-03 7.684675216674804688e+00 2.305847883224487305e+00 3.283706679940223694e-02
2.870000000000000000e+02 2.727156829833984375e+01 -9.204953193664550781e+00 1.580284908413887024e-02 7.711267948150634766e+00 2.318121194839477539e+00 1.804194003343582153e-01
2.880000000000000000e+02 2.072861671447753906e+01 -1.118801403045654297e+01 -3.202354162931442261e-02 7.873676776885986328e+00 2.352495908737182617e+00 1.832975000143051147e-01
2.890000000000000000e+02 2.075187492370605469e+01 -1.038385581970214844e+01 1.004717051982879639e-01 7.764466285705566406e+00 2.359481334686279297e+00 1.882928758859634399e-01
2.900000000000000000e+02 7.963574218750000000e+01 -6.076612472534179688e+00 -7.320059376070275903e-05 7.749992847442626953e+00 2.324975728988647461e+00 -3.633349202573299408e-03
2.910000000000000000e+02 7.364455413818359375e+01 -3.333990812301635742e+00 2.909746253862977028e-03 7.737853527069091797e+00 2.322228908538818359e+00 -3.953583911061286926e-02
2.920000000000000000e+02 6.094303512573242188e+01 -3.066194534301757812e+00 1.974527351558208466e-02 7.737810134887695312e+00 2.327266693115234375e+00 -7.462985068559646606e-02
2.930000000000000000e+02 4.716846466064453125e+01 -4.142875671386718750e+00 3.992443159222602844e-02 7.740790843963623047e+00 2.334214687347412109e+00 -6.502383947372436523e-02
2.940000000000000000e+02 2.721781921386718750e+01 -6.735342979431152344e+00 -2.016695030033588409e-02 7.781023025512695312e+00 2.328256845474243164e+00 1.712541431188583374e-01
2.950000000000000000e+02 7.963465118408203125e+01 1.140479683876037598e+00 2.671522634045686573e-05 7.697893619537353516e+00 2.309376001358032227e+00 -3.090535989031195641e-03
2.960000000000000000e+02 7.367668151855468750e+01 2.413153409957885742e+00 4.260232672095298767e-03 7.712181568145751953e+00 2.314932584762573242e+00 -3.301608562469482422e-02
2.970000000000000000e+02 6.694393920898437500e+01 4.917068481445312500e+00 1.783106662333011627e-02 7.720332145690917969e+00 2.321449041366577148e+00 -4.856291785836219788e-02
2.980000000000000000e+02 5.940332794189453125e+01 3.209280967712402344e+00 3.428417071700096130e-02 7.734402179718017578e+00 2.330605983734130859e+00 -6.160739064216613770e-02
2.990000000000000000e+02 5.277613067626953125e+01 1.152359247207641602e+00 4.763649776577949524e-02 7.742403030395507812e+00 2.337011814117431641e+00 -6.505893170833587646e-02
3.000000000000000000e+02 4.146574020385742188e+01 4.229574680328369141e+00 9.085250645875930786e-02 7.793591022491455078e+00 2.365333080291748047e+00 -2.671777829527854919e-02
3.010000000000000000e+02 3.308124923706054688e+01 5.298463821411132812e+00 1.213474199175834656e-01 7.887468338012695312e+00 2.402644634246826172e+00 2.744289301335811615e-02
3.020000000000000000e+02 2.670488357543945312e+01 5.061317920684814453e+00 1.627826839685440063e-01 8.042304992675781250e+00 2.461526393890380859e+00 1.080236360430717468e-01
3.030000000000000000e+02 7.963049316406250000e+01 8.357170104980468750e+00 9.094337292481213808e-05 7.657688140869140625e+00 2.297333717346191406e+00 -2.307459013536572456e-03
3.040000000000000000e+02 7.277735137939453125e+01 9.294962882995605469e+00 6.466079037636518478e-03 7.691935539245605469e+00 2.309520483016967773e+00 -2.588159218430519104e-02
3.050000000000000000e+02 6.706836700439453125e+01 9.720267295837402344e+00 1.756676845252513885e-02 7.711928367614746094e+00 2.318848609924316406e+00 -3.698754683136940002e-02
3.060000000000000000e+02 5.924909210205078125e+01 1.197513103485107422e+01 4.082212969660758972e-02 7.734532833099365234e+00 2.332606554031372070e+00 -3.478406742215156555e-02
3.070000000000000000e+02 4.047140502929687500e+01 1.189300537109375000e+01 1.058804839849472046e-01 7.835406303405761719e+00 2.382386207580566406e+00 1.738461782224476337e-03
3.080000000000000000e+02 3.361441802978515625e+01 1.170756816864013672e+01 1.144419834017753601e-01 7.934855461120605469e+00 2.414789199829101562e+00 3.781312704086303711e-02
3.090000000000000000e+02 2.670004463195800781e+01 1.128497505187988281e+01 8.218450099229812622e-02 8.134083747863769531e+00 2.464880466461181641e+00 9.213116019964218140e-02
3.100000000000000000e+02 7.962403869628906250e+01 1.557365989685058594e+01 1.573870758875273168e-05 7.632405757904052734e+00 2.289726495742797852e+00 -1.391289639286696911e-03
3.110000000000000000e+02 6.439806365966796875e+01 1.718113708496093750e+01 2.373528480529785156e-02 7.715419292449951172e+00 2.321746349334716797e+00 -1.969522796571254730e-02
3.120000000000000000e+02 5.010931777954101562e+01 1.302207183837890625e+01 7.185051590204238892e-02 7.768970966339111328e+00 2.352246522903442383e+00 -2.062922716140747070e-02
3.130000000000000000e+02 4.028743362426757812e+01 1.637622261047363281e+01 1.004515513777732849e-01 7.851774692535400391e+00 2.385668039321899414e+00 1.172478217631578445e-02
3.140000000000000000e+02 3.506735992431640625e+01 2.084900474548339844e+01 9.643611311912536621e-02 7.929543495178222656e+00 2.407793760299682617e+00 1.352561451494693756e-02
3.150000000000000000e+02 2.696492195129394531e+01 1.838680839538574219e+01 4.039327800273895264e-02 8.125299453735351562e+00 2.449707984924316406e+00 1.287565287202596664e-02
3.160000000000000000e+02 7.961454010009765625e+01 2.198884391784667969e+01 -2.177126771130133420e-05 7.622004508972167969e+00 2.286594867706298828e+00 -6.946293869987130165e-04
3.170000000000000000e+02 7.207125091552734375e+01 2.391993522644042969e+01 4.790571983903646469e-03 7.673939704895019531e+00 2.303619146347045898e+00 -5.059410352259874344e-03
3.180000000000000000e+02 6.450018310546875000e+01 2.257453155517578125e+01 1.665791869163513184e-02 7.716052532196044922e+00 2.319813013076782227e+00 -7.284499239176511765e-03
3.190000000000000000e+02 5.507253265380859375e+01 1.956348419189453125e+01 4.630003497004508972e-02 7.757231712341308594e+00 2.341059446334838867e+00 -7.002321071922779083e-03
3.200000000000000000e+02 4.589609146118164062e+01 2.458264541625976562e+01 5.540332570672035217e-02 7.814973831176757812e+00 2.361113071441650391e+00 2.577064000070095062e-02
3.210000000000000000e+02 4.233443450927734375e+01 2.263688278198242188e+01 7.646552473306655884e-02 7.837152004241943359e+00 2.374085187911987305e+00 2.519911341369152069e-02
3.220000000000000000e+02 3.361348342895507812e+01 2.118036460876464844e+01 9.194805473089218140e-02 7.951895236968994141e+00 2.413152933120727539e+00 1.020793244242668152e-02
3.230000000000000000e+02 2.712760353088378906e+01 2.305153083801269531e+01 6.115528941154479980e-02 8.113042831420898438e+00 2.452259540557861328e+00 -3.753834590315818787e-02
3.240000000000000000e+02 7.959367370605468750e+01 2.920730590820312500e+01 5.301800410961732268e-05 7.619454383850097656e+00 2.285852193832397461e+00 -2.251352270832285285e-04
3.250000000000000000e+02 7.289900207519531250e+01 3.148670005798339844e+01 6.175716989673674107e-04 7.668087482452392578e+00 2.300611495971679688e+00 3.591531713027507067e-04
3.260000000000000000e+02 6.667095184326171875e+01 3.011142539978027344e+01 5.129661876708269119e-03 7.705737113952636719e+00 2.313260078430175781e+00 1.018942799419164658e-03
3.270000000000000000e+02 5.968528747558593750e+01 3.288610076904296875e+01 3.234013682231307030e-03 7.752824306488037109e+00 2.326817512512207031e+00 8.788730949163436890e-03
3.280000000000000000e+02 5.238034439086914062e+01 3.406541061401367188e+01 -5.510764196515083313e-03 7.802735805511474609e+00 2.339167594909667969e+00 2.137363143265247345e-02
3.290000000000000000e+02 4.387918090820312500e+01 2.925979232788085938e+01 2.903928421437740326e-02 7.837301731109619141e+00 2.359902381896972656e+00 4.494479671120643616e-02
3.300000000000000000e+02 3.381828308105468750e+01 2.732995414733886719e+01 1.004626601934432983e-01 7.907401084899902344e+00 2.402359247207641602e+00 2.041523903608322144e-02
3.310000000000000000e+02 2.670587730407714844e+01 3.029573059082031250e+01 1.847613304853439331e-01 8.004120826721191406e+00 2.456664800643920898e+00 -1.121726408600807190e-01
3.320000000000000000e+02 1.497867870330810547e+01 3.916114807128906250e+01 1.766730099916458130e-02 5.737424641847610474e-02 2.251246385276317596e-02 2.370773553848266602e-01
3.330000000000000000e+02 1.312342166900634766e+01 3.744081497192382812e+01 -1.044434607028961182e-01 7.155744731426239014e-02 -9.865802712738513947e-03 1.013111844658851624e-01
3.340000000000000000e+02 1.410211753845214844e+01 3.048302078247070312e+01 -1.965308003127574921e-02 -1.112046465277671814e-02 -9.232063777744770050e-03 -1.683794334530830383e-02
3.350000000000000000e+02 1.355698966979980469e+01 2.399695396423339844e+01 -4.548975266516208649e-03 6.071429743315093219e-05 -1.346478355117142200e-03 -2.602416207082569599e-04
3.360000000000000000e+02 1.319797039031982422e+01 1.703857421875000000e+01 3.095902269706130028e-03 3.632355073932558298e-04 1.037741312757134438e-03 5.179219297133386135e-04
3.370000000000000000e+02 1.335364246368408203e+01 1.025615215301513672e+01 1.033375505357980728e-03 3.008999628946185112e-04 4.002826462965458632e-04 3.277290088590234518e-04
3.380000000000000000e+02 1.268171787261962891e+01 -1.797211647033691406e+00 1.540918456157669425e-04 2.786918485071510077e-04 1.298351126024499536e-04 -3.387164542800746858e-05
3.390000000000000000e+02 1.480979442596435547e+01 -3.586060523986816406e+00 -6.695507909171283245e-04 -2.291894452355336398e-05 -2.077409153571352363e-04 5.141863584867678583e-05
3.400000000000000000e+02 1.478410053253173828e+01 -5.997786045074462891e+00 1.227724016644060612e-03 -2.514632433303631842e-05 3.607733233366161585e-04 -9.853925439529120922e-05
3.410000000000000000e+02 1.478416919708251953e+01 -4.392097473144531250e+00 8.044952410273253918e-04 3.306751386844553053e-05 2.512688224669545889e-04 -9.456822590436786413e-05
3.420000000000000000e+02 1.170687961578369141e+01 -1.777223229408264160e+00 1.189332833746448159e-04 2.759041381068527699e-04 1.184512220788747072e-04 8.506888843839988112e-05
3.430000000000000000e+02 9.590731620788574219e+00 -1.788921117782592773e+00 2.519668196327984333e-04 1.848727551987394691e-04 1.310518709942698479e-04 8.255369903054088354e-05
3.440000000000000000e+02 1.019309520721435547e+01 -1.789343357086181641e+00 -3.594089648686349392e-04 -1.901868236018344760e-04 -1.648787438170984387e-04 -6.179806223371997476e-05
3.450000000000000000e+02 8.194693565368652344e+00 -1.802416801452636719e+00 1.482032675994560122e-04 2.428336010780185461e-04 1.173110576928593218e-04 9.424822928849607706e-05
3.460000000000000000e+02 7.483506679534912109e+00 -1.814955234527587891e+00 -7.806447683833539486e-05 -2.872695913538336754e-04 -1.096002233680337667e-04 -5.954177322564646602e-05
3.470000000000000000e+02 6.767912387847900391e+00 -1.830711603164672852e+00 9.255780605599284172e-05 2.345373213756829500e-04 9.812854113988578320e-05 -7.487563834729371592e-06
3.480000000000000000e+02 5.330753326416015625e+00 -1.863706946372985840e+00 2.935801749117672443e-04 1.288866187678650022e-04 1.267400366486981511e-04 3.714314152603037655e-05
3.490000000000000000e+02 3.187511920928955078e+00 -1.866838097572326660e+00 -3.748958115465939045e-04 -4.536007327260449529e-05 -1.260767749045044184e-04 -5.892726039746776223e-05
3.500000000000000000e+02 4.616135597229003906e+00 -1.869712591171264648e+00 -4.138422955293208361e-04 -7.691969949519261718e-05 -1.472285948693752289e-04 -1.293024433834943920e-05
3.510000000000000000e+02 3.858950853347778320e+00 -2.614128828048706055e+00 -4.862911591771990061e-04 -9.305855201091617346e-05 -1.738049177220091224e-04 -4.480166069242841331e-07
3.520000000000000000e+02 2.474161863327026367e+00 -1.867129564285278320e+00 2.925135195255279541e-04 4.147989966440945864e-05 1.001980199362151325e-04 8.776686445344239473e-05
3.530000000000000000e+02 3.506360948085784912e-01 -1.887951016426086426e+00 -3.163251094520092010e-04 -6.338338153000222519e-06 -9.679903450887650251e-05 -3.629954153439030051e-05
3.540000000000000000e+02 4.148257672786712646e-01 -4.205887603759765625e+01 -1.586748549016192555e-04 -9.827402979135513306e-02 -2.952981181442737579e-02 -4.767948412336409092e-04
3.550000000000000000e+02 1.096204638481140137e+00 -3.951959991455078125e+01 6.029576994478702545e-03 -6.618051230907440186e-02 -1.804528199136257172e-02 -1.095106359571218491e-02
3.560000000000000000e+02 4.240264296531677246e-01 -4.044901657104492188e+01 9.737691842019557953e-03 -9.555845707654953003e-02 -2.574623003602027893e-02 -5.599881988018751144e-03
3.570000000000000000e+02 2.675249576568603516e+00 -4.044898986816406250e+01 -5.153880920261144638e-03 -4.449510946869850159e-02 -1.489469781517982483e-02 -2.433842606842517853e-02
3.580000000000000000e+02 3.402010500431060791e-01 -3.891366958618164062e+01 1.315315160900354385e-02 -7.332576811313629150e-02 -1.805178634822368622e-02 -3.494016826152801514e-03
3.590000000000000000e+02 4.290402829647064209e-01 -3.737992095947265625e+01 1.174374669790267944e-02 -5.659312382340431213e-02 -1.345481257885694504e-02 -3.539159893989562988e-03
3.600000000000000000e+02 4.934658706188201904e-01 -3.576599121093750000e+01 5.970186088234186172e-03 -4.019178077578544617e-02 -1.026647817343473434e-02 -4.256769083440303802e-03
3.610000000000000000e+02 4.273350238800048828e-01 -3.335910034179687500e+01 -7.292427588254213333e-03 -1.936450041830539703e-02 -7.997077889740467072e-03 -3.833979135379195213e-03
3.620000000000000000e+02 3.708651661872863770e-01 -3.098996734619140625e+01 7.412173785269260406e-03 -5.232040770351886749e-03 6.540398462675511837e-04 -9.000067802844569087e-05
3.630000000000000000e+02 3.602793514728546143e-01 -2.941901397705078125e+01 7.078449241816997528e-03 -3.775191435124725103e-04 2.010279102250933647e-03 6.090624374337494373e-04
3.640000000000000000e+02 3.573381006717681885e-01 -2.784718894958496094e+01 6.330187432467937469e-03 1.937601016834378242e-03 2.480336464941501617e-03 8.957160171121358871e-04
3.650000000000000000e+02 3.559988737106323242e-01 -2.705995750427246094e+01 -6.022633053362369537e-03 1.840159879066050053e-03 -1.254741917364299297e-03 -1.272695022635161877e-03
3.660000000000000000e+02 3.551433980464935303e-01 -2.627215003967285156e+01 5.517923273146152496e-03 2.695088507607579231e-03 2.463903510943055153e-03 9.719054214656352997e-04
3.670000000000000000e+02 3.546637892723083496e-01 -2.548403358459472656e+01 -5.198617931455373764e-03 2.190421102568507195e-03 -9.024590253829956055e-04 -9.238373022526502609e-04
3.680000000000000000e+02 3.541584908962249756e-01 -2.469568443298339844e+01 4.814579151570796967e-03 2.616880927234888077e-03 2.229437930509448051e-03 9.365374571643769741e-04
3.690000000000000000e+02 3.518599569797515869e-01 -2.232998847961425781e+01 -4.028197843581438065e-03 1.518492354080080986e-03 -7.529116701334714890e-04 -5.907053127884864807e-04
3.700000000000000000e+02 3.511546254158020020e-01 -2.154179954528808594e+01 3.816530574113130569e-03 1.652724109590053558e-03 1.640776405110955238e-03 7.701548747718334198e-04
3.710000000000000000e+02 3.506483733654022217e-01 -2.075363349914550781e+01 -3.605204401537775993e-03 1.058106543496251106e-03 -7.641293341293931007e-04 -5.241541657596826553e-04
3.720000000000000000e+02 3.503294587135314941e-01 -1.996521949768066406e+01 3.417488187551498413e-03 1.178221777081489563e-03 1.378712942823767662e-03 6.810487248003482819e-04
3.730000000000000000e+02 3.501229882240295410e-01 -1.917665863037109375e+01 -3.221309743821620941e-03 6.689765141345560551e-04 -7.656999514438211918e-04 -4.821883048862218857e-04
3.740000000000000000e+02 3.499323427677154541e-01 -1.838804435729980469e+01 3.053133841603994370e-03 8.056328515522181988e-04 1.157630002126097679e-03 5.967677570879459381e-04
3.750000000000000000e+02 1.753702402114868164e+00 -1.972847366333007812e+01 3.478650003671646118e-03 8.515971712768077850e-04 1.299074152484536171e-03 7.308917120099067688e-04
3.760000000000000000e+02 3.497450053691864014e-01 -1.759956359863281250e+01 -2.877140417695045471e-03 3.802053106483072042e-04 -7.490805000998079777e-04 -4.464429803192615509e-04
3.770000000000000000e+02 3.485203981399536133e-01 -1.523429489135742188e+01 2.415605122223496437e-03 3.467222268227487803e-04 8.286982192657887936e-04 4.539307847153395414e-04
3.780000000000000000e+02 3.480277359485626221e-01 -1.444615554809570312e+01 -2.262532711029052734e-03 5.699203029507771134e-05 -6.616622558794915676e-04 -3.754562349058687687e-04
3.790000000000000000e+02 3.474871218204498291e-01 -1.365785884857177734e+01 2.122528152540326118e-03 2.240848116343840957e-04 7.039838819764554501e-04 3.915050183422863483e-04
3.800000000000000000e+02 3.467299640178680420e-01 -1.286957836151123047e+01 -1.982281450182199478e-03 -1.488708585384301841e-05 -5.991506041027605534e-04 -3.348473983351141214e-04
3.810000000000000000e+02 3.455920815467834473e-01 -1.208149909973144531e+01 1.855285605415701866e-03 1.469045091653242707e-04 6.006570183672010899e-04 3.334604552946984768e-04
3.820000000000000000e+02 1.737898945808410645e+00 -1.342188072204589844e+01 2.124646212905645370e-03 3.005537437275052071e-04 7.275599637068808079e-04 3.554904251359403133e-04
3.830000000000000000e+02 3.440721929073333740e-01 -1.129381656646728516e+01 -1.731882570311427116e-03 -4.998261647415347397e-05 -5.345595418475568295e-04 -2.913514035753905773e-04
3.840000000000000000e+02 3.376621007919311523e-01 -8.932804107666015625e+00 1.407982897944748402e-03 6.844566087238490582e-05 4.429285472724586725e-04 2.278731844853609800e-04
3.850000000000000000e+02 3.351414203643798828e-01 -8.147504806518554688e+00 -1.308561419136822224e-03 -6.127943197498098016e-05 -4.109522269573062658e-04 -1.974493497982621193e-04
3.860000000000000000e+02 3.326665163040161133e-01 -7.362915039062500000e+00 1.211731112562119961e-03 4.428390820976346731e-05 3.768044989556074142e-04 1.749483344610780478e-04
3.870000000000000000e+02 3.304094970226287842e-01 -6.578870296478271484e+00 -1.108396449126303196e-03 -4.945374894305132329e-05 -3.473550605121999979e-04 -1.507043198216706514e-04
3.880000000000000000e+02 3.140866518020629883e+00 -2.603471040725708008e+00 4.096547490917146206e-04 1.174181525129824877e-04 1.581218675710260868e-04 6.915180711075663567e-05
3.890000000000000000e+02 3.288596868515014648e-01 -5.794866561889648438e+00 9.966181823983788490e-04 2.597387901914771646e-05 3.067776269745081663e-04 1.313282700721174479e-04
3.900000000000000000e+02 3.286446332931518555e-01 -5.011163234710693359e+00 -8.734195725992321968e-04 -3.771545380004681647e-05 -2.733405272010713816e-04 -1.127466675825417042e-04
3.910000000000000000e+02 1.763015031814575195e+00 -1.870715737342834473e+00 -2.769864222500473261e-04 -3.210049544577486813e-05 -9.272607712773606181e-05 -8.318176696775481105e-05
3.920000000000000000e+02 7.958131408691406250e+01 -4.205973434448242188e+01 4.524551623035222292e-04 7.959766387939453125e+00 2.388065576553344727e+00 5.702952039428055286e-04
3.930000000000000000e+02 7.952030181884765625e+01 -4.122390747070312500e+01 -1.291642314754426479e-03 7.960451126098632812e+00 2.387747764587402344e+00 1.003447687253355980e-04
3.940000000000000000e+02 7.304618835449218750e+01 -3.841913223266601562e+01 -9.793269447982311249e-03 7.875560760498046875e+00 2.359730243682861328e+00 -1.128149125725030899e-02
3.950000000000000000e+02 5.247282028198242188e+01 -4.085590362548828125e+01 -9.694956243038177490e-02 7.713172435760498047e+00 2.284866809844970703e+00 -1.017819065600633621e-02
3.960000000000000000e+02 3.298459625244140625e+01 -4.049113845825195312e+01 -2.613120973110198975e-01 7.456365108489990234e+00 2.158515930175781250e+00 -4.065016657114028931e-02
3.970000000000000000e+02 1.505556964874267578e+01 -3.930493545532226562e+01 1.457813940942287445e-02 1.975648552179336548e-01 6.364289671182632446e-02 -1.085163503885269165e-01
3.980000000000000000e+02 3.694978654384613037e-01 -3.968003082275390625e+01 -1.273179706186056137e-02 -8.424831926822662354e-02 -2.909403294324874878e-02 -5.769072100520133972e-03
3.990000000000000000e+02 1.431554317474365234e+00 -4.194874572753906250e+01 9.780154796317219734e-04 -8.015732467174530029e-02 -2.375379204750061035e-02 2.235122810816392303e-04
4.000000000000000000e+02 7.956896209716796875e+01 4.204839324951171875e+01 -2.927536261267960072e-04 7.622236728668212891e+00 2.286583185195922852e+00 3.095477004535496235e-04
4.010000000000000000e+02 7.876777648925781250e+01 3.857790374755859375e+01 -4.205527948215603828e-04 7.627753734588623047e+00 2.288199901580810547e+00 1.155024583567865193e-04
4.020000000000000000e+02 7.571020507812500000e+01 3.943661117553710938e+01 -4.731157678179442883e-04 7.647291183471679688e+00 2.294045448303222656e+00 1.855373731814324856e-03
4.030000000000000000e+02 7.954192352294921875e+01 3.958390045166015625e+01 -4.652919596992433071e-04 7.622323036193847656e+00 2.286557197570800781e+00 -1.967329735634848475e-04
4.040000000000000000e+02 7.963529205322265625e+01 3.802537155151367188e+01 -3.588009858503937721e-04 7.622238159179687500e+00 2.286563873291015625e+00 -5.193645847612060606e-05
4.050000000000000000e+02 7.965426635742187500e+01 3.724576568603515625e+01 2.520368725527077913e-04 7.622004985809326172e+00 2.286677122116088867e+00 1.257319090655073524e-04
4.060000000000000000e+02 7.955709838867187500e+01 3.486660003662109375e+01 -2.708630927372723818e-04 7.620710372924804688e+00 2.286131858825683594e+00 1.095877632906194776e-05
4.070000000000000000e+02 7.955780029296875000e+01 3.404838562011718750e+01 2.609181683510541916e-04 7.620454311370849609e+00 2.286214590072631836e+00 2.351252442167606205e-05
4.080000000000000000e+02 7.956349945068359375e+01 3.323469161987304688e+01 -1.758940052241086960e-04 7.620231628417968750e+00 2.286016702651977539e+00 -6.814434163970872760e-05
4.090000000000000000e+02 7.957910156250000000e+01 3.161930847167968750e+01 -4.020307096652686596e-05 7.619785785675048828e+00 2.285923719406127930e+00 -8.077177335508167744e-05
4.100000000000000000e+02 7.958621978759765625e+01 3.081455802917480469e+01 6.067557114874944091e-05 7.619626998901367188e+00 2.285906314849853516e+00 -1.124717600760050118e-04
4.110000000000000000e+02 7.876834106445312500e+01 2.988689613342285156e+01 1.886758109321817756e-04 7.625717163085937500e+00 2.287771701812744141e+00 -1.908136910060420632e-04
4.120000000000000000e+02 7.959915161132812500e+01 2.760164642333984375e+01 6.138137541711330414e-05 7.619547367095947266e+00 2.285882711410522461e+00 -3.089977253694087267e-04
4.130000000000000000e+02 7.960123443603515625e+01 2.679925537109375000e+01 -2.391185989836230874e-05 7.619671344757080078e+00 2.285894155502319336e+00 -3.339497488923370838e-04
4.140000000000000000e+02 7.960369110107421875e+01 2.599727630615234375e+01 6.730891618644818664e-05 7.619863033294677734e+00 2.285979270935058594e+00 -3.897360584232956171e-04
4.150000000000000000e+02 7.960640716552734375e+01 2.519565391540527344e+01 -2.141823642887175083e-05 7.620100021362304688e+00 2.286023616790771484e+00 -4.243822477292269468e-04
4.160000000000000000e+02 7.960896301269531250e+01 2.439407348632812500e+01 7.964329415699467063e-05 7.620430946350097656e+00 2.286153316497802734e+00 -4.944255342707037926e-04
4.170000000000000000e+02 7.881842041015625000e+01 2.506607818603515625e+01 1.980164088308811188e-04 7.626395702362060547e+00 2.287978172302246094e+00 -8.021537214517593384e-04
4.180000000000000000e+02 7.961300659179687500e+01 2.279065322875976562e+01 9.407049219589680433e-05 7.621367454528808594e+00 2.286438465118408203e+00 -6.268139113672077656e-04
4.190000000000000000e+02 7.961772155761718750e+01 2.038519287109375000e+01 -1.254208473255857825e-05 7.623698711395263672e+00 2.287105798721313477e+00 -8.598082931712269783e-04
4.200000000000000000e+02 7.961882781982421875e+01 1.958346748352050781e+01 8.594337850809097290e-05 7.624773502349853516e+00 2.287457942962646484e+00 -9.472664678469300270e-04
4.210000000000000000e+02 7.961991882324218750e+01 1.878166580200195312e+01 -2.786506740903860191e-07 7.625972747802734375e+00 2.287791728973388672e+00 -1.025881734676659107e-03
4.220000000000000000e+02 7.962094116210937500e+01 1.797979545593261719e+01 7.759191794320940971e-05 7.627344608306884766e+00 2.288226604461669922e+00 -1.121120760217308998e-03
4.230000000000000000e+02 7.962297821044921875e+01 1.637571907043457031e+01 7.479202758986502886e-05 7.630551338195800781e+00 2.289187908172607422e+00 -1.310644438490271568e-03
4.240000000000000000e+02 7.962642669677734375e+01 1.396982479095458984e+01 1.102799160435097292e-05 7.636682987213134766e+00 2.291008234024047852e+00 -1.590899191796779633e-03
4.250000000000000000e+02 7.962701416015625000e+01 1.316830635070800781e+01 9.061201126314699650e-05 7.639112472534179688e+00 2.291760921478271484e+00 -1.712650759145617485e-03
4.260000000000000000e+02 7.962760162353515625e+01 1.236678504943847656e+01 -4.882058490807139606e-08 7.641724109649658203e+00 2.292517185211181641e+00 -1.799977268092334270e-03
4.270000000000000000e+02 7.962819671630859375e+01 1.156507110595703125e+01 9.876134572550654411e-05 7.644539833068847656e+00 2.293391466140747070e+00 -1.915415632538497448e-03
4.280000000000000000e+02 7.962870788574218750e+01 1.076317787170410156e+01 -6.625755304412450641e-06 7.647538185119628906e+00 2.294259309768676758e+00 -2.007513307034969330e-03
4.290000000000000000e+02 7.962921142578125000e+01 9.961151123046875000e+00 9.859142301138490438e-05 7.650737285614013672e+00 2.295250892639160156e+00 -2.114366274327039719e-03
4.300000000000000000e+02 7.888574981689453125e+01 9.837888717651367188e+00 1.542602694826200604e-04 7.656570434570312500e+00 2.297017335891723633e+00 -5.107886157929897308e-03
4.310000000000000000e+02 7.963252258300781250e+01 6.753474712371826172e+00 8.551460632588714361e-05 7.665378093719482422e+00 2.299639225006103516e+00 -2.495599444955587387e-03
4.320000000000000000e+02 7.963295745849609375e+01 5.952075004577636719e+00 4.203295247862115502e-06 7.669496536254882812e+00 2.300850152969360352e+00 -2.583230147138237953e-03
4.330000000000000000e+02 7.963330841064453125e+01 5.150524616241455078e+00 7.605187420267611742e-05 7.673806667327880859e+00 2.302164793014526367e+00 -2.682839753106236458e-03
4.340000000000000000e+02 7.963358306884765625e+01 4.348750114440917969e+00 1.084521591110387817e-05 7.678285121917724609e+00 2.303488731384277344e+00 -2.764959121122956276e-03
4.350000000000000000e+02 7.963374328613281250e+01 3.546832561492919922e+00 6.414726522052660584e-05 7.682945728302001953e+00 2.304903030395507812e+00 -2.861773828044533730e-03
4.360000000000000000e+02 7.963427734375000000e+01 1.942577004432678223e+00 4.834373248741030693e-05 7.692755699157714844e+00 2.307841300964355469e+00 -3.028264036402106285e-03
4.370000000000000000e+02 7.963577270507812500e+01 -4.634005427360534668e-01 4.261759022483602166e-05 7.708615303039550781e+00 2.312597513198852539e+00 -3.226842964068055153e-03
4.380000000000000000e+02 7.963574218750000000e+01 -1.264942884445190430e+00 7.584805189253529534e-06 7.714184284210205078e+00 2.314257621765136719e+00 -3.311446635052561760e-03
4.390000000000000000e+02 7.963573455810546875e+01 -2.066621065139770508e+00 5.986749965813942254e-05 7.719873905181884766e+00 2.315980195999145508e+00 -3.352787578478455544e-03
4.400000000000000000e+02 7.963574218750000000e+01 -2.868506908416748047e+00 -1.705523573036771268e-05 7.725690364837646484e+00 2.317702054977416992e+00 -3.436475526541471481e-03
4.410000000000000000e+02 7.963567352294921875e+01 -3.670508861541748047e+00 7.731871301075443625e-05 7.731615543365478516e+00 2.319507837295532227e+00 -3.462388180196285248e-03
4.420000000000000000e+02 7.963571929931640625e+01 -5.274672508239746094e+00 9.644123929319903255e-05 7.743776798248291016e+00 2.323162078857421875e+00 -3.554447321221232414e-03
4.430000000000000000e+02 7.963671112060546875e+01 -7.680338859558105469e+00 -1.041901778080500662e-04 7.762659072875976562e+00 2.328766345977783203e+00 -3.697645384818315506e-03
4.440000000000000000e+02 7.963663482666015625e+01 -8.481952667236328125e+00 1.421416236553341150e-04 7.769092559814453125e+00 2.330770254135131836e+00 -3.670738078653812408e-03
4.450000000000000000e+02 7.963639068603515625e+01 -9.283712387084960938e+00 -1.349313970422372222e-04 7.775573253631591797e+00 2.332631587982177734e+00 -3.751972224563360214e-03
4.460000000000000000e+02 7.963612365722656250e+01 -1.008567428588867188e+01 1.642795104999095201e-04 7.782103061676025391e+00 2.334680080413818359e+00 -3.705654293298721313e-03
4.470000000000000000e+02 7.963585662841796875e+01 -1.088772201538085938e+01 -1.647739845793694258e-04 7.788660049438476562e+00 2.336548566818237305e+00 -3.788423025980591774e-03
4.480000000000000000e+02 7.890601348876953125e+01 -1.020817756652832031e+01 -1.242710859514772892e-04 7.781948566436767578e+00 2.334547281265258789e+00 -9.576123207807540894e-03
4.490000000000000000e+02 7.963511657714843750e+01 -1.249159240722656250e+01 -1.924922544276341796e-04 7.801846981048583984e+00 2.340496301651000977e+00 -3.804193343967199326e-03
4.500000000000000000e+02 7.963475036621093750e+01 -1.489720249176025391e+01 2.060425758827477694e-04 7.821632385253906250e+00 2.346551656723022461e+00 -3.677500644698739052e-03
4.510000000000000000e+02 7.963432312011718750e+01 -1.569876956939697266e+01 -2.307768008904531598e-04 7.828168392181396484e+00 2.348381280899047852e+00 -3.755938727408647537e-03
4.520000000000000000e+02 7.963366699218750000e+01 -1.650047874450683594e+01 2.109477645717561245e-04 7.834685325622558594e+00 2.350468873977661133e+00 -3.625913057476282120e-03
4.530000000000000000e+02 7.963292694091796875e+01 -1.730243110656738281e+01 -2.405487321084365249e-04 7.841123104095458984e+00 2.352264881134033203e+00 -3.702475689351558685e-03
4.540000000000000000e+02 7.963210296630859375e+01 -1.810453987121582031e+01 2.133382658939808607e-04 7.847531318664550781e+00 2.354323387145996094e+00 -3.560976125299930573e-03
4.550000000000000000e+02 7.889615631103515625e+01 -1.742385482788085938e+01 1.445798116037622094e-04 7.837825775146484375e+00 2.351391077041625977e+00 -9.281134232878684998e-03
4.560000000000000000e+02 7.962982177734375000e+01 -1.970874404907226562e+01 2.179519215133041143e-04 7.860096931457519531e+00 2.358094453811645508e+00 -3.475020872429013252e-03
4.570000000000000000e+02 7.962577819824218750e+01 -2.211523437500000000e+01 -2.998517884407192469e-04 7.878175735473632812e+00 2.363362789154052734e+00 -3.411479294300079346e-03
4.580000000000000000e+02 7.962368011474609375e+01 -2.291727447509765625e+01 2.407883148407563567e-04 7.883959770202636719e+00 2.365260124206542969e+00 -3.216977231204509735e-03
4.590000000000000000e+02 7.962145233154296875e+01 -2.371951293945312500e+01 -3.203108208253979683e-04 7.889558315277099609e+00 2.366771459579467773e+00 -3.266448620706796646e-03
4.600000000000000000e+02 7.961927032470703125e+01 -2.452167892456054688e+01 2.583384921308606863e-04 7.895034313201904297e+00 2.368587732315063477e+00 -3.061660798266530037e-03
4.610000000000000000e+02 7.961481475830078125e+01 -2.612560653686523438e+01 2.921678242273628712e-04 7.905499935150146484e+00 2.371737718582153320e+00 -2.909752773120999336e-03
4.620000000000000000e+02 7.960760498046875000e+01 -2.853137207031250000e+01 -4.392407427076250315e-04 7.920062541961669922e+00 2.375886917114257812e+00 -2.800386166200041771e-03
4.630000000000000000e+02 7.960527801513671875e+01 -2.933085823059082031e+01 3.283968835603445768e-04 7.924583435058593750e+00 2.377473592758178711e+00 -2.515680622309446335e-03
4.640000000000000000e+02 7.960213470458984375e+01 -3.012911415100097656e+01 -4.702549776993691921e-04 7.928814411163330078e+00 2.378503322601318359e+00 -2.540700137615203857e-03
4.650000000000000000e+02 7.959793090820312500e+01 -3.092659378051757812e+01 3.172475262545049191e-04 7.932811260223388672e+00 2.379938602447509766e+00 -2.226773183792829514e-03
4.660000000000000000e+02 7.959268951416015625e+01 -3.172337341308593750e+01 -3.936463908758014441e-04 7.936511516571044922e+00 2.380835294723510742e+00 -2.290189033374190331e-03
4.670000000000000000e+02 7.957756805419921875e+01 -3.331920242309570312e+01 -2.562645531725138426e-04 7.942956447601318359e+00 2.382810115814208984e+00 -1.874523935839533806e-03
4.680000000000000000e+02 7.955827331542968750e+01 -3.570541381835937500e+01 9.805466106627136469e-05 7.949691772460937500e+00 2.384936809539794922e+00 -1.346520846709609032e-03
4.690000000000000000e+02 7.955784606933593750e+01 -3.650213623046875000e+01 -3.099176101386547089e-04 7.951610088348388672e+00 2.385390043258666992e+00 -1.217527315020561218e-03
4.700000000000000000e+02 7.955445098876953125e+01 -3.729841613769531250e+01 3.134876897092908621e-04 7.953389644622802734e+00 2.386111021041870117e+00 -1.150600495748221874e-03
4.710000000000000000e+02 7.955258178710937500e+01 -3.809021377563476562e+01 -7.168040028773248196e-04 7.954881191253662109e+00 2.386249303817749023e+00 -8.526098681613802910e-04
4.720000000000000000e+02 7.955864715576171875e+01 -3.887604141235351562e+01 1.015576883219182491e-03 7.956353187561035156e+00 2.387210607528686523e+00 -1.090914825908839703e-03
4.730000000000000000e+02 7.954989624023437500e+01 -4.044017410278320312e+01 3.804829902946949005e-04 7.960013389587402344e+00 2.388118267059326172e+00 -8.583822636865079403e-04
4.740000000000000000e+02 3.827340304851531982e-01 4.205902099609375000e+01 2.857566345483064651e-03 -1.015178039669990540e-01 -2.959807030856609344e-02 3.688249737024307251e-03
4.750000000000000000e+02 4.048804342746734619e-01 4.121195983886718750e+01 -6.616140715777873993e-03 -9.618884325027465820e-02 -3.084149584174156189e-02 1.229060464538633823e-03
4.760000000000000000e+02 4.151875495910644531e+00 3.843425750732421875e+01 1.975419465452432632e-03 -2.351128682494163513e-02 -6.460760254412889481e-03 2.426431328058242798e-02
4.770000000000000000e+02 4.765959548950195312e+01 4.078812026977539062e+01 -4.047845676541328430e-02 7.850909709930419922e+00 2.343129396438598633e+00 7.015030365437269211e-03
4.780000000000000000e+02 7.064470672607421875e+01 3.818668365478515625e+01 -4.027160757686942816e-04 7.684181690216064453e+00 2.305133581161499023e+00 4.344448389019817114e-04
4.790000000000000000e+02 7.861837768554687500e+01 3.931789398193359375e+01 -2.005350688705220819e-04 7.629010677337646484e+00 2.288643121719360352e+00 -2.362416562391445041e-04
4.800000000000000000e+02 7.948467254638671875e+01 4.118867874145507812e+01 6.626957328990101814e-04 7.621765613555908203e+00 2.286728620529174805e+00 2.361200167797505856e-04
4.810000000000000000e+02 3.257251381874084473e-01 1.891462564468383789e+00 1.017290778690949082e-04 4.333532160671893507e-06 3.181878128089010715e-05 -1.182097912533208728e-05
4.820000000000000000e+02 9.812458157539367676e-01 1.872164011001586914e+00 -1.151588730863295496e-04 -1.633133251743856817e-05 -3.944706259062513709e-05 2.749936720647383481e-05
4.830000000000000000e+02 4.227571487426757812e+00 2.445324420928955078e+00 -1.470015849918127060e-04 -9.657105692895129323e-05 -7.307179475901648402e-05 8.715430158190429211e-05
4.840000000000000000e+02 3.101872503757476807e-01 4.260924816131591797e+00 -2.442206023260951042e-04 -1.745034205669071525e-05 -7.850128167774528265e-05 4.698466727859340608e-05
4.850000000000000000e+02 3.144318759441375732e-01 5.055906295776367188e+00 2.859278756659477949e-04 1.169270308309933171e-05 8.928617171477526426e-05 -5.928392783971503377e-05
4.860000000000000000e+02 3.210536241531372070e-01 5.854211330413818359e+00 -3.262691898271441460e-04 -2.355951983190607280e-05 -1.049486090778373182e-04 7.170198659878224134e-05
4.870000000000000000e+02 3.375271558761596680e-01 8.252844810485839844e+00 5.003207479603588581e-04 5.310810593073256314e-05 1.660286652622744441e-04 -1.393890706822276115e-04
4.880000000000000000e+02 3.417040109634399414e-01 9.051916122436523438e+00 -5.689664394594728947e-04 -2.099740413541439921e-05 -1.769891532603651285e-04 1.534081384306773543e-04
4.890000000000000000e+02 3.461861908435821533e-01 9.851914405822753906e+00 6.378811085596680641e-04 9.027242049342021346e-05 2.184460463467985392e-04 -1.873661967692896724e-04
4.900000000000000000e+02 3.501240611076354980e-01 1.065384197235107422e+01 -7.072410662658512592e-04 7.092906798789044842e-06 -2.100444544339552522e-04 1.904650125652551651e-04
4.910000000000000000e+02 3.529130816459655762e-01 1.145474624633789062e+01 7.854492287151515484e-04 1.523870596429333091e-04 2.813508908730000257e-04 -2.377848140895366669e-04
4.920000000000000000e+02 1.060825109481811523e+00 1.127955818176269531e+01 -8.014237973839044571e-04 3.830012065009213984e-05 -2.289370895596221089e-04 1.884672092273831367e-04
4.930000000000000000e+02 3.581024408340454102e-01 1.305764675140380859e+01 9.115434368140995502e-04 2.499964029993861914e-04 3.484619664959609509e-04 -2.804139512591063976e-04
4.940000000000000000e+02 3.602271080017089844e-01 1.546561336517333984e+01 -1.077441731467843056e-03 3.643277741502970457e-04 -2.139341668225824833e-04 2.576339466031640768e-04
4.950000000000000000e+02 3.605528771877288818e-01 1.626797866821289062e+01 1.151168020442128181e-03 6.626763497479259968e-04 5.441533285193145275e-04 -3.967236843891441822e-04
4.960000000000000000e+02 3.614927828311920166e-01 1.707074928283691406e+01 -1.212178845889866352e-03 6.295985658653080463e-04 -1.747740607243031263e-04 2.912557974923402071e-04
4.970000000000000000e+02 3.622527718544006348e-01 1.787434768676757812e+01 1.318918541073799133e-03 1.024469733238220215e-03 7.030164706520736217e-04 -4.923036904074251652e-04
4.980000000000000000e+02 3.629401922225952148e-01 1.867769622802734375e+01 -1.435810932889580727e-03 9.767963783815503120e-04 -1.377043518004938960e-04 3.668581775855273008e-04
4.990000000000000000e+02 3.654536604881286621e-01 2.189415168762207031e+01 -2.467172686010599136e-03 1.801273203454911709e-03 -1.997698855120688677e-04 7.638724055141210556e-04
5.000000000000000000e+02 3.655948638916015625e-01 2.269654846191406250e+01 2.841344103217124939e-03 2.596469828858971596e-03 1.631344202905893326e-03 -1.101064612157642841e-03
5.010000000000000000e+02 3.666021823883056641e-01 2.349977874755859375e+01 -3.284516511484980583e-03 2.117692958563566208e-03 -3.500470775179564953e-04 1.078536384738981724e-03
5.020000000000000000e+02 3.678693473339080811e-01 2.430386352539062500e+01 3.658245550468564034e-03 2.852869220077991486e-03 1.953334314748644829e-03 -1.260066404938697815e-03
5.030000000000000000e+02 3.688839375972747803e-01 2.510794258117675781e+01 -4.156431183218955994e-03 2.053053351119160652e-03 -6.310133612714707851e-04 1.430453732609748840e-03
5.040000000000000000e+02 1.101161241531372070e+00 2.409950065612792969e+01 -3.527208231389522552e-03 1.169652095995843410e-03 -7.072668522596359253e-04 1.412867452017962933e-03
5.050000000000000000e+02 3.723500669002532959e-01 2.671535682678222656e+01 -4.954074975103139877e-03 1.161521999165415764e-03 -1.137765822932124138e-03 1.844648970291018486e-03
5.060000000000000000e+02 3.819678723812103271e-01 2.912728691101074219e+01 5.575565621256828308e-03 -2.544832881540060043e-03 9.092197287827730179e-04 -5.576190305873751640e-04
5.070000000000000000e+02 3.870345652103424072e-01 2.993271636962890625e+01 -6.109654437750577927e-03 -5.911746993660926819e-03 -3.606420243158936501e-03 3.050252795219421387e-03
5.080000000000000000e+02 3.939631581306457520e-01 3.073843765258789062e+01 5.857059266418218613e-03 -8.909764699637889862e-03 -9.158117463812232018e-04 3.211628063581883907e-04
5.090000000000000000e+02 4.032184779644012451e-01 3.154479408264160156e+01 -6.500445771962404251e-03 -1.389730628579854965e-02 -6.119325757026672363e-03 3.940851893275976181e-03
5.100000000000000000e+02 1.196140408515930176e+00 3.134474372863769531e+01 4.980682861059904099e-03 -1.290448009967803955e-02 -2.377139171585440636e-03 5.260823760181665421e-03
5.110000000000000000e+02 4.275973737239837646e-01 3.316189956665039062e+01 -6.867619697004556656e-03 -2.596588805317878723e-02 -9.850052185356616974e-03 5.060379859060049057e-03
5.120000000000000000e+02 4.567576646804809570e-01 3.559426498413085938e+01 6.418535485863685608e-03 -5.085426941514015198e-02 -1.333072036504745483e-02 4.487021826207637787e-03
5.130000000000000000e+02 4.554861783981323242e-01 3.640999603271484375e+01 -5.729571450501680374e-03 -5.932398140430450439e-02 -1.951606571674346924e-02 5.298177711665630341e-03
5.140000000000000000e+02 4.431885480880737305e-01 3.722605133056640625e+01 5.539148114621639252e-03 -6.817268580198287964e-02 -1.879006065428256989e-02 4.514173138886690140e-03
5.150000000000000000e+02 4.184066057205200195e-01 3.803739166259765625e+01 -5.080921575427055359e-03 -7.652927935123443604e-02 -2.448306046426296234e-02 4.716124851256608963e-03
5.160000000000000000e+02 3.918935954570770264e-01 3.883722686767578125e+01 6.526948418468236923e-03 -8.387527614831924438e-02 -2.320449985563755035e-02 2.622704952955245972e-03
5.170000000000000000e+02 4.039833247661590576e-01 4.040336990356445312e+01 8.182075805962085724e-03 -9.468559920787811279e-02 -2.595105767250061035e-02 1.961788802873343229e-04
5.180000000000000000e+02 1.035535144805908203e+01 1.801832556724548340e+00 -1.259030541405081749e-04 -4.041636202600784600e-05 -4.989582521375268698e-05 -6.621294596698135138e-05
5.190000000000000000e+02 8.970915794372558594e+00 1.812320947647094727e+00 -1.169244351331144571e-04 -6.639650382567197084e-05 -5.499628241523168981e-05 -3.623455631895922124e-05
5.200000000000000000e+02 8.300046920776367188e+00 1.812625885009765625e+00 1.167285954579710960e-04 6.972899427637457848e-05 5.593727837549522519e-05 1.540135963296052068e-05
5.210000000000000000e+02 5.629496574401855469e+00 1.809655666351318359e+00 1.268842461286112666e-04 8.639160660095512867e-05 6.398275581886991858e-05 -7.238434773171320558e-05
5.220000000000000000e+02 4.964549064636230469e+00 1.810510993003845215e+00 -1.104944894905202091e-04 -1.111910532927140594e-04 -6.650566501775756478e-05 8.291328413179144263e-05
5.230000000000000000e+02 4.300019264221191406e+00 1.813145041465759277e+00 1.037242400343529880e-04 1.049878337653353810e-04 6.261361704673618078e-05 -7.307471969397738576e-05
5.240000000000000000e+02 3.635757446289062500e+00 1.818562984466552734e+00 -1.051104336511343718e-04 -9.031900117406621575e-05 -5.862882971996441483e-05 7.297995034605264664e-05
5.250000000000000000e+02 2.971333980560302734e+00 1.827621579170227051e+00 1.026689933496527374e-04 8.045423601288348436e-05 5.493696880876086652e-05 -5.945027442066930234e-05
5.260000000000000000e+02 2.306789398193359375e+00 1.840222358703613281e+00 -1.134385020122863352e-04 -5.710861296392977238e-05 -5.116413376526907086e-05 4.382931365398690104e-05
5.270000000000000000e+02 1.642773151397705078e+00 1.855329275131225586e+00 1.217296157847158611e-04 3.301691685919649899e-05 4.642396015697158873e-05 -3.176209065713919699e-05
5.280000000000000000e+02 1.183040332794189453e+01 1.782722711563110352e+00 -1.165957582998089492e-04 2.235756619484163821e-05 -2.827145908668171614e-05 -9.428868361283093691e-05
5.290000000000000000e+02 1.478742408752441406e+01 4.160446166992187500e+00 5.379081703722476959e-04 -2.098403456329833716e-05 1.550772285554558039e-04 7.465509406756609678e-05
5.300000000000000000e+02 1.485577869415283203e+01 3.371019840240478516e+00 -4.716220137197524309e-04 -6.120559555711224675e-05 -1.598482776898890734e-04 -6.370577466441318393e-05
5.310000000000000000e+02 1.378148269653320312e+01 3.858805418014526367e+00 5.188906798139214516e-04 -6.629474955843761563e-05 1.357787841698154807e-04 -1.807323715183883905e-04
5.320000000000000000e+02 1.393987083435058594e+01 2.550040483474731445e+00 2.067244349746033549e-04 9.778998901310842484e-06 6.495103298220783472e-05 -4.907210313831456006e-05
5.330000000000000000e+02 1.489426422119140625e+01 1.804514050483703613e+00 -3.319782554171979427e-04 -3.966495205531828105e-05 -1.114929546019993722e-04 2.427847175567876548e-05
5.340000000000000000e+02 1.358305931091308594e+01 1.805226445198059082e+00 1.516967313364148140e-04 -7.834014104446396232e-05 2.200697781518101692e-05 -1.480600712966406718e-05
5.350000000000000000e+02 1.403501510620117188e+01 5.047043800354003906e+00 7.567670545540750027e-04 1.309173967456445098e-04 2.663053164724260569e-04 -3.505991480778902769e-05
5.360000000000000000e+02 1.099300765991210938e+01 2.429286003112792969e+00 -1.608672901056706905e-04 -4.287691626814194024e-05 -6.112326082075014710e-05 -9.712460450828075409e-05
5.370000000000000000e+02 1.477024364471435547e+01 5.785766601562500000e+00 8.529946790076792240e-04 -8.239167982537765056e-06 2.534266677685081959e-04 8.235149289248511195e-05
5.380000000000000000e+02 1.477935981750488281e+01 6.573475837707519531e+00 -1.046397141180932522e-03 -2.821390989993233234e-05 -3.223833045922219753e-04 -8.965029701357707381e-05
5.390000000000000000e+02 1.478240871429443359e+01 7.359231948852539062e+00 1.208780566230416298e-03 3.843165904982015491e-05 3.741636464837938547e-04 1.272533263545483351e-04
5.400000000000000000e+02 1.408410263061523438e+01 9.618771553039550781e+00 1.287495018914341927e-03 1.877171889645978808e-04 4.425636725500226021e-04 2.830789308063685894e-04
5.410000000000000000e+02 1.476719188690185547e+01 9.721755981445312500e+00 -1.595967914909124374e-03 -3.187651964253745973e-05 -4.883533110842108727e-04 -2.349630958633497357e-04
5.420000000000000000e+02 1.475536823272705078e+01 1.051225662231445312e+01 1.710168318822979927e-03 1.282814919250085950e-04 5.515349330380558968e-04 2.895938523579388857e-04
5.430000000000000000e+02 1.469985961914062500e+01 1.291073513031005859e+01 -2.006543334573507309e-03 1.969995500985532999e-04 -5.428631557151675224e-04 -1.622966228751465678e-04
5.440000000000000000e+02 1.467700099945068359e+01 1.452572345733642578e+01 -2.110109664499759674e-03 2.900280233006924391e-04 -5.460244719870388508e-04 -8.038788655539974570e-05
5.450000000000000000e+02 1.470577526092529297e+01 1.614865875244140625e+01 -2.779149450361728668e-03 5.698230816051363945e-04 -6.627978873439133167e-04 -5.359800343285314739e-05
5.460000000000000000e+02 1.473450469970703125e+01 1.775063896179199219e+01 -3.756050951778888702e-03 9.138343739323318005e-04 -8.526649908162653446e-04 9.432787919649854302e-05
5.470000000000000000e+02 1.403349018096923828e+01 1.934607696533203125e+01 3.962125163525342941e-03 1.331941108219325542e-03 1.588219893164932728e-03 4.481622599996626377e-04
5.480000000000000000e+02 1.474442863464355469e+01 1.854385757446289062e+01 4.191336221992969513e-03 1.223613624460995197e-03 1.624484895728528500e-03 1.127921277657151222e-04
5.490000000000000000e+02 1.475328254699707031e+01 1.933468627929687500e+01 -4.538570065051317215e-03 1.358388341031968594e-03 -9.540545288473367691e-04 1.024344237521290779e-04
5.500000000000000000e+02 1.476014423370361328e+01 2.012603950500488281e+01 4.879388492554426193e-03 1.905740122310817242e-03 2.035538665950298309e-03 2.561814035288989544e-04
5.510000000000000000e+02 1.490765762329101562e+01 2.329413604736328125e+01 6.263691000640392303e-03 3.348740050569176674e-03 2.883729292079806328e-03 6.503094919025897980e-04
5.520000000000000000e+02 1.497503948211669922e+01 2.408565139770507812e+01 -6.572233978658914566e-03 3.119537839666008949e-03 -1.035808701999485493e-03 1.578923547640442848e-05
5.530000000000000000e+02 1.504043960571289062e+01 2.487583351135253906e+01 6.879722699522972107e-03 3.435187274590134621e-03 3.094472922384738922e-03 6.505767232738435268e-04
5.540000000000000000e+02 1.508526992797851562e+01 2.567071914672851562e+01 -7.327180355787277222e-03 3.098928835242986679e-03 -1.268475432880222797e-03 -3.516095457598567009e-04
5.550000000000000000e+02 1.514133358001708984e+01 2.646876144409179688e+01 7.447781041264533997e-03 2.758833812549710274e-03 3.061984432861208916e-03 1.198266254505142570e-04
5.560000000000000000e+02 1.522323417663574219e+01 2.726582145690917969e+01 -8.231991901993751526e-03 1.136031467467546463e-03 -2.128788270056247711e-03 -8.119344129227101803e-04
5.570000000000000000e+02 1.531410598754882812e+01 2.806328010559082031e+01 7.492119446396827698e-03 -9.568949462845921516e-04 1.960567431524395943e-03 -1.425672904588282108e-03
5.580000000000000000e+02 1.584299182891845703e+01 3.123438453674316406e+01 1.307186437770724297e-03 -2.726880088448524475e-02 -7.788484450429677963e-03 -1.382505800575017929e-02
5.590000000000000000e+02 1.490956497192382812e+01 3.047435379028320312e+01 -4.293510224670171738e-03 -1.593157090246677399e-02 -6.067524198442697525e-03 -1.662350818514823914e-02
5.600000000000000000e+02 1.622382926940917969e+01 3.279913330078125000e+01 -9.275687858462333679e-03 -5.702761933207511902e-02 -1.989099197089672089e-02 -3.089794330298900604e-02
5.610000000000000000e+02 1.577592563629150391e+01 3.537349319458007812e+01 -1.487986743450164795e-01 -6.481906026601791382e-02 -6.408531963825225830e-02 -1.236806660890579224e-01
5.620000000000000000e+02 1.705355453491210938e+01 3.594538497924804688e+01 -1.105411574244499207e-01 -2.628913521766662598e-01 -1.120297536253929138e-01 -1.815338283777236938e-01
5.630000000000000000e+02 1.768443298339843750e+01 3.739011383056640625e+01 -1.445133805274963379e+00 -6.487743258476257324e-01 -6.281724572181701660e-01 -7.761937975883483887e-01
5.640000000000000000e+02 2.096553802490234375e+01 3.448741912841796875e+01 9.320129454135894775e-02 9.507674217224121094e+00 2.880262613296508789e+00 -3.136183321475982666e-01
5.650000000000000000e+02 2.099507522583007812e+01 3.533385467529296875e+01 5.394724607467651367e-01 1.014017581939697266e+01 3.203894615173339844e+00 -7.278096675872802734e-01
5.660000000000000000e+02 2.092829704284667969e+01 3.366225433349609375e+01 8.385678380727767944e-02 9.101715087890625000e+00 2.755671501159667969e+00 -1.730495989322662354e-01
5.670000000000000000e+02 2.081272315979003906e+01 3.045641326904296875e+01 2.560209482908248901e-02 8.524036407470703125e+00 2.564891576766967773e+00 -3.449648246169090271e-02
5.680000000000000000e+02 2.080871391296386719e+01 2.886161994934082031e+01 1.613704301416873932e-02 8.411890029907226562e+00 2.528408288955688477e+00 -2.126447483897209167e-02
5.690000000000000000e+02 2.081343841552734375e+01 2.806373023986816406e+01 -9.253434836864471436e-03 8.373625755310058594e+00 2.509311676025390625e+00 -1.583279855549335480e-02
5.700000000000000000e+02 2.081820487976074219e+01 2.646153640747070312e+01 -5.226156674325466156e-03 8.316709518432617188e+00 2.493444919586181641e+00 -1.113882660865783691e-02
5.710000000000000000e+02 2.081703186035156250e+01 2.726383209228515625e+01 9.336823597550392151e-03 8.342179298400878906e+00 2.505454778671264648e+00 -1.416694838553667068e-02
5.720000000000000000e+02 2.081727790832519531e+01 2.565809440612792969e+01 5.917632486671209335e-03 8.295444488525390625e+00 2.490408658981323242e+00 -9.452890604734420776e-03
5.730000000000000000e+02 2.080974388122558594e+01 2.324920272827148438e+01 -2.553438534960150719e-03 8.253229141235351562e+00 2.475202560424804688e+00 -4.870272241532802582e-03
5.740000000000000000e+02 2.080534934997558594e+01 2.164504814147949219e+01 -1.895053545013070107e-03 8.238177299499511719e+00 2.470884799957275391e+00 -2.767760306596755981e-03
5.750000000000000000e+02 2.080743789672851562e+01 2.244710731506347656e+01 3.173771081492304802e-03 8.244433403015136719e+00 2.474282026290893555e+00 -3.723589004948735237e-03
5.760000000000000000e+02 2.080224418640136719e+01 2.004107666015625000e+01 -1.350338337942957878e-03 8.231159210205078125e+00 2.468942642211914062e+00 -1.083417562767863274e-03
5.770000000000000000e+02 2.080374145507812500e+01 2.084307289123535156e+01 2.376889344304800034e-03 8.233629226684570312e+00 2.470801830291748047e+00 -1.867196522653102875e-03
5.780000000000000000e+02 2.080107688903808594e+01 1.923929786682128906e+01 1.817614072933793068e-03 8.230215072631835938e+00 2.469609975814819336e+00 -2.699061005841940641e-04
5.790000000000000000e+02 2.079934120178222656e+01 1.763614463806152344e+01 1.478499849326908588e-03 8.233525276184082031e+00 2.470500946044921875e+00 1.247186679393053055e-03
5.800000000000000000e+02 2.079704856872558594e+01 1.523094081878662109e+01 -3.916010900866240263e-04 8.251656532287597656e+00 2.475379705429077148e+00 3.649636404588818550e-03
5.810000000000000000e+02 2.079595947265625000e+01 1.362703037261962891e+01 -8.499710384057834744e-05 8.274258613586425781e+00 2.482252120971679688e+00 5.839894060045480728e-03
5.820000000000000000e+02 2.079540634155273438e+01 1.202340316772460938e+01 3.281946410425007343e-04 8.308469772338867188e+00 2.492639303207397461e+00 8.874597959220409393e-03
5.830000000000000000e+02 2.079535865783691406e+01 1.122176456451416016e+01 1.447950373403728008e-03 8.331387519836425781e+00 2.499850749969482422e+00 1.101986039429903030e-02
5.840000000000000000e+02 2.079533386230468750e+01 9.618542671203613281e+00 2.146416576579213142e-03 8.395024299621582031e+00 2.519151210784912109e+00 1.712062768638134003e-02
5.850000000000000000e+02 2.151016044616699219e+01 7.238721370697021484e+00 2.916407398879528046e-02 8.525252342224121094e+00 2.566324949264526367e+00 1.089042872190475464e-01
5.860000000000000000e+02 2.079364967346191406e+01 7.210730075836181641e+00 9.004653431475162506e-03 8.580770492553710938e+00 2.576932668685913086e+00 4.141293093562126160e-02
5.870000000000000000e+02 2.079079437255859375e+01 6.407137393951416016e+00 5.336681380867958069e-03 8.668479919433593750e+00 2.602144956588745117e+00 5.735091865062713623e-02
5.880000000000000000e+02 2.078744125366210938e+01 5.602531433105468750e+00 1.823290809988975525e-02 8.884981155395507812e+00 2.670964241027832031e+00 8.492492884397506714e-02
5.890000000000000000e+02 2.077761077880859375e+01 4.795932292938232422e+00 1.329423338174819946e-01 9.263557434082031250e+00 2.818949937820434570e+00 2.604365050792694092e-01
5.900000000000000000e+02 2.143223571777343750e+01 3.989487409591674805e+00 2.548127472400665283e-01 8.621888160705566406e+00 2.663010358810424805e+00 3.098941743373870850e-01
5.910000000000000000e+02 2.043919944763183594e+01 7.953523993492126465e-01 -4.488869756460189819e-02 7.415182590484619141e+00 2.211088180541992188e+00 5.687938928604125977e-01
5.920000000000000000e+02 2.038587760925292969e+01 1.072585466317832470e-03 -1.099694222211837769e-01 7.307405471801757812e+00 2.159230709075927734e+00 3.354126214981079102e-01
5.930000000000000000e+02 2.034692955017089844e+01 -1.599738478660583496e+00 1.175640597939491272e-01 8.258808135986328125e+00 2.512911558151245117e+00 3.203882873058319092e-01
5.940000000000000000e+02 2.113853836059570312e+01 -6.882891058921813965e-03 -1.726255863904953003e-01 7.894813060760498047e+00 2.316656351089477539e+00 4.526632130146026611e-01
5.950000000000000000e+02 2.106037521362304688e+01 -1.603292107582092285e+00 1.659831553697586060e-01 7.800534248352050781e+00 2.389955282211303711e+00 4.111878573894500732e-01
5.960000000000000000e+02 2.086813545227050781e+01 -4.792161464691162109e+00 -1.247938573360443115e-01 7.526368141174316406e+00 2.220472335815429688e+00 3.000280857086181641e-01
5.970000000000000000e+02 2.004716110229492188e+01 -7.186328887939453125e+00 -7.010854780673980713e-03 7.468717575073242188e+00 2.238512039184570312e+00 8.753334730863571167e-02
5.980000000000000000e+02 2.005325317382812500e+01 -6.386494159698486328e+00 -3.907709568738937378e-02 7.237920284271240234e+00 2.159652948379516602e+00 1.364862024784088135e-01
5.990000000000000000e+02 2.003479194641113281e+01 -9.593164443969726562e+00 5.803569778800010681e-02 8.080178260803222656e+00 2.441464185714721680e+00 1.680931895971298218e-01
6.000000000000000000e+02 2.001320266723632812e+01 -1.039715480804443359e+01 9.724434465169906616e-02 8.077037811279296875e+00 2.452284574508666992e+00 3.203813731670379639e-01
6.010000000000000000e+02 1.994423484802246094e+01 -1.199726676940917969e+01 -7.721203565597534180e-02 7.576602458953857422e+00 2.249817132949829102e+00 1.936226636171340942e-01
6.020000000000000000e+02 1.986605072021484375e+01 -1.441334724426269531e+01 1.335350275039672852e-01 8.253435134887695312e+00 2.516091108322143555e+00 6.128886938095092773e-01
6.030000000000000000e+02 1.969933700561523438e+01 -1.601466369628906250e+01 6.102319061756134033e-02 7.323338985443115234e+00 2.215308666229248047e+00 7.307285070419311523e-01
6.040000000000000000e+02 2.040204238891601562e+01 -1.684496307373046875e+01 -9.967169910669326782e-02 7.337471485137939453e+00 2.171339988708496094e+00 4.375642836093902588e-01
6.050000000000000000e+02 1.949466896057128906e+01 -1.840492630004882812e+01 2.155039692297577858e-03 6.799652099609375000e+00 2.040542125701904297e+00 4.062377810478210449e-01
6.060000000000000000e+02 2.029552078247070312e+01 -1.843467521667480469e+01 -1.063684448599815369e-01 7.033915042877197266e+00 2.078263998031616211e+00 3.315609991550445557e-01
6.070000000000000000e+02 1.945019149780273438e+01 -1.920186424255371094e+01 -7.418465614318847656e-02 6.675673484802246094e+00 1.980446577072143555e+00 2.935611307621002197e-01
6.080000000000000000e+02 1.941750717163085938e+01 -2.079438781738281250e+01 -3.399268537759780884e-02 7.034230232238769531e+00 2.100071430206298828e+00 1.032605767250061035e-01
6.090000000000000000e+02 1.941092109680175781e+01 -2.159218597412109375e+01 9.221611171960830688e-02 7.397294521331787109e+00 2.246853113174438477e+00 1.638539731502532959e-01
6.100000000000000000e+02 1.938241958618164062e+01 -2.238914489746093750e+01 7.461000233888626099e-02 7.308121204376220703e+00 2.214819431304931641e+00 3.143483102321624756e-01
6.110000000000000000e+02 1.933686828613281250e+01 -2.318274497985839844e+01 -6.341891735792160034e-02 6.804667949676513672e+00 2.022374629974365234e+00 2.769405543804168701e-01
6.120000000000000000e+02 2.013832283020019531e+01 -2.315943527221679688e+01 -1.035470440983772278e-01 7.213433265686035156e+00 2.132965803146362305e+00 1.141085699200630188e-01
6.130000000000000000e+02 1.933391761779785156e+01 -2.636454772949218750e+01 1.748853176832199097e-02 7.211160659790039062e+00 2.168594837188720703e+00 4.148839786648750305e-02
6.140000000000000000e+02 1.935402297973632812e+01 -2.796258735656738281e+01 2.329817786812782288e-02 7.355272769927978516e+00 2.213571310043334961e+00 3.918445110321044922e-02
6.150000000000000000e+02 1.936483573913574219e+01 -2.876343154907226562e+01 -2.029038034379482269e-02 7.426068305969238281e+00 2.221733331680297852e+00 3.916847705841064453e-02
6.160000000000000000e+02 1.937766647338867188e+01 -2.956799697875976562e+01 2.669631876051425934e-02 7.503827571868896484e+00 2.259157180786132812e+00 4.764486476778984070e-02
6.170000000000000000e+02 1.939440727233886719e+01 -3.037934684753417969e+01 -1.173486281186342239e-02 7.595004558563232422e+00 2.274981021881103516e+00 5.892353132367134094e-02
6.180000000000000000e+02 2.024314308166503906e+01 -3.457600021362304688e+01 6.396700739860534668e-01 7.832916736602783203e+00 2.541775941848754883e+00 7.316448092460632324e-01
6.190000000000000000e+02 1.943619918823242188e+01 -3.285620498657226562e+01 5.536825582385063171e-02 8.070645332336425781e+00 2.437804222106933594e+00 1.659185886383056641e-01
6.200000000000000000e+02 1.929890632629394531e+01 -3.524900436401367188e+01 5.267883539199829102e-01 9.173893928527832031e+00 2.910204648971557617e+00 1.124392271041870117e+00
6.210000000000000000e+02 2.018717956542968750e+01 -3.702923965454101562e+01 6.257033348083496094e-01 6.993786811828613281e+00 2.285846948623657227e+00 7.750800848007202148e-01
6.220000000000000000e+02 1.428763389587402344e+01 -3.603294754028320312e+01 -2.624887824058532715e-01 -1.998367756605148315e-01 -1.386976689100265503e-01 1.181932538747787476e-01
6.230000000000000000e+02 1.472829914093017578e+01 -3.001805496215820312e+01 1.175897195935249329e-02 2.559239976108074188e-03 4.295463673770427704e-03 -1.037905807606875896e-03
6.240000000000000000e+02 1.472687244415283203e+01 -2.922069358825683594e+01 -1.080603338778018951e-02 2.931881463155150414e-03 -2.362245693802833557e-03 1.478451536968350410e-03
6.250000000000000000e+02 1.472939968109130859e+01 -2.842344665527343750e+01 9.883674792945384979e-03 3.856058465316891670e-03 4.121920093894004822e-03 -6.554475985467433929e-04
6.260000000000000000e+02 1.474659156799316406e+01 -2.682719612121582031e+01 9.342621080577373505e-03 3.664240008220076561e-03 3.902058349922299385e-03 -5.198902217671275139e-04
6.270000000000000000e+02 1.475268459320068359e+01 -2.602907180786132812e+01 -9.087062440812587738e-03 3.508712397888302803e-03 -1.673505059443414211e-03 3.473245305940508842e-04
6.280000000000000000e+02 1.473767280578613281e+01 -2.762578010559082031e+01 -9.610685519874095917e-03 3.709983313456177711e-03 -1.770210568793118000e-03 5.014391499571502209e-04
6.290000000000000000e+02 1.267978382110595703e+01 -2.358030319213867188e+01 -7.086463738232851028e-03 1.205113803735002875e-04 -2.089785644784569740e-03 1.502574887126684189e-04
6.300000000000000000e+02 1.475757408142089844e+01 -2.283374977111816406e+01 -7.052030414342880249e-03 2.091570757329463959e-03 -1.488137757405638695e-03 8.623593748779967427e-05
6.310000000000000000e+02 1.475775814056396484e+01 -2.123393058776855469e+01 -6.116027943789958954e-03 1.471842289902269840e-03 -1.393255661241710186e-03 7.510635623475536704e-05
6.320000000000000000e+02 1.475819396972656250e+01 -2.203363227844238281e+01 6.603504996746778488e-03 1.738463877700269222e-03 2.502590650692582130e-03 -3.504817141219973564e-04
6.330000000000000000e+02 1.475019931793212891e+01 -1.963374710083007812e+01 -5.047982092946767807e-03 9.592718561179935932e-04 -1.226612948812544346e-03 9.430995851289480925e-05
6.340000000000000000e+02 1.400879383087158203e+01 -1.803508377075195312e+01 4.250543657690286636e-03 5.771080614067614079e-04 1.448295544832944870e-03 -4.310813965275883675e-04
6.350000000000000000e+02 1.474420642852783203e+01 -1.642398071289062500e+01 -3.509816946461796761e-03 3.668551216833293438e-04 -9.428885532543063164e-04 4.439456461113877594e-06
6.360000000000000000e+02 1.331586647033691406e+01 -1.559653186798095703e+01 3.538806689903140068e-03 5.835271804244257510e-05 1.079147798009216785e-03 -3.628397826105356216e-04
6.370000000000000000e+02 1.474717235565185547e+01 -1.562034797668457031e+01 3.353631822392344475e-03 2.474475768394768238e-04 1.080323825590312481e-03 -9.451817459193989635e-05
6.380000000000000000e+02 1.475129032135009766e+01 -1.322275257110595703e+01 -2.773734973743557930e-03 9.592488640919327736e-05 -8.033430785872042179e-04 2.950115049316082150e-05
6.390000000000000000e+02 1.474804306030273438e+01 -1.242320156097412109e+01 2.541483612731099129e-03 6.158360338304191828e-05 7.809201488271355629e-04 -4.600417014444246888e-05
6.400000000000000000e+02 1.398584556579589844e+01 -8.377525329589843750e+00 1.593859051354229450e-03 2.454808054608292878e-05 4.855221486650407314e-04 -9.955789573723450303e-05
6.410000000000000000e+02 1.472766113281250000e+01 -9.206759452819824219e+00 1.705322531051933765e-03 6.612458946619881317e-06 5.135805113241076469e-04 -6.354873039526864886e-05
6.420000000000000000e+02 1.475661373138427734e+01 -7.599181175231933594e+00 1.471740542910993099e-03 -1.179871742351679131e-05 4.379825259093195200e-04 -5.066401718067936599e-05
6.430000000000000000e+02 1.259699249267578125e+01 -2.289454221725463867e+00 -2.097815595334395766e-04 -2.741120115388184786e-04 -1.451680727768689394e-04 6.759299867553636432e-05
6.440000000000000000e+02 1.313664245605468750e+01 -1.830996274948120117e+00 -4.718280615634284914e-05 -3.293104527983814478e-04 -1.129479787778109312e-04 7.912268483778461814e-05
6.450000000000000000e+02 1.400178718566894531e+01 -1.924492955207824707e+00 -1.844666549004614353e-04 -1.958314242074266076e-04 -1.140894237323664129e-04 1.300907169934362173e-04
6.460000000000000000e+02 1.485372734069824219e+01 -2.785794496536254883e+00 5.829141591675579548e-04 -1.596837319084443152e-05 1.700837310636416078e-04 -4.757227725349366665e-05
6.470000000000000000e+02 1.443931102752685547e+01 -1.965368986129760742e+00 3.854953974951058626e-04 3.970618854509666562e-05 1.275604736292734742e-04 -1.513438619440421462e-04
6.480000000000000000e+02 1.488426589965820312e+01 -1.990637779235839844e+00 -4.707443295046687126e-04 1.499863719800487161e-05 -1.367237127851694822e-04 6.532567203976213932e-05
6.490000000000000000e+02 1.219790935516357422e+01 -1.779651761054992676e+00 -1.672881189733743668e-04 -2.792260784190148115e-04 -1.339542650384828448e-04 -4.241937131155282259e-05
6.500000000000000000e+02 1.249684619903564453e+01 -2.767057180404663086e+00 2.164663019357249141e-04 2.959650882985442877e-04 1.537294156150892377e-04 -1.568631705595180392e-04
6.510000000000000000e+02 1.070774555206298828e+01 -1.787974596023559570e+00 3.049392835237085819e-04 2.228365920018404722e-04 1.583327684784308076e-04 2.458858034515287727e-05
6.520000000000000000e+02 1.167774200439453125e+01 -2.272852659225463867e+00 -2.355270698899403214e-04 -2.342760562896728516e-04 -1.409409451298415661e-04 -8.809963037492707372e-05
6.530000000000000000e+02 1.013030529022216797e+01 -2.362846612930297852e+00 3.971852420363575220e-04 1.576657668920233846e-04 1.664552983129397035e-04 2.733904875640291721e-05
6.540000000000000000e+02 1.222753715515136719e+01 -3.097859382629394531e+00 4.192637279629707336e-04 -1.763358450261875987e-04 7.287836342584341764e-05 3.059550945181399584e-04
6.550000000000000000e+02 8.899506568908691406e+00 -1.793205380439758301e+00 -2.111720532411709428e-04 -2.148675412172451615e-04 -1.278118870686739683e-04 -7.862881466280668974e-05
6.560000000000000000e+02 1.066471767425537109e+01 -2.908210515975952148e+00 4.698772681877017021e-04 1.000882839434780180e-04 1.709896605461835861e-04 2.145479993487242609e-05
6.570000000000000000e+02 6.962754249572753906e+00 1.811092615127563477e+00 1.119996013585478067e-04 7.739328430034220219e-05 5.681786569766700268e-05 -2.693978967727161944e-05
6.580000000000000000e+02 6.206247329711914062e+00 2.431889057159423828e+00 1.490000431658700109e-04 9.776429214980453253e-05 7.402930350508540869e-05 -4.863982758251950145e-05
6.590000000000000000e+02 5.544536113739013672e+00 2.431972980499267578e+00 -1.443615183234214783e-04 -1.021374337142333388e-04 -7.394968997687101364e-05 6.170036795083433390e-05
6.600000000000000000e+02 8.890487670898437500e+00 2.440387248992919922e+00 1.464578090235590935e-04 8.614939724793657660e-05 6.978215969866141677e-05 3.711470708367414773e-05
6.610000000000000000e+02 8.810516357421875000e+00 3.077864885330200195e+00 -1.569207379361614585e-04 -1.087211567210033536e-04 -7.969256694195792079e-05 -3.367259705555625260e-05
6.620000000000000000e+02 7.631152629852294922e+00 1.812182784080505371e+00 -1.137529616244137287e-04 -7.089152495609596372e-05 -5.539334961213171482e-05 7.880820703576318920e-06
6.630000000000000000e+02 7.542861461639404297e+00 2.437955856323242188e+00 1.429458061465993524e-04 9.402680734638124704e-05 7.109178113751113415e-05 -8.952544703788589686e-06
6.640000000000000000e+02 1.021425485610961914e+00 8.098540306091308594e+00 -5.034795613028109074e-04 -3.673332321341149509e-05 -1.620638795429840684e-04 1.438557228539139032e-04
6.650000000000000000e+02 3.097208142280578613e-01 3.468154191970825195e+00 1.990167947951704264e-04 5.777001206297427416e-06 6.143814243841916323e-05 -3.448864663369022310e-05
6.660000000000000000e+02 1.580127358436584473e+00 3.306312322616577148e+00 2.160437434213235974e-04 3.269949229434132576e-05 7.462297071469947696e-05 -6.652750744251534343e-05
6.670000000000000000e+02 3.141244947910308838e-01 2.677536010742187500e+00 -1.504557149019092321e-04 -9.692283128970302641e-06 -4.804439959116280079e-05 2.409986154816579074e-05
6.680000000000000000e+02 9.512115716934204102e-01 2.623189210891723633e+00 1.598281669430434704e-04 1.821233126975130290e-05 5.341215000953525305e-05 -3.740548345376737416e-05
6.690000000000000000e+02 1.601524710655212402e+00 2.573250055313110352e+00 -1.659026311244815588e-04 -3.278787698945961893e-05 -5.960715134278871119e-05 5.392169987317174673e-05
6.700000000000000000e+02 1.109498023986816406e+01 1.790844440460205078e+00 1.305173354921862483e-04 1.311062169406795874e-05 4.308838833821937442e-05 7.945117977214977145e-05
6.710000000000000000e+02 1.263397598266601562e+01 -4.062690258026123047e+00 9.020339930430054665e-04 -2.540942805353552103e-04 1.943819079315289855e-04 6.428369670175015926e-05
6.720000000000000000e+02 6.038092613220214844e+00 -2.543548107147216797e+00 2.316719037480652332e-04 1.751722593326121569e-04 1.220532503793947399e-04 5.185049667488783598e-05
6.730000000000000000e+02 6.049142837524414062e+00 -1.848713636398315430e+00 -1.949670695466920733e-04 -1.530172157799825072e-04 -1.043952870531938970e-04 -2.136365219485014677e-05
6.740000000000000000e+02 4.578791141510009766e+00 -2.626322507858276367e+00 5.342294462025165558e-04 6.721251702401787043e-05 1.804325875127688050e-04 2.660623249539639801e-05
6.750000000000000000e+02 1.000951051712036133e+00 -7.262757778167724609e+00 -1.142174354754388332e-03 -8.795766188995912671e-05 -3.690396260935813189e-04 -1.423338107997551560e-04
6.760000000000000000e+02 5.319824218750000000e+00 -3.380870580673217773e+00 3.660301736090332270e-04 7.219390681711956859e-05 1.314672263106331229e-04 1.183699569082818925e-04
6.770000000000000000e+02 1.054649114608764648e+00 -1.877502202987670898e+00 2.950468915514647961e-04 8.414746844209730625e-06 9.103849151870235801e-05 6.779644900234416127e-05
6.780000000000000000e+02 9.891785383224487305e-01 -5.713038921356201172e+00 -9.213886805810034275e-04 -6.313050107564777136e-05 -2.953557414002716541e-04 -1.263325248146429658e-04
6.790000000000000000e+02 3.406367301940917969e-01 -2.665789365768432617e+00 4.608499002642929554e-04 1.133600471803219989e-05 1.416557788616046309e-04 4.706445179181173444e-05
6.800000000000000000e+02 3.303339481353759766e-01 -4.228138446807861328e+00 7.403175695799291134e-04 1.936786065925844014e-05 2.279056207044050097e-04 9.080358722712844610e-05
6.810000000000000000e+02 8.183673858642578125e+00 -2.407969951629638672e+00 -2.291180280735716224e-04 -2.134599490091204643e-04 -1.327733916696161032e-04 -4.430961780599318445e-05
6.820000000000000000e+02 6.765344142913818359e+00 -2.484833955764770508e+00 -2.157982962671667337e-04 -1.932147424668073654e-04 -1.227039174409583211e-04 -5.182387030799873173e-05
6.830000000000000000e+02 7.480394840240478516e+00 -2.440165996551513672e+00 2.156765112886205316e-04 2.050766051979735494e-04 1.262259320355951786e-04 4.842842463403940201e-05
6.840000000000000000e+02 1.651131629943847656e+01 -3.842893218994140625e+01 -7.080572843551635742e-01 -2.757536172866821289e-01 -2.951432764530181885e-01 3.224977850914001465e-01
6.850000000000000000e+02 1.169386959075927734e+01 2.432606220245361328e+00 1.672110374784097075e-04 3.463682878646068275e-05 6.055436097085475922e-05 9.877499542199075222e-05
6.860000000000000000e+02 9.576032638549804688e+00 2.438307523727416992e+00 -1.427989336661994457e-04 -7.404843927361071110e-05 -6.505421333713456988e-05 -5.955265442025847733e-05
6.870000000000000000e+02 1.402588272094726562e+01 1.809119462966918945e+00 -1.493738964200019836e-04 5.979522484267363325e-06 -4.301830995245836675e-05 -2.455272624501958489e-05
6.880000000000000000e+02 1.482080650329589844e+01 3.763035202026367188e+01 -2.666078805923461914e-01 2.330851107835769653e-01 -1.005683187395334244e-02 1.424329280853271484e-01
6.890000000000000000e+02 1.877821731567382812e+01 4.033848953247070312e+01 1.822675615549087524e-01 2.113014459609985352e+00 6.885845661163330078e-01 -7.011716365814208984e-01
6.900000000000000000e+02 1.880558967590332031e+01 3.806132125854492188e+01 -1.074581623077392578e+00 1.867092549800872803e-01 -2.663617134094238281e-01 -1.145126104354858398e+00
6.910000000000000000e+02 3.667086958885192871e-01 -3.815275192260742188e+01 -1.352421287447214127e-02 -6.431125849485397339e-02 -2.335064113140106201e-02 -4.231142811477184296e-03
6.920000000000000000e+02 4.855594336986541748e-01 -3.495713806152343750e+01 -5.980614572763442993e-03 -3.316680714488029480e-02 -1.174422726035118103e-02 -4.787073470652103424e-03
6.930000000000000000e+02 4.582494199275970459e-01 -3.415557098388671875e+01 5.767968483269214630e-03 -2.588509581983089447e-02 -6.035138387233018875e-03 -3.655029460787773132e-03
6.940000000000000000e+02 1.139302730560302734e+00 -3.160709762573242188e+01 7.020792458206415176e-03 -8.627174422144889832e-03 -4.819146124646067619e-04 -4.101318307220935822e-03
6.950000000000000000e+02 3.829638063907623291e-01 -3.177684402465820312e+01 -7.833984680473804474e-03 -9.445068426430225372e-03 -5.183715838938951492e-03 -3.173102624714374542e-03
6.960000000000000000e+02 3.585351109504699707e-01 -2.863347816467285156e+01 -6.929150316864252090e-03 3.288290754426270723e-04 -1.980096334591507912e-03 -1.790365669876337051e-03
6.970000000000000000e+02 1.075893402099609375e+00 -2.849593544006347656e+01 6.184739992022514343e-03 9.173680155072361231e-06 1.858174102380871773e-03 -1.955646002897992730e-04
6.980000000000000000e+02 1.014465928077697754e+00 -8.819420814514160156e+00 -1.355137093923985958e-03 -1.019337141769938171e-04 -4.371212271507829428e-04 -1.795643038349226117e-04
6.990000000000000000e+02 1.046328544616699219e+00 -1.510933589935302734e+01 -2.378791105002164841e-03 1.875267480500042439e-05 -7.080115028657019138e-04 -2.885831636376678944e-04
7.000000000000000000e+02 1.056434869766235352e+00 -2.220374870300292969e+01 4.025615751743316650e-03 1.539407763630151749e-03 1.669507008045911789e-03 9.067432256415486336e-04
7.010000000000000000e+02 1.107975482940673828e+00 -3.082793617248535156e+01 -8.657266385853290558e-03 -6.336896680295467377e-03 -4.498248919844627380e-03 -5.249041598290205002e-03
7.020000000000000000e+02 1.090155839920043945e+00 -3.005139541625976562e+01 6.767787970602512360e-03 -3.128050826489925385e-03 1.091921119950711727e-03 -1.688267453573644161e-03
7.030000000000000000e+02 1.448864579200744629e+00 -3.660180282592773438e+01 8.503351360559463501e-03 -4.029496386647224426e-02 -9.537483565509319305e-03 -1.283726096153259277e-02
7.040000000000000000e+02 4.662995934486389160e-01 -4.122609710693359375e+01 -7.681184797547757626e-04 -9.840511530637741089e-02 -2.975196950137615204e-02 9.219434577971696854e-04
7.050000000000000000e+02 2.374784469604492188e+00 -3.919927215576171875e+01 1.833885442465543747e-03 -4.220109432935714722e-02 -1.211016252636909485e-02 -1.892140507698059082e-02
7.060000000000000000e+02 1.318788766860961914e+00 -3.747158050537109375e+01 -7.834134623408317566e-03 -4.765872657299041748e-02 -1.664785854518413544e-02 -1.228208281099796295e-02
7.070000000000000000e+02 1.503363132476806641e+00 -3.570776748657226562e+01 -8.973336778581142426e-03 -3.384466841816902161e-02 -1.284540165215730667e-02 -1.446127146482467651e-02
7.080000000000000000e+02 1.464225053787231445e+00 -3.483256912231445312e+01 7.030359003692865372e-03 -2.620145119726657867e-02 -5.751327611505985260e-03 -1.225448213517665863e-02
7.090000000000000000e+02 1.364603400230407715e+00 -3.399600219726562500e+01 -9.970493614673614502e-03 -2.127303741872310638e-02 -9.373059496283531189e-03 -1.093485485762357712e-02
7.100000000000000000e+02 1.265998959541320801e+00 -3.318583679199218750e+01 7.123102899640798569e-03 -1.696346700191497803e-02 -2.952109323814511299e-03 -7.774969562888145447e-03
7.110000000000000000e+02 1.190766572952270508e+00 -3.239217376708984375e+01 -9.394337423145771027e-03 -1.262259762734174728e-02 -6.605080328881740570e-03 -7.851731032133102417e-03
7.120000000000000000e+02 1.080620646476745605e+00 -2.927454757690429688e+01 -7.652691565454006195e-03 -2.331482013687491417e-03 -2.995252143591642380e-03 -3.403315320611000061e-03
7.130000000000000000e+02 1.782681345939636230e+00 -2.680470657348632812e+01 -6.392436567693948746e-03 -4.913591546937823296e-04 -2.065138658508658409e-03 -1.843296573497354984e-03
7.140000000000000000e+02 1.061377406120300293e+00 -2.378199768066406250e+01 4.474391229450702667e-03 1.843412872403860092e-03 1.895341323688626289e-03 9.729694575071334839e-04
7.150000000000000000e+02 1.066665053367614746e+00 -2.614462280273437500e+01 -5.632256157696247101e-03 8.310059201903641224e-04 -1.440375111997127533e-03 -1.198434736579656601e-03
7.160000000000000000e+02 1.064808130264282227e+00 -2.535782241821289062e+01 4.980291239917278290e-03 1.941402559168636799e-03 2.076508244499564171e-03 9.141283226199448109e-04
7.170000000000000000e+02 1.059034228324890137e+00 -2.299248123168945312e+01 -4.261907190084457397e-03 1.017938251607120037e-03 -9.731907048262655735e-04 -3.910581872332841158e-04
7.180000000000000000e+02 3.536142408847808838e-01 -2.390725517272949219e+01 -4.535654559731483459e-03 1.962498528882861137e-03 -7.719467976130545139e-04 -7.054515881463885307e-04
7.190000000000000000e+02 1.054227232933044434e+00 -2.141648864746093750e+01 -3.798552090302109718e-03 7.831208058632910252e-04 -9.046294144354760647e-04 -2.853895712178200483e-04
7.200000000000000000e+02 1.050733327865600586e+00 -1.826337242126464844e+01 -3.001394448801875114e-03 2.986908366438001394e-04 -8.108111214824020863e-04 -2.700671029742807150e-04
7.210000000000000000e+02 1.051298618316650391e+00 -1.905234909057617188e+01 3.232445567846298218e-03 8.769269916228950024e-04 1.232811715453863144e-03 6.879685097374022007e-04
7.220000000000000000e+02 3.495647013187408447e-01 -1.681127738952636719e+01 2.722770441323518753e-03 5.345207173377275467e-04 9.771873010322451591e-04 5.198580911383032799e-04
7.230000000000000000e+02 1.048067331314086914e+00 -1.589773464202880859e+01 2.556073246523737907e-03 4.436006420291960239e-04 8.999021956697106361e-04 4.923351807519793510e-04
7.240000000000000000e+02 1.044596076011657715e+00 -1.432225704193115234e+01 2.258385764434933662e-03 3.186764370184391737e-04 7.731186342425644398e-04 4.170674073975533247e-04
7.250000000000000000e+02 1.032644867897033691e+00 -1.117248916625976562e+01 1.703498768620193005e-03 1.745595945976674557e-04 5.634175031445920467e-04 2.792350715026259422e-04
7.260000000000000000e+02 1.040587663650512695e+00 -1.274625301361083984e+01 1.964019844308495522e-03 2.338017366128042340e-04 6.593465222977101803e-04 3.458878491073846817e-04
7.270000000000000000e+02 3.421912789344787598e-01 -1.050649452209472656e+01 1.617324072867631912e-03 9.863852028502151370e-05 5.147887859493494034e-04 2.787807607091963291e-04
7.280000000000000000e+02 1.021141409873962402e+00 -9.601437568664550781e+00 1.461954903788864613e-03 1.338537986157462001e-04 4.787426150869578123e-04 2.214668638771399856e-04
7.290000000000000000e+02 1.685413956642150879e+00 -7.938902378082275391e+00 -1.200488535687327385e-03 -1.299183932133018970e-04 -3.991220728494226933e-04 -1.272419904125854373e-04
7.300000000000000000e+02 2.429902791976928711e+00 -2.603994607925415039e+00 -3.832700313068926334e-04 -9.675151522969827056e-05 -1.440064661437645555e-04 -1.100416629924438894e-04
7.310000000000000000e+02 9.939884543418884277e-01 -6.487676620483398438e+00 1.035967608913779259e-03 6.795342051191255450e-05 3.311762993689626455e-04 1.342516043223440647e-04
7.320000000000000000e+02 1.027976393699645996e+00 -2.636662721633911133e+00 -4.135649360250681639e-04 -4.302181332604959607e-05 -1.369760284433141351e-04 -8.334096492035314441e-05
7.330000000000000000e+02 1.008690834045410156e+00 -3.400938034057617188e+00 5.479856044985353947e-04 4.829507815884426236e-05 1.788842055248096585e-04 9.945979400072246790e-05
7.340000000000000000e+02 3.341941833496093750e-01 -3.446239948272705078e+00 -6.016935221850872040e-04 -2.687593587324954569e-05 -1.885708334157243371e-04 -6.944764027139171958e-05
7.350000000000000000e+02 1.687567901611328125e+01 3.793845748901367188e+01 -4.639962911605834961e-01 1.770284473896026611e-01 -8.609034866094589233e-02 2.447927743196487427e-01
7.360000000000000000e+02 2.009338569641113281e+01 3.889343261718750000e+01 -9.178124070167541504e-01 4.739734649658203125e+00 1.146576642990112305e+00 -1.614378929138183594e+00
7.370000000000000000e+02 1.408926582336425781e+01 2.090651702880859375e+01 4.448173567652702332e-03 1.802086597308516502e-03 1.875078072771430016e-03 6.578774773515760899e-04
7.380000000000000000e+02 1.561519145965576172e+01 3.453343582153320312e+01 -9.039986878633499146e-02 -6.749910116195678711e-02 -4.736969247460365295e-02 -9.362643957138061523e-02
7.390000000000000000e+02 1.436952972412109375e+01 2.562891769409179688e+01 5.144487135112285614e-03 1.349865924566984177e-03 1.948305871337652206e-03 -1.732683886075392365e-04
7.400000000000000000e+02 1.450201416015625000e+01 2.723791503906250000e+01 4.567982163280248642e-03 -8.312915451824665070e-04 1.121007138863205910e-03 -2.324294066056609154e-03
7.410000000000000000e+02 1.486448192596435547e+01 2.250033950805664062e+01 -5.841681733727455139e-03 2.750418381765484810e-03 -9.273790055885910988e-04 4.123623966734157875e-07
7.420000000000000000e+02 1.412907886505126953e+01 2.168728637695312500e+01 -4.583185538649559021e-03 1.292936620302498341e-03 -9.870746871456503868e-04 1.623089483473449945e-04
7.430000000000000000e+02 1.458600234985351562e+01 2.804593086242675781e+01 -8.213269524276256561e-03 -3.369045676663517952e-03 -3.474694443866610527e-03 -3.830483416095376015e-03
7.440000000000000000e+02 1.401000690460205078e+01 2.965439605712890625e+01 -6.869034841656684875e-03 -8.390764705836772919e-03 -4.577939864248037338e-03 -1.464749686419963837e-02
7.450000000000000000e+02 1.663908004760742188e+01 3.435768127441406250e+01 -2.922080643475055695e-02 -1.120928749442100525e-01 -4.239410534501075745e-02 -6.568720936775207520e-02
7.460000000000000000e+02 1.548626804351806641e+01 3.370817565917968750e+01 -5.372574925422668457e-02 -5.388206616044044495e-02 -3.228234499692916870e-02 -6.387985497713088989e-02
7.470000000000000000e+02 1.442971706390380859e+01 2.643191146850585938e+01 -6.544632837176322937e-03 -1.135900529334321618e-04 -1.997466897591948509e-03 -1.434559933841228485e-03
7.480000000000000000e+02 1.468285179138183594e+01 2.885501098632812500e+01 2.278942847624421120e-03 -5.991946905851364136e-03 -1.113901147618889809e-03 -6.859599146991968155e-03
7.490000000000000000e+02 1.555666446685791016e+01 2.965081024169921875e+01 6.344182416796684265e-03 -9.220124222338199615e-03 -8.627825882285833359e-04 -5.082579329609870911e-03
7.500000000000000000e+02 1.533979034423828125e+01 3.289406585693359375e+01 -3.716332465410232544e-02 -4.402362555265426636e-02 -2.435608394443988800e-02 -4.341923817992210388e-02
7.510000000000000000e+02 1.602048110961914062e+01 3.201961898803710938e+01 -1.768231578171253204e-02 -4.199088737368583679e-02 -1.790196076035499573e-02 -1.910308189690113068e-02
7.520000000000000000e+02 1.479126834869384766e+01 2.966421508789062500e+01 -1.163945067673921585e-02 -1.064933277666568756e-02 -6.686634849756956100e-03 -8.987024426460266113e-03
7.530000000000000000e+02 1.421600723266601562e+01 2.325805473327636719e+01 -5.053205415606498718e-03 1.487887348048388958e-03 -1.069595455192029476e-03 7.649420695088338107e-06
7.540000000000000000e+02 1.417121410369873047e+01 2.247019577026367188e+01 4.857001360505819321e-03 2.118592616170644760e-03 2.092678332701325417e-03 7.937890477478504181e-04
7.550000000000000000e+02 1.405755996704101562e+01 2.012515258789062500e+01 -4.022296518087387085e-03 1.018851529806852341e-03 -9.010334615595638752e-04 2.949075715150684118e-04
7.560000000000000000e+02 1.684384727478027344e+01 3.514511871337890625e+01 -8.641646057367324829e-02 -1.657706052064895630e-01 -7.565611600875854492e-02 -1.006817519664764404e-01
7.570000000000000000e+02 1.431726169586181641e+01 2.483398246765136719e+01 -5.810096859931945801e-03 1.182818785309791565e-03 -1.388183329254388809e-03 -3.822103608399629593e-04
7.580000000000000000e+02 1.326644229888916016e+01 1.859946823120117188e+01 3.396772313863039017e-03 7.522961823269724846e-04 1.244720537215471268e-03 5.041523836553096771e-04
7.590000000000000000e+02 1.468862247467041016e+01 1.533836460113525391e+01 2.370178466662764549e-03 4.732801753561943769e-04 8.530375780537724495e-04 2.128510241163894534e-04
7.600000000000000000e+02 1.468088245391845703e+01 1.371687793731689453e+01 2.054149983450770378e-03 2.691593545023351908e-04 6.969927926547825336e-04 1.677565014688298106e-04
7.610000000000000000e+02 1.398623561859130859e+01 1.778458023071289062e+01 3.478129394352436066e-03 7.557340431958436966e-04 1.270159031264483929e-03 4.120372468605637550e-04
7.620000000000000000e+02 1.395661926269531250e+01 1.198044300079345703e+01 -1.573338638991117477e-03 4.525483745965175331e-05 -4.584251437336206436e-04 -3.263866237830370665e-04
7.630000000000000000e+02 1.395380783081054688e+01 1.698723411560058594e+01 -3.104001749306917191e-03 6.081949104554951191e-04 -7.487420225515961647e-04 2.327458787476643920e-05
7.640000000000000000e+02 1.382079601287841797e+01 1.363218021392822266e+01 -1.975425519049167633e-03 2.363220119150355458e-04 -5.217310390435159206e-04 -3.326688238303177059e-05
7.650000000000000000e+02 1.405201530456542969e+01 1.039430046081542969e+01 -1.366158481687307358e-03 -9.922896424541249871e-05 -4.396162403281778097e-04 -2.815979532897472382e-04
7.660000000000000000e+02 1.474920463562011719e+01 4.976636409759521484e+00 -6.459148717112839222e-04 -3.061970710405148566e-05 -2.029603783739730716e-04 -6.874571408843621612e-05
7.670000000000000000e+02 1.424383735656738281e+01 3.990568399429321289e+00 -1.101359230233356357e-04 8.513967623002827168e-05 -7.498875220335321501e-06 2.181177478632889688e-05
7.680000000000000000e+02 1.385565376281738281e+01 3.238426923751831055e+00 -3.019578289240598679e-04 -5.432674242911161855e-06 -9.221715299645438790e-05 1.229815097758546472e-04
7.690000000000000000e+02 1.446276187896728516e+01 1.808888196945190430e+00 1.549926964798942208e-04 6.292368925642222166e-05 6.537491572089493275e-05 3.319507186461123638e-06
7.700000000000000000e+02 1.487964344024658203e+01 2.592823028564453125e+00 3.924565389752388000e-04 3.146344533888623118e-05 1.271759974770247936e-04 1.352631079498678446e-05
7.710000000000000000e+02 1.019345283508300781e+01 3.089534044265747070e+00 -1.703593443380668759e-04 -9.404195589013397694e-05 -7.932038715807721019e-05 -8.241791510954499245e-05
7.720000000000000000e+02 1.478160285949707031e+01 8.146047592163085938e+00 -1.352477236650884151e-03 -3.374399602762423456e-05 -4.158663796260952950e-04 -1.579676318215206265e-04
7.730000000000000000e+02 1.412790489196777344e+01 7.321275234222412109e+00 -1.014669542200863361e-03 -7.259972335305064917e-05 -3.261808014940470457e-04 -1.728247443679720163e-04
7.740000000000000000e+02 1.412484741210937500e+01 8.084485054016113281e+00 1.110191224142909050e-03 1.157991646323353052e-04 3.677971253637224436e-04 2.111375943059101701e-04
7.750000000000000000e+02 1.410928440093994141e+01 8.849896430969238281e+00 -1.193127012811601162e-03 -9.225447865901514888e-05 -3.856144321616739035e-04 -2.107051259372383356e-04
7.760000000000000000e+02 1.477630138397216797e+01 8.933461189270019531e+00 1.481815124861896038e-03 7.695800741203129292e-05 4.676319367717951536e-04 2.056119701592251658e-04
7.770000000000000000e+02 1.388724517822265625e+01 1.279965782165527344e+01 1.812545116990804672e-03 5.726695962948724627e-05 5.609436193481087685e-04 4.055369645357131958e-04
7.780000000000000000e+02 1.380881214141845703e+01 1.447961616516113281e+01 2.155278809368610382e-03 4.851148114539682865e-04 7.921180804260075092e-04 3.172557044308632612e-04
7.790000000000000000e+02 1.385430812835693359e+01 1.533347129821777344e+01 -2.412996487691998482e-03 2.576736733317375183e-04 -6.465968326665461063e-04 -1.432795397704467177e-04
7.800000000000000000e+02 1.390955448150634766e+01 1.617129516601562500e+01 2.857726532965898514e-03 4.387585504446178675e-04 9.889454813674092293e-04 4.788769583683460951e-04
7.810000000000000000e+02 2.224881744384765625e+01 3.640175628662109375e+01 1.227764725685119629e+00 7.627829551696777344e+00 2.656678199768066406e+00 -4.944722950458526611e-01
7.820000000000000000e+02 1.471775913238525391e+01 -3.160068321228027344e+01 1.656858623027801514e-02 -5.175377591513097286e-04 4.815314896404743195e-03 -2.532749436795711517e-03
7.830000000000000000e+02 1.394350910186767578e+01 -3.149433517456054688e+01 -1.629346981644630432e-02 -1.488445140421390533e-02 -9.353375993669033051e-03 1.097485981881618500e-02
7.840000000000000000e+02 1.474421501159667969e+01 -3.673339462280273438e+01 -2.631229162216186523e-01 -1.693160086870193481e-01 -1.297316700220108032e-01 2.476005703210830688e-01
7.850000000000000000e+02 1.378452587127685547e+01 -3.792161560058593750e+01 -3.071042001247406006e-01 1.142416596412658691e-01 -5.785876139998435974e-02 -5.152322724461555481e-02
7.860000000000000000e+02 2.016586112976074219e+01 -2.237848472595214844e+01 6.931912899017333984e-02 7.078473091125488281e+00 2.144337654113769531e+00 1.140150576829910278e-01
7.870000000000000000e+02 2.019446945190429688e+01 -2.159246444702148438e+01 8.917694538831710815e-02 7.078266620635986328e+00 2.150233030319213867e+00 2.618368268013000488e-01
7.880000000000000000e+02 2.044139289855957031e+01 -3.382746505737304688e+01 3.985812067985534668e-01 7.959933757781982422e+00 2.507554531097412109e+00 5.939093232154846191e-01
7.890000000000000000e+02 2.131765365600585938e+01 -3.022769355773925781e+01 4.705044254660606384e-02 7.494118690490722656e+00 2.262350797653198242e+00 2.300435304641723633e-01
7.900000000000000000e+02 2.036538887023925781e+01 -7.971831560134887695e-01 -7.837858982384204865e-03 7.773022174835205078e+00 2.329555273056030273e+00 2.024009525775909424e-01
7.910000000000000000e+02 2.119054222106933594e+01 7.832430005073547363e-01 -1.542842090129852295e-01 7.927029132843017578e+00 2.331823587417602539e+00 3.838363885879516602e-01
7.920000000000000000e+02 1.991863250732421875e+01 -1.360677623748779297e+01 1.592049747705459595e-01 8.455111503601074219e+00 2.584295034408569336e+00 3.694750368595123291e-01
7.930000000000000000e+02 1.961244010925292969e+01 -1.681021499633789062e+01 -2.371445111930370331e-02 6.903726100921630859e+00 2.064003467559814453e+00 6.040403246879577637e-01
7.940000000000000000e+02 1.997253417968750000e+01 -1.119801521301269531e+01 -3.543911501765251160e-02 7.655925750732421875e+00 2.286145925521850586e+00 3.386772572994232178e-01
7.950000000000000000e+02 2.077721023559570312e+01 -8.770693778991699219e+00 3.961621597409248352e-02 7.771978378295898438e+00 2.343478441238403320e+00 2.316942065954208374e-01
7.960000000000000000e+02 1.312601470947265625e+01 -3.424185562133789062e+01 -7.255535572767257690e-02 -6.340257823467254639e-02 -4.078738018870353699e-02 9.664867818355560303e-02
7.970000000000000000e+02 2.109806442260742188e+01 -8.014404773712158203e-01 -1.239765342324972153e-02 7.830108642578125000e+00 2.345313310623168945e+00 4.964031279087066650e-01
7.980000000000000000e+02 2.073889350891113281e+01 3.989531040191650391e+00 1.609042137861251831e-01 9.172766685485839844e+00 2.800101280212402344e+00 5.500564575195312500e-01
7.990000000000000000e+02 1.351324558258056641e+01 -3.359153366088867188e+01 6.842704489827156067e-03 -4.642115160822868347e-02 -1.187353394925594330e-02 2.074471488595008850e-02
8.000000000000000000e+02 2.023650169372558594e+01 -2.001636505126953125e+01 -1.192454770207405090e-01 7.065639495849609375e+00 2.083918094635009766e+00 2.964070737361907959e-01
8.010000000000000000e+02 2.059662628173828125e+01 2.387138605117797852e+00 8.046939969062805176e-02 8.274821281433105469e+00 2.506587266921997070e+00 7.192198634147644043e-01
8.020000000000000000e+02 2.204257583618164062e+01 2.375764369964599609e+00 6.293936073780059814e-02 8.243934631347656250e+00 2.492062091827392578e+00 2.567068040370941162e-01
8.030000000000000000e+02 2.213601875305175781e+01 3.541412353515625000e+01 9.040523171424865723e-01 8.569871902465820312e+00 2.842177152633666992e+00 -8.651622533798217773e-01
8.040000000000000000e+02 2.158319854736328125e+01 -5.568328380584716797e+00 -1.414776146411895752e-01 7.639965057373046875e+00 2.249546289443969727e+00 2.829130589962005615e-01
8.050000000000000000e+02 2.007022476196289062e+01 -5.588987827301025391e+00 -7.677838951349258423e-02 7.033045291900634766e+00 2.086880207061767578e+00 2.652370035648345947e-01
8.060000000000000000e+02 2.023802757263183594e+01 -3.201999902725219727e+00 4.132646322250366211e-02 7.757381916046142578e+00 2.339612483978271484e+00 5.751163959503173828e-01
8.070000000000000000e+02 2.017302703857421875e+01 -3.998783826828002930e+00 3.250418230891227722e-02 7.458395481109619141e+00 2.247269868850708008e+00 5.438446402549743652e-01
8.080000000000000000e+02 2.096611976623535156e+01 -3.207816600799560547e+00 4.763343185186386108e-02 7.780523300170898438e+00 2.348447084426879883e+00 3.489208221435546875e-01
8.090000000000000000e+02 1.319230461120605469e+01 -3.142439079284667969e+01 7.239058613777160645e-03 -8.116222918033599854e-03 -2.631492679938673973e-04 8.334805257618427277e-03
8.100000000000000000e+02 2.040561294555664062e+01 -3.116779327392578125e+01 3.892101719975471497e-02 7.642072200775146484e+00 2.304297924041748047e+00 2.074530720710754395e-01
8.110000000000000000e+02 1.901324462890625000e+01 -3.684533309936523438e+01 4.747335910797119141e-01 7.398478031158447266e+00 2.361963510513305664e+00 1.612130284309387207e+00
8.120000000000000000e+02 1.942726325988769531e+01 -3.876492691040039062e+01 -7.039946913719177246e-01 5.791978836059570312e+00 1.526395201683044434e+00 5.941197872161865234e-01
8.130000000000000000e+02 2.064970588684082031e+01 -1.361174583435058594e+01 2.457743585109710693e-01 7.840123176574707031e+00 2.425769090652465820e+00 3.817029595375061035e-01
8.140000000000000000e+02 1.932562637329101562e+01 -2.556679153442382812e+01 -2.637365087866783142e-02 7.130915164947509766e+00 2.131362438201904297e+00 4.770188406109809875e-02
8.150000000000000000e+02 2.094640350341796875e+01 -2.463783454895019531e+01 -7.892066240310668945e-02 7.245842933654785156e+00 2.150076627731323242e+00 1.925642490386962891e-01
8.160000000000000000e+02 2.070470237731933594e+01 -1.198977184295654297e+01 -7.748786360025405884e-02 7.924990653991699219e+00 2.354250907897949219e+00 3.365517854690551758e-01
8.170000000000000000e+02 2.068122673034667969e+01 -1.279690933227539062e+01 1.040561497211456299e-01 7.858082294464111328e+00 2.388641595840454102e+00 4.290192425251007080e-01
8.180000000000000000e+02 2.080796623229980469e+01 -6.372286319732666016e+00 -1.000952348113059998e-01 7.463307857513427734e+00 2.208963871002197266e+00 2.871728539466857910e-01
8.190000000000000000e+02 2.091498374938964844e+01 -4.001903057098388672e+00 -4.476065188646316528e-02 7.597058773040771484e+00 2.265689373016357422e+00 3.367481231689453125e-01
8.200000000000000000e+02 2.150337219238281250e+01 6.430361747741699219e+00 3.640434890985488892e-02 8.621286392211914062e+00 2.597307205200195312e+00 1.497733891010284424e-01
8.210000000000000000e+02 2.047217750549316406e+01 -1.604710769653320312e+01 -5.752724595367908478e-03 7.475048065185546875e+00 2.240788698196411133e+00 3.979948461055755615e-01
8.220000000000000000e+02 2.054181861877441406e+01 -1.524199295043945312e+01 1.155584305524826050e-01 7.677125930786132812e+00 2.337805271148681641e+00 4.012868404388427734e-01
8.230000000000000000e+02 1.396315765380859375e+01 -3.073541069030761719e+01 1.219089608639478683e-02 -3.840892342850565910e-03 2.505000913515686989e-03 8.216701098717749119e-04
8.240000000000000000e+02 2.099084281921386719e+01 -2.539814186096191406e+01 -6.238471716642379761e-02 7.233876705169677734e+00 2.151447772979736328e+00 1.812034249305725098e-01
8.250000000000000000e+02 2.188736724853515625e+01 -1.925259590148925781e+01 -1.277645826339721680e-01 7.332717895507812500e+00 2.161486148834228516e+00 2.856743037700653076e-01
8.260000000000000000e+02 2.125280189514160156e+01 1.576384425163269043e+00 -2.277527563273906708e-02 8.020965576171875000e+00 2.399456977844238281e+00 4.073106646537780762e-01
8.270000000000000000e+02 2.025973129272460938e+01 -1.922731399536132812e+01 -1.162109225988388062e-01 7.069253921508789062e+00 2.085912942886352539e+00 3.023427128791809082e-01
8.280000000000000000e+02 2.131780815124511719e+01 2.374635934829711914e+00 5.975584313273429871e-02 8.265827178955078125e+00 2.497674942016601562e+00 4.486099481582641602e-01
8.290000000000000000e+02 2.046940422058105469e+01 -3.205788421630859375e+01 1.243452578783035278e-01 7.715075016021728516e+00 2.351826190948486328e+00 2.779718339443206787e-01
8.300000000000000000e+02 1.320849609375000000e+01 -3.069124412536621094e+01 -1.601756177842617035e-02 -1.190385781228542328e-02 -8.376426063477993011e-03 9.356291964650154114e-03
8.310000000000000000e+02 2.004371261596679688e+01 -7.987451076507568359e+00 -1.688584219664335251e-03 7.653884887695312500e+00 2.295658826828002930e+00 7.851453125476837158e-02
8.320000000000000000e+02 2.089221954345703125e+01 3.285306930541992188e+01 -1.358438283205032349e-03 8.877860069274902344e+00 2.662950515747070312e+00 -1.049461960792541504e-01
8.330000000000000000e+02 2.201872253417968750e+01 3.450246429443359375e+01 4.464854001998901367e-01 8.937715530395507812e+00 2.815260410308837891e+00 -6.905232071876525879e-01
8.340000000000000000e+02 2.137954902648925781e+01 3.178419351577758789e+00 1.376208811998367310e-01 8.532415390014648438e+00 2.601010799407958984e+00 3.789848387241363525e-01
8.350000000000000000e+02 2.018271827697753906e+01 -2.628686523437500000e+01 -3.201247006654739380e-02 7.240387439727783203e+00 2.162512540817260742e+00 1.118493527173995972e-01
8.360000000000000000e+02 1.941437339782714844e+01 -3.119969177246093750e+01 3.725411742925643921e-02 7.708452224731445312e+00 2.323711872100830078e+00 8.046180009841918945e-02
8.370000000000000000e+02 1.475530433654785156e+01 -2.443226623535156250e+01 -8.064090274274349213e-03 2.792797284200787544e-03 -1.581387943588197231e-03 2.115689858328551054e-04
8.380000000000000000e+02 1.334295177459716797e+01 -2.516189765930175781e+01 8.307485841214656830e-03 1.131130033172667027e-03 2.831584773957729340e-03 -1.431506709195673466e-03
8.390000000000000000e+02 2.085758018493652344e+01 3.205307006835937500e+01 4.052439704537391663e-02 8.719432830810546875e+00 2.627987146377563477e+00 -6.804024428129196167e-02
8.400000000000000000e+02 2.190867042541503906e+01 3.364044189453125000e+01 1.523889452219009399e-01 8.875872611999511719e+00 2.708478450775146484e+00 -4.102799594402313232e-01
8.410000000000000000e+02 2.151643562316894531e+01 1.045457744598388672e+01 6.857575848698616028e-03 8.348205566406250000e+00 2.506518840789794922e+00 4.024618864059448242e-02
8.420000000000000000e+02 2.226662826538085938e+01 2.974144935607910156e+01 1.729134842753410339e-02 8.418397903442382812e+00 2.530706644058227539e+00 -1.110451072454452515e-01
8.430000000000000000e+02 2.151538848876953125e+01 8.849524497985839844e+00 1.175637822598218918e-02 8.419056892395019531e+00 2.529243946075439453e+00 6.266507506370544434e-02
8.440000000000000000e+02 2.079461288452148438e+01 8.013731956481933594e+00 2.821691567078232765e-03 8.495796203613281250e+00 2.549585342407226562e+00 2.799520082771778107e-02
8.450000000000000000e+02 1.396152973175048828e+01 -2.995458221435546875e+01 -1.323811616748571396e-02 -3.198494669049978256e-03 -4.930983297526836395e-03 4.134646151214838028e-03
8.460000000000000000e+02 2.082973480224609375e+01 3.125517845153808594e+01 -1.645615324378013611e-02 8.607277870178222656e+00 2.577246665954589844e+00 -4.589326307177543640e-02
8.470000000000000000e+02 2.298053550720214844e+01 2.984251022338867188e+01 7.413057237863540649e-02 8.369361877441406250e+00 2.533047914505004883e+00 -1.641346216201782227e-01
8.480000000000000000e+02 2.169647979736328125e+01 -3.309092712402343750e+01 3.753447830677032471e-01 7.414240360260009766e+00 2.336875438690185547e+00 4.027431309223175049e-01
8.490000000000000000e+02 1.934424781799316406e+01 -2.716311073303222656e+01 -2.192226052284240723e-02 7.287699222564697266e+00 2.179733037948608398e+00 3.505981341004371643e-02
8.500000000000000000e+02 2.083164215087890625e+01 -5.580772876739501953e+00 -1.599696874618530273e-01 7.486054897308349609e+00 2.197825670242309570e+00 3.124574720859527588e-01
8.510000000000000000e+02 2.079557800292968750e+01 1.282515811920166016e+01 1.228026230819523335e-03 8.289593696594238281e+00 2.487246513366699219e+00 7.291110698133707047e-03
8.520000000000000000e+02 2.080662345886230469e+01 2.965834999084472656e+01 -1.475668139755725861e-02 8.461451530456542969e+00 2.534008502960205078e+00 -2.472422644495964050e-02
8.530000000000000000e+02 2.251040077209472656e+01 3.192784500122070312e+01 1.308751553297042847e-01 8.525795936584472656e+00 2.597001552581787109e+00 -2.668639719486236572e-01
8.540000000000000000e+02 1.475620555877685547e+01 -2.363331222534179688e+01 7.555133197456598282e-03 2.463678596541285515e-03 3.005643608048558235e-03 -4.588029114529490471e-04
8.550000000000000000e+02 1.266193103790283203e+01 -2.435103988647460938e+01 7.281461264938116074e-03 7.200768450275063515e-04 2.400461351498961449e-03 -1.378473127260804176e-03
8.560000000000000000e+02 2.081513404846191406e+01 2.485482597351074219e+01 -3.429983742535114288e-03 8.278347969055175781e+00 2.482475280761718750e+00 -7.616498507559299469e-03
8.570000000000000000e+02 2.157488632202148438e+01 2.812171363830566406e+01 1.886880956590175629e-02 8.365345954895019531e+00 2.515264511108398438e+00 -5.250804126262664795e-02
8.580000000000000000e+02 2.076790428161621094e+01 -9.576412200927734375e+00 1.241302862763404846e-01 7.792114734649658203e+00 2.374873638153076172e+00 2.571675777435302734e-01
8.590000000000000000e+02 2.154114913940429688e+01 -7.149301052093505859e+00 -6.359647214412689209e-02 7.634421348571777344e+00 2.271247386932373047e+00 2.999957203865051270e-01
8.600000000000000000e+02 2.079648017883300781e+01 1.442904949188232422e+01 1.213185605593025684e-03 8.261668205261230469e+00 2.478864431381225586e+00 4.761822987347841263e-03
8.610000000000000000e+02 2.079846382141113281e+01 1.683447456359863281e+01 -6.575592560693621635e-04 8.237772941589355469e+00 2.471134424209594727e+00 1.917863031849265099e-03
8.620000000000000000e+02 2.231528663635253906e+01 2.333580017089843750e+01 2.571136457845568657e-03 8.238892555236816406e+00 2.472439050674438477e+00 -2.196786180138587952e-02
8.630000000000000000e+02 2.155243492126464844e+01 3.047330856323242188e+01 -4.138367366977035999e-04 8.504238128662109375e+00 2.551147460937500000e+00 -9.179536253213882446e-02
8.640000000000000000e+02 2.227228927612304688e+01 1.851801490783691406e+01 2.475064946338534355e-03 8.219604492187500000e+00 2.466623783111572266e+00 3.109477926045656204e-03
8.650000000000000000e+02 2.151613998413085938e+01 9.652706146240234375e+00 8.216334506869316101e-03 8.379938125610351562e+00 2.516446352005004883e+00 4.996844008564949036e-02
8.660000000000000000e+02 2.157630538940429688e+01 2.490062713623046875e+01 8.830339647829532623e-03 8.271758079528808594e+00 2.484176397323608398e+00 -2.269423566758632660e-02
8.670000000000000000e+02 2.156823921203613281e+01 2.409456062316894531e+01 -1.251305104233324528e-03 8.258805274963378906e+00 2.477266311645507812e+00 -1.737196184694766998e-02
8.680000000000000000e+02 2.156065368652343750e+01 2.329004478454589844e+01 6.530740763992071152e-03 8.247683525085449219e+00 2.476264238357543945e+00 -1.419323682785034180e-02
8.690000000000000000e+02 2.155772590637207031e+01 2.891150665283203125e+01 -3.416158724576234818e-03 8.403107643127441406e+00 2.519907474517822266e+00 -5.638170987367630005e-02
8.700000000000000000e+02 2.154814147949218750e+01 2.168482971191406250e+01 4.972621798515319824e-03 8.233331680297851562e+00 2.471491098403930664e+00 -7.928535342216491699e-03
8.710000000000000000e+02 2.152717971801757812e+01 1.687213706970214844e+01 3.089932492002844810e-03 8.232985496520996094e+00 2.470822811126708984e+00 6.439197808504104614e-03
8.720000000000000000e+02 2.153290367126464844e+01 1.847573852539062500e+01 3.338059876114130020e-03 8.226572990417480469e+00 2.468973398208618164e+00 1.833733171224594116e-03
8.730000000000000000e+02 2.153576469421386719e+01 1.927754974365234375e+01 -1.582522090757265687e-04 8.226003646850585938e+00 2.467753410339355469e+00 -3.487994254101067781e-04
8.740000000000000000e+02 2.153922271728515625e+01 2.007974052429199219e+01 3.938565030694007874e-03 8.226620674133300781e+00 2.469167709350585938e+00 -2.799384994432330132e-03
8.750000000000000000e+02 2.155414199829101562e+01 2.248733520507812500e+01 -9.644663077779114246e-04 8.239915847778320312e+00 2.471685409545898438e+00 -1.039839349687099457e-02
8.760000000000000000e+02 2.152177429199218750e+01 1.526779079437255859e+01 3.167978255078196526e-03 8.246391296386718750e+00 2.474867582321166992e+00 1.157689373940229416e-02
8.770000000000000000e+02 2.152412605285644531e+01 1.606981849670410156e+01 7.607393199577927589e-04 8.238947868347167969e+00 2.471912622451782227e+00 8.757986128330230713e-03
8.780000000000000000e+02 2.151962280273437500e+01 1.446498012542724609e+01 1.457776059396564960e-03 8.256273269653320312e+00 2.477319240570068359e+00 1.441727951169013977e-02
8.790000000000000000e+02 1.394688987731933594e+01 -2.916059112548828125e+01 1.074640173465013504e-02 -1.632576604606583714e-04 3.174943150952458382e-03 -3.568831743905320764e-05
8.800000000000000000e+02 2.021570968627929688e+01 -2.708005142211914062e+01 1.433317922055721283e-02 7.299368858337402344e+00 2.194110631942749023e+00 1.098154932260513306e-01
8.810000000000000000e+02 2.151715850830078125e+01 1.285988616943359375e+01 2.526371041312813759e-03 8.282928466796875000e+00 2.485636472702026367e+00 2.184923924505710602e-02
8.820000000000000000e+02 2.151809692382812500e+01 1.366222095489501953e+01 3.609866835176944733e-03 8.268108367919921875e+00 2.481515407562255859e+00 1.797919347882270813e-02
8.830000000000000000e+02 1.395332717895507812e+01 -2.836282920837402344e+01 -1.119741890579462051e-02 -8.979158155852928758e-05 -3.386163152754306793e-03 1.483529224060475826e-03
8.840000000000000000e+02 1.406000518798828125e+01 -2.282160949707031250e+01 6.996046286076307297e-03 1.492061419412493706e-03 2.546432428061962128e-03 -7.710037170909345150e-04
8.850000000000000000e+02 1.401820659637451172e+01 -2.677606391906738281e+01 -1.012076437473297119e-02 2.044545020908117294e-03 -2.422865713015198708e-03 6.701461970806121826e-04
8.860000000000000000e+02 1.398648071289062500e+01 -2.756808471679687500e+01 1.022731699049472809e-02 1.360736670903861523e-03 3.476416226476430893e-03 -3.439307038206607103e-04
8.870000000000000000e+02 1.475476932525634766e+01 -2.043415451049804688e+01 5.607938393950462341e-03 1.160398242063820362e-03 2.030500909313559532e-03 -3.088220255449414253e-04
8.880000000000000000e+02 1.406143665313720703e+01 -2.202651023864746094e+01 -6.486842874437570572e-03 1.364577212370932102e-03 -1.536679686978459358e-03 -3.193835436832159758e-05
8.890000000000000000e+02 1.474254798889160156e+01 -1.722830963134765625e+01 3.757921513170003891e-03 4.674169758800417185e-04 1.267601503059267998e-03 -1.169428360299207270e-04
8.900000000000000000e+02 1.401040649414062500e+01 -1.722771835327148438e+01 -3.865019651129841805e-03 3.548190288711339235e-04 -1.053060172125697136e-03 -1.186937242891872302e-05
8.910000000000000000e+02 1.401803874969482422e+01 -1.641671562194824219e+01 3.632430220022797585e-03 2.732882858254015446e-04 1.171715557575225830e-03 -2.173438988393172622e-04
8.920000000000000000e+02 1.475194454193115234e+01 -1.402061176300048828e+01 3.002313198521733284e-03 1.369731035083532333e-04 9.417858673259615898e-04 -8.100784179987385869e-05
8.930000000000000000e+02 1.402767181396484375e+01 -1.560902786254882812e+01 -3.403041511774063110e-03 2.903741551563143730e-04 -9.338001837022602558e-04 -7.292549980775220320e-06
8.940000000000000000e+02 1.395433807373046875e+01 -9.196317672729492188e+00 -1.729137729853391647e-03 -7.997764441824983805e-06 -5.211406387388706207e-04 1.195746153825893998e-04
8.950000000000000000e+02 1.397133922576904297e+01 -1.001918220520019531e+01 1.928453566506505013e-03 -4.280352368368767202e-05 5.656949942931532860e-04 -1.237957767443731427e-04
8.960000000000000000e+02 1.332561492919921875e+01 -1.401770114898681641e+01 3.079458372667431831e-03 8.139970304910093546e-05 9.482574532739818096e-04 -3.449648502282798290e-04
8.970000000000000000e+02 1.472985363006591797e+01 -1.001282978057861328e+01 -1.872219261713325977e-03 1.912205334519967437e-05 -5.559291457757353783e-04 5.822112507303245366e-05
8.980000000000000000e+02 1.356853389739990234e+01 -1.875825166702270508e+00 -9.302102625952102244e-06 3.101673210039734840e-04 9.025956387631595135e-05 -7.018110045464709401e-05
8.990000000000000000e+02 1.414145469665527344e+01 -5.982110500335693359e+00 -1.249321852810680866e-03 3.998154352302663028e-05 -3.628020931500941515e-04 1.834045106079429388e-04
9.000000000000000000e+02 1.473699378967285156e+01 -1.081880664825439453e+01 2.092170529067516327e-03 4.981861820851918310e-06 6.291457102634012699e-04 -5.479567334987223148e-05
9.010000000000000000e+02 1.314178848266601562e+01 -9.196575164794921875e+00 1.844003214500844479e-03 -8.042398258112370968e-05 5.290737608447670937e-04 -1.218040779349394143e-04
9.020000000000000000e+02 1.411365222930908203e+01 -6.767406463623046875e+00 1.376616186462342739e-03 -5.458923624246381223e-05 3.966080839745700359e-04 -1.739322906360030174e-04
9.030000000000000000e+02 1.119326591491699219e+01 -2.843991756439208984e+00 -4.316846025176346302e-04 -8.317018364323303103e-05 -1.544564292998984456e-04 -4.730584987555630505e-05
9.040000000000000000e+02 1.345090007781982422e+01 -2.473172187805175781e+00 -4.252995859133079648e-05 -3.396082320250570774e-04 -1.146414506365545094e-04 4.416638330440036952e-05
9.050000000000000000e+02 1.405638217926025391e+01 -7.566280841827392578e+00 -1.494505675509572029e-03 5.928140672040171921e-05 -4.305672773625701666e-04 1.201675477204844356e-04
9.060000000000000000e+02 1.403910255432128906e+01 -1.401761054992675781e+01 -3.012219676747918129e-03 1.442651555407792330e-04 -8.603862952440977097e-04 6.962050974834710360e-05
9.070000000000000000e+02 1.403530788421630859e+01 -1.480939769744873047e+01 3.232900286093354225e-03 1.286656770389527082e-04 1.008469844236969948e-03 -1.938745845109224319e-04
9.080000000000000000e+02 1.474586105346679688e+01 -1.883296203613281250e+01 4.541468340903520584e-03 7.676063105463981628e-04 1.592722488567233086e-03 -2.355331671424210072e-04
9.090000000000000000e+02 1.336307048797607422e+01 -2.124065780639648438e+01 -6.063602399080991745e-03 9.689854341559112072e-04 -1.528385095298290253e-03 -1.445576162950601429e-05
9.100000000000000000e+02 1.405746459960937500e+01 -2.123172950744628906e+01 6.092007737606763840e-03 9.994254214689135551e-04 2.127429936081171036e-03 -6.842382717877626419e-04
9.110000000000000000e+02 2.158733749389648438e+01 2.651668548583984375e+01 1.240658387541770935e-02 8.309259414672851562e+00 2.496499776840209961e+00 -3.487507626414299011e-02
9.120000000000000000e+02 1.405103588104248047e+01 -2.440837478637695312e+01 7.958927191793918610e-03 1.921565039083361626e-03 2.964147599413990974e-03 -9.727316210046410561e-04
9.130000000000000000e+02 2.151666259765625000e+01 1.125630569458007812e+01 4.368330352008342743e-03 8.322140693664550781e+00 2.497952699661254883e+00 3.256752341985702515e-02
9.140000000000000000e+02 2.151674461364746094e+01 1.205792236328125000e+01 4.656301345676183701e-03 8.300528526306152344e+00 2.491555452346801758e+00 2.681485936045646667e-02
9.150000000000000000e+02 2.024527168273925781e+01 -2.787716293334960938e+01 -1.765803433954715729e-02 7.360445499420166016e+00 2.202836275100708008e+00 1.065935790538787842e-01
9.160000000000000000e+02 2.154402923583984375e+01 2.969276237487792969e+01 3.050527162849903107e-02 8.446323394775390625e+00 2.543048620223999023e+00 -7.857808470726013184e-02
9.170000000000000000e+02 2.035489273071289062e+01 -3.031430053710937500e+01 5.295073240995407104e-02 7.559713363647460938e+00 2.283799171447753906e+00 1.595867574214935303e-01
9.180000000000000000e+02 2.027558326721191406e+01 -2.867714500427246094e+01 2.897031418979167938e-02 7.421099185943603516e+00 2.235020875930786133e+00 1.169817447662353516e-01
9.190000000000000000e+02 7.959204101562500000e+01 3.880136871337890625e+01 3.640599315986037254e-04 7.622409343719482422e+00 2.286832094192504883e+00 6.363065040204674006e-05
9.200000000000000000e+02 7.957448577880859375e+01 3.567892837524414062e+01 3.740409156307578087e-04 7.621002674102783203e+00 2.286412954330444336e+00 8.828703721519559622e-05
9.210000000000000000e+02 7.865948486328125000e+01 3.484131240844726562e+01 4.454798181541264057e-04 7.627220630645751953e+00 2.288299798965454102e+00 4.106159613002091646e-04
9.220000000000000000e+02 7.790645599365234375e+01 3.056305313110351562e+01 3.583311918191611767e-04 7.632103919982910156e+00 2.289738655090332031e+00 -1.373058476019650698e-04
9.230000000000000000e+02 7.957068634033203125e+01 3.242554855346679688e+01 1.209133042721077800e-04 7.620029926300048828e+00 2.286045312881469727e+00 -9.045374099514447153e-06
9.240000000000000000e+02 7.887434387207031250e+01 1.464539527893066406e+01 1.635515509406104684e-04 7.640772819519042969e+00 2.292280912399291992e+00 -3.484756220132112503e-03
9.250000000000000000e+02 7.962532043457031250e+01 1.477165508270263672e+01 7.920132338767871261e-05 7.634457111358642578e+00 2.290360927581787109e+00 -1.508205197751522064e-03
9.260000000000000000e+02 7.885002136230468750e+01 2.025912475585937500e+01 2.559455169830471277e-04 7.630145549774169922e+00 2.289120435714721680e+00 -1.874907989986240864e-03
9.270000000000000000e+02 7.961620330810546875e+01 2.118697547912597656e+01 9.652583685237914324e-05 7.622790336608886719e+00 2.286865949630737305e+00 -7.798938313499093056e-04
9.280000000000000000e+02 7.878845977783203125e+01 2.827654266357421875e+01 1.718228450044989586e-04 7.625708580017089844e+00 2.287764072418212891e+00 -3.950129903387278318e-04
9.290000000000000000e+02 7.959665679931640625e+01 2.840432739257812500e+01 -1.460419207433005795e-05 7.619466781616210938e+00 2.285835742950439453e+00 -2.475598885212093592e-04
9.300000000000000000e+02 7.959045410156250000e+01 3.001065063476562500e+01 -1.575664754227545927e-07 7.619493484497070312e+00 2.285847902297973633e+00 -1.547243155073374510e-04
9.310000000000000000e+02 7.873421478271484375e+01 3.150281143188476562e+01 1.774295087670907378e-04 7.626044273376464844e+00 2.287866592407226562e+00 6.267725257202982903e-05
9.320000000000000000e+02 7.877909088134765625e+01 2.908129119873046875e+01 1.338799575023585930e-05 7.625667572021484375e+00 2.287704229354858398e+00 -2.344530803384259343e-04
9.330000000000000000e+02 7.879589843750000000e+01 2.747247695922851562e+01 2.693617943805293180e-06 7.625777244567871094e+00 2.287734031677246094e+00 -4.223553114570677280e-04
9.340000000000000000e+02 7.726951599121093750e+01 2.321802139282226562e+01 8.393140742555260658e-04 7.639327049255371094e+00 2.292049884796142578e+00 -2.349197166040539742e-03
9.350000000000000000e+02 7.881035614013671875e+01 2.586682510375976562e+01 2.159166979254223406e-05 7.626107692718505859e+00 2.287838935852050781e+00 -6.262249662540853024e-04
9.360000000000000000e+02 7.883190917968750000e+01 2.346531295776367188e+01 2.339520724490284920e-04 7.627181529998779297e+00 2.288224697113037109e+00 -1.098230364732444286e-03
9.370000000000000000e+02 7.882570648193359375e+01 2.426589393615722656e+01 5.225562563282437623e-05 7.626715183258056641e+00 2.288030385971069336e+00 -8.780912030488252640e-04
9.380000000000000000e+02 7.961115264892578125e+01 2.359241485595703125e+01 -2.181043419113848358e-05 7.620837211608886719e+00 2.286244630813598633e+00 -5.440509994514286518e-04
9.390000000000000000e+02 7.884172058105468750e+01 2.186255645751953125e+01 2.584212052170187235e-04 7.628409862518310547e+00 2.288600444793701172e+00 -1.463866909034550190e-03
9.400000000000000000e+02 7.728981018066406250e+01 2.161926841735839844e+01 9.406546596437692642e-04 7.640602111816406250e+00 2.292462825775146484e+00 -3.151478944346308708e-03
9.410000000000000000e+02 7.808788299560546875e+01 1.853185462951660156e+01 3.970497054979205132e-04 7.638594150543212891e+00 2.291697502136230469e+00 -3.538448130711913109e-03
9.420000000000000000e+02 7.886353302001953125e+01 1.705211067199707031e+01 2.632829418871551752e-04 7.635290145874023438e+00 2.290666103363037109e+00 -2.780243987217545509e-03
9.430000000000000000e+02 7.886010742187500000e+01 1.785426902770996094e+01 1.436870370525866747e-04 7.633749008178710938e+00 2.290167808532714844e+00 -2.490894868969917297e-03
9.440000000000000000e+02 7.962194061279296875e+01 1.717779541015625000e+01 1.268356845685048029e-05 7.628853797912597656e+00 2.288659811019897461e+00 -1.201757811941206455e-03
9.450000000000000000e+02 7.887069702148437500e+01 1.544748973846435547e+01 2.748912374954670668e-04 7.638793945312500000e+00 2.291720628738403320e+00 -3.291380126029253006e-03
9.460000000000000000e+02 7.886706542968750000e+01 1.624973678588867188e+01 1.594813802512362599e-04 7.636929035186767578e+00 2.291126489639282227e+00 -2.973508788272738457e-03
9.470000000000000000e+02 7.887869262695312500e+01 1.304367923736572266e+01 1.622634736122563481e-04 7.645321846008300781e+00 2.293645143508911133e+00 -4.023464862257242203e-03
9.480000000000000000e+02 7.887720489501953125e+01 1.384404277801513672e+01 2.896477235481142998e-04 7.642971038818359375e+00 2.292978286743164062e+00 -3.820161335170269012e-03
9.490000000000000000e+02 7.812944793701171875e+01 1.212462329864501953e+01 4.763199831359088421e-04 7.653672695159912109e+00 2.296244859695434570e+00 -6.760992575436830521e-03
9.500000000000000000e+02 7.888763427734375000e+01 9.035680770874023438e+00 2.724828664213418961e-04 7.659842491149902344e+00 2.298034429550170898e+00 -5.413979291915893555e-03
9.510000000000000000e+02 7.867372894287109375e+01 3.572779846191406250e+01 -9.909372602123767138e-05 7.627284526824951172e+00 2.288155555725097656e+00 6.067666108720004559e-04
9.520000000000000000e+02 7.769840240478515625e+01 -3.580912780761718750e+01 -7.915450260043144226e-04 7.926967620849609375e+00 2.377852678298950195e+00 -5.485028028488159180e-03
9.530000000000000000e+02 7.956089019775390625e+01 -3.491160583496093750e+01 -6.868365744594484568e-05 7.947678089141845703e+00 2.384282827377319336e+00 -1.376246684230864048e-03
9.540000000000000000e+02 7.881994628906250000e+01 -2.865392494201660156e+01 9.599058830644935369e-05 7.911571979522705078e+00 2.373500347137451172e+00 -6.944837048649787903e-03
9.550000000000000000e+02 7.960980987548828125e+01 -2.772993469238281250e+01 3.248621651437133551e-04 7.915379524230957031e+00 2.374711275100708008e+00 -2.745389239862561226e-03
9.560000000000000000e+02 7.811679840087890625e+01 -2.235477447509765625e+01 -6.657085032202303410e-04 7.867163181304931641e+00 2.359949350357055664e+00 -1.375640369951725006e-02
9.570000000000000000e+02 7.962712860107421875e+01 -2.131309700012207031e+01 2.257590676890686154e-04 7.872271060943603516e+00 2.361749172210693359e+00 -3.364162519574165344e-03
9.580000000000000000e+02 7.816482543945312500e+01 -1.513600444793701172e+01 1.063675881596282125e-04 7.817044258117675781e+00 2.345145225524902344e+00 -1.497472822666168213e-02
9.590000000000000000e+02 7.963467407226562500e+01 -1.409544086456298828e+01 -2.172698295908048749e-04 7.815039634704589844e+00 2.344446659088134766e+00 -3.794355783611536026e-03
9.600000000000000000e+02 7.817451477050781250e+01 -7.921989917755126953e+00 3.276739516877569258e-05 7.764104843139648438e+00 2.329241275787353516e+00 -1.480212248861789703e-02
9.610000000000000000e+02 7.963626098632812500e+01 -6.878605842590332031e+00 1.156666839960962534e-04 7.756287574768066406e+00 2.326920986175537109e+00 -3.622042248025536537e-03
9.620000000000000000e+02 7.890528106689453125e+01 -5.867717266082763672e-01 1.366578508168458939e-04 7.712030887603759766e+00 2.313650131225585938e+00 -8.156931959092617035e-03
9.630000000000000000e+02 7.963531494140625000e+01 3.384068906307220459e-01 2.880458669096697122e-05 7.703184127807617188e+00 2.310963869094848633e+00 -3.174460958689451218e-03
9.640000000000000000e+02 7.889305877685546875e+01 7.430956840515136719e+00 2.626481582410633564e-04 7.666882991790771484e+00 2.300143718719482422e+00 -5.921700503677129745e-03
9.650000000000000000e+02 7.963156127929687500e+01 7.555202960968017578e+00 -2.184384356951341033e-06 7.661432266235351562e+00 2.298429012298583984e+00 -2.395329065620899200e-03
9.660000000000000000e+02 7.949841308593750000e+01 4.037976837158203125e+01 3.096411819569766521e-05 7.621767520904541016e+00 2.286539554595947266e+00 -4.717518168035894632e-04
9.670000000000000000e+02 7.769241333007812500e+01 3.893545913696289062e+01 -8.244615164585411549e-04 7.635099411010742188e+00 2.290282487869262695e+00 6.926603382453322411e-04
9.680000000000000000e+02 7.897928619384765625e+01 3.717208099365234375e+01 -5.482638371177017689e-04 7.625473499298095703e+00 2.287477493286132812e+00 4.295919497963041067e-04
9.690000000000000000e+02 7.753338623046875000e+01 3.668692016601562500e+01 -1.778211881173774600e-04 7.635114192962646484e+00 2.290480852127075195e+00 9.075595880858600140e-04
9.700000000000000000e+02 7.867170715332031250e+01 3.398117446899414062e+01 -1.357135624857619405e-04 7.626951694488525391e+00 2.288044691085815430e+00 1.421663037035614252e-04
9.710000000000000000e+02 7.693777465820312500e+01 3.208463668823242188e+01 2.895883808378130198e-04 7.638800144195556641e+00 2.291726827621459961e+00 1.489428250351920724e-04
9.720000000000000000e+02 7.962979125976562500e+01 9.159124374389648438e+00 -6.221736839506775141e-06 7.654113292694091797e+00 2.296232223510742188e+00 -2.207373734563589096e-03
9.730000000000000000e+02 7.888407897949218750e+01 1.063997554779052734e+01 2.855442289728671312e-04 7.653496742248535156e+00 2.296134710311889648e+00 -4.892979282885789871e-03
9.740000000000000000e+02 7.888997650146484375e+01 8.233430862426757812e+00 1.546416024211794138e-04 7.663261413574218750e+00 2.299024820327758789e+00 -5.626389756798744202e-03
9.750000000000000000e+02 7.889640808105468750e+01 5.829617977142333984e+00 2.465598809067159891e-04 7.674619674682617188e+00 2.302459955215454102e+00 -6.424818653613328934e-03
9.760000000000000000e+02 7.889544677734375000e+01 6.629688739776611328e+00 1.615226792637258768e-04 7.670650005340576172e+00 2.301243543624877930e+00 -6.127534434199333191e-03
9.770000000000000000e+02 7.815750122070312500e+01 4.914390563964843750e+00 5.383058451116085052e-04 7.683330535888671875e+00 2.305160522460937500e+00 -1.053238380700349808e-02
9.780000000000000000e+02 7.890004730224609375e+01 2.622793197631835938e+00 2.018082450376823545e-04 7.692116737365722656e+00 2.307695627212524414e+00 -7.365714292973279953e-03
9.790000000000000000e+02 7.889905548095703125e+01 3.425374746322631836e+00 1.557277864776551723e-04 7.687487602233886719e+00 2.306293010711669922e+00 -7.099020760506391525e-03
9.800000000000000000e+02 7.963397979736328125e+01 2.744721412658691406e+00 1.868583603936713189e-05 7.687764644622802734e+00 2.306334972381591797e+00 -2.936374628916382790e-03
9.810000000000000000e+02 7.890114593505859375e+01 1.820134758949279785e+00 1.529943401692435145e-04 7.696876049041748047e+00 2.309108734130859375e+00 -7.537255063652992249e-03
9.820000000000000000e+02 7.817082977294921875e+01 9.782347828149795532e-02 3.843174490612000227e-04 7.710185527801513672e+00 2.313170909881591797e+00 -1.258257497102022171e-02
9.830000000000000000e+02 7.890480041503906250e+01 -1.387378454208374023e+00 1.601166150067001581e-04 7.717326641082763672e+00 2.315246105194091797e+00 -8.298256434500217438e-03
9.840000000000000000e+02 7.816899108886718750e+01 -2.304078340530395508e+00 3.568839456420391798e-04 7.725324153900146484e+00 2.317704200744628906e+00 -1.338449306786060333e-02
9.850000000000000000e+02 7.890467834472656250e+01 -4.595672130584716797e+00 1.690920180408284068e-04 7.739693164825439453e+00 2.321958541870117188e+00 -8.907062932848930359e-03
9.860000000000000000e+02 7.890444946289062500e+01 -3.792946100234985352e+00 5.794956086901947856e-05 7.733951091766357422e+00 2.320202827453613281e+00 -8.825162425637245178e-03
9.870000000000000000e+02 7.963570404052734375e+01 -4.472649574279785156e+00 -4.301240551285445690e-05 7.737646579742431641e+00 2.321281194686889648e+00 -3.544444916769862175e-03
9.880000000000000000e+02 7.890477752685546875e+01 -5.397840023040771484e+00 1.316292764386162162e-05 7.745539665222167969e+00 2.323665857315063477e+00 -9.087893180549144745e-03
9.890000000000000000e+02 7.890499114990234375e+01 -6.200079441070556641e+00 1.722640299703925848e-04 7.751445293426513672e+00 2.325485229492187500e+00 -9.139117784798145294e-03
9.900000000000000000e+02 7.890764617919921875e+01 -7.804033756256103516e+00 1.789303641999140382e-04 7.763488769531250000e+00 2.329100370407104492e+00 -9.302003309130668640e-03
9.910000000000000000e+02 7.890450286865234375e+01 -1.181257343292236328e+01 -1.689391792751848698e-04 7.794417381286621094e+00 2.338274478912353516e+00 -9.651144966483116150e-03
9.920000000000000000e+02 7.890533447265625000e+01 -1.101053142547607422e+01 1.875681336969137192e-04 7.788171291351318359e+00 2.336507797241210938e+00 -9.520044550299644470e-03
9.930000000000000000e+02 7.963554382324218750e+01 -1.168972015380859375e+01 1.838874304667115211e-04 7.795251846313476562e+00 2.338630676269531250e+00 -3.720866050571203232e-03
9.940000000000000000e+02 7.890329742431640625e+01 -1.261411476135253906e+01 1.835800794651731849e-04 7.800669670104980469e+00 2.340255975723266602e+00 -9.553765878081321716e-03
9.950000000000000000e+02 7.890190124511718750e+01 -1.341592884063720703e+01 -2.138580166501924396e-04 7.806921958923339844e+00 2.342012405395507812e+00 -9.674479253590106964e-03
9.960000000000000000e+02 7.890171813964843750e+01 -1.502018928527832031e+01 -2.559365821070969105e-04 7.819396495819091797e+00 2.345742225646972656e+00 -9.617310017347335815e-03
9.970000000000000000e+02 7.889085388183593750e+01 -1.902878570556640625e+01 1.267203042516484857e-04 7.849813938140869141e+00 2.354982376098632812e+00 -9.101799689233303070e-03
9.980000000000000000e+02 7.889375305175781250e+01 -1.822636222839355469e+01 -3.114258288405835629e-04 7.843843936920166016e+00 2.353059768676757812e+00 -9.360256604850292206e-03
9.990000000000000000e+02 7.963110351562500000e+01 -1.890667724609375000e+01 -2.536774554755538702e-04 7.853840351104736328e+00 2.356076002120971680e+00 -3.630399936810135841e-03
1.000000000000000000e+03 7.888696289062500000e+01 -1.983089828491210938e+01 -3.506783396005630493e-04 7.855669021606445312e+00 2.356595516204833984e+00 -9.159359149634838104e-03
1.001000000000000000e+03 7.888225555419921875e+01 -2.063337898254394531e+01 1.039345588651485741e-04 7.861451148986816406e+00 2.358466625213623047e+00 -8.872817270457744598e-03
1.002000000000000000e+03 7.887397003173828125e+01 -2.223943901062011719e+01 8.069089381024241447e-05 7.872674465179443359e+00 2.361826419830322266e+00 -8.561670780181884766e-03
1.003000000000000000e+03 7.735897827148437500e+01 -2.245133018493652344e+01 -5.395449697971343994e-04 7.861680507659912109e+00 2.358342170715332031e+00 -1.823351159691810608e-02
1.004000000000000000e+03 7.884933471679687500e+01 -2.544757270812988281e+01 1.059719070326536894e-04 7.893389225006103516e+00 2.368048429489135742e+00 -7.798586506396532059e-03
1.005000000000000000e+03 7.885514068603515625e+01 -2.464607048034667969e+01 -4.730897780973464251e-04 7.888420581817626953e+00 2.366384267807006836e+00 -8.164968341588973999e-03
1.006000000000000000e+03 7.961715698242187500e+01 -2.532365608215332031e+01 -3.441339649725705385e-04 7.900322437286376953e+00 2.369993448257446289e+00 -3.113951068371534348e-03
1.007000000000000000e+03 7.884287261962890625e+01 -2.624877166748046875e+01 -4.927893169224262238e-04 7.898159027099609375e+00 2.369299888610839844e+00 -7.780799642205238342e-03
1.008000000000000000e+03 7.802439880371093750e+01 -2.875915908813476562e+01 -1.004574936814606190e-03 7.903187274932861328e+00 2.370654821395874023e+00 -1.121591683477163315e-02
1.009000000000000000e+03 7.717339324951171875e+01 -2.961301994323730469e+01 -1.703514950349926949e-03 7.897884368896484375e+00 2.368854284286499023e+00 -1.467754226177930832e-02
1.010000000000000000e+03 7.874813079833984375e+01 -3.259844970703125000e+01 -7.852909620851278305e-04 7.929106712341308594e+00 2.378496408462524414e+00 -5.623154807835817337e-03
1.011000000000000000e+03 7.876613616943359375e+01 -3.181168556213378906e+01 -2.895109719247557223e-05 7.926186084747314453e+00 2.377846956253051758e+00 -5.557841621339321136e-03
1.012000000000000000e+03 7.958606719970703125e+01 -3.252059936523437500e+01 1.222601131303235888e-04 7.939959526062011719e+00 2.382024526596069336e+00 -1.916405512019991875e-03
1.013000000000000000e+03 7.872295379638671875e+01 -3.338992691040039062e+01 -4.569348820950835943e-04 7.931900501251220703e+00 2.379433155059814453e+00 -4.671261180192232132e-03
1.014000000000000000e+03 7.865446472167968750e+01 -3.574829101562500000e+01 -3.021328011527657509e-04 7.937819957733154297e+00 2.381255388259887695e+00 -3.304237034171819687e-03
1.015000000000000000e+03 7.863802337646484375e+01 -3.886494445800781250e+01 -4.981679958291351795e-04 7.943785667419433594e+00 2.382986068725585938e+00 -2.247614087536931038e-03
1.016000000000000000e+03 7.762010955810546875e+01 -3.892963409423828125e+01 -1.454142329748719931e-04 7.928880691528320312e+00 2.378620624542236328e+00 -3.558346536010503769e-03
1.017000000000000000e+03 7.870584869384765625e+01 -3.959960174560546875e+01 1.234269351698458195e-03 7.944371700286865234e+00 2.383681774139404297e+00 -2.325371839106082916e-03
1.018000000000000000e+03 7.956831359863281250e+01 -3.965932846069335938e+01 -8.218393195420503616e-04 7.958273410797119141e+00 2.387235403060913086e+00 -1.216368400491774082e-03
1.019000000000000000e+03 7.864307403564453125e+01 -4.027543258666992188e+01 -2.162466291338205338e-03 7.943161010742187500e+00 2.382299661636352539e+00 -2.228304743766784668e-03
1.020000000000000000e+03 7.854776763916015625e+01 -4.197085952758789062e+01 -4.613714700099080801e-04 7.948318958282470703e+00 2.384357213973999023e+00 -1.662403694353997707e-03
1.021000000000000000e+03 4.408156573772430420e-01 3.397204971313476562e+01 6.344056688249111176e-03 -3.335335850715637207e-02 -8.102791383862495422e-03 3.091722028329968452e-03
1.022000000000000000e+03 2.297526121139526367e+00 3.623940658569335938e+01 -6.911344360560178757e-03 -3.627368807792663574e-02 -1.295550912618637085e-02 2.084156870841979980e-02
1.023000000000000000e+03 3.751352429389953613e-01 2.751980781555175781e+01 5.094389431178569794e-03 9.331631008535623550e-04 1.808265806175768375e-03 -1.052199979312717915e-03
1.024000000000000000e+03 1.900275588035583496e+00 2.955237770080566406e+01 -7.758752908557653427e-03 -5.231282673776149750e-03 -3.897010581567883492e-03 7.209932897239923477e-03
1.025000000000000000e+03 3.655537962913513184e-01 2.109140396118164062e+01 2.104790648445487022e-03 2.062528161332011223e-03 1.250195666216313839e-03 -8.478616946376860142e-04
1.026000000000000000e+03 1.095319986343383789e+00 2.169554138183593750e+01 2.325007924810051918e-03 1.729349256493151188e-03 1.216307166032493114e-03 -1.307386788539588451e-03
1.027000000000000000e+03 1.103924155235290527e+00 2.490376853942871094e+01 3.654926782473921776e-03 1.529274275526404381e-03 1.555260270833969116e-03 -1.256370684131979942e-03
1.028000000000000000e+03 1.113659143447875977e+00 2.650888824462890625e+01 4.262083675712347031e-03 4.394167335703969002e-04 1.410450204275548458e-03 -6.181086064316332340e-04
1.029000000000000000e+03 1.107647299766540527e+00 2.570644950866699219e+01 -4.465513397008180618e-03 6.845463067293167114e-04 -1.134290010668337345e-03 2.044396242126822472e-03
1.030000000000000000e+03 3.702251911163330078e-01 2.591164398193359375e+01 4.455267451703548431e-03 2.484852448105812073e-03 2.082035876810550690e-03 -1.271900604479014874e-03
1.031000000000000000e+03 1.121508002281188965e+00 2.731335830688476562e+01 -5.330454558134078979e-03 -7.703059236519038677e-04 -1.830228255130350590e-03 2.991653745993971825e-03
1.032000000000000000e+03 1.140531182289123535e+00 2.892199134826660156e+01 -6.233851425349712372e-03 -3.757587168365716934e-03 -2.997431671246886253e-03 4.459312185645103455e-03
1.033000000000000000e+03 2.671385526657104492e+00 3.101200294494628906e+01 2.095499541610479355e-03 -9.934238158166408539e-03 -2.351621631532907486e-03 1.066889706999063492e-02
1.034000000000000000e+03 1.267818927764892578e+00 3.297828292846679688e+01 5.002181045711040497e-03 -2.256132662296295166e-02 -5.267743952572345734e-03 8.869901299476623535e-03
1.035000000000000000e+03 4.145405590534210205e-01 3.235313796997070312e+01 6.012538913637399673e-03 -1.906460709869861603e-02 -3.915620036423206329e-03 1.620308030396699905e-03
1.036000000000000000e+03 1.310466051101684570e+00 3.380097961425781250e+01 -7.720810826867818832e-03 -2.764831669628620148e-02 -1.061073783785104752e-02 1.278733368963003159e-02
1.037000000000000000e+03 1.368891716003417969e+00 3.546104812622070312e+01 -7.171403151005506516e-03 -4.030068218708038330e-02 -1.424162648618221283e-02 1.423839014023542404e-02
1.038000000000000000e+03 2.262434959411621094e+00 3.715738296508789062e+01 8.301790803670883179e-03 -4.827867448329925537e-02 -1.199306547641754150e-02 2.513170428574085236e-02
1.039000000000000000e+03 1.222361564636230469e+00 3.947325897216796875e+01 6.348037626594305038e-03 -7.769182324409484863e-02 -2.140313573181629181e-02 7.731315679848194122e-03
1.040000000000000000e+03 3.964502811431884766e-01 3.961703872680664062e+01 -6.828762125223875046e-03 -9.106203913688659668e-02 -2.936724014580249786e-02 4.199046175926923752e-03
1.041000000000000000e+03 1.227563261985778809e+00 4.102078247070312500e+01 7.923383265733718872e-03 -9.084200859069824219e-02 -2.487558871507644653e-02 3.385863034054636955e-03
1.042000000000000000e+03 3.640421032905578613e-01 1.948148727416992188e+01 1.607227721251547337e-03 1.496795797720551491e-03 9.312070324085652828e-04 -6.366731249727308750e-04
1.043000000000000000e+03 3.595590591430664062e-01 1.386129093170166016e+01 -9.590811096131801605e-04 1.876141468528658152e-04 -2.314400771865621209e-04 2.353731397306546569e-04
1.044000000000000000e+03 1.076909065246582031e+00 1.447905158996582031e+01 -1.098453067243099213e-03 2.350323775317519903e-04 -2.590262156445533037e-04 1.632737257750704885e-04
1.045000000000000000e+03 1.008516788482666016e+00 7.307109832763671875e+00 4.502398369368165731e-04 6.288988515734672546e-05 1.539389195386320353e-04 -1.397593005094677210e-04
1.046000000000000000e+03 3.332831263542175293e-01 7.454275608062744141e+00 -4.352730175014585257e-04 -2.850748751370701939e-05 -1.391341502312570810e-04 1.103610702557489276e-04
1.047000000000000000e+03 9.381904602050781250e-01 3.385622739791870117e+00 -2.061180275632068515e-04 -2.111545836669392884e-05 -6.817004759795963764e-05 5.145044269738718867e-05
1.048000000000000000e+03 9.383975267410278320e-01 4.154919624328613281e+00 2.552751975599676371e-04 2.117059557349421084e-05 8.293373684864491224e-05 -5.981904905638657510e-05
1.049000000000000000e+03 4.764237403869628906e+00 3.709216594696044922e+00 2.192133542848750949e-04 1.212149945786222816e-04 1.021284988382831216e-04 -9.311654139310121536e-05
1.050000000000000000e+03 3.571037054061889648e+00 2.462465286254882812e+00 1.512114249635487795e-04 8.856502972776070237e-05 7.193294004537165165e-05 -8.347191760549321771e-05
1.051000000000000000e+03 2.217251539230346680e+00 3.952234506607055664e+00 2.740007766988128424e-04 5.494846845977008343e-05 9.868477354757487774e-05 -1.088706849259324372e-04
1.052000000000000000e+03 9.685449600219726562e-01 5.718876838684082031e+00 3.440726140979677439e-04 3.770610055653378367e-05 1.145336136687546968e-04 -8.878255903255194426e-05
1.053000000000000000e+03 1.053308486938476562e+00 1.048400783538818359e+01 7.269696798175573349e-04 1.131673925556242466e-04 2.520411217119544744e-04 -2.424022095510736108e-04
1.054000000000000000e+03 1.043165206909179688e+00 9.683410644531250000e+00 -6.375365774147212505e-04 -1.211704147863201797e-05 -1.948960853042080998e-04 1.709828939056023955e-04
1.055000000000000000e+03 1.067131400108337402e+00 1.207505416870117188e+01 8.911315235309302807e-04 1.587601145729422569e-04 3.149674739688634872e-04 -2.931641065515577793e-04
1.056000000000000000e+03 3.556239902973175049e-01 1.225564193725585938e+01 -8.459172677248716354e-04 7.191102486103773117e-05 -2.322018845006823540e-04 2.201767347287386656e-04
1.057000000000000000e+03 1.075926184654235840e+00 1.367652511596679688e+01 1.042404212057590485e-03 2.447831211611628532e-04 3.861561999656260014e-04 -3.462567692622542381e-04
1.058000000000000000e+03 1.803250789642333984e+00 1.830035018920898438e+01 -1.578051829710602760e-03 3.881659940816462040e-04 -3.569657565094530582e-04 1.568759616930037737e-04
1.059000000000000000e+03 1.081835627555847168e+00 1.687233924865722656e+01 1.361277536489069462e-03 6.395779782906174660e-04 6.002566660754382610e-04 -5.712428246624767780e-04
1.060000000000000000e+03 1.083818316459655762e+00 1.767512893676757812e+01 -1.415057806298136711e-03 5.689116078428924084e-04 -2.538438711781054735e-04 2.091932110488414764e-04
1.061000000000000000e+03 1.086137175559997559e+00 1.847618675231933594e+01 1.570558641105890274e-03 9.638612973503768444e-04 7.603259873576462269e-04 -7.649864419363439083e-04
1.062000000000000000e+03 1.089408159255981445e+00 1.927891349792480469e+01 -1.655448810197412968e-03 7.792013348080217838e-04 -2.628742658998817205e-04 3.270519664511084557e-04
1.063000000000000000e+03 1.095939517021179199e+00 2.249440574645996094e+01 -2.716712187975645065e-03 1.155297621153295040e-03 -4.684243467636406422e-04 9.534558630548417568e-04
1.064000000000000000e+03 1.312990093231201172e+01 1.794231891632080078e+00 -9.151422273134812713e-05 8.247212099377065897e-05 -2.712630021051154472e-06 -3.456971171544864774e-05
1.065000000000000000e+03 1.441622161865234375e+01 2.575201034545898438e+00 -2.346820401726290584e-04 -6.641884101554751396e-05 -9.033026435645297170e-05 3.555894181772600859e-06
1.066000000000000000e+03 1.435571861267089844e+01 -2.729601621627807617e+00 -5.242510815151035786e-04 -6.987991218920797110e-05 -1.782392937457188964e-04 2.291487617185339332e-04
1.067000000000000000e+03 1.118482494354248047e+01 -2.307686805725097656e+00 3.158546460326761007e-04 1.842719066189602017e-04 1.500379730714485049e-04 6.130587280495092273e-05
1.068000000000000000e+03 1.420224761962890625e+01 -3.524791479110717773e+00 6.873714155517518520e-04 7.745141920167952776e-05 2.294468577019870281e-04 -2.508044708520174026e-04
1.069000000000000000e+03 1.214936065673828125e+01 -2.256814002990722656e+00 1.814163988456130028e-04 2.646619686856865883e-04 1.338235160801559687e-04 4.260145942680537701e-05
1.070000000000000000e+03 1.366439723968505859e+01 -3.300970554351806641e+00 -1.912455627461895347e-05 -3.348246682435274124e-04 -1.061847724486142397e-04 2.661081671249121428e-04
1.071000000000000000e+03 1.302533531188964844e+01 -2.363743066787719727e+00 1.817154698073863983e-04 2.727358660195022821e-04 1.363353949273005128e-04 -3.997108797193504870e-05
1.072000000000000000e+03 9.530317306518554688e+00 -2.373848199844360352e+00 -3.309323510620743036e-04 -1.544724509585648775e-04 -1.456214376958087087e-04 -1.796095602912828326e-05
1.073000000000000000e+03 1.278680706024169922e+01 -4.648493766784667969e+00 -8.454838534817099571e-04 2.333057273062877357e-05 -2.466459991410374641e-04 1.001163036562502384e-04
1.074000000000000000e+03 2.257519960403442383e+00 2.528479576110839844e+00 1.657016837270930409e-04 5.203748514759354293e-05 6.532175029860809445e-05 -6.479720468632876873e-05
1.075000000000000000e+03 2.914557218551635742e+00 2.490272998809814453e+00 -1.584170677233487368e-04 -6.996336014708504081e-05 -6.851413490949198604e-05 7.897940668044611812e-05
1.076000000000000000e+03 2.110797119140625000e+01 -2.696858596801757812e+01 -2.654642798006534576e-02 7.318760871887207031e+00 2.187664270401000977e+00 1.615268439054489136e-01
1.077000000000000000e+03 6.873153686523437500e+00 2.434744596481323242e+00 -1.382474292768165469e-04 -9.449366189073771238e-05 -6.982233026064932346e-05 2.693236456252634525e-05
1.078000000000000000e+03 5.468984127044677734e+00 3.060329675674438477e+00 1.843109639594331384e-04 1.085518088075332344e-04 8.785883255768567324e-05 -6.875696271890774369e-05
1.079000000000000000e+03 8.214252471923828125e+00 2.439709424972534180e+00 -1.374237472191452980e-04 -9.007638436742126942e-05 -6.825003947596997023e-05 -1.252928177564172074e-05
1.080000000000000000e+03 6.789239883422851562e+00 3.061623573303222656e+00 1.764180924510583282e-04 1.104625334846787155e-04 8.606418123235926032e-05 -3.426992770982906222e-05
1.081000000000000000e+03 6.054130554199218750e+00 3.689422845840454102e+00 2.162565215257927775e-04 1.197602468892000616e-04 1.008050312520936131e-04 -6.050136653357185423e-05
1.082000000000000000e+03 4.817762374877929688e+00 3.069423675537109375e+00 -1.747388305375352502e-04 -1.084163814084604383e-04 -8.494656503899022937e-05 8.206959319068118930e-05
1.083000000000000000e+03 1.699275732040405273e+00 7.168252468109130859e+00 -4.564318223856389523e-04 -5.804999818792566657e-05 -1.543445541756227612e-04 1.362818875350058079e-04
1.084000000000000000e+03 6.125275135040283203e+00 3.058473825454711914e+00 -1.677785039646551013e-04 -1.106556883314624429e-04 -8.353025623364374042e-05 4.883443398284725845e-05
1.085000000000000000e+03 7.379041671752929688e+00 3.699982166290283203e+00 2.039212267845869064e-04 1.265611499547958374e-04 9.914471593219786882e-05 -2.341680738027207553e-05
1.086000000000000000e+03 8.132367134094238281e+00 3.072690010070800781e+00 1.710888900561258197e-04 1.116103594540618360e-04 8.480977703584358096e-05 9.257471901946701109e-06
1.087000000000000000e+03 4.168261051177978516e+00 3.088168144226074219e+00 1.879370101960375905e-04 1.022190554067492485e-04 8.704682113602757454e-05 -9.511200187262147665e-05
1.088000000000000000e+03 1.435674858093261719e+01 3.302888631820678711e+00 2.220099413534626365e-04 7.685345917707309127e-05 8.965902088675647974e-05 -2.765940553217660636e-05
1.089000000000000000e+03 4.975683689117431641e+00 -4.583746910095214844e+00 -4.976710770279169083e-04 -4.680065612774342299e-04 -2.897032827604562044e-04 3.362619609106332064e-04
1.090000000000000000e+03 6.796439647674560547e+00 -3.118282318115234375e+00 3.299484669696539640e-04 1.168519738712348044e-04 1.340401358902454376e-04 9.018855780595913529e-05
1.091000000000000000e+03 5.304626464843750000e+00 -2.603630542755126953e+00 -3.609728883020579815e-04 -1.021615462377667427e-04 -1.389403332723304629e-04 -9.483630128670483828e-05
1.092000000000000000e+03 4.545847415924072266e+00 -3.435573577880859375e+00 -6.490399246104061604e-04 -1.433053112123161554e-04 -2.377035707468166947e-04 6.527110963361337781e-05
1.093000000000000000e+03 6.078226089477539062e+00 -3.220722198486328125e+00 -3.411622019484639168e-04 -6.185001257108524442e-05 -1.209036636282689869e-04 -8.834740583552047610e-05
1.094000000000000000e+03 3.699795246124267578e+00 -4.112530231475830078e+00 -4.930639988742768764e-04 -3.056457790080457926e-04 -2.396129275439307094e-04 -1.541290839668363333e-04
1.095000000000000000e+03 1.725418686866760254e+00 -2.615917444229125977e+00 3.896565176546573639e-04 6.196313188411295414e-05 1.354858977720141411e-04 1.062662340700626373e-04
1.096000000000000000e+03 9.956456422805786133e-01 -4.168748855590820312e+00 -6.793267093598842621e-04 -5.846046769875101745e-05 -2.213361585745587945e-04 -1.170124014606699347e-04
1.097000000000000000e+03 7.495669364929199219e+00 -3.053316116333007812e+00 -2.976819232571870089e-04 -1.703590387478470802e-04 -1.404122886015102267e-04 -7.559218647656962276e-05
1.098000000000000000e+03 8.871203422546386719e+00 -2.386219501495361328e+00 2.787790144793689251e-04 1.823108468670397997e-04 1.383269700454548001e-04 3.748688322957605124e-05
1.099000000000000000e+03 1.010513210296630859e+01 -2.950992584228515625e+00 -4.786984354723244905e-04 -1.144960333476774395e-04 -1.779583399184048176e-04 1.271430846827570349e-05
1.100000000000000000e+03 1.310427379608154297e+01 -3.272388458251953125e+01 1.757495454512536526e-03 -2.066681720316410065e-02 -5.672796629369258881e-03 1.480980869382619858e-02
1.101000000000000000e+03 1.388659572601318359e+01 -3.221921157836914062e+01 1.484265085309743881e-02 -1.263348478823900223e-02 6.627498078159987926e-04 -1.481101207900792360e-04
1.102000000000000000e+03 1.286247634887695312e+01 -5.304833412170410156e+00 8.504057186655700207e-04 7.908442785264924169e-05 2.788470301311463118e-04 -1.288322382606565952e-04
1.103000000000000000e+03 1.010363483428955078e+01 3.763797283172607422e+00 2.075467491522431374e-04 1.349497033515945077e-04 1.027489342959597707e-04 8.525572775397449732e-05
1.104000000000000000e+03 1.286441707611083984e+01 -3.322625350952148438e+01 -3.138605132699012756e-02 -4.720485955476760864e-02 -2.357727289199829102e-02 5.811083316802978516e-02
1.105000000000000000e+03 2.093215942382812500e+01 -2.312897300720214844e+01 -2.837893739342689514e-02 7.174776554107666016e+00 2.143919229507446289e+00 1.627830266952514648e-01
1.106000000000000000e+03 2.187653541564941406e+01 -1.185203343629837036e-02 -1.059888526797294617e-01 7.974834442138671875e+00 2.360653638839721680e+00 3.993346095085144043e-01
1.107000000000000000e+03 2.219571876525878906e+01 -1.278435611724853516e+01 1.286096423864364624e-01 7.692088127136230469e+00 2.346209287643432617e+00 3.084953427314758301e-01
1.108000000000000000e+03 1.235753917694091797e+01 2.452971220016479492e+00 -1.851884298957884312e-04 -1.801010694180149585e-05 -6.095956268836744130e-05 -8.040273678489029408e-05
1.109000000000000000e+03 1.279344844818115234e+01 3.176223278045654297e+00 -3.394066006876528263e-04 -1.605679608474019915e-05 -1.066390177584253252e-04 -5.958884867141023278e-05
1.110000000000000000e+03 9.497519493103027344e+00 3.083407878875732422e+00 1.711845252430066466e-04 1.043888551066629589e-04 8.267201337730512023e-05 6.168625986902043223e-05
1.111000000000000000e+03 1.623163986206054688e+01 3.723752212524414062e+01 -5.830666422843933105e-01 1.235011070966720581e-01 -1.378696560859680176e-01 -1.222231239080429077e-01
1.112000000000000000e+03 1.468075942993164062e+01 3.555575942993164062e+01 -1.727662980556488037e-01 4.289152566343545914e-03 -5.054314434528350830e-02 -1.039700061082839966e-01
1.113000000000000000e+03 2.285417556762695312e+01 -3.508044052124023438e+01 4.226292967796325684e-01 7.003727436065673828e+00 2.227906942367553711e+00 7.527218759059906006e-02
1.114000000000000000e+03 2.020614433288574219e+01 -3.528347015380859375e+01 7.522588372230529785e-01 7.551080226898193359e+00 2.491001605987548828e+00 6.302363872528076172e-01
1.115000000000000000e+03 1.293878173828125000e+01 2.489475011825561523e+00 2.236631116829812527e-04 -1.945918484125286341e-05 6.126117659732699394e-05 2.999188109242822975e-05
1.116000000000000000e+03 1.387350845336914062e+01 4.404327869415283203e+00 -8.171431254595518112e-04 -1.167258742498233914e-04 -2.801606897264719009e-04 1.394227438140660524e-04
1.117000000000000000e+03 2.236611747741699219e+01 -4.763067245483398438e+00 -1.043937653303146362e-01 7.748857975006103516e+00 2.293339252471923828e+00 2.427567839622497559e-01
1.118000000000000000e+03 1.341705703735351562e+01 2.166436195373535156e+01 3.862284123897552490e-03 1.438473118469119072e-03 1.590227126143872738e-03 7.622714038006961346e-04
1.119000000000000000e+03 1.371024990081787109e+01 2.638438034057617188e+01 2.467910293489694595e-03 -5.794782773591578007e-04 5.665295757353305817e-04 -2.184714889153838158e-03
1.120000000000000000e+03 1.289066314697265625e+01 2.472525024414062500e+01 -4.415299277752637863e-03 -1.052227686159312725e-03 -1.640258007682859898e-03 -7.061208016239106655e-04
1.121000000000000000e+03 1.426599597930908203e+01 2.404613685607910156e+01 5.280187353491783142e-03 2.264276845380663872e-03 2.263339236378669739e-03 5.913553759455680847e-04
1.122000000000000000e+03 2.113570594787597656e+01 -1.766301918029785156e+01 -1.392340064048767090e-01 7.334787368774414062e+00 2.158665895462036133e+00 3.027763068675994873e-01
1.123000000000000000e+03 2.118893432617187500e+01 -1.686916732788085938e+01 -6.705647706985473633e-02 7.399827480316162109e+00 2.199831247329711914e+00 3.009604811668395996e-01
1.124000000000000000e+03 2.101639938354492188e+01 -2.407796859741210938e+00 1.448681503534317017e-01 7.840779781341552734e+00 2.395694494247436523e+00 3.256624937057495117e-01
1.125000000000000000e+03 2.182923316955566406e+01 -8.054193258285522461e-01 -2.070915140211582184e-02 7.893398284912109375e+00 2.361806869506835938e+00 4.238282144069671631e-01
1.126000000000000000e+03 2.107038116455078125e+01 -1.924664688110351562e+01 -1.396470218896865845e-01 7.204841136932373047e+00 2.119558334350585938e+00 3.035641312599182129e-01
1.127000000000000000e+03 2.188825416564941406e+01 -2.004093551635742188e+01 -1.056575030088424683e-01 7.274014949798583984e+00 2.150507211685180664e+00 2.796358764171600342e-01
1.128000000000000000e+03 2.105358314514160156e+01 -2.003404235839843750e+01 -9.310723096132278442e-02 7.215070247650146484e+00 2.136588811874389648e+00 3.099640905857086182e-01
1.129000000000000000e+03 1.454245376586914062e+01 3.466065216064453125e+01 -1.422645300626754761e-01 -1.233472255989909172e-03 -4.304939880967140198e-02 -8.733975887298583984e-02
1.130000000000000000e+03 2.079391860961914062e+01 -7.168405532836914062e+00 -3.949275612831115723e-02 7.541932582855224609e+00 2.250731945037841797e+00 2.341803014278411865e-01
1.131000000000000000e+03 2.155787277221679688e+01 -6.356623172760009766e+00 -1.277221441268920898e-01 7.635417461395263672e+00 2.252308607101440430e+00 3.009131848812103271e-01
1.132000000000000000e+03 1.309640693664550781e+01 -3.629672622680664062e+01 -2.360539436340332031e-01 8.533200621604919434e-02 -4.521658271551132202e-02 5.965040251612663269e-02
1.133000000000000000e+03 1.483198285102844238e+00 -4.099457168579101562e+01 2.320381999015808105e-02 -7.160938531160354614e-02 -1.452166959643363953e-02 -1.294423453509807587e-02
1.134000000000000000e+03 1.277646780014038086e+00 -4.023257064819335938e+01 -1.137484610080718994e-02 -6.303011626005172729e-02 -2.232148870825767517e-02 -1.529744826257228851e-02
1.135000000000000000e+03 1.565470337867736816e+00 -3.861962127685546875e+01 4.486487247049808502e-03 -5.035109817981719971e-02 -1.375938300043344498e-02 -1.517549064010381699e-02
1.136000000000000000e+03 2.060992717742919922e+00 -3.295977020263671875e+01 -1.207003649324178696e-02 -1.354342047125101089e-02 -7.684037089347839355e-03 -1.398691721260547638e-02
1.137000000000000000e+03 1.875066637992858887e+00 -3.141857910156250000e+01 -1.079512946307659149e-02 -8.018500171601772308e-03 -5.644089076668024063e-03 -8.956297300755977631e-03
1.138000000000000000e+03 1.072692871093750000e+00 -2.771432495117187500e+01 -6.566557567566633224e-03 -1.486810797359794378e-04 -2.014571567997336388e-03 -2.087079221382737160e-03
1.139000000000000000e+03 2.470335483551025391e+00 -2.356705093383789062e+01 4.438186995685100555e-03 1.032717875204980373e-03 1.641271403059363365e-03 7.509258575737476349e-04
1.140000000000000000e+03 1.790728688240051270e+00 -2.836096572875976562e+01 -7.733270525932312012e-03 -1.767846290022134781e-03 -2.850335091352462769e-03 -3.425741102546453476e-03
1.141000000000000000e+03 2.541310787200927734e+00 -3.048710441589355469e+01 -1.198377273976802826e-02 -4.739341326057910919e-03 -5.016934126615524292e-03 -8.413892239332199097e-03
1.142000000000000000e+03 1.786750435829162598e+00 -2.758483886718750000e+01 5.296379327774047852e-03 3.846042091026902199e-04 1.704295049421489239e-03 -3.046512429136782885e-04
1.143000000000000000e+03 2.424565076828002930e+00 -1.254237174987792969e+01 2.017076360061764717e-03 2.924801956396549940e-04 6.928669754415750504e-04 2.699246688280254602e-04
1.144000000000000000e+03 1.694251298904418945e+00 -8.713468551635742188e+00 1.324260840192437172e-03 1.589024759596213698e-04 4.449489933904260397e-04 1.671771024120971560e-04
1.145000000000000000e+03 1.753056526184082031e+00 -1.893930053710937500e+01 -3.181581618264317513e-03 1.433590223314240575e-04 -9.114667773246765137e-04 -7.379035378107801080e-05
1.146000000000000000e+03 1.749537467956542969e+00 -1.657259750366210938e+01 2.781027927994728088e-03 4.851336998399347067e-04 9.798484388738870621e-04 5.051407497376203537e-04
1.147000000000000000e+03 1.768521904945373535e+00 -2.366582107543945312e+01 -4.643207881599664688e-03 3.554720897227525711e-04 -1.286320737563073635e-03 -3.246318665333092213e-04
1.148000000000000000e+03 1.051822543144226074e+00 -1.984113121032714844e+01 -3.367415629327297211e-03 5.222861072979867458e-04 -8.535388624295592308e-04 -2.662711194716393948e-04
1.149000000000000000e+03 2.453039646148681641e+00 -1.963776969909667969e+01 -3.420514054596424103e-03 -8.281689224531874061e-05 -1.050999271683394909e-03 1.466739486204460263e-04
1.150000000000000000e+03 1.042902827262878418e+00 -1.353432559967041016e+01 -2.083084546029567719e-03 -5.287885869620367885e-05 -6.407889886759221554e-04 -2.800145884975790977e-04
1.151000000000000000e+03 1.734218120574951172e+00 -1.263352394104003906e+01 -1.932019018568098545e-03 -1.379191380692645907e-04 -6.209814455360174179e-04 -2.014162600971758366e-04
1.152000000000000000e+03 1.007793426513671875e+00 -8.040088653564453125e+00 1.248779008165001869e-03 1.037283727782778442e-04 4.057522164657711983e-04 1.697776751825585961e-04
1.153000000000000000e+03 3.802411317825317383e+00 -3.369728088378906250e+00 4.750189254991710186e-04 2.347287372685968876e-04 2.129242930095642805e-04 3.218027586626703851e-06
1.154000000000000000e+03 3.087173938751220703e+00 -3.341280698776245117e+00 -4.599757958203554153e-04 -1.762541214702650905e-04 -1.908689737319946289e-04 -1.231323694810271263e-04
1.155000000000000000e+03 2.386589765548706055e+00 -3.343728065490722656e+00 4.923033411614596844e-04 1.111124292947351933e-04 1.810247340472415090e-04 1.498855272075161338e-04
1.156000000000000000e+03 1.653538584709167480e+00 -4.874798774719238281e+00 -7.729092612862586975e-04 -6.309459422482177615e-05 -2.508011530153453350e-04 -1.410360418958589435e-04
1.157000000000000000e+03 1.947239041328430176e+00 -3.218427276611328125e+01 6.053816992789506912e-03 -9.785636328160762787e-03 -1.119545893743634224e-03 -8.375425823032855988e-03
1.158000000000000000e+03 1.712752938270568848e+00 -1.027626037597656250e+01 1.555997645482420921e-03 1.917554182000458241e-04 5.243259365670382977e-04 2.153021923732012510e-04
1.159000000000000000e+03 1.743925333023071289e+00 -1.499453353881835938e+01 2.456289483234286308e-03 3.746024740394204855e-04 8.492675842717289925e-04 4.324936890043318272e-04
1.160000000000000000e+03 1.760885715484619141e+00 -2.208710098266601562e+01 -4.073897842317819595e-03 3.603604563977569342e-04 -1.114061218686401844e-03 -1.035288951243273914e-04
1.161000000000000000e+03 1.810275197029113770e+00 -2.989478492736816406e+01 -9.295753203332424164e-03 -4.109190311282873154e-03 -4.021483007818460464e-03 -5.696628242731094360e-03
1.162000000000000000e+03 1.797494411468505859e+00 -2.913047218322753906e+01 5.738574545830488205e-03 -1.498050987720489502e-03 1.272157183848321438e-03 -1.957742031663656235e-03
1.163000000000000000e+03 1.091275095939636230e+00 -3.820941543579101562e+01 7.128253579139709473e-03 -5.840499326586723328e-02 -1.538302190601825714e-02 -1.450758334249258041e-02
1.164000000000000000e+03 2.941591739654541016e+00 -3.820245742797851562e+01 1.352089177817106247e-02 -3.189770132303237915e-02 -5.513042677193880081e-03 -2.303104102611541748e-02
1.165000000000000000e+03 2.474900960922241211e+00 -3.464374160766601562e+01 -1.349562034010887146e-02 -2.116952836513519287e-02 -1.039954461157321930e-02 -1.988208480179309845e-02
1.166000000000000000e+03 2.228878974914550781e+00 -3.376329803466796875e+01 6.646675989031791687e-03 -1.584321074187755585e-02 -2.758960239589214325e-03 -1.289340760558843613e-02
1.167000000000000000e+03 1.774528861045837402e+00 -2.523935890197753906e+01 -5.410164128988981247e-03 1.221581915160641074e-04 -1.586401718668639660e-03 -8.473920170217752457e-04
1.168000000000000000e+03 2.474288702011108398e+00 -2.435422134399414062e+01 -5.241546314209699631e-03 -3.807227476499974728e-04 -1.686680712737143040e-03 -3.954984131269156933e-04
1.169000000000000000e+03 1.063164591789245605e+00 -2.457027816772460938e+01 -4.883106332272291183e-03 1.105775940231978893e-03 -1.133199082687497139e-03 -6.556450389325618744e-04
1.170000000000000000e+03 1.757365226745605469e+00 -2.130118751525878906e+01 3.882940160110592842e-03 1.078478060662746429e-03 1.488425419665873051e-03 8.517144015058875084e-04
1.171000000000000000e+03 1.052690267562866211e+00 -2.062943267822265625e+01 3.622873919084668159e-03 1.184756401926279068e-03 1.442289096303284168e-03 8.050048490986227989e-04
1.172000000000000000e+03 1.754858970642089844e+00 -2.051600074768066406e+01 -3.592451335862278938e-03 2.702924539335072041e-04 -9.966476354748010635e-04 -5.565716128330677748e-05
1.173000000000000000e+03 1.049433112144470215e+00 -1.668684387207031250e+01 -2.681394806131720543e-03 1.338002475677058101e-04 -7.642784039489924908e-04 -2.817554632201790810e-04
1.174000000000000000e+03 1.752140760421752930e+00 -1.814963722229003906e+01 3.108573146164417267e-03 6.544107454828917980e-04 1.128895091824233532e-03 6.039153086021542549e-04
1.175000000000000000e+03 1.740869879722595215e+00 -1.420843791961669922e+01 -2.240800764411687851e-03 -1.013993023661896586e-04 -7.026600651443004608e-04 -2.060563419945538044e-04
1.176000000000000000e+03 1.027232289314270020e+00 -1.038701152801513672e+01 -1.568203209899365902e-03 -1.009957122732885182e-04 -5.007596919313073158e-04 -2.199000591645017266e-04
1.177000000000000000e+03 1.728517413139343262e+00 -1.184591770172119141e+01 1.828934065997600555e-03 2.418848162051290274e-04 6.212456501089036465e-04 2.776324399746954441e-04
1.178000000000000000e+03 9.891335368156433105e-01 -4.939845085144042969e+00 8.068033494055271149e-04 4.955123586114495993e-05 2.569063799455761909e-04 1.220917038153856993e-04
1.179000000000000000e+03 1.674870014190673828e+00 -7.167534351348876953e+00 1.102246111258864403e-03 1.170527393696829677e-04 3.657896304503083229e-04 1.253931986866518855e-04
1.180000000000000000e+03 2.477234125137329102e+00 -3.672167968750000000e+01 -1.158095058053731918e-02 -3.027011640369892120e-02 -1.255531981587409973e-02 -2.037393860518932343e-02
1.181000000000000000e+03 2.578016281127929688e+00 -3.565277481079101562e+01 8.006391115486621857e-03 -2.373068593442440033e-02 -4.717288538813591003e-03 -1.946715079247951508e-02
1.182000000000000000e+03 2.060271644592285156e+01 -1.442899990081787109e+01 2.289758324623107910e-01 7.838340759277343750e+00 2.420194864273071289e+00 3.664091527462005615e-01
1.183000000000000000e+03 2.143310356140136719e+01 -1.279355621337890625e+01 1.049402654170989990e-01 7.777362823486328125e+00 2.364690780639648438e+00 3.604894876480102539e-01
1.184000000000000000e+03 2.171152114868164062e+01 -2.381745719909667969e+01 -5.862789601087570190e-02 7.261983871459960938e+00 2.161006927490234375e+00 1.904879361391067505e-01
1.185000000000000000e+03 1.504038524627685547e+01 3.128119659423828125e+01 -1.975635625422000885e-02 -2.361703664064407349e-02 -1.301201712340116501e-02 -2.014497667551040649e-02
1.186000000000000000e+03 2.149124526977539062e+01 5.619353294372558594e+00 1.123090535402297974e-01 8.721448898315429688e+00 2.650127410888671875e+00 2.641751170158386230e-01
1.187000000000000000e+03 2.151364517211914062e+01 8.044823646545410156e+00 1.702513918280601501e-02 8.470613479614257812e+00 2.546291589736938477e+00 8.308545500040054321e-02
1.188000000000000000e+03 2.276265144348144531e+01 -3.280786514282226562e+01 3.412836194038391113e-01 7.268724441528320312e+00 2.283002376556396484e+00 2.920723259449005127e-01
1.189000000000000000e+03 1.401109313964843750e+01 1.856834411621093750e+01 -3.666494507342576981e-03 7.678663241676986217e-04 -8.695884607732295990e-04 2.314697630936279893e-04
1.190000000000000000e+03 1.313564777374267578e+01 1.622123718261718750e+01 -2.778305206447839737e-03 3.159622719977051020e-04 -7.387028308585286140e-04 7.610826287418603897e-05
1.191000000000000000e+03 2.165723037719726562e+01 -3.994120359420776367e+00 -6.033037975430488586e-02 7.726430892944335938e+00 2.299830198287963867e+00 2.535246312618255615e-01
1.192000000000000000e+03 1.290404605865478516e+01 1.444557476043701172e+01 -2.136641414836049080e-03 -1.637132372707128525e-04 -6.901063607074320316e-04 -1.491697184974327683e-04
1.193000000000000000e+03 1.247677040100097656e+01 1.160507106781005859e+01 -5.425125127658247948e-04 -2.490080951247364283e-04 -2.374561736360192299e-04 -1.761307212291285396e-04
1.194000000000000000e+03 1.408977222442626953e+01 5.809957027435302734e+00 -8.564403397031128407e-04 -5.709614924853667617e-05 -2.740609343163669109e-04 -8.129726484185084701e-05
1.195000000000000000e+03 1.340117454528808594e+01 9.500233650207519531e+00 -9.727458236739039421e-04 -1.803217892302200198e-04 -3.459202707745134830e-04 -2.036581427091732621e-04
1.196000000000000000e+03 9.327630996704101562e+00 4.409352779388427734e+00 2.204404736403375864e-04 1.664189912844449282e-04 1.160578394774347544e-04 4.164673373452387750e-05
1.197000000000000000e+03 1.266108608245849609e+01 4.546151161193847656e+00 -5.075307562947273254e-04 -1.316079433308914304e-04 -1.917416084324941039e-04 -9.345516446046531200e-05
1.198000000000000000e+03 1.220415496826171875e+01 3.141876220703125000e+00 2.777500194497406483e-04 5.361966759664937854e-05 9.941090684151276946e-05 9.488651994615793228e-05
1.199000000000000000e+03 1.344042110443115234e+01 8.755197525024414062e+00 9.607822867110371590e-04 1.936454500537365675e-04 3.463283355813473463e-04 2.278649481013417244e-04
1.200000000000000000e+03 1.329244327545166016e+01 1.102570533752441406e+01 -1.036465284414589405e-03 -1.780977909220382571e-04 -3.643689269665628672e-04 -2.850781020242720842e-04
1.201000000000000000e+03 1.320967960357666016e+01 1.181582260131835938e+01 1.121189212426543236e-03 2.949805930256843567e-04 4.248509358149021864e-04 5.063228309154510498e-04
1.202000000000000000e+03 1.303809642791748047e+01 1.536645221710205078e+01 2.745044883340597153e-03 3.116974257864058018e-04 9.170226403512060642e-04 4.926954861730337143e-04
1.203000000000000000e+03 1.238921546936035156e+01 1.630071258544921875e+01 2.800250425934791565e-03 3.198075573891401291e-04 9.360173717141151428e-04 3.346760640852153301e-04
1.204000000000000000e+03 2.305470657348632812e+01 3.439772415161132812e+01 5.879947543144226074e-01 8.241302490234375000e+00 2.648788928985595703e+00 -5.501400232315063477e-01
1.205000000000000000e+03 1.518590545654296875e+01 3.208627700805664062e+01 -2.029170840978622437e-02 -2.973774448037147522e-02 -1.500883605331182480e-02 -3.310034051537513733e-02
1.206000000000000000e+03 1.332916355133056641e+01 2.012597656250000000e+01 3.605305915698409081e-03 1.221738988533616066e-03 1.448113471269607544e-03 6.577831227332353592e-04
1.207000000000000000e+03 1.384611320495605469e+01 2.801145362854003906e+01 -2.548417542129755020e-04 -3.420823719352483749e-03 -1.102699665352702141e-03 -6.344736088067293167e-03
1.208000000000000000e+03 1.319915008544921875e+01 -2.992903137207031250e+01 1.005246955901384354e-02 -4.166411235928535461e-03 1.765817520208656788e-03 4.322872962802648544e-03
1.209000000000000000e+03 2.078478431701660156e+01 -7.968143939971923828e+00 1.921132905408740044e-03 7.655957221984863281e+00 2.297363519668579102e+00 2.101990878582000732e-01
1.210000000000000000e+03 2.148612022399902344e+01 -3.203258514404296875e+01 1.587370187044143677e-01 7.552844047546386719e+00 2.313474416732788086e+00 3.363745808601379395e-01
1.211000000000000000e+03 2.370088386535644531e+01 3.245728302001953125e+01 2.811613380908966064e-01 8.282692909240722656e+00 2.569156169891357422e+00 -3.440261185169219971e-01
1.212000000000000000e+03 2.221555137634277344e+01 6.454366683959960938e+00 9.998968243598937988e-02 8.498267173767089844e+00 2.579477071762084961e+00 2.163085043430328369e-01
1.213000000000000000e+03 2.222596359252929688e+01 7.267706871032714844e+00 5.547962710261344910e-02 8.460771560668945312e+00 2.554875612258911133e+00 1.538637876510620117e-01
1.214000000000000000e+03 2.296433639526367188e+01 1.052621746063232422e+01 2.874752320349216461e-02 8.299748420715332031e+00 2.498548746109008789e+00 8.155974000692367554e-02
1.215000000000000000e+03 2.223864936828613281e+01 1.049030113220214844e+01 1.505631580948829651e-02 8.327645301818847656e+00 2.502810478210449219e+00 6.317785382270812988e-02
1.216000000000000000e+03 1.328673362731933594e+01 -2.670574569702148438e+01 9.809402748942375183e-03 3.131946141365915537e-04 3.036779351532459259e-03 -1.542074256576597691e-03
1.217000000000000000e+03 2.224994087219238281e+01 3.047692489624023438e+01 6.231247633695602417e-02 8.456415176391601562e+00 2.555618286132812500e+00 -1.519378572702407837e-01
1.218000000000000000e+03 2.231208419799804688e+01 2.898491668701171875e+01 3.881170600652694702e-02 8.377496719360351562e+00 2.524892568588256836e+00 -1.041018441319465637e-01
1.219000000000000000e+03 2.158537864685058594e+01 2.732275009155273438e+01 -2.228596713393926620e-03 8.334570884704589844e+00 2.499702692031860352e+00 -3.884757682681083679e-02
1.220000000000000000e+03 1.313435268402099609e+01 -2.829395675659179688e+01 1.094884984195232391e-02 -9.965735953301191330e-04 2.985683036968111992e-03 7.146251737140119076e-04
1.221000000000000000e+03 1.336217594146728516e+01 -2.359870147705078125e+01 7.308689877390861511e-03 1.110413460992276669e-03 2.525730989873409271e-03 -1.108600758016109467e-03
1.222000000000000000e+03 1.403750324249267578e+01 -1.322977352142333984e+01 2.798796631395816803e-03 9.990183025365695357e-05 8.696095319464802742e-04 -1.607461890671402216e-04
1.223000000000000000e+03 1.401587581634521484e+01 -1.883781433105468750e+01 -4.617581143975257874e-03 5.592794041149318218e-04 -1.217490527778863907e-03 1.499812642578035593e-04
1.224000000000000000e+03 2.310531997680664062e+01 2.501095581054687500e+01 2.404807321727275848e-02 8.242349624633789062e+00 2.479919195175170898e+00 -4.940853267908096313e-02
1.225000000000000000e+03 2.235986328125000000e+01 2.657831954956054688e+01 6.631145719438791275e-03 8.292846679687500000e+00 2.489843368530273438e+00 -5.276928842067718506e-02
1.226000000000000000e+03 2.224093818664550781e+01 1.369856262207031250e+01 5.987557582557201385e-03 8.258064270019531250e+00 2.479215621948242188e+00 2.890596725046634674e-02
1.227000000000000000e+03 1.335299682617187500e+01 -2.438248825073242188e+01 -7.849863730370998383e-03 8.163216407410800457e-04 -2.110062632709741592e-03 3.418884007260203362e-04
1.228000000000000000e+03 2.297735023498535156e+01 1.534136009216308594e+01 1.164181623607873917e-02 8.226313591003417969e+00 2.471386432647705078e+00 2.532933279871940613e-02
1.229000000000000000e+03 2.232659530639648438e+01 2.414211082458496094e+01 1.308060344308614731e-02 8.247686386108398438e+00 2.478229999542236328e+00 -2.946050837635993958e-02
1.230000000000000000e+03 2.230553436279296875e+01 2.253201293945312500e+01 9.876831434667110443e-03 8.230780601501464844e+00 2.472197294235229492e+00 -1.778327859938144684e-02
1.231000000000000000e+03 2.154318237304687500e+01 2.088214492797851562e+01 -5.728654214181005955e-04 8.229417800903320312e+00 2.468653678894042969e+00 -4.951856564730405807e-03
1.232000000000000000e+03 2.228953170776367188e+01 2.092683601379394531e+01 7.785941008478403091e-03 8.221573829650878906e+00 2.468807935714721680e+00 -8.669880218803882599e-03
1.233000000000000000e+03 2.228273773193359375e+01 2.012321472167968750e+01 2.161188051104545593e-03 8.219650268554687500e+00 2.466543436050415039e+00 -4.115538205951452255e-03
1.234000000000000000e+03 2.227773094177246094e+01 1.932054138183593750e+01 6.626569200307130814e-03 8.218623161315917969e+00 2.467574834823608398e+00 -7.616147631779313087e-04
1.235000000000000000e+03 2.153034400939941406e+01 1.767429351806640625e+01 2.582601737231016159e-04 8.229137420654296875e+00 2.468818664550781250e+00 4.035575315356254578e-03
1.236000000000000000e+03 2.225943756103515625e+01 1.691160011291503906e+01 3.089081961661577225e-03 8.225673675537109375e+00 2.468628644943237305e+00 1.044400781393051147e-02
1.237000000000000000e+03 2.229752159118652344e+01 2.173007202148437500e+01 2.121225930750370026e-03 8.225894927978515625e+00 2.468404769897460938e+00 -1.211933605372905731e-02
1.238000000000000000e+03 2.225278854370117188e+01 1.610826110839843750e+01 6.340963765978813171e-03 8.230792999267578125e+00 2.471140146255493164e+00 1.453208550810813904e-02
1.239000000000000000e+03 1.329792690277099609e+01 -1.640796852111816406e+01 -3.629385260865092278e-03 2.807556011248379946e-04 -1.004588906653225422e-03 2.382619186391821131e-06
1.240000000000000000e+03 1.326125812530517578e+01 -1.804384422302246094e+01 -4.128954838961362839e-03 1.389961544191464782e-04 -1.196987577714025974e-03 1.080945003195665777e-04
1.241000000000000000e+03 1.330040073394775391e+01 -1.167813491821289062e+01 -2.276202430948615074e-03 5.136878826306201518e-05 -6.674501346424221992e-04 2.270799996040295810e-05
1.242000000000000000e+03 1.399765396118164062e+01 -1.083508396148681641e+01 -2.132315887138247490e-03 9.083997429115697742e-05 -6.124427891336381435e-04 4.573716796585358679e-05
1.243000000000000000e+03 1.331545257568359375e+01 -1.246646499633789062e+01 2.519729547202587128e-03 9.215489262714982033e-05 7.835652795620262623e-04 -1.861352502601221204e-04
1.244000000000000000e+03 1.402986717224121094e+01 -1.243780040740966797e+01 -2.539953682571649551e-03 6.733954796800389886e-05 -7.417842280119657516e-04 4.759080911753699183e-05
1.245000000000000000e+03 1.320637607574462891e+01 -8.321405410766601562e+00 -1.638816436752676964e-03 4.316190461395308375e-05 -4.786963691003620625e-04 3.151755663566291332e-04
1.246000000000000000e+03 1.414131927490234375e+01 -5.192210197448730469e+00 1.120287110097706318e-03 -4.594262645696289837e-05 3.223033272661268711e-04 -1.876250898931175470e-04
1.247000000000000000e+03 1.411957073211669922e+01 -4.364587783813476562e+00 -9.288093424402177334e-04 -2.478658461768645793e-05 -2.860787790268659592e-04 2.317962353117763996e-04
1.248000000000000000e+03 1.347368812561035156e+01 -6.724108219146728516e+00 -1.297097536735236645e-03 -8.426924068771768361e-06 -3.916573186870664358e-04 3.347768797539174557e-04
1.249000000000000000e+03 1.069211769104003906e+01 -3.501039028167724609e+00 -5.284103099256753922e-04 -5.501521081896498799e-05 -1.750276569509878755e-04 -8.139744750224053860e-06
1.250000000000000000e+03 1.337888717651367188e+01 -7.496549606323242188e+00 1.456190831959247589e-03 -3.413782542338594794e-05 4.266159085091203451e-04 -4.157017683610320091e-04
1.251000000000000000e+03 1.321735954284667969e+01 -1.006033802032470703e+01 -1.964120659977197647e-03 1.462656800867989659e-04 -5.453564808703958988e-04 -3.831602953141555190e-05
1.252000000000000000e+03 1.388859748840332031e+01 -2.614899158477783203e+00 1.498517231084406376e-04 2.953893272206187248e-04 1.335723063675686717e-04 -2.251887199236080050e-04
1.253000000000000000e+03 1.332288551330566406e+01 -1.324494743347167969e+01 -2.744100987911224365e-03 4.737495328299701214e-05 -8.090178016573190689e-04 1.334222033619880676e-04
1.254000000000000000e+03 1.402999114990234375e+01 -1.963760566711425781e+01 5.139038898050785065e-03 7.092828163877129555e-04 1.754496595822274685e-03 -6.770941545255482197e-04
1.255000000000000000e+03 1.337417984008789062e+01 -2.202757072448730469e+01 6.551492493599653244e-03 7.031675777398049831e-04 2.176398178562521935e-03 -9.239798528142273426e-04
1.256000000000000000e+03 1.404608440399169922e+01 -2.043599128723144531e+01 -5.551240872591733932e-03 1.025015255436301231e-03 -1.357867615297436714e-03 9.790927288122475147e-05
1.257000000000000000e+03 2.224328804016113281e+01 1.450195026397705078e+01 7.232152856886386871e-03 8.246824264526367188e+00 2.476217031478881836e+00 2.362905442714691162e-02
1.258000000000000000e+03 2.224762535095214844e+01 1.530556488037109375e+01 4.163386765867471695e-03 8.238187789916992188e+00 2.472705364227294922e+00 1.868144236505031586e-02
1.259000000000000000e+03 2.235076522827148438e+01 2.576260185241699219e+01 1.780645363032817841e-02 8.274765014648437500e+00 2.487771511077880859e+00 -4.591703787446022034e-02
1.260000000000000000e+03 1.337255096435546875e+01 -2.281405067443847656e+01 -6.883956957608461380e-03 9.365945588797330856e-04 -1.784208696335554123e-03 -4.658949183067306876e-05
1.261000000000000000e+03 2.223986053466796875e+01 1.289581775665283203e+01 9.189675562083721161e-03 8.270979881286621094e+00 2.484050989151000977e+00 3.541440516710281372e-02
1.262000000000000000e+03 2.223771286010742188e+01 9.688021659851074219e+00 2.112723328173160553e-02 8.353360176086425781e+00 2.512346267700195312e+00 7.753627002239227295e-02
1.263000000000000000e+03 2.223922348022460938e+01 1.129232120513916016e+01 1.307536754757165909e-02 8.305389404296875000e+00 2.495539426803588867e+00 5.204951390624046326e-02
1.264000000000000000e+03 2.236117553710937500e+01 2.739404296875000000e+01 2.547097019851207733e-02 8.316693305969238281e+00 2.502649307250976562e+00 -7.025168091058731079e-02
1.265000000000000000e+03 1.332343006134033203e+01 -2.593470764160156250e+01 -9.527342393994331360e-03 6.606118986383080482e-04 -2.660019090399146080e-03 1.233404036611318588e-03
1.266000000000000000e+03 2.138229560852050781e+01 -3.110063362121582031e+01 1.293882131576538086e-01 7.530488491058349609e+00 2.297963142395019531e+00 2.727554440498352051e-01
1.267000000000000000e+03 2.031252670288085938e+01 -2.948608779907226562e+01 -2.817533444613218307e-03 7.487170219421386719e+00 2.245305776596069336e+00 1.323667168617248535e-01
1.268000000000000000e+03 2.223218154907226562e+01 8.077205657958984375e+00 4.154103249311447144e-02 8.417333602905273438e+00 2.537662506103515625e+00 1.218686550855636597e-01
1.269000000000000000e+03 2.223584747314453125e+01 8.884068489074707031e+00 2.710076980292797089e-02 8.384778022766113281e+00 2.523563861846923828e+00 9.658592939376831055e-02
1.270000000000000000e+03 1.246336936950683594e+01 -3.210978317260742188e+01 -1.058814208954572678e-02 -1.345892669633030891e-03 -3.580210497602820396e-03 2.417968586087226868e-02
1.271000000000000000e+03 7.835452270507812500e+01 4.095806884765625000e+01 5.948033649474382401e-04 7.631283283233642578e+00 2.289563417434692383e+00 -7.311104563996195793e-04
1.272000000000000000e+03 7.885331726074218750e+01 1.945774459838867188e+01 1.179323007818311453e-04 7.631188392639160156e+00 2.289391756057739258e+00 -2.050063572824001312e-03
1.273000000000000000e+03 7.809445953369140625e+01 1.773018455505371094e+01 5.813473835587501526e-04 7.639977455139160156e+00 2.292167663574218750e+00 -3.988473210483789444e-03
1.274000000000000000e+03 7.793418121337890625e+01 3.824443054199218750e+01 -3.723991103470325470e-04 7.633069038391113281e+00 2.289808988571166992e+00 6.652075680904090405e-04
1.275000000000000000e+03 7.645138549804687500e+01 3.774231338500976562e+01 -6.553052226081490517e-04 7.641696929931640625e+00 2.292312622070312500e+00 1.392281614243984222e-03
1.276000000000000000e+03 7.875469207763671875e+01 3.069353866577148438e+01 2.695389957807492465e-05 7.625753879547119141e+00 2.287734270095825195e+00 -4.481403448153287172e-05
1.277000000000000000e+03 7.793347167968750000e+01 2.975449371337890625e+01 1.060616050381213427e-04 7.631906509399414062e+00 2.289603710174560547e+00 -1.931438600877299905e-04
1.278000000000000000e+03 7.884613800048828125e+01 2.106068038940429688e+01 1.059155110851861537e-04 7.629189491271972656e+00 2.288788557052612305e+00 -1.626064651645720005e-03
1.279000000000000000e+03 7.807682800292968750e+01 2.013489151000976562e+01 3.593731380533427000e-04 7.636343479156494141e+00 2.291010856628417969e+00 -2.865373389795422554e-03
1.280000000000000000e+03 7.797415161132812500e+01 2.814255905151367188e+01 7.033989095361903310e-05 7.631871700286865234e+00 2.289582490921020508e+00 -4.636526864487677813e-04
1.281000000000000000e+03 7.723474884033203125e+01 2.479668998718261719e+01 6.911120726726949215e-04 7.638579845428466797e+00 2.291781425476074219e+00 -1.704846392385661602e-03
1.282000000000000000e+03 7.806576538085937500e+01 2.173812484741210938e+01 3.326016594655811787e-04 7.634588241577148438e+00 2.290476322174072266e+00 -2.200354589149355888e-03
1.283000000000000000e+03 7.807185363769531250e+01 2.093607139587402344e+01 5.484101129695773125e-04 7.635433197021484375e+00 2.290794610977172852e+00 -2.605834277346730232e-03
1.284000000000000000e+03 7.883724212646484375e+01 2.266412925720214844e+01 8.241379691753536463e-05 7.627716541290283203e+00 2.288339853286743164e+00 -1.215098658576607704e-03
1.285000000000000000e+03 7.733751678466796875e+01 1.680917167663574219e+01 1.077402033843100071e-03 7.647338390350341797e+00 2.294524669647216797e+00 -5.988064687699079514e-03
1.286000000000000000e+03 7.885289764404296875e+01 3.650894927978515625e+01 3.442007582634687424e-04 7.626490592956542969e+00 2.288050413131713867e+00 4.297831910662353039e-04
1.287000000000000000e+03 7.783890533447265625e+01 3.220118713378906250e+01 2.671776455827057362e-04 7.632617950439453125e+00 2.289865493774414062e+00 2.676824515219777822e-04
1.288000000000000000e+03 7.811537170410156250e+01 1.532408714294433594e+01 4.615244106389582157e-04 7.644821643829345703e+00 2.293585062026977539e+00 -5.068038590252399445e-03
1.289000000000000000e+03 7.888041687011718750e+01 1.224281883239746094e+01 2.901545085478574038e-04 7.647874832153320312e+00 2.294449567794799805e+00 -4.361245781183242798e-03
1.290000000000000000e+03 7.813583374023437500e+01 1.052348423004150391e+01 4.696046526078134775e-04 7.659101963043212891e+00 2.297871589660644531e+00 -7.619229611009359360e-03
1.291000000000000000e+03 7.812514495849609375e+01 1.372338485717773438e+01 4.788612714037299156e-04 7.648910045623779297e+00 2.294816732406616211e+00 -5.896101705729961395e-03
1.292000000000000000e+03 7.812129211425781250e+01 1.452278995513916016e+01 6.340724648907780647e-04 7.646819114685058594e+00 2.294235944747924805e+00 -5.594044923782348633e-03
1.293000000000000000e+03 7.812702941894531250e+01 1.292460918426513672e+01 6.447822088375687599e-04 7.651231765747070312e+00 2.295562982559204102e+00 -6.444966886192560196e-03
1.294000000000000000e+03 7.813274383544921875e+01 1.132438564300537109e+01 6.372672505676746368e-04 7.656314849853515625e+00 2.297085523605346680e+00 -7.295170333236455917e-03
1.295000000000000000e+03 7.871027374267578125e+01 3.231791687011718750e+01 -6.336686783470213413e-05 7.626251220703125000e+00 2.287856340408325195e+00 6.366318120853975415e-05
1.296000000000000000e+03 7.813880920410156250e+01 9.721777915954589844e+00 6.117551820352673531e-04 7.662081241607666016e+00 2.298807859420776367e+00 -8.125241845846176147e-03
1.297000000000000000e+03 7.762384033203125000e+01 -3.808324813842773438e+01 -1.025039469823241234e-03 7.928190231323242188e+00 2.378149509429931641e+00 -3.795301541686058044e-03
1.298000000000000000e+03 7.712092590332031250e+01 -4.048493194580078125e+01 -2.424943260848522186e-03 7.922895908355712891e+00 2.376141309738159180e+00 -1.844078069552779198e-03
1.299000000000000000e+03 7.866422271728515625e+01 -3.653434753417968750e+01 -3.654125612229108810e-05 7.939404487609863281e+00 2.381810426712036133e+00 -3.236006246879696846e-03
1.300000000000000000e+03 7.777816772460937500e+01 -3.657103347778320312e+01 -1.144944340921938419e-03 7.928697586059570312e+00 2.378265857696533203e+00 -4.294560756534337997e-03
1.301000000000000000e+03 7.879747772216796875e+01 -3.023708343505859375e+01 -1.059255191648844630e-05 7.919474601745605469e+00 2.375839233398437500e+00 -6.341274362057447433e-03
1.302000000000000000e+03 7.791609191894531250e+01 -3.188304138183593750e+01 -1.434992300346493721e-03 7.916284561157226562e+00 2.374454975128173828e+00 -9.303227998316287994e-03
1.303000000000000000e+03 7.886794281005859375e+01 -2.304118537902832031e+01 -4.512194136623293161e-04 7.878065109252929688e+00 2.363284111022949219e+00 -8.552582003176212311e-03
1.304000000000000000e+03 7.808564758300781250e+01 -2.475973892211914062e+01 -2.171459345845505595e-04 7.881910800933837891e+00 2.364508152008056641e+00 -1.262541953474283218e-02
1.305000000000000000e+03 7.890052032470703125e+01 -1.582061481475830078e+01 1.594451314304023981e-04 7.825588226318359375e+00 2.347724199295043945e+00 -9.415473788976669312e-03
1.306000000000000000e+03 7.741103363037109375e+01 -1.762993240356445312e+01 -1.374023559037595987e-04 7.830884456634521484e+00 2.349224090576171875e+00 -1.978162862360477448e-02
1.307000000000000000e+03 7.890755462646484375e+01 -8.604619979858398438e+00 -7.840556645533069968e-05 7.769599914550781250e+00 2.330856561660766602e+00 -9.451062418520450592e-03
1.308000000000000000e+03 7.743727874755859375e+01 -1.042288208007812500e+01 -2.689582106540910900e-05 7.780994415283203125e+00 2.334290266036987305e+00 -2.037080191075801849e-02
1.309000000000000000e+03 7.890470886230468750e+01 -2.188902616500854492e+00 9.631893044570460916e-05 7.722762107849121094e+00 2.316857576370239258e+00 -8.511969819664955139e-03
1.310000000000000000e+03 7.742971801757812500e+01 -3.207394838333129883e+00 6.106753717176616192e-04 7.732593059539794922e+00 2.319961071014404297e+00 -1.844003237783908844e-02
1.311000000000000000e+03 7.889749145507812500e+01 5.028593540191650391e+00 1.555657509015873075e-04 7.678733348846435547e+00 2.303666591644287109e+00 -6.622981280088424683e-03
1.312000000000000000e+03 7.816084289550781250e+01 3.311472177505493164e+00 4.962093662470579147e-04 7.691706657409667969e+00 2.307660818099975586e+00 -1.127771288156509399e-02
1.313000000000000000e+03 7.798873901367187500e+01 2.733796119689941406e+01 3.315476060379296541e-04 7.631968498229980469e+00 2.289690017700195312e+00 -6.954822456464171410e-04
1.314000000000000000e+03 7.800148773193359375e+01 2.653378486633300781e+01 1.113658508984372020e-04 7.632066726684570312e+00 2.289653539657592773e+00 -7.616888615302741528e-04
1.315000000000000000e+03 7.777902221679687500e+01 3.390327835083007812e+01 2.543454465921968222e-04 7.633242607116699219e+00 2.290049076080322266e+00 4.655163793358951807e-04
1.316000000000000000e+03 7.801476287841796875e+01 2.573161125183105469e+01 3.704485134221613407e-04 7.632294178009033203e+00 2.289799451828002930e+00 -1.024371478706598282e-03
1.317000000000000000e+03 7.808176422119140625e+01 1.933376693725585938e+01 5.386955454014241695e-04 7.637457847595214844e+00 2.291399002075195312e+00 -3.268820699304342270e-03
1.318000000000000000e+03 7.738616943359375000e+01 1.042327117919921875e+01 1.109051401726901531e-03 7.664356708526611328e+00 2.299639701843261719e+00 -1.044540386646986008e-02
1.319000000000000000e+03 7.816797637939453125e+01 9.011453986167907715e-01 3.937458095606416464e-04 7.705346584320068359e+00 2.311722040176391602e+00 -1.221445202827453613e-02
1.320000000000000000e+03 7.817042541503906250e+01 -6.317371845245361328e+00 1.105543924495577812e-04 7.752658367156982422e+00 2.325830698013305664e+00 -1.453378144651651382e-02
1.321000000000000000e+03 7.817102050781250000e+01 -1.112643432617187500e+01 -1.194713549921289086e-04 7.787498474121093750e+00 2.336213588714599609e+00 -1.518225204199552536e-02
1.322000000000000000e+03 7.815092468261718750e+01 -1.833941268920898438e+01 8.016718311409931630e-07 7.840109825134277344e+00 2.352033138275146484e+00 -1.453999895602464676e-02
1.323000000000000000e+03 7.883575439453125000e+01 -2.705087471008300781e+01 1.256145333172753453e-04 7.902803421020507812e+00 2.370878696441650391e+00 -7.428562734276056290e-03
1.324000000000000000e+03 7.868815612792968750e+01 -3.418082046508789062e+01 -8.716646116226911545e-04 7.934103012084960938e+00 2.379969358444213867e+00 -4.401991609483957291e-03
1.325000000000000000e+03 7.846842956542968750e+01 4.010801696777343750e+01 -4.986093845218420029e-04 7.631268501281738281e+00 2.289231061935424805e+00 -7.656555681023746729e-05
1.326000000000000000e+03 7.699050140380859375e+01 4.051066589355468750e+01 -8.656355785205960274e-04 7.641567230224609375e+00 2.292210340499877930e+00 7.032087887637317181e-04
1.327000000000000000e+03 7.774597167968750000e+01 3.479402160644531250e+01 1.731066004140302539e-04 7.633596420288085938e+00 2.290130853652954102e+00 3.877155540976673365e-04
1.328000000000000000e+03 7.795641326904296875e+01 2.894774055480957031e+01 3.469014191068708897e-04 7.631894111633300781e+00 2.289672374725341797e+00 -4.308208881411701441e-04
1.329000000000000000e+03 7.804065704345703125e+01 2.413696670532226562e+01 4.425971419550478458e-04 7.632899761199951172e+00 2.290002822875976562e+00 -1.451715710572898388e-03
1.330000000000000000e+03 7.814723205566406250e+01 8.116649627685546875e+00 5.936434026807546616e-04 7.668504714965820312e+00 2.300729513168334961e+00 -8.942501619458198547e-03
1.331000000000000000e+03 7.865950775146484375e+01 -3.496580505371093750e+01 -2.314981684321537614e-04 7.936271667480468750e+00 2.380811929702758789e+00 -3.640792332589626312e-03
1.332000000000000000e+03 7.882830810546875000e+01 -2.785404396057128906e+01 -5.703554488718509674e-04 7.907283306121826172e+00 2.372013807296752930e+00 -7.387462537735700607e-03
1.333000000000000000e+03 7.800023651123046875e+01 -2.954406738281250000e+01 -3.869477077387273312e-04 7.906723976135253906e+00 2.371901273727416992e+00 -1.055255346000194550e-02
1.334000000000000000e+03 7.887851715087890625e+01 -2.143699645996093750e+01 -3.894977271556854248e-04 7.867112159729003906e+00 2.360016822814941406e+00 -8.887824602425098419e-03
1.335000000000000000e+03 7.890179443359375000e+01 -1.421881484985351562e+01 1.760457816999405622e-04 7.813175678253173828e+00 2.344005584716796875e+00 -9.517037309706211090e-03
1.336000000000000000e+03 7.890653228759765625e+01 -7.002847194671630859e+00 -3.200908395228907466e-05 7.757446289062500000e+00 2.327224254608154297e+00 -9.292548522353172302e-03
1.337000000000000000e+03 7.890444183349609375e+01 2.146033644676208496e-01 1.562394609209150076e-04 7.706840515136718750e+00 2.312098979949951172e+00 -7.930624298751354218e-03
1.338000000000000000e+03 7.817113494873046875e+01 -7.023209333419799805e-01 3.774773504119366407e-04 7.715107440948486328e+00 2.314645528793334961e+00 -1.281676720827817917e-02
1.339000000000000000e+03 7.815509796142578125e+01 6.513882160186767578e+00 5.755577003583312035e-04 7.675597190856933594e+00 2.302851915359497070e+00 -9.745260700583457947e-03
1.340000000000000000e+03 7.815224456787109375e+01 7.313551425933837891e+00 4.654818039853125811e-04 7.671945571899414062e+00 2.301723480224609375e+00 -9.261030703783035278e-03
1.341000000000000000e+03 7.815595245361328125e+01 5.715147018432617188e+00 4.495760367717593908e-04 7.679362773895263672e+00 2.303943634033203125e+00 -1.006204355508089066e-02
1.342000000000000000e+03 7.742319488525390625e+01 2.412368774414062500e+00 8.586150943301618099e-04 7.699735641479492188e+00 2.310178279876708984e+00 -1.572280190885066986e-02
1.343000000000000000e+03 7.890251159667968750e+01 1.017375946044921875e+00 1.679986598901450634e-04 7.701795578002929688e+00 2.310589075088500977e+00 -7.782553788274526596e-03
1.344000000000000000e+03 7.816960906982421875e+01 -1.502116799354553223e+00 3.221117658540606499e-04 7.720171451568603516e+00 2.316148042678833008e+00 -1.317663397639989853e-02
1.345000000000000000e+03 7.816909027099609375e+01 -4.712285995483398438e+00 1.869129191618412733e-04 7.741482734680175781e+00 2.322500944137573242e+00 -1.416009012609720230e-02
1.346000000000000000e+03 7.816878509521484375e+01 -3.909003019332885742e+00 3.352802305016666651e-04 7.735991001129150391e+00 2.320897817611694336e+00 -1.387353800237178802e-02
1.347000000000000000e+03 7.743013763427734375e+01 -4.814552307128906250e+00 5.461231921799480915e-04 7.742927551269531250e+00 2.323042154312133789e+00 -1.904358342289924622e-02
1.348000000000000000e+03 7.817282867431640625e+01 -7.121627807617187500e+00 2.860645763576030731e-04 7.758352279663085938e+00 2.327591419219970703e+00 -1.458782609552145004e-02
1.349000000000000000e+03 7.743929290771484375e+01 -8.026120185852050781e+00 4.109948640689253807e-04 7.764422893524169922e+00 2.329450130462646484e+00 -1.986006274819374084e-02
1.350000000000000000e+03 7.817209625244140625e+01 -1.032340908050537109e+01 2.344077947782352567e-04 7.781572341918945312e+00 2.334542036056518555e+00 -1.500079873949289322e-02
1.351000000000000000e+03 7.816625213623046875e+01 -1.353027820587158203e+01 1.567750005051493645e-04 7.805222988128662109e+00 2.341613769531250000e+00 -1.509576663374900818e-02
1.352000000000000000e+03 7.816812896728515625e+01 -1.272854042053222656e+01 -2.022286353167146444e-04 7.799319744110107422e+00 2.339735269546508789e+00 -1.525217760354280472e-02
1.353000000000000000e+03 7.816543579101562500e+01 -1.433489704132080078e+01 -2.789848367683589458e-04 7.811177253723144531e+00 2.343269586563110352e+00 -1.522498764097690582e-02
1.354000000000000000e+03 7.742704772949218750e+01 -1.523515987396240234e+01 -4.312506644055247307e-04 7.814563751220703125e+00 2.344239711761474609e+00 -2.042639814317226410e-02
1.355000000000000000e+03 7.815485382080078125e+01 -1.753623008728027344e+01 -4.128291911911219358e-04 7.834408760070800781e+00 2.350198745727539062e+00 -1.489552948623895645e-02
1.356000000000000000e+03 7.813229370117187500e+01 -2.074606132507324219e+01 -5.625855410471558571e-04 7.856624126434326172e+00 2.356818437576293945e+00 -1.423917245119810104e-02
1.357000000000000000e+03 7.813987731933593750e+01 -1.994305038452148438e+01 -6.921867316123098135e-05 7.851222038269042969e+00 2.355345964431762695e+00 -1.421219296753406525e-02
1.358000000000000000e+03 7.812502288818359375e+01 -2.155200386047363281e+01 -1.380050525767728686e-04 7.861986637115478516e+00 2.358554601669311523e+00 -1.379276718944311142e-02
1.359000000000000000e+03 7.809603881835937500e+01 -2.395665168762207031e+01 -7.533316966146230698e-04 7.877136230468750000e+00 2.362914800643920898e+00 -1.317820139229297638e-02
1.360000000000000000e+03 7.807613372802734375e+01 -2.555880355834960938e+01 -7.454936276189982891e-04 7.886465072631835938e+00 2.365715742111206055e+00 -1.252493821084499359e-02
1.361000000000000000e+03 7.805617523193359375e+01 -2.715902519226074219e+01 -8.205811027437448502e-04 7.895179271697998047e+00 2.368307590484619141e+00 -1.190474536269903183e-02
1.362000000000000000e+03 7.806645965576171875e+01 -2.635720443725585938e+01 -1.709345960989594460e-04 7.890902042388916016e+00 2.367219448089599609e+00 -1.202266477048397064e-02
1.363000000000000000e+03 7.804307556152343750e+01 -2.796220779418945312e+01 -2.526403404772281647e-04 7.899281024932861328e+00 2.369708538055419922e+00 -1.134908758103847504e-02
1.364000000000000000e+03 7.880989074707031250e+01 -2.944721031188964844e+01 -6.687887944281101227e-04 7.915622234344482422e+00 2.374485969543457031e+00 -6.893822923302650452e-03
1.365000000000000000e+03 7.789392089843750000e+01 -3.265732955932617188e+01 -6.478375289589166641e-04 7.918681144714355469e+00 2.375410079956054688e+00 -8.166533894836902618e-03
1.366000000000000000e+03 7.777873992919921875e+01 -3.421385192871093750e+01 -1.448346418328583241e-03 7.923059463500976562e+00 2.376483201980590820e+00 -7.009766064584255219e-03
1.367000000000000000e+03 7.786029052734375000e+01 -3.343433380126953125e+01 -1.880430732853710651e-03 7.920814037322998047e+00 2.375679969787597656e+00 -8.301145397126674652e-03
1.368000000000000000e+03 7.769724273681640625e+01 -3.500422286987304688e+01 -1.457556034438312054e-03 7.924513816833496094e+00 2.376916885375976562e+00 -6.572943646460771561e-03
1.369000000000000000e+03 7.696873474121093750e+01 -3.684670257568359375e+01 -1.306597026996314526e-03 7.919594287872314453e+00 2.375486373901367188e+00 -6.327988579869270325e-03
1.370000000000000000e+03 7.785149383544921875e+01 -3.976043701171875000e+01 -7.308956264751031995e-05 7.931917190551757812e+00 2.379553318023681641e+00 -2.980520483106374741e-03
1.371000000000000000e+03 2.180242919921875000e+01 3.282215118408203125e+01 1.205071285367012024e-01 8.758358001708984375e+00 2.663659572601318359e+00 -2.796675860881805420e-01
1.372000000000000000e+03 1.377409076690673828e+01 2.719566154479980469e+01 -7.032964844256639481e-03 -2.550774253904819489e-03 -2.875121776014566422e-03 -3.468796145170927048e-03
1.373000000000000000e+03 2.271977615356445312e+01 1.585643172264099121e+00 -1.029433589428663254e-02 8.145812034606933594e+00 2.440655231475830078e+00 2.247668504714965820e-01
1.374000000000000000e+03 2.288322067260742188e+01 3.352145767211914062e+01 3.426439166069030762e-01 8.504174232482910156e+00 2.654045343399047852e+00 -4.922382533550262451e-01
1.375000000000000000e+03 2.126731491088867188e+01 -2.938654708862304688e+01 5.753353238105773926e-02 7.448330879211425781e+00 2.251759290695190430e+00 1.971763223409652710e-01
1.376000000000000000e+03 2.116634941101074219e+01 -2.776915550231933594e+01 2.075179666280746460e-02 7.360568046569824219e+00 2.214395999908447266e+00 1.689548492431640625e-01
1.377000000000000000e+03 2.161725997924804688e+01 -4.782029628753662109e+00 -1.267122775316238403e-01 7.668775081634521484e+00 2.262618780136108398e+00 2.764525413513183594e-01
1.378000000000000000e+03 2.092300987243652344e+01 -2.388572692871093750e+01 -9.931869804859161377e-02 7.232838630676269531e+00 2.140056133270263672e+00 1.445340663194656372e-01
1.379000000000000000e+03 2.013307762145996094e+01 -2.471515464782714844e+01 -6.711509823799133301e-02 7.092256546020507812e+00 2.107542514801025391e+00 1.694389432668685913e-01
1.380000000000000000e+03 1.371151447296142578e+00 3.630763244628906250e+01 6.673066411167383194e-03 -5.033116787672042847e-02 -1.309743057936429977e-02 1.523534487932920456e-02
1.381000000000000000e+03 1.158996701240539551e+00 3.877943038940429688e+01 -3.393505234271287918e-03 -7.299585640430450439e-02 -2.291680686175823212e-02 1.036833506077528000e-02
1.382000000000000000e+03 2.579562664031982422e+00 4.115261840820312500e+01 1.225582044571638107e-02 -7.913352549076080322e-02 -2.006331086158752441e-02 5.967779085040092468e-03
1.383000000000000000e+03 1.153876185417175293e+00 2.972923278808593750e+01 4.923625383526086807e-03 -6.169089581817388535e-03 -3.736393700819462538e-04 2.516793552786111832e-03
1.384000000000000000e+03 2.003255605697631836e+00 3.197940444946289062e+01 3.335884306579828262e-03 -1.489592622965574265e-02 -3.468012437224388123e-03 1.086974982172250748e-02
1.385000000000000000e+03 2.561674833297729492e+00 2.617612648010253906e+01 3.049539402127265930e-03 -1.314104651100933552e-03 5.206304485909640789e-04 1.373919512843713164e-04
1.386000000000000000e+03 1.836724758148193359e+00 2.552664566040039062e+01 3.441960783675312996e-03 7.987625576788559556e-05 1.056551118381321430e-03 -7.582459948025643826e-04
1.387000000000000000e+03 1.346453070640563965e+00 3.462876892089843750e+01 5.496197380125522614e-03 -3.523537144064903259e-02 -8.921751752495765686e-03 1.262711640447378159e-02
1.388000000000000000e+03 1.227716207504272461e+00 3.216096115112304688e+01 -7.595755159854888916e-03 -1.691464334726333618e-02 -7.353119552135467529e-03 9.538232348859310150e-03
1.389000000000000000e+03 1.130062222480773926e+00 2.811900329589843750e+01 4.665981978178024292e-03 -1.930767670273780823e-03 8.205643389374017715e-04 6.080443272367119789e-04
1.390000000000000000e+03 1.923810124397277832e+00 3.035840225219726562e+01 3.802345134317874908e-03 -8.645518682897090912e-03 -1.452952041290700436e-03 6.334340665489435196e-03
1.391000000000000000e+03 1.094780206680297852e+00 2.089312934875488281e+01 -2.050810027867555618e-03 9.710520971566438675e-04 -3.239273501094430685e-04 5.749292904511094093e-04
1.392000000000000000e+03 1.825934052467346191e+00 2.311719703674316406e+01 -3.098440822213888168e-03 5.282849888317286968e-04 -7.710467325523495674e-04 1.324120676144957542e-03
1.393000000000000000e+03 2.549735307693481445e+00 2.377447891235351562e+01 -3.703468944877386093e-03 8.107994653983041644e-05 -1.086716656573116779e-03 1.891613937914371490e-03
1.394000000000000000e+03 1.831662893295288086e+00 2.472622489929199219e+01 -4.130303859710693359e-03 3.875436086673289537e-04 -1.122827990911900997e-03 2.018544822931289673e-03
1.395000000000000000e+03 1.866806030273437500e+00 2.793954467773437500e+01 -6.496573332697153091e-03 -2.049302915111184120e-03 -2.563762944191694260e-03 4.680442158132791519e-03
1.396000000000000000e+03 2.571255445480346680e+00 2.698105621337890625e+01 -6.681148428469896317e-03 -8.057148661464452744e-04 -2.246059011667966843e-03 4.382329992949962616e-03
1.397000000000000000e+03 2.073235273361206055e+00 3.279972457885742188e+01 -9.662246331572532654e-03 -1.715056970715522766e-02 -8.043845184147357941e-03 1.545661594718694687e-02
1.398000000000000000e+03 2.225030183792114258e+00 3.448263168334960938e+01 -9.179419837892055511e-03 -2.557360380887985229e-02 -1.042590662837028503e-02 2.009334973990917206e-02
1.399000000000000000e+03 2.151605367660522461e+00 3.363322067260742188e+01 3.161453641951084137e-03 -2.317705005407333374e-02 -6.004679016768932343e-03 1.635617576539516449e-02
1.400000000000000000e+03 1.245802402496337891e+00 4.023236846923828125e+01 -1.335889101028442383e-03 -8.140544593334197998e-02 -2.482240088284015656e-02 7.367964368313550949e-03
1.401000000000000000e+03 1.092679262161254883e+00 2.008550262451171875e+01 1.844236161559820175e-03 1.360565889626741409e-03 9.614406153559684753e-04 -1.019140589050948620e-03
1.402000000000000000e+03 1.823176622390747070e+00 2.152272796630859375e+01 -2.298928098753094673e-03 4.458714684005826712e-04 -5.559169803746044636e-04 7.748454809188842773e-04
1.403000000000000000e+03 1.077609419822692871e+00 1.527614784240722656e+01 1.212783507071435452e-03 4.011296841781586409e-04 4.841739428229629993e-04 -4.333495744504034519e-04
1.404000000000000000e+03 1.798139095306396484e+00 1.750507545471191406e+01 1.586219645105302334e-03 5.702783819288015366e-04 6.469493964686989784e-04 -7.318765274249017239e-04
1.405000000000000000e+03 1.761688470840454102e+00 1.034297847747802734e+01 -7.289634086191654205e-04 1.230268662766320631e-05 -2.149982028640806675e-04 1.691178913461044431e-04
1.406000000000000000e+03 1.072746872901916504e+00 1.287368869781494141e+01 -9.530195966362953186e-04 1.230304333148524165e-04 -2.489967446308583021e-04 1.805076462915167212e-04
1.407000000000000000e+03 9.905109405517578125e-01 6.514409542083740234e+00 -3.883446624968200922e-04 -4.244117735652253032e-05 -1.292357483180239797e-04 1.022405340336263180e-04
1.408000000000000000e+03 9.494942426681518555e-01 4.931334972381591797e+00 -2.986824838444590569e-04 -2.833210237440653145e-05 -9.810437040869146585e-05 7.021374767646193504e-05
1.409000000000000000e+03 2.499329328536987305e+00 1.657287025451660156e+01 1.625477918423712254e-03 2.698379685170948505e-04 5.685947835445404053e-04 -6.262124516069889069e-04
1.410000000000000000e+03 1.720634460449218750e+00 7.961040019989013672e+00 5.339618655852973461e-04 7.919993367977440357e-05 1.839485339587554336e-04 -1.872515713330358267e-04
1.411000000000000000e+03 1.734242677688598633e+00 8.749365806579589844e+00 -5.987569456920027733e-04 -2.611958370835054666e-05 -1.874629524536430836e-04 1.671796198934316635e-04
1.412000000000000000e+03 1.622113466262817383e+00 5.583743572235107422e+00 -3.545602085068821907e-04 -5.011246685171499848e-05 -1.214018047903664410e-04 9.503568435320630670e-05
1.413000000000000000e+03 1.778581857681274414e+00 1.192815399169921875e+01 -9.046939085237681866e-04 8.352445001946762204e-05 -2.463508280925452709e-04 1.635268272366374731e-04
1.414000000000000000e+03 2.486269474029541016e+00 1.103281497955322266e+01 -8.368187118321657181e-04 4.222533607389777899e-05 -2.383780229138210416e-04 1.585111167514696717e-04
1.415000000000000000e+03 1.782740831375122070e+00 1.272457504272460938e+01 1.055215834639966488e-03 1.197031815536320210e-04 3.524756757542490959e-04 -3.477452264633029699e-04
1.416000000000000000e+03 1.784842133522033691e+00 1.432922077178955078e+01 1.254279748536646366e-03 1.956797641469165683e-04 4.349878581706434488e-04 -4.116510681342333555e-04
1.417000000000000000e+03 1.790126681327819824e+00 1.591157817840576172e+01 1.438219216652214527e-03 3.503618645481765270e-04 5.365742836147546768e-04 -5.371313891373574734e-04
1.418000000000000000e+03 1.794015765190124512e+00 1.670614624023437500e+01 -1.386914402246475220e-03 3.202864900231361389e-04 -3.199883794877678156e-04 6.891834345879033208e-05
1.419000000000000000e+03 1.808400392532348633e+00 1.910028076171875000e+01 1.752281794324517250e-03 8.509068284183740616e-04 7.809565868228673935e-04 -9.957578731700778008e-04
1.420000000000000000e+03 1.824521422386169434e+00 2.231923866271972656e+01 2.431593602523207664e-03 1.215453492477536201e-03 1.094114151783287525e-03 -1.592579646967351437e-03
1.421000000000000000e+03 1.819845199584960938e+00 2.071834373474121094e+01 1.980503089725971222e-03 1.144835259765386581e-03 9.376015514135360718e-04 -1.316398615017533302e-03
1.422000000000000000e+03 1.372272014617919922e+01 3.612955093383789062e+01 -2.202002853155136108e-01 1.648366302251815796e-01 -1.660909876227378845e-02 6.190189160406589508e-03
1.423000000000000000e+03 2.153004646301269531e+01 -7.946945667266845703e+00 -8.394611068069934845e-03 7.672129631042480469e+00 2.299120664596557617e+00 2.880179584026336670e-01
1.424000000000000000e+03 2.192931747436523438e+01 7.802069187164306641e-01 -1.126237139105796814e-01 8.057034492492675781e+00 2.383323431015014648e+00 3.453535139560699463e-01
1.425000000000000000e+03 2.198587226867675781e+01 1.575255036354064941e+00 -5.113890767097473145e-02 8.145916938781738281e+00 2.428433418273925781e+00 2.949315011501312256e-01
1.426000000000000000e+03 2.146952629089355469e+01 4.805033206939697266e+00 2.471019625663757324e-01 8.668264389038085938e+00 2.674609899520874023e+00 3.316617012023925781e-01
1.427000000000000000e+03 2.217410659790039062e+01 4.819431781768798828e+00 2.369001805782318115e-01 8.464017868041992188e+00 2.610275506973266602e+00 2.648977339267730713e-01
1.428000000000000000e+03 2.146115303039550781e+01 -1.198025894165039062e+01 4.982538893818855286e-02 7.805490016937255859e+00 2.356594562530517578e+00 3.097852468490600586e-01
1.429000000000000000e+03 2.148431396484375000e+01 -1.117106914520263672e+01 3.192056342959403992e-02 7.793018341064453125e+00 2.347481727600097656e+00 2.611104846000671387e-01
1.430000000000000000e+03 2.125005912780761719e+01 -1.606709861755371094e+01 -8.495131507515907288e-03 7.527947902679443359e+00 2.255835771560668945e+00 2.855105698108673096e-01
1.431000000000000000e+03 1.433290481567382812e+01 3.212325668334960938e+01 -3.683780506253242493e-02 -1.938695088028907776e-02 -1.686742715537548065e-02 -3.229755535721778870e-02
1.432000000000000000e+03 1.157452583312988281e+01 3.027525520324707031e+01 -2.857420593500137329e-02 2.068334259092807770e-03 -7.951761595904827118e-03 -1.597442105412483215e-02
1.433000000000000000e+03 2.178601455688476562e+01 -1.602926135063171387e+00 6.675366312265396118e-02 7.820054054260253906e+00 2.366042375564575195e+00 3.940764963626861572e-01
1.434000000000000000e+03 2.150196266174316406e+01 -1.036257457733154297e+01 6.719335168600082397e-02 7.769799709320068359e+00 2.351097822189331055e+00 2.305450290441513062e-01
1.435000000000000000e+03 1.346489143371582031e+01 2.243698310852050781e+01 -3.999587148427963257e-03 3.766973968595266342e-04 -1.086866948753595352e-03 1.586555008543655276e-04
1.436000000000000000e+03 2.139933967590332031e+01 -1.361227798461914062e+01 1.984312087297439575e-01 7.707274436950683594e+00 2.371711730957031250e+00 3.597995638847351074e-01
1.437000000000000000e+03 1.337044525146484375e+01 2.089458274841308594e+01 -3.554328810423612595e-03 3.251934540458023548e-04 -9.687406127341091633e-04 3.181845822837203741e-04
1.438000000000000000e+03 2.130715179443359375e+01 -1.525452899932861328e+01 1.158579364418983459e-01 7.593607902526855469e+00 2.312839746475219727e+00 2.589943408966064453e-01
1.439000000000000000e+03 2.170000076293945312e+01 -3.202019453048706055e+00 3.939668461680412292e-02 7.736080169677734375e+00 2.332643032073974609e+00 2.584383189678192139e-01
1.440000000000000000e+03 2.209513282775878906e+01 3.183748245239257812e+00 1.822638511657714844e-01 8.323171615600585938e+00 2.551630735397338867e+00 2.482320070266723633e-01
1.441000000000000000e+03 2.219890975952148438e+01 5.637723922729492188e+00 1.805659383535385132e-01 8.480286598205566406e+00 2.598255872726440430e+00 2.574177086353302002e-01
1.442000000000000000e+03 1.190617942810058594e+01 -3.299936294555664062e+01 -3.918973729014396667e-02 1.500471215695142746e-02 -7.255507633090019226e-03 3.472309932112693787e-02
1.443000000000000000e+03 2.350279235839843750e+01 3.631566238403320312e+01 6.171369552612304688e-01 7.636732578277587891e+00 2.476160764694213867e+00 8.881957828998565674e-02
1.444000000000000000e+03 1.560992622375488281e+01 4.082760238647460938e+01 3.949487805366516113e-01 3.071511387825012207e-01 2.106299698352813721e-01 1.381398737430572510e-01
1.445000000000000000e+03 2.213570022583007812e+01 4.162807083129882812e+01 -8.791055679321289062e-01 6.327781200408935547e+00 1.634602785110473633e+00 -1.485521942377090454e-01
1.446000000000000000e+03 2.236956787109375000e+01 3.748741912841796875e+01 3.713929653167724609e-01 7.326964378356933594e+00 2.309507131576538086e+00 2.439470142126083374e-01
1.447000000000000000e+03 2.111734580993652344e+01 4.006884002685546875e+01 -6.857045888900756836e-01 5.595307826995849609e+00 1.472880840301513672e+00 -6.808966398239135742e-01
1.448000000000000000e+03 1.292269420623779297e+01 1.350917053222656250e+01 1.666805124841630459e-03 -1.620119837753009051e-05 4.951811861246824265e-04 6.502840551547706127e-04
1.449000000000000000e+03 1.571114730834960938e+01 -4.070970153808593750e+01 3.804372251033782959e-01 7.055796384811401367e-01 3.258050382137298584e-01 1.370811648666858673e-02
1.450000000000000000e+03 1.741748046875000000e+01 -3.927360153198242188e+01 -2.775862812995910645e-01 1.504415512084960938e+00 3.680487871170043945e-01 9.895209670066833496e-01
1.451000000000000000e+03 1.767468452453613281e+01 3.900129318237304688e+01 9.269696474075317383e-02 2.288519591093063354e-01 9.646467864513397217e-02 8.822751045227050781e-02
1.452000000000000000e+03 1.344971370697021484e+01 2.523639440536499023e+00 -2.354632597416639328e-04 4.224600343150086701e-05 -5.796517507405951619e-05 3.452335658948868513e-05
1.453000000000000000e+03 9.500710487365722656e+00 -2.972919702529907227e+00 4.077897174283862114e-04 1.519104989711195230e-04 1.679100678302347660e-04 -3.030505286005791277e-05
1.454000000000000000e+03 1.212040901184082031e+01 -2.707184314727783203e+00 -2.315190358785912395e-04 -2.128750784322619438e-04 -1.333182299276813865e-04 -1.120015804190188646e-04
1.455000000000000000e+03 1.321936607360839844e+01 -3.800825119018554688e+00 -7.350718951784074306e-04 2.893430064432322979e-04 -1.337186549790203571e-04 -2.884196874219924212e-04
1.456000000000000000e+03 8.854491233825683594e+00 -2.988328456878662109e+00 -3.317760128993541002e-04 -1.861955970525741577e-04 -1.553914771648123860e-04 1.207500008604256436e-05
1.457000000000000000e+03 1.288355255126953125e+01 -5.988734722137451172e+00 -9.167753742076456547e-04 -1.334905973635613918e-04 -3.150798147544264793e-04 2.308786642970517278e-04
1.458000000000000000e+03 1.269680023193359375e+01 -2.280993270874023438e+01 6.842521484941244125e-03 4.640277475118637085e-04 2.191964769735932350e-03 -1.021629781462252140e-03
1.459000000000000000e+03 2.227753639221191406e+00 3.232855796813964844e+00 -2.151766093447804451e-04 -4.885802627541124821e-05 -7.921038923086598516e-05 8.690771210240200162e-05
1.460000000000000000e+03 3.521200656890869141e+00 3.119849205017089844e+00 -1.926272816490381956e-04 -8.940406405599787831e-05 -8.460940443910658360e-05 1.028686820063740015e-04
1.461000000000000000e+03 1.260964679718017578e+01 -2.586622810363769531e+01 8.307627402245998383e-03 3.947952354792505503e-04 2.610726747661828995e-03 -2.014024881646037102e-03
1.462000000000000000e+03 1.178817272186279297e+01 -3.071644020080566406e+01 -2.696475200355052948e-02 -7.271470502018928528e-03 -1.027086656540632248e-02 1.045185327529907227e-02
1.463000000000000000e+03 1.253573608398437500e+01 -3.274206924438476562e+01 -3.443272411823272705e-02 -2.776169404387474060e-02 -1.865832693874835968e-02 4.490225017070770264e-02
1.464000000000000000e+03 6.642432689666748047e+00 4.325181007385253906e+00 2.482226700522005558e-04 1.308232458541169763e-04 1.137137660407461226e-04 -5.956288441666401923e-05
1.465000000000000000e+03 5.404860019683837891e+00 3.693544864654541016e+00 -2.005543210543692112e-04 -1.209818656207062304e-04 -9.646085527492687106e-05 7.146066491259261966e-05
1.466000000000000000e+03 8.729628562927246094e+00 3.725177526473999023e+00 1.960281661013141274e-04 1.351171813439577818e-04 9.934360423358157277e-05 2.668470006028655916e-05
1.467000000000000000e+03 3.479739427566528320e+00 4.467883586883544922e+00 -2.614022523630410433e-04 -1.357131113763898611e-04 -1.191346091218292713e-04 1.552979811094701290e-04
1.468000000000000000e+03 7.459108829498291016e+00 3.067248582839965820e+00 -1.590389729244634509e-04 -1.116548082791268826e-04 -8.120813436107710004e-05 1.282968241866910830e-05
1.469000000000000000e+03 3.489416837692260742e+00 3.790627956390380859e+00 2.383778337389230728e-04 1.064868774847127497e-04 1.034594097291119397e-04 -1.281863369513303041e-04
1.470000000000000000e+03 1.590820074081420898e+00 4.808123111724853516e+00 3.236104967072606087e-04 3.909011502400971949e-05 1.088101780624128878e-04 -9.089377272175624967e-05
1.471000000000000000e+03 2.875457763671875000e+00 3.168643951416015625e+00 2.096504031214863062e-04 7.320464646909385920e-05 8.485651778755709529e-05 -9.901182056637480855e-05
1.472000000000000000e+03 1.088757324218750000e+01 3.098191738128662109e+00 2.024127607000991702e-04 8.526395686203613877e-05 8.630301454104483128e-05 1.020943454932421446e-04
1.473000000000000000e+03 9.413944244384765625e+00 3.742467403411865234e+00 -1.751095842337235808e-04 -1.365537900710478425e-04 -9.349900938104838133e-05 -5.157682608114555478e-05
1.474000000000000000e+03 8.182952880859375000e+00 -3.012235879898071289e+00 3.038540598936378956e-04 1.879081100923940539e-04 1.475286553613841534e-04 3.733925404958426952e-05
1.475000000000000000e+03 1.221658134460449219e+01 -7.221574306488037109e+00 5.306765087880194187e-04 5.605939659290015697e-04 3.273811598774045706e-04 -3.917443973477929831e-04
1.476000000000000000e+03 6.193130493164062500e+00 -3.848151445388793945e+00 4.289466596674174070e-04 -1.112493337132036686e-04 9.530920215183869004e-05 3.014435060322284698e-04
1.477000000000000000e+03 5.511343479156494141e+00 -4.074934959411621094e+00 -1.187138914247043431e-04 2.422501856926828623e-04 3.706089046318084002e-05 -4.393568087834864855e-04
1.478000000000000000e+03 1.662047624588012695e+00 -6.400500297546386719e+00 -9.987396188080310822e-04 -8.533398067811504006e-05 -3.252220922149717808e-04 -1.120180604630149901e-04
1.479000000000000000e+03 2.964311838150024414e+00 -4.793292999267578125e+00 -8.054865174926817417e-04 -1.216444707097252831e-05 -2.452952903695404530e-04 -2.551414363551884890e-04
1.480000000000000000e+03 2.345391273498535156e+00 -4.082670688629150391e+00 -6.393945077434182167e-04 -8.461840479867532849e-05 -2.172038803109899163e-04 -1.772160467226058245e-04
1.481000000000000000e+03 1.693755745887756348e+00 -3.365894556045532227e+00 -5.150756333023309708e-04 -7.852191629353910685e-05 -1.780792517820373178e-04 -1.299920550081878901e-04
1.482000000000000000e+03 1.668652772903442383e+00 -4.117995738983154297e+00 6.475032423622906208e-04 7.059460767777636647e-05 2.154293615603819489e-04 1.398961030645295978e-04
1.483000000000000000e+03 8.184824943542480469e+00 -3.611533641815185547e+00 -3.328773309476673603e-04 -2.059408143395558000e-04 -1.616454392205923796e-04 -6.268022116273641586e-05
1.484000000000000000e+03 6.859335899353027344e+00 -3.726585149765014648e+00 -3.934457199648022652e-04 -4.986723070032894611e-05 -1.329938822891563177e-04 -2.192710962845012546e-04
1.485000000000000000e+03 7.522779941558837891e+00 -3.654001951217651367e+00 3.619182389229536057e-04 1.474462478654459119e-04 1.528093416709452868e-04 1.398666645400226116e-04
1.486000000000000000e+03 2.261175537109375000e+01 -6.805315613746643066e-03 -6.499060243368148804e-02 8.010098457336425781e+00 2.383532285690307617e+00 3.268428444862365723e-01
1.487000000000000000e+03 1.365293884277343750e+01 2.557993125915527344e+01 -5.412647500634193420e-03 -6.820241105742752552e-04 -1.828401465900242329e-03 -1.185983768664300442e-03
1.488000000000000000e+03 1.280130100250244141e+01 2.316993522644042969e+01 -3.644154174253344536e-03 -6.281972164288163185e-04 -1.281705452129244804e-03 6.749160547769861296e-06
1.489000000000000000e+03 2.266541099548339844e+01 -2.242309570312500000e+01 -8.003547042608261108e-02 7.305263519287109375e+00 2.167568445205688477e+00 2.141196280717849731e-01
1.490000000000000000e+03 2.226252746582031250e+01 -1.033599090576171875e+01 6.692200899124145508e-02 7.716801166534423828e+00 2.335116863250732422e+00 2.606663405895233154e-01
1.491000000000000000e+03 2.266494560241699219e+01 7.873653173446655273e-01 -6.713304668664932251e-02 8.083732604980468750e+00 2.404979705810546875e+00 2.772589921951293945e-01
1.492000000000000000e+03 2.233389472961425781e+01 -5.548199176788330078e+00 -1.294606029987335205e-01 7.726197719573974609e+00 2.279021024703979492e+00 2.735267579555511475e-01
1.493000000000000000e+03 2.193303108215332031e+01 -1.767494010925292969e+01 -1.061020642518997192e-01 7.410146236419677734e+00 2.191213130950927734e+00 2.546541690826416016e-01
1.494000000000000000e+03 2.198604393005371094e+01 -1.688431358337402344e+01 -7.809009402990341187e-02 7.478623390197753906e+00 2.220160007476806641e+00 2.253625541925430298e-01
1.495000000000000000e+03 1.010594367980957031e+01 -3.568758249282836914e+00 5.845766863785684109e-04 1.036631438182666898e-04 2.064719446934759617e-04 -8.807206904748454690e-05
1.496000000000000000e+03 2.189879798889160156e+01 -1.846342849731445312e+01 -1.462991535663604736e-01 7.365695476531982422e+00 2.165818929672241211e+00 2.605397701263427734e-01
1.497000000000000000e+03 2.104537200927734375e+01 -2.617646598815917969e+01 -1.099700294435024261e-02 7.278629779815673828e+00 2.180289745330810547e+00 1.678268164396286011e-01
1.498000000000000000e+03 2.183781242370605469e+01 -2.525412750244140625e+01 -5.525539442896842957e-02 7.306435585021972656e+00 2.175354003906250000e+00 1.981241405010223389e-01
1.499000000000000000e+03 2.309289169311523438e+01 -5.518708229064941406e+00 -9.972437471151351929e-02 7.769584655761718750e+00 2.300958156585693359e+00 2.519846260547637939e-01
1.500000000000000000e+03 1.481264400482177734e+01 3.646324539184570312e+01 -3.246280550956726074e-01 9.155480563640594482e-02 -6.992197781801223755e-02 -6.164451688528060913e-02
1.501000000000000000e+03 2.152193641662597656e+01 -8.748788833618164062e+00 6.225737556815147400e-02 7.695506572723388672e+00 2.327329158782958984e+00 2.814315855503082275e-01
1.502000000000000000e+03 1.308920001983642578e+01 1.263612461090087891e+01 -1.162059139460325241e-03 8.420913218287751079e-05 -3.233549941796809435e-04 -4.549386503640562296e-04
1.503000000000000000e+03 1.156357765197753906e+01 3.114049673080444336e+00 -2.320209314348176122e-04 -6.785649748053401709e-05 -8.996322867460548878e-05 -1.037863839883357286e-04
1.504000000000000000e+03 1.340348052978515625e+01 5.858608722686767578e+00 7.158572552725672722e-04 1.710475335130468011e-04 2.660714380908757448e-04 1.238007971551269293e-04
1.505000000000000000e+03 1.191182422637939453e+01 3.282466888427734375e+01 -6.978377699851989746e-02 5.224169045686721802e-02 -5.262624938040971756e-03 -1.609369181096553802e-02
1.506000000000000000e+03 2.229323196411132812e+01 -7.124524116516113281e+00 -7.474803179502487183e-02 7.700477123260498047e+00 2.287718772888183594e+00 3.054690957069396973e-01
1.507000000000000000e+03 2.109674644470214844e+01 -1.845547294616699219e+01 -1.362206041812896729e-01 7.258598804473876953e+00 2.136713504791259766e+00 3.252820074558258057e-01
1.508000000000000000e+03 1.351168823242187500e+01 2.321492767333984375e+01 3.965337760746479034e-03 1.396671636030077934e-03 1.608602935448288918e-03 5.941061535850167274e-04
1.509000000000000000e+03 2.497007846832275391e+00 -2.823591995239257812e+01 4.755462985485792160e-03 -3.317649243399500847e-04 1.327109406702220440e-03 -1.631975988857448101e-03
1.510000000000000000e+03 1.833436489105224609e+00 -3.065650939941406250e+01 6.037504877895116806e-03 -4.810388199985027313e-03 3.681350499391555786e-04 -4.651254508644342422e-03
1.511000000000000000e+03 2.491200923919677734e+00 -2.746838951110839844e+01 -7.735117338597774506e-03 -1.513917464762926102e-03 -2.774710301309823990e-03 -2.832965925335884094e-03
1.512000000000000000e+03 2.504720926284790039e+00 -2.899500465393066406e+01 -9.684517048299312592e-03 -2.707886509597301483e-03 -3.717720974236726761e-03 -5.200067535042762756e-03
1.513000000000000000e+03 2.247302770614624023e+00 -3.763925552368164062e+01 7.895424962043762207e-03 -4.260846599936485291e-02 -1.041391305625438690e-02 -2.618293277919292450e-02
1.514000000000000000e+03 1.703457117080688477e+00 -9.491819381713867188e+00 -1.429860363714396954e-03 -1.428986142855137587e-04 -4.718276904895901680e-04 -1.572682958794757724e-04
1.515000000000000000e+03 2.376418590545654297e+00 -8.625660896301269531e+00 -1.303476048633456230e-03 -1.700232387520372868e-04 -4.420497862156480551e-04 -1.066515542333945632e-04
1.516000000000000000e+03 1.746783614158630371e+00 -1.578322505950927734e+01 -2.540779067203402519e-03 -3.621349969762377441e-05 -7.730977376922965050e-04 -1.687691692495718598e-04
1.517000000000000000e+03 2.436861515045166016e+00 -1.490056896209716797e+01 -2.452427288517355919e-03 -1.550800516270101070e-04 -7.822522311471402645e-04 -9.379423136124387383e-05
1.518000000000000000e+03 1.764680027961730957e+00 -2.287618637084960938e+01 4.244980867952108383e-03 1.306204823777079582e-03 1.665355637669563293e-03 9.114432614296674728e-04
1.519000000000000000e+03 2.460666656494140625e+00 -2.199120140075683594e+01 4.169846884906291962e-03 9.096239809878170490e-04 1.523841288872063160e-03 7.725351606495678425e-04
1.520000000000000000e+03 4.043768882751464844e+00 -3.478153991699218750e+01 -4.060292150825262070e-03 -9.349706582725048065e-03 -4.022999666631221771e-03 -2.984098345041275024e-02
1.521000000000000000e+03 2.456265687942504883e+00 -2.120799446105957031e+01 -3.913305234163999557e-03 -8.513878856319934130e-05 -1.199533231556415558e-03 1.516815391369163990e-04
1.522000000000000000e+03 2.453777790069580078e+00 -2.042427444458007812e+01 3.798927180469036102e-03 7.483860827051103115e-04 1.364193973131477833e-03 6.847268086858093739e-04
1.523000000000000000e+03 2.432508707046508789e+00 -1.411634349822998047e+01 2.399672521278262138e-03 3.337441303301602602e-04 8.200249867513775826e-04 3.458290593698620796e-04
1.524000000000000000e+03 1.751200795173645020e+00 -1.736081695556640625e+01 -2.851221710443496704e-03 4.101956801605410874e-05 -8.430606685578823090e-04 -1.154191049863584340e-04
1.525000000000000000e+03 2.441918373107910156e+00 -1.568690013885498047e+01 2.734108362346887589e-03 3.810435009654611349e-04 9.345455910079181194e-04 4.134518385399132967e-04
1.526000000000000000e+03 3.140827655792236328e+00 -1.720073127746582031e+01 -3.003240330144762993e-03 -2.373057650402188301e-04 -9.721638634800910950e-04 2.007745206356048584e-04
1.527000000000000000e+03 2.446504116058349609e+00 -1.647634696960449219e+01 -2.732265740633010864e-03 -1.170971590909175575e-04 -8.548088371753692627e-04 -1.320939645665930584e-05
1.528000000000000000e+03 2.449052810668945312e+00 -1.726696586608886719e+01 3.079393645748496056e-03 4.762708267662674189e-04 1.066699391230940819e-03 4.771207750309258699e-04
1.529000000000000000e+03 1.721231222152709961e+00 -1.106128215789794922e+01 -1.677513588219881058e-03 -1.449976407457143068e-04 -5.467534065246582031e-04 -1.838153984863311052e-04
1.530000000000000000e+03 2.386026144027709961e+00 -9.399882316589355469e+00 1.449736417271196842e-03 2.052766940323635936e-04 4.965039552189409733e-04 1.579121162649244070e-04
1.531000000000000000e+03 2.428653478622436523e+00 -1.333206558227539062e+01 -2.126041566953063011e-03 -1.907422702061012387e-04 -6.950351526029407978e-04 -1.277828268939629197e-04
1.532000000000000000e+03 3.164552688598632812e+00 -2.428038597106933594e+01 4.489147569984197617e-03 8.045979193411767483e-04 1.588123734109103680e-03 4.005542141385376453e-04
1.533000000000000000e+03 1.777912855148315430e+00 -2.602334594726562500e+01 4.980302881449460983e-03 1.238663215190172195e-03 1.865689759142696857e-03 5.330731510184705257e-04
1.534000000000000000e+03 1.771903038024902344e+00 -2.445314788818359375e+01 4.621491301804780960e-03 1.418277737684547901e-03 1.811930793337523937e-03 8.639394654892385006e-04
1.535000000000000000e+03 2.465597152709960938e+00 -2.277816200256347656e+01 -4.460604861378669739e-03 -1.780533930286765099e-04 -1.391597441397607327e-03 8.279982466774526983e-06
1.536000000000000000e+03 3.093225479125976562e+00 -1.090690612792968750e+01 -1.694985316134989262e-03 -2.329230192117393017e-04 -5.783725064247846603e-04 -6.584885704796761274e-05
1.537000000000000000e+03 2.397349119186401367e+00 -1.018319606781005859e+01 -1.527298474684357643e-03 -1.820473116822540760e-04 -5.128037300892174244e-04 -1.197964156745001674e-04
1.538000000000000000e+03 2.408329725265502930e+00 -1.096968460083007812e+01 1.718731364235281944e-03 2.450079191476106644e-04 5.891217733733355999e-04 2.060595725197345018e-04
1.539000000000000000e+03 2.417869806289672852e+00 -1.175322818756103516e+01 -1.814363757148385048e-03 -1.969561708392575383e-04 -6.033959798514842987e-04 -1.330492959823459387e-04
1.540000000000000000e+03 2.483841896057128906e+00 -2.591555023193359375e+01 -6.281610578298568726e-03 -8.329467964358627796e-04 -2.134367125108838081e-03 -1.274403184652328491e-03
1.541000000000000000e+03 2.487540483474731445e+00 -2.669368743896484375e+01 4.699626471847295761e-03 6.739840609952807426e-04 1.612083171494305134e-03 -1.973533362615853548e-04
1.542000000000000000e+03 2.334969282150268555e+00 -6.318685531616210938e+00 1.002318458631634712e-03 8.378366328543052077e-05 3.258306242059916258e-04 1.018752882373519242e-04
1.543000000000000000e+03 1.652214884757995605e+00 -5.636562347412109375e+00 8.972747018560767174e-04 5.899141979170963168e-05 2.868798328563570976e-04 1.261907600564882159e-04
1.544000000000000000e+03 2.368012428283691406e+00 -7.853131294250488281e+00 1.187771908007562160e-03 1.723217428661882877e-04 4.080280777998268604e-04 1.151038377429358661e-04
1.545000000000000000e+03 3.569501399993896484e+00 -4.793674945831298828e+00 6.900593289174139500e-04 1.228734327014535666e-04 2.438798401271924376e-04 3.820554702542722225e-04
1.546000000000000000e+03 4.381536960601806641e+00 -4.254602909088134766e+00 6.793466163799166679e-04 3.574623842723667622e-04 3.110427060164511204e-04 -1.472233270760625601e-04
1.547000000000000000e+03 3.019748687744140625e+00 -6.237215995788574219e+00 -9.851554641500115395e-04 -7.310682121897116303e-05 -3.174786979798227549e-04 -4.702005389844998717e-05
1.548000000000000000e+03 2.667065143585205078e+00 -3.195431327819824219e+01 -1.362709421664476395e-02 -8.222788572311401367e-03 -6.554964929819107056e-03 -1.308681443333625793e-02
1.549000000000000000e+03 3.272150754928588867e+00 -3.103335189819335938e+01 -1.566585339605808258e-02 -4.010112024843692780e-03 -5.902789533138275146e-03 -1.104409433901309967e-02
1.550000000000000000e+03 2.587081193923950195e+00 -3.122290611267089844e+01 4.760404583066701889e-03 -4.910463467240333557e-03 -4.501765215536579490e-05 -7.951788604259490967e-03
1.551000000000000000e+03 3.361295461654663086e+00 -3.418777847290039062e+01 -4.921902436763048172e-04 -8.710556663572788239e-03 -2.760824048891663551e-03 -1.939378492534160614e-02
1.552000000000000000e+03 2.045923471450805664e+00 -3.984475326538085938e+01 2.708507236093282700e-03 -5.137742683291435242e-02 -1.460067555308341980e-02 -1.020159944891929626e-02
1.553000000000000000e+03 2.273851585388183594e+01 -1.768481826782226562e+01 -1.059526950120925903e-01 7.468256473541259766e+00 2.208691120147705078e+00 2.029006183147430420e-01
1.554000000000000000e+03 1.411749172210693359e+01 6.563404083251953125e+00 9.251968003809452057e-04 7.436246232828125358e-05 2.998677664436399937e-04 1.638658577576279640e-04
1.555000000000000000e+03 1.202153110504150391e+01 4.548283100128173828e+00 4.435859154909849167e-04 1.432985591236501932e-04 1.760653394740074873e-04 1.250019558938220143e-04
1.556000000000000000e+03 1.329535388946533203e+01 1.936122131347656250e+01 -3.284502774477005005e-03 3.241613449063152075e-04 -8.881023968569934368e-04 4.346265341155230999e-04
1.557000000000000000e+03 2.135731506347656250e+01 -1.443431949615478516e+01 2.041818052530288696e-01 7.636272907257080078e+00 2.352136373519897461e+00 3.026283383369445801e-01
1.558000000000000000e+03 1.320771312713623047e+01 2.961359596252441406e+01 -1.733979582786560059e-02 -4.109383095055818558e-03 -6.434754002839326859e-03 -1.246148813515901566e-02
1.559000000000000000e+03 1.326235771179199219e+01 3.046685981750488281e+01 -2.039463445544242859e-02 -5.465575493872165680e-03 -7.758062798529863358e-03 -2.235242724418640137e-02
1.560000000000000000e+03 1.347199058532714844e+01 7.285025119781494141e+00 8.692333358339965343e-04 1.167752343462780118e-04 2.958025725092738867e-04 2.076419914374127984e-04
1.561000000000000000e+03 2.294322395324707031e+01 7.298018932342529297e+00 9.326314926147460938e-02 8.376428604125976562e+00 2.540907621383666992e+00 1.810191869735717773e-01
1.562000000000000000e+03 1.323697662353515625e+01 1.782920455932617188e+01 -3.076918190345168114e-03 4.766494093928486109e-04 -7.800806197337806225e-04 2.630894887261092663e-04
1.563000000000000000e+03 1.187299537658691406e+01 1.064429378509521484e+01 -4.250487545505166054e-04 -2.902362903114408255e-04 -2.145855105482041836e-04 3.007065242854878306e-05
1.564000000000000000e+03 1.265724468231201172e+01 1.010015201568603516e+01 -6.888933130539953709e-04 -2.657232980709522963e-04 -2.863849804271012545e-04 -1.360009919153526425e-04
1.565000000000000000e+03 1.258213710784912109e+01 1.084576034545898438e+01 7.129997829906642437e-04 3.773644566535949707e-04 3.271092718932777643e-04 2.945295127574354410e-04
1.566000000000000000e+03 1.334325885772705078e+01 5.167972087860107422e+00 -6.217370973899960518e-04 -1.865342346718534827e-04 -2.424814010737463832e-04 -9.919478179654106498e-05
1.567000000000000000e+03 2.174337387084960938e+01 -2.403746604919433594e+00 1.065651476383209229e-01 7.766515731811523438e+00 2.361924171447753906e+00 3.274536132812500000e-01
1.568000000000000000e+03 1.172767257690429688e+01 1.790534210205078125e+01 -2.190193161368370056e-03 3.776151061174459755e-05 -6.457294803112745285e-04 3.043301985599100590e-04
1.569000000000000000e+03 2.232940864562988281e+01 3.119852066040039062e+01 4.622301086783409119e-02 8.499970436096191406e+00 2.563857793807983398e+00 -1.838224232196807861e-01
1.570000000000000000e+03 2.442769813537597656e+01 3.510445785522460938e+01 5.082175731658935547e-01 7.761241912841796875e+00 2.480837821960449219e+00 -9.028294682502746582e-02
1.571000000000000000e+03 2.252033805847167969e+01 -1.592678427696228027e+00 2.636323869228363037e-02 7.853331089019775391e+00 2.363908290863037109e+00 3.362907171249389648e-01
1.572000000000000000e+03 2.440763092041015625e+01 -3.230450057983398438e+01 2.401753216981887817e-01 7.210762023925781250e+00 2.235281229019165039e+00 1.604231745004653931e-01
1.573000000000000000e+03 1.333721542358398438e+01 3.205878973007202148e+00 3.738421073649078608e-04 -2.346228575333952904e-05 1.051139406627044082e-04 -4.290214201319031417e-05
1.574000000000000000e+03 1.345065975189208984e+01 6.564694881439208984e+00 -8.150660432875156403e-04 -1.161254185717552900e-04 -2.793574240058660507e-04 -1.682421861914917827e-04
1.575000000000000000e+03 1.246735763549804688e+01 -2.996347045898437500e+01 -1.664629951119422913e-02 -8.118152618408203125e-03 -7.429335732012987137e-03 7.286391686648130417e-03
1.576000000000000000e+03 2.247936820983886719e+01 -2.371278381347656250e+01 -7.755455374717712402e-02 7.312139511108398438e+00 2.170375585556030273e+00 1.851732730865478516e-01
1.577000000000000000e+03 1.332424926757812500e+01 -1.479924774169921875e+01 -3.235368989408016205e-03 2.387649437878280878e-04 -8.989812340587377548e-04 1.327672798652201891e-04
1.578000000000000000e+03 1.269012546539306641e+01 2.164339256286621094e+01 -3.180553205311298370e-03 -4.117734497413039207e-04 -1.077697961591184139e-03 3.083084884565323591e-04
1.579000000000000000e+03 1.250308609008789062e+01 1.863061904907226562e+01 -2.769991056993603706e-03 8.190448716050013900e-05 -8.064259891398251057e-04 5.224316846579313278e-04
1.580000000000000000e+03 2.295251083374023438e+01 8.110184669494628906e+00 6.335483491420745850e-02 8.359578132629394531e+00 2.526879787445068359e+00 1.439011394977569580e-01
1.581000000000000000e+03 1.330087471008300781e+01 -1.965519905090332031e+01 -5.041298922151327133e-03 6.369919283315539360e-04 -1.321292133070528507e-03 1.934602332767099142e-04
1.582000000000000000e+03 2.296272468566894531e+01 9.723330497741699219e+00 3.499625995755195618e-02 8.319051742553710938e+00 2.506214380264282227e+00 9.811335802078247070e-02
1.583000000000000000e+03 2.223927879333496094e+01 1.209381961822509766e+01 9.136455133557319641e-03 8.286943435668945312e+00 2.488823890686035156e+00 4.271680116653442383e-02
1.584000000000000000e+03 2.395051193237304688e+01 3.118002891540527344e+01 1.610109806060791016e-01 8.294414520263671875e+00 2.536627769470214844e+00 -2.527694702148437500e-01
1.585000000000000000e+03 1.264076232910156250e+01 -2.511440086364746094e+01 -8.274877443909645081e-03 -4.995220224373042583e-04 -2.632319927215576172e-03 1.214981661178171635e-03
1.586000000000000000e+03 2.287942123413085938e+01 3.049081802368164062e+01 5.450708791613578796e-02 8.410882949829101562e+00 2.539617061614990234e+00 -1.715131253004074097e-01
1.587000000000000000e+03 1.200776386260986328e+01 -2.355537605285644531e+01 6.582255475223064423e-03 3.167830873280763626e-04 2.069711685180664062e-03 -1.056798268109560013e-03
1.588000000000000000e+03 1.204725456237792969e+01 -2.206509017944335938e+01 6.555922795087099075e-03 -1.553655747557058930e-04 1.920167240314185619e-03 -7.911317516118288040e-04
1.589000000000000000e+03 2.370460510253906250e+01 1.456487464904785156e+01 1.949315145611763000e-02 8.218663215637207031e+00 2.471446990966796875e+00 3.846316784620285034e-02
1.590000000000000000e+03 2.234677314758300781e+01 2.819980049133300781e+01 1.163867115974426270e-02 8.343688011169433594e+00 2.506597995758056641e+00 -7.745505869388580322e-02
1.591000000000000000e+03 2.297048377990722656e+01 1.453766155242919922e+01 1.004750840365886688e-02 8.234608650207519531e+00 2.473397016525268555e+00 3.149553760886192322e-02
1.592000000000000000e+03 2.384247016906738281e+01 2.104108238220214844e+01 1.873344369232654572e-02 8.196918487548828125e+00 2.464695453643798828e+00 -1.489511504769325256e-02
1.593000000000000000e+03 2.233884429931640625e+01 2.495085144042968750e+01 3.857416100800037384e-03 8.260090827941894531e+00 2.479184389114379883e+00 -3.493267297744750977e-02
1.594000000000000000e+03 2.303527641296386719e+01 1.936841392517089844e+01 6.219968665391206741e-03 8.208798408508300781e+00 2.464505434036254883e+00 -6.266627460718154907e-04
1.595000000000000000e+03 2.305173301696777344e+01 2.097988700866699219e+01 6.444603204727172852e-03 8.211317062377929688e+00 2.465328454971313477e+00 -1.084696128964424133e-02
1.596000000000000000e+03 1.261745166778564453e+01 -1.479045391082763672e+01 3.352816682308912277e-03 -6.888592179166153073e-05 9.851792128756642342e-04 -5.572445807047188282e-04
1.597000000000000000e+03 1.189274501800537109e+01 -1.634024810791015625e+01 -3.510908922180533409e-03 -3.214320531697012484e-05 -1.062915660440921783e-03 5.656467983499169350e-04
1.598000000000000000e+03 1.249094772338867188e+01 -1.888213348388671875e+01 -4.410668741911649704e-03 8.153400995070114732e-05 -1.298740389756858349e-03 3.323122800793498755e-04
1.599000000000000000e+03 2.299632644653320312e+01 1.695008277893066406e+01 1.052989531308412552e-02 8.215056419372558594e+00 2.467675924301147461e+00 1.419172529131174088e-02
1.600000000000000000e+03 1.253241062164306641e+01 -1.721240997314453125e+01 -3.815553616732358932e-03 5.594531103270128369e-05 -1.127882511354982853e-03 7.871464185882359743e-05
1.601000000000000000e+03 1.327013015747070312e+01 -1.885266113281250000e+01 4.710185807198286057e-03 5.363939562812447548e-04 1.573973917402327061e-03 -8.417695062234997749e-04
1.602000000000000000e+03 2.226645088195800781e+01 1.771536254882812500e+01 6.164110731333494186e-03 8.221598625183105469e+00 2.468328714370727539e+00 6.722649559378623962e-03
1.603000000000000000e+03 2.302407264709472656e+01 1.856287002563476562e+01 1.054224837571382523e-02 8.209410667419433594e+00 2.465985774993896484e+00 3.976370207965373993e-03
1.604000000000000000e+03 2.312176322937011719e+01 2.582664871215820312e+01 1.497161109000444412e-02 8.253747940063476562e+00 2.480615854263305664e+00 -5.766844376921653748e-02
1.605000000000000000e+03 2.296615219116210938e+01 1.212884521484375000e+01 1.920749992132186890e-02 8.267868041992187500e+00 2.486122608184814453e+00 5.654266476631164551e-02
1.606000000000000000e+03 2.296689033508300781e+01 1.293063545227050781e+01 1.415310520678758621e-02 8.255204200744628906e+00 2.480807304382324219e+00 4.679024592041969299e-02
1.607000000000000000e+03 2.372410202026367188e+01 1.617373466491699219e+01 1.673055998980998993e-02 8.206540107727050781e+00 2.466981410980224609e+00 2.394592948257923126e-02
1.608000000000000000e+03 2.300984001159667969e+01 1.775645446777343750e+01 6.550117861479520798e-03 8.211842536926269531e+00 2.465517759323120117e+00 9.125860407948493958e-03
1.609000000000000000e+03 2.296529579162597656e+01 1.132802009582519531e+01 2.139401808381080627e-02 8.283115386962890625e+00 2.491352796554565430e+00 6.764055043458938599e-02
1.610000000000000000e+03 2.306932830810546875e+01 2.258848762512207031e+01 7.463046349585056305e-03 8.219379425048828125e+00 2.468052625656127930e+00 -2.254231460392475128e-02
1.611000000000000000e+03 2.308941078186035156e+01 2.419903755187988281e+01 9.831961244344711304e-03 8.233228683471679688e+00 2.472918272018432617e+00 -3.741922602057456970e-02
1.612000000000000000e+03 2.393753242492675781e+01 2.756491661071777344e+01 6.046880409121513367e-02 8.248024940490722656e+00 2.492548227310180664e+00 -1.101326793432235718e-01
1.613000000000000000e+03 1.285866641998291016e+01 -6.673946380615234375e+00 1.003517187200486660e-03 2.125066239386796951e-04 3.648071433417499065e-04 -4.149370652157813311e-04
1.614000000000000000e+03 1.255726432800292969e+01 -1.095536231994628906e+01 -1.924785901792347431e-03 3.772528771150973625e-06 -5.763040389865636826e-04 -5.717406747862696648e-05
1.615000000000000000e+03 1.259715175628662109e+01 -1.250320720672607422e+01 -2.328893402591347694e-03 -5.899585084989666939e-05 -7.163667469285428524e-04 1.447073591407388449e-04
1.616000000000000000e+03 2.307719612121582031e+01 2.339233207702636719e+01 1.787019334733486176e-02 8.224619865417480469e+00 2.472746849060058594e+00 -3.140462189912796021e-02
1.617000000000000000e+03 2.385533905029296875e+01 2.266371726989746094e+01 2.286735363304615021e-02 8.202763557434082031e+00 2.467689275741577148e+00 -2.988319657742977142e-02
1.618000000000000000e+03 1.248158168792724609e+01 -1.016804695129394531e+01 1.713821664452552795e-03 1.733340650389436632e-05 5.193465622141957283e-04 1.621969568077474833e-04
1.619000000000000000e+03 1.233426952362060547e+01 -9.353636741638183594e+00 -1.337594236247241497e-03 4.744049147120676935e-05 -3.870461368933320045e-04 -3.791554772760719061e-04
1.620000000000000000e+03 1.240311145782470703e+01 -2.924477958679199219e+01 4.095841664820909500e-03 -2.449001418426632881e-03 4.940520739182829857e-04 6.799580063670873642e-03
1.621000000000000000e+03 1.322482109069824219e+01 -2.748632812500000000e+01 -1.215503644198179245e-02 -5.113722727401182055e-05 -3.661852097138762474e-03 2.472566440701484680e-03
1.622000000000000000e+03 1.232438468933105469e+01 -2.811006164550781250e+01 -1.305883005261421204e-02 -4.127263557165861130e-03 -5.155828315764665604e-03 6.852032616734504700e-03
1.623000000000000000e+03 1.350271034240722656e+01 -5.228139400482177734e+00 -1.019367598928511143e-03 1.026934023684589192e-05 -3.027294587809592485e-04 1.118058935389854014e-04
1.624000000000000000e+03 1.344093513488769531e+01 -4.456888198852539062e+00 8.577927364967763424e-04 -2.091018541250377893e-05 2.510647464077919722e-04 -2.087322354782372713e-05
1.625000000000000000e+03 2.296842193603515625e+01 3.106054306030273438e+01 1.129596158862113953e-01 8.420258522033691406e+00 2.559965372085571289e+00 -2.292792201042175293e-01
1.626000000000000000e+03 2.295895767211914062e+01 8.918550491333007812e+00 4.867578670382499695e-02 8.338358879089355469e+00 2.516110420227050781e+00 1.195557191967964172e-01
1.627000000000000000e+03 1.135641574859619141e+01 -3.920253515243530273e+00 -6.981319747865200043e-04 1.954026229213923216e-04 -1.508188142906874418e-04 1.276278635486960411e-04
1.628000000000000000e+03 2.308002281188964844e+01 2.910233879089355469e+01 4.124223440885543823e-02 8.337467193603515625e+00 2.513612985610961914e+00 -1.267149746417999268e-01
1.629000000000000000e+03 1.351014804840087891e+01 -5.976880550384521484e+00 1.162814442068338394e-03 8.295426596305333078e-06 3.513329720590263605e-04 -2.261418267153203487e-04
1.630000000000000000e+03 7.646390533447265625e+01 3.660672378540039062e+01 5.550790228880941868e-04 7.641796112060546875e+00 2.292705297470092773e+00 8.070552721619606018e-04
1.631000000000000000e+03 7.746440887451171875e+01 3.759868240356445312e+01 -4.494136665016412735e-04 7.635974884033203125e+00 2.290657520294189453e+00 3.665806143544614315e-04
1.632000000000000000e+03 7.769067382812500000e+01 3.573484802246093750e+01 6.162096397019922733e-04 7.633697032928466797e+00 2.290293931961059570e+00 6.823529838584363461e-04
1.633000000000000000e+03 7.707989501953125000e+01 2.960900497436523438e+01 5.688433302566409111e-04 7.638291835784912109e+00 2.291658163070678711e+00 -4.573095066007226706e-04
1.634000000000000000e+03 7.787476348876953125e+01 3.137649917602539062e+01 1.288610656047239900e-04 7.632147312164306641e+00 2.289682865142822266e+00 5.863399201189167798e-05
1.635000000000000000e+03 7.712071990966796875e+01 2.880255699157714844e+01 1.860120246419683099e-04 7.638082027435302734e+00 2.291480302810668945e+00 -4.754042893182486296e-04
1.636000000000000000e+03 7.802838897705078125e+01 2.493311119079589844e+01 1.805931387934833765e-04 7.632501125335693359e+00 2.289804458618164062e+00 -1.124218688346445560e-03
1.637000000000000000e+03 7.736943054199218750e+01 1.441092109680175781e+01 9.228462586179375648e-04 7.652447223663330078e+00 2.296010971069335938e+00 -7.431445177644491196e-03
1.638000000000000000e+03 7.698181152343750000e+01 3.124567222595214844e+01 5.423412076197564602e-04 7.638851642608642578e+00 2.291818141937255859e+00 -6.776667578378692269e-05
1.639000000000000000e+03 7.599643707275390625e+01 -3.737421035766601562e+01 -2.943980740383267403e-03 7.909510612487792969e+00 2.371969938278198242e+00 -6.724032573401927948e-03
1.640000000000000000e+03 7.725290679931640625e+01 -2.804438781738281250e+01 -1.442263834178447723e-03 7.891408443450927734e+00 2.366989850997924805e+00 -1.545399799942970276e-02
1.641000000000000000e+03 7.743485260009765625e+01 -1.559629803523421288e-03 7.171148317866027355e-04 7.713127613067626953e+00 2.314153432846069336e+00 -1.690950803458690643e-02
1.642000000000000000e+03 7.741078186035156250e+01 7.213286876678466797e+00 1.046606688760221004e-03 7.676664829254150391e+00 2.303313493728637695e+00 -1.264423318207263947e-02
1.643000000000000000e+03 7.741857147216796875e+01 4.016815185546875000e+00 9.408850455656647682e-04 7.691451549530029297e+00 2.307717800140380859e+00 -1.475896313786506653e-02
1.644000000000000000e+03 7.704382324218750000e+01 -3.194295883178710938e+01 -1.943500828929245472e-03 7.906215667724609375e+00 2.371281623840332031e+00 -1.247098017483949661e-02
1.645000000000000000e+03 7.833895111083984375e+01 3.693220138549804688e+01 3.782974454225040972e-05 7.629538536071777344e+00 2.288872957229614258e+00 7.871129782870411873e-04
1.646000000000000000e+03 7.816977691650390625e+01 -1.192829895019531250e+01 2.012606128118932247e-04 7.793397426605224609e+00 2.338079452514648438e+00 -1.508840266615152359e-02
1.647000000000000000e+03 7.743231964111328125e+01 -1.282757472991943359e+01 1.821089099394157529e-04 7.797738075256347656e+00 2.339375972747802734e+00 -2.036587893962860107e-02
1.648000000000000000e+03 7.743581390380859375e+01 -1.122629261016845703e+01 2.698588650673627853e-04 7.786548137664794922e+00 2.336045503616333008e+00 -2.030754275619983673e-02
1.649000000000000000e+03 7.743876647949218750e+01 -9.619511604309082031e+00 3.410860081203281879e-04 7.775379180908203125e+00 2.332715988159179688e+00 -2.013046853244304657e-02
1.650000000000000000e+03 7.743418121337890625e+01 -1.202815341949462891e+01 -1.563431869726628065e-04 7.792191505432128906e+00 2.337610483169555664e+00 -2.051873505115509033e-02
1.651000000000000000e+03 7.670176696777343750e+01 -1.210293102264404297e+01 2.617203572299331427e-04 7.790657520294189453e+00 2.337275743484497070e+00 -2.531028352677822113e-02
1.652000000000000000e+03 7.743387603759765625e+01 -6.422134399414062500e+00 4.761382588185369968e-04 7.753557205200195312e+00 2.326210021972656250e+00 -1.951397210359573364e-02
1.653000000000000000e+03 7.817337036132812500e+01 -9.520497322082519531e+00 -4.301054286770522594e-05 7.775710105895996094e+00 2.332700252532958984e+00 -1.502689998596906662e-02
1.654000000000000000e+03 7.743971252441406250e+01 -8.820678710937500000e+00 9.046558261616155505e-05 7.769899368286132812e+00 2.330996990203857422e+00 -2.012357302010059357e-02
1.655000000000000000e+03 7.816495513916015625e+01 1.705582976341247559e+00 4.411964910104870796e-04 7.700666904449462891e+00 2.310332536697387695e+00 -1.196343451738357544e-02
1.656000000000000000e+03 7.743172454833984375e+01 8.008076548576354980e-01 7.613283232785761356e-04 7.708563327789306641e+00 2.312797546386718750e+00 -1.658844202756881714e-02
1.657000000000000000e+03 7.817456817626953125e+01 -8.720005989074707031e+00 2.608021895866841078e-04 7.769862651824951172e+00 2.331037044525146484e+00 -1.482023391872644424e-02
1.658000000000000000e+03 7.814622497558593750e+01 -1.914185523986816406e+01 -4.795597924385219812e-04 7.845705509185791016e+00 2.353567838668823242e+00 -1.460249256342649460e-02
1.659000000000000000e+03 7.739176940917968750e+01 -2.003730773925781250e+01 -7.810537936165928841e-04 7.846693515777587891e+00 2.353773832321166992e+00 -1.941611245274543762e-02
1.660000000000000000e+03 7.743717193603515625e+01 -7.227069854736328125e+00 2.180784504162147641e-04 7.759013175964355469e+00 2.327769279479980469e+00 -1.980528421700000763e-02
1.661000000000000000e+03 7.816897583007812500e+01 -3.106185436248779297e+00 2.575921535026282072e-04 7.730625152587890625e+00 2.319264888763427734e+00 -1.370858494192361832e-02
1.662000000000000000e+03 7.816937255859375000e+01 -5.514217853546142578e+00 3.119260654784739017e-04 7.747008800506591797e+00 2.324196100234985352e+00 -1.428006589412689209e-02
1.663000000000000000e+03 7.740392303466796875e+01 8.014390945434570312e+00 9.154207655228674412e-04 7.673323631286621094e+00 2.302271842956542969e+00 -1.198318321257829666e-02
1.664000000000000000e+03 7.743385314941406250e+01 -7.988325953483581543e-01 6.692359456792473793e-04 7.717835426330566406e+00 2.315551280975341797e+00 -1.741018705070018768e-02
1.665000000000000000e+03 7.816266632080078125e+01 2.508759498596191406e+00 4.153569170739501715e-04 7.696102619171142578e+00 2.308955430984497070e+00 -1.155565399676561356e-02
1.666000000000000000e+03 7.742685699462890625e+01 1.607440590858459473e+00 7.636939990334212780e-04 7.704061031341552734e+00 2.311447381973266602e+00 -1.607633195817470551e-02
1.667000000000000000e+03 7.815940093994140625e+01 4.113517761230468750e+00 4.380670143291354179e-04 7.687425613403320312e+00 2.306359052658081055e+00 -1.083278656005859375e-02
1.668000000000000000e+03 7.740545654296875000e+01 -1.843362236022949219e+01 -6.460964214056730270e-04 7.836239337921142578e+00 2.350677967071533203e+00 -1.986602135002613068e-02
1.669000000000000000e+03 7.741729736328125000e+01 -1.682685852050781250e+01 -5.395738990046083927e-04 7.825465202331542969e+00 2.347477674484252930e+00 -2.020934782922267914e-02
1.670000000000000000e+03 7.739948272705078125e+01 -1.923644256591796875e+01 -2.550162316765636206e-04 7.841524124145507812e+00 2.352380752563476562e+00 -1.937389001250267029e-02
1.671000000000000000e+03 7.665238952636718750e+01 -1.930446243286132812e+01 -1.024020370095968246e-03 7.837236404418945312e+00 2.350863695144653320e+00 -2.440872415900230408e-02
1.672000000000000000e+03 7.741416168212890625e+01 6.417918682098388672e+00 8.941238047555088997e-04 7.680083274841308594e+00 2.304293155670166016e+00 -1.306008547544479370e-02
1.673000000000000000e+03 7.743009185791015625e+01 -2.404661417007446289e+00 5.677199806086719036e-04 7.727599620819091797e+00 2.318450212478637695e+00 -1.818799227476119995e-02
1.674000000000000000e+03 7.738163757324218750e+01 1.122066879272460938e+01 9.290185407735407352e-04 7.661665916442871094e+00 2.298778533935546875e+00 -9.747277013957500458e-03
1.675000000000000000e+03 7.739626312255859375e+01 8.818865776062011719e+00 1.077807042747735977e-03 7.670206069946289062e+00 2.301385164260864258e+00 -1.156163960695266724e-02
1.676000000000000000e+03 7.814244079589843750e+01 8.919734001159667969e+00 4.648107569664716721e-04 7.665187835693359375e+00 2.299695730209350586e+00 -8.452098816633224487e-03
1.677000000000000000e+03 7.741617584228515625e+01 4.816557884216308594e+00 8.593581151217222214e-04 7.687520980834960938e+00 2.306514024734497070e+00 -1.413999777287244797e-02
1.678000000000000000e+03 7.810834503173828125e+01 1.612568473815917969e+01 6.128344102762639523e-04 7.643084526062011719e+00 2.293109178543090820e+00 -4.776298999786376953e-03
1.679000000000000000e+03 7.736071777343750000e+01 1.520814895629882812e+01 1.103124464862048626e-03 7.650633811950683594e+00 2.295521020889282227e+00 -7.054685615003108978e-03
1.680000000000000000e+03 7.815887451171875000e+01 -1.673357582092285156e+01 5.642049291054718196e-05 7.828666210174560547e+00 2.348616838455200195e+00 -1.479329727590084076e-02
1.681000000000000000e+03 7.742330169677734375e+01 -1.602888298034667969e+01 -2.927040441136341542e-05 7.820002555847167969e+00 2.345992088317871094e+00 -2.007035911083221436e-02
1.682000000000000000e+03 7.816271972656250000e+01 -1.593361186981201172e+01 -3.573390713427215815e-04 7.822879314422607422e+00 2.346756458282470703e+00 -1.509429421275854111e-02
1.683000000000000000e+03 7.805886840820312500e+01 2.253946495056152344e+01 5.211810348555445671e-04 7.633917331695556641e+00 2.290331602096557617e+00 -1.982265384867787361e-03
1.684000000000000000e+03 7.737474060058593750e+01 1.361649036407470703e+01 1.140182255767285824e-03 7.654545307159423828e+00 2.296705722808837891e+00 -8.167283609509468079e-03
1.685000000000000000e+03 7.640969085693359375e+01 -2.888000106811523438e+01 -2.370390808209776878e-03 7.886674404144287109e+00 2.365291118621826172e+00 -1.855810545384883881e-02
1.686000000000000000e+03 7.731474304199218750e+01 1.841227912902832031e+01 9.984857169911265373e-04 7.644634246826171875e+00 2.293689727783203125e+00 -4.946803208440542221e-03
1.687000000000000000e+03 7.734957885742187500e+01 1.600778770446777344e+01 8.908378658816218376e-04 7.648837089538574219e+00 2.294918537139892578e+00 -6.366148125380277634e-03
1.688000000000000000e+03 7.810121917724609375e+01 1.692797851562500000e+01 4.427864623721688986e-04 7.641398906707763672e+00 2.292552471160888672e+00 -4.280647728592157364e-03
1.689000000000000000e+03 7.729975891113281250e+01 2.001729965209960938e+01 9.327057632617652416e-04 7.642417907714843750e+00 2.293005228042602539e+00 -4.019821994006633759e-03
1.690000000000000000e+03 7.729557800292968750e+01 2.081772422790527344e+01 7.134353509172797203e-04 7.641410827636718750e+00 2.292637348175048828e+00 -3.478724509477615356e-03
1.691000000000000000e+03 7.737809753417968750e+01 1.201928520202636719e+01 1.143419300206005573e-03 7.659159660339355469e+00 2.298090934753417969e+00 -9.330637753009796143e-03
1.692000000000000000e+03 7.805072021484375000e+01 2.333934783935546875e+01 2.606524794828146696e-04 7.633320808410644531e+00 2.290074348449707031e+00 -1.593253924511373043e-03
1.693000000000000000e+03 7.728129577636718750e+01 2.242090988159179688e+01 6.386243621818721294e-04 7.639872550964355469e+00 2.292153358459472656e+00 -2.592948032543063164e-03
1.694000000000000000e+03 7.638768768310546875e+01 2.624000549316406250e+01 5.777625483460724354e-04 7.644042491912841797e+00 2.293385982513427734e+00 -1.361029804684221745e-03
1.695000000000000000e+03 7.732866668701171875e+01 -2.404916000366210938e+01 -6.758885574527084827e-04 7.870951652526855469e+00 2.361082792282104492e+00 -1.745654456317424774e-02
1.696000000000000000e+03 7.728260803222656250e+01 -2.644411468505859375e+01 -1.114881597459316254e-03 7.883615493774414062e+00 2.364750146865844727e+00 -1.637767441570758820e-02
1.697000000000000000e+03 7.734497833251953125e+01 -2.324757957458496094e+01 -1.122143352404236794e-03 7.866377353668212891e+00 2.359576463699340820e+00 -1.813107542693614960e-02
1.698000000000000000e+03 7.731143188476562500e+01 -2.485336875915527344e+01 -1.208745525218546391e-03 7.875413417816162109e+00 2.362261533737182617e+00 -1.726294122636318207e-02
1.699000000000000000e+03 7.729524993896484375e+01 -2.564928054809570312e+01 -6.134281866252422333e-04 7.879636764526367188e+00 2.363707065582275391e+00 -1.653126068413257599e-02
1.700000000000000000e+03 7.730556488037109375e+01 1.921498489379882812e+01 7.516318582929670811e-04 7.643404006958007812e+00 2.293246746063232422e+00 -4.359191749244928360e-03
1.701000000000000000e+03 7.810691070556640625e+01 -2.315441513061523438e+01 -2.186212077504023910e-04 7.872222900390625000e+00 2.361601114273071289e+00 -1.326719764620065689e-02
1.702000000000000000e+03 7.721591186523437500e+01 2.559071922302246094e+01 3.635073953773826361e-04 7.638259410858154297e+00 2.291586875915527344e+00 -1.290526473894715309e-03
1.703000000000000000e+03 7.715018463134765625e+01 2.799918746948242188e+01 5.360257928259670734e-04 7.638062000274658203e+00 2.291579484939575195e+00 -7.659165421500802040e-04
1.704000000000000000e+03 7.719683837890625000e+01 2.639151382446289062e+01 5.925107980147004128e-04 7.638171672821044922e+00 2.291629314422607422e+00 -1.147403963841497898e-03
1.705000000000000000e+03 7.684989166259765625e+01 -3.414323043823242188e+01 -3.659602720290422440e-03 7.911136627197265625e+00 2.372243165969848633e+00 -1.062185596674680710e-02
1.706000000000000000e+03 7.669268035888671875e+01 3.562061309814453125e+01 6.073536351323127747e-04 7.641447544097900391e+00 2.292616367340087891e+00 5.441976245492696762e-04
1.707000000000000000e+03 7.780676269531250000e+01 3.304234313964843750e+01 -5.529929694603197277e-05 7.632858276367187500e+00 2.289840936660766602e+00 2.537048421800136566e-04
1.708000000000000000e+03 7.707994079589843750e+01 -3.115697097778320312e+01 -2.172664040699601173e-03 7.903367042541503906e+00 2.370358228683471680e+00 -1.369190402328968048e-02
1.709000000000000000e+03 7.703612518310546875e+01 -3.344672775268554688e+01 -1.557757728733122349e-03 7.911430835723876953e+00 2.372961997985839844e+00 -1.017842814326286316e-02
1.710000000000000000e+03 7.797228240966796875e+01 -3.032289505004882812e+01 -1.189959817565977573e-03 7.910074234008789062e+00 2.372665405273437500e+00 -1.049868762493133545e-02
1.711000000000000000e+03 7.712471771240234375e+01 -3.038025474548339844e+01 -1.209851005114614964e-03 7.900637149810791016e+00 2.369828224182128906e+00 -1.378982514142990112e-02
1.712000000000000000e+03 7.702584075927734375e+01 -3.271669387817382812e+01 -2.608887385576963425e-03 7.909356594085693359e+00 2.372024297714233398e+00 -1.169807743281126022e-02
1.713000000000000000e+03 2.329211616516113281e+01 3.167654037475585938e+01 1.431726068258285522e-01 8.377352714538574219e+00 2.556157588958740234e+00 -2.607874572277069092e-01
1.714000000000000000e+03 7.794277954101562500e+01 -3.110308456420898438e+01 -7.038783514872193336e-04 7.913255691528320312e+00 2.373765468597412109e+00 -9.644081816077232361e-03
1.715000000000000000e+03 7.690019989013671875e+01 3.294607925415039062e+01 3.441862063482403755e-04 7.639224529266357422e+00 2.291870594024658203e+00 4.759313014801591635e-04
1.716000000000000000e+03 7.687384033203125000e+01 3.382257080078125000e+01 -3.618028358687297441e-06 7.639487266540527344e+00 2.291845083236694336e+00 4.583676927722990513e-04
1.717000000000000000e+03 7.683540344238281250e+01 3.470790863037109375e+01 4.150372988078743219e-04 7.639849185943603516e+00 2.292079210281372070e+00 5.121881258673965931e-04
1.718000000000000000e+03 2.201550483703613281e+01 -2.681933212280273438e+01 -3.625938668847084045e-03 7.336490154266357422e+00 2.199859142303466797e+00 2.020544409751892090e-01
1.719000000000000000e+03 2.151380920410156250e+01 -9.554380416870117188e+00 8.575063198804855347e-02 7.714374065399169922e+00 2.340037345886230469e+00 2.423683553934097290e-01
1.720000000000000000e+03 2.230944824218750000e+01 -6.334420204162597656e+00 -1.070636734366416931e-01 7.706445217132568359e+00 2.279814481735229492e+00 2.913104295730590820e-01
1.721000000000000000e+03 7.669980621337890625e+01 -3.847745895385742188e+01 -7.951646693982183933e-04 7.917932510375976562e+00 2.375141143798828125e+00 -4.373311996459960938e-03
1.722000000000000000e+03 7.668495941162109375e+01 -3.594738769531250000e+01 -2.776849316433072090e-03 7.913953781127929688e+00 2.373353004455566406e+00 -8.158113807439804077e-03
1.723000000000000000e+03 7.744501495361328125e+01 3.968955612182617188e+01 -2.116387477144598961e-04 7.637435913085937500e+00 2.291167259216308594e+00 7.391840335913002491e-04
1.724000000000000000e+03 7.501364898681640625e+01 3.780948257446289062e+01 1.506759435869753361e-04 7.651248455047607422e+00 2.295419692993164062e+00 4.661223501898348331e-04
1.725000000000000000e+03 2.272029495239257812e+01 3.269696807861328125e+01 1.758833080530166626e-01 8.534446716308593750e+00 2.613099098205566406e+00 -3.545213937759399414e-01
1.726000000000000000e+03 2.240248680114746094e+01 -3.976186990737915039e+00 -5.157755315303802490e-02 7.752803325653076172e+00 2.310367584228515625e+00 2.333958894014358521e-01
1.727000000000000000e+03 2.293019676208496094e+01 6.481941223144531250e+00 1.395832449197769165e-01 8.370778083801269531e+00 2.553108453750610352e+00 2.104199677705764771e-01
1.728000000000000000e+03 1.845379352569580078e+00 2.632622528076171875e+01 -5.300537217408418655e-03 -3.598968032747507095e-04 -1.698130276054143906e-03 3.061249386519193649e-03
1.729000000000000000e+03 2.278946876525878906e+00 3.534743499755859375e+01 5.207043606787919998e-03 -3.469807282090187073e-02 -8.847308345139026642e-03 2.145953476428985596e-02
1.730000000000000000e+03 3.227259397506713867e+00 3.719429397583007812e+01 -4.885999951511621475e-03 -3.031994588673114777e-02 -1.056178379803895950e-02 2.484262920916080475e-02
1.731000000000000000e+03 1.881012201309204102e+00 2.874518585205078125e+01 3.820505458861589432e-03 -4.274557344615459442e-03 -1.362155890092253685e-04 3.018673975020647049e-03
1.732000000000000000e+03 2.958371639251708984e+00 3.345923614501953125e+01 -1.204026117920875549e-02 -1.465559005737304688e-02 -8.008755743503570557e-03 2.147656865417957306e-02
1.733000000000000000e+03 1.814177989959716797e+00 1.990771865844726562e+01 -1.807048800401389599e-03 4.136178467888385057e-04 -4.180292598903179169e-04 3.567505627870559692e-04
1.734000000000000000e+03 2.549147844314575195e+00 2.137571334838867188e+01 2.035849262028932571e-03 8.456528885290026665e-04 8.644506451673805714e-04 -1.572396606206893921e-03
1.735000000000000000e+03 2.529447317123413086e+00 1.975429344177246094e+01 1.827070256695151329e-03 7.379635935649275780e-04 7.695101667195558548e-04 -1.166292815469205379e-03
1.736000000000000000e+03 2.513633489608764648e+00 1.815460014343261719e+01 1.761496299877762794e-03 4.677137767430394888e-04 6.687630084343254566e-04 -8.639340521767735481e-04
1.737000000000000000e+03 2.541275501251220703e+00 2.056691932678222656e+01 -1.919125323183834553e-03 -9.436748950975015759e-05 -6.040478474460542202e-04 5.019926466047763824e-04
1.738000000000000000e+03 3.259907960891723633e+00 2.043886756896972656e+01 1.761870575137436390e-03 6.568385288119316101e-04 7.256127428263425827e-04 -1.320822513662278652e-03
1.739000000000000000e+03 2.506983518600463867e+00 1.736419868469238281e+01 -1.505161519162356853e-03 1.557739306008443236e-04 -4.048162663821130991e-04 5.032677563576726243e-06
1.740000000000000000e+03 1.786553740501403809e+00 1.512276840209960938e+01 -1.244594692252576351e-03 2.435286005493253469e-04 -3.003198071382939816e-04 7.424726209137588739e-05
1.741000000000000000e+03 1.856072664260864258e+00 2.713025665283203125e+01 3.712457139045000076e-03 -1.513203838840126991e-03 6.597760366275906563e-04 6.872222293168306351e-04
1.742000000000000000e+03 2.592239618301391602e+00 2.860311508178710938e+01 -8.411318063735961914e-03 -2.485851524397730827e-03 -3.269150853157043457e-03 6.779554765671491623e-03
1.743000000000000000e+03 1.784366011619567871e+00 1.352715492248535156e+01 -1.073541003279387951e-03 1.703001471469178796e-04 -2.709722612053155899e-04 1.184859283966943622e-04
1.744000000000000000e+03 2.486191272735595703e+00 1.500521183013916016e+01 1.487234607338905334e-03 1.095328480005264282e-04 4.790302191395312548e-04 -4.631072224583476782e-04
1.745000000000000000e+03 2.550583124160766602e+00 2.457905006408691406e+01 2.809794852510094643e-03 -1.958094944711774588e-04 7.841956103220582008e-04 -1.188903814181685448e-03
1.746000000000000000e+03 3.936894655227661133e+00 2.680336570739746094e+01 -8.901201188564300537e-03 6.149325054138898849e-04 -2.485880395397543907e-03 5.486888345330953598e-03
1.747000000000000000e+03 1.772017240524291992e+00 1.113666057586669922e+01 8.619527216069400311e-04 9.868579218164086342e-05 2.881915424950420856e-04 -2.946909517049789429e-04
1.748000000000000000e+03 2.484273195266723633e+00 1.421601867675781250e+01 -1.232980517670512199e-03 1.875494199339300394e-04 -3.136293380521237850e-04 5.132572914590127766e-05
1.749000000000000000e+03 2.487129926681518555e+00 1.262043094635009766e+01 -1.035653171129524708e-03 1.401691697537899017e-04 -2.686452062334865332e-04 1.224577426910400391e-04
1.750000000000000000e+03 1.828251361846923828e+00 2.392223358154296875e+01 2.934666583314538002e-03 8.813435561023652554e-04 1.144803012721240520e-03 -1.447240123525261879e-03
1.751000000000000000e+03 2.550104856491088867e+00 2.297276878356933594e+01 2.440244425088167191e-03 5.252679693512618542e-04 8.896537474356591702e-04 -1.712349359877407551e-03
1.752000000000000000e+03 1.747764229774475098e+00 9.541974067687988281e+00 6.813735235482454300e-04 8.324241207446902990e-05 2.293847792316228151e-04 -2.339784405194222927e-04
1.753000000000000000e+03 2.484448432922363281e+00 1.342014503479003906e+01 1.253584166988730431e-03 3.573406138457357883e-05 3.867954656016081572e-04 -3.861136501654982567e-04
1.754000000000000000e+03 2.474572420120239258e+00 1.023361396789550781e+01 8.074134821072220802e-04 6.033801764715462923e-05 2.603254397399723530e-04 -2.718488976825028658e-04
1.755000000000000000e+03 2.457905292510986328e+00 9.431917190551757812e+00 -6.914585246704518795e-04 -3.985874627687735483e-06 -2.086333115585148335e-04 1.657172979321330786e-04
1.756000000000000000e+03 1.663722753524780273e+00 6.375175952911376953e+00 4.054605378769338131e-04 7.570404704893007874e-05 1.443493674742057920e-04 -1.279499410884454846e-04
1.757000000000000000e+03 2.401442289352416992e+00 7.038083553314208984e+00 4.857461899518966675e-04 9.939961455529555678e-05 1.755437406245619059e-04 -1.883624063339084387e-04
1.758000000000000000e+03 3.189566612243652344e+00 3.523387908935546875e+01 -1.009617280215024948e-02 -2.043143846094608307e-02 -9.158283472061157227e-03 2.734824083745479584e-02
1.759000000000000000e+03 4.726679325103759766e+00 4.350758552551269531e+00 -2.318500046385452151e-04 -1.369204546790570021e-04 -1.106311392504721880e-04 8.940070983953773975e-05
1.760000000000000000e+03 5.352423191070556641e+00 4.329315185546875000e+00 2.627227804623544216e-04 1.249008055310696363e-04 1.162870830739848316e-04 -8.230583625845611095e-05
1.761000000000000000e+03 2.340613126754760742e+00 6.230708122253417969e+00 -4.175499198026955128e-04 -9.372947533847764134e-05 -1.533838221803307533e-04 1.316052221227437258e-04
1.762000000000000000e+03 2.730939388275146484e+00 3.181217384338378906e+01 -1.170918252319097519e-02 -9.548951871693134308e-03 -6.377440411597490311e-03 1.515870261937379837e-02
1.763000000000000000e+03 3.926002979278564453e+00 3.413409042358398438e+01 -1.454197615385055542e-02 -9.288729168474674225e-03 -7.149211596697568893e-03 2.804592251777648926e-02
1.764000000000000000e+03 1.954529047012329102e+00 3.116440010070800781e+01 -9.064318612217903137e-03 -1.012242399156093597e-02 -5.756022874265909195e-03 1.074977219104766846e-02
1.765000000000000000e+03 3.083740711212158203e+00 3.432666397094726562e+01 1.268768217414617538e-03 -2.137157320976257324e-02 -6.030841730535030365e-03 2.347663976252079010e-02
1.766000000000000000e+03 2.640451669692993164e+00 3.021929550170898438e+01 -1.040021516382694244e-02 -5.328075028955936432e-03 -4.718487150967121124e-03 1.041373424232006073e-02
1.767000000000000000e+03 2.100534057617187500e+01 -2.159741592407226562e+01 7.370444945991039276e-03 7.160495281219482422e+00 2.150359630584716797e+00 2.203747332096099854e-01
1.768000000000000000e+03 1.303910446166992188e+01 2.713540077209472656e+01 -1.661680988036096096e-03 -1.756970654241740704e-03 -1.025595469400286674e-03 -5.150832235813140869e-03
1.769000000000000000e+03 1.850605607032775879e+00 3.897729492187500000e+01 3.343011951074004173e-03 -6.023224815726280212e-02 -1.706677116453647614e-02 1.609186455607414246e-02
1.770000000000000000e+03 2.138933420181274414e+00 3.808892059326171875e+01 2.282714413013309240e-04 -5.758596584200859070e-02 -1.720730774104595184e-02 1.451211795210838318e-02
1.771000000000000000e+03 1.284770870208740234e+01 2.394255065917968750e+01 2.599647268652915955e-03 5.521505954675376415e-04 9.455393883399665356e-04 -1.874463196145370603e-04
1.772000000000000000e+03 2.288845252990722656e+01 4.842698574066162109e+00 2.307531982660293579e-01 8.316039085388183594e+00 2.564037561416625977e+00 2.311892360448837280e-01
1.773000000000000000e+03 2.285745811462402344e+01 4.021577835083007812e+00 2.257338464260101318e-01 8.277402877807617188e+00 2.550941228866577148e+00 2.057902514934539795e-01
1.774000000000000000e+03 1.235342597961425781e+01 -3.370583343505859375e+01 -6.394039094448089600e-02 3.423964139074087143e-03 -1.815492659807205200e-02 4.995014145970344543e-02
1.775000000000000000e+03 2.277206230163574219e+01 2.390007019042968750e+00 8.025708049535751343e-02 8.190486907958984375e+00 2.481223344802856445e+00 1.927322149276733398e-01
1.776000000000000000e+03 2.213966178894042969e+01 3.999948740005493164e+00 2.439611852169036865e-01 8.404397010803222656e+00 2.594507455825805664e+00 2.671728134155273438e-01
1.777000000000000000e+03 2.121923446655273438e+01 -2.857264900207519531e+01 7.996924687176942825e-04 7.405808925628662109e+00 2.221982717514038086e+00 1.765449941158294678e-01
1.778000000000000000e+03 1.298644256591796875e+01 2.632272148132324219e+01 -5.982352886348962784e-03 -1.927861478179693222e-03 -2.373064402490854263e-03 -2.364226849749684334e-03
1.779000000000000000e+03 1.370576572418212891e+01 3.375106430053710938e+01 -1.056424677371978760e-01 1.740523241460323334e-02 -2.647116966545581818e-02 -7.043647766113281250e-02
1.780000000000000000e+03 2.216386604309082031e+01 -1.360575103759765625e+01 1.540220677852630615e-01 7.640468120574951172e+00 2.338346958160400391e+00 2.933775186538696289e-01
1.781000000000000000e+03 1.420582866668701172e+01 3.130571174621582031e+01 -2.201865613460540771e-02 -1.365458685904741287e-02 -1.070197299122810364e-02 -2.942559681832790375e-02
1.782000000000000000e+03 1.142015552520751953e+01 3.121396827697753906e+01 -4.144627973437309265e-02 2.531675808131694794e-02 -4.838856402784585953e-03 -9.193333797156810760e-03
1.783000000000000000e+03 2.204059791564941406e+01 -1.607707977294921875e+01 1.835154183208942413e-02 7.509972095489501953e+00 2.258497238159179688e+00 2.102435231208801270e-01
1.784000000000000000e+03 1.392477416992187500e+01 2.883025360107421875e+01 -1.090557873249053955e-02 -5.941350013017654419e-03 -5.054078530520200729e-03 -8.144940249621868134e-03
1.785000000000000000e+03 2.228350448608398438e+01 -7.919747829437255859e+00 -9.401224553585052490e-03 7.688671588897705078e+00 2.303781032562255859e+00 3.080337047576904297e-01
1.786000000000000000e+03 1.255283260345458984e+01 -3.497388839721679688e+01 -1.127818599343299866e-01 2.483057044446468353e-02 -2.638538554310798645e-02 5.844980105757713318e-02
1.787000000000000000e+03 2.244033432006835938e+01 -3.185264348983764648e+00 9.939420968294143677e-03 7.774958610534667969e+00 2.335469484329223633e+00 2.525217235088348389e-01
1.788000000000000000e+03 1.446180915832519531e+01 3.294150543212890625e+01 -5.584168806672096252e-02 -1.659821160137653351e-02 -2.173196896910667419e-02 -5.319216102361679077e-02
1.789000000000000000e+03 2.224604797363281250e+01 -1.114932060241699219e+01 7.081671804189682007e-02 7.738204956054687500e+00 2.342706441879272461e+00 2.694529592990875244e-01
1.790000000000000000e+03 2.212728881835937500e+01 -1.442958164215087891e+01 1.555981338024139404e-01 7.593474864959716797e+00 2.324722051620483398e+00 2.552583217620849609e-01
1.791000000000000000e+03 1.309526062011718750e+01 2.795477867126464844e+01 -9.334143251180648804e-03 -3.368911100551486015e-03 -3.810916328802704811e-03 -5.987707991153001785e-03
1.792000000000000000e+03 1.293642902374267578e+01 2.551913833618164062e+01 1.276206108741462231e-03 -3.012923407368361950e-04 2.924741129390895367e-04 -1.838150201365351677e-03
1.793000000000000000e+03 2.281861305236816406e+01 3.202314615249633789e+00 1.695748865604400635e-01 8.235974311828613281e+00 2.521664857864379883e+00 1.924502849578857422e-01
1.794000000000000000e+03 2.222347640991210938e+01 -1.196546745300292969e+01 8.060498535633087158e-02 7.726791381835937500e+00 2.342218875885009766e+00 2.968038618564605713e-01
1.795000000000000000e+03 2.236781692504882812e+01 -3.101928520202636719e+01 1.382365673780441284e-01 7.415189743041992188e+00 2.266027927398681641e+00 3.011846244335174561e-01
1.796000000000000000e+03 2.230278396606445312e+01 -3.014007377624511719e+01 1.210889667272567749e-01 7.409348964691162109e+00 2.259131431579589844e+00 2.566895782947540283e-01
1.797000000000000000e+03 1.225900745391845703e+01 1.547440242767333984e+01 -2.476112917065620422e-03 -2.068898174911737442e-04 -8.049007738009095192e-04 4.714272799901664257e-04
1.798000000000000000e+03 7.665941619873046875e+01 4.174969863891601562e+01 2.420479286229237914e-04 7.642279148101806641e+00 2.292756319046020508e+00 2.214194537373259664e-04
1.799000000000000000e+03 1.259451198577880859e+01 -3.742209243774414062e+01 -1.439271867275238037e-01 1.504034996032714844e-01 1.942894305102527142e-03 -4.883617162704467773e-02
1.800000000000000000e+03 2.159931564331054688e+01 -3.418604660034179688e+01 5.288603305816650391e-01 7.279585361480712891e+00 2.342533588409423828e+00 4.385952055454254150e-01
1.801000000000000000e+03 1.313381958007812500e+01 -2.912524223327636719e+01 -1.400764659047126770e-02 -3.039553295820951462e-03 -5.114160012453794479e-03 3.364973934367299080e-03
1.802000000000000000e+03 2.489999771118164062e+01 3.885415267944335938e+01 -3.374853730201721191e-01 7.531114578247070312e+00 2.158088684082031250e+00 2.808674573898315430e-01
1.803000000000000000e+03 2.474934959411621094e+01 3.632038116455078125e+01 3.033776283264160156e-01 7.603147029876708984e+00 2.371957540512084961e+00 7.794905453920364380e-02
1.804000000000000000e+03 3.242388486862182617e+00 -3.936422348022460938e+01 -5.921868607401847839e-03 -3.940747305750846863e-02 -1.359880343079566956e-02 -1.711536385118961334e-02
1.805000000000000000e+03 2.134611701965332031e+01 -3.960214614868164062e+01 -5.110571384429931641e-01 6.004668712615966797e+00 1.648083448410034180e+00 -1.794192194938659668e-01
1.806000000000000000e+03 1.975694274902343750e+01 -3.792763900756835938e+01 2.114232331514358521e-01 6.089653491973876953e+00 1.890323042869567871e+00 3.770551383495330811e-01
1.807000000000000000e+03 1.818067359924316406e+01 -4.156107711791992188e+01 -9.592647850513458252e-02 2.769074678421020508e+00 8.019444942474365234e-01 4.184692203998565674e-01
1.808000000000000000e+03 1.807996368408203125e+01 4.173288345336914062e+01 4.194892942905426025e-01 1.394903302192687988e+00 5.443177819252014160e-01 -2.056571096181869507e-01
1.809000000000000000e+03 7.570812988281250000e+01 -3.939063644409179688e+01 -2.420943696051836014e-03 7.909194946289062500e+00 2.372032165527343750e+00 -3.958852961659431458e-03
1.810000000000000000e+03 3.671152830123901367e+00 3.975715637207031250e+01 1.471383683383464813e-02 -4.163916036486625671e-02 -8.077597245573997498e-03 3.565888851881027222e-02
1.811000000000000000e+03 2.648959159851074219e+00 3.937973785400390625e+01 7.078157737851142883e-03 -6.475526094436645508e-02 -1.730313152074813843e-02 1.275827642530202866e-02
1.812000000000000000e+03 1.249145412445068359e+01 -4.139949798583984375e+01 2.830097079277038574e-01 9.281069785356521606e-02 1.127461194992065430e-01 -8.049007505178451538e-02
1.813000000000000000e+03 9.485842704772949219e+00 -3.586547613143920898e+00 -4.422350903041660786e-04 -1.948447898030281067e-04 -1.911239523906260729e-04 1.079402936738915741e-04
1.814000000000000000e+03 1.124861240386962891e+01 -3.388394117355346680e+00 5.129608907736837864e-04 6.311726338026346639e-06 1.557817740831524134e-04 -1.627735218789894134e-05
1.815000000000000000e+03 1.326294422149658203e+01 -2.997702598571777344e+00 4.149512278672773391e-06 2.548779884818941355e-04 7.770825322950258851e-05 -9.747536751092411578e-06
1.816000000000000000e+03 1.243873023986816406e+01 -3.533867835998535156e+00 -6.844398449175059795e-04 2.292584831593558192e-04 -1.365544158034026623e-04 -1.752822863636538386e-04
1.817000000000000000e+03 8.840784072875976562e+00 -3.592661857604980469e+00 3.627036057878285646e-04 2.292757853865623474e-04 1.775938144419342279e-04 -2.285035407112445682e-05
1.818000000000000000e+03 1.154720592498779297e+01 -4.896661281585693359e+00 -8.886966388672590256e-04 -7.447113603120669723e-05 -2.889503375627100468e-04 4.709998756879940629e-05
1.819000000000000000e+03 7.303254127502441406e+00 4.335137367248535156e+00 -2.082403807435184717e-04 -1.427060342393815517e-04 -1.052839215844869614e-04 3.652446685009635985e-05
1.820000000000000000e+03 1.078729438781738281e+01 3.787824869155883789e+00 -2.295563608640804887e-04 -1.246848696609959006e-04 -1.062723677023313940e-04 -1.032926229527220130e-04
1.821000000000000000e+03 1.069659900665283203e+01 4.490374088287353516e+00 2.751109714154154062e-04 1.737446727929636836e-04 1.346566859865561128e-04 1.184142456622794271e-04
1.822000000000000000e+03 3.503481626510620117e+00 5.145359039306640625e+00 2.835109189618378878e-04 2.141124859917908907e-04 1.492870214860886335e-04 -2.206326462328433990e-04
1.823000000000000000e+03 6.712264060974121094e+00 3.692065954208374023e+00 -1.898548944154754281e-04 -1.246977335540577769e-04 -9.436578693566843867e-05 4.065856774104759097e-05
1.824000000000000000e+03 5.991378784179687500e+00 4.322852611541748047e+00 -2.310161653440445662e-04 -1.261387224076315761e-04 -1.071464648703113198e-04 6.823884905315935612e-05
1.825000000000000000e+03 2.858898639678955078e+00 4.570032596588134766e+00 3.168805269524455070e-04 1.017627946566790342e-04 1.255929964827373624e-04 -1.662031718296930194e-04
1.826000000000000000e+03 4.125806331634521484e+00 3.739720106124877930e+00 -2.072763745673000813e-04 -1.157807346316985786e-04 -9.691713057691231370e-05 1.063369563780725002e-04
1.827000000000000000e+03 8.052406311035156250e+00 3.711501121520996094e+00 -1.779166195774450898e-04 -1.321671734331175685e-04 -9.302514081355184317e-05 3.225715516919080983e-08
1.828000000000000000e+03 8.647051811218261719e+00 4.377586364746093750e+00 -1.967764546861872077e-04 -1.602794945938512683e-04 -1.071167862392030656e-04 -8.041722139751072973e-06
1.829000000000000000e+03 3.021795749664306641e+00 6.068828105926513672e+00 4.562499816529452801e-04 1.677996187936514616e-04 1.872148714028298855e-04 -2.284363290527835488e-04
1.830000000000000000e+03 2.256348228454589844e+01 -7.992826700210571289e-01 -2.779444307088851929e-02 7.928065776824951172e+00 2.370081424713134766e+00 3.494178056716918945e-01
1.831000000000000000e+03 2.335264396667480469e+01 1.141133159399032593e-02 -3.783506527543067932e-02 8.014811515808105469e+00 2.393093109130859375e+00 2.585227191448211670e-01
1.832000000000000000e+03 1.108177661895751953e+01 -3.144347190856933594e+01 -3.788332641124725342e-02 -5.696513224393129349e-03 -1.307395193725824356e-02 1.449927315115928650e-02
1.833000000000000000e+03 1.107444095611572266e+01 -3.333056259155273438e+01 -7.062667608261108398e-02 8.557477034628391266e-03 -1.862075924873352051e-02 1.990893110632896423e-02
1.834000000000000000e+03 3.620816707611083984e+00 -5.410778522491455078e+00 -8.566631586290895939e-04 2.967051113955676556e-04 -1.679874112596735358e-04 -4.131033783778548241e-04
1.835000000000000000e+03 3.021509885787963867e+00 -4.072166442871093750e+00 5.889242747798562050e-04 1.508884743088856339e-04 2.219438320025801659e-04 2.264012146042659879e-04
1.836000000000000000e+03 2.315751552581787109e+00 -4.823322296142578125e+00 7.853889255784451962e-04 4.807329969480633736e-05 2.500386617612093687e-04 1.614584034541621804e-04
1.837000000000000000e+03 1.268104362487792969e+01 -2.126968193054199219e+01 6.296969018876552582e-03 -1.555575863676494919e-06 1.888623926788568497e-03 -8.448880398645997047e-04
1.838000000000000000e+03 1.270085525512695312e+01 -2.204015922546386719e+01 -6.430756300687789917e-03 6.191378342919051647e-04 -1.743485452607274055e-03 -1.993629412027075887e-04
1.839000000000000000e+03 7.553239345550537109e+00 -4.248393535614013672e+00 -3.620890202000737190e-04 -1.762863976182416081e-04 -1.615126238903030753e-04 -2.375246986048296094e-04
1.840000000000000000e+03 2.176543617248535156e+01 -2.452398490905761719e+01 -8.222343772649765015e-02 7.282296180725097656e+00 2.160021781921386719e+00 1.770304888486862183e-01
1.841000000000000000e+03 2.377951622009277344e+01 -1.275985527038574219e+01 1.066276729106903076e-01 7.621637344360351562e+00 2.318479537963867188e+00 2.351796925067901611e-01
1.842000000000000000e+03 5.805219173431396484e+00 -4.589982032775878906e+00 1.090835121431155130e-05 -4.070845534442923963e-05 -8.940030966186895967e-06 6.366610759869217873e-04
1.843000000000000000e+03 6.341594696044921875e+00 -4.429020404815673828e+00 -3.935935674235224724e-04 2.316194149898365140e-05 -1.111294841393828392e-04 -5.366545519791543484e-04
1.844000000000000000e+03 6.935317993164062500e+00 -4.322366714477539062e+00 4.164683923590928316e-04 8.667208749102428555e-05 1.509421417722478509e-04 3.630481078289449215e-04
1.845000000000000000e+03 2.389327239990234375e+01 -4.693405628204345703e+00 -6.871634721755981445e-02 7.808385372161865234e+00 2.321900606155395508e+00 2.207600474357604980e-01
1.846000000000000000e+03 2.247973251342773438e+01 -2.389169216156005859e+00 3.779944777488708496e-02 7.797730922698974609e+00 2.350659132003784180e+00 2.900932133197784424e-01
1.847000000000000000e+03 2.330499649047851562e+01 -7.798331975936889648e-01 -2.131804451346397400e-02 7.950300216674804688e+00 2.378694772720336914e+00 2.817056179046630859e-01
1.848000000000000000e+03 1.145292186737060547e+01 3.814427375793457031e+00 2.992934314534068108e-04 1.127211507991887629e-04 1.236043754033744335e-04 1.211422641063109040e-04
1.849000000000000000e+03 1.001397037506103516e+01 4.448577404022216797e+00 -2.048652531811967492e-04 -1.757962163537740707e-04 -1.141984394052997231e-04 -7.025919330772012472e-05
1.850000000000000000e+03 1.149720668792724609e+01 2.535861015319824219e+01 -1.791864749975502491e-03 -6.165118538774549961e-04 -7.225129520520567894e-04 -2.928181318566203117e-03
1.851000000000000000e+03 2.307076072692871094e+01 -6.303470134735107422e+00 -9.725998342037200928e-02 7.751649856567382812e+00 2.296317100524902344e+00 2.774183452129364014e-01
1.852000000000000000e+03 2.281072044372558594e+01 -1.690017509460449219e+01 -4.400950670242309570e-02 7.489801883697509766e+00 2.233737707138061523e+00 1.897756904363632202e-01
1.853000000000000000e+03 1.164369010925292969e+01 -1.802939987182617188e+01 -3.885177662596106529e-03 -4.870890697930008173e-04 -1.311679952777922153e-03 4.786484350915998220e-04
1.854000000000000000e+03 1.139060592651367188e+01 -2.140964126586914062e+01 6.138116586953401566e-03 -9.769786847755312920e-04 1.548341359011828899e-03 -5.339530762284994125e-04
1.855000000000000000e+03 8.182249069213867188e+00 -4.204138278961181641e+00 3.627013356890529394e-04 2.441859687678515911e-04 1.820661855163052678e-04 1.242069993168115616e-04
1.856000000000000000e+03 1.326776027679443359e+01 3.867709159851074219e+00 -5.452181794680655003e-04 4.726171482616337016e-06 -1.621475967112928629e-04 -7.527928119088755921e-06
1.857000000000000000e+03 1.209172344207763672e+01 3.841342926025390625e+00 -3.578225732780992985e-04 -8.962136053014546633e-05 -1.342331815976649523e-04 -1.054058811860159039e-04
1.858000000000000000e+03 2.269529151916503906e+01 -1.845678329467773438e+01 -1.149917915463447571e-01 7.427770137786865234e+00 2.193833351135253906e+00 2.323268353939056396e-01
1.859000000000000000e+03 2.340597343444824219e+01 8.070057630538940430e-01 -2.120488882064819336e-02 8.073099136352539062e+00 2.415568351745605469e+00 2.206945568323135376e-01
1.860000000000000000e+03 2.312285614013671875e+01 -4.734002590179443359e+00 -8.672141283750534058e-02 7.779812812805175781e+00 2.307927370071411133e+00 2.339068651199340820e-01
1.861000000000000000e+03 1.225792503356933594e+01 2.624419212341308594e+01 -1.952568069100379944e-03 -9.602378704585134983e-04 -8.738417527638375759e-04 -3.928757738322019577e-03
1.862000000000000000e+03 3.247826337814331055e+00 3.618563461303710938e+01 6.718043237924575806e-03 -3.287850692868232727e-02 -7.848138920962810516e-03 2.951187267899513245e-02
1.863000000000000000e+03 4.292484760284423828e+00 3.721268081665039062e+01 1.184943784028291702e-02 -3.073260933160781860e-02 -5.664951168000698090e-03 3.604897856712341309e-02
1.864000000000000000e+03 3.674396038055419922e+00 -3.577415847778320312e+01 -1.049611251801252365e-02 -1.865808106958866119e-02 -8.746257983148097992e-03 -2.656582184135913849e-02
1.865000000000000000e+03 2.191722488403320312e+01 -2.602329063415527344e+01 -4.900039359927177429e-02 7.309212207794189453e+00 2.178063631057739258e+00 1.969883888959884644e-01
1.866000000000000000e+03 2.269980621337890625e+01 -2.505943107604980469e+01 -6.432990729808807373e-02 7.325906276702880859e+00 2.178472757339477539e+00 1.992632597684860229e-01
1.867000000000000000e+03 2.297415924072265625e+01 -1.277133750915527344e+01 1.134993582963943481e-01 7.644752025604248047e+00 2.327475547790527344e+00 2.681429982185363770e-01
1.868000000000000000e+03 1.275696754455566406e+01 -7.367036342620849609e+00 -9.452571393921971321e-04 -2.941492130048573017e-04 -3.718219231814146042e-04 6.320484681054949760e-04
1.869000000000000000e+03 1.225769615173339844e+01 -6.648380756378173828e+00 -6.597358733415603638e-04 -3.869443025905638933e-04 -3.140040498692542315e-04 2.317125035915523767e-04
1.870000000000000000e+03 9.237988471984863281e+00 5.078282356262207031e+00 -2.147136547137051821e-04 -1.898486079880967736e-04 -1.213686773553490639e-04 -1.195100230688694865e-05
1.871000000000000000e+03 3.203920841217041016e+00 -2.961221885681152344e+01 -1.257533952593803406e-02 -2.742173383012413979e-03 -4.595253616571426392e-03 -7.224468514323234558e-03
1.872000000000000000e+03 3.679012775421142578e+00 -3.301213455200195312e+01 -1.179747981950640678e-03 -2.251243218779563904e-03 -1.029297360219061375e-03 -1.876555383205413818e-02
1.873000000000000000e+03 2.227769470214843750e+01 -8.720274925231933594e+00 3.263106942176818848e-02 7.690643787384033203e+00 2.316982507705688477e+00 2.863233089447021484e-01
1.874000000000000000e+03 2.305774307250976562e+01 -7.091152667999267578e+00 -5.918048322200775146e-02 7.729949474334716797e+00 2.301230669021606445e+00 2.928292751312255859e-01
1.875000000000000000e+03 2.314020395278930664e+00 -5.568210124969482422e+00 -8.984337910078465939e-04 -3.758829188882373273e-05 -2.808066201396286488e-04 -1.277218398172408342e-04
1.876000000000000000e+03 3.155976057052612305e+00 -2.270817756652832031e+01 4.392549861222505569e-03 7.518602069467306137e-04 1.543323043733835220e-03 5.565481260418891907e-04
1.877000000000000000e+03 2.478690624237060547e+00 -2.513694572448730469e+01 4.664723761379718781e-03 1.026796526275575161e-03 1.707456074655056000e-03 4.862952337134629488e-04
1.878000000000000000e+03 3.160768508911132812e+00 -2.349391746520996094e+01 -5.057597067207098007e-03 -7.782236789353191853e-04 -1.750746276229619980e-03 4.034775338368490338e-05
1.879000000000000000e+03 3.069186449050903320e+00 -9.335806846618652344e+00 -1.439827028661966324e-03 -2.059953840216621757e-04 -4.937467165291309357e-04 -7.045386882964521646e-05
1.880000000000000000e+03 2.355607509613037109e+00 -7.081481456756591797e+00 -1.065937103703618050e-03 -1.299060822930186987e-04 -3.587529645301401615e-04 -8.227273065131157637e-05
1.881000000000000000e+03 3.135475158691406250e+00 -1.640734100341796875e+01 3.046406898647546768e-03 3.296902286820113659e-04 1.012829132378101349e-03 3.299856907688081264e-04
1.882000000000000000e+03 3.128765344619750977e+00 -1.561695575714111328e+01 -2.714148955419659615e-03 -2.170036023017019033e-04 -8.793457527644932270e-04 5.481019616127014160e-05
1.883000000000000000e+03 3.150187969207763672e+00 -2.192719459533691406e+01 -4.337898455560207367e-03 -5.578900454565882683e-04 -1.468736561946570873e-03 3.392830549273639917e-04
1.884000000000000000e+03 2.450879812240600586e+00 -1.805618286132812500e+01 -3.072209889069199562e-03 -1.061576695065014064e-04 -9.535102872177958488e-04 8.462898404104635119e-05
1.885000000000000000e+03 3.145758390426635742e+00 -1.798914527893066406e+01 3.400641726329922676e-03 4.335718695074319839e-04 1.150264055468142033e-03 3.762288542930036783e-04
1.886000000000000000e+03 2.452455282211303711e+00 -1.884731483459472656e+01 3.404959337785840034e-03 6.141256308183073997e-04 1.205725478939712048e-03 5.669425590895116329e-04
1.887000000000000000e+03 3.147925615310668945e+00 -1.878189277648925781e+01 -3.267333144322037697e-03 -3.194921882823109627e-04 -1.076047541573643684e-03 3.003955935128033161e-04
1.888000000000000000e+03 3.193485260009765625e+00 -2.887848281860351562e+01 3.898143768310546875e-03 -4.512767482083290815e-04 1.034060143865644932e-03 -3.201812971383333206e-03
1.889000000000000000e+03 2.516784429550170898e+00 -2.974516677856445312e+01 4.940010141581296921e-03 -2.223341260105371475e-03 8.150007342919707298e-04 -4.138565156608819962e-03
1.890000000000000000e+03 3.227116584777832031e+00 -3.033036231994628906e+01 3.817276330664753914e-03 -1.966133480891585350e-03 5.553428782150149345e-04 -6.520696450024843216e-03
1.891000000000000000e+03 3.764540195465087891e+00 -1.009021854400634766e+01 -1.554537797346711159e-03 -2.417776995571330190e-04 -5.388946738094091415e-04 -3.540908210197812878e-06
1.892000000000000000e+03 3.080682754516601562e+00 -1.011790275573730469e+01 1.585744437761604786e-03 2.400901285000145435e-04 5.477503873407840729e-04 1.316451816819608212e-04
1.893000000000000000e+03 3.832675695419311523e+00 -2.267329978942871094e+01 -4.817396868020296097e-03 -1.130603137426078320e-03 -1.784399966709315777e-03 4.507974081207066774e-04
1.894000000000000000e+03 3.836445093154907227e+00 -2.345208740234375000e+01 4.433842375874519348e-03 6.516427383758127689e-04 1.525645493529736996e-03 2.547511248849332333e-04
1.895000000000000000e+03 2.798482894897460938e+00 -3.268411254882812500e+01 3.498706268146634102e-03 -7.588436827063560486e-03 -1.226919237524271011e-03 -1.254482008516788483e-02
1.896000000000000000e+03 3.146064519882202148e+00 -2.114753341674804688e+01 4.129591397941112518e-03 6.119174067862331867e-04 1.422452623955905437e-03 5.244075437076389790e-04
1.897000000000000000e+03 3.145204067230224609e+00 -2.036471176147460938e+01 -3.745520487427711487e-03 -3.824731684289872646e-04 -1.238398137502372265e-03 3.705028502736240625e-04
1.898000000000000000e+03 3.121372222900390625e+00 -1.483532142639160156e+01 2.715094015002250671e-03 3.220772196073085070e-04 9.111513500101864338e-04 3.065725613851100206e-04
1.899000000000000000e+03 3.115979671478271484e+00 -1.405592441558837891e+01 -2.385113853961229324e-03 -2.472368651069700718e-04 -7.897052564658224583e-04 -3.488700531306676567e-05
1.900000000000000000e+03 3.103539943695068359e+00 -1.169293880462646484e+01 1.924082520417869091e-03 2.902081760112196207e-04 6.642871885560452938e-04 1.818698074202984571e-04
1.901000000000000000e+03 4.271165847778320312e+00 -3.265235137939453125e+01 -2.240903489291667938e-02 -1.794943120330572128e-03 -7.261193823069334030e-03 -1.537802629172801971e-02
1.902000000000000000e+03 3.179651260375976562e+00 -2.660446929931640625e+01 -7.546135224401950836e-03 -1.566207385621964931e-03 -2.733702771365642548e-03 -1.913909101858735085e-03
1.903000000000000000e+03 3.186578273773193359e+00 -2.813055229187011719e+01 -9.719452820718288422e-03 -2.030600327998399734e-03 -3.525015898048877716e-03 -4.108294844627380371e-03
1.904000000000000000e+03 3.181040525436401367e+00 -2.737263298034667969e+01 4.090152680873870850e-03 4.572806647047400475e-04 1.364229945465922356e-03 -1.179773826152086258e-03
1.905000000000000000e+03 3.738910913467407227e+00 -6.132930755615234375e+00 9.628735133446753025e-04 1.014221852528862655e-04 3.192887234035879374e-04 7.592915062559768558e-05
1.906000000000000000e+03 3.061151981353759766e+00 -8.564245223999023438e+00 1.333076274022459984e-03 2.104802115354686975e-04 4.630669427569955587e-04 1.048733902280218899e-04
1.907000000000000000e+03 2.546324539184570312e+01 3.270376586914062500e+01 3.220217823982238770e-01 7.973492145538330078e+00 2.488654136657714844e+00 -1.867403090000152588e-01
1.908000000000000000e+03 2.313551521301269531e+01 2.830368995666503906e+01 5.013606697320938110e-02 8.310116767883300781e+00 2.508075952529907227e+00 -1.154374480247497559e-01
1.909000000000000000e+03 2.368766021728515625e+01 3.006365966796875000e+01 8.983954042196273804e-02 8.313971519470214844e+00 2.521143198013305664e+00 -1.831100881099700928e-01
1.910000000000000000e+03 7.721947479248046875e+01 -2.883734512329101562e+01 -8.482416742481291294e-04 7.894708633422851562e+00 2.368158102035522461e+00 -1.472495310008525848e-02
1.911000000000000000e+03 1.271773052215576172e+01 9.366884231567382812e+00 7.336236885748803616e-04 2.975824463646858931e-04 3.093618433922529221e-04 2.072440838674083352e-04
1.912000000000000000e+03 1.346585464477539062e+01 8.017535209655761719e+00 -9.110755054280161858e-04 -1.102541064028628170e-04 -3.063988697249442339e-04 -1.771809620549902320e-04
1.913000000000000000e+03 7.499002838134765625e+01 3.187101364135742188e+01 6.005452014505863190e-04 7.653052330017089844e+00 2.296095848083496094e+00 -7.003312930464744568e-05
1.914000000000000000e+03 7.598864746093750000e+01 3.197678947448730469e+01 6.876242696307599545e-04 7.645986080169677734e+00 2.294002056121826172e+00 -3.064191696466878057e-05
1.915000000000000000e+03 7.613153076171875000e+01 3.026830291748046875e+01 8.251690305769443512e-04 7.645179748535156250e+00 2.293801546096801758e+00 -4.723174206446856260e-04
1.916000000000000000e+03 3.008182525634765625e+00 -3.341989135742187500e+01 -1.256616972386837006e-02 -1.382745988667011261e-02 -7.918088696897029877e-03 -2.051257528364658356e-02
1.917000000000000000e+03 4.116911411285400391e+00 -3.210024261474609375e+01 9.220899082720279694e-04 -5.287338353809900582e-05 2.607649657875299454e-04 -1.668350957334041595e-02
1.918000000000000000e+03 3.478031873703002930e+00 -3.238310241699218750e+01 -1.662275008857250214e-02 -6.895205006003379822e-03 -7.055386900901794434e-03 -1.612244546413421631e-02
1.919000000000000000e+03 1.166956710815429688e+01 1.640003204345703125e+01 -2.011952688917517662e-03 -4.341927997302263975e-04 -7.338436553254723549e-04 4.108823486603796482e-04
1.920000000000000000e+03 1.231405162811279297e+01 1.238021564483642578e+01 4.111205053050071001e-04 2.996113034896552563e-04 2.132195368176326156e-04 4.828609235119074583e-04
1.921000000000000000e+03 1.175533008575439453e+01 1.135618209838867188e+01 4.291318764444440603e-04 3.185538516845554113e-04 2.243057097075507045e-04 1.066408294718712568e-04
1.922000000000000000e+03 2.613759517669677734e+00 2.941481399536132812e+01 2.431350527331233025e-03 -5.857914220541715622e-03 -1.027969177812337875e-03 6.013257894665002823e-03
1.923000000000000000e+03 3.345784902572631836e+00 3.089351081848144531e+01 -1.396601088345050812e-02 -3.448742674663662910e-03 -5.224426276981830597e-03 1.340272091329097748e-02
1.924000000000000000e+03 1.157805252075195312e+01 1.205102920532226562e+01 -1.046846809913404286e-04 -1.189883405459113419e-04 -6.710190791636705399e-05 1.494275784352794290e-04
1.925000000000000000e+03 1.248483276367187500e+01 1.787530517578125000e+01 2.976140473037958145e-03 2.174098044633865356e-04 9.580650948919355869e-04 5.005255225114524364e-04
1.926000000000000000e+03 1.102757549285888672e+01 1.718410873413085938e+01 -1.445515430532395840e-03 -6.749318563379347324e-04 -6.361341802403330803e-04 2.670072135515511036e-04
1.927000000000000000e+03 2.377258682250976562e+01 -3.367016220092773438e+01 2.933980226516723633e-01 7.102322578430175781e+00 2.218716144561767578e+00 1.716307848691940308e-01
1.928000000000000000e+03 2.331040000915527344e+01 -3.007101821899414062e+01 1.029553338885307312e-01 7.358621120452880859e+00 2.238472938537597656e+00 2.537881433963775635e-01
1.929000000000000000e+03 2.475820541381835938e+01 3.362796020507812500e+01 4.381556808948516846e-01 7.928904056549072266e+00 2.510117769241333008e+00 -2.115921676158905029e-01
1.930000000000000000e+03 7.620291137695312500e+01 -3.118847656250000000e+01 -2.621237887069582939e-03 7.893608570098876953e+00 2.367296218872070312e+00 -1.669237390160560608e-02
1.931000000000000000e+03 1.258932399749755859e+01 -1.173184585571289062e+01 2.175378147512674332e-03 9.139043686445802450e-05 6.800305563956499100e-04 -1.540801458759233356e-04
1.932000000000000000e+03 2.291239547729492188e+01 5.662762641906738281e+00 1.891680359840393066e-01 8.359338760375976562e+00 2.564552068710327148e+00 2.306974828243255615e-01
1.933000000000000000e+03 2.366486740112304688e+01 7.327727794647216797e+00 1.181274130940437317e-01 8.295063018798828125e+00 2.523957252502441406e+00 1.773891299962997437e-01
1.934000000000000000e+03 2.315564918518066406e+01 -3.947291374206542969e+00 -4.981314390897750854e-02 7.796200275421142578e+00 2.323916196823120117e+00 2.252728492021560669e-01
1.935000000000000000e+03 1.260565185546875000e+01 -1.402212047576904297e+01 -2.968872664496302605e-03 9.598631731932982802e-05 -8.618659339845180511e-04 3.078408772125840187e-04
1.936000000000000000e+03 1.170696449279785156e+01 1.864657783508300781e+01 2.681892132386565208e-03 -2.256582774862181395e-05 7.977979257702827454e-04 3.781313134822994471e-04
1.937000000000000000e+03 1.262930107116699219e+01 2.088405609130859375e+01 3.110877005383372307e-03 9.346210863441228867e-04 1.213649404235184193e-03 6.758893141523003578e-04
1.938000000000000000e+03 1.012410449981689453e+01 -4.240787506103515625e+00 -6.179045303724706173e-04 -2.420967794023454189e-04 -2.580003929324448109e-04 2.335890603717416525e-04
1.939000000000000000e+03 1.151092910766601562e+01 -4.404658794403076172e+00 9.515020647086203098e-04 -4.493373562581837177e-04 1.506494154455140233e-04 -1.697352558949205559e-06
1.940000000000000000e+03 1.281325912475585938e+01 7.943811893463134766e+00 7.692792569287121296e-04 1.543079415569081903e-04 2.770761493593454361e-04 1.396931329509243369e-04
1.941000000000000000e+03 1.250308036804199219e+01 -8.077097892761230469e+00 6.964695639908313751e-04 2.840903180185705423e-04 2.941679558716714382e-04 -7.444241200573742390e-04
1.942000000000000000e+03 1.098908615112304688e+01 -9.870788574218750000e+00 -1.105887466110289097e-03 -7.075853500282391906e-05 -3.529938112478703260e-04 -6.900130392750725150e-05
1.943000000000000000e+03 2.306273841857910156e+01 2.178579711914062500e+01 1.389300823211669922e-02 8.214007377624511719e+00 2.468370199203491211e+00 -1.781172119081020355e-02
1.944000000000000000e+03 2.466407775878906250e+01 2.357213973999023438e+01 3.538617491722106934e-02 8.186832427978515625e+00 2.466665506362915039e+00 -4.440823942422866821e-02
1.945000000000000000e+03 1.061332321166992188e+01 5.201884269714355469e+00 -2.471813932061195374e-04 -2.308348339283838868e-04 -1.434048754163086414e-04 -9.911815868690609932e-05
1.946000000000000000e+03 2.371620559692382812e+01 -2.639932823181152344e+01 -1.742676459252834320e-02 7.366370677947998047e+00 2.204683303833007812e+00 2.204053550958633423e-01
1.947000000000000000e+03 7.737135314941406250e+01 -2.164798164367675781e+01 -9.180198539979755878e-04 7.856798648834228516e+00 2.356764078140258789e+00 -1.882135681807994843e-02
1.948000000000000000e+03 7.660730743408203125e+01 -2.251985931396484375e+01 -1.424620859324932098e-03 7.856173992156982422e+00 2.356424808502197266e+00 -2.288487553596496582e-02
1.949000000000000000e+03 7.641059875488281250e+01 2.544204521179199219e+01 1.006577163934707642e-03 7.644289016723632812e+00 2.293588638305664062e+00 -1.835288130678236485e-03
1.950000000000000000e+03 2.298555183410644531e+01 1.614516830444335938e+01 7.735399994999170303e-03 8.220366477966308594e+00 2.468430757522583008e+00 1.947496831417083740e-02
1.951000000000000000e+03 2.449437904357910156e+01 1.698820114135742188e+01 2.264389581978321075e-02 8.186962127685546875e+00 2.462881803512573242e+00 2.027043886482715607e-02
1.952000000000000000e+03 7.650888824462890625e+01 2.230959701538085938e+01 1.402435242198407650e-03 7.645640850067138672e+00 2.294112920761108398e+00 -3.507879795506596565e-03
1.953000000000000000e+03 2.227221679687500000e+01 -9.525998115539550781e+00 6.471665948629379272e-02 7.707381725311279297e+00 2.331629514694213867e+00 2.724602818489074707e-01
1.954000000000000000e+03 1.248198986053466797e+01 -1.804876899719238281e+01 4.134970717132091522e-03 6.037774728611111641e-04 1.421624445356428623e-03 -7.781866588629782200e-04
1.955000000000000000e+03 1.333723068237304688e+01 -2.045182228088378906e+01 5.719466600567102432e-03 3.660581132862716913e-04 1.825657440349459648e-03 -9.233858436346054077e-04
1.956000000000000000e+03 2.369294548034667969e+01 9.753862380981445312e+00 5.331029370427131653e-02 8.279084205627441406e+00 2.499718427658081055e+00 1.118228882551193237e-01
1.957000000000000000e+03 7.656675720214843750e+01 -2.411275291442871094e+01 -1.805051579140126705e-03 7.864873886108398438e+00 2.358920574188232422e+00 -2.199513837695121765e-02
1.958000000000000000e+03 7.653720855712890625e+01 1.829847526550292969e+01 1.371722319163382053e-03 7.650259494781494141e+00 2.295489311218261719e+00 -6.106066051870584488e-03
1.959000000000000000e+03 7.659155273437500000e+01 1.589835643768310547e+01 1.686272327788174152e-03 7.654450416564941406e+00 2.296840906143188477e+00 -8.238539099693298340e-03
1.960000000000000000e+03 1.203510284423828125e+01 -2.280552673339843750e+01 -6.646289024502038956e-03 -1.598548988113179803e-04 -2.041843254119157791e-03 -1.130750824813731015e-04
1.961000000000000000e+03 2.363302230834960938e+01 5.695010185241699219e+00 1.932873576879501343e-01 8.258021354675292969e+00 2.535392761230468750e+00 2.034768313169479370e-01
1.962000000000000000e+03 3.546918392181396484e+00 3.244061660766601562e+01 -1.460799854248762131e-02 -7.417710032314062119e-03 -6.607712246477603912e-03 1.981538161635398865e-02
1.963000000000000000e+03 7.742890930175781250e+01 -1.443397235870361328e+01 8.129046182148158550e-05 7.808954238891601562e+00 2.342710733413696289e+00 -2.028188668191432953e-02
1.964000000000000000e+03 7.669057464599609375e+01 -1.530842399597167969e+01 -6.759388634236529469e-05 7.811804294586181641e+00 2.343521118164062500e+00 -2.510016225278377533e-02
1.965000000000000000e+03 2.369606399536132812e+01 1.055680847167968750e+01 4.069313034415245056e-02 8.267866134643554688e+00 2.492567777633666992e+00 9.409477561712265015e-02
1.966000000000000000e+03 7.663188934326171875e+01 1.113794422149658203e+01 1.745488378219306469e-03 7.666684627532958984e+00 2.300529003143310547e+00 -1.239679381251335144e-02
1.967000000000000000e+03 7.663088226318359375e+01 1.193480968475341797e+01 1.534013892523944378e-03 7.664226055145263672e+00 2.299727916717529297e+00 -1.148800086230039597e-02
1.968000000000000000e+03 7.660849761962890625e+01 1.510400104522705078e+01 1.479628495872020721e-03 7.655980110168457031e+00 2.297237873077392578e+00 -8.674872107803821564e-03
1.969000000000000000e+03 1.261560535430908203e+01 -1.558007240295410156e+01 -3.467794274911284447e-03 2.878220984712243080e-04 -9.539916645735502243e-04 2.264571958221495152e-04
1.970000000000000000e+03 1.129950332641601562e+01 -1.553008270263671875e+01 -2.954612951725721359e-03 -1.456393656553700566e-04 -9.300756501033902168e-04 4.504934186115860939e-04
1.971000000000000000e+03 2.440785408020019531e+01 8.160537719726562500e+00 1.060400605201721191e-01 8.238803863525390625e+00 2.503453254699707031e+00 1.526138037443161011e-01
1.972000000000000000e+03 7.666465759277343750e+01 -1.769702911376953125e+01 -8.393620955757796764e-04 7.827205657958984375e+00 2.347909927368164062e+00 -2.495413832366466522e-02
1.973000000000000000e+03 2.314501380920410156e+01 2.747768592834472656e+01 2.587897516787052155e-02 8.284911155700683594e+00 2.493237018585205078e+00 -8.697830140590667725e-02
1.974000000000000000e+03 1.197618389129638672e+01 -2.430965614318847656e+01 -7.149360142648220062e-03 -1.116761472076177597e-03 -2.479836577549576759e-03 6.898008286952972412e-04
1.975000000000000000e+03 2.304196166992187500e+01 2.017346763610839844e+01 1.158668752759695053e-02 8.209110260009765625e+00 2.466209173202514648e+00 -6.401836872100830078e-03
1.976000000000000000e+03 2.467481803894042969e+01 2.193299102783203125e+01 2.869329042732715607e-02 8.180477142333984375e+00 2.462751150131225586e+00 -2.558138407766819000e-02
1.977000000000000000e+03 2.296740531921386719e+01 1.373400020599365234e+01 1.421294547617435455e-02 8.243680953979492188e+00 2.477368116378784180e+00 3.879205510020256042e-02
1.978000000000000000e+03 2.313447952270507812e+01 2.664752388000488281e+01 3.344441950321197510e-02 8.269079208374023438e+00 2.490756988525390625e+00 -7.555294036865234375e-02
1.979000000000000000e+03 2.374084472656250000e+01 1.698000526428222656e+01 1.214285660535097122e-02 8.202607154846191406e+00 2.464425086975097656e+00 1.749086752533912659e-02
1.980000000000000000e+03 2.473846626281738281e+01 2.761489677429199219e+01 6.904757022857666016e-02 8.193710327148437500e+00 2.478827476501464844e+00 -1.142758950591087341e-01
1.981000000000000000e+03 2.371283531188964844e+01 1.536858081817626953e+01 1.456165499985218048e-02 8.212531089782714844e+00 2.468127965927124023e+00 3.086392208933830261e-02
1.982000000000000000e+03 2.367715835571289062e+01 8.139728546142578125e+00 8.858598023653030396e-02 8.297785758972167969e+00 2.515911340713500977e+00 1.557647883892059326e-01
1.983000000000000000e+03 1.178097724914550781e+01 -1.032471942901611328e+01 -1.429134863428771496e-03 -1.389469834975898266e-04 -4.704245657194405794e-04 -5.093668369227088988e-05
1.984000000000000000e+03 2.385612487792968750e+01 2.346819305419921875e+01 1.637772284448146820e-02 8.208296775817871094e+00 2.467402458190917969e+00 -3.575145453214645386e-02
1.985000000000000000e+03 2.370119476318359375e+01 1.376153850555419922e+01 1.907723769545555115e-02 8.226851463317871094e+00 2.473778486251831055e+00 4.674676060676574707e-02
1.986000000000000000e+03 2.369806671142578125e+01 1.135733985900878906e+01 3.489173203706741333e-02 8.256008148193359375e+00 2.487269878387451172e+00 7.977496832609176636e-02
1.987000000000000000e+03 2.370010757446289062e+01 1.215646457672119141e+01 2.697446569800376892e-02 8.245499610900878906e+00 2.481742143630981445e+00 6.705716252326965332e-02
1.988000000000000000e+03 7.665093994140625000e+01 8.739210128784179688e+00 1.511844340711832047e-03 7.674770832061767578e+00 2.302884817123413086e+00 -1.430108211934566498e-02
1.989000000000000000e+03 7.741491699218750000e+01 5.619596004486083984e+00 9.976747678592801094e-04 7.683752059936523438e+00 2.305424928665161133e+00 -1.372944563627243042e-02
1.990000000000000000e+03 7.589396667480468750e+01 9.487939834594726562e+00 2.254687715321779251e-03 7.676285743713378906e+00 2.303562164306640625e+00 -1.621504500508308411e-02
1.991000000000000000e+03 7.667883300781250000e+01 3.946062088012695312e+00 1.360144815407693386e-03 7.695043563842773438e+00 2.308921098709106445e+00 -1.828313432633876801e-02
1.992000000000000000e+03 7.668309783935546875e+01 2.343719244003295898e+00 1.279758987948298454e-03 7.702925682067871094e+00 2.311261653900146484e+00 -1.950073055922985077e-02
1.993000000000000000e+03 7.668795013427734375e+01 -2.481539249420166016e+00 1.004118006676435471e-03 7.729454517364501953e+00 2.319137573242187500e+00 -2.260206453502178192e-02
1.994000000000000000e+03 7.668823242187500000e+01 -4.896332263946533203e+00 6.745823775418102741e-04 7.744108200073242188e+00 2.323434829711914062e+00 -2.388332411646842957e-02
1.995000000000000000e+03 7.670008087158203125e+01 -7.312422752380371094e+00 6.427720654755830765e-04 7.759324550628662109e+00 2.327990293502807617e+00 -2.456094883382320404e-02
1.996000000000000000e+03 7.669219207763671875e+01 7.277355194091796875e-01 1.190650626085698605e-03 7.711335659027099609e+00 2.313757896423339844e+00 -2.059685625135898590e-02
1.997000000000000000e+03 7.668700408935546875e+01 1.535847187042236328e+00 1.276773051358759403e-03 7.707098484039306641e+00 2.312512636184692383e+00 -2.017903141677379608e-02
1.998000000000000000e+03 7.670370483398437500e+01 -1.049975204467773438e+01 3.966651565860956907e-04 7.780079841613769531e+00 2.334142923355102539e+00 -2.518201060593128204e-02
1.999000000000000000e+03 7.743122863769531250e+01 -5.617460250854492188e+00 3.411911311559379101e-04 7.748229026794433594e+00 2.324571132659912109e+00 -1.939596422016620636e-02
2.000000000000000000e+03 7.669560241699218750e+01 -6.508523464202880859e+00 4.943248350173234940e-04 7.754224300384521484e+00 2.326415538787841797e+00 -2.445238083600997925e-02
2.001000000000000000e+03 7.627153778076171875e+01 2.864124679565429688e+01 7.962151430547237396e-04 7.644315242767333984e+00 2.293533563613891602e+00 -8.268893579952418804e-04
2.002000000000000000e+03 7.703016662597656250e+01 3.042243957519531250e+01 2.741829666774719954e-04 7.638422966003417969e+00 2.291609048843383789e+00 -1.306925987591966987e-04
2.003000000000000000e+03 7.605565643310546875e+01 3.110958862304687500e+01 4.920465289615094662e-04 7.645380020141601562e+00 2.293761491775512695e+00 -7.047346298350021243e-05
2.004000000000000000e+03 7.717550659179687500e+01 2.719544601440429688e+01 2.194812404923141003e-04 7.638037681579589844e+00 2.291477203369140625e+00 -8.307343232445418835e-04
2.005000000000000000e+03 7.743122100830078125e+01 -1.599282264709472656e+00 6.645618705078959465e-04 7.722627162933349609e+00 2.316987514495849609e+00 -1.772739738225936890e-02
2.006000000000000000e+03 7.669525909423828125e+01 -1.450825405120849609e+01 -4.736318951472640038e-04 7.806634902954101562e+00 2.341848373413085938e+00 -2.546687982976436615e-02
2.007000000000000000e+03 7.597223663330078125e+01 -1.135350322723388672e+01 4.055723838973790407e-04 7.783972740173339844e+00 2.335313558578491211e+00 -2.993921004235744476e-02
2.008000000000000000e+03 7.670410156250000000e+01 -9.697591781616210938e+00 1.231259666383266449e-04 7.774865627288818359e+00 2.332496643066406250e+00 -2.521415241062641144e-02
2.009000000000000000e+03 7.666103363037109375e+01 7.934801578521728516e+00 1.659623230807483196e-03 7.677830219268798828e+00 2.303846836090087891e+00 -1.514232344925403595e-02
2.010000000000000000e+03 7.518443298339843750e+01 -4.986210346221923828e+00 1.396889565512537956e-03 7.745498180389404297e+00 2.324068546295166016e+00 -3.276082128286361694e-02
2.011000000000000000e+03 7.742966461181640625e+01 -4.010263919830322266e+00 4.578947264235466719e-04 7.737742900848388672e+00 2.321460247039794922e+00 -1.884544827044010162e-02
2.012000000000000000e+03 7.668702697753906250e+01 -3.287244081497192383e+00 8.435969357378780842e-04 7.734287261962890625e+00 2.320539236068725586e+00 -2.314078807830810547e-02
2.013000000000000000e+03 7.737668609619140625e+01 1.281957626342773438e+01 9.442166192457079887e-04 7.656740188598632812e+00 2.297305345535278320e+00 -8.579145185649394989e-03
2.014000000000000000e+03 7.519548797607421875e+01 2.312648534774780273e+00 2.563663292676210403e-03 7.708162784576416016e+00 2.313217878341674805e+00 -2.665121108293533325e-02
2.015000000000000000e+03 7.742089080810546875e+01 3.216009378433227539e+00 8.141510770656168461e-04 7.695505619049072266e+00 2.308895826339721680e+00 -1.514299586415290833e-02
2.016000000000000000e+03 7.667752838134765625e+01 4.745360374450683594e+00 1.518437522463500500e-03 7.691333293914794922e+00 2.307855606079101562e+00 -1.780146174132823944e-02
2.017000000000000000e+03 7.662448120117187500e+01 -2.171704483032226562e+01 -9.131965343840420246e-04 7.851706504821777344e+00 2.355237960815429688e+00 -2.298286929726600647e-02
2.018000000000000000e+03 7.667378997802734375e+01 -1.689442062377929688e+01 -2.561359433457255363e-04 7.822075366973876953e+00 2.346545934677124023e+00 -2.481539547443389893e-02
2.019000000000000000e+03 7.739049530029296875e+01 9.622600555419921875e+00 9.209109121002256870e-04 7.667178630828857422e+00 2.300429821014404297e+00 -1.088178250938653946e-02
2.020000000000000000e+03 7.663661193847656250e+01 1.034457874298095703e+01 1.514176023192703724e-03 7.669204235076904297e+00 2.301215648651123047e+00 -1.290889270603656769e-02
2.021000000000000000e+03 7.505024719238281250e+01 1.569250774383544922e+01 3.292503766715526581e-03 7.664882183074951172e+00 2.300452470779418945e+00 -1.162717677652835846e-02
2.022000000000000000e+03 7.732579040527343750e+01 1.761097145080566406e+01 8.549826452508568764e-04 7.645827770233154297e+00 2.294004917144775391e+00 -5.319877061992883682e-03
2.023000000000000000e+03 7.645884704589843750e+01 2.387605857849121094e+01 1.174660515971481800e-03 7.644765377044677734e+00 2.293781995773315430e+00 -2.610800322145223618e-03
2.024000000000000000e+03 7.725352478027343750e+01 2.400845336914062500e+01 4.813520354218780994e-04 7.638835430145263672e+00 2.291795015335083008e+00 -1.849195570684969425e-03
2.025000000000000000e+03 7.643236541748046875e+01 2.465328407287597656e+01 7.545819389633834362e-04 7.644391059875488281e+00 2.293543577194213867e+00 -2.033914905041456223e-03
2.026000000000000000e+03 7.652474975585937500e+01 1.910415077209472656e+01 1.481140847317874432e-03 7.649276733398437500e+00 2.295227289199829102e+00 -5.661457777023315430e-03
2.027000000000000000e+03 7.650074005126953125e+01 -2.570778465270996094e+01 -1.690127421170473099e-03 7.872696876525878906e+00 2.361302137374877930e+00 -2.089130692183971405e-02
2.028000000000000000e+03 7.646442413330078125e+01 -2.809682083129882812e+01 -1.494740834459662437e-03 7.883438587188720703e+00 2.364583253860473633e+00 -1.891570352017879486e-02
2.029000000000000000e+03 7.586743927001953125e+01 -2.255942726135253906e+01 -1.621852046810090542e-03 7.850995540618896484e+00 2.354812145233154297e+00 -2.656195126473903656e-02
2.030000000000000000e+03 7.669824981689453125e+01 -1.370261478424072266e+01 1.031585925375111401e-04 7.801227092742919922e+00 2.340399026870727539e+00 -2.529235556721687317e-02
2.031000000000000000e+03 7.743056488037109375e+01 -1.362835884094238281e+01 -2.961632562801241875e-04 7.803379535675048828e+00 2.340924978256225586e+00 -2.053710259497165680e-02
2.032000000000000000e+03 7.670273590087890625e+01 -1.130284690856933594e+01 -5.620902084046974778e-05 7.785439968109130859e+00 2.335615158081054688e+00 -2.543490380048751831e-02
2.033000000000000000e+03 7.668892669677734375e+01 -1.670289993286132812e+00 1.000210526399314404e-03 7.724751949310302734e+00 2.317725658416748047e+00 -2.224115096032619476e-02
2.034000000000000000e+03 7.670237731933593750e+01 -8.109066009521484375e+00 3.051616367883980274e-04 7.764510154724121094e+00 2.329444646835327148e+00 -2.488533966243267059e-02
2.035000000000000000e+03 7.670355224609375000e+01 -8.901315689086914062e+00 5.202183965593576431e-04 7.769601821899414062e+00 2.331036567687988281e+00 -2.492749877274036407e-02
2.036000000000000000e+03 7.675215148925781250e+01 3.889309310913085938e+01 -7.506791152991354465e-04 7.641099929809570312e+00 2.292104721069335938e+00 6.764209247194230556e-04
2.037000000000000000e+03 7.519292449951171875e+01 3.635901641845703125e+01 5.100505659356713295e-04 7.651346206665039062e+00 2.295557022094726562e+00 3.896421985700726509e-04
2.038000000000000000e+03 7.667725372314453125e+01 5.550844192504882812e+00 1.426044385880231857e-03 7.687645912170410156e+00 2.306721448898315430e+00 -1.697101630270481110e-02
2.039000000000000000e+03 1.161320877075195312e+01 -9.635455131530761719e+00 1.265987986698746681e-03 -2.723665238590911031e-05 3.716253850143402815e-04 1.549118169350549579e-04
2.040000000000000000e+03 1.193960952758789062e+01 -2.505501556396484375e+01 6.696802098304033279e-03 6.596193416044116020e-04 2.206926466897130013e-03 -1.614023931324481964e-03
2.041000000000000000e+03 7.663813781738281250e+01 -2.090913772583007812e+01 -1.257326221093535423e-03 7.846934318542480469e+00 2.353703022003173828e+00 -2.376538515090942383e-02
2.042000000000000000e+03 7.738239288330078125e+01 -2.084014511108398438e+01 -4.084490647073835135e-04 7.851808071136474609e+00 2.355419874191284180e+00 -1.885783672332763672e-02
2.043000000000000000e+03 1.202028465270996094e+01 -2.874290466308593750e+01 5.471121519804000854e-03 -2.045905217528343201e-03 1.027564867399632931e-03 -4.326574970036745071e-03
2.044000000000000000e+03 1.255881595611572266e+01 -2.661039161682128906e+01 -1.053862366825342178e-02 -1.194846932776272297e-03 -3.520041238516569138e-03 3.270149696618318558e-03
2.045000000000000000e+03 7.669444274902343750e+01 -7.270672917366027832e-02 1.145396730862557888e-03 7.715722084045410156e+00 2.315060138702392578e+00 -2.122793905436992645e-02
2.046000000000000000e+03 7.669194030761718750e+01 -8.677473068237304688e-01 1.102778012864291668e-03 7.720129489898681641e+00 2.316369771957397461e+00 -2.163722738623619080e-02
2.047000000000000000e+03 7.595570373535156250e+01 -1.534962844848632812e+01 -7.706057513132691383e-04 7.809006214141845703e+00 2.342470645904541016e+00 -3.007889352738857269e-02
2.048000000000000000e+03 7.615557098388671875e+01 -3.282194137573242188e+01 -3.552550217136740685e-03 7.898720264434814453e+00 2.368550300598144531e+00 -1.456613652408123016e-02
2.049000000000000000e+03 7.544463348388671875e+01 -2.962318992614746094e+01 -3.384065348654985428e-03 7.880240917205810547e+00 2.363057136535644531e+00 -2.154372446238994598e-02
2.050000000000000000e+03 7.666995239257812500e+01 7.138362407684326172e+00 1.479950733482837677e-03 7.680910587310791016e+00 2.304717063903808594e+00 -1.564100198447704315e-02
2.051000000000000000e+03 7.667532348632812500e+01 6.347944736480712891e+00 1.597414840944111347e-03 7.684228897094726562e+00 2.305747747421264648e+00 -1.647009328007698059e-02
2.052000000000000000e+03 2.381689834594726562e+01 1.941517829895019531e+01 1.652541570365428925e-02 8.195652961730957031e+00 2.463653564453125000e+00 -1.472372096031904221e-03
2.053000000000000000e+03 2.376488113403320312e+01 1.778927803039550781e+01 1.580473780632019043e-02 8.198881149291992188e+00 2.464405775070190430e+00 1.112060062587261200e-02
2.054000000000000000e+03 2.379360580444335938e+01 1.860168457031250000e+01 1.145646162331104279e-02 8.196802139282226562e+00 2.462477684020996094e+00 5.265310872346162796e-03
2.055000000000000000e+03 7.668325042724609375e+01 -1.609892272949218750e+01 -6.753305788151919842e-04 7.817007064819335938e+00 2.344899654388427734e+00 -2.528703399002552032e-02
2.056000000000000000e+03 7.652049255371093750e+01 2.070877456665039062e+01 1.429658499546349049e-03 7.647247791290283203e+00 2.294603347778320312e+00 -4.576421808451414108e-03
2.057000000000000000e+03 7.663222503662109375e+01 1.273403072357177734e+01 1.786204054951667786e-03 7.661915302276611328e+00 2.299110412597656250e+00 -1.096593029797077179e-02
2.058000000000000000e+03 7.662153625488281250e+01 1.431490230560302734e+01 1.739168656058609486e-03 7.657858848571777344e+00 2.297879457473754883e+00 -9.562076069414615631e-03
2.059000000000000000e+03 7.662982177734375000e+01 1.352717494964599609e+01 1.527424203231930733e-03 7.659725666046142578e+00 2.298376083374023438e+00 -1.001175865530967712e-02
2.060000000000000000e+03 7.727132415771484375e+01 -2.724366188049316406e+01 -6.908762734383344650e-04 7.887593746185302734e+00 2.366070747375488281e+00 -1.573669165372848511e-02
2.061000000000000000e+03 7.568281555175781250e+01 -2.572181892395019531e+01 -1.924260170198976994e-03 7.865846633911132812e+00 2.359176635742187500e+00 -2.444317191839218140e-02
2.062000000000000000e+03 1.259821510314941406e+01 -1.326576328277587891e+01 2.718213014304637909e-03 1.592453918419778347e-04 8.632375393062829971e-04 -4.289129574317485094e-04
2.063000000000000000e+03 7.651944732666015625e+01 2.150895309448242188e+01 1.159968436695635319e-03 7.646342277526855469e+00 2.294250726699829102e+00 -3.887572791427373886e-03
2.064000000000000000e+03 7.658936309814453125e+01 -2.331300926208496094e+01 -1.106148120015859604e-03 7.860512733459472656e+00 2.357821941375732422e+00 -2.220652438700199127e-02
2.065000000000000000e+03 2.365012550354003906e+01 6.513001918792724609e+00 1.544534713029861450e-01 8.286763191223144531e+00 2.532364845275878906e+00 1.972571462392807007e-01
2.066000000000000000e+03 2.390382194519042969e+01 2.590427589416503906e+01 4.129784554243087769e-02 8.228510856628417969e+00 2.480942726135253906e+00 -7.327178120613098145e-02
2.067000000000000000e+03 2.386227607727050781e+01 2.427080917358398438e+01 3.009447082877159119e-02 8.212633132934570312e+00 2.472818374633789062e+00 -4.814697057008743286e-02
2.068000000000000000e+03 2.387902641296386719e+01 2.508335304260253906e+01 2.268132381141185760e-02 8.220077514648437500e+00 2.472827434539794922e+00 -5.652902275323867798e-02
2.069000000000000000e+03 2.443544864654541016e+00 8.639381408691406250e+00 6.737750372849404812e-04 6.103631312726065516e-05 2.204434131272137165e-04 -2.331845898879691958e-04
2.070000000000000000e+03 3.204696416854858398e+00 1.096482467651367188e+01 9.622986544854938984e-04 1.478555714129470289e-05 2.931252820417284966e-04 -3.229004796594381332e-04
2.071000000000000000e+03 2.551145076751708984e+00 2.217576217651367188e+01 -2.645295113325119019e-03 -5.535754098673351109e-05 -8.101958082988858223e-04 1.150125870481133461e-03
2.072000000000000000e+03 3.266881942749023438e+00 2.365847969055175781e+01 2.299652900546789169e-03 -3.177397593390196562e-04 5.945739685557782650e-04 -1.675622654147446156e-03
2.073000000000000000e+03 3.255595445632934570e+00 2.526479911804199219e+01 2.508513629436492920e-03 -1.289283740334212780e-03 3.657689667306840420e-04 -6.650127470493316650e-04
2.074000000000000000e+03 7.631731414794921875e+01 2.784309768676757812e+01 3.212051233276724815e-04 7.644162178039550781e+00 2.293344974517822266e+00 -8.706770022399723530e-04
2.075000000000000000e+03 2.491456031799316406e+00 1.578835487365722656e+01 -1.390831079334020615e-03 1.747336209518834949e-04 -3.648292331490665674e-04 -1.368933317280607298e-05
2.076000000000000000e+03 3.225142717361450195e+00 1.882339286804199219e+01 1.845910912379622459e-03 3.497792640700936317e-04 6.587070529349148273e-04 -9.247213602066040039e-04
2.077000000000000000e+03 2.519891738891601562e+00 1.894897079467773438e+01 -1.673923688940703869e-03 8.316704042954370379e-05 -4.772270040120929480e-04 1.410147815477102995e-04
2.078000000000000000e+03 3.273327350616455078e+00 2.285995101928710938e+01 -3.234271192923188210e-03 -3.967168449889868498e-04 -1.089296420104801655e-03 1.769780647009611130e-03
2.079000000000000000e+03 3.222223043441772461e+00 1.803613471984863281e+01 -1.624636119231581688e-03 -8.720683399587869644e-05 -5.135528626851737499e-04 -2.496296474419068545e-05
2.080000000000000000e+03 2.489380121231079102e+00 1.182527828216552734e+01 1.022272976115345955e-03 3.797547105932608247e-05 3.180745115969330072e-04 -3.414906095713376999e-04
2.081000000000000000e+03 3.180808544158935547e+00 1.335419750213623047e+01 -1.179863000288605690e-03 1.825754297897219658e-04 -2.991862711496651173e-04 8.579487621318548918e-05
2.082000000000000000e+03 3.189547061920166016e+00 1.256040287017822266e+01 1.212508534081280231e-03 -7.081536023179069161e-05 3.425079339649528265e-04 -3.856589028146117926e-04
2.083000000000000000e+03 3.263174533843994141e+00 2.687187194824218750e+01 2.335463417693972588e-03 -2.601240295916795731e-03 -7.973308674991130829e-05 1.405631192028522491e-03
2.084000000000000000e+03 2.553669929504394531e+00 2.537867546081542969e+01 -5.126039963215589523e-03 -7.353404362220317125e-05 -1.559872296638786793e-03 2.885194262489676476e-03
2.085000000000000000e+03 3.289238691329956055e+00 2.931434440612792969e+01 -1.098963897675275803e-02 -2.065689768642187119e-03 -3.916598856449127197e-03 9.207634255290031433e-03
2.086000000000000000e+03 2.579501152038574219e+00 2.779262161254882812e+01 2.914496464654803276e-03 -3.172917291522026062e-03 -7.752618694212287664e-05 2.511529484763741493e-03
2.087000000000000000e+03 3.261789083480834961e+00 2.768482017517089844e+01 -8.979264646768569946e-03 -3.464272886049002409e-04 -2.797707682475447655e-03 5.952956620603799820e-03
2.088000000000000000e+03 1.108125782012939453e+01 -3.015836715698242188e+01 -2.589293196797370911e-02 4.182528238743543625e-03 -6.513121072202920914e-03 3.596909111365675926e-03
2.089000000000000000e+03 3.935429811477661133e+00 1.951231575012207031e+01 1.782010076567530632e-03 5.212076939642429352e-04 6.909653311595320702e-04 -8.043504203669726849e-04
2.090000000000000000e+03 3.189158439636230469e+00 1.569172763824462891e+01 1.705232542008161545e-03 4.162944969721138477e-05 5.240585887804627419e-04 -4.779603914357721806e-04
2.091000000000000000e+03 2.270828247070312500e+00 5.444821357727050781e+00 3.965354408137500286e-04 7.280446152435615659e-05 1.408019743394106627e-04 -1.384703355142846704e-04
2.092000000000000000e+03 4.601144790649414062e+00 6.250186920166015625e+00 6.101821782067418098e-04 -6.791947089368477464e-05 1.626788143767043948e-04 -1.878938928712159395e-04
2.093000000000000000e+03 2.429536819458007812e+00 7.845782756805419922e+00 -5.542790750041604042e-04 -4.296734914532862604e-05 -1.791739341570064425e-04 1.734602992655709386e-04
2.094000000000000000e+03 3.237787485122680664e+00 1.962354850769042969e+01 -1.703872112557291985e-03 -4.355546843726187944e-04 -6.418280536308884621e-04 1.890586427180096507e-04
2.095000000000000000e+03 3.205460786819458008e+00 1.646373939514160156e+01 -1.447269809432327747e-03 7.073057986417552456e-06 -4.320590232964605093e-04 -8.218633593060076237e-05
2.096000000000000000e+03 3.216557979583740234e+00 1.724817657470703125e+01 1.769234775565564632e-03 1.607800222700461745e-04 5.790044669993221760e-04 -7.072855369187891483e-04
2.097000000000000000e+03 3.326690673828125000e+00 3.012170600891113281e+01 6.168945692479610443e-04 -6.689554546028375626e-03 -1.821797923184931278e-03 9.406235069036483765e-03
2.098000000000000000e+03 4.248946666717529297e+00 3.609877395629882812e+01 -9.277263656258583069e-03 -1.250402349978685379e-02 -6.534385960549116135e-03 3.488630801439285278e-02
2.099000000000000000e+03 2.833520174026489258e+00 3.262580108642578125e+01 1.045475713908672333e-03 -1.470699068158864975e-02 -4.098454490303993225e-03 1.665855944156646729e-02
2.100000000000000000e+03 4.011268615722656250e+00 3.007591629028320312e+01 -1.445510704070329666e-02 -3.971805563196539879e-04 -4.455686081200838089e-03 1.184756588190793991e-02
2.101000000000000000e+03 3.179276943206787109e+00 1.414144039154052734e+01 1.527933287434279919e-03 -9.786068403627723455e-05 4.290217766538262367e-04 -4.099647921975702047e-04
2.102000000000000000e+03 3.179992914199829102e+00 1.491985416412353516e+01 -1.391164725646376610e-03 1.779929880285635591e-04 -3.639515489339828491e-04 -5.400853478931821883e-05
2.103000000000000000e+03 3.997193336486816406e+00 2.277860450744628906e+01 1.795014832168817520e-03 -1.067743942257948220e-04 5.064721335656940937e-04 -2.047134097665548325e-03
2.104000000000000000e+03 3.259788751602172852e+00 2.446394157409667969e+01 -4.778816830366849899e-03 -1.665097443037666380e-05 -1.438640290871262550e-03 2.683451864868402481e-03
2.105000000000000000e+03 3.202145338058471680e+00 1.176596355438232422e+01 -9.603395592421293259e-04 9.459929424338042736e-05 -2.597220882307738066e-04 1.489715214120224118e-04
2.106000000000000000e+03 3.172074079513549805e+00 9.348971366882324219e+00 8.021518588066101074e-04 2.706471241253893822e-05 2.487649908289313316e-04 -2.504527219571173191e-04
2.107000000000000000e+03 3.191211462020874023e+00 1.015381622314453125e+01 -7.685836753807961941e-04 5.494490324053913355e-06 -2.289267431478947401e-04 1.540827361168339849e-04
2.108000000000000000e+03 3.119636774063110352e+00 6.908563137054443359e+00 -5.328393890522420406e-04 -5.934253567829728127e-05 -1.776545832399278879e-04 2.093097573379054666e-04
2.109000000000000000e+03 3.139522790908813477e+00 7.755039215087890625e+00 6.686923443339765072e-04 4.191523112240247428e-05 2.131822693627327681e-04 -2.312217111466452479e-04
2.110000000000000000e+03 7.632682800292968750e+01 -2.964580726623535156e+01 -1.567626022733747959e-03 7.888738632202148438e+00 2.366151332855224609e+00 -1.773516461253166199e-02
2.111000000000000000e+03 7.625293731689453125e+01 -3.040662956237792969e+01 -2.738464158028364182e-03 7.891119956970214844e+00 2.366514444351196289e+00 -1.794437505304813385e-02
2.112000000000000000e+03 2.352932357788085938e+01 -2.402058029174804688e+01 -7.257780432701110840e-02 7.355481624603271484e+00 2.184871196746826172e+00 1.993150562047958374e-01
2.113000000000000000e+03 3.402762651443481445e+00 3.165703392028808594e+01 -3.745918802451342344e-04 -9.587604552507400513e-03 -2.988658845424652100e-03 1.540155801922082901e-02
2.114000000000000000e+03 7.576754760742187500e+01 3.540266418457031250e+01 8.757463656365871429e-04 7.647353172302246094e+00 2.294468641281127930e+00 6.791005725972354412e-04
2.115000000000000000e+03 7.597135925292968750e+01 3.462662124633789062e+01 -1.781111450327443890e-06 7.645989894866943359e+00 2.293796539306640625e+00 6.711898022331297398e-04
2.116000000000000000e+03 7.594042968750000000e+01 3.287807464599609375e+01 4.889167612418532372e-04 7.645716190338134766e+00 2.293861627578735352e+00 1.621686678845435381e-04
2.117000000000000000e+03 2.345964050292968750e+01 1.608529329299926758e+00 2.457897551357746124e-02 8.113874435424804688e+00 2.441536188125610352e+00 1.813124567270278931e-01
2.118000000000000000e+03 2.299988365173339844e+01 -1.194705104827880859e+01 1.002234593033790588e-01 7.676875591278076172e+00 2.333129882812500000e+00 2.709497511386871338e-01
2.119000000000000000e+03 2.285475349426269531e+01 -1.607911300659179688e+01 2.869543153792619705e-03 7.523174762725830078e+00 2.257813215255737305e+00 1.817216873168945312e-01
2.120000000000000000e+03 2.208647918701171875e+01 -1.525525760650634766e+01 9.157911688089370728e-02 7.554211139678955078e+00 2.293737173080444336e+00 2.255612909793853760e-01
2.121000000000000000e+03 2.358508682250976562e+01 4.054405689239501953e+00 2.055782824754714966e-01 8.196720123291015625e+00 2.520689487457275391e+00 1.762357354164123535e-01
2.122000000000000000e+03 1.315166950225830078e+01 2.877851676940917969e+01 -7.650902029126882553e-03 -3.815993899479508400e-03 -3.440068801864981651e-03 -1.122560072690248489e-02
2.123000000000000000e+03 1.229600048065185547e+01 2.705408477783203125e+01 -7.927864789962768555e-03 -1.898006419651210308e-03 -2.947761444374918938e-03 -3.518074518069624901e-03
2.124000000000000000e+03 2.021709442138671875e+01 -2.080433845520019531e+01 -3.259133081883192062e-03 7.133515834808349609e+00 2.139076948165893555e+00 3.001350462436676025e-01
2.125000000000000000e+03 1.240640163421630859e+01 3.041290473937988281e+01 -2.767756022512912750e-02 4.657314624637365341e-03 -6.906074006110429764e-03 -1.415860094130039215e-02
2.126000000000000000e+03 2.305143737792968750e+01 -7.884175777435302734e+00 -2.541362680494785309e-02 7.714331150054931641e+00 2.306675195693969727e+00 2.946819961071014404e-01
2.127000000000000000e+03 2.096618270874023438e+01 -2.236684417724609375e+01 -2.622431144118309021e-02 7.187446117401123047e+00 2.148366451263427734e+00 1.935336142778396606e-01
2.128000000000000000e+03 2.172302055358886719e+01 -2.310225677490234375e+01 -7.358811050653457642e-02 7.262516498565673828e+00 2.156678676605224609e+00 1.809344887733459473e-01
2.129000000000000000e+03 1.273190784454345703e+01 3.309144973754882812e+01 -6.786949932575225830e-02 1.609103009104728699e-02 -1.553354132920503616e-02 -3.815015777945518494e-02
2.130000000000000000e+03 1.294125652313232422e+01 3.528920364379882812e+01 -1.350459456443786621e-01 5.955090373754501343e-02 -2.264851331710815430e-02 1.382744219154119492e-02
2.131000000000000000e+03 1.217882156372070312e+01 2.465795516967773438e+01 6.842422299087047577e-04 -2.152376982849091291e-04 1.407013623975217342e-04 -1.423254725523293018e-03
2.132000000000000000e+03 2.326398658752441406e+01 -1.570002555847167969e+00 -4.760615061968564987e-03 7.886161327362060547e+00 2.364420175552368164e+00 2.775621414184570312e-01
2.133000000000000000e+03 1.213693618774414062e+01 2.388549995422363281e+01 -3.632240230217576027e-03 -1.355335349217057228e-03 -1.496272627264261246e-03 -1.884238008642569184e-04
2.134000000000000000e+03 1.274860095977783203e+01 2.240406608581542969e+01 3.089041216298937798e-03 8.934632060118019581e-04 1.194751355797052383e-03 5.001609679311513901e-04
2.135000000000000000e+03 2.361200141906738281e+01 4.875342845916748047e+00 2.128236740827560425e-01 8.230961799621582031e+00 2.533135652542114258e+00 1.923310607671737671e-01
2.136000000000000000e+03 1.236805057525634766e+01 2.869724273681640625e+01 -1.373264752328395844e-02 -1.507916604168713093e-03 -4.572169389575719833e-03 -7.919613271951675415e-03
2.137000000000000000e+03 2.350880241394042969e+01 2.417171239852905273e+00 9.391444921493530273e-02 8.145795822143554688e+00 2.471912860870361328e+00 1.599972844123840332e-01
2.138000000000000000e+03 2.355091476440429688e+01 3.233553647994995117e+00 1.613995134830474854e-01 8.169940948486328125e+00 2.499402046203613281e+00 1.566752493381500244e-01
2.139000000000000000e+03 1.221849346160888672e+01 2.544503211975097656e+01 -4.986286163330078125e-03 -1.653942395932972431e-03 -1.992068719118833542e-03 -1.275990391150116920e-03
2.140000000000000000e+03 2.302163314819335938e+01 -1.112444782257080078e+01 7.682050019502639771e-02 7.689260959625244141e+00 2.329824447631835938e+00 2.694717943668365479e-01
2.141000000000000000e+03 2.303796577453613281e+01 -1.030562400817871094e+01 6.801658123731613159e-02 7.698678970336914062e+00 2.330008745193481445e+00 2.699019908905029297e-01
2.142000000000000000e+03 1.263289833068847656e+01 -2.049333190917968750e+01 -5.641367752104997635e-03 8.026844589039683342e-04 -1.451604999601840973e-03 -9.626428072806447744e-05
2.143000000000000000e+03 2.318946075439453125e+01 -3.157104492187500000e+00 -1.636957377195358276e-02 7.806170940399169922e+00 2.336940526962280273e+00 2.347393780946731567e-01
2.144000000000000000e+03 2.288347434997558594e+01 -1.524370002746582031e+01 7.954234629869461060e-02 7.543050765991210938e+00 2.286777973175048828e+00 1.929031014442443848e-01
2.145000000000000000e+03 2.291463661193847656e+01 -1.441633415222167969e+01 1.115063726902008057e-01 7.573509216308593750e+00 2.305504798889160156e+00 2.212736457586288452e-01
2.146000000000000000e+03 1.174994373321533203e+01 -2.932910919189453125e+01 -1.851889304816722870e-02 -5.697150714695453644e-03 -7.264812942594289780e-03 1.338395103812217712e-02
2.147000000000000000e+03 1.247940349578857422e+01 -3.069144821166992188e+01 5.102404393255710602e-03 -4.987464752048254013e-03 3.448183997534215450e-05 1.096159964799880981e-02
2.148000000000000000e+03 1.240040683746337891e+01 2.953501319885253906e+01 -1.753214187920093536e-02 -9.816769743338227272e-04 -5.554145667701959610e-03 -1.508075371384620667e-02
2.149000000000000000e+03 1.190254688262939453e+01 -3.591798019409179688e+01 -1.561329811811447144e-01 9.043018519878387451e-02 -1.971083693206310272e-02 1.069000177085399628e-02
2.150000000000000000e+03 1.158678531646728516e+01 -3.431241607666015625e+01 -7.712433487176895142e-02 3.315382450819015503e-02 -1.319115422666072845e-02 4.200343415141105652e-02
2.151000000000000000e+03 9.453868865966796875e+00 -6.133658409118652344e+00 3.293287882115691900e-04 4.901302163489162922e-04 2.458376984577625990e-04 -3.682816750369966030e-04
2.152000000000000000e+03 1.076749515533447266e+01 -4.133460998535156250e+00 5.287573440000414848e-04 9.675949513621162623e-06 1.615299843251705170e-04 -8.780640200711786747e-05
2.153000000000000000e+03 1.102969837188720703e+01 -4.694708824157714844e+00 -1.707234332570806146e-04 5.177509156055748463e-04 1.041082505253143609e-04 -2.643680491019040346e-04
2.154000000000000000e+03 9.229236602783203125e+00 -3.881466674804687500e+01 5.266971886157989502e-02 4.745366424322128296e-02 3.003701381385326385e-02 -1.086176633834838867e-01
2.155000000000000000e+03 1.152264022827148438e+01 1.564688873291015625e+01 2.159316325560212135e-03 6.795456283725798130e-04 8.516585803590714931e-04 1.270061911782249808e-04
2.156000000000000000e+03 2.855396270751953125e+00 3.862660884857177734e+00 -2.551546785980463028e-04 -7.693040242884308100e-05 -9.962552576325833797e-05 1.242002035723999143e-04
2.157000000000000000e+03 2.290087699890136719e+01 -2.662504386901855469e+01 -2.841966785490512848e-02 7.348758220672607422e+00 2.196101665496826172e+00 2.109241336584091187e-01
2.158000000000000000e+03 2.222160339355468750e+01 -2.845729637145996094e+01 4.669130966067314148e-02 7.382482528686523438e+00 2.228752136230468750e+00 2.186348438262939453e-01
2.159000000000000000e+03 3.253034830093383789e+00 -4.165446090698242188e+01 2.940638363361358643e-02 -4.630133509635925293e-02 -5.068485159426927567e-03 -1.288213022053241730e-02
2.160000000000000000e+03 3.068562030792236328e+00 3.826593017578125000e+01 1.146514248102903366e-02 -4.527147114276885986e-02 -1.014189794659614563e-02 3.353722020983695984e-02
2.161000000000000000e+03 7.468115234375000000e+01 -3.792717742919921875e+01 -5.487170070409774780e-03 7.896350383758544922e+00 2.367259025573730469e+00 -9.459658525884151459e-03
2.162000000000000000e+03 2.402265739440917969e+01 3.417771911621093750e+01 5.712371468544006348e-01 7.936262130737304688e+00 2.552249908447265625e+00 -3.296228349208831787e-01
2.163000000000000000e+03 2.620430374145507812e+01 3.593519592285156250e+01 2.188429683446884155e-01 7.633469104766845703e+00 2.355693578720092773e+00 1.739289313554763794e-01
2.164000000000000000e+03 1.246475124359130859e+01 -3.141542434692382812e+01 -2.299473434686660767e-02 -1.858389377593994141e-02 -1.247358787804841995e-02 1.688875630497932434e-02
2.165000000000000000e+03 7.668821716308593750e+01 -4.176146697998046875e+01 -2.729200990870594978e-03 7.920584678649902344e+00 2.375356674194335938e+00 3.426755711188889109e-06
2.166000000000000000e+03 4.128925323486328125e+00 4.166268157958984375e+01 1.746606640517711639e-02 -4.640213772654533386e-02 -8.680821396410465240e-03 1.759803295135498047e-02
2.167000000000000000e+03 2.318340110778808594e+01 -3.818826293945312500e+01 -2.540262639522552490e-01 6.863688468933105469e+00 1.982898712158203125e+00 -3.204188644886016846e-01
2.168000000000000000e+03 2.157965278625488281e+01 -3.731625366210937500e+01 2.560623884201049805e-01 6.493772506713867188e+00 2.024950504302978516e+00 -6.666729599237442017e-02
2.169000000000000000e+03 7.767874908447265625e+01 -3.729648590087890625e+01 -1.870952255558222532e-04 7.928559303283691406e+00 2.378511667251586914e+00 -4.215820692479610443e-03
2.170000000000000000e+03 7.663058471679687500e+01 -3.498091125488281250e+01 -2.644631313160061836e-03 7.911674499511718750e+00 2.372709035873413086e+00 -9.501036256551742554e-03
2.171000000000000000e+03 2.242352485656738281e+01 -3.191041946411132812e+01 2.452140599489212036e-01 7.406270980834960938e+00 2.295445442199707031e+00 3.460306227207183838e-01
2.172000000000000000e+03 2.331688880920410156e+01 -3.197131729125976562e+01 2.409036755561828613e-01 7.229031085968017578e+00 2.240980386734008789e+00 2.690769433975219727e-01
2.173000000000000000e+03 1.141018486022949219e+01 -3.856161117553710938e+01 -3.987402841448783875e-02 1.068652719259262085e-01 2.009737119078636169e-02 -1.210559383034706116e-01
2.174000000000000000e+03 1.293697738647460938e+01 -3.946971511840820312e+01 1.082546934485435486e-01 1.474290043115615845e-01 7.670511305332183838e-02 -1.404684633016586304e-01
2.175000000000000000e+03 5.547030448913574219e+00 3.850532913208007812e+01 2.408061549067497253e-02 -2.841647155582904816e-02 -1.300756586715579033e-03 4.021547734737396240e-02
2.176000000000000000e+03 2.387379264831542969e+01 3.333670425415039062e+01 3.926064968109130859e-01 8.150881767272949219e+00 2.563046455383300781e+00 -3.693962991237640381e-01
2.177000000000000000e+03 2.737353324890136719e+01 3.760262298583984375e+01 -1.609649509191513062e-01 7.756488800048828125e+00 2.278657197952270508e+00 2.880585491657257080e-01
2.178000000000000000e+03 1.277966403961181641e+01 3.922964859008789062e+01 5.396613478660583496e-02 1.219042018055915833e-01 5.276110023260116577e-02 1.607125550508499146e-01
2.179000000000000000e+03 1.057870006561279297e+01 3.863257598876953125e+01 6.480497866868972778e-02 2.101225405931472778e-02 2.574516832828521729e-02 1.287216693162918091e-01
2.180000000000000000e+03 9.461021423339843750e+00 -4.208294391632080078e+00 4.138924996368587017e-04 3.380210546310991049e-04 2.255740691907703876e-04 -1.275155227631330490e-04
2.181000000000000000e+03 1.206025409698486328e+01 -4.252910614013671875e+00 -8.816187037155032158e-04 2.387864515185356140e-04 -1.928496640175580978e-04 -5.095321284898091108e-06
2.182000000000000000e+03 6.577739715576171875e+00 4.960155487060546875e+00 -2.496127272024750710e-04 -1.407825038768351078e-04 -1.171185722341760993e-04 7.571551395813003182e-05
2.183000000000000000e+03 4.099314212799072266e+00 5.035712242126464844e+00 -2.304872614331543446e-04 -1.871044805739074945e-04 -1.252775255125015974e-04 1.020974159473553300e-04
2.184000000000000000e+03 5.307472229003906250e+00 4.966026306152343750e+00 -2.962588914670050144e-04 -1.113968392019160092e-04 -1.222967257490381598e-04 8.625390182714909315e-05
2.185000000000000000e+03 5.934303283691406250e+00 4.958134651184082031e+00 3.054363769479095936e-04 1.205730659421533346e-04 1.278028357774019241e-04 -9.827432950260117650e-05
2.186000000000000000e+03 7.972811698913574219e+00 4.353020191192626953e+00 2.308314142283052206e-04 1.477746991440653801e-04 1.135818311013281345e-04 -1.466579215048113838e-05
2.187000000000000000e+03 7.893270015716552734e+00 4.996441364288330078e+00 -2.279850596096366644e-04 -1.638902904232963920e-04 -1.175626020994968712e-04 3.639547867351211607e-05
2.188000000000000000e+03 8.561244964599609375e+00 5.030960083007812500e+00 2.608782669994980097e-04 1.709299394860863686e-04 1.295424590352922678e-04 -9.944984412868507206e-06
2.189000000000000000e+03 1.233247661590576172e+01 2.787269210815429688e+01 -7.432615384459495544e-03 -1.425721216946840286e-03 -2.657501026988029480e-03 -8.507931604981422424e-03
2.190000000000000000e+03 1.190943431854248047e+01 -3.745090961456298828e+00 8.202724275179207325e-04 -2.816425985656678677e-04 1.615889632375910878e-04 -1.016618807625491172e-05
2.191000000000000000e+03 1.176654529571533203e+01 -3.260304450988769531e+00 -6.159312906675040722e-04 1.281999429920688272e-04 -1.463194203097373247e-04 -5.490554394782520831e-05
2.192000000000000000e+03 2.410479736328125000e+01 4.321911931037902832e-02 -1.015318930149078369e-02 8.008749008178710938e+00 2.399578809738159180e+00 2.057655453681945801e-01
2.193000000000000000e+03 1.277172756195068359e+01 8.647794723510742188e+00 -7.021056371740996838e-04 -1.933416933752596378e-04 -2.686342049855738878e-04 -1.027394318953156471e-04
2.194000000000000000e+03 2.415732002258300781e+01 8.394565582275390625e-01 9.583346545696258545e-03 8.048892021179199219e+00 2.417542695999145508e+00 1.762840747833251953e-01
2.195000000000000000e+03 1.195297813415527344e+01 2.163056564331054688e+01 2.566289855167269707e-03 5.502668791450560093e-04 9.349670144729316235e-04 3.479614970274269581e-04
2.196000000000000000e+03 4.088366508483886719e+00 -4.999748229980468750e+00 -4.735881520900875330e-04 -5.146260955370962620e-04 -2.964642771985381842e-04 2.710939443204551935e-04
2.197000000000000000e+03 4.467746257781982422e+00 -6.135687828063964844e+00 -1.043429365381598473e-03 -2.774911990854889154e-04 -3.962761838920414448e-04 2.554502279963344336e-04
2.198000000000000000e+03 5.446774959564208984e+00 -4.949387550354003906e+00 7.239623810164630413e-04 2.950406342279165983e-04 3.057009016629308462e-04 -1.011809290503151715e-04
2.199000000000000000e+03 2.385047340393066406e+01 -6.261604785919189453e+00 -7.247499376535415649e-02 7.773907184600830078e+00 2.310429573059082031e+00 2.559255361557006836e-01
2.200000000000000000e+03 2.274105644226074219e+01 -2.002402305603027344e+01 -1.050429269671440125e-01 7.368174076080322266e+00 2.178939342498779297e+00 2.432342767715454102e-01
2.201000000000000000e+03 2.261097335815429688e+01 -2.433976745605468750e+01 -6.090806424617767334e-02 7.319800376892089844e+00 2.177667617797851562e+00 2.026254534721374512e-01
2.202000000000000000e+03 2.466344833374023438e+01 -5.424019813537597656e+00 -6.176266446709632874e-02 7.807198524475097656e+00 2.323630809783935547e+00 2.192273288965225220e-01
2.203000000000000000e+03 8.817032814025878906e+00 -4.191557407379150391e+00 -3.579503973014652729e-04 -2.999942225869745016e-04 -1.973833859665319324e-04 -1.351458922727033496e-05
2.204000000000000000e+03 2.463573074340820312e+01 -1.191131973266601562e+01 8.304429054260253906e-02 7.635064601898193359e+00 2.315432786941528320e+00 2.246565818786621094e-01
2.205000000000000000e+03 5.915171146392822266e+00 -5.071688175201416016e+00 -5.576458061113953590e-04 -2.438512019580230117e-04 -2.404491096967831254e-04 -4.801014147233217955e-04
2.206000000000000000e+03 6.440591335296630859e+00 -5.010874748229980469e+00 4.859085893258452415e-04 1.931444421643391252e-04 2.037159138126298785e-04 5.573771777562797070e-04
2.207000000000000000e+03 2.356423950195312500e+01 -1.774651145935058594e+01 -7.114191353321075439e-02 7.485056400299072266e+00 2.224174499511718750e+00 1.788173019886016846e-01
2.208000000000000000e+03 2.370861434936523438e+01 -1.695429992675781250e+01 -5.242101103067398071e-02 7.513913154602050781e+00 2.238447666168212891e+00 1.618338972330093384e-01
2.209000000000000000e+03 1.186781215667724609e+01 -1.253371238708496094e+01 2.248135861009359360e-03 1.913631713250651956e-04 7.318496936932206154e-04 -4.281181318219751120e-04
2.210000000000000000e+03 1.146455955505371094e+01 2.458425712585449219e+01 -4.152222536504268646e-03 -1.576668350026011467e-03 -1.718667219392955303e-03 -3.578402393031865358e-04
2.211000000000000000e+03 7.582073211669921875e+00 -4.839620590209960938e+00 3.849718777928501368e-04 2.204665070166811347e-04 1.816315198084339499e-04 3.157958562951534986e-04
2.212000000000000000e+03 2.346423339843750000e+01 -1.843479156494140625e+01 -1.113217324018478394e-01 7.458708286285400391e+00 2.204216003417968750e+00 1.952649652957916260e-01
2.213000000000000000e+03 2.384206962585449219e+01 -7.047189712524414062e+00 -5.748570710420608521e-02 7.752785205841064453e+00 2.308589696884155273e+00 2.708272933959960938e-01
2.214000000000000000e+03 2.304891777038574219e+01 -8.684216499328613281e+00 2.118182554841041565e-02 7.702762603759765625e+00 2.317183256149291992e+00 2.914924919605255127e-01
2.215000000000000000e+03 2.103534317016601562e+01 -2.081855964660644531e+01 -3.865924477577209473e-02 7.153052330017089844e+00 2.134317874908447266e+00 2.948880791664123535e-01
2.216000000000000000e+03 2.355654144287109375e+01 -1.917001533508300781e+01 -1.077138260006904602e-01 7.444091796875000000e+00 2.200913429260253906e+00 2.088684737682342529e-01
2.217000000000000000e+03 1.189685440063476562e+01 -2.578487205505371094e+01 -8.678686805069446564e-03 -2.245495561510324478e-03 -3.277254756540060043e-03 2.798158675432205200e-03
2.218000000000000000e+03 3.932008266448974609e+00 -3.086056900024414062e+01 2.762332558631896973e-03 -8.130883215926587582e-04 5.847732536494731903e-04 -9.070147760212421417e-03
2.219000000000000000e+03 1.269886207580566406e+01 3.861915826797485352e+00 4.318196733947843313e-04 7.170359458541497588e-05 1.510569854872301221e-04 8.636759594082832336e-05
2.220000000000000000e+03 1.327861404418945312e+01 4.511492252349853516e+00 6.597901228815317154e-04 1.166179354186169803e-04 2.329224225832149386e-04 9.122045594267547131e-05
2.221000000000000000e+03 1.198765087127685547e+01 -7.690270900726318359e+00 -2.882559201680123806e-04 -7.595742499688640237e-05 -1.092640013666823506e-04 5.562488804571330547e-04
2.222000000000000000e+03 1.198210144042968750e+01 -8.638313293457031250e+00 5.489999894052743912e-04 -2.312965953024104238e-04 9.531102841719985008e-05 9.050270309671759605e-04
2.223000000000000000e+03 2.322579002380371094e+01 -2.363111972808837891e+00 4.619650077074766159e-03 7.840587139129638672e+00 2.353562116622924805e+00 2.598263025283813477e-01
2.224000000000000000e+03 3.995065689086914062e+00 -3.357485961914062500e+01 -1.483245752751827240e-02 -5.009881686419248581e-03 -5.952701903879642487e-03 -2.298776805400848389e-02
2.225000000000000000e+03 4.004885673522949219e+00 -3.149804878234863281e+01 -2.072663046419620514e-02 -1.361836679279804230e-03 -6.626539863646030426e-03 -1.250614039599895477e-02
2.226000000000000000e+03 2.626255416870117188e+01 3.159534072875976562e+01 2.526710331439971924e-01 7.972743034362792969e+00 2.467624187469482422e+00 -1.406188756227493286e-01
2.227000000000000000e+03 2.460014343261718750e+01 3.188253784179687500e+01 2.689426839351654053e-01 8.129877090454101562e+00 2.519645929336547852e+00 -2.546829879283905029e-01
2.228000000000000000e+03 2.387003326416015625e+01 2.928534698486328125e+01 9.253156185150146484e-02 8.279339790344238281e+00 2.511561632156372070e+00 -1.672714352607727051e-01
2.229000000000000000e+03 1.136627483367919922e+01 4.526975631713867188e+00 -3.401125723030418158e-04 -1.555382623337209225e-04 -1.486952533014118671e-04 -1.265821192646399140e-04
2.230000000000000000e+03 1.282990264892578125e+01 7.252655506134033203e+00 -7.889351691119372845e-04 -6.268526340136304498e-05 -2.554861421231180429e-04 -1.465600653318688273e-04
2.231000000000000000e+03 1.222025966644287109e+01 -5.393293380737304688e+00 -7.432848215103149414e-04 -1.243883452843874693e-04 -2.603019529487937689e-04 1.066395125235430896e-04
2.232000000000000000e+03 1.238577365875244141e+01 3.136431121826171875e+01 -3.819979354739189148e-02 5.492099095135927200e-03 -9.812307544052600861e-03 -2.701306529343128204e-02
2.233000000000000000e+03 1.271154785156250000e+01 5.912811756134033203e+00 -5.947024328634142876e-04 -2.367410197621211410e-04 -2.494330401532351971e-04 -1.570871827425435185e-04
2.234000000000000000e+03 1.266819667816162109e+01 5.229812622070312500e+00 5.611146334558725357e-04 1.983020192710682750e-04 2.278249885421246290e-04 1.046514735207892954e-04
2.235000000000000000e+03 2.441475677490234375e+01 3.043824005126953125e+01 1.641697138547897339e-01 8.216118812561035156e+00 2.514086484909057617e+00 -2.169258892536163330e-01
2.236000000000000000e+03 4.004094123840332031e+00 3.150461196899414062e+01 -1.568292640149593353e-02 -3.157462924718856812e-03 -5.652116611599922180e-03 1.655559986829757690e-02
2.237000000000000000e+03 3.889084815979003906e+00 -3.019595336914062500e+01 -1.657478697597980499e-02 -1.525544095784425735e-03 -5.430099554359912872e-03 -9.176410734653472900e-03
2.238000000000000000e+03 3.827212095260620117e+00 -2.189943313598632812e+01 4.391654860228300095e-03 5.437812069430947304e-04 1.480630715377628803e-03 2.602438617032021284e-04
2.239000000000000000e+03 3.753883361816406250e+00 -9.307743072509765625e+00 1.513285096734762192e-03 2.376619959250092506e-04 5.252841510809957981e-04 6.460570148192346096e-05
2.240000000000000000e+03 3.171983957290649414e+00 -2.505713844299316406e+01 -6.183025427162647247e-03 -1.123732770793139935e-03 -2.192027401179075241e-03 -6.085978238843381405e-04
2.241000000000000000e+03 3.840928077697753906e+00 -2.423225784301757812e+01 -5.838412325829267502e-03 -1.352702849544584751e-03 -2.157334471121430397e-03 -2.000491804210469127e-05
2.242000000000000000e+03 3.787605285644531250e+00 -1.167239284515380859e+01 -1.854155794717371464e-03 -3.045337216462939978e-04 -6.476068519987165928e-04 -4.512789928412530571e-06
2.243000000000000000e+03 3.838730096817016602e+00 -1.874906349182128906e+01 3.682180540636181831e-03 3.744066052604466677e-04 1.216976204887032509e-03 2.147801860701292753e-04
2.244000000000000000e+03 3.837543725967407227e+00 -1.795186042785644531e+01 -3.213216550648212433e-03 -4.368699737824499607e-04 -1.095025916583836079e-03 4.404331266414374113e-04
2.245000000000000000e+03 3.814506053924560547e+00 -1.636707878112792969e+01 -2.914694370701909065e-03 -2.765639801509678364e-04 -9.573775460012257099e-04 2.284090587636455894e-04
2.246000000000000000e+03 3.804395914077758789e+00 -1.557800865173339844e+01 3.092218423262238503e-03 2.480920229572802782e-04 1.002093194983899593e-03 2.372894523432478309e-04
2.247000000000000000e+03 1.138619422912597656e+01 -2.279340171813964844e+01 6.260022986680269241e-03 -1.523047467344440520e-05 1.873437664471566677e-03 -8.072927012108266354e-04
2.248000000000000000e+03 3.827064752578735352e+00 -1.716109657287597656e+01 3.417092841118574142e-03 2.434192429063841701e-04 1.098153647035360336e-03 1.924435637192800641e-04
2.249000000000000000e+03 3.112610816955566406e+00 -1.327403354644775391e+01 2.309498842805624008e-03 3.186734975315630436e-04 7.884516962803900242e-04 2.520447305869311094e-04
2.250000000000000000e+03 3.823272943496704102e+00 -2.112432670593261719e+01 -4.126183222979307175e-03 -7.870657718740403652e-04 -1.473974669352173805e-03 6.158817559480667114e-04
2.251000000000000000e+03 3.863265752792358398e+00 -2.878814888000488281e+01 -1.231504138559103012e-02 -1.916988985612988472e-03 -4.269608762115240097e-03 -5.630868021398782730e-03
2.252000000000000000e+03 3.178952693939208984e+00 -2.582923698425292969e+01 4.396296106278896332e-03 8.114465163089334965e-04 1.562322839163243771e-03 -1.144291600212454796e-04
2.253000000000000000e+03 4.503193378448486328e+00 -2.420816993713378906e+01 4.239153116941452026e-03 5.953029030933976173e-04 1.450336887501180172e-03 -8.324442023877054453e-05
2.254000000000000000e+03 3.851981401443481445e+00 -2.500197982788085938e+01 4.373444244265556335e-03 7.729396456852555275e-04 1.543915132060647011e-03 -1.138786028604954481e-04
2.255000000000000000e+03 3.146784782409667969e+00 -1.957646751403808594e+01 3.728254465386271477e-03 5.205672350712120533e-04 1.274646492674946785e-03 4.675538511946797371e-04
2.256000000000000000e+03 7.593442535400390625e+01 3.378577423095703125e+01 4.253907245583832264e-04 7.645611286163330078e+00 2.293811082839965820e+00 6.006674375385046005e-04
2.257000000000000000e+03 7.493164062500000000e+01 3.388101577758789062e+01 6.934501579962670803e-04 7.652930736541748047e+00 2.296087265014648438e+00 -6.237498018890619278e-05
2.258000000000000000e+03 3.832260370254516602e+00 -1.954864501953125000e+01 -3.562145167961716652e-03 -5.806952831335365772e-04 -1.242852071300148964e-03 5.343286320567131042e-04
2.259000000000000000e+03 3.109615802764892578e+00 -1.248367691040039062e+01 -1.991173485293984413e-03 -2.552551159169524908e-04 -6.739285308867692947e-04 -6.521327304653823376e-05
2.260000000000000000e+03 4.454288005828857422e+00 -1.010262298583984375e+01 1.621651579625904560e-03 2.638360310811549425e-04 5.656462744809687138e-04 1.492351475462783128e-05
2.261000000000000000e+03 3.825189113616943359e+00 -2.034122276306152344e+01 4.068139940500259399e-03 3.858209529425948858e-04 1.336188288405537605e-03 2.482140262145549059e-04
2.262000000000000000e+03 3.796707630157470703e+00 -1.480183124542236328e+01 -2.662963466718792915e-03 -2.974440576508641243e-04 -8.881222456693649292e-04 6.810829654568806291e-05
2.263000000000000000e+03 3.046836614608764648e+00 -7.010043144226074219e+00 1.044004340656101704e-03 1.640349655644968152e-04 3.624118107836693525e-04 7.547643326688557863e-05
2.264000000000000000e+03 3.055971860885620117e+00 -7.791058540344238281e+00 -1.176981953904032707e-03 -1.794839190552011132e-04 -4.069397691637277603e-04 -7.120943337213248014e-05
2.265000000000000000e+03 3.777787208557128906e+00 -1.088183307647705078e+01 1.782627077773213387e-03 2.848454460036009550e-04 6.202417425811290741e-04 8.990662900032475591e-05
2.266000000000000000e+03 3.792598009109497070e+00 -1.402921295166015625e+01 2.657633740454912186e-03 3.065701457671821117e-04 8.892611367627978325e-04 2.258987224195152521e-04
2.267000000000000000e+03 3.858845233917236328e+00 -2.805132293701171875e+01 2.906835870817303658e-03 7.501575746573507786e-04 1.097098109312355518e-03 -2.313099568709731102e-03
2.268000000000000000e+03 3.858319044113159180e+00 -2.730022430419921875e+01 -9.353877045214176178e-03 -1.912445062771439552e-03 -3.379896748811006546e-03 -2.702382393181324005e-03
2.269000000000000000e+03 2.386785125732421875e+01 -5.478123664855957031e+00 -8.303669095039367676e-02 7.790939807891845703e+00 2.312371015548706055e+00 2.378991991281509399e-01
2.270000000000000000e+03 3.747766733169555664e+00 -8.533959388732910156e+00 -1.341616036370396614e-03 -2.128553460352122784e-04 -4.663414147216826677e-04 -2.310718446096871048e-05
2.271000000000000000e+03 2.401944923400878906e+01 -1.534318923950195312e+00 -1.160045620054006577e-02 7.911525249481201172e+00 2.369977474212646484e+00 2.313652187585830688e-01
2.272000000000000000e+03 9.827265739440917969e+00 5.827780246734619141e+00 -2.407938300166279078e-04 -2.131817163899540901e-04 -1.361926551908254623e-04 -9.675811270426493138e-06
2.273000000000000000e+03 8.167973518371582031e+00 -5.355414390563964844e+00 5.043984856456518173e-04 1.736740814521908760e-04 2.034217759501188993e-04 3.217679914087057114e-04
2.274000000000000000e+03 7.522914123535156250e+01 3.009467697143554688e+01 6.076648132875561714e-04 7.651584148406982422e+00 2.295657396316528320e+00 -2.708108222577720881e-04
2.275000000000000000e+03 7.648184967041015625e+01 -2.730324363708496094e+01 -1.807071268558502197e-03 7.880035400390625000e+00 2.363468647003173828e+00 -1.968384347856044769e-02
2.276000000000000000e+03 7.569767761230468750e+01 -2.812011909484863281e+01 -2.719406969845294952e-03 7.876050472259521484e+00 2.361999273300170898e+00 -2.241978421807289124e-02
2.277000000000000000e+03 7.395734405517578125e+01 3.173019981384277344e+01 1.151533680967986584e-03 7.660941600799560547e+00 2.298627853393554688e+00 -3.515397547744214535e-04
2.278000000000000000e+03 3.919373989105224609e+00 2.923635482788085938e+01 7.674384687561541796e-05 -4.714254289865493774e-03 -1.391253201290965080e-03 7.702071219682693481e-03
2.279000000000000000e+03 1.005307579040527344e+01 1.196010971069335938e+01 3.382254508323967457e-04 8.809091013972647488e-06 1.041103678289800882e-04 -1.256913528777658939e-04
2.280000000000000000e+03 1.195962333679199219e+01 9.929718971252441406e+00 5.455702194012701511e-04 3.317573864478617907e-04 2.631982788443565369e-04 1.385438081342726946e-04
2.281000000000000000e+03 1.088004684448242188e+01 1.172188377380371094e+01 4.219483816996216774e-04 1.497670837125042453e-05 1.310775260208174586e-04 -1.425884402124211192e-04
2.282000000000000000e+03 2.551015090942382812e+01 2.286590194702148438e+01 4.175272583961486816e-02 8.159266471862792969e+00 2.460305690765380859e+00 -3.747963160276412964e-02
2.283000000000000000e+03 1.186139774322509766e+01 -1.104510784149169922e+01 1.779434736818075180e-03 1.708118215901777148e-04 5.850739544257521629e-04 -1.933660241775214672e-04
2.284000000000000000e+03 1.188296031951904297e+01 -1.178261470794677734e+01 -1.953718950971961021e-03 -1.152746626758016646e-04 -6.206980906426906586e-04 2.215006970800459385e-04
2.285000000000000000e+03 1.098550224304199219e+01 1.650013542175292969e+01 1.909251092001795769e-03 6.142201600596308708e-04 7.570413290522992611e-04 3.009770007338374853e-04
2.286000000000000000e+03 1.172780227661132812e+01 1.715467643737792969e+01 2.459233393892645836e-03 2.124011662090197206e-04 8.014903287403285503e-04 4.763219913002103567e-04
2.287000000000000000e+03 4.743121147155761719e+00 -3.186876296997070312e+01 -2.898834273219108582e-02 4.678991623222827911e-03 -7.292805239558219910e-03 -1.117485109716653824e-02
2.288000000000000000e+03 1.257300186157226562e+01 2.012517356872558594e+01 -2.814203966408967972e-03 -3.558132739271968603e-04 -9.510052041150629520e-04 4.579122760333120823e-04
2.289000000000000000e+03 1.216344833374023438e+01 -4.798690319061279297e+00 8.319951593875885010e-04 1.078877903637476265e-05 2.528351906221359968e-04 -4.727104533230885863e-05
2.290000000000000000e+03 2.391167259216308594e+01 2.672478675842285156e+01 3.424511104822158813e-02 8.235135078430175781e+00 2.480813980102539062e+00 -8.390100300312042236e-02
2.291000000000000000e+03 7.566939544677734375e+01 -2.654597282409667969e+01 -2.474732929840683937e-03 7.869184970855712891e+00 2.360013008117675781e+00 -2.401063963770866394e-02
2.292000000000000000e+03 4.500355720520019531e+00 -3.398947143554687500e+01 -9.943707846105098724e-03 -5.360879469662904739e-03 -4.591376055032014847e-03 -1.969671994447708130e-02
2.293000000000000000e+03 1.193695831298828125e+01 -1.555816650390625000e+01 3.559183329343795776e-03 -9.018541459226980805e-05 1.040699426084756851e-03 -7.988895522430539131e-04
2.294000000000000000e+03 1.151285362243652344e+01 -8.061553001403808594e+00 -1.288841740461066365e-04 -1.174228782474528998e-05 -4.218793765176087618e-05 -8.399229263886809349e-04
2.295000000000000000e+03 1.074123287200927734e+01 -9.327109336853027344e+00 8.210430387407541275e-04 -2.801648515742272139e-04 1.622634445084258914e-04 3.901482268702238798e-04
2.296000000000000000e+03 2.437984657287597656e+01 6.544229507446289062e+00 1.624192446470260620e-01 8.213249206542968750e+00 2.512700557708740234e+00 1.775660365819931030e-01
2.297000000000000000e+03 7.616469573974609375e+01 -3.199870109558105469e+01 -3.807077649980783463e-03 7.896064281463623047e+00 2.367677211761474609e+00 -1.625099219381809235e-02
2.298000000000000000e+03 7.564211273193359375e+01 2.373018836975097656e+01 1.358255045488476753e-03 7.650483608245849609e+00 2.295552730560302734e+00 -3.034671768546104431e-03
2.299000000000000000e+03 7.560820007324218750e+01 2.449932098388671875e+01 1.594595727510750294e-03 7.650375366210937500e+00 2.295591115951538086e+00 -2.763162367045879364e-03
2.300000000000000000e+03 2.522003555297851562e+01 1.616081237792968750e+01 3.112106956541538239e-02 8.173472404479980469e+00 2.461378097534179688e+00 3.087261505424976349e-02
2.301000000000000000e+03 2.385377311706542969e+01 2.185437583923339844e+01 1.333349756896495819e-02 8.199825286865234375e+00 2.463947534561157227e+00 -2.039857394993305206e-02
2.302000000000000000e+03 2.445498085021972656e+01 1.537751483917236328e+01 2.508514001965522766e-02 8.195487022399902344e+00 2.466171741485595703e+00 3.555168956518173218e-02
2.303000000000000000e+03 7.574539947509765625e+01 2.220054817199707031e+01 1.658383524045348167e-03 7.651163101196289062e+00 2.295846462249755859e+00 -4.062740132212638855e-03
2.304000000000000000e+03 7.590079498291015625e+01 -2.095297622680664062e+01 -1.140683656558394432e-03 7.842035293579101562e+00 2.352268457412719727e+00 -2.763234823942184448e-02
2.305000000000000000e+03 7.651972198486328125e+01 1.990911102294921875e+01 1.182671054266393185e-03 7.648151397705078125e+00 2.294800281524658203e+00 -4.969243891537189484e-03
2.306000000000000000e+03 1.179006385803222656e+01 -1.715104484558105469e+01 3.996523562818765640e-03 2.401054807705804706e-04 1.270988723263144493e-03 -1.206321408972144127e-03
2.307000000000000000e+03 7.592439270019531250e+01 -1.693221473693847656e+01 -1.030493411235511303e-03 7.818574905395507812e+00 2.345263481140136719e+00 -2.985779196023941040e-02
2.308000000000000000e+03 7.573442840576171875e+01 1.900256919860839844e+01 1.963153947144746780e-03 7.654672145843505859e+00 2.296990633010864258e+00 -6.643389817327260971e-03
2.309000000000000000e+03 7.580041503906250000e+01 1.658926010131835938e+01 2.416856121271848679e-03 7.658358097076416016e+00 2.298232555389404297e+00 -9.185917675495147705e-03
2.310000000000000000e+03 2.395287322998046875e+01 2.843118667602539062e+01 6.252314895391464233e-02 8.256179809570312500e+00 2.495610952377319336e+00 -1.280718296766281128e-01
2.311000000000000000e+03 2.598849678039550781e+01 2.786311531066894531e+01 1.077277362346649170e-01 8.124776840209960938e+00 2.469751596450805664e+00 -1.117802858352661133e-01
2.312000000000000000e+03 2.441967582702636719e+01 8.968121528625488281e+00 8.533235639333724976e-02 8.241469383239746094e+00 2.498040437698364258e+00 1.360104978084564209e-01
2.313000000000000000e+03 7.635635375976562500e+01 2.704215431213378906e+01 8.250237442553043365e-04 7.644119262695312500e+00 2.293483257293701172e+00 -1.186339417472481728e-03
2.314000000000000000e+03 7.473841094970703125e+01 2.434268379211425781e+01 2.017096150666475296e-03 7.656255245208740234e+00 2.297481775283813477e+00 -3.164732130244374275e-03
2.315000000000000000e+03 1.134787178039550781e+01 -2.351759529113769531e+01 -6.533737760037183762e-03 -1.152081531472504139e-03 -2.305745845660567284e-03 3.049276128876954317e-04
2.316000000000000000e+03 7.588802337646484375e+01 1.187516975402832031e+01 2.523226663470268250e-03 7.668943881988525391e+00 2.301440000534057617e+00 -1.394381560385227203e-02
2.317000000000000000e+03 7.591828155517578125e+01 7.879602432250976562e+00 2.212862716987729073e-03 7.681866645812988281e+00 2.305223941802978516e+00 -1.783210411667823792e-02
2.318000000000000000e+03 2.483502960205078125e+01 2.855305099487304688e+01 1.022567525506019592e-01 8.199101448059082031e+00 2.490407466888427734e+00 -1.435945183038711548e-01
2.319000000000000000e+03 2.382938385009765625e+01 2.022827911376953125e+01 1.187064778059720993e-02 8.195957183837890625e+00 2.462348222732543945e+00 -6.918536499142646790e-03
2.320000000000000000e+03 7.585515594482421875e+01 1.501059818267822266e+01 2.432920038700103760e-03 7.661262512207031250e+00 2.299108743667602539e+00 -1.068948674947023392e-02
2.321000000000000000e+03 7.657260894775390625e+01 1.669725990295410156e+01 1.449620001949369907e-03 7.652853488922119141e+00 2.296291112899780273e+00 -7.401870563626289368e-03
2.322000000000000000e+03 7.577431488037109375e+01 1.738596534729003906e+01 2.148667350411415100e-03 7.656987190246582031e+00 2.297740697860717773e+00 -8.197630755603313446e-03
2.323000000000000000e+03 2.467054557800292969e+01 2.275842857360839844e+01 2.357914671301841736e-02 8.183883666992187500e+00 2.462238788604736328e+00 -3.234023600816726685e-02
2.324000000000000000e+03 7.655397033691406250e+01 1.749708747863769531e+01 1.668217475526034832e-03 7.651592731475830078e+00 2.295978307723999023e+00 -6.943312939256429672e-03
2.325000000000000000e+03 7.575130462646484375e+01 1.818963623046875000e+01 2.353536430746316910e-03 7.655924320220947266e+00 2.297483444213867188e+00 -7.666285149753093719e-03
2.326000000000000000e+03 2.515696525573730469e+01 8.974210739135742188e+00 9.851381927728652954e-02 8.195265769958496094e+00 2.488133907318115234e+00 1.327583640813827515e-01
2.327000000000000000e+03 2.442856216430664062e+01 9.772967338562011719e+00 6.734538823366165161e-02 8.238371849060058594e+00 2.491715192794799805e+00 1.176037415862083435e-01
2.328000000000000000e+03 2.368674659729003906e+01 8.948444366455078125e+00 6.621265411376953125e-02 8.289920806884765625e+00 2.506839990615844727e+00 1.308459341526031494e-01
2.329000000000000000e+03 2.513614654541015625e+01 7.370920658111572266e+00 1.413394510746002197e-01 8.175444602966308594e+00 2.495035409927368164e+00 1.546036601066589355e-01
2.330000000000000000e+03 1.129603576660156250e+01 -2.425308036804199219e+01 6.053521297872066498e-03 3.904594341292977333e-04 1.933194231241941452e-03 -9.631543653085827827e-04
2.331000000000000000e+03 7.665779113769531250e+01 -1.850163269042968750e+01 -4.435222363099455833e-04 7.832250595092773438e+00 2.349542140960693359e+00 -2.437068894505500793e-02
2.332000000000000000e+03 7.597186279296875000e+01 -1.374691104888916016e+01 -4.622254346031695604e-04 7.799068927764892578e+00 2.339581966400146484e+00 -3.017408587038516998e-02
2.333000000000000000e+03 7.648709106445312500e+01 2.309947967529296875e+01 9.723195689730346203e-04 7.645078182220458984e+00 2.293815135955810547e+00 -2.823234070092439651e-03
2.334000000000000000e+03 7.569647979736328125e+01 2.297317504882812500e+01 1.843255711719393730e-03 7.650808811187744141e+00 2.295795679092407227e+00 -3.762257983908057213e-03
2.335000000000000000e+03 7.560994720458984375e+01 -2.886979675292968750e+01 -2.658151788637042046e-03 7.878111839294433594e+00 2.362636089324951172e+00 -2.172225154936313629e-02
2.336000000000000000e+03 7.588343811035156250e+01 1.108047580718994141e+01 2.226112876087427139e-03 7.671312332153320312e+00 2.302061557769775391e+00 -1.456403639167547226e-02
2.337000000000000000e+03 5.784742832183837891e+00 -1.636156272888183594e+01 3.927110228687524796e-03 -2.906169393099844456e-04 1.090947887860238552e-03 4.092325980309396982e-04
2.338000000000000000e+03 1.165247249603271484e+01 -1.894263267517089844e+01 4.906809423118829727e-03 -2.273861609864979982e-04 1.403826870955526829e-03 -8.929881150834262371e-04
2.339000000000000000e+03 7.653384399414062500e+01 -2.491412162780761719e+01 -1.295334310270845890e-03 7.868916988372802734e+00 2.360286474227905273e+00 -2.107726596295833588e-02
2.340000000000000000e+03 7.594567108154296875e+01 6.906487941741943359e-01 1.763185486197471619e-03 7.713780879974365234e+00 2.314663171768188477e+00 -2.464830130338668823e-02
2.341000000000000000e+03 7.595740509033203125e+01 -7.374849319458007812e+00 6.166041130200028419e-04 7.759443283081054688e+00 2.328017950057983398e+00 -2.933112718164920807e-02
2.342000000000000000e+03 7.594420623779296875e+01 4.706959724426269531e+00 2.046900335699319839e-03 7.694650173187255859e+00 2.309009075164794922e+00 -2.094143815338611603e-02
2.343000000000000000e+03 7.664277648925781250e+01 9.545401573181152344e+00 1.703999005258083344e-03 7.671940326690673828e+00 2.302093267440795898e+00 -1.376646384596824646e-02
2.344000000000000000e+03 7.669080352783203125e+01 -5.701622486114501953e+00 7.649565231986343861e-04 7.749089717864990234e+00 2.324956417083740234e+00 -2.407606318593025208e-02
2.345000000000000000e+03 7.594454956054687500e+01 -5.762433052062988281e+00 8.801473304629325867e-04 7.749724388122558594e+00 2.325181484222412109e+00 -2.877358719706535339e-02
2.346000000000000000e+03 7.596008300781250000e+01 -8.169171333312988281e+00 7.867449312470853329e-04 7.764223098754882812e+00 2.329502820968627930e+00 -2.943260967731475830e-02
2.347000000000000000e+03 2.446927642822265625e+01 1.618234825134277344e+01 1.954158209264278412e-02 8.191477775573730469e+00 2.463305711746215820e+00 2.791042998433113098e-02
2.348000000000000000e+03 7.593917083740234375e+01 -2.526986360549926758e+00 1.363365096040070057e-03 7.731019020080566406e+00 2.319714784622192383e+00 -2.703106030821800232e-02
2.349000000000000000e+03 7.595179748535156250e+01 -6.572313308715820312e+00 9.771144250407814980e-04 7.754529953002929688e+00 2.326652050018310547e+00 -2.894399315118789673e-02
2.350000000000000000e+03 7.588591766357421875e+01 1.028606128692626953e+01 2.455725800246000290e-03 7.673773288726806641e+00 2.302868843078613281e+00 -1.558609120547771454e-02
2.351000000000000000e+03 2.370104789733886719e+01 1.295768642425537109e+01 2.498568221926689148e-02 8.235202789306640625e+00 2.478056430816650391e+00 5.641419440507888794e-02
2.352000000000000000e+03 2.444676017761230469e+01 1.457444095611572266e+01 2.401118166744709015e-02 8.201247215270996094e+00 2.467577457427978516e+00 4.406489059329032898e-02
2.353000000000000000e+03 7.576128387451171875e+01 2.140860176086425781e+01 2.057217527180910110e-03 7.651854038238525391e+00 2.296173334121704102e+00 -4.943093284964561462e-03
2.354000000000000000e+03 7.596646881103515625e+01 -9.753582954406738281e+00 5.937619716860353947e-04 7.773998260498046875e+00 2.332377672195434570e+00 -2.976140566170215607e-02
2.355000000000000000e+03 2.443447113037109375e+01 1.057378482818603516e+01 5.671527236700057983e-02 8.233017921447753906e+00 2.486919879913330078e+00 1.021761447191238403e-01
2.356000000000000000e+03 2.444176483154296875e+01 1.216888904571533203e+01 4.018725454807281494e-02 8.219630241394042969e+00 2.477945327758789062e+00 7.498172670602798462e-02
2.357000000000000000e+03 7.670032501220703125e+01 -1.290141105651855469e+01 -2.606396446935832500e-04 7.796019077301025391e+00 2.338727474212646484e+00 -2.552501671016216278e-02
2.358000000000000000e+03 7.596607971191406250e+01 -1.455137157440185547e+01 -4.986751810065470636e-05 7.803925991058349609e+00 2.341162919998168945e+00 -2.985812537372112274e-02
2.359000000000000000e+03 7.668698883056640625e+01 -4.090631484985351562e+00 8.893570629879832268e-04 7.739105701446533203e+00 2.321998596191406250e+00 -2.342429384589195251e-02
2.360000000000000000e+03 7.593919372558593750e+01 -4.147653102874755859e+00 1.130389049649238586e-03 7.740247249603271484e+00 2.322413206100463867e+00 -2.800542674958705902e-02
2.361000000000000000e+03 7.593892669677734375e+01 -3.339940309524536133e+00 1.359181012958288193e-03 7.735551834106445312e+00 2.321073293685913086e+00 -2.741829864680767059e-02
2.362000000000000000e+03 7.668103027343750000e+01 3.147852897644042969e+00 1.413454068824648857e-03 7.698916912078857422e+00 2.310099124908447266e+00 -1.903604157269001007e-02
2.363000000000000000e+03 7.594195556640625000e+01 3.110243797302246094e+00 1.939152018167078495e-03 7.701914787292480469e+00 2.311156272888183594e+00 -2.245489135384559631e-02
2.364000000000000000e+03 7.594253540039062500e+01 3.907143354415893555e+00 2.100489800795912743e-03 7.698264598846435547e+00 2.310109615325927734e+00 -2.190181054174900055e-02
2.365000000000000000e+03 7.620899963378906250e+01 2.944583511352539062e+01 3.707738360390067101e-04 7.644601821899414062e+00 2.293491601943969727e+00 -4.401236947160214186e-04
2.366000000000000000e+03 7.510694122314453125e+01 3.095889854431152344e+01 1.034219283610582352e-03 7.652665138244628906e+00 2.296109914779663086e+00 -4.044960951432585716e-04
2.367000000000000000e+03 7.664649963378906250e+01 -2.010568618774414062e+01 -6.281615351326763630e-04 7.842102050781250000e+00 2.352442264556884766e+00 -2.375320717692375183e-02
2.368000000000000000e+03 7.588853454589843750e+01 -2.175736999511718750e+01 -1.948519027791917324e-03 7.846558094024658203e+00 2.353382825851440430e+00 -2.766898646950721741e-02
2.369000000000000000e+03 7.582225036621093750e+01 -2.414149856567382812e+01 -1.916144625283777714e-03 7.858541488647460938e+00 2.356987476348876953e+00 -2.572341077029705048e-02
2.370000000000000000e+03 7.597417449951171875e+01 -1.294638919830322266e+01 1.925019023474305868e-04 7.793920516967773438e+00 2.338233947753906250e+00 -2.997084148228168488e-02
2.371000000000000000e+03 7.594412994384765625e+01 5.508915424346923828e+00 2.227593446150422096e-03 7.691231250762939453e+00 2.308037757873535156e+00 -2.035302296280860901e-02
2.372000000000000000e+03 7.593902587890625000e+01 -1.710593581199645996e+00 1.534142997115850449e-03 7.726440429687500000e+00 2.318392276763916016e+00 -2.635851129889488220e-02
2.373000000000000000e+03 7.590333557128906250e+01 -1.854202651977539062e+01 -1.275520189665257931e-03 7.828128337860107422e+00 2.348055839538574219e+00 -2.932919934391975403e-02
2.374000000000000000e+03 7.590304565429687500e+01 -2.015073776245117188e+01 -1.536945928819477558e-03 7.837532043457031250e+00 2.350798606872558594e+00 -2.849001809954643250e-02
2.375000000000000000e+03 3.732126474380493164e+00 3.325726699829101562e+01 -2.327847993001341820e-03 -1.189824659377336502e-02 -4.267828539013862610e-03 2.185518108308315277e-02
2.376000000000000000e+03 7.648519134521484375e+01 -2.650500679016113281e+01 -1.163561479188501835e-03 7.876483917236328125e+00 2.362596035003662109e+00 -2.002023532986640930e-02
2.377000000000000000e+03 7.594569396972656250e+01 -1.099979579448699951e-01 1.677513122558593750e-03 7.717871665954589844e+00 2.315864801406860352e+00 -2.514602802693843842e-02
2.378000000000000000e+03 7.594143676757812500e+01 -9.050440192222595215e-01 1.573786372318863869e-03 7.722126007080078125e+00 2.317109823226928711e+00 -2.588814869523048401e-02
2.379000000000000000e+03 7.596288299560546875e+01 -8.960699081420898438e+00 3.555893490556627512e-04 7.769168376922607422e+00 2.330857276916503906e+00 -2.976981364190578461e-02
2.380000000000000000e+03 7.593015289306640625e+01 7.086985111236572266e+00 2.333995420485734940e-03 7.684893608093261719e+00 2.306168317794799805e+00 -1.882228441536426544e-02
2.381000000000000000e+03 7.593917083740234375e+01 6.301332950592041016e+00 2.126258332282304764e-03 7.687911033630371094e+00 2.307011127471923828e+00 -1.936984993517398834e-02
2.382000000000000000e+03 2.467035675048828125e+01 2.110600471496582031e+01 1.994053274393081665e-02 8.179773330688476562e+00 2.459914207458496094e+00 -1.535876467823982239e-02
2.383000000000000000e+03 2.439429855346679688e+01 7.353035449981689453e+00 1.328088492155075073e-01 8.232104301452636719e+00 2.509473800659179688e+00 1.690480411052703857e-01
2.384000000000000000e+03 7.589361572265625000e+01 1.266690063476562500e+01 2.261906862258911133e-03 7.666690349578857422e+00 2.300685644149780273e+00 -1.280139014124870300e-02
2.385000000000000000e+03 3.940952777862548828e+00 2.518463897705078125e+01 -6.468451116234064102e-03 3.561290504876524210e-04 -1.833696733228862286e-03 3.709083423018455505e-03
2.386000000000000000e+03 7.587644958496093750e+01 1.423214817047119141e+01 2.202809322625398636e-03 7.662775993347167969e+00 2.299493789672851562e+00 -1.115401461720466614e-02
2.387000000000000000e+03 7.589047241210937500e+01 1.345231628417968750e+01 2.524157520383596420e-03 7.664707183837890625e+00 2.300169229507446289e+00 -1.225447282195091248e-02
2.388000000000000000e+03 7.569409942626953125e+01 -2.734928512573242188e+01 -1.934606232680380344e-03 7.872884273529052734e+00 2.361284971237182617e+00 -2.278458699584007263e-02
2.389000000000000000e+03 2.304641342163085938e+01 -9.491804122924804688e+00 4.570139944553375244e-02 7.694558620452880859e+00 2.322077989578247070e+00 2.764270305633544922e-01
2.390000000000000000e+03 7.573259735107421875e+01 1.981213378906250000e+01 1.990186749026179314e-03 7.653846263885498047e+00 2.296751022338867188e+00 -6.117149256169795990e-03
2.391000000000000000e+03 3.264244794845581055e+00 2.849736022949218750e+01 1.706837094388902187e-03 -4.369320347905158997e-03 -7.987449062056839466e-04 4.892683587968349457e-03
2.392000000000000000e+03 7.594100189208984375e+01 -1.613884735107421875e+01 -3.043996694032102823e-04 7.813695430755615234e+00 2.344017267227172852e+00 -2.961713634431362152e-02
2.393000000000000000e+03 1.158569049835205078e+01 -2.786108207702636719e+01 7.616797927767038345e-03 -6.792886415496468544e-04 2.081252867355942726e-03 -1.252101035788655281e-03
2.394000000000000000e+03 2.453356742858886719e+01 1.780032920837402344e+01 1.774253509938716888e-02 8.184075355529785156e+00 2.460545539855957031e+00 1.340853609144687653e-02
2.395000000000000000e+03 2.472052955627441406e+01 2.599878501892089844e+01 4.372179880738258362e-02 8.194334030151367188e+00 2.471416711807250977e+00 -7.812518626451492310e-02
2.396000000000000000e+03 4.610437393188476562e+00 2.677105140686035156e+01 1.052150037139654160e-03 -2.895835321396589279e-03 -5.531056085601449013e-04 7.620115648023784161e-04
2.397000000000000000e+03 3.277154207229614258e+00 2.206281852722167969e+01 1.950517646037042141e-03 4.380100872367620468e-04 7.165583083406090736e-04 -1.789171248674392700e-03
2.398000000000000000e+03 4.005149841308593750e+00 2.197626686096191406e+01 -2.522971481084823608e-03 -1.065732212737202644e-03 -1.076611108146607876e-03 1.453618635423481464e-03
2.399000000000000000e+03 3.929870367050170898e+00 1.092543601989746094e+01 -8.395364857278764248e-04 -2.189025872212368995e-05 -2.584280155133455992e-04 1.586232392583042383e-04
2.400000000000000000e+03 2.458380126953125000e+01 1.862143898010253906e+01 2.254652604460716248e-02 8.181299209594726562e+00 2.461153745651245117e+00 5.845630075782537460e-03
2.401000000000000000e+03 7.584638977050781250e+01 -2.335127258300781250e+01 -2.000392414629459381e-03 7.854807853698730469e+00 2.355842113494873047e+00 -2.636812999844551086e-02
2.402000000000000000e+03 3.889362812042236328e+00 2.842880439758300781e+01 -1.223499048501253128e-02 1.064051641151309013e-03 -3.351281629875302315e-03 7.565374020487070084e-03
2.403000000000000000e+03 3.258074998855590820e+00 2.606383514404296875e+01 -6.691261194646358490e-03 -6.445563485613092780e-05 -2.026715083047747612e-03 4.031477030366659164e-03
2.404000000000000000e+03 3.889788389205932617e+00 1.560836791992187500e+01 -1.498612924478948116e-03 -4.177550363237969577e-05 -4.621165280696004629e-04 -2.110918430844321847e-04
2.405000000000000000e+03 1.202097225189208984e+01 -2.132539176940917969e+01 -6.049103103578090668e-03 5.687635275535285473e-04 -1.644101925194263458e-03 -3.862133889924734831e-04
2.406000000000000000e+03 3.934574127197265625e+00 1.715092277526855469e+01 -1.422073575668036938e-03 -2.177491987822577357e-04 -4.919468192383646965e-04 -6.810792547184973955e-05
2.407000000000000000e+03 4.618515491485595703e+00 1.867649841308593750e+01 2.070664195343852043e-03 -9.068634826689958572e-04 3.491402312647551298e-04 -4.507244739215821028e-04
2.408000000000000000e+03 3.274278402328491211e+00 2.125552749633789062e+01 -2.128989202901721001e-03 -6.275923224166035652e-04 -8.269744575954973698e-04 8.450358873233199120e-04
2.409000000000000000e+03 3.874808549880981445e+00 1.332611370086669922e+01 1.428220304660499096e-03 -1.985289418371394277e-04 3.689074073918163776e-04 -3.991804551333189011e-04
2.410000000000000000e+03 3.155887603759765625e+00 8.557634353637695312e+00 -6.937306025065481663e-04 -5.671732651535421610e-06 -2.098207041854038835e-04 1.729221985442563891e-04
2.411000000000000000e+03 3.876004934310913086e+00 8.496509552001953125e+00 7.930100546218454838e-04 6.250367732718586922e-06 2.397781208856031299e-04 -2.685674990061670542e-04
2.412000000000000000e+03 3.996986865997314453e+00 6.194304943084716797e+00 -4.696069227065891027e-04 2.758869959507137537e-04 -5.811598020954988897e-05 -1.161809268523938954e-04
2.413000000000000000e+03 3.938255786895751953e+00 1.794155311584472656e+01 1.924249925650656223e-03 1.285418420593487099e-05 5.811312585137784481e-04 -8.057839586399495602e-04
2.414000000000000000e+03 3.878908872604370117e+00 1.410279273986816406e+01 -1.354785636067390442e-03 2.082381688524037600e-04 -3.439642605371773243e-04 7.653004286112263799e-05
2.415000000000000000e+03 7.574724578857421875e+01 2.061187744140625000e+01 1.654320512898266315e-03 7.652784347534179688e+00 2.296331644058227539e+00 -5.392226390540599823e-03
2.416000000000000000e+03 3.923622369766235352e+00 1.636777114868164062e+01 1.763836597092449665e-03 2.342029256396926939e-05 5.361770745366811752e-04 -4.994308110326528549e-04
2.417000000000000000e+03 4.753682613372802734e+00 3.387170410156250000e+01 -6.100411526858806610e-03 -6.585473194718360901e-03 -3.805765416473150253e-03 2.611062303185462952e-02
2.418000000000000000e+03 4.477782726287841797e+00 3.299626541137695312e+01 -1.785657368600368500e-02 -2.948378445580601692e-03 -6.241485476493835449e-03 2.548719756305217743e-02
2.419000000000000000e+03 3.958967685699462891e+00 2.438299560546875000e+01 2.055792370811104774e-03 -1.270576030947268009e-03 2.355649194214493036e-04 -1.517386757768690586e-03
2.420000000000000000e+03 3.888494968414306641e+00 9.287861824035644531e+00 -8.035040809772908688e-04 3.616479443735443056e-05 -2.302017819602042437e-04 1.727745984680950642e-04
2.421000000000000000e+03 3.980256080627441406e+00 2.357774925231933594e+01 -4.197857342660427094e-03 -3.164768568240106106e-04 -1.354300184175372124e-03 2.572520170360803604e-03
2.422000000000000000e+03 7.533226776123046875e+01 2.926279067993164062e+01 1.184966531582176685e-03 7.650934219360351562e+00 2.295635700225830078e+00 -8.553806692361831665e-04
2.423000000000000000e+03 7.547727203369140625e+01 2.767216110229492188e+01 1.069364487193524837e-03 7.650169849395751953e+00 2.295371770858764648e+00 -1.210934249684214592e-03
2.424000000000000000e+03 2.465162086486816406e+01 2.436491203308105469e+01 2.925552427768707275e-02 8.191437721252441406e+00 2.466207981109619141e+00 -5.028737708926200867e-02
2.425000000000000000e+03 3.908796787261962891e+00 1.009903907775878906e+01 9.298790828324854374e-04 -1.045469730343029369e-06 2.786500845104455948e-04 -2.538797853048890829e-04
2.426000000000000000e+03 7.515547180175781250e+01 3.482437896728515625e+01 3.413055092096328735e-04 7.650537490844726562e+00 2.295263528823852539e+00 4.841315676458179951e-04
2.427000000000000000e+03 7.559172058105468750e+01 2.528706359863281250e+01 1.113550039008259773e-03 7.650015830993652344e+00 2.295338869094848633e+00 -2.081046579405665398e-03
2.428000000000000000e+03 5.979964733123779297e+00 -3.522049713134765625e+01 -4.326046444475650787e-03 1.998432353138923645e-02 4.697483498603105545e-03 -4.906124249100685120e-02
2.429000000000000000e+03 4.468703746795654297e+00 -3.311590576171875000e+01 -2.917066914960741997e-03 5.288153770379722118e-04 -7.164754206314682961e-04 -2.283440344035625458e-02
2.430000000000000000e+03 2.469428062438964844e+01 2.681260681152343750e+01 6.598570942878723145e-02 8.198583602905273438e+00 2.479370832443237305e+00 -9.532669931650161743e-02
2.431000000000000000e+03 5.041197299957275391e+00 3.483563995361328125e+01 -1.733566448092460632e-02 -7.926859543658792973e-04 -5.438505206257104874e-03 3.540739044547080994e-02
2.432000000000000000e+03 4.109855175018310547e+00 3.507989883422851562e+01 -3.188555710949003696e-04 -1.719861663877964020e-02 -5.255241878330707550e-03 3.014596365392208099e-02
2.433000000000000000e+03 3.848662614822387695e+00 6.885472774505615234e+00 5.610480438917875290e-04 -2.076988130284007639e-05 1.620834518689662218e-04 -1.381993934046477079e-04
2.434000000000000000e+03 1.278711891174316406e+01 6.581331729888916016e+00 7.698406116105616093e-04 1.755116973072290421e-04 2.836057101376354694e-04 2.335245662834495306e-04
2.435000000000000000e+03 1.052482700347900391e+01 5.919260025024414062e+00 2.814126783050596714e-04 2.522324502933770418e-04 1.600935356691479683e-04 6.297023355728015304e-05
2.436000000000000000e+03 3.854491233825683594e+00 7.701959609985351562e+00 -6.100187893025577068e-04 -3.930281673092395067e-05 -1.947964919963851571e-04 1.515854237368330359e-04
2.437000000000000000e+03 2.372811126708984375e+01 -2.169158363342285156e+01 -9.499585628509521484e-02 7.376073837280273438e+00 2.184323310852050781e+00 2.127455621957778931e-01
2.438000000000000000e+03 2.444766998291015625e+01 -2.549670982360839844e+01 -3.606734424829483032e-02 7.383741378784179688e+00 2.204302310943603516e+00 2.081217765808105469e-01
2.439000000000000000e+03 3.987607479095458984e+00 3.084409523010253906e+01 -2.323196735233068466e-03 -8.246907033026218414e-03 -3.171031130477786064e-03 1.573969423770904541e-02
2.440000000000000000e+03 7.447595977783203125e+01 -2.947612571716308594e+01 -3.778707236051559448e-03 7.869578838348388672e+00 2.359740018844604492e+00 -2.492333762347698212e-02
2.441000000000000000e+03 7.490985870361328125e+01 3.285504531860351562e+01 7.348381914198398590e-04 7.653812408447265625e+00 2.296364307403564453e+00 -1.757719437591731548e-04
2.442000000000000000e+03 2.432443046569824219e+01 4.097604751586914062e+00 1.876881569623947144e-01 8.141695022583007812e+00 2.498815059661865234e+00 1.488690972328186035e-01
2.443000000000000000e+03 1.154607963562011719e+01 2.695087432861328125e+01 -6.039849482476711273e-03 -7.058805786073207855e-04 -2.023719018325209618e-03 -6.008911877870559692e-03
2.444000000000000000e+03 2.384013938903808594e+01 -9.452249526977539062e+00 3.940497711300849915e-02 7.697322845458984375e+00 2.321018457412719727e+00 2.715554237365722656e-01
2.445000000000000000e+03 2.392152214050292969e+01 -3.906285047531127930e+00 -5.044995993375778198e-02 7.818721294403076172e+00 2.330481529235839844e+00 2.136715501546859741e-01
2.446000000000000000e+03 4.922199249267578125e+00 -3.291252899169921875e+01 -3.054383024573326111e-02 3.913097549229860306e-03 -7.989220321178436279e-03 -7.667350582778453827e-03
2.447000000000000000e+03 1.174222373962402344e+01 -3.000971984863281250e+01 7.885548286139965057e-03 -5.525641143321990967e-03 7.079719798639416695e-04 7.003833539783954620e-03
2.448000000000000000e+03 2.294617080688476562e+01 -1.359452438354492188e+01 1.329462677240371704e-01 7.608624935150146484e+00 2.322471380233764648e+00 2.485075891017913818e-01
2.449000000000000000e+03 2.379966735839843750e+01 -1.192891979217529297e+01 8.937112241983413696e-02 7.645361423492431641e+00 2.320419788360595703e+00 2.486974000930786133e-01
2.450000000000000000e+03 1.086299228668212891e+01 1.426336479187011719e+01 2.183862496167421341e-03 2.173756947740912437e-04 7.203714339993894100e-04 5.672632687492296100e-05
2.451000000000000000e+03 2.420923995971679688e+01 1.643956542015075684e+00 5.199836567044258118e-02 8.080929756164550781e+00 2.439878463745117188e+00 1.515747606754302979e-01
2.452000000000000000e+03 1.205193901062011719e+01 1.317556476593017578e+01 1.150773823610506952e-04 2.710356784518808126e-04 1.158339218818582594e-04 -2.885584835894405842e-04
2.453000000000000000e+03 1.130561542510986328e+01 1.269525718688964844e+01 5.496597441378980875e-05 -4.524947144091129303e-04 -1.192586205434054136e-04 4.109712899662554264e-04
2.454000000000000000e+03 2.370127677917480469e+01 -1.521792793273925781e+01 4.972407594323158264e-02 7.548430442810058594e+00 2.279446363449096680e+00 1.732383519411087036e-01
2.455000000000000000e+03 2.381853675842285156e+01 -1.109807395935058594e+01 7.976227253675460815e-02 7.668764114379882812e+00 2.324558019638061523e+00 2.559321224689483643e-01
2.456000000000000000e+03 1.255983066558837891e+01 -1.969850730895996094e+01 5.350072402507066727e-03 -9.646607213653624058e-05 1.576081966049969196e-03 -1.007715705782175064e-03
2.457000000000000000e+03 1.203103446960449219e+01 1.460228157043457031e+01 2.402876270934939384e-03 7.746867486275732517e-04 9.532689000479876995e-04 -1.167198206530883908e-04
2.458000000000000000e+03 1.126151180267333984e+01 1.491970157623291016e+01 -1.729572541080415249e-03 -7.666184101253747940e-04 -7.488572737202048302e-04 2.289857948198914528e-04
2.459000000000000000e+03 1.142407989501953125e+01 2.382815361022949219e+01 5.235075368545949459e-04 -1.562548131914809346e-04 1.101758170989342034e-04 -1.112815691158175468e-03
2.460000000000000000e+03 1.208723831176757812e+01 2.312677192687988281e+01 2.001990564167499542e-03 3.439785796217620373e-04 7.037906907498836517e-04 -1.644577132537961006e-04
2.461000000000000000e+03 2.271167755126953125e+01 -1.923419570922851562e+01 -1.281136125326156616e-01 7.386238574981689453e+00 2.177437543869018555e+00 2.379259616136550903e-01
2.462000000000000000e+03 2.383375740051269531e+01 -1.027210426330566406e+01 5.690801516175270081e-02 7.680464267730712891e+00 2.321211576461791992e+00 2.625435888767242432e-01
2.463000000000000000e+03 1.345986938476562500e+01 3.216307067871093750e+01 -4.571852087974548340e-02 1.091084908694028854e-03 -1.338823046535253525e-02 -3.760287538170814514e-02
2.464000000000000000e+03 5.315039157867431641e+00 3.590781784057617188e+01 -5.016771610826253891e-04 -1.058628596365451813e-02 -3.326389007270336151e-03 3.681397810578346252e-02
2.465000000000000000e+03 2.395101356506347656e+01 -3.116627216339111328e+00 -2.668272890150547028e-02 7.841924667358398438e+00 2.344572544097900391e+00 2.171926796436309814e-01
2.466000000000000000e+03 2.425519371032714844e+01 2.456691980361938477e+00 1.039003133773803711e-01 8.101828575134277344e+00 2.461718559265136719e+00 1.350125670433044434e-01
2.467000000000000000e+03 2.429366111755371094e+01 3.276247501373291016e+00 1.549391597509384155e-01 8.120507240295410156e+00 2.482634067535400391e+00 1.384284794330596924e-01
2.468000000000000000e+03 1.175995349884033203e+01 -3.220775985717773438e+01 -3.777154162526130676e-02 -1.447602640837430954e-02 -1.567427068948745728e-02 2.120638266205787659e-02
2.469000000000000000e+03 1.071919059753417969e+01 -3.530842208862304688e+01 -8.420828729867935181e-02 5.505305156111717224e-02 -8.746570907533168793e-03 -1.235240139067173004e-02
2.470000000000000000e+03 2.212556076049804688e+01 -2.763453483581542969e+01 -7.428253069519996643e-03 7.362338542938232422e+00 2.206473112106323242e+00 2.033024877309799194e-01
2.471000000000000000e+03 2.308314132690429688e+01 -2.745071029663085938e+01 1.794466190040111542e-02 7.356919765472412109e+00 2.212459325790405273e+00 2.261102646589279175e-01
2.472000000000000000e+03 1.184646987915039062e+01 -1.328739547729492188e+01 -2.404866740107536316e-03 -2.135568938683718443e-04 -7.855270523577928543e-04 4.053337033838033676e-04
2.473000000000000000e+03 1.198702907562255859e+01 5.263761520385742188e+00 -5.001704557798802853e-04 -1.770933595253154635e-04 -2.031791518675163388e-04 -1.045489407260902226e-04
2.474000000000000000e+03 4.458402633666992188e+00 -3.894419097900390625e+01 1.568241976201534271e-02 -2.294598147273063660e-02 -2.179068280383944511e-03 -2.171277254819869995e-02
2.475000000000000000e+03 3.750164747238159180e+00 -3.778663253784179688e+01 -1.037372834980487823e-02 -2.741939947009086609e-02 -1.133793778717517853e-02 -3.158378228545188904e-02
2.476000000000000000e+03 1.098089313507080078e+01 1.788473892211914062e+01 1.847285078838467598e-03 -1.170028190244920552e-04 5.190846859477460384e-04 7.246249588206410408e-04
2.477000000000000000e+03 1.156353378295898438e+01 -5.474195957183837891e+00 7.591731264255940914e-04 5.549113120650872588e-05 2.443992707412689924e-04 -5.833560862811282277e-06
2.478000000000000000e+03 9.143034934997558594e+00 5.747673988342285156e+00 2.875144709832966328e-04 1.874639274319633842e-04 1.424935180693864822e-04 -5.873470854567131028e-06
2.479000000000000000e+03 4.102620124816894531e+00 4.394269943237304688e+00 2.454863279126584530e-04 1.444732333766296506e-04 1.169878669315949082e-04 -1.246220926987007260e-04
2.480000000000000000e+03 4.700531005859375000e+00 4.987055778503417969e+00 3.119544417131692171e-04 1.316977286478504539e-04 1.330956583842635155e-04 -8.022908150451257825e-05
2.481000000000000000e+03 1.202621650695800781e+01 2.237672805786132812e+01 -2.997639123350381851e-03 -1.134142628870904446e-03 -1.239534467458724976e-03 2.768978010863065720e-04
2.482000000000000000e+03 1.083639621734619141e+01 1.583471393585205078e+01 -1.445992849767208099e-03 -1.008303603157401085e-03 -7.362889009527862072e-04 2.453138295095413923e-04
2.483000000000000000e+03 2.341874122619628906e+01 -3.097989845275878906e+01 1.993319988250732422e-01 7.310328006744384766e+00 2.252897977828979492e+00 2.546260058879852295e-01
2.484000000000000000e+03 2.971366167068481445e+00 -5.504758834838867188e+00 9.947064099833369255e-04 -6.522615876747295260e-05 2.788440906442701817e-04 1.535448827780783176e-04
2.485000000000000000e+03 2.579773521423339844e+01 -3.266114425659179688e+01 1.487065255641937256e-01 7.199718952178955078e+00 2.204527616500854492e+00 1.024228408932685852e-01
2.486000000000000000e+03 2.463241004943847656e+01 -3.092173767089843750e+01 1.411398798227310181e-01 7.272507667541503906e+00 2.224094390869140625e+00 2.073673158884048462e-01
2.487000000000000000e+03 1.101847553253173828e+01 -3.229144287109375000e+01 -1.710221916437149048e-02 1.504274737089872360e-02 -6.178413750603795052e-04 2.265831083059310913e-02
2.488000000000000000e+03 1.009607410430908203e+01 -3.331906890869140625e+01 -4.254090040922164917e-02 3.794253244996070862e-02 -1.379511319100856781e-03 5.213127471506595612e-03
2.489000000000000000e+03 1.174581146240234375e+01 -2.719486618041992188e+01 -1.169586461037397385e-02 -3.306296654045581818e-03 -4.500648472458124161e-03 5.722592119127511978e-03
2.490000000000000000e+03 1.135455989837646484e+01 -2.849286079406738281e+01 -1.552440691739320755e-02 -4.551157355308532715e-03 -6.022669374942779541e-03 9.675775654613971710e-03
2.491000000000000000e+03 7.627348327636718750e+01 -3.365097045898437500e+01 -3.313342342153191566e-03 7.903101444244384766e+00 2.369936466217041016e+00 -1.351418346166610718e-02
2.492000000000000000e+03 7.541069793701171875e+01 -3.501550674438476562e+01 -5.410338751971721649e-03 7.897020816802978516e+00 2.367483139038085938e+00 -1.375997439026832581e-02
2.493000000000000000e+03 1.359715557098388672e+01 3.297737884521484375e+01 -6.629195064306259155e-02 4.671724513173103333e-03 -1.848606765270233154e-02 -3.382163867354393005e-02
2.494000000000000000e+03 1.188452243804931641e+01 3.548002243041992188e+01 -1.132960468530654907e-01 5.883531272411346436e-02 -1.633821986615657806e-02 1.109912060201168060e-02
2.495000000000000000e+03 1.160575199127197266e+01 2.942090225219726562e+01 -1.941812038421630859e-02 3.094628220424056053e-03 -4.897047765552997589e-03 -7.886276580393314362e-03
2.496000000000000000e+03 2.332645416259765625e+01 -2.834763908386230469e+01 2.678547427058219910e-02 7.365156650543212891e+00 2.217582702636718750e+00 2.302064597606658936e-01
2.497000000000000000e+03 1.146335601806640625e+01 3.688375091552734375e+01 -8.085247874259948730e-02 1.265479177236557007e-01 1.370863337069749832e-02 8.240133523941040039e-02
2.498000000000000000e+03 2.178987312316894531e+01 -2.236963462829589844e+01 -3.449054807424545288e-02 7.234926700592041016e+00 2.160130739212036133e+00 2.001588046550750732e-01
2.499000000000000000e+03 2.249911117553710938e+01 -2.311022377014160156e+01 -5.729431286454200745e-02 7.297313690185546875e+00 2.172005891799926758e+00 1.999124735593795776e-01
2.500000000000000000e+03 8.105857849121093750e+00 3.610431289672851562e+01 -2.323687076568603516e-02 2.409873530268669128e-02 2.585596230346709490e-04 5.908805131912231445e-02
2.501000000000000000e+03 9.081803321838378906e+00 3.516515731811523438e+01 -3.376585990190505981e-02 4.121822863817214966e-02 2.235710620880126953e-03 3.375007584691047668e-02
2.502000000000000000e+03 5.505836486816406250e+00 -4.038697052001953125e+01 8.559074252843856812e-03 -2.921766228973865509e-02 -6.197576411068439484e-03 -3.064182214438915253e-02
2.503000000000000000e+03 7.375731468200683594e+00 3.831663513183593750e+01 9.433731436729431152e-03 9.771971032023429871e-03 5.761710926890373230e-03 5.153645947575569153e-02
2.504000000000000000e+03 2.550080108642578125e+01 3.458370971679687500e+01 3.885142505168914795e-01 7.796492099761962891e+00 2.455501794815063477e+00 -6.927625834941864014e-02
2.505000000000000000e+03 4.991613388061523438e+00 -3.509223556518554688e+01 -1.193698868155479431e-02 -7.023515179753303528e-03 -5.688151344656944275e-03 -3.148726373910903931e-02
2.506000000000000000e+03 2.508220481872558594e+01 -3.977045059204101562e+01 -5.175409317016601562e-01 7.135188579559326172e+00 1.985294342041015625e+00 -1.337574422359466553e-01
2.507000000000000000e+03 7.845157623291015625e+01 -4.101876831054687500e+01 -9.006854379549622536e-04 7.942982196807861328e+00 2.382624387741088867e+00 -1.812111935578286648e-03
2.508000000000000000e+03 7.419881439208984375e+01 -3.644072341918945312e+01 -6.990434601902961731e-03 7.885514736175537109e+00 2.363557338714599609e+00 -1.349934469908475876e-02
2.509000000000000000e+03 2.531118202209472656e+01 -3.438539505004882812e+01 2.326947748661041260e-01 7.084021091461181641e+00 2.195014715194702148e+00 -6.225919350981712341e-03
2.510000000000000000e+03 7.446870422363281250e+01 4.039478302001953125e+01 -1.598081202246248722e-03 7.655663490295410156e+00 2.296219587326049805e+00 -8.467832230962812901e-06
2.511000000000000000e+03 7.165248870849609375e+01 4.098356628417968750e+01 -8.877774816937744617e-04 7.673952102661132812e+00 2.301919221878051758e+00 2.940053236670792103e-04
2.512000000000000000e+03 9.380681037902832031e+00 -4.822887420654296875e+00 -3.896035195793956518e-04 -4.040950152557343245e-04 -2.381095546297729015e-04 2.666235923243220896e-05
2.513000000000000000e+03 8.471913337707519531e+00 5.685570716857910156e+00 -2.525029995013028383e-04 -1.810669346014037728e-04 -1.300709845963865519e-04 4.169431485934183002e-05
2.514000000000000000e+03 9.923714637756347656e+00 5.137877941131591797e+00 2.524297451600432396e-04 2.076864038826897740e-04 1.380348548991605639e-04 5.499374674400314689e-05
2.515000000000000000e+03 1.225557613372802734e+01 -6.024878501892089844e+00 7.136492058634757996e-04 2.177740825572982430e-04 2.794269821606576443e-04 -1.369178935419768095e-04
2.516000000000000000e+03 9.742754936218261719e+00 -5.573077678680419922e+00 -3.828452900052070618e-04 -4.741360316984355450e-04 -2.570943906903266907e-04 3.312167245894670486e-04
2.517000000000000000e+03 1.210121726989746094e+01 8.520572662353515625e+00 5.125179886817932129e-04 2.708663814701139927e-04 2.350153081351891160e-04 9.947412036126479506e-05
2.518000000000000000e+03 5.880349159240722656e+00 5.594097137451171875e+00 -3.094911808148026466e-04 -1.250337954843416810e-04 -1.303574827034026384e-04 1.228716137120500207e-04
2.519000000000000000e+03 5.189023494720458984e+00 3.265239715576171875e+01 -9.279241785407066345e-03 5.759578925790265203e-05 -2.766493940725922585e-03 1.932504400610923767e-02
2.520000000000000000e+03 1.156101608276367188e+01 2.776684379577636719e+01 -1.156093738973140717e-02 1.074000319931656122e-04 -3.436061320826411247e-03 -3.892957465723156929e-03
2.521000000000000000e+03 5.261512279510498047e+00 5.604467868804931641e+00 4.054694727528840303e-04 8.041521505219861865e-05 1.457654143450781703e-04 -1.443972723791375756e-04
2.522000000000000000e+03 4.669309616088867188e+00 5.619788646697998047e+00 -4.018570180051028728e-04 -4.351910683908499777e-05 -1.336128334514796734e-04 5.915965084568597376e-05
2.523000000000000000e+03 2.405832099914550781e+01 -7.465509772300720215e-01 -1.698618568480014801e-02 7.958187103271484375e+00 2.382360219955444336e+00 2.238339483737945557e-01
2.524000000000000000e+03 2.487166023254394531e+01 8.843681216239929199e-02 8.302177302539348602e-03 7.994061946868896484e+00 2.400709152221679688e+00 1.632988005876541138e-01
2.525000000000000000e+03 2.188229179382324219e+01 -2.083210945129394531e+01 -6.731361895799636841e-02 7.267135620117187500e+00 2.159946680068969727e+00 2.557935118675231934e-01
2.526000000000000000e+03 2.185107803344726562e+01 -2.161329841613769531e+01 -5.770599469542503357e-02 7.239529132843017578e+00 2.154546976089477539e+00 2.430898994207382202e-01
2.527000000000000000e+03 7.231508255004882812e+00 4.972707748413085938e+00 2.752805303316563368e-04 1.454075827496126294e-04 1.262064324691891670e-04 -5.889914245926775038e-05
2.528000000000000000e+03 1.000587177276611328e+01 -4.934538364410400391e+00 5.151646910235285759e-04 4.205645527690649033e-04 2.807187847793102264e-04 -2.309621195308864117e-04
2.529000000000000000e+03 8.173783302307128906e+00 -4.787101268768310547e+00 -3.663259558379650116e-04 -2.724885707721114159e-04 -1.916443579830229282e-04 -2.095179806929081678e-04
2.530000000000000000e+03 7.161087512969970703e+00 5.611633300781250000e+00 -2.652439579833298922e-04 -1.583117991685867310e-04 -1.270667271455749869e-04 7.904623635113239288e-05
2.531000000000000000e+03 1.078667068481445312e+01 2.603876495361328125e+01 -4.777688998728990555e-03 -5.214619450271129608e-04 -1.589745399542152882e-03 -4.431851208209991455e-03
2.532000000000000000e+03 7.812791824340820312e+00 5.641743183135986328e+00 3.101329784840345383e-04 1.576124050188809633e-04 1.403236092301085591e-04 -5.804607280879281461e-05
2.533000000000000000e+03 2.548127365112304688e+01 -5.353499412536621094e+00 -5.104494094848632812e-02 7.814040184020996094e+00 2.328898668289184570e+00 1.991026252508163452e-01
2.534000000000000000e+03 4.639682292938232422e+00 -5.327367305755615234e+00 8.306392119266092777e-04 4.244088777340948582e-04 3.765144210774451494e-04 -3.399986890144646168e-04
2.535000000000000000e+03 5.266077041625976562e+00 -5.545705795288085938e+00 -7.315101101994514465e-04 -4.037479520775377750e-04 -3.405774186830967665e-04 3.723268309840932488e-05
2.536000000000000000e+03 2.416399574279785156e+01 -1.819322967529296875e+01 -8.253639936447143555e-02 7.496261596679687500e+00 2.224117517471313477e+00 1.723150759935379028e-01
2.537000000000000000e+03 2.465798759460449219e+01 -1.689017868041992188e+01 -3.034804202616214752e-02 7.525463104248046875e+00 2.248534440994262695e+00 1.493681669235229492e-01
2.538000000000000000e+03 2.465255737304687500e+01 -6.206756114959716797e+00 -6.161963194608688354e-02 7.786534309387207031e+00 2.317474365234375000e+00 2.344316542148590088e-01
2.539000000000000000e+03 2.398399925231933594e+01 -2.324722766876220703e+00 -1.619618944823741913e-02 7.867679119110107422e+00 2.355444908142089844e+00 2.242851406335830688e-01
2.540000000000000000e+03 2.482634925842285156e+01 -6.998608112335205078e-01 -3.705404466018080711e-03 7.960083484649658203e+00 2.386913299560546875e+00 1.815687268972396851e-01
2.541000000000000000e+03 2.492207527160644531e+01 8.849778771400451660e-01 3.457606583833694458e-02 8.025633811950683594e+00 2.418062925338745117e+00 1.449220180511474609e-01
2.542000000000000000e+03 2.554367065429687500e+01 -1.273965740203857422e+01 7.007165998220443726e-02 7.610783100128173828e+00 2.304256439208984375e+00 1.851404160261154175e-01
2.543000000000000000e+03 7.001049041748046875e+00 -4.921230792999267578e+00 -3.953511186409741640e-04 -1.931911829160526395e-04 -1.765626948326826096e-04 -4.550911253318190575e-04
2.544000000000000000e+03 2.369713592529296875e+01 -1.606840133666992188e+01 1.427083555608987808e-02 7.527869224548339844e+00 2.262641906738281250e+00 1.629367172718048096e-01
2.545000000000000000e+03 2.468227386474609375e+01 -4.638913154602050781e+00 -5.913722515106201172e-02 7.821717739105224609e+00 2.328774213790893555e+00 2.060849219560623169e-01
2.546000000000000000e+03 7.065046787261962891e+00 -5.530471801757812500e+00 3.233445750083774328e-04 3.267556603532284498e-04 1.950300793396309018e-04 4.352966207079589367e-04
2.547000000000000000e+03 9.063648223876953125e+00 -5.901058197021484375e+00 -3.426255425438284874e-04 -4.339460865594446659e-04 -2.329714916413649917e-04 1.360672467853873968e-04
2.548000000000000000e+03 1.130115127563476562e+01 5.254210472106933594e+00 3.954371204599738121e-04 2.109066845150664449e-04 1.819031458580866456e-04 1.654952793614938855e-04
2.549000000000000000e+03 9.040547370910644531e+00 6.418952465057373047e+00 -2.688272215891629457e-04 -1.826130901463329792e-04 -1.354320993414148688e-04 4.651916242437437177e-05
2.550000000000000000e+03 2.524232864379882812e+01 3.095624351501464844e+01 2.018143534660339355e-01 8.110302925109863281e+00 2.493635177612304688e+00 -1.911111325025558472e-01
2.551000000000000000e+03 5.888043403625488281e+00 -5.650593757629394531e+00 7.300755823962390423e-04 2.771001309156417847e-04 3.021527081727981567e-04 2.339962666155770421e-04
2.552000000000000000e+03 6.497095108032226562e+00 -5.632406234741210938e+00 -5.558089469559490681e-04 -2.739834308158606291e-04 -2.489377220626920462e-04 -4.894875455647706985e-04
2.553000000000000000e+03 4.645749092102050781e+00 -3.130051040649414062e+01 2.273705322295427322e-03 7.664255099371075630e-04 9.120392496697604656e-04 -1.169325690716505051e-02
2.554000000000000000e+03 4.608884334564208984e+00 2.514005279541015625e+01 1.780542777851223946e-03 -2.212966326624155045e-03 -1.297270646318793297e-04 -1.499939127825200558e-03
2.555000000000000000e+03 1.130259895324707031e+01 2.236089134216308594e+01 1.738152815960347652e-03 2.334049786441028118e-04 5.914673092775046825e-04 -2.731370914261788130e-04
2.556000000000000000e+03 5.517738819122314453e+00 -3.229868698120117188e+01 -3.796197101473808289e-02 9.722741320729255676e-03 -8.471768349409103394e-03 -7.203640416264533997e-03
2.557000000000000000e+03 2.383962821960449219e+01 -7.839066505432128906e+00 -2.078357152640819550e-02 7.731119632720947266e+00 2.313100814819335938e+00 2.792566716670989990e-01
2.558000000000000000e+03 7.487428283691406250e+01 -2.875661087036132812e+01 -4.146520514041185379e-03 7.870911121368408203e+00 2.360029458999633789e+00 -2.469214797019958496e-02
2.559000000000000000e+03 1.123750114440917969e+01 -2.498322105407714844e+01 -7.204148918390274048e-03 -2.741688163951039314e-03 -2.983751008287072182e-03 1.399299362674355507e-03
2.560000000000000000e+03 1.091438770294189453e+01 -2.767243576049804688e+01 -1.527311373502016068e-02 -2.886433620005846024e-03 -5.447864066809415817e-03 7.634589448571205139e-03
2.561000000000000000e+03 5.226052761077880859e+00 -3.058787536621093750e+01 2.176058012992143631e-03 1.315939822234213352e-03 1.047599362209439278e-03 -5.894590634852647781e-03
2.562000000000000000e+03 4.484988212585449219e+00 2.915121841430664062e+01 -1.514531578868627548e-02 1.263007638044655323e-03 -4.164692480117082596e-03 1.038684044033288956e-02
2.563000000000000000e+03 4.118704795837402344e+00 5.633867263793945312e+00 3.042448661290109158e-04 1.550124434288591146e-04 1.377771986881271005e-04 3.643378931883489713e-06
2.564000000000000000e+03 1.152446269989013672e+01 2.614862442016601562e+01 -6.480986252427101135e-03 -1.316880458034574986e-03 -2.339359838515520096e-03 -1.675082254223525524e-03
2.565000000000000000e+03 1.079367637634277344e+01 2.682808303833007812e+01 -8.793167769908905029e-03 7.703687879256904125e-05 -2.614839468151330948e-03 -1.467399648390710354e-03
2.566000000000000000e+03 2.375774192810058594e+01 -1.358371925354003906e+01 9.993296861648559570e-02 7.592242717742919922e+00 2.307652711868286133e+00 2.168166935443878174e-01
2.567000000000000000e+03 2.462905311584472656e+01 -1.275197887420654297e+01 8.248825371265411377e-02 7.609307289123535156e+00 2.307538747787475586e+00 2.094986587762832642e-01
2.568000000000000000e+03 7.527850341796875000e+01 -3.203085708618164062e+01 -4.405424930155277252e-03 7.886003017425537109e+00 2.364479303359985352e+00 -1.852633245289325714e-02
2.569000000000000000e+03 7.533298492431640625e+01 -3.040000343322753906e+01 -2.657626988366246223e-03 7.881464004516601562e+00 2.363641977310180664e+00 -2.057584561407566071e-02
2.570000000000000000e+03 1.216772651672363281e+01 7.846417427062988281e+00 -4.756936396006494761e-04 -1.791708782548084855e-04 -1.964593539014458656e-04 1.108320975617971271e-05
2.571000000000000000e+03 7.499309539794921875e+01 -2.813154220581054688e+01 -2.802124246954917908e-03 7.869639873504638672e+00 2.360051393508911133e+00 -2.468292228877544403e-02
2.572000000000000000e+03 4.862235546112060547e+00 -3.241545486450195312e+01 5.249499226920306683e-04 3.282102523371577263e-03 1.142115797847509384e-03 -2.390520647168159485e-02
2.573000000000000000e+03 4.501511096954345703e+00 -2.267131805419921875e+01 4.270285367965698242e-03 6.428980850614607334e-04 1.473954995162785053e-03 3.305900463601574302e-05
2.574000000000000000e+03 4.656827926635742188e+00 2.993620109558105469e+01 -3.446541493758559227e-03 -1.482357271015644073e-03 -1.478669699281454086e-03 8.075804449617862701e-03
2.575000000000000000e+03 4.850872993469238281e+00 3.187141036987304688e+01 -1.838369108736515045e-02 -1.117318170145153999e-03 -5.850302986800670624e-03 2.237347699701786041e-02
2.576000000000000000e+03 4.528217792510986328e+00 -2.942469978332519531e+01 -1.549744978547096252e-02 -1.045116572640836239e-03 -4.962769802659749985e-03 -7.497303653508424759e-03
2.577000000000000000e+03 3.871097803115844727e+00 -2.950387954711914062e+01 2.773452084511518478e-03 7.176703365985304117e-05 8.535657543689012527e-04 -4.742253571748733521e-03
2.578000000000000000e+03 4.494968891143798828e+00 -2.190585708618164062e+01 -4.452190361917018890e-03 -1.426678150892257690e-03 -1.763660577125847340e-03 8.895383216440677643e-04
2.579000000000000000e+03 4.654160499572753906e+00 1.707125663757324219e+01 2.007337985560297966e-03 -2.748597762547433376e-04 5.197434802539646626e-04 -5.521416896954178810e-04
2.580000000000000000e+03 8.708963394165039062e+00 -5.333448886871337891e+00 -4.020952328573912382e-04 -3.261547244619578123e-04 -2.184749901061877608e-04 -2.446661528665572405e-04
2.581000000000000000e+03 3.861492872238159180e+00 -2.576791000366210938e+01 -7.241457235068082809e-03 -1.770062139257788658e-03 -2.703455742448568344e-03 -9.741361136548221111e-04
2.582000000000000000e+03 4.508244514465332031e+00 -1.714305686950683594e+01 -3.165052738040685654e-03 -3.616566245909780264e-04 -1.058012829162180424e-03 4.468178667593747377e-04
2.583000000000000000e+03 4.485232830047607422e+00 -1.634803199768066406e+01 3.399339271709322929e-03 7.757083221804350615e-05 1.043073018081486225e-03 1.198922036564908922e-04
2.584000000000000000e+03 4.472620010375976562e+00 -1.556660461425781250e+01 -2.941950690001249313e-03 -3.148062678519636393e-04 -9.770271135494112968e-04 1.683899608906358480e-04
2.585000000000000000e+03 3.860836744308471680e+00 -2.653806686401367188e+01 3.747447859495878220e-03 8.704834617674350739e-04 1.385379466228187084e-03 -8.208316867239773273e-04
2.586000000000000000e+03 5.160166263580322266e+00 -2.345685005187988281e+01 3.790548769757151604e-03 7.794871344231069088e-04 1.371010788716375828e-03 2.200821472797542810e-04
2.587000000000000000e+03 3.791572332382202148e+00 -1.246407794952392578e+01 2.147782361134886742e-03 3.241561935283243656e-04 7.415815489366650581e-04 1.604296412551775575e-04
2.588000000000000000e+03 4.477250576019287109e+00 -1.169202518463134766e+01 1.950685400515794754e-03 3.476667916402220726e-04 6.895056576468050480e-04 7.103361713234335184e-05
2.589000000000000000e+03 4.501193523406982422e+00 -2.343957710266113281e+01 -5.355596542358398438e-03 -1.648818608373403549e-03 -2.101324498653411865e-03 3.671164158731698990e-04
2.590000000000000000e+03 4.522763729095458984e+00 -2.872597885131835938e+01 1.081121852621436119e-03 1.906422316096723080e-03 8.962632273323833942e-04 -3.538747550919651985e-03
2.591000000000000000e+03 5.145791530609130859e+00 -1.634566116333007812e+01 -3.237725468352437019e-03 -2.263828064315021038e-04 -1.039232476614415646e-03 2.157349372282624245e-04
2.592000000000000000e+03 4.486243247985839844e+00 -2.113705635070800781e+01 4.357163794338703156e-03 3.066987264901399612e-04 1.399158732965588570e-03 -1.703617017483338714e-04
2.593000000000000000e+03 3.745342016220092773e+00 -7.755316734313964844e+00 1.257603173144161701e-03 2.023666456807404757e-04 4.379909369163215160e-04 5.393005267251282930e-05
2.594000000000000000e+03 3.791805505752563477e+00 -1.325203609466552734e+01 -2.230835612863302231e-03 -3.200198989361524582e-04 -7.652566418983042240e-04 -7.455514605680946261e-07
2.595000000000000000e+03 4.489309787750244141e+00 -2.035443687438964844e+01 -3.950489684939384460e-03 -8.511713822372257710e-04 -1.440498395822942257e-03 8.243240881711244583e-04
2.596000000000000000e+03 4.528676986694335938e+00 -1.794441413879394531e+01 3.708922537043690681e-03 1.816901349229738116e-04 1.167183858342468739e-03 -3.065249984501861036e-06
2.597000000000000000e+03 5.153844833374023438e+00 -1.014729881286621094e+01 -1.500460086390376091e-03 -2.967247273772954941e-04 -5.391554441303014755e-04 9.896307892631739378e-05
2.598000000000000000e+03 4.468138694763183594e+00 -1.089717960357666016e+01 -1.660557347349822521e-03 -3.174553276039659977e-04 -5.934038199484348297e-04 5.549227353185415268e-05
2.599000000000000000e+03 4.519813060760498047e+00 -2.496747207641601562e+01 -6.919301114976406097e-03 -1.921207876875996590e-03 -2.652152674272656441e-03 -1.515071344329044223e-04
2.600000000000000000e+03 1.104095935821533203e+01 1.109594058990478516e+01 -3.289066080469638109e-04 -1.851607667049393058e-04 -1.542202226119115949e-04 2.800365327857434750e-04
2.601000000000000000e+03 4.467895030975341797e+00 -1.480035018920898438e+01 3.030727151781320572e-03 2.420723612885922194e-04 9.818398393690586090e-04 1.870693085948005319e-04
2.602000000000000000e+03 4.467628002166748047e+00 -1.403858947753906250e+01 -2.522913739085197449e-03 -3.676062333397567272e-04 -8.671560208313167095e-04 6.052387107047252357e-05
2.603000000000000000e+03 4.471434116363525391e+00 -1.326808929443359375e+01 2.442360855638980865e-03 3.142927307635545731e-04 8.269961108453571796e-04 1.602681440999731421e-04
2.604000000000000000e+03 7.435330200195312500e+01 2.989242744445800781e+01 1.640296773985028267e-03 7.658043861389160156e+00 2.297905206680297852e+00 -6.122100749053061008e-04
2.605000000000000000e+03 3.744461536407470703e+00 -6.959784030914306641e+00 -1.100362045690417290e-03 -1.531044690636917949e-04 -3.760399704333394766e-04 -5.137160405865870416e-05
2.606000000000000000e+03 4.439540386199951172e+00 -6.959485530853271484e+00 1.206990331411361694e-03 2.115836105076596141e-04 4.255721869412809610e-04 -1.008779290714301169e-04
2.607000000000000000e+03 4.519246578216552734e+00 -2.799740791320800781e+01 -1.170020829886198044e-02 -1.704884110949933529e-03 -4.021527711302042007e-03 -3.415697952732443810e-03
2.608000000000000000e+03 4.526102066040039062e+00 -2.725043296813964844e+01 2.763520693406462669e-03 1.174066914245486259e-03 1.181276282295584679e-03 -1.528566121123731136e-03
2.609000000000000000e+03 4.616782665252685547e+00 1.005707836151123047e+01 -9.314797352999448776e-04 1.863342185970395803e-05 -2.738538896664977074e-04 1.642279530642554164e-04
2.610000000000000000e+03 4.444238662719726562e+00 -9.316537857055664062e+00 -1.444257912226021290e-03 -2.483992138877511024e-04 -5.077971145510673523e-04 4.358591104391962290e-05
2.611000000000000000e+03 4.439114093780517578e+00 -8.536981582641601562e+00 1.397174666635692120e-03 2.370918082306161523e-04 4.902799846604466438e-04 -8.023086593311745673e-06
2.612000000000000000e+03 4.436438083648681641e+00 -7.753620624542236328e+00 -1.252242363989353180e-03 -2.234562125522643328e-04 -4.427095700521022081e-04 5.750154741690494120e-05
2.613000000000000000e+03 1.112809944152832031e+01 -1.046987915039062500e+01 1.365461735986173153e-03 3.202117513865232468e-04 5.057020462118089199e-04 -3.240341320633888245e-04
2.614000000000000000e+03 1.119043540954589844e+01 -1.111656284332275391e+01 -1.502691186033189297e-03 -3.302301338408142328e-04 -5.498764221556484699e-04 4.402522463351488113e-04
2.615000000000000000e+03 2.634627532958984375e+01 2.297101020812988281e+01 4.513775929808616638e-02 8.134302139282226562e+00 2.453831911087036133e+00 -3.690766543149948120e-02
2.616000000000000000e+03 2.550564193725585938e+01 2.370755577087402344e+01 3.885055705904960632e-02 8.161063194274902344e+00 2.459974050521850586e+00 -4.610333964228630066e-02
2.617000000000000000e+03 2.383994293212890625e+01 -8.640487670898437500e+00 5.848022643476724625e-03 7.710924625396728516e+00 2.315031766891479492e+00 2.759495973587036133e-01
2.618000000000000000e+03 2.464980316162109375e+01 -6.991291999816894531e+00 -4.192453622817993164e-02 7.765944480895996094e+00 2.317206144332885742e+00 2.478820085525512695e-01
2.619000000000000000e+03 1.032265472412109375e+01 1.085122013092041016e+01 6.372277857735753059e-04 1.043021529767429456e-05 1.942974049597978592e-04 -1.523586834082379937e-04
2.620000000000000000e+03 7.516422271728515625e+01 -2.177645874023437500e+01 -1.835831440985202789e-03 7.841331481933593750e+00 2.351848602294921875e+00 -3.105355426669120789e-02
2.621000000000000000e+03 1.172105312347412109e+01 1.938169670104980469e+01 -2.288827672600746155e-03 -7.616552175022661686e-04 -9.151448612101376057e-04 5.965928430669009686e-04
2.622000000000000000e+03 7.488393402099609375e+01 2.281307792663574219e+01 2.181817311793565750e-03 7.656380653381347656e+00 2.297568798065185547e+00 -4.224023316055536270e-03
2.623000000000000000e+03 2.497046852111816406e+01 1.691702842712402344e+00 6.908007711172103882e-02 8.047553062438964844e+00 2.434989929199218750e+00 1.260831803083419800e-01
2.624000000000000000e+03 1.164242172241210938e+01 -6.094552993774414062e+00 -6.106477812863886356e-04 -2.305600792169570923e-04 -2.523623406887054443e-04 -1.204927611979655921e-04
2.625000000000000000e+03 2.596244812011718750e+01 1.531719493865966797e+01 4.159647226333618164e-02 8.157010078430175781e+00 2.459582090377807617e+00 4.217700287699699402e-02
2.626000000000000000e+03 1.191826820373535156e+01 -1.479038238525390625e+01 -3.169988980516791344e-03 3.044806653633713722e-04 -8.596524712629616261e-04 4.174452333245426416e-04
2.627000000000000000e+03 1.122836017608642578e+01 -1.624278259277343750e+01 3.003364894539117813e-03 5.835064221173524857e-04 1.076061394996941090e-03 -1.225903164595365524e-03
2.628000000000000000e+03 7.497991943359375000e+01 -2.483395195007324219e+01 -2.934106392785906792e-03 7.855136871337890625e+00 2.355660915374755859e+00 -2.909509465098381042e-02
2.629000000000000000e+03 1.090200424194335938e+01 1.324272060394287109e+01 1.185317407362163067e-03 5.034382920712232590e-04 5.066267331130802631e-04 -6.807433092035353184e-04
2.630000000000000000e+03 2.436498069763183594e+01 5.732180118560791016e+00 1.862158179283142090e-01 8.192910194396972656e+00 2.513737916946411133e+00 1.766287237405776978e-01
2.631000000000000000e+03 7.557288360595703125e+01 2.608038520812988281e+01 1.337160239927470684e-03 7.650077342987060547e+00 2.295424461364746094e+00 -1.821584883145987988e-03
2.632000000000000000e+03 7.476946258544921875e+01 2.355727958679199219e+01 2.321439096704125404e-03 7.656601905822753906e+00 2.297677040100097656e+00 -4.010373726487159729e-03
2.633000000000000000e+03 2.520426559448242188e+01 1.536077022552490234e+01 2.913095057010650635e-02 8.177600860595703125e+00 2.462019681930541992e+00 3.968638181686401367e-02
2.634000000000000000e+03 7.509131622314453125e+01 1.491750526428222656e+01 2.969608176499605179e-03 7.666051387786865234e+00 2.300706148147583008e+00 -1.215621456503868103e-02
2.635000000000000000e+03 7.582888793945312500e+01 1.579559135437011719e+01 2.149748150259256363e-03 7.659611701965332031e+00 2.298528432846069336e+00 -9.695119224488735199e-03
2.636000000000000000e+03 2.535482025146484375e+01 2.725546646118164062e+01 8.060091733932495117e-02 8.169179916381835938e+00 2.474934339523315430e+00 -1.050566211342811584e-01
2.637000000000000000e+03 2.578602790832519531e+01 2.878734970092773438e+01 1.237573400139808655e-01 8.115547180175781250e+00 2.471791505813598633e+00 -1.279280185699462891e-01
2.638000000000000000e+03 7.524264526367187500e+01 -1.456012058258056641e+01 -7.730211946181952953e-04 7.801346778869628906e+00 2.340172052383422852e+00 -3.449603915214538574e-02
2.639000000000000000e+03 1.082094860076904297e+01 -1.779736709594726562e+01 1.937311375513672829e-03 1.332822022959589958e-03 9.810399496927857399e-04 -1.869181171059608459e-03
2.640000000000000000e+03 1.106988048553466797e+01 -1.698684692382812500e+01 -2.267778385430574417e-03 -1.126555842347443104e-03 -1.018300303258001804e-03 1.184018095955252647e-03
2.641000000000000000e+03 7.500259399414062500e+01 2.208009719848632812e+01 2.760353730991482735e-03 7.656413555145263672e+00 2.297752141952514648e+00 -5.199209786951541901e-03
2.642000000000000000e+03 5.820364952087402344e+00 -2.352264022827148438e+01 -4.143510479480028152e-03 -3.259859746322035789e-03 -2.221011091023683548e-03 1.974625192815437913e-04
2.643000000000000000e+03 5.175146102905273438e+00 -2.269755744934082031e+01 -4.281925503164529800e-03 -2.385482657700777054e-03 -2.000222448259592056e-03 8.564600138925015926e-04
2.644000000000000000e+03 7.491010284423828125e+01 -2.742271804809570312e+01 -3.277532057836651802e-03 7.866605758666992188e+00 2.358998537063598633e+00 -2.612223103642463684e-02
2.645000000000000000e+03 7.512994384765625000e+01 1.104448986053466797e+01 3.316600574180483818e-03 7.675639152526855469e+00 2.303686618804931641e+00 -1.701085641980171204e-02
2.646000000000000000e+03 7.513011169433593750e+01 1.024525451660156250e+01 3.121872199699282646e-03 7.677974224090576172e+00 2.304328918457031250e+00 -1.778575405478477478e-02
2.647000000000000000e+03 2.470002555847167969e+01 2.954345512390136719e+01 1.200915277004241943e-01 8.196533203125000000e+00 2.494987487792968750e+00 -1.651914268732070923e-01
2.648000000000000000e+03 7.516499328613281250e+01 -1.693909263610839844e+01 -6.768504390493035316e-04 7.814738273620605469e+00 2.344218492507934570e+00 -3.389781713485717773e-02
2.649000000000000000e+03 7.553465270996093750e+01 2.687748336791992188e+01 7.200355175882577896e-04 7.649960041046142578e+00 2.295204162597656250e+00 -1.398389344103634357e-03
2.650000000000000000e+03 7.432456207275390625e+01 2.191324043273925781e+01 2.795904641970992088e-03 7.661076068878173828e+00 2.299161672592163086e+00 -5.723711568862199783e-03
2.651000000000000000e+03 7.415666198730468750e+01 1.716719436645507812e+01 3.965034149587154388e-03 7.667680263519287109e+00 2.301493644714355469e+00 -1.106299832463264465e-02
2.652000000000000000e+03 7.501060485839843750e+01 1.648085212707519531e+01 2.996498718857765198e-03 7.663517951965332031e+00 2.299954414367675781e+00 -1.050105784088373184e-02
2.653000000000000000e+03 2.465520668029785156e+01 2.027914810180664062e+01 2.459763363003730774e-02 8.179289817810058594e+00 2.461166381835937500e+00 -9.311579167842864990e-03
2.654000000000000000e+03 2.552444267272949219e+01 2.201771354675292969e+01 3.058272972702980042e-02 8.159756660461425781e+00 2.457101821899414062e+00 -2.540011890232563019e-02
2.655000000000000000e+03 7.515484619140625000e+01 8.640407562255859375e+00 3.087975084781646729e-03 7.682976722717285156e+00 2.305819511413574219e+00 -1.964210718870162964e-02
2.656000000000000000e+03 7.412746429443359375e+01 1.797574996948242188e+01 4.253093153238296509e-03 7.666744232177734375e+00 2.301299095153808594e+00 -1.043297350406646729e-02
2.657000000000000000e+03 7.590528869628906250e+01 8.682749748229980469e+00 2.408520784229040146e-03 7.679083347320556641e+00 2.304447650909423828e+00 -1.723673567175865173e-02
2.658000000000000000e+03 7.517230224609375000e+01 7.839578151702880859e+00 3.222522092983126640e-03 7.685751438140869141e+00 2.306692123413085938e+00 -2.081023529171943665e-02
2.659000000000000000e+03 2.516834640502929688e+01 9.774824142456054688e+00 8.322191983461380005e-02 8.198444366455078125e+00 2.484499931335449219e+00 1.193268075585365295e-01
2.660000000000000000e+03 7.520223236083984375e+01 -7.414891242980957031e+00 1.161227002739906311e-03 7.759186744689941406e+00 2.328104496002197266e+00 -3.366280719637870789e-02
2.661000000000000000e+03 7.437299346923828125e+01 9.405107498168945312e+00 4.100119695067405701e-03 7.684345245361328125e+00 2.306533575057983398e+00 -2.112062647938728333e-02
2.662000000000000000e+03 1.181735801696777344e+01 -1.979539680480957031e+01 -5.055947694927453995e-03 6.356446538120508194e-04 -1.326091005466878414e-03 -3.396253741811960936e-04
2.663000000000000000e+03 2.444349479675292969e+01 1.377218341827392578e+01 3.049234673380851746e-02 8.206486701965332031e+00 2.471093893051147461e+00 5.326515808701515198e-02
2.664000000000000000e+03 7.594248962402343750e+01 1.501377105712890625e+00 1.806647982448339462e-03 7.709673881530761719e+00 2.313444137573242188e+00 -2.386333048343658447e-02
2.665000000000000000e+03 7.518776702880859375e+01 6.920649409294128418e-01 2.403850434347987175e-03 7.715783596038818359e+00 2.315456151962280273e+00 -2.825207822024822235e-02
2.666000000000000000e+03 2.517803001403808594e+01 1.057094192504882812e+01 6.818471848964691162e-02 8.198142051696777344e+00 2.479898214340209961e+00 1.050967425107955933e-01
2.667000000000000000e+03 2.443865013122558594e+01 1.137212181091308594e+01 4.510921239852905273e-02 8.226878166198730469e+00 2.481596231460571289e+00 8.756543695926666260e-02
2.668000000000000000e+03 5.227874279022216797e+00 -1.795917510986328125e+01 -3.333991160616278648e-03 -6.085045752115547657e-04 -1.182748703286051750e-03 7.211694610305130482e-04
2.669000000000000000e+03 7.521006774902343750e+01 3.900221347808837891e+00 2.713924972340464592e-03 7.701057910919189453e+00 2.311131477355957031e+00 -2.492917701601982117e-02
2.670000000000000000e+03 7.519043731689453125e+01 1.503971576690673828e+00 2.530612982809543610e-03 7.711945533752441406e+00 2.314342737197875977e+00 -2.762824296951293945e-02
2.671000000000000000e+03 4.737284183502197266e+00 2.191916084289550781e+01 1.167514710687100887e-03 3.452109813224524260e-04 4.538176872301846743e-04 -1.886288053356111050e-03
2.672000000000000000e+03 7.594140625000000000e+01 2.310198783874511719e+00 1.939928624778985977e-03 7.705739498138427734e+00 2.312303781509399414e+00 -2.332252077758312225e-02
2.673000000000000000e+03 7.522206115722656250e+01 -9.791405677795410156e+00 3.478765429463237524e-04 7.773103237152099609e+00 2.332035303115844727e+00 -3.442780673503875732e-02
2.674000000000000000e+03 7.518040466308593750e+01 -2.541036605834960938e+00 1.984291011467576027e-03 7.732140064239501953e+00 2.320237159729003906e+00 -3.102241083979606628e-02
2.675000000000000000e+03 7.518913269042968750e+01 -5.800339221954345703e+00 1.432861550711095333e-03 7.750008106231689453e+00 2.325432300567626953e+00 -3.302758932113647461e-02
2.676000000000000000e+03 7.514160919189453125e+01 1.183643054962158203e+01 3.058201866224408150e-03 7.673403739929199219e+00 2.302938699722290039e+00 -1.580671779811382294e-02
2.677000000000000000e+03 7.594045257568359375e+01 -4.953988552093505859e+00 1.170541159808635712e-03 7.744895935058593750e+00 2.323819875717163086e+00 -2.829021960496902466e-02
2.678000000000000000e+03 7.519662475585937500e+01 -6.612622737884521484e+00 1.054499181918799877e-03 7.754669666290283203e+00 2.326717376708984375e+00 -3.349458053708076477e-02
2.679000000000000000e+03 7.521504974365234375e+01 4.695582866668701172e+00 2.929662354290485382e-03 7.697683811187744141e+00 2.310184001922607422e+00 -2.426704205572605133e-02
2.680000000000000000e+03 7.442687988281250000e+01 1.541409730911254883e+00 3.278166055679321289e-03 7.713858127593994141e+00 2.315140724182128906e+00 -3.089033439755439758e-02
2.681000000000000000e+03 2.444307708740234375e+01 1.296885395050048828e+01 3.196028620004653931e-02 8.213366508483886719e+00 2.473598003387451172e+00 6.350102275609970093e-02
2.682000000000000000e+03 2.519682693481445312e+01 1.455978202819824219e+01 3.599116578698158264e-02 8.180738449096679688e+00 2.465018749237060547e+00 4.829375445842742920e-02
2.683000000000000000e+03 7.441744232177734375e+01 -3.356498003005981445e+00 2.421804470941424370e-03 7.737228393554687500e+00 2.321895122528076172e+00 -3.558222949504852295e-02
2.684000000000000000e+03 7.365907287597656250e+01 -4.981587409973144531e+00 2.363928593695163727e-03 7.745877742767333984e+00 2.324472427368164062e+00 -4.078420624136924744e-02
2.685000000000000000e+03 7.597386169433593750e+01 -1.215038299560546875e+01 -1.594819041201844811e-04 7.789054393768310547e+00 2.336668491363525391e+00 -3.017648309469223022e-02
2.686000000000000000e+03 7.525205993652343750e+01 -1.376006317138671875e+01 3.788336107390932739e-05 7.796434879302978516e+00 2.338941812515258789e+00 -3.428791463375091553e-02
2.687000000000000000e+03 7.596987915039062500e+01 -1.055226230621337891e+01 1.045329190674237907e-04 7.779055595397949219e+00 2.333748102188110352e+00 -3.003829903900623322e-02
2.688000000000000000e+03 7.525281524658203125e+01 -1.296557426452636719e+01 -3.567911335267126560e-04 7.791923046112060547e+00 2.337469816207885742e+00 -3.456557542085647583e-02
2.689000000000000000e+03 7.590201568603515625e+01 -1.934783172607421875e+01 -8.926885784603655338e-04 7.832839012145996094e+00 2.349583864212036133e+00 -2.854570746421813965e-02
2.690000000000000000e+03 7.516513061523437500e+01 -2.098151779174804688e+01 -2.173478947952389717e-03 7.837348937988281250e+00 2.350552558898925781e+00 -3.207620978355407715e-02
2.691000000000000000e+03 7.520620727539062500e+01 -8.208843231201171875e+00 6.978070014156401157e-04 7.763845920562744141e+00 2.329363107681274414e+00 -3.406360745429992676e-02
2.692000000000000000e+03 2.592315483093261719e+01 2.666075134277343750e+01 7.719425857067108154e-02 8.135432243347167969e+00 2.463787794113159180e+00 -8.740820735692977905e-02
2.693000000000000000e+03 2.465156745910644531e+01 2.515886306762695312e+01 4.759793356060981750e-02 8.192053794860839844e+00 2.471895456314086914e+00 -6.598922610282897949e-02
2.694000000000000000e+03 7.492482757568359375e+01 1.890864372253417969e+01 3.092209110036492348e-03 7.660361289978027344e+00 2.299036026000976562e+00 -8.148988708853721619e-03
2.695000000000000000e+03 7.524198150634765625e+01 -1.138298130035400391e+01 1.309120216319570318e-05 7.782525062561035156e+00 2.334761619567871094e+00 -3.454684466123580933e-02
2.696000000000000000e+03 2.519387054443359375e+01 1.375969600677490234e+01 3.660548478364944458e-02 8.185226440429687500e+00 2.466549634933471680e+00 5.815012007951736450e-02
2.697000000000000000e+03 7.591053009033203125e+01 -1.773442649841308594e+01 -6.059589795768260956e-04 7.823312282562255859e+00 2.346811771392822266e+00 -2.923756651580333710e-02
2.698000000000000000e+03 7.515525054931640625e+01 -2.018470573425292969e+01 -1.493873307481408119e-03 7.832933902740478516e+00 2.349431991577148438e+00 -3.221607580780982971e-02
2.699000000000000000e+03 7.524865722656250000e+01 -1.217498397827148438e+01 3.576058370526880026e-04 7.787087917327880859e+00 2.336233615875244141e+00 -3.435545042157173157e-02
2.700000000000000000e+03 2.462849426269531250e+01 1.944937133789062500e+01 1.828114874660968781e-02 8.179591178894042969e+00 2.459361553192138672e+00 -6.687303539365530014e-04
2.701000000000000000e+03 2.554059028625488281e+01 2.117082405090332031e+01 3.533357009291648865e-02 8.158646583557128906e+00 2.458194017410278320e+00 -1.862969808280467987e-02
2.702000000000000000e+03 7.522258758544921875e+01 -1.535609817504882812e+01 -2.648386871442198753e-04 7.805711269378662109e+00 2.341633796691894531e+00 -3.414477407932281494e-02
2.703000000000000000e+03 2.518575859069824219e+01 1.136603069305419922e+01 5.966925621032714844e-02 8.195775032043457031e+00 2.476633310317993164e+00 9.212971478700637817e-02
2.704000000000000000e+03 2.519098663330078125e+01 1.216067218780517578e+01 4.889718443155288696e-02 8.192893028259277344e+00 2.472537040710449219e+00 7.995583862066268921e-02
2.705000000000000000e+03 7.521276092529296875e+01 -9.000753402709960938e+00 8.920325199142098427e-04 7.768353939056396484e+00 2.330773830413818359e+00 -3.411772847175598145e-02
2.706000000000000000e+03 7.443514251708984375e+01 -8.233134269714355469e+00 1.311371335759758949e-03 7.763081073760986328e+00 2.329317808151245117e+00 -3.825868666172027588e-02
2.707000000000000000e+03 7.575636291503906250e+01 -2.492428970336914062e+01 -2.784386044368147850e-03 7.862564086914062500e+00 2.357933998107910156e+00 -2.550053410232067108e-02
2.708000000000000000e+03 7.399641418457031250e+01 -2.671100044250488281e+01 -4.595612641423940659e-03 7.855988502502441406e+00 2.355417966842651367e+00 -3.109608031809329987e-02
2.709000000000000000e+03 7.518289947509765625e+01 -3.362249612808227539e+00 1.721825450658798218e-03 7.736602306365966797e+00 2.321497201919555664e+00 -3.173990175127983093e-02
2.710000000000000000e+03 2.525168228149414062e+01 1.696107292175292969e+01 2.525289356708526611e-02 8.170618057250976562e+00 2.458761215209960938e+00 2.355941757559776306e-02
2.711000000000000000e+03 7.483844757080078125e+01 -2.659502983093261719e+01 -3.343242919072508812e-03 7.862648010253906250e+00 2.357791423797607422e+00 -2.740009687840938568e-02
2.712000000000000000e+03 7.513556671142578125e+01 -1.856039810180664062e+01 -1.146053546108305454e-03 7.823827743530273438e+00 2.346804380416870117e+00 -3.332358598709106445e-02
2.713000000000000000e+03 3.916440486907958984e+00 2.762311172485351562e+01 1.623408519662916660e-03 -4.172036424279212952e-03 -7.645883015356957912e-04 3.134822472929954529e-03
2.714000000000000000e+03 1.132577991485595703e+01 -9.007163047790527344e+00 -8.496048394590616226e-04 2.871226461138576269e-04 -1.687446638243272901e-04 -5.978111876174807549e-04
2.715000000000000000e+03 5.181945800781250000e+00 -1.175143051147460938e+01 -1.741663319990038872e-03 -4.521025985013693571e-04 -6.581297493539750576e-04 6.279860099311918020e-05
2.716000000000000000e+03 1.178644943237304688e+01 2.012794303894042969e+01 2.619535662233829498e-03 6.000021821819245815e-04 9.658613125793635845e-04 5.287182866595685482e-04
2.717000000000000000e+03 1.085408115386962891e+01 1.861573982238769531e+01 -1.680926070548593998e-03 2.023087108682375401e-05 -4.982085665687918663e-04 2.363662788411602378e-04
2.718000000000000000e+03 7.518315887451171875e+01 -1.105853393673896790e-01 2.298637758940458298e-03 7.719756126403808594e+00 2.316616296768188477e+00 -2.914505265653133392e-02
2.719000000000000000e+03 7.517754364013671875e+01 -9.094516038894653320e-01 2.218822948634624481e-03 7.723705291748046875e+00 2.317777156829833984e+00 -2.973467297852039337e-02
2.720000000000000000e+03 7.511758422851562500e+01 -2.413747978210449219e+01 -2.728933934122323990e-03 7.853096008300781250e+00 2.355110168457031250e+00 -2.918545156717300415e-02
2.721000000000000000e+03 7.518854522705078125e+01 7.050712108612060547e+00 2.975430805236101151e-03 7.688456535339355469e+00 2.307429552078247070e+00 -2.143560722470283508e-02
2.722000000000000000e+03 7.520289611816406250e+01 6.270780086517333984e+00 3.073749132454395294e-03 7.691422939300537109e+00 2.308349132537841797e+00 -2.254562079906463623e-02
2.723000000000000000e+03 7.514328002929687500e+01 -1.937652969360351562e+01 -1.854311325587332249e-03 7.828446388244628906e+00 2.347977638244628906e+00 -3.327609598636627197e-02
2.724000000000000000e+03 4.003263473510742188e+00 2.115852928161621094e+01 1.523718819953501225e-03 5.235490389168262482e-04 6.141803460195660591e-04 -1.584903453476727009e-03
2.725000000000000000e+03 4.729095458984375000e+00 2.272931671142578125e+01 -3.203583648428320885e-03 -1.277774455957114697e-03 -1.344407442957162857e-03 2.387755550444126129e-03
2.726000000000000000e+03 5.145425796508789062e+00 -2.420551109313964844e+01 -6.475815549492835999e-03 -1.747478032484650612e-03 -2.466988051310181618e-03 3.899643343174830079e-05
2.727000000000000000e+03 1.069022274017333984e+01 -2.830059242248535156e+01 5.130030680447816849e-03 2.487863821443170309e-04 1.613644999451935291e-03 7.104700780473649502e-04
2.728000000000000000e+03 1.118196392059326172e+01 -2.570090675354003906e+01 5.288723390549421310e-03 1.229748013429343700e-03 1.955541316419839859e-03 -1.750988420099020004e-03
2.729000000000000000e+03 7.519475555419921875e+01 -1.614519500732421875e+01 -1.190698472782969475e-03 7.810444355010986328e+00 2.342776060104370117e+00 -3.448127210140228271e-02
2.730000000000000000e+03 7.449359130859375000e+01 -1.533020687103271484e+01 -1.192599302157759666e-03 7.802814960479736328e+00 2.340486526489257812e+00 -3.858882188796997070e-02
2.731000000000000000e+03 7.514316558837890625e+01 -2.257818603515625000e+01 -2.935640513896942139e-03 7.845556259155273438e+00 2.352786302566528320e+00 -3.118933923542499542e-02
2.732000000000000000e+03 7.510987091064453125e+01 -2.337927627563476562e+01 -2.459952840581536293e-03 7.850038528442382812e+00 2.354273557662963867e+00 -2.958167344331741333e-02
2.733000000000000000e+03 5.981780529022216797e+00 2.696051597595214844e+01 -8.489307947456836700e-03 -3.159186104312539101e-03 -3.494548145681619644e-03 6.172172259539365768e-03
2.734000000000000000e+03 3.934080839157104492e+00 2.598598098754882812e+01 1.881594886071980000e-03 -2.220565686002373695e-03 -1.016912356135435402e-04 7.206303416751325130e-05
2.735000000000000000e+03 7.502951812744140625e+01 2.132602119445800781e+01 2.200980205088853836e-03 7.657144069671630859e+00 2.297803401947021484e+00 -5.536680575460195541e-03
2.736000000000000000e+03 7.496880340576171875e+01 2.054188919067382812e+01 2.518709050491452217e-03 7.658096790313720703e+00 2.298184633255004883e+00 -6.309418473392724991e-03
2.737000000000000000e+03 3.924488544464111328e+00 1.872411727905273438e+01 -1.854676636867225170e-03 -2.597722050268203020e-04 -6.343346904031932354e-04 -8.286792581202462316e-05
2.738000000000000000e+03 4.738967418670654297e+00 2.108371925354003906e+01 -1.780353835783898830e-03 -1.640550675801932812e-03 -1.026271376758813858e-03 9.473615791648626328e-04
2.739000000000000000e+03 3.980759382247924805e+00 2.032870483398437500e+01 -1.607000478543341160e-03 -1.176863559521734715e-03 -8.351592114195227623e-04 3.901558229699730873e-04
2.740000000000000000e+03 3.874831914901733398e+00 1.486161136627197266e+01 1.851262873969972134e-03 -3.707111754920333624e-04 4.441654891707003117e-04 -3.546124498825520277e-04
2.741000000000000000e+03 4.578748703002929688e+00 1.484037208557128906e+01 -1.491351751610636711e-03 7.087638950906693935e-04 -2.347763656871393323e-04 -3.291273897048085928e-04
2.742000000000000000e+03 3.889758825302124023e+00 1.254065513610839844e+01 -1.126495655626058578e-03 1.915381435537710786e-04 -2.804872638080269098e-04 1.180407343781553209e-04
2.743000000000000000e+03 4.557199954986572266e+00 1.332278251647949219e+01 -1.328590326011180878e-03 2.858008956536650658e-04 -3.128368407487869263e-04 1.613062777323648334e-04
2.744000000000000000e+03 4.678841590881347656e+00 1.626582527160644531e+01 -1.325216027908027172e-03 -3.588937106542289257e-04 -5.052328924648463726e-04 -1.068384790414711460e-06
2.745000000000000000e+03 1.037392711639404297e+01 1.717351341247558594e+01 1.287410152144730091e-03 5.356146139092743397e-04 5.469074239954352379e-04 1.300303265452384949e-04
2.746000000000000000e+03 4.608503341674804688e+00 1.409512042999267578e+01 1.660182490013539791e-03 -2.904126013163477182e-04 4.109309811610728502e-04 -4.583009867928922176e-04
2.747000000000000000e+03 7.512953186035156250e+01 1.415261363983154297e+01 3.321777563542127609e-03 7.667726039886474609e+00 2.301314353942871094e+00 -1.329812034964561462e-02
2.748000000000000000e+03 7.515579223632812500e+01 1.338584995269775391e+01 3.064052667468786240e-03 7.669254302978515625e+00 2.301695585250854492e+00 -1.378485467284917831e-02
2.749000000000000000e+03 4.725717067718505859e+00 2.020811080932617188e+01 1.230906345881521702e-03 8.248005760833621025e-04 6.167120882309973240e-04 -1.086230273358523846e-03
2.750000000000000000e+03 4.619079113006591797e+00 8.450533866882324219e+00 -7.981389062479138374e-04 6.184274388942867517e-05 -2.208888472523540258e-04 2.689863031264394522e-04
2.751000000000000000e+03 4.598309040069580078e+00 9.248361587524414062e+00 1.005828264169394970e-03 -1.061564835254102945e-04 2.699015312828123569e-04 -2.856070641428232193e-04
2.752000000000000000e+03 4.696012496948242188e+00 2.352998542785644531e+01 1.535253715701401234e-03 -1.082187402062118053e-03 1.359198940917849541e-04 -2.256310312077403069e-03
2.753000000000000000e+03 6.722250461578369141e+00 2.686644172668457031e+01 -6.413361057639122009e-03 -4.285431466996669769e-03 -3.209637710824608803e-03 2.502100775018334389e-03
2.754000000000000000e+03 2.538981437683105469e+01 1.860583496093750000e+01 2.503528259694576263e-02 8.163354873657226562e+00 2.456516981124877930e+00 7.700699381530284882e-03
2.755000000000000000e+03 4.592947959899902344e+00 1.552108860015869141e+01 1.957857282832264900e-03 6.669240974588319659e-05 6.073649274185299873e-04 -2.190278028137981892e-04
2.756000000000000000e+03 2.530790901184082031e+01 1.777403831481933594e+01 2.970273979008197784e-02 8.166512489318847656e+00 2.458864450454711914e+00 1.507659256458282471e-02
2.757000000000000000e+03 7.445274353027343750e+01 -2.258245849609375000e+01 -2.664759522303938866e-03 7.840003490447998047e+00 2.351201534271240234e+00 -3.389646485447883606e-02
2.758000000000000000e+03 1.141503334045410156e+01 -2.209499931335449219e+01 -6.337925791740417480e-03 -1.308545033680275083e-04 -1.940634101629257202e-03 -3.834436647593975067e-04
2.759000000000000000e+03 1.071175670623779297e+01 -2.346646499633789062e+01 6.377357523888349533e-03 -4.140998062212020159e-04 1.788977300748229027e-03 -6.726225255988538265e-04
2.760000000000000000e+03 7.495006561279296875e+01 1.808331871032714844e+01 2.958604833111166954e-03 7.661261558532714844e+00 2.299266099929809570e+00 -8.752834051847457886e-03
2.761000000000000000e+03 5.428363323211669922e+00 2.352461051940917969e+01 -4.506179597228765488e-03 2.046624576905742288e-04 -1.290455227717757225e-03 3.090106416493654251e-03
2.762000000000000000e+03 1.003773307800292969e+01 2.669092559814453125e+01 -8.112686686217784882e-03 2.688774839043617249e-04 -2.353142714127898216e-03 -5.677179899066686630e-03
2.763000000000000000e+03 7.541068267822265625e+01 2.846178627014160156e+01 4.478677874431014061e-04 7.650496482849121094e+00 2.295283317565917969e+00 -8.880345849320292473e-04
2.764000000000000000e+03 3.920499801635742188e+00 1.174344921112060547e+01 1.152719138190150261e-03 -1.196927260025404394e-04 3.099079185631126165e-04 -3.892536624334752560e-04
2.765000000000000000e+03 1.172105216979980469e+01 -7.250797748565673828e+00 -3.020329459104686975e-04 -4.156956274528056383e-04 -2.153185778297483921e-04 -1.776191056706011295e-04
2.766000000000000000e+03 7.474849700927734375e+01 2.514131546020507812e+01 2.142278477549552917e-03 7.656105041503906250e+00 2.297474145889282227e+00 -2.626099623739719391e-03
2.767000000000000000e+03 4.650796890258789062e+00 1.176200675964355469e+01 -9.319687378592789173e-04 1.471761061111465096e-04 -2.354377938900142908e-04 8.699045429239049554e-05
2.768000000000000000e+03 5.957106590270996094e+00 3.446207427978515625e+01 -1.024396624416112900e-02 1.679897308349609375e-03 -2.569220494478940964e-03 2.956703677773475647e-02
2.769000000000000000e+03 1.065147781372070312e+01 1.228613281250000000e+01 1.438279432477429509e-04 2.481007832102477551e-04 1.175786164822056890e-04 -7.315998118428979069e-06
2.770000000000000000e+03 5.192070960998535156e+00 -3.419791793823242188e+01 -9.334581904113292694e-03 1.021102350205183029e-02 2.629324153531342745e-04 -3.787926584482192993e-02
2.771000000000000000e+03 5.463118076324462891e+00 -3.292534637451171875e+01 -6.588541436940431595e-03 7.514914497733116150e-03 2.779118658509105444e-04 -3.522816300392150879e-02
2.772000000000000000e+03 5.355107784271240234e+00 8.509000778198242188e+00 8.385516703128814697e-04 -2.136026159860193729e-04 1.874847075669094920e-04 -2.416560746496543288e-04
2.773000000000000000e+03 4.672145843505859375e+00 1.090539264678955078e+01 1.094720908440649509e-03 2.366296030231751502e-05 3.355151566211134195e-04 -2.814175677485764027e-04
2.774000000000000000e+03 4.223122119903564453e+00 3.220422363281250000e+01 -4.771492443978786469e-03 -5.598017945885658264e-03 -3.110853256657719612e-03 1.817258447408676147e-02
2.775000000000000000e+03 4.494528293609619141e+00 3.117092132568359375e+01 -7.959381677210330963e-03 4.917032201774418354e-04 -2.240303438156843185e-03 1.204326562583446503e-02
2.776000000000000000e+03 2.547275161743164062e+01 2.450886154174804688e+01 5.204781889915466309e-02 8.165210723876953125e+00 2.465177536010742188e+00 -6.121075153350830078e-02
2.777000000000000000e+03 2.539060783386230469e+01 2.522900009155273438e+01 4.350358247756958008e-02 8.171729087829589844e+00 2.464569807052612305e+00 -6.356281042098999023e-02
2.778000000000000000e+03 7.453192901611328125e+01 2.826954269409179688e+01 1.420450164005160332e-03 7.656350612640380859e+00 2.297331333160400391e+00 -1.255241921171545982e-03
2.779000000000000000e+03 7.462538146972656250e+01 2.748387527465820312e+01 8.435619529336690903e-04 7.656075477600097656e+00 2.297075748443603516e+00 -1.493079820647835732e-03
2.780000000000000000e+03 5.004169464111328125e+00 3.071511840820312500e+01 -1.760502718389034271e-02 -8.171609952114522457e-04 -5.526656284928321838e-03 1.841646991670131683e-02
2.781000000000000000e+03 7.531282806396484375e+01 -3.120017433166503906e+01 -4.684504121541976929e-03 7.883516311645507812e+00 2.363649606704711914e+00 -2.043507993221282959e-02
2.782000000000000000e+03 7.323468017578125000e+01 3.047147369384765625e+01 1.824110746383666992e-03 7.665485858917236328e+00 2.300193071365356445e+00 -3.587956016417592764e-04
2.783000000000000000e+03 4.540795803070068359e+00 6.915970325469970703e+00 -5.735367303714156151e-04 -2.639459307829383761e-05 -1.799793972168117762e-04 2.697803720366209745e-04
2.784000000000000000e+03 2.465110588073730469e+01 -7.783830165863037109e+00 -2.470551617443561554e-02 7.742145538330078125e+00 2.315232038497924805e+00 2.547502517700195312e-01
2.785000000000000000e+03 5.585938930511474609e+00 3.029929161071777344e+01 -9.891232475638389587e-03 4.727238323539495468e-03 -1.549198175780475140e-03 8.334072306752204895e-03
2.786000000000000000e+03 2.434764671325683594e+01 4.916706562042236328e+00 1.990238130092620850e-01 8.164234161376953125e+00 2.508977174758911133e+00 1.672319173812866211e-01
2.787000000000000000e+03 2.512673568725585938e+01 6.572798252105712891e+00 1.627358198165893555e-01 8.159765243530273438e+00 2.496750354766845703e+00 1.581526547670364380e-01
2.788000000000000000e+03 2.372917175292968750e+01 -1.439805698394775391e+01 9.375824779272079468e-02 7.567498683929443359e+00 2.298377037048339844e+00 1.938551515340805054e-01
2.789000000000000000e+03 4.807515621185302734e+00 -3.339186096191406250e+01 -1.128883380442857742e-02 6.704917177557945251e-03 -1.375174848362803459e-03 -3.427780792117118835e-02
2.790000000000000000e+03 1.203241634368896484e+01 9.218743324279785156e+00 -4.734044778160750866e-04 -2.755484019871801138e-04 -2.246858639409765601e-04 -3.553993155946955085e-05
2.791000000000000000e+03 1.077239990234375000e+01 2.526265716552734375e+01 -5.365719087421894073e-03 -1.095073297619819641e-03 -1.938237692229449749e-03 -2.893014170695096254e-04
2.792000000000000000e+03 1.074822425842285156e+01 2.450713920593261719e+01 -1.281155622564256191e-03 -5.329043488018214703e-04 -5.442179972305893898e-04 -2.153266919776797295e-03
2.793000000000000000e+03 1.252962303161621094e+01 1.937474632263183594e+01 3.067342331632971764e-03 7.478336337953805923e-04 1.144552719779312611e-03 5.065001896582543850e-04
2.794000000000000000e+03 1.187038421630859375e+01 2.088193321228027344e+01 -2.615182660520076752e-03 -9.179738117381930351e-04 -1.059946953319013119e-03 4.526025149971246719e-04
2.795000000000000000e+03 2.507980728149414062e+01 4.148559570312500000e+00 1.754389554262161255e-01 8.096508979797363281e+00 2.481584310531616211e+00 1.320937871932983398e-01
2.796000000000000000e+03 1.154716682434082031e+01 1.382454967498779297e+01 -1.652761595323681831e-03 -3.910876112058758736e-04 -6.131547270342707634e-04 9.307753061875700951e-04
2.797000000000000000e+03 1.056479930877685547e+01 1.520520019531250000e+01 1.998087856918573380e-03 4.915069439448416233e-04 7.468785042874515057e-04 3.311258042231202126e-04
2.798000000000000000e+03 2.465715217590332031e+01 -9.405553817749023438e+00 2.626859396696090698e-02 7.696950912475585938e+00 2.316965818405151367e+00 2.530030906200408936e-01
2.799000000000000000e+03 1.018620586395263672e+01 1.144099140167236328e+01 -4.924841341562569141e-04 -4.227845056448131800e-05 -1.604287826921790838e-04 5.059438408352434635e-04
2.800000000000000000e+03 9.717103004455566406e+00 6.517621040344238281e+00 3.190109855495393276e-04 1.841735502239316702e-04 1.509553549112752080e-04 4.024625923193525523e-06
2.801000000000000000e+03 2.472953414916992188e+01 -3.061864614486694336e+00 -3.194950893521308899e-02 7.859741210937500000e+00 2.348337411880493164e+00 1.941869556903839111e-01
2.802000000000000000e+03 1.256462860107421875e+01 3.226488113403320312e+01 -5.368082597851753235e-02 6.346293725073337555e-03 -1.420035958290100098e-02 -2.244852483272552490e-02
2.803000000000000000e+03 2.464639472961425781e+01 -1.106853771209716797e+01 6.519504636526107788e-02 7.655126571655273438e+00 2.316096544265747070e+00 2.370694577693939209e-01
2.804000000000000000e+03 2.465545082092285156e+01 -1.023273849487304688e+01 5.279885232448577881e-02 7.678534507751464844e+00 2.319400072097778320e+00 2.468530982732772827e-01
2.805000000000000000e+03 2.510183715820312500e+01 4.964875698089599609e+00 1.844024807214736938e-01 8.117262840270996094e+00 2.490499496459960938e+00 1.434862464666366577e-01
2.806000000000000000e+03 1.186623191833496094e+01 -1.403615283966064453e+01 3.007134422659873962e-03 -1.134208105213474482e-05 8.987376932054758072e-04 -7.538445061072707176e-04
2.807000000000000000e+03 6.233778476715087891e+00 -3.204061126708984375e+01 -6.344472989439964294e-03 8.777030743658542633e-03 7.297673728317022324e-04 -6.954074371606111526e-03
2.808000000000000000e+03 2.501292800903320312e+01 2.507210254669189453e+00 1.114467456936836243e-01 8.065297126770019531e+00 2.453023195266723633e+00 1.195261478424072266e-01
2.809000000000000000e+03 2.504955863952636719e+01 3.327938795089721680e+00 1.484218686819076538e-01 8.080465316772460938e+00 2.468666076660156250e+00 1.196318864822387695e-01
2.810000000000000000e+03 2.454756355285644531e+01 -1.601045036315917969e+01 -9.923097677528858185e-04 7.540827751159667969e+00 2.261950492858886719e+00 1.456833779811859131e-01
2.811000000000000000e+03 2.454236030578613281e+01 -1.518283557891845703e+01 4.708753526210784912e-02 7.553379058837890625e+00 2.280139923095703125e+00 1.601234078407287598e-01
2.812000000000000000e+03 1.081204319000244141e+01 -2.152774620056152344e+01 -5.315729416906833649e-03 8.652215474285185337e-04 -1.335152424871921539e-03 5.228641384746879339e-05
2.813000000000000000e+03 2.511647987365722656e+01 5.772548198699951172e+00 1.796672940254211426e-01 8.137371063232421875e+00 2.495111465454101562e+00 1.547848731279373169e-01
2.814000000000000000e+03 2.462133407592773438e+01 -1.357936668395996094e+01 8.480384945869445801e-02 7.588583469390869141e+00 2.302016258239746094e+00 1.906088888645172119e-01
2.815000000000000000e+03 1.294473934173583984e+01 3.390191268920898438e+01 -9.829730540513992310e-02 3.150558099150657654e-02 -2.003751881420612335e-02 -6.438492331653833389e-03
2.816000000000000000e+03 1.104953289031982422e+01 3.218951797485351562e+01 -4.976705461740493774e-02 8.809525519609451294e-03 -1.228725817054510117e-02 -8.060005493462085724e-03
2.817000000000000000e+03 5.521935462951660156e+00 3.712485885620117188e+01 -3.645868739113211632e-03 -2.627638401463627815e-03 -1.882052165456116199e-03 4.280456155538558960e-02
2.818000000000000000e+03 1.176236438751220703e+01 -3.144522094726562500e+01 -5.533804185688495636e-03 2.706033876165747643e-03 -8.483310812152922153e-04 2.203929983079433441e-02
2.819000000000000000e+03 6.731120586395263672e+00 -3.401193618774414062e+01 -3.204089356586337090e-03 1.555440202355384827e-02 3.705093869939446449e-03 -1.840735785663127899e-02
2.820000000000000000e+03 1.083168411254882812e+01 2.932598304748535156e+01 -2.199890650808811188e-02 8.256413973867893219e-03 -4.122747574001550674e-03 -1.101102679967880249e-02
2.821000000000000000e+03 1.078874683380126953e+01 2.763656997680664062e+01 -1.065169926732778549e-02 3.793126088567078114e-04 -3.081715898588299751e-03 -7.191254291683435440e-03
2.822000000000000000e+03 1.034477138519287109e+01 -1.852223968505859375e+01 6.914719706401228905e-04 -1.337311347015202045e-03 -1.937518100021407008e-04 1.635710592381656170e-03
2.823000000000000000e+03 1.083310127258300781e+01 -1.921488380432128906e+01 -2.651175251230597496e-03 1.354776322841644287e-04 -7.547092973254621029e-04 -9.282610262744128704e-04
2.824000000000000000e+03 2.427493095397949219e+01 -2.973507308959960938e+01 1.089505851268768311e-01 7.302201271057128906e+00 2.223345518112182617e+00 2.372153252363204956e-01
2.825000000000000000e+03 6.969486713409423828e+00 -3.833227920532226562e+01 2.171420305967330933e-02 -1.292880460823653266e-05 6.510382052510976791e-03 -4.499974846839904785e-02
2.826000000000000000e+03 5.483653545379638672e+00 -3.773319244384765625e+01 5.386002361774444580e-03 -1.636192016303539276e-02 -3.292775247246026993e-03 -3.561978414654731750e-02
2.827000000000000000e+03 1.082565498352050781e+01 3.005460548400878906e+01 -3.009638190269470215e-02 1.857266202569007874e-02 -3.457116195932030678e-03 -6.888092029839754105e-03
2.828000000000000000e+03 1.075494670867919922e+01 2.849535369873046875e+01 -1.696401834487915039e-02 4.367616027593612671e-03 -3.778920741751790047e-03 -2.561945933848619461e-03
2.829000000000000000e+03 1.049003982543945312e+01 -2.900146865844726562e+01 -2.017421089112758636e-02 -3.707380034029483795e-03 -7.164477370679378510e-03 6.283242255449295044e-03
2.830000000000000000e+03 1.112349414825439453e+01 -2.913404846191406250e+01 -1.405805232934653759e-03 4.247566219419240952e-03 8.525283192284405231e-04 -1.661848858930170536e-03
2.831000000000000000e+03 4.426157474517822266e+00 -3.710049057006835938e+01 -1.422119908966124058e-03 -1.607204414904117584e-02 -5.248249042779207230e-03 -3.151841089129447937e-02
2.832000000000000000e+03 6.978247642517089844e+00 -3.511874389648437500e+01 -6.145617738366127014e-02 3.124427609145641327e-02 -9.063570760190486908e-03 -3.339913114905357361e-02
2.833000000000000000e+03 2.435278892517089844e+01 -2.799862098693847656e+01 4.184264317154884338e-02 7.342971324920654297e+00 2.215444326400756836e+00 2.309538424015045166e-01
2.834000000000000000e+03 5.554409980773925781e+00 3.351097488403320312e+01 -2.279688231647014618e-02 4.278913140296936035e-03 -5.555390845984220505e-03 3.147004917263984680e-02
2.835000000000000000e+03 7.418734741210937500e+01 3.544677734375000000e+01 6.730427267029881477e-04 7.658851146697998047e+00 2.297857284545898438e+00 -1.293031436944147572e-05
2.836000000000000000e+03 7.530075073242187500e+01 -3.390470886230468750e+01 -4.870634991675615311e-03 7.893037319183349609e+00 2.366450071334838867e+00 -1.481967046856880188e-02
2.837000000000000000e+03 5.440851211547851562e+00 3.145618629455566406e+01 -1.035861019045114517e-02 3.655274631455540657e-03 -2.011000644415616989e-03 1.248003263026475906e-02
2.838000000000000000e+03 7.371491909027099609e+00 4.003015899658203125e+01 4.867135733366012573e-02 -2.303659357130527496e-02 7.690428756177425385e-03 4.849257320165634155e-02
2.839000000000000000e+03 5.157336235046386719e+00 4.003072738647460938e+01 2.119531854987144470e-02 -2.083523571491241455e-02 1.080251677194610238e-04 1.710994541645050049e-02
2.840000000000000000e+03 7.407060241699218750e+01 -3.509658432006835938e+01 -7.863711565732955933e-03 7.881967067718505859e+00 2.362231016159057617e+00 -1.499324385076761246e-02
2.841000000000000000e+03 7.555007934570312500e+01 -3.618989181518554688e+01 -4.940920509397983551e-03 7.902893066406250000e+00 2.369385719299316406e+00 -1.017471868544816971e-02
2.842000000000000000e+03 2.752971267700195312e+01 3.474271774291992188e+01 1.532237082719802856e-01 7.763637065887451172e+00 2.375058174133300781e+00 1.286274790763854980e-01
2.843000000000000000e+03 2.451694488525390625e+01 -2.070127868652343750e+01 -1.055873632431030273e-01 7.436249732971191406e+00 2.199198722839355469e+00 1.936322301626205444e-01
2.844000000000000000e+03 2.361852645874023438e+01 -2.563473701477050781e+01 -4.666223749518394470e-02 7.354882717132568359e+00 2.192466020584106445e+00 2.080756872892379761e-01
2.845000000000000000e+03 2.528750038146972656e+01 -2.452872085571289062e+01 -5.234168842434883118e-02 7.404777050018310547e+00 2.205730676651000977e+00 1.947972476482391357e-01
2.846000000000000000e+03 2.278195381164550781e+01 -2.583168792724609375e+01 -3.651314601302146912e-02 7.347645282745361328e+00 2.193339586257934570e+00 2.124121338129043579e-01
2.847000000000000000e+03 7.045619201660156250e+01 -3.613310623168945312e+01 -1.752055995166301727e-02 7.848658084869384766e+00 2.349341392517089844e+00 -1.924621872603893280e-02
2.848000000000000000e+03 7.445787811279296875e+01 -4.051674270629882812e+01 -5.127299111336469650e-03 7.894724845886230469e+00 2.366879224777221680e+00 -4.337845835834741592e-03
2.849000000000000000e+03 7.522393035888671875e+01 -3.291454315185546875e+01 -5.487339571118354797e-03 7.888728618621826172e+00 2.364972352981567383e+00 -1.779254525899887085e-02
2.850000000000000000e+03 7.381359100341796875e+01 3.408377456665039062e+01 6.031547673046588898e-04 7.662301540374755859e+00 2.298871278762817383e+00 -9.827570465859025717e-05
2.851000000000000000e+03 2.064940834045410156e+01 -3.845254135131835938e+01 -2.066441327333450317e-01 6.430828571319580078e+00 1.867255330085754395e+00 3.878264427185058594e-01
2.852000000000000000e+03 2.444493103027343750e+01 -3.623736953735351562e+01 8.163490891456604004e-02 6.967716217041015625e+00 2.114805459976196289e+00 -1.111385822296142578e-01
2.853000000000000000e+03 2.209541130065917969e+01 -4.142696380615234375e+01 -8.626610040664672852e-01 6.649809837341308594e+00 1.736144661903381348e+00 -1.821497529745101929e-01
2.854000000000000000e+03 2.837302207946777344e+01 3.333342742919921875e+01 1.918578147888183594e-01 7.827905178070068359e+00 2.405928850173950195e+00 4.387307912111282349e-02
2.855000000000000000e+03 7.256633758544921875e+00 -3.651283645629882812e+01 1.171656977385282516e-02 3.498128429055213928e-02 1.400935649871826172e-02 -6.804717332124710083e-02
2.856000000000000000e+03 1.059186267852783203e+01 -5.220389842987060547e+00 -3.938009831472299993e-05 -5.182553431950509548e-04 -1.672906364547088742e-04 3.365009033586829901e-04
2.857000000000000000e+03 8.378012657165527344e+00 6.343019962310791016e+00 3.516844590194523335e-04 1.561063108965754509e-04 1.523372338851913810e-04 -6.033202589605934918e-05
2.858000000000000000e+03 5.826531887054443359e+00 6.221177101135253906e+00 4.036587488371878862e-04 1.286524202441796660e-04 1.596933580003678799e-04 -1.936032203957438469e-04
2.859000000000000000e+03 6.454577445983886719e+00 6.224037647247314453e+00 -3.073115076404064894e-04 -1.609163300599902868e-04 -1.404683425789698958e-04 1.289497449761256576e-04
2.860000000000000000e+03 6.516173362731933594e+00 5.595547199249267578e+00 3.294165653642266989e-04 1.354116247966885567e-04 1.394484570482745767e-04 -1.102802925743162632e-04
2.861000000000000000e+03 5.170312404632568359e+00 6.867589950561523438e+00 5.203675245866179466e-04 1.748807553667575121e-04 2.085744781652465463e-04 -3.767371235881000757e-04
2.862000000000000000e+03 1.124844264984130859e+01 6.015435218811035156e+00 -3.094954299740493298e-04 -2.932191418949514627e-04 -1.808143715607002378e-04 -1.454565353924408555e-04
2.863000000000000000e+03 1.134916877746582031e+01 9.055265426635742188e+00 4.196284571662545204e-04 2.982375444844365120e-04 2.153598034055903554e-04 6.187277904246002436e-05
2.864000000000000000e+03 7.664286613464355469e+00 1.006278514862060547e+01 1.002749893814325333e-03 -2.386822452535852790e-04 2.292202843818813562e-04 -4.061179351992905140e-04
2.865000000000000000e+03 2.565460968017578125e+01 1.478903740644454956e-01 2.650142647325992584e-02 7.980106353759765625e+00 2.401982307434082031e+00 1.338883936405181885e-01
2.866000000000000000e+03 7.728851318359375000e+00 6.288037776947021484e+00 -2.965632884297519922e-04 -1.621295232325792313e-04 -1.376078434986993670e-04 8.326405804837122560e-05
2.867000000000000000e+03 1.119172477722167969e+01 -1.180238628387451172e+01 1.845990889705717564e-03 2.948114415630698204e-04 6.422406877391040325e-04 -7.042139186523854733e-04
2.868000000000000000e+03 1.108098411560058594e+01 -1.408316802978515625e+01 -2.813789062201976776e-03 3.314766217954456806e-04 -7.446937379427254200e-04 4.154631169512867928e-04
2.869000000000000000e+03 2.547798538208007812e+01 -6.136316299438476562e+00 -4.391615092754364014e-02 7.796130180358886719e+00 2.325664281845092773e+00 2.119327187538146973e-01
2.870000000000000000e+03 2.640714836120605469e+01 -1.631420516967773438e+01 -1.283842884004116058e-02 7.558177471160888672e+00 2.263601779937744141e+00 1.231239363551139832e-01
2.871000000000000000e+03 2.534828186035156250e+01 -1.590265750885009766e+01 7.302344776690006256e-03 7.546359062194824219e+00 2.266098499298095703e+00 1.390985846519470215e-01
2.872000000000000000e+03 2.632937049865722656e+01 -6.046520233154296875e+00 -3.586657717823982239e-02 7.799318313598632812e+00 2.329035520553588867e+00 1.874911487102508545e-01
2.873000000000000000e+03 2.470447349548339844e+01 -3.851207733154296875e+00 -4.367682337760925293e-02 7.842034816741943359e+00 2.339507341384887695e+00 1.978188902139663696e-01
2.874000000000000000e+03 5.174491405487060547e+00 -6.254009246826171875e+00 8.600732544437050819e-04 3.792800707742571831e-04 3.718060033861547709e-04 -1.069748832378536463e-04
2.875000000000000000e+03 5.243442058563232422e+00 2.665519905090332031e+01 -1.010441780090332031e-02 -5.246079526841640472e-04 -3.188707632943987846e-03 8.464180864393711090e-03
2.876000000000000000e+03 2.364048004150390625e+01 -2.261430740356445312e+01 -7.342954725027084351e-02 7.366225719451904297e+00 2.187838792800903320e+00 2.025661468505859375e-01
2.877000000000000000e+03 2.275273704528808594e+01 -2.164872169494628906e+01 -6.992851942777633667e-02 7.319957733154296875e+00 2.175008773803710938e+00 2.194390445947647095e-01
2.878000000000000000e+03 1.223354148864746094e+01 7.224582195281982422e+00 6.811362691223621368e-04 2.757190668489784002e-05 2.126124454662203789e-04 1.180567232950124890e-05
2.879000000000000000e+03 1.029573440551757812e+01 1.777372550964355469e+01 -2.502461138647049665e-04 -9.189023985527455807e-04 -3.507445508148521185e-04 2.681890327949076891e-04
2.880000000000000000e+03 5.882339954376220703e+00 -6.330077171325683594e+00 -8.114232914522290230e-04 -2.922670391853898764e-04 -3.311070904601365328e-04 -5.922494892729446292e-05
2.881000000000000000e+03 1.199160766601562500e+01 6.002756595611572266e+00 5.757453036494553089e-04 2.747029648162424564e-04 2.551344805397093296e-04 1.100719600799493492e-04
2.882000000000000000e+03 1.213669109344482422e+01 6.656945705413818359e+00 -8.395886979997158051e-04 -1.179499231511726975e-04 -2.872615878004580736e-04 -1.158425293397158384e-04
2.883000000000000000e+03 5.341707229614257812e+00 -3.169080162048339844e+01 6.425950210541486740e-03 -1.724762143567204475e-03 1.410356373526155949e-03 -1.413968764245510101e-02
2.884000000000000000e+03 5.287618637084960938e+00 -3.114283180236816406e+01 -2.970718778669834137e-02 5.816410295665264130e-03 -7.167233154177665710e-03 -9.654873982071876526e-03
2.885000000000000000e+03 2.551855278015136719e+01 -1.188446807861328125e+01 6.243717297911643982e-02 7.630791187286376953e+00 2.307968616485595703e+00 2.016233503818511963e-01
2.886000000000000000e+03 1.117191219329833984e+01 -3.074625587463378906e+01 -6.364359287545084953e-04 2.154798712581396103e-03 4.555088235065340996e-04 1.643062010407447815e-02
2.887000000000000000e+03 7.617156028747558594e+00 -5.423048019409179688e+00 -4.280495923012495041e-04 -1.751692179823294282e-04 -1.809656387194991112e-04 -2.835267223417758942e-04
2.888000000000000000e+03 7.631220817565917969e+00 -6.549087047576904297e+00 -1.508511020801961422e-03 1.342944306088611484e-04 -4.122649552300572395e-04 -1.123018373618833721e-04
2.889000000000000000e+03 9.396970748901367188e+00 3.104710578918457031e+01 -3.083848580718040466e-02 5.047647282481193542e-03 -7.737251464277505875e-03 7.501318119466304779e-03
2.890000000000000000e+03 2.570112800598144531e+01 9.442805647850036621e-01 5.018930882215499878e-02 8.001048088073730469e+00 2.415371179580688477e+00 1.181717440485954285e-01
2.891000000000000000e+03 1.035376453399658203e+01 1.658609390258789062e+01 -1.078403787687420845e-03 -1.191841904073953629e-03 -6.810736958868801594e-04 3.732258337549865246e-04
2.892000000000000000e+03 4.457368850708007812e+00 2.840645599365234375e+01 2.481465344317257404e-04 -5.235197953879833221e-03 -1.496115350164473057e-03 6.227731239050626755e-03
2.893000000000000000e+03 5.719851970672607422e+00 2.925558280944824219e+01 -1.082340441644191742e-02 6.506538484245538712e-03 -1.295059570111334324e-03 5.134359933435916901e-03
2.894000000000000000e+03 1.021396732330322266e+01 -5.826158523559570312e+00 1.125332200899720192e-04 6.693878094665706158e-04 2.345763059565797448e-04 -4.440812626853585243e-04
2.895000000000000000e+03 9.238267898559570312e+00 -5.402171611785888672e+00 4.283891175873577595e-04 4.044520610477775335e-04 2.498523681424558163e-04 -2.245158975711092353e-05
2.896000000000000000e+03 4.616649150848388672e+00 1.940218544006347656e+01 -1.837381045334041119e-03 -1.669877558015286922e-03 -1.052177627570927143e-03 -4.616043879650533199e-04
2.897000000000000000e+03 1.031244659423828125e+01 1.276857948303222656e+01 -6.928148213773965836e-04 -5.867496365681290627e-04 -3.838693373836576939e-04 8.844580734148621559e-04
2.898000000000000000e+03 7.196208477020263672e+00 -6.156961917877197266e+00 7.076286419760435820e-05 -1.693803205853328109e-04 -2.958523509732913226e-05 -2.555795945227146149e-04
2.899000000000000000e+03 2.475778198242187500e+01 -2.272557020187377930e+00 -1.873588562011718750e-02 7.889925956726074219e+00 2.361356973648071289e+00 1.944624334573745728e-01
2.900000000000000000e+03 2.465381240844726562e+01 -8.588446617126464844e+00 6.228563841432332993e-03 7.720385074615478516e+00 2.317984104156494141e+00 2.579748630523681641e-01
2.901000000000000000e+03 5.305525302886962891e+00 -3.349566650390625000e+01 -2.954922616481781006e-02 5.838654469698667526e-03 -7.113171275705099106e-03 -7.214469835162162781e-03
2.902000000000000000e+03 1.025110721588134766e+01 -3.221012496948242188e+01 -4.685255140066146851e-02 2.877221442759037018e-03 -1.319259963929653168e-02 2.028235979378223419e-02
2.903000000000000000e+03 5.195672988891601562e+00 -2.938889122009277344e+01 -1.974187092855572701e-03 4.478902556002140045e-03 7.514145690947771072e-04 -4.775332286953926086e-03
2.904000000000000000e+03 2.548222160339355469e+01 -6.921547412872314453e+00 -3.718599677085876465e-02 7.773003101348876953e+00 2.320745229721069336e+00 2.221338450908660889e-01
2.905000000000000000e+03 4.576892852783203125e+00 1.256536293029785156e+01 1.332656829617917538e-03 -2.414387417957186699e-04 3.273654147051274776e-04 -4.311806405894458294e-04
2.906000000000000000e+03 8.548028945922851562e+00 -8.999120712280273438e+00 6.880437722429633141e-04 8.013836923055350780e-04 4.468282568268477917e-04 -2.479780232533812523e-04
2.907000000000000000e+03 8.660607337951660156e+00 -5.836152076721191406e+00 3.287533181719481945e-04 3.705850394908338785e-04 2.098015102092176676e-04 4.370813257992267609e-04
2.908000000000000000e+03 8.186693191528320312e+00 -5.919030666351318359e+00 -6.033749668858945370e-04 -7.174380152719095349e-05 -2.025356370722874999e-04 -6.017758860252797604e-04
2.909000000000000000e+03 7.416272735595703125e+01 3.076305580139160156e+01 5.303437355905771255e-04 7.659211158752441406e+00 2.297922372817993164e+00 -1.308373466599732637e-04
2.910000000000000000e+03 7.446400451660156250e+01 2.906928443908691406e+01 8.310939883813261986e-04 7.656983375549316406e+00 2.297344446182250977e+00 -6.731915054842829704e-04
2.911000000000000000e+03 5.163199424743652344e+00 -2.193482398986816406e+01 4.081527236849069595e-03 6.121529149822890759e-04 1.408104086294770241e-03 -6.902708555571734905e-04
2.912000000000000000e+03 5.176974773406982422e+00 -2.868921852111816406e+01 -1.500722486525774002e-02 -1.101554487831890583e-03 -4.832633771002292633e-03 -3.325313795357942581e-03
2.913000000000000000e+03 2.561146545410156250e+01 -6.389698386192321777e-01 6.817565765231847763e-03 7.952195644378662109e+00 2.387703895568847656e+00 1.461125016212463379e-01
2.914000000000000000e+03 2.478915786743164062e+01 -1.485377550125122070e+00 -1.344939321279525757e-02 7.921007633209228516e+00 2.372267484664916992e+00 1.897785365581512451e-01
2.915000000000000000e+03 1.126086330413818359e+01 9.746934890747070312e+00 -3.477217105682939291e-04 -2.838113578036427498e-04 -1.894599263323470950e-04 7.151596219046041369e-05
2.916000000000000000e+03 1.116216468811035156e+01 1.043157958984375000e+01 4.824106290470808744e-04 2.436954528093338013e-04 2.178318245569244027e-04 4.376769993541529402e-06
2.917000000000000000e+03 4.537514686584472656e+00 -2.572587013244628906e+01 3.627618309110403061e-03 1.072584884241223335e-03 1.410060911439359188e-03 -5.813346360810101032e-04
2.918000000000000000e+03 4.562393665313720703e+00 2.762175941467285156e+01 -1.252866629511117935e-02 4.103345796465873718e-03 -2.527596196159720421e-03 5.629568360745906830e-03
2.919000000000000000e+03 5.224386692047119141e+00 2.963899803161621094e+01 -1.512871589511632919e-02 -6.924352492205798626e-04 -4.746345337480306625e-03 1.337519008666276932e-02
2.920000000000000000e+03 5.142034053802490234e+00 -9.352775573730468750e+00 1.504459069110453129e-03 2.476527879480272532e-04 5.256335716694593430e-04 -3.108788223471492529e-05
2.921000000000000000e+03 1.037113380432128906e+01 1.369522762298583984e+01 -1.527195097878575325e-03 -4.013094294350594282e-04 -5.785513785667717457e-04 7.395265274681150913e-04
2.922000000000000000e+03 5.141910552978515625e+00 -1.557862854003906250e+01 3.352939151227474213e-03 9.423654410056769848e-05 1.034152694046497345e-03 1.964489638339728117e-04
2.923000000000000000e+03 4.527394294738769531e+00 -1.875004577636718750e+01 -3.438381943851709366e-03 -7.152435136958956718e-04 -1.246087602339684963e-03 6.516358116641640663e-04
2.924000000000000000e+03 1.038504600524902344e+01 -1.670450592041015625e+01 1.272162538953125477e-03 1.478470047004520893e-03 8.251898107118904591e-04 -1.098868204280734062e-03
2.925000000000000000e+03 5.178854942321777344e+00 -2.493844985961914062e+01 4.133807029575109482e-03 6.747617153450846672e-04 1.442570704966783524e-03 -6.958573940210044384e-04
2.926000000000000000e+03 6.526515483856201172e+00 -9.461079597473144531e+00 1.548413885757327080e-03 2.327144175069406629e-04 5.343384691514074802e-04 -3.627556725405156612e-05
2.927000000000000000e+03 4.507609844207763672e+00 -1.955603599548339844e+01 3.991666715592145920e-03 2.515221713110804558e-04 1.272956607863306999e-03 -5.326556902218726464e-07
2.928000000000000000e+03 6.690229415893554688e+00 -1.914030838012695312e+01 1.847432460635900497e-03 9.594784933142364025e-04 8.420732920058071613e-04 -1.262633595615625381e-03
2.929000000000000000e+03 5.134832382202148438e+00 -2.117307281494140625e+01 -4.358834121376276016e-03 -1.305041601881384850e-03 -1.699162647128105164e-03 1.371077378280460835e-03
2.930000000000000000e+03 5.131231784820556641e+00 -2.039882469177246094e+01 4.467428661882877350e-03 -1.212029474118025973e-05 1.336592482402920723e-03 -5.293124704621732235e-04
2.931000000000000000e+03 4.536897659301757812e+00 -2.649137687683105469e+01 -8.699605241417884827e-03 -2.111481036990880966e-03 -3.243325976654887199e-03 -1.559413271024823189e-03
2.932000000000000000e+03 1.053533267974853516e+01 -2.489424324035644531e+01 4.764395765960216522e-03 1.197119476273655891e-03 1.788454479537904263e-03 -6.164641235955059528e-04
2.933000000000000000e+03 5.147296428680419922e+00 -1.482813167572021484e+01 -2.762696938589215279e-03 -4.289282078389078379e-04 -9.574875002726912498e-04 8.687419176567345858e-05
2.934000000000000000e+03 5.868493080139160156e+00 -2.275080871582031250e+01 2.764507895335555077e-03 1.595079083926975727e-03 1.307876082137227058e-03 -6.995125440880656242e-04
2.935000000000000000e+03 4.476793766021728516e+00 -1.248351669311523438e+01 -2.003136556595563889e-03 -3.898263094015419483e-04 -7.178888772614300251e-04 1.828863605624064803e-05
2.936000000000000000e+03 1.050976657867431641e+01 -1.056032657623291016e+01 -9.427757468074560165e-04 -6.564991781488060951e-04 -4.797824949491769075e-04 6.119407480582594872e-04
2.937000000000000000e+03 5.164961338043212891e+00 -2.796505355834960938e+01 2.026179805397987366e-03 1.516707940027117729e-03 1.062866300344467163e-03 -2.423070603981614113e-03
2.938000000000000000e+03 5.216827869415283203e+00 -2.646211814880371094e+01 2.337179146707057953e-03 1.654219813644886017e-03 1.197419711388647556e-03 -5.131049547344446182e-04
2.939000000000000000e+03 5.172220230102539062e+00 -1.094942474365234375e+01 1.712270197458565235e-03 3.290007298346608877e-04 6.123812636360526085e-04 -2.174509427277371287e-05
2.940000000000000000e+03 5.148795127868652344e+00 -1.408220672607421875e+01 2.808904042467474937e-03 2.435045462334528565e-04 9.157225722447037697e-04 1.425495429430156946e-04
2.941000000000000000e+03 1.045056056976318359e+01 -1.004510402679443359e+01 9.289016597904264927e-04 4.682958242483437061e-04 4.191592452116310596e-04 -2.333246520720422268e-04
2.942000000000000000e+03 7.436823272705078125e+01 -2.342395019531250000e+01 -4.120228812098503113e-03 7.843892097473144531e+00 2.351931571960449219e+00 -3.456540778279304504e-02
2.943000000000000000e+03 5.140485763549804688e+00 -7.782824993133544922e+00 1.225773943588137627e-03 2.687313826754689217e-04 4.483516095206141472e-04 -4.720358629128895700e-05
2.944000000000000000e+03 1.113199329376220703e+01 -2.639431190490722656e+01 -9.478623047471046448e-03 -3.818894503638148308e-03 -3.989255055785179138e-03 5.067433230578899384e-03
2.945000000000000000e+03 7.911245346069335938e+00 2.544441604614257812e+01 -3.841478377580642700e-03 -2.601728308945894241e-03 -1.932961982674896717e-03 -2.938257763162255287e-03
2.946000000000000000e+03 7.442144775390625000e+01 -2.101435279846191406e+01 -2.308949595317244530e-03 7.832694530487060547e+00 2.349115610122680664e+00 -3.541729971766471863e-02
2.947000000000000000e+03 5.146952629089355469e+00 -7.009569168090820312e+00 -1.030509360134601593e-03 -3.072961699217557907e-04 -4.013416473753750324e-04 1.175903526018373668e-04
2.948000000000000000e+03 5.139281749725341797e+00 -8.565523147583007812e+00 -1.316617708653211594e-03 -2.567252668086439371e-04 -4.720028955489397049e-04 5.644678822136484087e-05
2.949000000000000000e+03 5.861553668975830078e+00 -7.828700065612792969e+00 -1.162783592008054256e-03 -2.750585845205932856e-04 -4.313526442274451256e-04 -1.972878817468881607e-05
2.950000000000000000e+03 7.376160430908203125e+01 2.725163459777832031e+01 1.766052446328103542e-03 7.661746978759765625e+00 2.299053907394409180e+00 -1.659347792156040668e-03
2.951000000000000000e+03 7.404454040527343750e+01 2.254823875427246094e+01 3.729341551661491394e-03 7.662371158599853516e+00 2.299830198287963867e+00 -5.407278425991535187e-03
2.952000000000000000e+03 2.597581481933593750e+01 1.610918426513671875e+01 3.457369282841682434e-02 8.155093193054199219e+00 2.456899881362915039e+00 3.442642837762832642e-02
2.953000000000000000e+03 7.376266479492187500e+01 2.334979248046875000e+01 2.937308512628078461e-03 7.663300037384033203e+00 2.299871206283569336e+00 -4.489484708756208420e-03
2.954000000000000000e+03 7.430588531494140625e+01 1.480801677703857422e+01 4.302092362195253372e-03 7.671130657196044922e+00 2.302629709243774414e+00 -1.429231651127338409e-02
2.955000000000000000e+03 2.639102745056152344e+01 2.211699104309082031e+01 4.870638623833656311e-02 8.133198738098144531e+00 2.454571485519409180e+00 -2.726258710026741028e-02
2.956000000000000000e+03 7.436643981933593750e+01 2.129732131958007812e+01 2.766077872365713120e-03 7.661089420318603516e+00 2.299156665802001953e+00 -6.292975042015314102e-03
2.957000000000000000e+03 1.124714374542236328e+01 -1.482281970977783203e+01 3.278918098658323288e-03 -4.086018598172813654e-04 8.610949153080582619e-04 -5.019970703870058060e-04
2.958000000000000000e+03 8.544536590576171875e+00 -1.703675270080566406e+01 4.137971845921128988e-04 6.449318025261163712e-04 3.176186874043196440e-04 -9.409027406945824623e-04
2.959000000000000000e+03 7.475221252441406250e+01 2.592351722717285156e+01 1.277326373383402824e-03 7.655657768249511719e+00 2.297080516815185547e+00 -2.028058050200343132e-03
2.960000000000000000e+03 7.269027709960937500e+01 2.285841751098632812e+01 4.702219739556312561e-03 7.670791625976562500e+00 2.302648305892944336e+00 -5.981635302305221558e-03
2.961000000000000000e+03 7.377532196044921875e+01 -1.527680397033691406e+01 -5.746021051891148090e-04 7.799284934997558594e+00 2.339613199234008789e+00 -4.217934980988502502e-02
2.962000000000000000e+03 7.497840881347656250e+01 1.727583122253417969e+01 3.286912338808178902e-03 7.662467479705810547e+00 2.299726247787475586e+00 -9.920654818415641785e-03
2.963000000000000000e+03 7.424337768554687500e+01 1.557963085174560547e+01 4.028366412967443466e-03 7.669782161712646484e+00 2.302143335342407227e+00 -1.300918497145175934e-02
2.964000000000000000e+03 7.453850555419921875e+01 -1.374913978576660156e+01 -6.687322165817022324e-04 7.794087886810302734e+00 2.338025569915771484e+00 -3.863333910703659058e-02
2.965000000000000000e+03 7.481474304199218750e+01 -2.566203880310058594e+01 -3.480866085737943649e-03 7.857911109924316406e+00 2.356329202651977539e+00 -2.930091135203838348e-02
2.966000000000000000e+03 7.445160675048828125e+01 -2.179422950744628906e+01 -3.024011151865124702e-03 7.836812496185302734e+00 2.350136518478393555e+00 -3.504987806081771851e-02
2.967000000000000000e+03 1.059429550170898438e+01 -1.606362915039062500e+01 -1.344850403256714344e-03 -1.400617882609367371e-03 -8.236404974013566971e-04 4.889085539616644382e-04
2.968000000000000000e+03 2.674700164794921875e+01 2.801685142517089844e+01 1.155639663338661194e-01 8.078100204467773438e+00 2.458099365234375000e+00 -9.875067323446273804e-02
2.969000000000000000e+03 7.460710048675537109e+00 -3.373696899414062500e+01 -5.131832510232925415e-02 2.500858157873153687e-02 -7.892922498285770416e-03 -2.599471434950828552e-02
2.970000000000000000e+03 7.435816192626953125e+01 1.102234554290771484e+01 4.112891852855682373e-03 7.679791927337646484e+00 2.305171489715576172e+00 -1.901076361536979675e-02
2.971000000000000000e+03 7.441587829589843750e+01 7.801054000854492188e+00 3.986975178122520447e-03 7.689299106597900391e+00 2.307985782623291016e+00 -2.319508045911788940e-02
2.972000000000000000e+03 1.003389739990234375e+01 2.442907714843750000e+01 -4.353718832135200500e-03 -1.304959994740784168e-03 -1.697603729553520679e-03 4.623816348612308502e-04
2.973000000000000000e+03 2.589394950866699219e+01 8.175284385681152344e+00 1.270998120307922363e-01 8.143458366394042969e+00 2.481167316436767578e+00 1.349290907382965088e-01
2.974000000000000000e+03 2.646061897277832031e+01 2.730872344970703125e+01 1.033415123820304871e-01 8.108252525329589844e+00 2.463478326797485352e+00 -9.714709222316741943e-02
2.975000000000000000e+03 7.437615203857421875e+01 1.181840991973876953e+01 4.297681152820587158e-03 7.677531242370605469e+00 2.304548740386962891e+00 -1.809767261147499084e-02
2.976000000000000000e+03 5.474779605865478516e+00 2.189200401306152344e+01 -2.101835561916232109e-03 -2.025489229708909988e-03 -1.238197437487542629e-03 1.547561027109622955e-03
2.977000000000000000e+03 7.442807006835937500e+01 -7.435011386871337891e+00 1.178626087494194508e-03 7.758864402770996094e+00 2.328012943267822266e+00 -3.810133785009384155e-02
2.978000000000000000e+03 7.513947296142578125e+01 9.444499015808105469e+00 3.296336159110069275e-03 7.680515766143798828e+00 2.305143594741821289e+00 -1.895998604595661163e-02
2.979000000000000000e+03 7.436085510253906250e+01 1.021334743499755859e+01 4.289300180971622467e-03 7.682152271270751953e+00 2.305932521820068359e+00 -2.033220231533050537e-02
2.980000000000000000e+03 7.514200592041015625e+01 -1.774514007568359375e+01 -1.502670929767191410e-03 7.819308757781982422e+00 2.345341920852661133e+00 -3.417990729212760925e-02
2.981000000000000000e+03 7.442350769042968750e+01 -5.815145969390869141e+00 1.633490785025060177e-03 7.750156402587890625e+00 2.325536966323852539e+00 -3.736112266778945923e-02
2.982000000000000000e+03 7.364457702636718750e+01 -8.251927375793457031e+00 1.239517005160450935e-03 7.762467861175537109e+00 2.329112291336059570e+00 -4.255114495754241943e-02
2.983000000000000000e+03 2.547295188903808594e+01 1.945619392395019531e+01 3.112252615392208099e-02 8.161245346069335938e+00 2.457710266113281250e+00 -1.258379779756069183e-03
2.984000000000000000e+03 2.589901161193847656e+01 8.968011856079101562e+00 1.105576157569885254e-01 8.154451370239257812e+00 2.479502677917480469e+00 1.268076002597808838e-01
2.985000000000000000e+03 7.452760314941406250e+01 -1.453946113586425781e+01 -2.249494718853384256e-04 7.798217296600341797e+00 2.339397668838500977e+00 -3.830699250102043152e-02
2.986000000000000000e+03 7.441363525390625000e+01 7.296285033226013184e-01 3.191307652741670609e-03 7.717564105987548828e+00 2.316226720809936523e+00 -3.198767825961112976e-02
2.987000000000000000e+03 2.514601707458496094e+01 8.170875549316406250e+00 1.193346306681632996e-01 8.189017295837402344e+00 2.492505550384521484e+00 1.460663229227066040e-01
2.988000000000000000e+03 2.589740371704101562e+01 7.385221958160400391e+00 1.452722102403640747e-01 8.130308151245117188e+00 2.482674121856689453e+00 1.397701352834701538e-01
2.989000000000000000e+03 2.595639801025390625e+01 1.451993846893310547e+01 4.130838811397552490e-02 8.159697532653808594e+00 2.460301876068115234e+00 5.179269984364509583e-02
2.990000000000000000e+03 2.591184234619140625e+01 9.758236885070800781e+00 9.374674409627914429e-02 8.160412788391113281e+00 2.476247787475585938e+00 1.160334050655364990e-01
2.991000000000000000e+03 7.520285797119140625e+01 3.107532501220703125e+00 2.750123385339975357e-03 7.704579353332519531e+00 2.312198877334594727e+00 -2.600463293492794037e-02
2.992000000000000000e+03 7.444257354736328125e+01 2.347806215286254883e+00 3.433277364820241928e-03 7.710318088531494141e+00 2.314125537872314453e+00 -3.011884167790412903e-02
2.993000000000000000e+03 7.446139526367187500e+01 3.136640548706054688e+00 3.446300746873021126e-03 7.706892967224121094e+00 2.313101768493652344e+00 -2.895223721861839294e-02
2.994000000000000000e+03 2.552698898315429688e+01 2.031641197204589844e+01 2.737293578684329987e-02 8.159128189086914062e+00 2.455950498580932617e+00 -8.037051185965538025e-03
2.995000000000000000e+03 2.646117591857910156e+01 2.124934196472167969e+01 3.809778764843940735e-02 8.135817527770996094e+00 2.452174663543701172e+00 -1.586745306849479675e-02
2.996000000000000000e+03 2.590395355224609375e+01 6.600808620452880859e+00 1.609411686658859253e-01 8.112266540527343750e+00 2.481962442398071289e+00 1.394755840301513672e-01
2.997000000000000000e+03 7.518359375000000000e+01 -4.176031112670898438e+00 1.717302366159856319e-03 7.740968227386474609e+00 2.322805643081665039e+00 -3.213455155491828918e-02
2.998000000000000000e+03 7.442517852783203125e+01 -6.629937648773193359e+00 1.652911538258194923e-03 7.754462242126464844e+00 2.326834440231323242e+00 -3.763187304139137268e-02
2.999000000000000000e+03 7.374211883544921875e+01 3.950509309768676758e+00 4.462594632059335709e-03 7.705937862396240234e+00 2.313120126724243164e+00 -3.081632964313030243e-02
3.000000000000000000e+03 7.442095947265625000e+01 -4.176395416259765625e+00 2.064401283860206604e-03 7.741525650024414062e+00 2.323076963424682617e+00 -3.634705021977424622e-02
3.001000000000000000e+03 7.440943145751953125e+01 -2.529671669006347656e+00 2.485163509845733643e-03 7.733161449432373047e+00 2.320693969726562500e+00 -3.509930148720741272e-02
3.002000000000000000e+03 7.523271179199218750e+01 -1.058620548248291016e+01 6.099438760429620743e-04 7.777689933776855469e+00 2.333489894866943359e+00 -3.431923314929008484e-02
3.003000000000000000e+03 7.492186737060546875e+01 1.973357772827148438e+01 2.566976705566048622e-03 7.658981323242187500e+00 2.298464536666870117e+00 -6.976917386054992676e-03
3.004000000000000000e+03 7.327905273437500000e+01 1.786780357360839844e+01 5.131204146891832352e-03 7.671927928924560547e+00 2.303117752075195312e+00 -1.130678318440914154e-02
3.005000000000000000e+03 2.519309425354003906e+01 1.295866203308105469e+01 4.501090571284294128e-02 8.188540458679199219e+00 2.470065593719482422e+00 6.847961992025375366e-02
3.006000000000000000e+03 2.595194244384765625e+01 1.292613315582275391e+01 5.239160358905792236e-02 8.163614273071289062e+00 2.464801549911499023e+00 7.178118824958801270e-02
3.007000000000000000e+03 1.062846946716308594e+01 -2.417348098754882812e+01 -6.822749041020870209e-03 -2.420803299173712730e-03 -2.773065818473696709e-03 3.666736301966011524e-04
3.008000000000000000e+03 7.450792694091796875e+01 -1.140215110778808594e+01 5.467135924845933914e-04 7.780784606933593750e+00 2.334399461746215820e+00 -3.854238614439964294e-02
3.009000000000000000e+03 7.517709350585937500e+01 -1.719774484634399414e+00 2.033731434494256973e-03 7.727921485900878906e+00 2.318986654281616211e+00 -3.053753264248371124e-02
3.010000000000000000e+03 7.440022277832031250e+01 -1.703387975692749023e+00 2.773064654320478439e-03 7.729007720947265625e+00 2.319534301757812500e+00 -3.428095206618309021e-02
3.011000000000000000e+03 2.592641258239746094e+01 1.054659366607666016e+01 8.218801021575927734e-02 8.163791656494140625e+00 2.473793745040893555e+00 1.049394309520721436e-01
3.012000000000000000e+03 2.593919563293457031e+01 1.133630371093750000e+01 6.924542039632797241e-02 8.164917945861816406e+00 2.470249176025390625e+00 9.356216341257095337e-02
3.013000000000000000e+03 7.453304290771484375e+01 -1.296536922454833984e+01 2.359437203267589211e-04 7.789470672607421875e+00 2.336911916732788086e+00 -3.843683004379272461e-02
3.014000000000000000e+03 7.521292114257812500e+01 5.487286090850830078e+00 2.849672222509980202e-03 7.694402694702148438e+00 2.309175729751586914e+00 -2.314625307917594910e-02
3.015000000000000000e+03 5.360647678375244141e+00 2.875435447692871094e+01 -9.173550643026828766e-03 -4.110735375434160233e-03 -3.985285758972167969e-03 1.004106644541025162e-02
3.016000000000000000e+03 4.583909511566162109e+00 2.593544006347656250e+01 -8.956219069659709930e-03 1.245748251676559448e-03 -2.313141245394945145e-03 5.170379765331745148e-03
3.017000000000000000e+03 7.444946289062500000e+01 -9.027963638305664062e+00 7.175179198384284973e-04 7.767588138580322266e+00 2.330491781234741211e+00 -3.861634805798530579e-02
3.018000000000000000e+03 7.446906280517578125e+01 -9.819459915161132812e+00 9.198334882967174053e-04 7.771853446960449219e+00 2.331831932067871094e+00 -3.853354230523109436e-02
3.019000000000000000e+03 5.199522972106933594e+00 2.590171051025390625e+01 1.136715174652636051e-03 -2.718635834753513336e-03 -4.745761398226022720e-04 -1.893206383101642132e-03
3.020000000000000000e+03 4.649800300598144531e+00 2.433780860900878906e+01 -5.556065123528242111e-03 1.069904246833175421e-04 -1.634722342714667320e-03 3.526657121255993843e-03
3.021000000000000000e+03 7.440237426757812500e+01 -7.778064161539077759e-02 3.067854326218366623e-03 7.721256256103515625e+00 2.317297220230102539e+00 -3.272113576531410217e-02
3.022000000000000000e+03 7.439672851562500000e+01 -8.857392072677612305e-01 2.874134574085474014e-03 7.725149154663085938e+00 2.318407058715820312e+00 -3.368376567959785461e-02
3.023000000000000000e+03 7.434931182861328125e+01 -1.856850624084472656e+01 -2.127234591171145439e-03 7.819401741027832031e+00 2.345182418823242188e+00 -3.816175460815429688e-02
3.024000000000000000e+03 7.443836212158203125e+01 7.016674995422363281e+00 4.091734532266855240e-03 7.691987991333007812e+00 2.308823823928833008e+00 -2.445327490568161011e-02
3.025000000000000000e+03 7.446010589599609375e+01 6.244093894958496094e+00 3.788735251873731613e-03 7.694585800170898438e+00 2.309512376785278320e+00 -2.508672699332237244e-02
3.026000000000000000e+03 1.002928352355957031e+01 2.746831512451171875e+01 -1.126482617110013962e-02 2.437127986922860146e-03 -2.648309571668505669e-03 -3.887557541020214558e-04
3.027000000000000000e+03 7.392367553710937500e+01 -2.570969581604003906e+01 -4.632169380784034729e-03 7.851476669311523438e+00 2.354053258895874023e+00 -3.243913128972053528e-02
3.028000000000000000e+03 7.439672851562500000e+01 -2.022147941589355469e+01 -2.517055021598935127e-03 7.828517913818359375e+00 2.347800254821777344e+00 -3.674820065498352051e-02
3.029000000000000000e+03 7.515724182128906250e+01 1.261470317840576172e+01 3.446464193984866142e-03 7.671229362487792969e+00 2.302402734756469727e+00 -1.513161696493625641e-02
3.030000000000000000e+03 7.442082977294921875e+01 1.258013629913330078e+01 4.095136653631925583e-03 7.675558090209960938e+00 2.303895950317382812e+00 -1.666353642940521240e-02
3.031000000000000000e+03 2.548756217956542969e+01 -7.717173576354980469e+00 -1.607640087604522705e-02 7.750705242156982422e+00 2.320388555526733398e+00 2.307311743497848511e-01
3.032000000000000000e+03 7.325608062744140625e+01 2.613994407653808594e+01 2.662449143826961517e-03 7.665443420410156250e+00 2.300431728363037109e+00 -2.451952081173658371e-03
3.033000000000000000e+03 7.444474792480468750e+01 -1.611718559265136719e+01 -5.654065171256661415e-04 7.806535720825195312e+00 2.341791152954101562e+00 -3.827045112848281860e-02
3.034000000000000000e+03 7.439526367187500000e+01 -1.691427040100097656e+01 -1.777140074409544468e-03 7.810996532440185547e+00 2.342765808105468750e+00 -3.877801075577735901e-02
3.035000000000000000e+03 1.042094707489013672e+01 -2.633495712280273438e+01 3.403791924938559532e-03 2.125160070136189461e-03 1.658685505390167236e-03 -2.146909013390541077e-03
3.036000000000000000e+03 5.166666030883789062e+00 1.514254856109619141e+01 -1.006017701001837850e-04 -1.284627593122422695e-03 -4.155687929596751928e-04 2.108380140271037817e-04
3.037000000000000000e+03 5.937216281890869141e+00 1.729199790954589844e+01 1.336509158136323094e-04 -2.401059959083795547e-03 -6.802227580919861794e-04 -5.055372021161019802e-04
3.038000000000000000e+03 9.758823394775390625e+00 1.713635826110839844e+01 -6.998081807978451252e-04 -1.168644637800753117e-03 -5.605358164757490158e-04 1.124692382290959358e-03
3.039000000000000000e+03 5.496899127960205078e+00 2.104054260253906250e+01 7.196525693871080875e-04 4.066081601195037365e-04 3.378782130312174559e-04 -1.636267756111919880e-03
3.040000000000000000e+03 4.679130077362060547e+00 1.788517570495605469e+01 -1.485308050177991390e-03 -6.099398597143590450e-04 -6.285744020715355873e-04 -6.577527528861537576e-05
3.041000000000000000e+03 6.076288223266601562e+00 1.995266723632812500e+01 -4.874510923400521278e-04 2.291327342391014099e-03 5.411628517322242260e-04 -4.371065879240632057e-04
3.042000000000000000e+03 2.600411605834960938e+01 1.689660072326660156e+01 3.781165182590484619e-02 8.151786804199218750e+00 2.456879615783691406e+00 2.531251683831214905e-02
3.043000000000000000e+03 5.682770252227783203e+00 1.563159942626953125e+01 4.810120735783129930e-04 6.796375964768230915e-04 3.481948806438595057e-04 -1.022423966787755489e-03
3.044000000000000000e+03 6.626431465148925781e+00 1.944725608825683594e+01 -4.168224695604294538e-04 -2.895021811127662659e-03 -9.935533162206411362e-04 -5.906729347771033645e-05
3.045000000000000000e+03 2.634808540344238281e+01 1.941406631469726562e+01 3.473049774765968323e-02 8.138778686523437500e+00 2.452052593231201172e+00 7.206196896731853485e-04
3.046000000000000000e+03 7.437625122070312500e+01 1.405943298339843750e+01 3.804953303188085556e-03 7.672121524810791016e+00 2.302778005599975586e+00 -1.470199599862098694e-02
3.047000000000000000e+03 7.443099975585937500e+01 1.332048130035400391e+01 4.412083886563777924e-03 7.673722267150878906e+00 2.303440332412719727e+00 -1.597554981708526611e-02
3.048000000000000000e+03 5.698443412780761719e+00 1.457894229888916016e+01 9.737004293128848076e-04 5.950236809439957142e-04 4.706172330770641565e-04 -8.759885677136480808e-04
3.049000000000000000e+03 5.363789081573486328e+00 1.702825736999511719e+01 -1.366544514894485474e-03 1.624764408916234970e-04 -3.612204163800925016e-04 8.976526441983878613e-05
3.050000000000000000e+03 1.110556411743164062e+01 2.090384864807128906e+01 2.354393480345606804e-03 2.835124032571911812e-04 7.913717417977750301e-04 8.218167931772768497e-05
3.051000000000000000e+03 1.137120437622070312e+01 2.308894729614257812e+01 -3.063875716179609299e-03 -1.670932280831038952e-03 -1.420442364178597927e-03 2.586472546681761742e-04
3.052000000000000000e+03 9.444461822509765625e+00 1.125694274902343750e+01 1.067054574377834797e-03 -2.216201537521556020e-04 2.536303363740444183e-04 -2.983374579343944788e-04
3.053000000000000000e+03 5.388820648193359375e+00 1.772792816162109375e+01 1.640785252675414085e-03 7.056841277517378330e-04 7.039408083073794842e-04 -6.363609572872519493e-04
3.054000000000000000e+03 5.179112911224365234e+00 1.898040199279785156e+01 4.781976749654859304e-04 1.383968861773610115e-03 5.586499464698135853e-04 -1.058030902640894055e-04
3.055000000000000000e+03 6.285556793212890625e+00 2.261553382873535156e+01 -1.966782147064805031e-03 -3.902693511918187141e-03 -1.760842744261026382e-03 2.493459964171051979e-03
3.056000000000000000e+03 1.004484272003173828e+01 2.591925430297851562e+01 -7.319091819226741791e-03 2.765147364698350430e-04 -2.112773014232516289e-03 3.436093975324183702e-04
3.057000000000000000e+03 7.416423797607421875e+01 2.055327224731445312e+01 3.239384619519114494e-03 7.663150310516357422e+00 2.299916982650756836e+00 -7.110882084816694260e-03
3.058000000000000000e+03 5.415255069732666016e+00 1.078705406188964844e+01 -8.738245232962071896e-04 -3.142726491205394268e-04 -3.564291400834918022e-04 3.677261411212384701e-04
3.059000000000000000e+03 2.607081031799316406e+01 1.770019531250000000e+01 3.202085196971893311e-02 8.148913383483886719e+00 2.454280138015747070e+00 1.837182603776454926e-02
3.060000000000000000e+03 2.619415664672851562e+01 1.853542709350585938e+01 3.834485262632369995e-02 8.143900871276855469e+00 2.454673767089843750e+00 8.902537636458873749e-03
3.061000000000000000e+03 5.281538486480712891e+00 1.397641086578369141e+01 -1.007014303468167782e-03 -6.506589124910533428e-04 -4.973019822500646114e-04 5.212207906879484653e-04
3.062000000000000000e+03 5.330249786376953125e+00 2.433833694458007812e+01 5.563437007367610931e-04 -1.118592452257871628e-03 -1.686746109044179320e-04 -2.573054516687989235e-03
3.063000000000000000e+03 1.080165481567382812e+01 -2.210011863708496094e+01 6.023417692631483078e-03 -3.943541378248482943e-04 1.688719028607010841e-03 -1.422911882400512695e-03
3.064000000000000000e+03 7.370413970947265625e+01 -2.468358039855957031e+01 -4.177560564130544662e-03 7.844589233398437500e+00 2.352123498916625977e+00 -3.525608777999877930e-02
3.065000000000000000e+03 2.713799667358398438e+01 2.688576316833496094e+01 1.009301692247390747e-01 8.078150749206542969e+00 2.453724145889282227e+00 -7.595597952604293823e-02
3.066000000000000000e+03 8.964764595031738281e+00 -8.420454978942871094e+00 -3.128979005850851536e-04 -4.218733229208737612e-04 -2.204313641414046288e-04 3.673336177598685026e-04
3.067000000000000000e+03 2.636809349060058594e+01 2.385667419433593750e+01 5.832159146666526794e-02 8.132469177246093750e+00 2.457237243652343750e+00 -4.997139424085617065e-02
3.068000000000000000e+03 4.583856582641601562e+00 7.658800125122070312e+00 6.711828755214810371e-04 1.352641120320186019e-04 2.419340889900922775e-04 -3.310901811346411705e-04
3.069000000000000000e+03 5.290754318237304688e+00 9.242394447326660156e+00 -8.706741500645875931e-04 8.764557424001395702e-05 -2.349085698369890451e-04 2.550612844061106443e-04
3.070000000000000000e+03 5.664350509643554688e+00 1.144290542602539062e+01 1.157489838078618050e-03 2.699087199289351702e-04 4.282195586711168289e-04 -7.059774943627417088e-04
3.071000000000000000e+03 7.471852874755859375e+01 2.670298385620117188e+01 1.579361269250512123e-03 7.655893325805664062e+00 2.297241926193237305e+00 -1.825281069613993168e-03
3.072000000000000000e+03 7.300894927978515625e+01 2.465005874633789062e+01 3.512215334922075272e-03 7.667746543884277344e+00 2.301377534866333008e+00 -3.745256457477807999e-03
3.073000000000000000e+03 5.308868885040283203e+00 1.000039196014404297e+01 1.090644509531557560e-03 -3.503176412777975202e-05 3.166838141623884439e-04 -4.039526102133095264e-04
3.074000000000000000e+03 7.390623474121093750e+01 2.581868171691894531e+01 2.268517157062888145e-03 7.661300182342529297e+00 2.299070596694946289e+00 -2.770980587229132652e-03
3.075000000000000000e+03 5.214431285858154297e+00 7.499233245849609375e+00 -2.561011351644992828e-04 -5.580774741247296333e-04 -2.442535769660025835e-04 4.398038145154714584e-04
3.076000000000000000e+03 1.109552860260009766e+01 -1.999693870544433594e+01 4.132208880037069321e-03 -5.024056299589574337e-04 1.088940887711942196e-03 -1.072496379492804408e-04
3.077000000000000000e+03 9.450849533081054688e+00 1.186188602447509766e+01 -1.048763166181743145e-03 -6.178166368044912815e-04 -4.999739467166364193e-04 6.732696783728897572e-04
3.078000000000000000e+03 5.568981647491455078e+00 7.902529716491699219e+00 -5.138916312716901302e-04 4.331907548476010561e-04 -2.421025419607758522e-05 -2.169823565054684877e-04
3.079000000000000000e+03 1.098924636840820312e+01 -5.668503761291503906e+00 -3.261915990151464939e-04 1.752859679982066154e-04 -4.527169221546500921e-05 -2.079211262753233314e-04
3.080000000000000000e+03 1.055117797851562500e+01 3.080123329162597656e+01 -3.136205300688743591e-02 1.654168707318603992e-03 -8.912365883588790894e-03 -7.401769515126943588e-03
3.081000000000000000e+03 1.073440933227539062e+01 -1.548173141479492188e+01 2.364428015425801277e-03 6.105939392000436783e-04 8.925065631046891212e-04 -5.624850746244192123e-04
3.082000000000000000e+03 5.961452007293701172e+00 -3.419276809692382812e+01 -4.203307256102561951e-02 1.397152896970510483e-02 -8.418463170528411865e-03 -2.166375890374183655e-02
3.083000000000000000e+03 7.941310882568359375e+00 -3.466528701782226562e+01 -2.572460286319255829e-02 3.249914571642875671e-02 2.032362157478928566e-03 -1.528230775147676468e-02
3.084000000000000000e+03 1.063584613800048828e+01 -2.094249725341796875e+01 4.072344861924648285e-03 -1.043563475832343102e-03 9.086343925446271896e-04 -7.449620752595365047e-04
3.085000000000000000e+03 1.194351196289062500e+01 -2.057598876953125000e+01 5.898988805711269379e-03 -5.906313308514654636e-04 1.592507236637175083e-03 -5.761409411206841469e-04
3.086000000000000000e+03 1.143806552886962891e+01 8.368803977966308594e+00 -3.029241634067147970e-04 -2.740816853474825621e-04 -1.731017546262592077e-04 1.412235064890410285e-06
3.087000000000000000e+03 2.549205970764160156e+01 -4.567896366119384766e+00 -4.463414475321769714e-02 7.834996700286865234e+00 2.337108850479125977e+00 1.876481324434280396e-01
3.088000000000000000e+03 2.549863052368164062e+01 -9.348633766174316406e+00 2.452434040606021881e-02 7.702674865722656250e+00 2.318159818649291992e+00 2.317126840353012085e-01
3.089000000000000000e+03 1.225948238372802734e+01 3.448885345458984375e+01 -8.968888968229293823e-02 6.420475989580154419e-02 -7.645239122211933136e-03 -1.714008115231990814e-02
3.090000000000000000e+03 5.861244201660156250e+00 3.222180557250976562e+01 -2.366998791694641113e-02 4.359560552984476089e-03 -5.793128162622451782e-03 2.605662308633327484e-02
3.091000000000000000e+03 2.550952339172363281e+01 -1.102640438079833984e+01 5.809630453586578369e-02 7.655872821807861328e+00 2.314190864562988281e+00 2.149925976991653442e-01
3.092000000000000000e+03 9.178258895874023438e+00 -3.288755035400390625e+01 -4.490286111831665039e-02 1.744908280670642853e-02 -8.236133493483066559e-03 1.206070417538285255e-03
3.093000000000000000e+03 2.590166473388671875e+01 5.816234111785888672e+00 1.710269153118133545e-01 8.094941139221191406e+00 2.479790449142456055e+00 1.341363936662673950e-01
3.094000000000000000e+03 1.022527313232421875e+01 1.601741218566894531e+01 1.682536210864782333e-03 8.221754105761647224e-04 7.514134631492197514e-04 4.546206619124859571e-04
3.095000000000000000e+03 2.276258468627929688e+01 -2.083677482604980469e+01 -9.517947584390640259e-02 7.329903125762939453e+00 2.170417070388793945e+00 2.420451045036315918e-01
3.096000000000000000e+03 2.459439277648925781e+01 -1.438650035858154297e+01 6.265778839588165283e-02 7.568143844604492188e+00 2.289240598678588867e+00 1.722228825092315674e-01
3.097000000000000000e+03 2.549249267578125000e+01 -8.526574134826660156e+00 -6.864656461402773857e-04 7.725261688232421875e+00 2.317372560501098633e+00 2.326076626777648926e-01
3.098000000000000000e+03 2.574437522888183594e+01 1.751116633415222168e+00 8.226215094327926636e-02 8.019557952880859375e+00 2.430546045303344727e+00 1.091537252068519592e-01
3.099000000000000000e+03 2.582163047790527344e+01 3.383801460266113281e+00 1.443969309329986572e-01 8.046127319335937500e+00 2.457157135009765625e+00 1.074863225221633911e-01
3.100000000000000000e+03 1.023894214630126953e+01 2.961594200134277344e+01 -2.127983234822750092e-02 -4.356375895440578461e-03 -7.690862286835908890e-03 -3.366604913026094437e-03
3.101000000000000000e+03 2.554915428161621094e+01 -2.205413103103637695e+00 -1.733330264687538147e-02 7.896654605865478516e+00 2.363796234130859375e+00 1.648110300302505493e-01
3.102000000000000000e+03 2.552601242065429688e+01 -2.992109298706054688e+00 -2.606240846216678619e-02 7.874906063079833984e+00 2.354653120040893555e+00 1.717980653047561646e-01
3.103000000000000000e+03 9.699081420898437500e+00 -1.798877525329589844e+01 7.891737623140215874e-04 4.165149293839931488e-04 3.617066249717026949e-04 -1.687300740741193295e-03
3.104000000000000000e+03 2.588440704345703125e+01 5.016478061676025391e+00 1.735877543687820435e-01 8.076461791992187500e+00 2.475014686584472656e+00 1.262553185224533081e-01
3.105000000000000000e+03 1.106252384185791016e+01 -2.705157089233398438e+01 6.945105269551277161e-03 -8.563091250834986567e-05 2.057842211797833443e-03 -3.018831368535757065e-03
3.106000000000000000e+03 2.556879806518554688e+01 -1.358199596405029297e+01 5.732957273721694946e-02 7.589806556701660156e+00 2.294140815734863281e+00 1.685512512922286987e-01
3.107000000000000000e+03 2.540874099731445312e+01 -1.520217132568359375e+01 2.317506819963455200e-02 7.560845851898193359e+00 2.275206327438354492e+00 1.423499435186386108e-01
3.108000000000000000e+03 6.818701744079589844e+00 3.394293975830078125e+01 -2.895061485469341278e-02 1.327327638864517212e-02 -4.703201353549957275e-03 3.758174180984497070e-02
3.109000000000000000e+03 1.048447132110595703e+01 3.315941619873046875e+01 -6.458330899477005005e-02 5.835825949907302856e-02 -1.867513637989759445e-03 1.479148631915450096e-03
3.110000000000000000e+03 1.165992641448974609e+01 -6.698916435241699219e+00 4.492380248848348856e-04 5.249006790108978748e-04 2.922416024375706911e-04 1.076696062227711082e-04
3.111000000000000000e+03 8.274673461914062500e+00 3.420011901855468750e+01 -3.703758493065834045e-02 2.276326529681682587e-02 -4.282295703887939453e-03 4.269255697727203369e-02
3.112000000000000000e+03 1.009356021881103516e+01 3.612201690673828125e+01 -2.985218912363052368e-02 4.200504347681999207e-02 3.645856631919741631e-03 8.397612720727920532e-02
3.113000000000000000e+03 1.066542720794677734e+01 -1.494032096862792969e+01 -2.169077284634113312e-03 2.885519934352487326e-04 -5.641575553454458714e-04 -2.193501131841912866e-04
3.114000000000000000e+03 1.113671684265136719e+01 -1.252608203887939453e+01 -1.970213605090975761e-03 -2.515225205570459366e-04 -6.665207911282777786e-04 6.430597277358174324e-04
3.115000000000000000e+03 1.103708934783935547e+01 -1.329787158966064453e+01 2.383547602221369743e-03 3.586412058211863041e-04 8.226566133089363575e-04 -8.334781159646809101e-04
3.116000000000000000e+03 9.621232032775878906e+00 -3.456573486328125000e+01 -6.662435084581375122e-02 4.247941076755523682e-02 -7.243482396006584167e-03 8.781265350989997387e-04
3.117000000000000000e+03 2.357220268249511719e+01 -2.484515571594238281e+01 -5.102657899260520935e-02 7.365453720092773438e+00 2.194328069686889648e+00 2.094163000583648682e-01
3.118000000000000000e+03 9.633752822875976562e+00 2.906623840332031250e+01 -2.245942503213882446e-02 1.763990335166454315e-02 -1.445856760255992413e-03 -2.940406091511249542e-03
3.119000000000000000e+03 1.083971118927001953e+01 1.938550567626953125e+01 2.379199955612421036e-03 3.731280448846518993e-04 8.256983710452914238e-04 3.012977249454706907e-04
3.120000000000000000e+03 2.512665748596191406e+01 -2.735451126098632812e+01 2.110650949180126190e-02 7.369508743286132812e+00 2.217184543609619141e+00 1.984295099973678589e-01
3.121000000000000000e+03 8.737645149230957031e+00 -3.152461624145507812e+01 -3.227535635232925415e-02 7.919788360595703125e-03 -7.306670304387807846e-03 5.156556610018014908e-03
3.122000000000000000e+03 1.012235450744628906e+01 -3.019141960144042969e+01 -1.582704111933708191e-02 1.005028747022151947e-02 -1.733025885187089443e-03 1.730648567900061607e-03
3.123000000000000000e+03 2.630072212219238281e+01 -2.572987365722656250e+01 -1.216124929487705231e-02 7.405420303344726562e+00 2.217977762222290039e+00 1.769602149724960327e-01
3.124000000000000000e+03 7.264220428466796875e+01 -2.948820114135742188e+01 -7.499783765524625778e-03 7.854602813720703125e+00 2.354130983352661133e+00 -3.090673126280307770e-02
3.125000000000000000e+03 2.677473068237304688e+01 2.901739120483398438e+01 1.496941894292831421e-01 8.060994148254394531e+00 2.463206529617309570e+00 -1.125533953309059143e-01
3.126000000000000000e+03 2.562128448486328125e+01 2.989724349975585938e+01 1.705615669488906860e-01 8.112335205078125000e+00 2.484869003295898438e+00 -1.671348214149475098e-01
3.127000000000000000e+03 2.832200241088867188e+01 3.186938095092773438e+01 1.879812628030776978e-01 7.882149696350097656e+00 2.421039342880249023e+00 -2.034624852240085602e-02
3.128000000000000000e+03 2.366032981872558594e+01 -2.080868911743164062e+01 -9.080544859170913696e-02 7.398714065551757812e+00 2.192372560501098633e+00 2.100838422775268555e-01
3.129000000000000000e+03 2.446518325805664062e+01 -1.904204177856445312e+01 -9.856963157653808594e-02 7.476600170135498047e+00 2.213409185409545898e+00 1.747728437185287476e-01
3.130000000000000000e+03 1.139294338226318359e+01 3.382467269897460938e+01 -7.522701472043991089e-02 2.597846463322639465e-02 -1.477456465363502502e-02 5.124118761159479618e-04
3.131000000000000000e+03 7.268395233154296875e+01 3.593607711791992188e+01 8.417852222919464111e-05 7.669806957244873047e+00 2.300967454910278320e+00 -3.315931053293752484e-06
3.132000000000000000e+03 2.896635437011718750e+01 3.589102554321289062e+01 1.657203026115894318e-02 7.822857856750488281e+00 2.351828813552856445e+00 1.570487618446350098e-01
3.133000000000000000e+03 1.078982639312744141e+01 3.490295410156250000e+01 -8.682888001203536987e-02 9.368947893381118774e-02 2.058178186416625977e-03 2.724078670144081116e-02
3.134000000000000000e+03 7.442562103271484375e+01 -3.122701644897460938e+01 -4.968046210706233978e-03 7.874194145202636719e+00 2.360767841339111328e+00 -2.245318330824375153e-02
3.135000000000000000e+03 7.380433654785156250e+01 3.283720397949218750e+01 6.703790859319269657e-04 7.661811828613281250e+00 2.298744678497314453e+00 1.691166835371404886e-04
3.136000000000000000e+03 2.513129997253417969e+01 -2.890889167785644531e+01 8.139704912900924683e-02 7.338730335235595703e+00 2.226038217544555664e+00 2.003416419029235840e-01
3.137000000000000000e+03 2.774980735778808594e+01 -3.137906074523925781e+01 6.873125582933425903e-02 7.276779174804687500e+00 2.203653097152709961e+00 8.071096241474151611e-02
3.138000000000000000e+03 8.615863800048828125e+00 -3.583705902099609375e+01 -6.076459214091300964e-02 5.206161737442016602e-02 -2.610892755910754204e-03 -5.071137845516204834e-02
3.139000000000000000e+03 5.901235580444335938e+00 -3.641493225097656250e+01 -2.856142527889460325e-04 -9.711896069347858429e-03 -2.999253105372190475e-03 -4.194314777851104736e-02
3.140000000000000000e+03 7.247169494628906250e+01 3.418288040161132812e+01 5.593769019469618797e-04 7.671709060668945312e+00 2.301680564880371094e+00 8.659623563289642334e-04
3.141000000000000000e+03 7.234191131591796875e+01 3.001347541809082031e+01 1.187826390378177166e-03 7.671298027038574219e+00 2.301745653152465820e+00 -2.371989539824426174e-04
3.142000000000000000e+03 8.276434898376464844e+00 7.000189304351806641e+00 -3.268024302087724209e-04 -1.565103448228910565e-04 -1.449938426958397031e-04 1.012240099953487515e-04
3.143000000000000000e+03 7.006184101104736328e+00 6.876673698425292969e+00 -3.634024178609251976e-04 -1.281241566175594926e-04 -1.474579767091199756e-04 1.093958489946089685e-04
3.144000000000000000e+03 1.110667514801025391e+01 6.782976150512695312e+00 2.375526091782376170e-04 1.833795395214110613e-04 1.262796431547030807e-04 1.252226647920906544e-04
3.145000000000000000e+03 8.929747581481933594e+00 7.090777397155761719e+00 3.785240114666521549e-04 1.480233040638267994e-04 1.579641975695267320e-04 -5.367950871004723012e-05
3.146000000000000000e+03 2.645171356201171875e+01 2.199855893850326538e-01 3.877018392086029053e-02 7.962322235107421875e+00 2.400327682495117188e+00 1.086148545145988464e-01
3.147000000000000000e+03 5.777779102325439453e+00 6.827993392944335938e+00 -3.169667907059192657e-04 -2.275375445606186986e-04 -1.633513020351529121e-04 2.077737008221447468e-04
3.148000000000000000e+03 6.558950424194335938e+00 -2.194353485107421875e+01 4.512673709541559219e-03 1.062794472090899944e-04 1.385685871355235577e-03 -2.097490010783076286e-03
3.149000000000000000e+03 7.088315486907958984e+00 6.247784137725830078e+00 3.649370046332478523e-04 1.427089446224272251e-04 1.522937818663194776e-04 -1.021804564516060054e-04
3.150000000000000000e+03 1.045867347717285156e+01 -2.562442207336425781e+01 -7.265354041010141373e-03 -4.482951015233993530e-03 -3.524491563439369202e-03 2.280610613524913788e-03
3.151000000000000000e+03 1.003007793426513672e+01 -2.806846809387207031e+01 -1.416710391640663147e-02 -3.438142361119389534e-03 -5.281573627144098282e-03 7.044575642794370651e-03
3.152000000000000000e+03 1.054413890838623047e+01 -1.114410591125488281e+01 1.290249289013445377e-03 5.647364305332303047e-04 5.564957391470670700e-04 -9.138715686276555061e-04
3.153000000000000000e+03 2.632358932495117188e+01 -5.263024330139160156e+00 -3.553507477045059204e-02 7.821400165557861328e+00 2.335759639739990234e+00 1.776583939790725708e-01
3.154000000000000000e+03 1.070992088317871094e+01 2.377265357971191406e+01 -3.454415826126933098e-03 -1.789578469470143318e-03 -1.573198242112994194e-03 2.715997979976236820e-04
3.155000000000000000e+03 1.048236846923828125e+01 2.166214752197265625e+01 1.666318858042359352e-03 2.206724748248234391e-04 5.660973838530480862e-04 -5.478254170157015324e-04
3.156000000000000000e+03 9.769667625427246094e+00 -2.886056709289550781e+01 -2.916772384196519852e-03 5.304231308400630951e-03 7.162377005442976952e-04 -2.442044788040220737e-04
3.157000000000000000e+03 5.824834823608398438e+00 -3.134869766235351562e+01 -2.157458104193210602e-02 8.477472700178623199e-03 -3.929132595658302307e-03 -1.656464487314224243e-02
3.158000000000000000e+03 2.633769798278808594e+01 -6.836156845092773438e+00 -2.453302405774593353e-02 7.779423713684082031e+00 2.326467275619506836e+00 1.976559907197952271e-01
3.159000000000000000e+03 6.022571563720703125e+00 3.098744964599609375e+01 -2.115427143871784210e-02 2.424192614853382111e-03 -5.619023926556110382e-03 1.991466432809829712e-02
3.160000000000000000e+03 9.758669853210449219e+00 1.409390735626220703e+01 1.718068611808121204e-03 4.641835985239595175e-04 6.546757067553699017e-04 -2.814585604937747121e-05
3.161000000000000000e+03 6.583457469940185547e+00 3.046414184570312500e+01 -1.603490486741065979e-02 1.109634246677160263e-02 -1.481569022871553898e-03 6.845076102763414383e-03
3.162000000000000000e+03 2.641264915466308594e+01 -5.648580193519592285e-01 2.062178403139114380e-02 7.944097518920898438e+00 2.389415740966796875e+00 1.210532486438751221e-01
3.163000000000000000e+03 2.557646179199218750e+01 -1.421657204627990723e+00 -4.594046622514724731e-03 7.926053047180175781e+00 2.376437664031982422e+00 1.583842486143112183e-01
3.164000000000000000e+03 2.550636291503906250e+01 -3.780391693115234375e+00 -3.879972174763679504e-02 7.851137161254882812e+00 2.343701124191284180e+00 1.780892461538314819e-01
3.165000000000000000e+03 1.045219993591308594e+01 1.021900749206542969e+01 -3.515558782964944839e-04 -2.161778538720682263e-04 -1.703201269265264273e-04 1.931088481796905398e-04
3.166000000000000000e+03 6.308548450469970703e+00 -3.068839836120605469e+01 -1.513776089996099472e-02 6.884678732603788376e-03 -2.475924557074904442e-03 -4.540556110441684723e-03
3.167000000000000000e+03 9.298126220703125000e+00 2.731931686401367188e+01 -1.145895011723041534e-02 3.850117092952132225e-03 -2.282649977132678032e-03 -5.262117832899093628e-03
3.168000000000000000e+03 8.125749588012695312e+00 2.987903594970703125e+01 -2.081990428268909454e-02 6.713581387884914875e-04 -6.044564303010702133e-03 9.388447739183902740e-03
3.169000000000000000e+03 2.643893241882324219e+01 -1.182567882537841797e+01 5.248588696122169495e-02 7.637190341949462891e+00 2.306902885437011719e+00 1.787696927785873413e-01
3.170000000000000000e+03 2.653452301025390625e+01 -1.269735145568847656e+01 4.691666737198829651e-02 7.614874839782714844e+00 2.298537492752075195e+00 1.629626005887985229e-01
3.171000000000000000e+03 6.602672100067138672e+00 -6.332666873931884766e+00 7.453586440533399582e-04 1.998785737669095397e-04 2.835711638908833265e-04 3.346922167111188173e-04
3.172000000000000000e+03 5.881029605865478516e+00 -7.065344810485839844e+00 1.006703358143568039e-03 3.359500260557979345e-04 4.027959948871284723e-04 4.589118543663062155e-05
3.173000000000000000e+03 4.957070827484130859e+00 2.847115325927734375e+01 -1.279871072620153427e-02 4.796541295945644379e-03 -2.400650875642895699e-03 5.976314656436443329e-03
3.174000000000000000e+03 6.123931884765625000e+00 2.983887863159179688e+01 -1.665042899549007416e-02 -3.929857048206031322e-04 -5.113024264574050903e-03 1.429593283683061600e-02
3.175000000000000000e+03 9.775746345520019531e+00 1.664393615722656250e+01 1.504085725173354149e-03 3.099664172623306513e-04 5.442156107164919376e-04 1.161608815891668200e-04
3.176000000000000000e+03 7.679398536682128906e+00 -5.985230922698974609e+00 8.621722809039056301e-04 -2.179513685405254364e-04 1.932662707986310124e-04 2.062821586150676012e-04
3.177000000000000000e+03 7.295042514801025391e+00 -7.991234779357910156e+00 -1.397105515934526920e-03 -1.246172323590144515e-04 -4.565168346744030714e-04 1.369262754451483488e-04
3.178000000000000000e+03 1.170673751831054688e+01 7.038192749023437500e+00 6.455874245148152113e-05 -7.088502752594649792e-05 -1.897884885693201795e-06 7.195432408479973674e-05
3.179000000000000000e+03 6.658188819885253906e+00 -2.923287963867187500e+01 -4.583296831697225571e-03 5.461236461997032166e-03 2.633819240145385265e-04 -2.258305670693516731e-03
3.180000000000000000e+03 1.004680919647216797e+01 2.515984153747558594e+01 -3.248245455324649811e-03 -7.592327310703694820e-04 -1.202243496663868427e-03 -3.080561058595776558e-03
3.181000000000000000e+03 6.237817764282226562e+00 2.657851219177246094e+01 -8.843435905873775482e-03 4.817733075469732285e-03 -1.207711058668792248e-03 3.830384230241179466e-03
3.182000000000000000e+03 9.965847015380859375e+00 -8.345053672790527344e+00 1.287982449866831303e-04 -3.682264359667897224e-04 -7.182845729403197765e-05 4.485676181502640247e-04
3.183000000000000000e+03 1.040480613708496094e+01 6.636194705963134766e+00 -2.650162496138364077e-04 -1.833833666751161218e-04 -1.345198834314942360e-04 -1.208224330184748396e-05
3.184000000000000000e+03 5.777327537536621094e+00 -2.795112609863281250e+01 -1.523372996598482132e-02 -1.295437832595780492e-04 -4.608982242643833160e-03 -3.289104206487536430e-03
3.185000000000000000e+03 9.944110870361328125e+00 2.828747558593750000e+01 -1.506506837904453278e-02 -8.261001785285770893e-04 -4.767350386828184128e-03 -6.810056976974010468e-03
3.186000000000000000e+03 9.249684333801269531e+00 2.797845649719238281e+01 -1.740080676972866058e-02 1.181499566882848740e-02 -1.675743144005537033e-03 -6.085718632675707340e-04
3.187000000000000000e+03 2.745640754699707031e+01 2.031531143188476562e+01 4.695347324013710022e-02 8.108134269714355469e+00 2.446526288986206055e+00 -4.819438792765140533e-03
3.188000000000000000e+03 2.783379554748535156e+01 2.289357185363769531e+01 6.305442005395889282e-02 8.087214469909667969e+00 2.445080757141113281e+00 -2.661866694688796997e-02
3.189000000000000000e+03 1.025711917877197266e+01 -9.632552146911621094e+00 -6.026373594067990780e-04 5.399250658228993416e-04 -1.881369098555296659e-05 -5.211673560552299023e-04
3.190000000000000000e+03 1.094348144531250000e+01 -8.427755355834960938e+00 3.213502932339906693e-04 -1.263846643269062042e-04 5.848969158250838518e-05 6.653598393313586712e-04
3.191000000000000000e+03 5.845015048980712891e+00 -2.196224212646484375e+01 -3.870053449645638466e-03 -2.434048801660537720e-03 -1.891230698674917221e-03 2.029003342613577843e-03
3.192000000000000000e+03 5.930190563201904297e+00 1.262586021423339844e+01 8.698637248016893864e-04 6.038362043909728527e-04 4.421099729370325804e-04 -9.478293359279632568e-04
3.193000000000000000e+03 2.634776306152343750e+01 -7.638329029083251953e+00 -1.607941649854183197e-02 7.754758834838867188e+00 2.321603775024414062e+00 2.033838927745819092e-01
3.194000000000000000e+03 8.435343742370605469e+00 9.631163597106933594e+00 6.257623899728059769e-04 -1.002145609163562767e-06 1.874280715128406882e-04 -2.718078321777284145e-04
3.195000000000000000e+03 8.733773231506347656e+00 1.100725460052490234e+01 -2.480575931258499622e-04 3.804247244261205196e-04 3.971013939008116722e-05 1.930917642312124372e-04
3.196000000000000000e+03 7.368532562255859375e+01 -2.325607109069824219e+01 -3.568060928955674171e-03 7.837915897369384766e+00 2.350304365158081055e+00 -3.679569065570831299e-02
3.197000000000000000e+03 5.764221191406250000e+00 -2.120400428771972656e+01 4.976518452167510986e-03 -2.340052014915272593e-04 1.422753906808793545e-03 -1.545223523862659931e-03
3.198000000000000000e+03 7.746367931365966797e+00 1.580531024932861328e+01 8.974000229500234127e-04 1.469665905460715294e-03 7.101197843439877033e-04 -3.495788259897381067e-04
3.199000000000000000e+03 5.223132133483886719e+00 -2.568787574768066406e+01 -7.501131854951381683e-03 -2.711564069613814354e-03 -3.063808660954236984e-03 -4.112565075047314167e-04
3.200000000000000000e+03 1.011509799957275391e+01 -2.282412719726562500e+01 5.530920810997486115e-03 -1.731192693114280701e-03 1.139918342232704163e-03 2.409364533377811313e-04
3.201000000000000000e+03 2.731202125549316406e+01 2.496587562561035156e+01 8.008261770009994507e-02 8.095168113708496094e+00 2.452575206756591797e+00 -5.831093713641166687e-02
3.202000000000000000e+03 2.635360336303710938e+01 2.476591300964355469e+01 6.042658910155296326e-02 8.129034042358398438e+00 2.456838130950927734e+00 -5.898688733577728271e-02
3.203000000000000000e+03 5.840457916259765625e+00 -9.404514312744140625e+00 -1.438666367903351784e-03 -2.607855130918323994e-04 -5.098355468362569809e-04 7.999027002369984984e-05
3.204000000000000000e+03 5.180230617523193359e+00 -1.713960266113281250e+01 3.806904889643192291e-03 -2.193259133491665125e-04 1.076273736543953419e-03 -6.799934635637328029e-05
3.205000000000000000e+03 1.009799194335937500e+01 -1.736938667297363281e+01 -7.026989478617906570e-04 -1.548631116747856140e-03 -6.753990310244262218e-04 6.421563448384404182e-04
3.206000000000000000e+03 5.850329399108886719e+00 -3.333970260620117188e+01 -1.908978563733398914e-03 7.451675366610288620e-03 1.662809052504599094e-03 -2.012299932539463043e-02
3.207000000000000000e+03 9.486255645751953125e+00 -3.192288780212402344e+01 -3.038578294217586517e-02 2.493602409958839417e-02 -1.634927815757691860e-03 3.808410372585058212e-03
3.208000000000000000e+03 5.827734947204589844e+00 -2.723050117492675781e+01 1.892386004328727722e-03 1.965826377272605896e-03 1.157463644631206989e-03 -2.982028527185320854e-04
3.209000000000000000e+03 5.185067176818847656e+00 -2.722349548339843750e+01 -1.119781751185655594e-02 -1.646704855374991894e-03 -3.853356698527932167e-03 -2.422583289444446564e-03
3.210000000000000000e+03 5.821495056152343750e+00 -1.562088298797607422e+01 -2.782041439786553383e-03 -4.942542873322963715e-04 -9.828887414187192917e-04 -1.249872148036956787e-04
3.211000000000000000e+03 5.224625587463378906e+00 -1.878376579284667969e+01 3.959497436881065369e-03 2.145182661479339004e-04 1.252204645425081253e-03 -1.627902383916079998e-04
3.212000000000000000e+03 5.956597328186035156e+00 -1.797346115112304688e+01 4.236227832734584808e-03 -5.140849971212446690e-04 1.116642844863235950e-03 -2.656460565049201250e-04
3.213000000000000000e+03 5.172816753387451172e+00 -1.254257392883300781e+01 2.174465218558907509e-03 3.858770069200545549e-04 7.681026472710072994e-04 1.087832133634947240e-04
3.214000000000000000e+03 5.911110401153564453e+00 -1.184776496887207031e+01 1.742575783282518387e-03 5.014889175072312355e-04 6.732193869538605213e-04 -1.520079240435734391e-05
3.215000000000000000e+03 5.171308994293212891e+00 -1.959975433349609375e+01 -3.885609097778797150e-03 -8.236478315666317940e-04 -1.412777113728225231e-03 8.728018146939575672e-04
3.216000000000000000e+03 9.459137916564941406e+00 -1.693674468994140625e+01 7.784070912748575211e-04 1.095128478482365608e-03 5.620606825686991215e-04 -8.934090728871524334e-04
3.217000000000000000e+03 2.649377822875976562e+01 1.016215443611145020e+00 6.360317766666412354e-02 7.980440139770507812e+00 2.413213014602661133e+00 1.003154292702674866e-01
3.218000000000000000e+03 9.965418815612792969e+00 -1.002179145812988281e+01 -1.980010420083999634e-04 -1.142579829320311546e-03 -4.021742497570812702e-04 6.342285778373479843e-04
3.219000000000000000e+03 5.822469711303710938e+00 -1.712658309936523438e+01 -3.731025382876396179e-03 1.081673326552845538e-04 -1.086857402697205544e-03 6.750163447577506304e-05
3.220000000000000000e+03 5.170454978942871094e+00 2.784473609924316406e+01 -4.057230893522500992e-03 -5.901739932596683502e-03 -2.987691201269626617e-03 7.386949844658374786e-03
3.221000000000000000e+03 5.690349102020263672e+00 2.829053497314453125e+01 -1.171968132257461548e-02 7.534253410995006561e-03 -1.255628303624689579e-03 2.939681522548198700e-03
3.222000000000000000e+03 5.745433330535888672e+00 -2.422537803649902344e+01 3.479121485725045204e-03 4.883271758444607258e-04 1.190234674140810966e-03 9.073651162907481194e-04
3.223000000000000000e+03 5.738431930541992188e+00 -2.046331787109375000e+01 -4.601366817951202393e-03 -8.798193302936851978e-04 -1.644355827011168003e-03 1.508338842540979385e-03
3.224000000000000000e+03 5.853641033172607422e+00 -1.488134670257568359e+01 2.840643515810370445e-03 3.744777641259133816e-04 9.645363898016512394e-04 8.302254718728363514e-05
3.225000000000000000e+03 5.900561332702636719e+00 -2.646284103393554688e+01 -9.341441094875335693e-03 -2.831472316756844521e-03 -3.651873907074332237e-03 -1.419611158780753613e-03
3.226000000000000000e+03 5.844755172729492188e+00 -8.611125946044921875e+00 1.400365843437612057e-03 2.246772055514156818e-04 4.875129088759422302e-04 -7.148741133278235793e-06
3.227000000000000000e+03 5.155868530273437500e+00 -1.332131958007812500e+01 -2.229830250144004822e-03 -4.147413128521293402e-04 -7.933714659884572029e-04 1.684544986346736550e-05
3.228000000000000000e+03 7.213585853576660156e+00 -1.029970836639404297e+01 1.524878200143575668e-03 3.259427903685718775e-04 5.552463117055594921e-04 -6.068019138183444738e-05
3.229000000000000000e+03 9.682905197143554688e+00 -2.637977981567382812e+01 -9.461511857807636261e-03 -5.253248848021030426e-03 -4.414428025484085083e-03 3.298640018329024315e-03
3.230000000000000000e+03 6.811955451965332031e+00 -2.815937042236328125e+01 -1.003632321953773499e-02 3.942167095374315977e-04 -2.892631804570555687e-03 -2.279132604598999023e-03
3.231000000000000000e+03 5.842947959899902344e+00 -1.414969348907470703e+01 -2.531885635107755661e-03 -3.710497403517365456e-04 -8.708806126378476620e-04 2.112560614477843046e-04
3.232000000000000000e+03 7.382265472412109375e+01 2.151775741577148438e+01 3.320979420095682144e-03 7.664445400238037109e+00 2.300329923629760742e+00 -6.437274627387523651e-03
3.233000000000000000e+03 7.378629302978515625e+01 2.423559570312500000e+01 3.335239132866263390e-03 7.663192749023437500e+00 2.299958467483520508e+00 -3.907277248799800873e-03
3.234000000000000000e+03 5.888103008270263672e+00 -1.264621162414550781e+01 -1.938582048751413822e-03 -5.958456313237547874e-04 -7.603283156640827656e-04 -1.153070625150576234e-04
3.235000000000000000e+03 7.373632049560546875e+01 -2.184865188598632812e+01 -3.419201588258147240e-03 7.832092761993408203e+00 2.348602056503295898e+00 -3.788056224584579468e-02
3.236000000000000000e+03 5.842010498046875000e+00 -1.340813541412353516e+01 2.642640378326177597e-03 1.413308636983856559e-04 8.351913420483469963e-04 1.665295421844348311e-04
3.237000000000000000e+03 9.595209121704101562e+00 7.206934928894042969e+00 -2.830241865012794733e-04 -1.827744417823851109e-04 -1.397395826643332839e-04 4.370451279100961983e-05
3.238000000000000000e+03 1.056707763671875000e+01 9.558441162109375000e+00 4.472717118915170431e-04 2.368767600273713470e-04 2.052445488516241312e-04 -2.589267933217342943e-05
3.239000000000000000e+03 2.673361015319824219e+01 1.525422573089599609e+01 4.630583897233009338e-02 8.135589599609375000e+00 2.454568386077880859e+00 4.476826637983322144e-02
3.240000000000000000e+03 2.768301010131835938e+01 1.813080596923828125e+01 5.122471228241920471e-02 8.110507965087890625e+00 2.448519706726074219e+00 1.403991598635911942e-02
3.241000000000000000e+03 7.085569763183593750e+01 2.620166969299316406e+01 4.257424734532833099e-03 7.679857730865478516e+00 2.305234432220458984e+00 -3.025646554306149483e-03
3.242000000000000000e+03 7.349089050292968750e+01 1.466098976135253906e+01 4.959334619343280792e-03 7.675920963287353516e+00 2.304264068603515625e+00 -1.562711410224437714e-02
3.243000000000000000e+03 7.419277954101562500e+01 1.636995506286621094e+01 4.334568977355957031e-03 7.668848991394042969e+00 2.301955223083496094e+00 -1.234070304781198502e-02
3.244000000000000000e+03 2.672758102416992188e+01 1.446217536926269531e+01 5.473064631223678589e-02 8.135939598083496094e+00 2.457201004028320312e+00 5.337911099195480347e-02
3.245000000000000000e+03 7.361096954345703125e+01 1.391577243804931641e+01 5.370066966861486435e-03 7.676777362823486328e+00 2.304644107818603516e+00 -1.688635721802711487e-02
3.246000000000000000e+03 5.496971607208251953e+00 2.271049690246582031e+01 4.051904834341257811e-04 5.015698261559009552e-04 2.720280899666249752e-04 -2.431531436741352081e-03
3.247000000000000000e+03 9.330261230468750000e+00 2.434788703918457031e+01 -2.223081886768341064e-03 -6.198126357048749924e-04 -8.528683683834969997e-04 -2.274187048897147179e-03
3.248000000000000000e+03 2.661736297607421875e+01 -1.355799865722656250e+01 4.613590613007545471e-02 7.600071907043457031e+00 2.293862342834472656e+00 1.484394967555999756e-01
3.249000000000000000e+03 7.405226898193359375e+01 1.969055557250976562e+01 3.759357612580060959e-03 7.665068149566650391e+00 2.300648212432861328e+00 -8.375433273613452911e-03
3.250000000000000000e+03 9.751173973083496094e+00 -1.634058380126953125e+01 -2.160074946004897356e-04 -2.014855854213237762e-03 -6.692590541206300259e-04 2.968654443975538015e-04
3.251000000000000000e+03 7.368918609619140625e+01 -1.605565834045410156e+01 -1.756515353918075562e-03 7.803456783294677734e+00 2.340510129928588867e+00 -4.254873469471931458e-02
3.252000000000000000e+03 7.329316711425781250e+01 1.706612777709960938e+01 5.488776601850986481e-03 7.672914505004882812e+00 2.303520917892456055e+00 -1.285273768007755280e-02
3.253000000000000000e+03 9.255834579467773438e+00 2.656916236877441406e+01 -1.000395417213439941e-02 2.235428430140018463e-03 -2.330557676032185555e-03 2.109599765390157700e-03
3.254000000000000000e+03 7.412697601318359375e+01 -2.760869407653808594e+01 -4.595749080181121826e-03 7.860885143280029297e+00 2.356886863708496094e+00 -2.890033647418022156e-02
3.255000000000000000e+03 7.382940673828125000e+01 -1.450108528137207031e+01 -1.114500919356942177e-03 7.795611381530761719e+00 2.338349103927612305e+00 -4.242243245244026184e-02
3.256000000000000000e+03 7.355990600585937500e+01 1.184715366363525391e+01 5.207530222833156586e-03 7.681920051574707031e+00 2.306138277053833008e+00 -1.988227851688861847e-02
3.257000000000000000e+03 7.356958770751953125e+01 1.017563915252685547e+01 5.245267413556575775e-03 7.685890674591064453e+00 2.307340860366821289e+00 -2.227159217000007629e-02
3.258000000000000000e+03 7.364170837402343750e+01 7.752012729644775391e+00 5.323539022356271744e-03 7.692915439605712891e+00 2.309471607208251953e+00 -2.609145455062389374e-02
3.259000000000000000e+03 2.595372009277343750e+01 1.372272682189941406e+01 4.977319389581680298e-02 8.161110877990722656e+00 2.463265180587768555e+00 6.111463531851768494e-02
3.260000000000000000e+03 7.439267730712890625e+01 8.599125862121582031e+00 4.279111977666616440e-03 7.686873912811279297e+00 2.307345867156982422e+00 -2.247272431850433350e-02
3.261000000000000000e+03 7.367069244384765625e+01 6.970351219177246094e+00 4.930933471769094467e-03 7.695261955261230469e+00 2.310057878494262695e+00 -2.685129456222057343e-02
3.262000000000000000e+03 7.361267852783203125e+01 8.549255371093750000e+00 5.154862534254789352e-03 7.690487861633300781e+00 2.308692932128906250e+00 -2.466865628957748413e-02
3.263000000000000000e+03 7.363259887695312500e+01 -7.441429615020751953e+00 1.824222970753908157e-03 7.758210659027099609e+00 2.328010559082031250e+00 -4.216943681240081787e-02
3.264000000000000000e+03 2.667956352233886719e+01 7.409677982330322266e+00 1.457535028457641602e-01 8.089520454406738281e+00 2.470582246780395508e+00 1.243574693799018860e-01
3.265000000000000000e+03 6.050667285919189453e+00 2.781408882141113281e+01 -8.667522110044956207e-03 -4.591552074998617172e-03 -3.977722488343715668e-03 9.079040028154850006e-03
3.266000000000000000e+03 5.552556991577148438e+00 2.730910682678222656e+01 -5.887360312044620514e-03 4.750899504870176315e-03 -3.409381897654384375e-04 -9.133921703323721886e-04
3.267000000000000000e+03 7.408967590332031250e+01 1.881458091735839844e+01 3.860385622829198837e-03 7.665700912475585938e+00 2.300868511199951172e+00 -9.034680202603340149e-03
3.268000000000000000e+03 7.239259338378906250e+01 1.781297492980957031e+01 6.674958858639001846e-03 7.677392482757568359e+00 2.305220365524291992e+00 -1.320927124470472336e-02
3.269000000000000000e+03 7.437651824951171875e+01 -1.940390968322753906e+01 -1.893172506242990494e-03 7.824014663696289062e+00 2.346636533737182617e+00 -3.690196201205253601e-02
3.270000000000000000e+03 7.364955139160156250e+01 -2.107423782348632812e+01 -3.426226321607828140e-03 7.828061103820800781e+00 2.347390413284301758e+00 -3.960698470473289490e-02
3.271000000000000000e+03 7.358837890625000000e+01 9.358606338500976562e+00 5.480612628161907196e-03 7.688265800476074219e+00 2.308123826980590820e+00 -2.385005727410316467e-02
3.272000000000000000e+03 7.363649749755859375e+01 -6.625741481781005859e+00 1.816730131395161152e-03 7.754155635833740234e+00 2.326791763305664062e+00 -4.187063872814178467e-02
3.273000000000000000e+03 7.442208862304687500e+01 -4.994369506835937500e+00 2.036334015429019928e-03 7.745740413665771484e+00 2.324332952499389648e+00 -3.672492504119873047e-02
3.274000000000000000e+03 7.362238311767578125e+01 7.951541543006896973e-01 4.099819809198379517e-03 7.719022750854492188e+00 2.316936731338500977e+00 -3.523876890540122986e-02
3.275000000000000000e+03 2.739400672912597656e+01 8.938730239868164062e+00 1.234383657574653625e-01 8.084981918334960938e+00 2.462526082992553711e+00 1.083410903811454773e-01
3.276000000000000000e+03 7.444405364990234375e+01 -2.430969810485839844e+01 -3.840214805677533150e-03 7.848968505859375000e+00 2.353538513183593750e+00 -3.216276690363883972e-02
3.277000000000000000e+03 7.304714202880859375e+01 -2.588506317138671875e+01 -5.586856976151466370e-03 7.843920707702636719e+00 2.351500272750854492e+00 -3.627165779471397400e-02
3.278000000000000000e+03 2.664570999145507812e+01 8.954969406127929688e+00 1.173723191022872925e-01 8.117182731628417969e+00 2.470366477966308594e+00 1.177536696195602417e-01
3.279000000000000000e+03 7.281243133544921875e+01 -7.437840461730957031e+00 1.920978887937963009e-03 7.757535457611083984e+00 2.327836751937866211e+00 -4.629020020365715027e-02
3.280000000000000000e+03 7.360366821289062500e+01 -2.283386141061782837e-02 3.913577180355787277e-03 7.722678184509277344e+00 2.317977428436279297e+00 -3.644505143165588379e-02
3.281000000000000000e+03 7.383193969726562500e+01 -1.373021602630615234e+01 2.449380554025992751e-05 7.791195392608642578e+00 2.337366104125976562e+00 -4.213915020227432251e-02
3.282000000000000000e+03 7.452149963378906250e+01 -1.218516635894775391e+01 -1.640480040805414319e-04 7.785318851470947266e+00 2.335546493530273438e+00 -3.870375454425811768e-02
3.283000000000000000e+03 7.364723968505859375e+01 1.612195134162902832e+00 4.228006117045879364e-03 7.715559959411621094e+00 2.315936326980590820e+00 -3.431263938546180725e-02
3.284000000000000000e+03 7.447821044921875000e+01 3.918751239776611328e+00 3.683396615087985992e-03 7.703598499298095703e+00 2.312184572219848633e+00 -2.819973416626453400e-02
3.285000000000000000e+03 7.286965942382812500e+01 -3.311982154846191406e+00 3.750661620870232582e-03 7.738155364990234375e+00 2.322571754455566406e+00 -4.289270937442779541e-02
3.286000000000000000e+03 7.364994049072265625e+01 -5.805335044860839844e+00 2.309385919943451881e-03 7.749981880187988281e+00 2.325687408447265625e+00 -4.119094461202621460e-02
3.287000000000000000e+03 7.448551940917968750e+01 4.699716567993164062e+00 3.621893702074885368e-03 7.700398445129394531e+00 2.311206102371215820e+00 -2.694356255233287811e-02
3.288000000000000000e+03 7.293798828125000000e+01 3.262499570846557617e+00 5.314171314239501953e-03 7.711014747619628906e+00 2.314898729324340820e+00 -3.478471934795379639e-02
3.289000000000000000e+03 7.447819519042968750e+01 5.474354743957519531e+00 3.884485224261879921e-03 7.697463989257812500e+00 2.310404539108276367e+00 -2.629021927714347839e-02
3.290000000000000000e+03 7.375067138671875000e+01 4.706661224365234375e+00 4.768612794578075409e-03 7.702994346618652344e+00 2.312328815460205078e+00 -3.003831580281257629e-02
3.291000000000000000e+03 2.666062927246093750e+01 9.726822853088378906e+00 1.047651320695877075e-01 8.125633239746093750e+00 2.469119310379028320e+00 1.106217503547668457e-01
3.292000000000000000e+03 7.365669250488281250e+01 -4.158405303955078125e+00 2.811028389260172844e-03 7.741722583770751953e+00 2.323359966278076172e+00 -3.997212648391723633e-02
3.293000000000000000e+03 7.393856048583984375e+01 2.652534103393554688e+01 1.458707614801824093e-03 7.660492420196533203e+00 2.298585176467895508e+00 -1.912202220410108566e-03
3.294000000000000000e+03 7.290547943115234375e+01 2.691415596008300781e+01 2.131350105628371239e-03 7.667045593261718750e+00 2.300753116607666016e+00 -1.829313696362078190e-03
3.295000000000000000e+03 7.323845672607421875e+01 1.869132041931152344e+01 5.205126944929361343e-03 7.671270847320556641e+00 2.302942752838134766e+00 -1.067580375820398331e-02
3.296000000000000000e+03 7.318999481201171875e+01 -2.384461975097656250e+01 -5.906477570533752441e-03 7.837722301483154297e+00 2.349544763565063477e+00 -3.829503804445266724e-02
3.297000000000000000e+03 7.449021148681640625e+01 -1.061183261871337891e+01 2.643129555508494377e-04 7.776444911956787109e+00 2.333012819290161133e+00 -3.877662867307662964e-02
3.298000000000000000e+03 7.380747985839843750e+01 -1.296115493774414062e+01 -4.569262091536074877e-04 7.787487983703613281e+00 2.336109399795532227e+00 -4.253224655985832214e-02
3.299000000000000000e+03 2.594780349731445312e+01 1.213026142120361328e+01 6.258995831012725830e-02 8.164314270019531250e+00 2.468071222305297852e+00 8.213555067777633667e-02
3.300000000000000000e+03 2.671895408630371094e+01 1.287530136108398438e+01 6.553794443607330322e-02 8.136695861816406250e+00 2.460670232772827148e+00 7.221768051385879517e-02
3.301000000000000000e+03 7.368417358398437500e+01 1.260339927673339844e+01 5.633997730910778046e-03 7.679508686065673828e+00 2.305542945861816406e+00 -1.887320168316364288e-02
3.302000000000000000e+03 7.378283691406250000e+01 -1.219274711608886719e+01 4.205083241686224937e-04 7.783215045928955078e+00 2.335090637207031250e+00 -4.248473420739173889e-02
3.303000000000000000e+03 7.367146301269531250e+01 -9.054890632629394531e+00 1.415182370692491531e-03 7.766401290893554688e+00 2.330344915390014648e+00 -4.258152842521667480e-02
3.304000000000000000e+03 7.370793151855468750e+01 -9.848906517028808594e+00 6.445212056860327721e-04 7.770814895629882812e+00 2.331437826156616211e+00 -4.290063306689262390e-02
3.305000000000000000e+03 7.287632751464843750e+01 -9.097737312316894531e+00 1.195637276396155357e-03 7.765809059143066406e+00 2.330101490020751953e+00 -4.675204306840896606e-02
3.306000000000000000e+03 2.668166542053222656e+01 1.050218677520751953e+01 9.100107848644256592e-02 8.130656242370605469e+00 2.466497182846069336e+00 1.018944755196571350e-01
3.307000000000000000e+03 2.671198081970214844e+01 1.207878875732421875e+01 7.063622772693634033e-02 8.136255264282226562e+00 2.462067365646362305e+00 8.273551613092422485e-02
3.308000000000000000e+03 7.209851837158203125e+01 -3.308394193649291992e+00 4.336352460086345673e-03 7.738800048828125000e+00 2.322940826416015625e+00 -4.638683795928955078e-02
3.309000000000000000e+03 7.435269165039062500e+01 -1.773381423950195312e+01 -1.216228003613650799e-03 7.815099239349365234e+00 2.344164848327636719e+00 -3.794150426983833313e-02
3.310000000000000000e+03 7.361781311035156250e+01 -2.026969528198242188e+01 -2.837259089574217796e-03 7.824394702911376953e+00 2.346467256546020508e+00 -3.992790356278419495e-02
3.311000000000000000e+03 7.211403656005859375e+01 3.383476495742797852e+00 6.396368611603975296e-03 7.712672233581542969e+00 2.315720558166503906e+00 -3.748594969511032104e-02
3.312000000000000000e+03 9.841836929321289062e+00 -2.477465820312500000e+01 -6.431853398680686951e-03 -4.366501700133085251e-03 -3.239506622776389122e-03 1.554470160044729710e-03
3.313000000000000000e+03 2.754725265502929688e+01 1.599845600128173828e+01 5.171357095241546631e-02 8.111153602600097656e+00 2.448860168457031250e+00 3.735033795237541199e-02
3.314000000000000000e+03 2.742429733276367188e+01 2.607719612121582031e+01 8.929239213466644287e-02 8.078474044799804688e+00 2.450330018997192383e+00 -6.797839701175689697e-02
3.315000000000000000e+03 7.370114135742187500e+01 6.206182956695556641e+00 4.996182862669229507e-03 7.697823047637939453e+00 2.310845851898193359e+00 -2.814250253140926361e-02
3.316000000000000000e+03 7.296312713623046875e+01 5.411615371704101562e+00 5.944156553596258163e-03 7.703165054321289062e+00 2.312732696533203125e+00 -3.180968388915061951e-02
3.317000000000000000e+03 7.361937713623046875e+01 -1.944488143920898438e+01 -2.946910215541720390e-03 7.819999694824218750e+00 2.345115900039672852e+00 -4.159581288695335388e-02
3.318000000000000000e+03 5.433064937591552734e+00 1.628632736206054688e+01 1.070076832547783852e-03 2.042953274212777615e-04 3.823116712737828493e-04 -5.018034134991466999e-04
3.319000000000000000e+03 6.716742992401123047e+00 1.566550064086914062e+01 7.102253148332238197e-04 1.414662809111177921e-03 6.374664371833205223e-04 -6.382468855008482933e-04
3.320000000000000000e+03 7.362145996093750000e+01 -1.685140800476074219e+01 -1.018135691992938519e-03 7.806323528289794922e+00 2.341591596603393555e+00 -4.217639565467834473e-02
3.321000000000000000e+03 5.266339778900146484e+00 2.513999748229980469e+01 -7.779935374855995178e-03 1.634380663745105267e-03 -1.843666424974799156e-03 4.933341406285762787e-03
3.322000000000000000e+03 7.986686229705810547e+00 2.481637382507324219e+01 -5.914150271564722061e-03 1.032680273056030273e-03 -1.464440952986478806e-03 2.358596073463559151e-03
3.323000000000000000e+03 7.289733123779296875e+01 -1.596137237548828125e+01 -9.651990840211510658e-04 7.799227237701416016e+00 2.339478731155395508e+00 -4.628967493772506714e-02
3.324000000000000000e+03 6.100290775299072266e+00 1.613728523254394531e+01 -8.145351603161543608e-05 -2.321686130017042160e-03 -7.209419272840023041e-04 7.823261548765003681e-04
3.325000000000000000e+03 7.022855281829833984e+00 1.995472145080566406e+01 6.875277613289654255e-04 8.194267284125089645e-04 4.520863294601440430e-04 -1.040862771333195269e-04
3.326000000000000000e+03 5.657135963439941406e+00 1.946422386169433594e+01 -1.104085367842344567e-05 -2.248795004561543465e-03 -6.779507384635508060e-04 -8.199143485398963094e-05
3.327000000000000000e+03 9.516452789306640625e+00 1.801349258422851562e+01 4.185583675280213356e-04 1.277405768632888794e-03 5.087892059236764908e-04 -1.093998784199357033e-03
3.328000000000000000e+03 5.211415767669677734e+00 1.333228874206542969e+01 1.744344481267035007e-03 -8.486378355883061886e-04 2.687119704205542803e-04 -6.378071266226470470e-04
3.329000000000000000e+03 6.235774517059326172e+00 1.409972572326660156e+01 1.695737446425482631e-04 -1.356062828563153744e-03 -3.559467440936714411e-04 4.489060665946453810e-04
3.330000000000000000e+03 5.745721340179443359e+00 1.836268424987792969e+01 -8.642959292046725750e-04 -2.129665808752179146e-03 -8.981885039247572422e-04 -1.255070528713986278e-04
3.331000000000000000e+03 6.486568450927734375e+00 1.674992752075195312e+01 6.722123944200575352e-04 1.520425546914339066e-03 6.577913882210850716e-04 -5.501606501638889313e-04
3.332000000000000000e+03 6.383861064910888672e+00 1.784942436218261719e+01 1.080365036614239216e-03 1.136892009526491165e-03 6.651771254837512970e-04 -2.406092535238713026e-04
3.333000000000000000e+03 5.773694515228271484e+00 2.650155639648437500e+01 -2.610036637634038925e-03 -3.137546591460704803e-04 -8.771374123170971870e-04 -1.687657088041305542e-03
3.334000000000000000e+03 7.280578613281250000e+01 2.120869636535644531e+01 4.835669882595539093e-03 7.671059131622314453e+00 2.302768468856811523e+00 -7.775598671287298203e-03
3.335000000000000000e+03 9.470734596252441406e+00 7.887717247009277344e+00 4.000597109552472830e-04 1.648686738917604089e-04 1.694785169092938304e-04 -3.594264489947818220e-05
3.336000000000000000e+03 7.374182891845703125e+01 1.324367904663085938e+01 4.692128393799066544e-03 7.677322864532470703e+00 2.304604530334472656e+00 -1.709089241921901703e-02
3.337000000000000000e+03 2.674538612365722656e+01 1.681155204772949219e+01 4.022899642586708069e-02 8.133542060852050781e+00 2.452131509780883789e+00 2.901083603501319885e-02
3.338000000000000000e+03 2.724851417541503906e+01 1.928380775451660156e+01 4.864629358053207397e-02 8.117599487304687500e+00 2.449873685836791992e+00 2.560650696977972984e-03
3.339000000000000000e+03 6.494561672210693359e+00 2.395792198181152344e+01 -5.654321052134037018e-03 3.525345819070935249e-03 -6.386925233528017998e-04 3.608346916735172272e-03
3.340000000000000000e+03 5.261728286743164062e+00 1.264223289489746094e+01 -7.972667226567864418e-04 -1.357217406621202826e-04 -2.798965433612465858e-04 3.971321275457739830e-04
3.341000000000000000e+03 5.741931915283203125e+00 1.360554313659667969e+01 -1.604358840268105268e-04 1.339626847766339779e-03 3.537572920322418213e-04 -2.121765865013003349e-04
3.342000000000000000e+03 7.289824676513671875e+01 2.037364387512207031e+01 5.210763309150934219e-03 7.671371459960937500e+00 2.302974700927734375e+00 -9.112641215324401855e-03
3.343000000000000000e+03 1.064167881011962891e+01 -6.099651336669921875e+00 -1.855857408372685313e-04 -6.534739513881504536e-04 -2.517178945709019899e-04 2.694127324502915144e-04
3.344000000000000000e+03 9.895359992980957031e+00 -6.420611858367919922e+00 -2.287643437739461660e-04 -5.818222998641431332e-04 -2.431759930914267898e-04 3.377621760591864586e-04
3.345000000000000000e+03 1.043355369567871094e+01 -2.695837402343750000e+01 -1.254704687744379044e-02 -2.766645513474941254e-03 -4.594107624143362045e-03 7.973962463438510895e-03
3.346000000000000000e+03 8.166108131408691406e+00 7.649674415588378906e+00 4.763117758557200432e-04 9.842401050264015794e-05 1.724207395454868674e-04 -1.357880246359854937e-04
3.347000000000000000e+03 7.258203125000000000e+01 -2.312380790710449219e+01 -4.588037263602018356e-03 7.828951358795166016e+00 2.347309112548828125e+00 -4.213037714362144470e-02
3.348000000000000000e+03 6.128628730773925781e+00 1.060203075408935547e+01 1.214922405779361725e-03 1.121297755162231624e-04 3.981156332883983850e-04 -3.943565825466066599e-04
3.349000000000000000e+03 9.976246833801269531e+00 -2.404640197753906250e+01 4.264298360794782639e-03 1.236302661709487438e-03 1.650180318392813206e-03 -2.485876902937889099e-04
3.350000000000000000e+03 1.073106575012207031e+01 -2.275686454772949219e+01 -6.365919485688209534e-03 -9.347465238533914089e-04 -2.190199680626392365e-03 5.706440424546599388e-04
3.351000000000000000e+03 7.243821716308593750e+01 2.556109619140625000e+01 3.188066184520721436e-03 7.670782089233398438e+00 2.302191019058227539e+00 -3.101754467934370041e-03
3.352000000000000000e+03 6.149321079254150391e+00 1.322088527679443359e+01 2.765751742117572576e-05 -1.566697726957499981e-03 -4.617120721377432346e-04 5.183709436096251011e-04
3.353000000000000000e+03 1.114832210540771484e+01 -7.466335773468017578e+00 5.067736492492258549e-04 1.133768964791670442e-04 1.860451739048585296e-04 4.068073176313191652e-04
3.354000000000000000e+03 7.799859523773193359e+00 9.481695175170898438e+00 -5.115396343171596527e-04 -9.984200733015313745e-05 -1.834144932217895985e-04 3.471788368187844753e-04
3.355000000000000000e+03 6.311108589172363281e+00 1.126865386962890625e+01 -1.096856547519564629e-03 -1.556453935336321592e-04 -3.757505910471081734e-04 2.143558522220700979e-04
3.356000000000000000e+03 2.660016059875488281e+01 2.618008804321289062e+01 8.104085922241210938e-02 8.120901107788085938e+00 2.460582494735717773e+00 -7.639282196760177612e-02
3.357000000000000000e+03 9.351557731628417969e+00 1.268346214294433594e+01 -7.154500344768166542e-04 -9.352018823847174644e-04 -4.951955634169280529e-04 1.089089317247271538e-03
3.358000000000000000e+03 5.301149368286132812e+00 1.191511440277099609e+01 7.371568353846669197e-04 -3.241366066504269838e-04 1.239060657098889351e-04 -2.652347320690751076e-04
3.359000000000000000e+03 2.722599411010742188e+01 2.394114875793457031e+01 6.118030101060867310e-02 8.103439331054687500e+00 2.449385881423950195e+00 -4.309051483869552612e-02
3.360000000000000000e+03 6.674593925476074219e+00 8.695654869079589844e+00 8.003254770301282406e-04 -8.323810470756143332e-05 2.151262160623446107e-04 -4.042922519147396088e-04
3.361000000000000000e+03 7.359464263916015625e+01 2.808900642395019531e+01 1.221661572344601154e-03 7.662918090820312500e+00 2.299241781234741211e+00 -1.267532119527459145e-03
3.362000000000000000e+03 7.359729766845703125e+01 2.892061614990234375e+01 2.237559529021382332e-03 7.662967205047607422e+00 2.299561262130737305e+00 -9.274216135963797569e-04
3.363000000000000000e+03 5.208811759948730469e+00 6.237632751464843750e+00 -4.366187204141169786e-04 -8.528154285158962011e-05 -1.565700804349035025e-04 2.092179929604753852e-04
3.364000000000000000e+03 5.743401050567626953e+00 7.392854690551757812e+00 3.600379568524658680e-04 2.128455671481788158e-04 1.718650601105764508e-04 -7.199008541647344828e-05
3.365000000000000000e+03 1.052901554107666016e+01 -7.844650268554687500e+00 -6.923696491867303848e-05 1.060524737113155425e-04 1.104465263779275119e-05 -4.419352335389703512e-04
3.366000000000000000e+03 6.641176700592041016e+00 -1.281713771820068359e+01 2.045389497652649879e-03 6.351056508719921112e-04 8.041485561989247799e-04 2.996895818796474487e-05
3.367000000000000000e+03 2.550484275817871094e+01 -1.018106365203857422e+01 3.839013352990150452e-02 7.677329540252685547e+00 2.314715862274169922e+00 2.246205359697341919e-01
3.368000000000000000e+03 2.635756874084472656e+01 -8.454174041748046875e+00 3.311033360660076141e-03 7.731515407562255859e+00 2.320447921752929688e+00 2.077131271362304688e-01
3.369000000000000000e+03 8.377955436706542969e+00 -3.240092086791992188e+01 -2.837342396378517151e-02 2.415945380926132202e-02 -1.264191349036991596e-03 -4.737505223602056503e-03
3.370000000000000000e+03 7.562516689300537109e+00 2.932432365417480469e+01 -1.869497634470462799e-02 1.484517380595207214e-02 -1.154940458945930004e-03 1.721418579109013081e-03
3.371000000000000000e+03 7.094763755798339844e+00 3.112692451477050781e+01 -2.469947747886180878e-02 5.043048411607742310e-03 -5.896928254514932632e-03 1.968263462185859680e-02
3.372000000000000000e+03 6.312936782836914062e+00 3.304339981079101562e+01 -1.545558962970972061e-02 8.425083942711353302e-03 -2.109151566401124001e-03 1.984952762722969055e-02
3.373000000000000000e+03 5.959148883819580078e+00 -1.885998344421386719e+01 -3.566817147657275200e-03 -1.041300711221992970e-03 -1.382435439154505730e-03 1.009103725664317608e-03
3.374000000000000000e+03 9.720217704772949219e+00 -1.906952857971191406e+01 -1.187187153846025467e-03 7.947595440782606602e-04 -1.177282829303294420e-04 -1.831733388826251030e-03
3.375000000000000000e+03 2.674018669128417969e+01 5.862161636352539062e+00 1.632446348667144775e-01 8.057413101196289062e+00 2.466197252273559570e+00 1.167880445718765259e-01
3.376000000000000000e+03 2.585663223266601562e+01 4.201835632324218750e+00 1.637964248657226562e-01 8.060647010803222656e+00 2.467333078384399414e+00 1.140771284699440002e-01
3.377000000000000000e+03 2.638149642944335938e+01 -1.343140125274658203e+00 3.731849137693643570e-03 7.920761585235595703e+00 2.377347946166992188e+00 1.301107853651046753e-01
3.378000000000000000e+03 2.657175445556640625e+01 2.627759695053100586e+00 1.167384460568428040e-01 8.006042480468750000e+00 2.436834335327148438e+00 9.194625914096832275e-02
3.379000000000000000e+03 8.705325126647949219e+00 -3.385497283935546875e+01 -4.499085992574691772e-02 3.482153266668319702e-02 -3.050797851756215096e-03 -1.441374048590660095e-02
3.380000000000000000e+03 2.636827850341796875e+01 -9.280405998229980469e+00 1.497882883995771408e-02 7.705727577209472656e+00 2.316211938858032227e+00 2.060186415910720825e-01
3.381000000000000000e+03 8.706470489501953125e+00 -2.939316177368164062e+01 -1.104060001671314240e-02 9.564425796270370483e-03 -4.428522079251706600e-04 -6.087195943109691143e-04
3.382000000000000000e+03 2.639393424987792969e+01 -1.095849514007568359e+01 4.104201868176460266e-02 7.658648490905761719e+00 2.309907197952270508e+00 1.918542534112930298e-01
3.383000000000000000e+03 2.632303810119628906e+01 -4.478241443634033203e+00 -3.578175976872444153e-02 7.838154315948486328e+00 2.340711832046508789e+00 1.666821688413619995e-01
3.384000000000000000e+03 2.665733146667480469e+01 4.246494293212890625e+00 1.557521075010299683e-01 8.028371810913085938e+00 2.455237150192260742e+00 1.011827886104583740e-01
3.385000000000000000e+03 1.068014430999755859e+01 -2.962999725341796875e+01 -6.281625246629118919e-04 -9.269884787499904633e-03 -2.969414228573441505e-03 1.652518846094608307e-02
3.386000000000000000e+03 2.603146743774414062e+01 -1.559787464141845703e+01 1.015970855951309204e-02 7.562130451202392578e+00 2.271687030792236328e+00 1.299841552972793579e-01
3.387000000000000000e+03 2.664980888366699219e+01 -1.442223167419433594e+01 2.654587104916572571e-02 7.582087516784667969e+00 2.282589912414550781e+00 1.340992897748947144e-01
3.388000000000000000e+03 2.635638809204101562e+01 -2.123905897140502930e+00 -7.369507569819688797e-03 7.900722503662109375e+00 2.368005990982055664e+00 1.405199021100997925e-01
3.389000000000000000e+03 2.588675498962402344e+01 -1.743271446228027344e+01 -4.304226860404014587e-02 7.537684917449951172e+00 2.248392820358276367e+00 1.322226077318191528e-01
3.390000000000000000e+03 2.496669769287109375e+01 -1.779221916198730469e+01 -6.427235156297683716e-02 7.514834880828857422e+00 2.235168695449829102e+00 1.458179354667663574e-01
3.391000000000000000e+03 2.653323173522949219e+01 1.820204973220825195e+00 8.925862610340118408e-02 7.993763923645019531e+00 2.424906730651855469e+00 9.210269153118133545e-02
3.392000000000000000e+03 2.661207580566406250e+01 3.436186552047729492e+00 1.390397548675537109e-01 8.016951560974121094e+00 2.446797370910644531e+00 9.329189360141754150e-02
3.393000000000000000e+03 2.556425476074218750e+01 -1.663971900939941406e+01 -2.363768592476844788e-02 7.541565418243408203e+00 2.255378484725952148e+00 1.314481794834136963e-01
3.394000000000000000e+03 2.725489234924316406e+01 -1.593975162506103516e+01 -7.868458516895771027e-03 7.570684909820556641e+00 2.268844842910766602e+00 1.100303009152412415e-01
3.395000000000000000e+03 2.489081954956054688e+01 -2.281016349792480469e+01 -8.575772494077682495e-02 7.410072803497314453e+00 2.197294473648071289e+00 1.933222115039825439e-01
3.396000000000000000e+03 2.319213676452636719e+01 -2.336568450927734375e+01 -7.758375257253646851e-02 7.342781543731689453e+00 2.179559230804443359e+00 2.084768116474151611e-01
3.397000000000000000e+03 2.576894378662109375e+01 -2.796082115173339844e+01 3.150585293769836426e-02 7.336219310760498047e+00 2.210317611694335938e+00 2.046032398939132690e-01
3.398000000000000000e+03 2.459819984436035156e+01 -2.391071891784667969e+01 -5.423960462212562561e-02 7.393880367279052734e+00 2.201892375946044922e+00 1.963470727205276489e-01
3.399000000000000000e+03 2.556460189819335938e+01 -1.442753028869628906e+01 4.927829653024673462e-02 7.575273990631103516e+00 2.287365674972534180e+00 1.530629843473434448e-01
3.400000000000000000e+03 1.103230476379394531e+01 -6.805788993835449219e+00 -6.335095968097448349e-04 -4.414085997268557549e-04 -3.224754473194479942e-04 -2.474924258422106504e-04
3.401000000000000000e+03 6.830925464630126953e+00 1.842491531372070312e+01 -8.658330189064145088e-04 -2.269235672429203987e-03 -9.405206074006855488e-04 2.667603439476806670e-05
3.402000000000000000e+03 1.154111766815185547e+01 7.692868709564208984e+00 2.387670392636209726e-04 2.901635889429599047e-04 1.586791913723573089e-04 3.846009349217638373e-05
3.403000000000000000e+03 9.218634605407714844e+00 9.193235397338867188e+00 5.025780992582440376e-04 1.302851887885481119e-04 1.898589980555698276e-04 -1.379120658384636045e-04
3.404000000000000000e+03 6.383429050445556641e+00 -1.642549896240234375e+01 -3.382423659786581993e-03 -2.263762871734797955e-04 -1.082640024833381176e-03 8.547537618142087013e-06
3.405000000000000000e+03 2.779455947875976562e+01 2.900082969665527344e+01 1.472396999597549438e-01 8.001597404479980469e+00 2.444651126861572266e+00 -7.823173701763153076e-02
3.406000000000000000e+03 2.791385459899902344e+01 3.038505935668945312e+01 1.876392066478729248e-01 7.963187217712402344e+00 2.445247888565063477e+00 -7.612700760364532471e-02
3.407000000000000000e+03 1.109317111968994141e+01 -6.182636737823486328e+00 5.811680457554757595e-04 3.376735839992761612e-04 2.756524772848933935e-04 2.571875520516186953e-04
3.408000000000000000e+03 9.075578689575195312e+00 -6.609803199768066406e+00 -2.300790511071681976e-04 -2.637674915604293346e-04 -1.481539657106623054e-04 4.820766625925898552e-04
3.409000000000000000e+03 9.827095031738281250e+00 3.029960250854492188e+01 -3.306677937507629395e-02 2.721125818789005280e-02 -1.756656565703451633e-03 -3.347152844071388245e-03
3.410000000000000000e+03 8.947938919067382812e+00 2.859823226928710938e+01 -1.437862403690814972e-02 -3.796125529333949089e-03 -5.452424753457307816e-03 9.590887930244207382e-04
3.411000000000000000e+03 9.853414535522460938e+00 -2.709174728393554688e+01 1.276696333661675453e-03 -2.858672523871064186e-03 -4.745928163174539804e-04 2.497229492291808128e-03
3.412000000000000000e+03 1.042362022399902344e+01 -3.131360816955566406e+01 -1.425869949162006378e-02 1.392404176294803619e-02 -1.003973156912252307e-04 7.834191434085369110e-03
3.413000000000000000e+03 1.121433258056640625e+01 2.163554954528808594e+01 -2.622534986585378647e-03 -1.520112855359911919e-03 -1.242794329300522804e-03 5.655197310261428356e-04
3.414000000000000000e+03 1.065574836730957031e+01 2.305876350402832031e+01 5.562785081565380096e-04 -1.323770266026258469e-05 1.629122416488826275e-04 -1.011367188766598701e-03
3.415000000000000000e+03 7.265458679199218750e+01 -3.500152587890625000e+01 -1.312695350497961044e-02 7.867368698120117188e+00 2.356272459030151367e+00 -1.927831582725048065e-02
3.416000000000000000e+03 7.405225372314453125e+01 -3.390036010742187500e+01 -8.565073832869529724e-03 7.879842758178710938e+00 2.361383438110351562e+00 -1.946139894425868988e-02
3.417000000000000000e+03 9.860841751098632812e+00 1.318433475494384766e+01 1.419083564542233944e-03 4.501035145949572325e-04 5.607561324723064899e-04 -7.040292839519679546e-04
3.418000000000000000e+03 1.018292713165283203e+01 1.462927913665771484e+01 -1.619493355974555016e-03 -5.275247967801988125e-04 -6.441054283641278744e-04 1.455735182389616966e-04
3.419000000000000000e+03 3.026093101501464844e+01 3.046955299377441406e+01 1.372916400432586670e-01 7.904802322387695312e+00 2.412628173828125000e+00 6.473498884588479996e-03
3.420000000000000000e+03 1.127719497680664062e+01 -2.071841239929199219e+01 -4.914253018796443939e-03 4.818037268705666065e-04 -1.329734805040061474e-03 -4.484579258132725954e-04
3.421000000000000000e+03 9.157953262329101562e+00 -1.953317070007324219e+01 1.525251544080674648e-03 -1.557111623696982861e-03 -9.558006240695249289e-06 1.402474124915897846e-03
3.422000000000000000e+03 2.449078559875488281e+01 -1.990474700927734375e+01 -9.394419193267822266e-02 7.460539817810058594e+00 2.209978818893432617e+00 1.875751912593841553e-01
3.423000000000000000e+03 7.437475585937500000e+01 -2.834777259826660156e+01 -3.803427796810865402e-03 7.865490436553955078e+00 2.358506202697753906e+00 -2.691147848963737488e-02
3.424000000000000000e+03 7.368363952636718750e+01 -2.889511299133300781e+01 -5.603422410786151886e-03 7.861261367797851562e+00 2.356697320938110352e+00 -2.833868749439716339e-02
3.425000000000000000e+03 2.360791587829589844e+01 -1.996884727478027344e+01 -1.123341768980026245e-01 7.414747238159179688e+00 2.190723896026611328e+00 2.131555974483489990e-01
3.426000000000000000e+03 2.664952278137207031e+01 -2.823178482055664062e+01 4.730968549847602844e-02 7.345798969268798828e+00 2.217932701110839844e+00 1.731361746788024902e-01
3.427000000000000000e+03 1.065436363220214844e+01 -3.060202598571777344e+01 -2.115425653755664825e-02 -7.948048412799835205e-03 -8.730690926313400269e-03 1.706436835229396820e-02
3.428000000000000000e+03 8.381968498229980469e+00 -3.026471519470214844e+01 -2.160855568945407867e-02 3.275010385550558567e-04 -6.384316366165876389e-03 7.102996110916137695e-03
3.429000000000000000e+03 1.015794277191162109e+01 3.162616729736328125e+01 -4.539426788687705994e-02 3.807619586586952209e-02 -2.195420907810330391e-03 -3.862380515784025192e-03
3.430000000000000000e+03 6.870969772338867188e+00 3.678792953491210938e+01 2.915207529440522194e-03 -1.380614121444523335e-03 4.603780398610979319e-04 4.418510943651199341e-02
3.431000000000000000e+03 2.645330238342285156e+01 2.033288383483886719e+01 4.186423495411872864e-02 8.137457847595214844e+00 2.453796625137329102e+00 -9.775451384484767914e-03
3.432000000000000000e+03 8.292922973632812500e+00 3.257785797119140625e+01 -3.560044988989830017e-02 1.479153148829936981e-02 -6.242675706744194031e-03 2.655620686709880829e-02
3.433000000000000000e+03 7.415338897705078125e+01 -3.284246826171875000e+01 -6.130610592663288116e-03 7.877642154693603516e+00 2.361453294754028320e+00 -2.079112082719802856e-02
3.434000000000000000e+03 7.354058074951171875e+01 2.966209030151367188e+01 6.950745009817183018e-04 7.663412094116210938e+00 2.299232244491577148e+00 -4.021883360110223293e-04
3.435000000000000000e+03 9.040812492370605469e+00 3.745517730712890625e+01 1.272878609597682953e-02 1.544799655675888062e-02 8.453034795820713043e-03 5.101086944341659546e-02
3.436000000000000000e+03 7.399528980255126953e+00 3.494591903686523438e+01 -1.698468439280986786e-02 1.537057198584079742e-02 -4.842340422328561544e-04 3.171397745609283447e-02
3.437000000000000000e+03 7.287408447265625000e+01 2.920691299438476562e+01 2.150176558643579483e-03 7.668093681335449219e+00 2.301073074340820312e+00 -4.656149831134825945e-04
3.438000000000000000e+03 2.642240715026855469e+01 -2.951407051086425781e+01 6.910710036754608154e-02 7.306409835815429688e+00 2.212655067443847656e+00 1.698280721902847290e-01
3.439000000000000000e+03 6.820420837402343750e+01 3.505771636962890625e+01 1.313860644586384296e-03 7.699859142303466797e+00 2.310351848602294922e+00 2.862762892618775368e-03
3.440000000000000000e+03 1.256870365142822266e+01 4.135073471069335938e+01 2.669556140899658203e-01 -1.158099062740802765e-02 7.661239057779312134e-02 1.067373231053352356e-01
3.441000000000000000e+03 9.623935699462890625e+00 4.061734390258789062e+01 1.048827096819877625e-01 -2.686348371207714081e-02 2.340576611459255219e-02 2.039301954209804535e-02
3.442000000000000000e+03 2.894188308715820312e+01 -3.255040740966796875e+01 6.265153735876083374e-02 7.275911331176757812e+00 2.201568841934204102e+00 8.957756683230400085e-03
3.443000000000000000e+03 8.299910545349121094e+00 -4.124210739135742188e+01 9.265948086977005005e-02 -1.222901325672864914e-02 2.412913925945758820e-02 -1.877121999859809875e-02
3.444000000000000000e+03 6.707181549072265625e+01 4.070801162719726562e+01 -2.392618684098124504e-03 7.709292888641357422e+00 2.312070131301879883e+00 6.942321197129786015e-04
3.445000000000000000e+03 6.917004394531250000e+01 3.317839813232421875e+01 3.359058173373341560e-04 7.692423820495605469e+00 2.307827949523925781e+00 1.612253370694816113e-03
3.446000000000000000e+03 2.645341110229492188e+01 3.365509414672851562e+01 3.328410983085632324e-01 7.789428710937500000e+00 2.436680793762207031e+00 -4.640811309218406677e-02
3.447000000000000000e+03 3.166721343994140625e+01 3.469194793701171875e+01 2.447788976132869720e-02 7.865649223327636719e+00 2.367038011550903320e+00 1.175563633441925049e-01
3.448000000000000000e+03 7.057440185546875000e+01 3.585180282592773438e+01 -3.678528883028775454e-04 7.685281753540039062e+00 2.305474042892456055e+00 1.526176463812589645e-03
3.449000000000000000e+03 1.041686344146728516e+01 -6.717040538787841797e+00 5.299145705066621304e-04 5.311176064424216747e-04 3.183096414431929588e-04 -2.887326118070632219e-04
3.450000000000000000e+03 9.510215759277343750e+00 -6.973652839660644531e+00 3.913961409125477076e-04 2.421267417958006263e-04 1.900568604469299316e-04 -3.925149503629654646e-04
3.451000000000000000e+03 7.635727882385253906e+00 6.930890560150146484e+00 4.271580837666988373e-04 1.103072791011072695e-04 1.612396154087036848e-04 -1.126719143940135837e-04
3.452000000000000000e+03 8.812533378601074219e+00 7.755647659301757812e+00 -3.296402574051171541e-04 -1.686232862994074821e-04 -1.494790631113573909e-04 1.165897119790315628e-04
3.453000000000000000e+03 5.972115516662597656e+00 9.925634384155273438e+00 -8.638155995868146420e-04 -8.112673094728961587e-05 -2.834827173501253128e-04 4.668596084229648113e-04
3.454000000000000000e+03 9.078430175781250000e+00 -3.064358329772949219e+01 -1.805636100471019745e-02 1.481791399419307709e-02 -9.715342312119901180e-04 -8.461315301246941090e-04
3.455000000000000000e+03 1.031360340118408203e+01 -2.747985839843750000e+01 4.281898029148578644e-03 -3.326993319205939770e-04 1.184759545139968395e-03 -3.357517533004283905e-03
3.456000000000000000e+03 2.720817565917968750e+01 -5.937905311584472656e+00 -2.257098071277141571e-02 7.803999900817871094e+00 2.334428548812866211e+00 1.641323417425155640e-01
3.457000000000000000e+03 2.809187507629394531e+01 -5.022080421447753906e+00 -1.389495003968477249e-02 7.823623657226562500e+00 2.342918634414672852e+00 1.322618275880813599e-01
3.458000000000000000e+03 7.813682079315185547e+00 2.765317344665527344e+01 -9.948451071977615356e-03 -4.519942682236433029e-03 -4.340517800301313400e-03 2.611718373373150826e-03
3.459000000000000000e+03 1.026369762420654297e+01 7.346333980560302734e+00 3.370848426129668951e-04 1.869676634669303894e-04 1.572157489135861397e-04 5.146891635376960039e-05
3.460000000000000000e+03 1.067398071289062500e+01 8.883213043212890625e+00 -3.000610158778727055e-04 -2.690205583348870277e-04 -1.707244664430618286e-04 6.343145651044324040e-05
3.461000000000000000e+03 5.808701992034912109e+00 -2.865756797790527344e+01 2.429407788440585136e-03 1.962224720045924187e-03 1.317489775829017162e-03 -3.422376699745655060e-03
3.462000000000000000e+03 5.895710468292236328e+00 -2.941608619689941406e+01 -1.987575180828571320e-02 -1.059982459992170334e-03 -6.280720233917236328e-03 -2.151383552700281143e-03
3.463000000000000000e+03 7.978595256805419922e+00 2.872434234619140625e+01 -1.429982576519250870e-02 -3.143089124932885170e-03 -5.232874769717454910e-03 5.666222423315048218e-03
3.464000000000000000e+03 9.709640502929687500e+00 1.761551284790039062e+01 4.484921519178897142e-04 6.201972137205302715e-04 3.206068067811429501e-04 -5.787357222288846970e-04
3.465000000000000000e+03 2.719764900207519531e+01 -1.252679109573364258e+00 1.614974625408649445e-02 7.915213108062744141e+00 2.379408836364746094e+00 1.090345606207847595e-01
3.466000000000000000e+03 2.730273437500000000e+01 1.097398757934570312e+00 7.155141234397888184e-02 7.959773063659667969e+00 2.409397363662719727e+00 8.306338638067245483e-02
3.467000000000000000e+03 1.078597545623779297e+01 8.203419685363769531e+00 3.368555044289678335e-04 2.684498904272913933e-04 1.815916184568777680e-04 4.787599391420371830e-05
3.468000000000000000e+03 1.041123485565185547e+01 -2.030521965026855469e+01 -2.721707569435238838e-03 -2.364699612371623516e-04 -8.874532650224864483e-04 -2.439022209728136659e-04
3.469000000000000000e+03 1.012293243408203125e+01 -1.966400527954101562e+01 2.788373734802007675e-03 -1.121288980357348919e-03 5.001254030503332615e-04 -1.420951048203278333e-05
3.470000000000000000e+03 9.607439041137695312e+00 1.063411521911621094e+01 -4.622652777470648289e-04 -8.363965025637298822e-05 -1.637714740354567766e-04 2.388496650382876396e-04
3.471000000000000000e+03 2.722681617736816406e+01 -4.772691428661346436e-01 3.088499419391155243e-02 7.930548667907714844e+00 2.388430118560791016e+00 9.864889830350875854e-02
3.472000000000000000e+03 2.632823944091796875e+01 -3.692057132720947266e+00 -2.717871777713298798e-02 7.859778404235839844e+00 2.349779844284057617e+00 1.575079411268234253e-01
3.473000000000000000e+03 7.638461589813232422e+00 3.050752449035644531e+01 -2.247571386396884918e-02 1.797568053007125854e-02 -1.350010279566049576e-03 4.077329300343990326e-03
3.474000000000000000e+03 9.697597503662109375e+00 1.617166709899902344e+01 -8.979400154203176498e-04 -1.537469448521733284e-03 -7.306228508241474628e-04 -4.401086480356752872e-04
3.475000000000000000e+03 2.726448631286621094e+01 2.229378509521484375e+01 5.077348276972770691e-02 8.112406730651855469e+00 2.448953866958618164e+00 -2.775015309453010559e-02
3.476000000000000000e+03 6.560104846954345703e+00 1.252850723266601562e+01 -5.641881143674254417e-04 -7.315821712836623192e-04 -3.887310740537941456e-04 2.355318429181352258e-04
3.477000000000000000e+03 9.785556793212890625e+00 1.235057830810546875e+01 1.180987688712775707e-03 2.922061248682439327e-04 4.419581382535398006e-04 -7.851123227737843990e-04
3.478000000000000000e+03 6.146094799041748047e+00 2.478194618225097656e+01 -5.757656414061784744e-03 5.491004325449466705e-03 -7.999550871318206191e-05 7.082417723722755909e-04
3.479000000000000000e+03 9.307004928588867188e+00 2.579256439208984375e+01 -5.130605772137641907e-03 -9.764324640855193138e-04 -1.832111389376223087e-03 -3.616410074755549431e-03
3.480000000000000000e+03 2.820106697082519531e+01 -9.121809005737304688e+00 8.572078309953212738e-03 7.716180324554443359e+00 2.317425727844238281e+00 1.533856838941574097e-01
3.481000000000000000e+03 8.264139175415039062e+00 -6.499609470367431641e+00 4.129224107600748539e-04 2.225384087068960071e-04 1.906382385641336441e-04 7.300690049305558205e-04
3.482000000000000000e+03 1.038676834106445312e+01 -8.824160575866699219e+00 -3.528036759234964848e-04 3.468720533419400454e-04 -1.779488002284779213e-06 -4.945705295540392399e-04
3.483000000000000000e+03 2.727915954589843750e+01 -1.086648654937744141e+01 3.513313457369804382e-02 7.667389869689941406e+00 2.310756921768188477e+00 1.706569492816925049e-01
3.484000000000000000e+03 7.078248023986816406e+00 9.916726112365722656e+00 -4.376685246825218201e-04 1.670672936597838998e-04 -8.118036930682137609e-05 2.708637039177119732e-04
3.485000000000000000e+03 9.387850761413574219e+00 -2.766553497314453125e+01 -5.179981701076030731e-03 5.184711888432502747e-03 1.419021714355039876e-06 -3.921978714060969651e-05
3.486000000000000000e+03 6.583964824676513672e+00 9.279544830322265625e+00 -6.981348269619047642e-04 -4.616472506313584745e-05 -2.232898696092888713e-04 5.396347842179238796e-04
3.487000000000000000e+03 9.754151344299316406e+00 1.001217746734619141e+01 5.378522910177707672e-04 1.202850689878687263e-04 1.974412152776494622e-04 -1.364158670185133815e-04
3.488000000000000000e+03 7.281488037109375000e+01 -2.118438148498535156e+01 -4.325775895267724991e-03 7.822793006896972656e+00 2.345540046691894531e+00 -4.291471466422080994e-02
3.489000000000000000e+03 8.113031387329101562e+00 -7.503960609436035156e+00 -1.245761406607925892e-03 6.619098712690174580e-05 -3.538711462169885635e-04 1.921317161759361625e-04
3.490000000000000000e+03 6.352345466613769531e+00 -2.117433166503906250e+01 -5.927381571382284164e-03 2.511212660465389490e-04 -1.702878042124211788e-03 1.111914869397878647e-03
3.491000000000000000e+03 6.590191841125488281e+00 -2.283688545227050781e+01 -3.544062143191695213e-03 -4.213203676044940948e-03 -2.327179769054055214e-03 2.283786190673708916e-03
3.492000000000000000e+03 5.856010437011718750e+00 -1.020836257934570312e+01 1.644065487198531628e-03 2.654922718647867441e-04 5.728673422709107399e-04 -7.190681935753673315e-05
3.493000000000000000e+03 9.902973175048828125e+00 -1.055268859863281250e+01 7.672960637137293816e-04 9.534088894724845886e-04 5.162114975973963737e-04 -9.493184625171124935e-04
3.494000000000000000e+03 7.241194725036621094e+00 -2.114122962951660156e+01 2.542545786127448082e-03 9.870820213109254837e-04 1.058888388797640800e-03 -1.244100276380777359e-03
3.495000000000000000e+03 7.053740501403808594e+00 2.074352264404296875e+01 -1.133891404606401920e-03 1.115416307584382594e-05 -3.368211910128593445e-04 1.323207630775868893e-03
3.496000000000000000e+03 5.888189315795898438e+00 -1.102396106719970703e+01 -1.548284548334777355e-03 -4.026297247037291527e-04 -5.852743051946163177e-04 1.586688449606299400e-04
3.497000000000000000e+03 5.834193229675292969e+00 -2.486500549316406250e+01 -7.799565326422452927e-03 -1.177894417196512222e-03 -2.693237969651818275e-03 -1.151022806880064309e-04
3.498000000000000000e+03 6.470983982086181641e+00 -2.367596054077148438e+01 9.125564829446375370e-04 3.027214435860514641e-03 1.181931234896183014e-03 -1.368817291222512722e-03
3.499000000000000000e+03 8.052233695983886719e+00 -1.657768630981445312e+01 4.035602614749222994e-04 -1.309638726525008678e-03 -2.718235482461750507e-04 1.818595046643167734e-04
3.500000000000000000e+03 7.664177417755126953e+00 -1.700184249877929688e+01 -3.821167338173836470e-04 4.229090991429984570e-04 1.223771596414735541e-05 -6.320023676380515099e-04
3.501000000000000000e+03 6.543124198913574219e+00 -8.669694900512695312e+00 -1.401591580361127853e-03 -2.165491750929504633e-04 -4.854422295466065407e-04 3.652928353403694928e-05
3.502000000000000000e+03 5.817679882049560547e+00 -1.969244956970214844e+01 4.393070004880428314e-03 -8.924117719288915396e-05 1.291148597374558449e-03 -7.429900579154491425e-04
3.503000000000000000e+03 7.556089401245117188e+00 -2.056719398498535156e+01 -5.104339215904474258e-04 -3.195108845829963684e-03 -1.111662830226123333e-03 9.870528010651469231e-04
3.504000000000000000e+03 6.288342475891113281e+00 -2.055066871643066406e+01 4.091272130608558655e-03 1.817441557250276674e-06 1.227926928550004959e-03 -5.570747889578342438e-04
3.505000000000000000e+03 9.095394134521484375e+00 -1.750222778320312500e+01 -6.178059993544593453e-05 -1.277135568670928478e-03 -4.016748571302741766e-04 1.033617416396737099e-03
3.506000000000000000e+03 6.621470451354980469e+00 -1.493793201446533203e+01 -2.323062159121036530e-03 -8.253685082308948040e-04 -9.445291943848133087e-04 -6.519020098494365811e-05
3.507000000000000000e+03 8.661748886108398438e+00 -1.802116203308105469e+01 1.366547076031565666e-04 5.381447263062000275e-04 2.024398272624239326e-04 -1.757655641995370388e-03
3.508000000000000000e+03 6.444936752319335938e+00 -1.988678741455078125e+01 -2.240964211523532867e-03 -1.970326760783791542e-03 -1.263387268409132957e-03 1.434390083886682987e-03
3.509000000000000000e+03 6.544856548309326172e+00 -1.026484966278076172e+01 -1.541172270663082600e-03 -3.354605869390070438e-04 -5.629898514598608017e-04 6.514802953461185098e-05
3.510000000000000000e+03 1.034908294677734375e+01 -1.434162712097167969e+01 1.828754437156021595e-03 -7.566389977000653744e-04 3.216346085537225008e-04 1.682758884271606803e-04
3.511000000000000000e+03 1.053010559082031250e+01 -1.176883411407470703e+01 -1.288401195779442787e-03 -6.150603294372558594e-04 -5.710384575650095940e-04 9.248006390407681465e-04
3.512000000000000000e+03 5.949696540832519531e+00 -2.562067222595214844e+01 1.984295435249805450e-03 2.190031111240386963e-03 1.252298010513186455e-03 -4.108806897420436144e-04
3.513000000000000000e+03 7.305480003356933594e+00 -2.308367538452148438e+01 -6.226628320291638374e-04 3.980503883212804794e-03 1.007352257147431374e-03 -2.058884128928184509e-03
3.514000000000000000e+03 2.833126449584960938e+01 1.584672069549560547e+01 6.425677239894866943e-02 8.091022491455078125e+00 2.446583747863769531e+00 3.684986382722854614e-02
3.515000000000000000e+03 6.962904930114746094e+00 -3.004134750366210938e+01 -1.985339820384979248e-02 1.820507692173123360e-03 -5.409867502748966217e-03 -4.382681101560592651e-03
3.516000000000000000e+03 6.698486804962158203e+00 -2.566934013366699219e+01 -5.958737339824438095e-03 -5.015810951590538025e-03 -3.292364301159977913e-03 1.084757270291447639e-03
3.517000000000000000e+03 6.558320045471191406e+00 -1.419292926788330078e+01 2.610861090943217278e-03 -7.698361150687560439e-05 7.601632387377321720e-04 1.468403788749128580e-04
3.518000000000000000e+03 7.970922470092773438e+00 -2.696685600280761719e+01 -3.675209125503897667e-03 5.898917093873023987e-03 6.671124137938022614e-04 -3.201056679245084524e-04
3.519000000000000000e+03 6.582376956939697266e+00 -2.653916549682617188e+01 -2.590290969237685204e-04 3.598390612751245499e-03 1.001808443106710911e-03 -4.398549790494143963e-04
3.520000000000000000e+03 2.747238731384277344e+01 1.743033409118652344e+01 4.664344340562820435e-02 8.113340377807617188e+00 2.447995185852050781e+00 2.138415724039077759e-02
3.521000000000000000e+03 2.805039787292480469e+01 2.388195037841796875e+01 7.707220315933227539e-02 8.080520629882812500e+00 2.447277784347534180e+00 -4.338648542761802673e-02
3.522000000000000000e+03 7.280050754547119141e+00 -1.109585666656494141e+01 -1.241612480953335762e-03 -6.876710103824734688e-04 -5.787850241176784039e-04 -8.932765194913372397e-05
3.523000000000000000e+03 8.684528350830078125e+00 -1.282089138031005859e+01 1.181049883598461747e-04 2.518765395507216454e-04 1.109944641939364374e-04 -7.698431145399808884e-04
3.524000000000000000e+03 6.501399993896484375e+00 -1.352666091918945312e+01 -2.254460705444216728e-03 -3.669614670798182487e-04 -7.864266517572104931e-04 -1.053850064636208117e-04
3.525000000000000000e+03 8.301056861877441406e+00 -1.319462871551513672e+01 -5.050229374319314957e-04 1.157577753474470228e-05 -1.480341452406719327e-04 1.235593692399561405e-03
3.526000000000000000e+03 6.055884838104248047e+00 2.368416404724121094e+01 4.577808722387999296e-04 -4.589051008224487305e-03 -1.239381032064557076e-03 -2.574502024799585342e-03
3.527000000000000000e+03 7.958906650543212891e+00 2.359320449829101562e+01 -3.284305101260542870e-03 -2.115438459441065788e-03 -1.619923044927418232e-03 1.438246574252843857e-03
3.528000000000000000e+03 9.913485527038574219e+00 -1.168748188018798828e+01 9.628305560909211636e-04 8.440396632067859173e-04 5.420610541477799416e-04 -1.208491972647607327e-03
3.529000000000000000e+03 6.586167812347412109e+00 -7.890644073486328125e+00 1.379968947730958462e-03 1.571957836858928204e-04 4.611494077835232019e-04 8.108845941023901105e-05
3.530000000000000000e+03 7.159730529785156250e+01 -1.635206794738769531e+01 -1.867228187620639801e-03 7.795685768127441406e+00 2.338145494461059570e+00 -5.235775932669639587e-02
3.531000000000000000e+03 1.000268363952636719e+01 -1.576429080963134766e+01 4.582054680213332176e-04 1.713493256829679012e-03 6.515096174553036690e-04 -3.242006059736013412e-04
3.532000000000000000e+03 8.887708663940429688e+00 -1.651083946228027344e+01 -7.470873242709785700e-05 -1.615569577552378178e-03 -5.070834886282682419e-04 5.311853601597249508e-04
3.533000000000000000e+03 7.214001464843750000e+01 -2.593737030029296875e+01 -7.312925066798925400e-03 7.837439537048339844e+00 2.349037885665893555e+00 -3.914372622966766357e-02
3.534000000000000000e+03 7.355976867675781250e+01 1.100151157379150391e+01 5.418725311756134033e-03 7.684009552001953125e+00 2.306828498840332031e+00 -2.133748307824134827e-02
3.535000000000000000e+03 7.281190490722656250e+01 8.482845306396484375e+00 6.694509182125329971e-03 7.694178104400634766e+00 2.310261964797973633e+00 -2.749367989599704742e-02
3.536000000000000000e+03 6.647024154663085938e+00 -7.105495452880859375e+00 -1.090838573873043060e-03 -2.603298926260322332e-04 -4.053505545016378164e-04 -2.363573148613795638e-04
3.537000000000000000e+03 7.244613647460937500e+01 1.614451217651367188e+01 7.127479184418916702e-03 7.679495811462402344e+00 2.305986881256103516e+00 -1.569860614836215973e-02
3.538000000000000000e+03 7.339942169189453125e+01 1.544929313659667969e+01 5.560036282986402512e-03 7.675247192382812500e+00 2.304242134094238281e+00 -1.513108797371387482e-02
3.539000000000000000e+03 7.225829315185546875e+01 -2.824022483825683594e+01 -8.436262607574462891e-03 7.846442699432373047e+00 2.351402044296264648e+00 -3.482975810766220093e-02
3.540000000000000000e+03 7.205192565917968750e+01 -9.172717094421386719e+00 1.705862465314567089e-03 7.764767646789550781e+00 2.329941987991333008e+00 -5.039814114570617676e-02
3.541000000000000000e+03 2.761929512023925781e+01 6.713420391082763672e+00 1.514709740877151489e-01 8.037147521972656250e+00 2.456585645675659180e+00 1.042908579111099243e-01
3.542000000000000000e+03 2.748503684997558594e+01 1.676286125183105469e+01 5.365188792347908020e-02 8.111120223999023438e+00 2.449431657791137695e+00 2.898157387971878052e-02
3.543000000000000000e+03 2.680004692077636719e+01 1.758137893676757812e+01 4.506881535053253174e-02 8.130097389221191406e+00 2.452549934387207031e+00 1.914009824395179749e-02
3.544000000000000000e+03 6.953347206115722656e+00 2.634498786926269531e+01 -9.920578449964523315e-03 6.158897653222084045e-03 -1.128504169173538685e-03 3.394357627257704735e-03
3.545000000000000000e+03 5.905393123626708984e+00 2.432100296020507812e+01 -4.234562627971172333e-03 -2.708857646211981773e-03 -2.083026105538010597e-03 6.065819878131151199e-03
3.546000000000000000e+03 5.792402744293212891e+00 2.593038940429687500e+01 -8.929459378123283386e-03 2.674389397725462914e-03 -1.876520924270153046e-03 5.855323746800422668e-03
3.547000000000000000e+03 8.477108001708984375e+00 2.636102867126464844e+01 -6.548812612891197205e-03 -2.817054744809865952e-03 -2.809760160744190216e-03 -3.635877277702093124e-03
3.548000000000000000e+03 2.814056396484375000e+01 8.911022186279296875e+00 1.258865594863891602e-01 8.054385185241699219e+00 2.454081535339355469e+00 9.837660193443298340e-02
3.549000000000000000e+03 2.741789817810058594e+01 9.682372093200683594e+00 1.110546886920928955e-01 8.092582702636718750e+00 2.461091041564941406e+00 1.034064367413520813e-01
3.550000000000000000e+03 7.189344787597656250e+01 1.005414676666259766e+01 8.013624697923660278e-03 7.693758487701416016e+00 2.310531616210937500e+00 -2.687355130910873413e-02
3.551000000000000000e+03 7.306378936767578125e+01 -1.297771453857421875e+01 1.539121149107813835e-04 7.784948825836181641e+00 2.335530757904052734e+00 -4.609253257513046265e-02
3.552000000000000000e+03 7.287595367431640625e+01 -5.769787311553955078e+00 2.623177599161863327e-03 7.749624729156494141e+00 2.325674533843994141e+00 -4.515121877193450928e-02
3.553000000000000000e+03 7.290386199951171875e+01 -4.951643466949462891e+00 3.158547682687640190e-03 7.745670318603515625e+00 2.324648618698120117e+00 -4.415091499686241150e-02
3.554000000000000000e+03 7.284962463378906250e+01 1.705087304115295410e+00 5.332724656909704208e-03 7.716912269592285156e+00 2.316673517227172852e+00 -3.717280924320220947e-02
3.555000000000000000e+03 7.241094970703125000e+01 1.854195213317871094e+01 5.865280982106924057e-03 7.675749778747558594e+00 2.304484605789184570e+00 -1.147338189184665680e-02
3.556000000000000000e+03 7.300051116943359375e+01 3.989493131637573242e+00 5.686779040843248367e-03 7.708094120025634766e+00 2.314134359359741211e+00 -3.383626416325569153e-02
3.557000000000000000e+03 7.360775756835937500e+01 -1.671826839447021484e+00 3.442787798121571541e-03 7.730097770690917969e+00 2.320062160491943359e+00 -3.813324868679046631e-02
3.558000000000000000e+03 7.289691925048828125e+01 -4.133453369140625000e+00 3.253524890169501305e-03 7.741992473602294922e+00 2.323573827743530273e+00 -4.371640458703041077e-02
3.559000000000000000e+03 7.288475036621093750e+01 2.504775047302246094e+00 5.289873108267784119e-03 7.713898181915283203e+00 2.315756559371948242e+00 -3.609275072813034058e-02
3.560000000000000000e+03 9.209224700927734375e+00 -1.853068733215332031e+01 5.657649599015712738e-04 -1.341132912784814835e-03 -2.326103713130578399e-04 1.787008368410170078e-03
3.561000000000000000e+03 7.301264190673828125e+01 -1.220721817016601562e+01 -1.650532940402626991e-04 7.781428813934326172e+00 2.334379196166992188e+00 -4.650101065635681152e-02
3.562000000000000000e+03 7.376626586914062500e+01 -1.142163467407226562e+01 8.994225208880379796e-05 7.779258251190185547e+00 2.333804607391357422e+00 -4.276117309927940369e-02
3.563000000000000000e+03 7.280200958251953125e+01 -1.637832999229431152e+00 4.368329886347055435e-03 7.730871677398681641e+00 2.320571899414062500e+00 -4.152855277061462402e-02
3.564000000000000000e+03 7.301248168945312500e+01 -1.144371128082275391e+01 5.784683744423091412e-04 7.777686119079589844e+00 2.333479404449462891e+00 -4.642262309789657593e-02
3.565000000000000000e+03 2.748395538330078125e+01 1.200951576232910156e+01 8.256010711193084717e-02 8.107972145080566406e+00 2.457159519195556641e+00 8.035057038068771362e-02
3.566000000000000000e+03 2.749295234680175781e+01 1.280788326263427734e+01 7.233315706253051758e-02 8.110795021057128906e+00 2.454938411712646484e+00 7.257580757141113281e-02
3.567000000000000000e+03 7.293952941894531250e+01 -9.895264625549316406e+00 1.346493605524301529e-03 7.769362449645996094e+00 2.331212759017944336e+00 -4.642907530069351196e-02
3.568000000000000000e+03 7.300128936767578125e+01 -1.067815589904785156e+01 4.403360944706946611e-04 7.773540496826171875e+00 2.332194328308105469e+00 -4.678436368703842163e-02
3.569000000000000000e+03 2.744857788085937500e+01 1.043913650512695312e+01 1.016932874917984009e-01 8.099249839782714844e+00 2.460282802581787109e+00 9.644421190023422241e-02
3.570000000000000000e+03 2.747121047973632812e+01 1.121561241149902344e+01 8.965465426445007324e-02 8.104194641113281250e+00 2.458154678344726562e+00 8.922757953405380249e-02
3.571000000000000000e+03 7.301069641113281250e+01 4.701957702636718750e+00 5.600238684564828873e-03 7.705450534820556641e+00 2.313315153121948242e+00 -3.235906735062599182e-02
3.572000000000000000e+03 7.373223114013671875e+01 5.455601215362548828e+00 4.646260291337966919e-03 7.700267791748046875e+00 2.311474084854125977e+00 -2.873642183840274811e-02
3.573000000000000000e+03 7.359819793701171875e+01 -8.432883024215698242e-01 3.723250702023506165e-03 7.726263046264648438e+00 2.318995952606201172e+00 -3.718838468194007874e-02
3.574000000000000000e+03 7.353582000732421875e+01 -1.858642959594726562e+01 -2.066971268504858017e-03 7.814771175384521484e+00 2.343811273574829102e+00 -4.168280214071273804e-02
3.575000000000000000e+03 6.249011039733886719e+00 1.511166572570800781e+01 -3.492535906843841076e-04 -1.340112765319645405e-03 -5.068099126219749451e-04 6.308105657808482647e-04
3.576000000000000000e+03 8.874331474304199219e+00 1.646159362792968750e+01 -6.405146559700369835e-04 -1.170535921119153500e-03 -5.433151964098215103e-04 -6.779484683647751808e-04
3.577000000000000000e+03 7.278560638427734375e+01 -2.030147933959960938e+01 -4.107282031327486038e-03 7.818786621093750000e+00 2.344403743743896484e+00 -4.460257664322853088e-02
3.578000000000000000e+03 9.965581893920898438e+00 1.951993179321289062e+01 -2.191187348216772079e-03 -2.103467471897602081e-03 -1.288396422751247883e-03 1.062298426404595375e-03
3.579000000000000000e+03 6.210432052612304688e+00 1.891253089904785156e+01 8.521329727955162525e-04 1.139297964982688427e-03 5.974292871542274952e-04 -5.126940668560564518e-04
3.580000000000000000e+03 7.274350738525390625e+01 -1.750893211364746094e+01 -1.688591437414288521e-03 7.806279659271240234e+00 2.341377496719360352e+00 -4.611379653215408325e-02
3.581000000000000000e+03 7.284158325195312500e+01 -1.675345611572265625e+01 -2.520864596590399742e-03 7.803119182586669922e+00 2.340179443359375000e+00 -4.657026752829551697e-02
3.582000000000000000e+03 6.853631019592285156e+00 1.456751251220703125e+01 7.391105755232274532e-04 5.451556062325835228e-04 3.852798545267432928e-04 -7.190362084656953812e-04
3.583000000000000000e+03 7.228079223632812500e+01 -1.818789100646972656e+01 -3.671297803521156311e-03 7.807380676269531250e+00 2.341112852096557617e+00 -4.751380905508995056e-02
3.584000000000000000e+03 9.332040786743164062e+00 2.505175018310546875e+01 -5.694231018424034119e-03 -1.118335057981312275e-04 -1.741819316521286964e-03 1.033017295412719250e-03
3.585000000000000000e+03 1.008026313781738281e+01 1.838372802734375000e+01 3.624431556090712547e-04 -1.718012616038322449e-03 -4.066708497703075409e-04 6.850028876215219498e-04
3.586000000000000000e+03 6.983024597167968750e+00 1.734648132324218750e+01 -3.975509607698768377e-04 -2.430462511256337166e-03 -8.484040736220777035e-04 3.966884105466306210e-04
3.587000000000000000e+03 7.908350467681884766e+00 2.014224433898925781e+01 1.617493689991533756e-03 4.680119454860687256e-04 6.256516790017485619e-04 -8.612733799964189529e-04
3.588000000000000000e+03 7.244414520263671875e+01 1.251759243011474609e+01 7.025157567113637924e-03 7.685894012451171875e+00 2.307875633239746094e+00 -2.136823534965515137e-02
3.589000000000000000e+03 7.274764251708984375e+01 1.012116909027099609e+01 6.875773426145315170e-03 7.689940929412841797e+00 2.309045076370239258e+00 -2.497125416994094849e-02
3.590000000000000000e+03 7.169528198242187500e+01 1.818732261657714844e+01 7.664710283279418945e-03 7.680728912353515625e+00 2.306518077850341797e+00 -1.334434095770120621e-02
3.591000000000000000e+03 8.576238632202148438e+00 -2.142924690246582031e+01 2.424716483801603317e-03 -2.905745524913072586e-03 -1.443087239749729633e-04 -9.084249177249148488e-05
3.592000000000000000e+03 5.905993938446044922e+00 2.528927993774414062e+01 -4.140764649491757154e-04 -4.537918139249086380e-03 -1.485598389990627766e-03 -1.416607759892940521e-03
3.593000000000000000e+03 6.903694152832031250e+00 2.409930801391601562e+01 -1.514542847871780396e-03 -1.447732793167233467e-03 -8.886827272363007069e-04 -2.868842100724577904e-03
3.594000000000000000e+03 7.323585510253906250e+01 -2.273113250732421875e+01 -4.879732616245746613e-03 7.832618713378906250e+00 2.348321676254272461e+00 -3.958278149366378784e-02
3.595000000000000000e+03 7.103305816650390625e+01 2.328549194335937500e+01 6.669032853096723557e-03 7.680697917938232422e+00 2.306210041046142578e+00 -6.215469911694526672e-03
3.596000000000000000e+03 2.751367378234863281e+01 1.439189243316650391e+01 5.975077673792839050e-02 8.113693237304687500e+00 2.452033281326293945e+00 5.522996187210083008e-02
3.597000000000000000e+03 7.313148498535156250e+01 1.955961799621582031e+01 4.615385551005601883e-03 7.670389652252197266e+00 2.302501440048217773e+00 -9.321037679910659790e-03
3.598000000000000000e+03 5.955952644348144531e+00 9.256587028503417969e+00 9.451142395846545696e-04 -9.142240742221474648e-05 2.561075671110302210e-04 -5.100139533169567585e-04
3.599000000000000000e+03 6.036608219146728516e+00 8.624303817749023438e+00 -7.607846055179834366e-04 1.286931365029886365e-04 -1.896274334285408258e-04 3.525840875227004290e-04
3.600000000000000000e+03 7.298745632171630859e+00 8.780483245849609375e+00 -5.439439555630087852e-04 -5.007652725907973945e-05 -1.782061444828286767e-04 3.356487723067402840e-04
3.601000000000000000e+03 7.258752441406250000e+01 -2.434280776977539062e+01 -4.921317566186189651e-03 7.835048198699951172e+00 2.349038124084472656e+00 -3.987139463424682617e-02
3.602000000000000000e+03 7.295385742187500000e+01 -2.499685859680175781e+01 -6.287735886871814728e-03 7.840907573699951172e+00 2.350385904312133789e+00 -3.775342926383018494e-02
3.603000000000000000e+03 7.012688446044921875e+01 2.442292404174804688e+01 6.341911852359771729e-03 7.685524463653564453e+00 2.307559967041015625e+00 -4.946151748299598694e-03
3.604000000000000000e+03 9.039781570434570312e+00 -7.470437049865722656e+00 -3.948964294977486134e-04 -9.109400707529857755e-05 -1.457971375202760100e-04 3.514743002597242594e-04
3.605000000000000000e+03 8.763629913330078125e+00 -6.250336170196533203e+00 2.556475192250218242e-05 9.859621968644205481e-06 1.062731189449550584e-05 -4.455559828784316778e-04
3.606000000000000000e+03 1.012775993347167969e+01 -2.340566635131835938e+01 -6.807186175137758255e-03 -1.531434361822903156e-03 -2.501586219295859337e-03 -6.415545358322560787e-04
3.607000000000000000e+03 7.434651851654052734e+00 -2.587712860107421875e+01 -1.452038530260324478e-03 4.600091837346553802e-03 9.444159222766757011e-04 -6.380647537298500538e-04
3.608000000000000000e+03 6.175383567810058594e+00 8.029831886291503906e+00 8.014847990125417709e-04 -2.322941290913149714e-04 1.707571937004104257e-04 -1.809084205888211727e-04
3.609000000000000000e+03 6.907579421997070312e+00 7.497786998748779297e+00 5.511046620085835457e-04 2.120423050655517727e-05 1.716926635708659887e-04 -1.602315605850890279e-04
3.610000000000000000e+03 6.598578453063964844e+00 1.361634445190429688e+01 -2.427706785965710878e-04 7.642309064976871014e-04 1.564380654599517584e-04 -3.456942795310169458e-04
3.611000000000000000e+03 7.187072277069091797e+00 9.356187820434570312e+00 7.182620465755462646e-04 -1.716069709800649434e-05 2.103304141201078892e-04 -4.341485328041017056e-04
3.612000000000000000e+03 7.132918834686279297e+00 1.079646778106689453e+01 6.643301458097994328e-04 5.080164410173892975e-04 3.517039876896888018e-04 -1.014682697132229805e-03
3.613000000000000000e+03 2.973677444458007812e+01 2.818593978881835938e+01 1.369168907403945923e-01 7.960714340209960938e+00 2.429289340972900391e+00 -3.810368105769157410e-02
3.614000000000000000e+03 7.267712402343750000e+01 2.779064178466796875e+01 2.064682077616453171e-03 7.668915748596191406e+00 2.301294088363647461e+00 -1.256069634109735489e-03
3.615000000000000000e+03 7.215770721435546875e+01 2.852223777770996094e+01 2.301441971212625504e-03 7.672158241271972656e+00 2.302337884902954102e+00 -1.174575765617191792e-03
3.616000000000000000e+03 6.305308818817138672e+00 7.442742347717285156e+00 -4.537345375865697861e-04 -4.122186146560125053e-05 -1.484869135310873389e-04 6.554685387527570128e-05
3.617000000000000000e+03 9.334583282470703125e+00 1.357017040252685547e+01 -8.767227991484105587e-04 -9.524639463052153587e-04 -5.487560410983860493e-04 7.745886687189340591e-04
3.618000000000000000e+03 8.734353065490722656e+00 3.045911979675292969e+01 -2.897012419998645782e-02 2.419463545083999634e-02 -1.432646298781037331e-03 6.846387404948472977e-04
3.619000000000000000e+03 7.659107208251953125e+00 3.182850837707519531e+01 -2.556264027953147888e-02 2.075644209980964661e-02 -1.441859290935099125e-03 8.995057083666324615e-03
3.620000000000000000e+03 3.077541542053222656e+01 -1.590210056304931641e+01 -1.505134627223014832e-02 7.609084606170654297e+00 2.278209924697875977e+00 7.035030424594879150e-02
3.621000000000000000e+03 9.135886192321777344e+00 -1.013660049438476562e+01 9.476364357396960258e-04 -1.101786154322326183e-03 -4.624491339200176299e-05 3.771683841478079557e-04
3.622000000000000000e+03 2.633877754211425781e+01 -2.907203912734985352e+00 -2.011606656014919281e-02 7.877199649810791016e+00 2.357125043869018555e+00 1.482810229063034058e-01
3.623000000000000000e+03 2.637997627258300781e+01 -1.011288356781005859e+01 3.410608321428298950e-02 7.683480262756347656e+00 2.315275907516479492e+00 2.015122324228286743e-01
3.624000000000000000e+03 1.018534851074218750e+01 2.025158691406250000e+01 2.386134350672364235e-03 2.889804309234023094e-04 8.025344577617943287e-04 -4.408250679261982441e-04
3.625000000000000000e+03 1.097739601135253906e+01 2.015752983093261719e+01 -2.351170172914862633e-03 -1.220252248458564281e-03 -1.071426668204367161e-03 5.529465270228683949e-04
3.626000000000000000e+03 9.643274307250976562e+00 3.248844528198242188e+01 -4.394833371043205261e-02 1.698436215519905090e-02 -8.089191280305385590e-03 1.652978546917438507e-02
3.627000000000000000e+03 7.017742633819580078e+00 3.247461318969726562e+01 -2.914205938577651978e-02 9.950317442417144775e-03 -5.757522303611040115e-03 2.817190438508987427e-02
3.628000000000000000e+03 1.043787574768066406e+01 -1.242977237701416016e+01 1.399331958964467049e-03 7.108433637768030167e-04 6.330526084639132023e-04 -1.237883465364575386e-03
3.629000000000000000e+03 1.026605987548828125e+01 -1.525763034820556641e+01 3.887573839165270329e-04 -1.304243807680904865e-03 -2.746459213085472584e-04 -3.088327939622104168e-04
3.630000000000000000e+03 2.724749946594238281e+01 -8.371803283691406250e+00 -4.160168173257261515e-04 7.734785079956054688e+00 2.320310831069946289e+00 1.800784915685653687e-01
3.631000000000000000e+03 7.428569793701171875e+01 -3.037401580810546875e+01 -5.038770847022533417e-03 7.870901107788085938e+00 2.359758615493774414e+00 -2.454403974115848541e-02
3.632000000000000000e+03 7.291269683837890625e+01 -3.248808288574218750e+01 -8.792806416749954224e-03 7.863715648651123047e+00 2.356476783752441406e+00 -2.461392991244792938e-02
3.633000000000000000e+03 7.439273834228515625e+01 -3.197547340393066406e+01 -6.842099595814943314e-03 7.876745700836181641e+00 2.360971212387084961e+00 -2.202671393752098083e-02
3.634000000000000000e+03 2.816347885131835938e+01 -1.082179164886474609e+01 2.259097248315811157e-02 7.671014785766601562e+00 2.308081626892089844e+00 1.471860110759735107e-01
3.635000000000000000e+03 2.746307563781738281e+01 7.470534801483154297e+00 1.448068171739578247e-01 8.058582305908203125e+00 2.461016893386840820e+00 1.096234545111656189e-01
3.636000000000000000e+03 9.957537651062011719e+00 1.548327064514160156e+01 -1.142903813160955906e-03 -1.133922021836042404e-03 -6.830477504990994930e-04 -2.022771695919800550e-06
3.637000000000000000e+03 2.746848106384277344e+01 2.140475273132324219e+01 5.656131356954574585e-02 8.106216430664062500e+00 2.448833465576171875e+00 -1.922964304685592651e-02
3.638000000000000000e+03 2.734233665466308594e+01 1.894299626350402832e+00 9.513474255800247192e-02 7.971962928771972656e+00 2.420129299163818359e+00 8.070342987775802612e-02
3.639000000000000000e+03 2.738232803344726562e+01 2.688716650009155273e+00 1.161478459835052490e-01 7.981662750244140625e+00 2.429343223571777344e+00 7.884775847196578979e-02
3.640000000000000000e+03 1.003510093688964844e+01 -7.352467536926269531e+00 -3.650981816463172436e-04 -2.268659009132534266e-04 -1.775892160367220640e-04 4.296442202758044004e-04
3.641000000000000000e+03 2.717722511291503906e+01 -4.368045330047607422e+00 -2.225207351148128510e-02 7.842519283294677734e+00 2.346080064773559570e+00 1.455203294754028320e-01
3.642000000000000000e+03 2.716980361938476562e+01 -3.584741115570068359e+00 -1.842470839619636536e-02 7.858381748199462891e+00 2.351987123489379883e+00 1.357642263174057007e-01
3.643000000000000000e+03 2.542436790466308594e+01 -1.872938156127929688e+01 -7.632841169834136963e-02 7.507325649261474609e+00 2.229299068450927734e+00 1.530242711305618286e-01
3.644000000000000000e+03 2.633693504333496094e+01 -1.826577949523925781e+01 -6.052184104919433594e-02 7.531481742858886719e+00 2.241287946701049805e+00 1.275677680969238281e-01
3.645000000000000000e+03 6.915205955505371094e+00 2.777739524841308594e+01 -9.747791104018688202e-03 -3.934401553124189377e-03 -4.104658029973506927e-03 5.981798749417066574e-03
3.646000000000000000e+03 6.517386436462402344e+00 -1.572896385192871094e+01 2.953407587483525276e-03 1.856607414083555341e-04 9.417205001227557659e-04 1.656188105698674917e-04
3.647000000000000000e+03 2.742434120178222656e+01 3.478013277053833008e+00 1.350015997886657715e-01 7.991466045379638672e+00 2.437940359115600586e+00 8.335965126752853394e-02
3.648000000000000000e+03 2.747706794738769531e+01 4.268723011016845703e+00 1.479232162237167358e-01 8.000936508178710938e+00 2.444658041000366211e+00 8.716493844985961914e-02
3.649000000000000000e+03 2.481657600402832031e+01 -2.161647033691406250e+01 -8.350979536771774292e-02 7.429492473602294922e+00 2.203794717788696289e+00 1.888752281665802002e-01
3.650000000000000000e+03 7.316607666015625000e+01 -1.446158981323242188e+01 -2.444560232106596231e-04 7.792527198791503906e+00 2.337684869766235352e+00 -4.541784152388572693e-02
3.651000000000000000e+03 1.013150501251220703e+01 8.039855003356933594e+00 -2.762388903647661209e-04 -2.332202275283634663e-04 -1.528377324575558305e-04 3.406212636036798358e-05
3.652000000000000000e+03 2.679656219482421875e+01 -1.524461174011230469e+01 1.334907859563827515e-02 7.576582431793212891e+00 2.276979446411132812e+00 1.257414370775222778e-01
3.653000000000000000e+03 2.676586723327636719e+01 -1.705350685119628906e+01 -3.213781490921974182e-02 7.550213336944580078e+00 2.255422592163085938e+00 1.167503520846366882e-01
3.654000000000000000e+03 9.512250900268554688e+00 1.500352001190185547e+01 1.734687713906168938e-03 8.641364547656849027e-05 5.463304114528000355e-04 1.259258860955014825e-04
3.655000000000000000e+03 2.520117950439453125e+01 -2.027043914794921875e+01 -9.430757164955139160e-02 7.466352939605712891e+00 2.211613655090332031e+00 1.728247553110122681e-01
3.656000000000000000e+03 6.542679309844970703e+00 2.829607772827148438e+01 -1.275126636028289795e-02 9.545618668198585510e-03 -9.616942261345684528e-04 1.560419797897338867e-03
3.657000000000000000e+03 2.760445594787597656e+01 2.777503395080566406e+01 1.252323836088180542e-01 8.053524971008300781e+00 2.453627347946166992e+00 -8.636504411697387695e-02
3.658000000000000000e+03 8.231106758117675781e+00 3.114947891235351562e+01 -2.827503904700279236e-02 6.388978101313114166e-03 -6.565818563103675842e-03 1.623287796974182129e-02
3.659000000000000000e+03 2.828063201904296875e+01 2.494379615783691406e+01 8.072758466005325317e-02 8.057963371276855469e+00 2.441607236862182617e+00 -4.376719519495964050e-02
3.660000000000000000e+03 2.865366744995117188e+01 2.758651542663574219e+01 1.166076362133026123e-01 8.013720512390136719e+00 2.439098358154296875e+00 -5.751487985253334045e-02
3.661000000000000000e+03 9.847348213195800781e+00 3.415386581420898438e+01 -5.239756405353546143e-02 3.268838673830032349e-02 -5.912753753364086151e-03 3.933449834585189819e-02
3.662000000000000000e+03 8.891383171081542969e+00 3.181584548950195312e+01 -3.622128069400787354e-02 3.156795352697372437e-02 -1.395998871885240078e-03 3.870249027386307716e-03
3.663000000000000000e+03 7.697891712188720703e+00 -2.780496215820312500e+01 -8.124473504722118378e-03 -4.858733620494604111e-03 -3.894962137565016747e-03 1.297389040701091290e-03
3.664000000000000000e+03 7.683435916900634766e+00 -2.993595123291015625e+01 -1.197760924696922302e-02 1.387291215360164642e-02 5.685908254235982895e-04 -6.974478252232074738e-03
3.665000000000000000e+03 9.186686515808105469e+00 2.976457595825195312e+01 -2.202930115163326263e-02 -4.291148215997964144e-04 -6.737524643540382385e-03 2.368100685998797417e-03
3.666000000000000000e+03 7.438103199005126953e+00 2.823597145080566406e+01 -1.510559953749179840e-02 1.179223880171775818e-02 -9.940082672983407974e-04 1.132296514697372913e-03
3.667000000000000000e+03 6.212708950042724609e+00 2.187976646423339844e+01 6.321133696474134922e-05 6.406910251826047897e-04 2.111706999130547047e-04 -2.131853252649307251e-03
3.668000000000000000e+03 7.197151660919189453e+00 2.306101417541503906e+01 -2.200253307819366455e-03 -3.928809426724910736e-03 -1.838718890212476254e-03 1.268215011805295944e-03
3.669000000000000000e+03 9.014216423034667969e+00 -1.241983795166015625e+01 1.156790531240403652e-04 -1.031772582791745663e-03 -2.748280530795454979e-04 1.659905246924608946e-04
3.670000000000000000e+03 7.145458984375000000e+01 2.934536170959472656e+01 2.884148154407739639e-03 7.677388191223144531e+00 2.304081678390502930e+00 -1.188901005662046373e-04
3.671000000000000000e+03 9.943732261657714844e+00 2.303320121765136719e+01 -2.845993731170892715e-03 -2.193785971030592918e-03 -1.511933864094316959e-03 7.626060396432876587e-04
3.672000000000000000e+03 9.866649627685546875e+00 2.236539649963378906e+01 5.992455407977104187e-04 2.549816272221505642e-04 2.562681620474904776e-04 -1.142166671343147755e-03
3.673000000000000000e+03 6.521896839141845703e+00 2.045084381103515625e+01 1.267653351533226669e-05 -2.697038929909467697e-03 -8.053087512962520123e-04 -1.066209515556693077e-03
3.674000000000000000e+03 1.035417556762695312e+01 2.096284294128417969e+01 -2.408524043858051300e-03 -1.810779445804655552e-03 -1.265791011974215508e-03 9.042820893228054047e-04
3.675000000000000000e+03 7.183841705322265625e+01 3.107240867614746094e+01 2.206517383456230164e-03 7.675202846527099609e+00 2.303222894668579102e+00 5.340408533811569214e-04
3.676000000000000000e+03 2.672671699523925781e+01 6.638010978698730469e+00 1.570053696632385254e-01 8.073195457458496094e+00 2.469060182571411133e+00 1.217719763517379761e-01
3.677000000000000000e+03 7.190248107910156250e+01 2.118503189086914062e+01 5.983051843941211700e-03 7.676191806793212891e+00 2.304652452468872070e+00 -8.423208259046077728e-03
3.678000000000000000e+03 7.082069396972656250e+01 3.046896362304687500e+01 1.816103816963732243e-03 7.681424617767333984e+00 2.304972171783447266e+00 -1.561769931868184358e-05
3.679000000000000000e+03 7.201898956298828125e+01 1.329512500762939453e+01 8.176119066774845123e-03 7.686267852783203125e+00 2.308333158493041992e+00 -2.104892954230308533e-02
3.680000000000000000e+03 9.449934959411621094e+00 -2.975631904602050781e+01 -1.890848949551582336e-02 -2.734404057264328003e-03 -6.492868065834045410e-03 1.145584415644407272e-02
3.681000000000000000e+03 2.776970672607421875e+01 -1.441100311279296875e+01 1.881861500442028046e-02 7.599735260009765625e+00 2.285566091537475586e+00 1.165673285722732544e-01
3.682000000000000000e+03 7.024377441406250000e+01 -3.244551467895507812e+01 -1.569604873657226562e-02 7.840228557586669922e+00 2.347359657287597656e+00 -3.001365065574645996e-02
3.683000000000000000e+03 6.881371974945068359e+00 -3.140483474731445312e+01 -1.970433257520198822e-02 9.163729846477508545e-03 -3.162181004881858826e-03 -1.198175549507141113e-02
3.684000000000000000e+03 7.086604309082031250e+01 3.393803024291992188e+01 1.326102297753095627e-03 7.682455062866210938e+00 2.305134296417236328e+00 1.067846082150936127e-03
3.685000000000000000e+03 6.769136047363281250e+01 3.185744285583496094e+01 3.038830822333693504e-03 7.701163291931152344e+00 2.311260461807250977e+00 2.085937187075614929e-03
3.686000000000000000e+03 6.724563598632812500e+01 -3.831935501098632812e+01 -2.778695710003376007e-02 7.825888156890869141e+00 2.339430332183837891e+00 -1.565883122384548187e-02
3.687000000000000000e+03 3.193867111206054688e+01 -3.394371795654296875e+01 -5.253245308995246887e-02 7.362455368041992188e+00 2.192976713180541992e+00 -5.834173038601875305e-02
3.688000000000000000e+03 2.906759262084960938e+01 -2.754452705383300781e+01 3.110472811385989189e-03 7.390534877777099609e+00 2.218093633651733398e+00 1.270722448825836182e-01
3.689000000000000000e+03 2.721693229675292969e+01 -2.660359001159667969e+01 -1.119323261082172394e-02 7.391716480255126953e+00 2.214156866073608398e+00 1.725259125232696533e-01
3.690000000000000000e+03 2.888296890258789062e+01 2.884907531738281250e+01 1.540394127368927002e-01 7.972288131713867188e+00 2.437898159027099609e+00 -5.751661956310272217e-02
3.691000000000000000e+03 3.127775955200195312e+01 3.149894905090332031e+01 1.214264407753944397e-01 7.881216526031494141e+00 2.400792837142944336e+00 3.438976034522056580e-02
3.692000000000000000e+03 2.717089843750000000e+01 -3.482122421264648438e+01 5.166951194405555725e-02 7.174541950225830078e+00 2.167863368988037109e+00 -6.637900322675704956e-02
3.693000000000000000e+03 2.734992599487304688e+01 -3.293348312377929688e+01 1.310830861330032349e-01 7.194443702697753906e+00 2.197658061981201172e+00 3.724269941449165344e-02
3.694000000000000000e+03 2.509901618957519531e+01 -2.625314521789550781e+01 -6.615492049604654312e-03 7.385962009429931641e+00 2.213804006576538086e+00 1.999240517616271973e-01
3.695000000000000000e+03 7.304005622863769531e+00 4.169947814941406250e+01 6.295982003211975098e-02 -1.882665976881980896e-02 1.323994901031255722e-02 2.902427513618022203e-05
3.696000000000000000e+03 7.600610733032226562e+00 3.330071640014648438e+01 -2.546588331460952759e-02 2.141103520989418030e-02 -1.216454431414604187e-03 1.839436031877994537e-02
3.697000000000000000e+03 3.103647804260253906e+01 3.696327590942382812e+01 -7.650499790906906128e-02 7.860098838806152344e+00 2.335078239440917969e+00 1.587446928024291992e-01
3.698000000000000000e+03 7.132356262207031250e+01 3.237076187133789062e+01 4.765574412886053324e-04 7.679059505462646484e+00 2.303860664367675781e+00 1.118601066991686821e-03
3.699000000000000000e+03 9.345959663391113281e+00 8.551147460937500000e+00 -3.233798488508909941e-04 -2.005832793656736612e-04 -1.571889442857354879e-04 1.305698970099911094e-04
3.700000000000000000e+03 9.884746551513671875e+00 9.371479988098144531e+00 -3.289777378086000681e-04 -2.289562544319778681e-04 -1.673802034929394722e-04 1.596548681845888495e-04
3.701000000000000000e+03 7.397206306457519531e+00 -3.067360877990722656e+01 -2.140749432146549225e-02 7.018270902335643768e-03 -4.316767212003469467e-03 3.060263814404606819e-03
3.702000000000000000e+03 6.677359104156494141e+00 1.310280227661132812e+01 6.222983356565237045e-04 5.032353801652789116e-04 3.376601089257746935e-04 5.528279507416300476e-05
3.703000000000000000e+03 2.722963142395019531e+01 -7.547346115112304688e+00 -7.924751378595829010e-03 7.759893894195556641e+00 2.325590848922729492e+00 1.783312857151031494e-01
3.704000000000000000e+03 7.099517345428466797e+00 2.990419387817382812e+01 -1.894100569188594818e-02 4.795406421180814505e-04 -5.538439378142356873e-03 1.326426211744546890e-02
3.705000000000000000e+03 7.040376663208007812e+00 2.879698562622070312e+01 -1.350732147693634033e-02 -2.958197845146059990e-03 -4.939655773341655731e-03 9.132633917033672333e-03
3.706000000000000000e+03 1.004190731048583984e+01 -2.125961112976074219e+01 -2.670934656634926796e-03 -4.445850572665221989e-05 -8.146179607138037682e-04 5.756117025157436728e-05
3.707000000000000000e+03 1.033844280242919922e+01 -2.182334327697753906e+01 1.981964567676186562e-03 -2.306457376107573509e-03 -9.734784543979912996e-05 8.482677367283031344e-05
3.708000000000000000e+03 7.198712921142578125e+01 -6.525111675262451172e+00 2.860542153939604759e-03 7.752571105957031250e+00 2.326629638671875000e+00 -4.962249100208282471e-02
3.709000000000000000e+03 2.805697250366210938e+01 -4.236627101898193359e+00 -1.284049637615680695e-02 7.838662147521972656e+00 2.347746372222900391e+00 1.237296462059020996e-01
3.710000000000000000e+03 8.740660667419433594e+00 2.754373168945312500e+01 -9.377662092447280884e-03 -6.630146410316228867e-03 -4.802342504262924194e-03 1.572715817019343376e-03
3.711000000000000000e+03 9.133384704589843750e+00 1.710583877563476562e+01 1.776134013198316097e-03 -6.117179873399436474e-04 3.493248077575117350e-04 -7.177800289355218410e-04
3.712000000000000000e+03 7.307821750640869141e+00 1.312976741790771484e+01 -9.144634241238236427e-04 -2.972755755763500929e-04 -3.635217144619673491e-04 -4.304836911614984274e-04
3.713000000000000000e+03 1.091709995269775391e+01 7.509895324707031250e+00 -1.989872980630025268e-04 -2.575693069957196712e-04 -1.369669771520420909e-04 -4.934168100589886308e-05
3.714000000000000000e+03 6.688035488128662109e+00 2.503601264953613281e+01 -1.116030034609138966e-03 -4.934920929372310638e-03 -1.815285300835967064e-03 -1.303943223319947720e-03
3.715000000000000000e+03 8.588756561279296875e+00 2.563360595703125000e+01 -7.268593180924654007e-03 1.888901577331125736e-03 -1.613907516002655029e-03 2.094347495585680008e-03
3.716000000000000000e+03 6.414705753326416016e+00 2.735438537597656250e+01 -8.947586640715599060e-03 6.316914688795804977e-03 -7.892016437835991383e-04 9.030567016452550888e-04
3.717000000000000000e+03 8.931015968322753906e+00 1.041196727752685547e+01 5.360293434932827950e-04 -2.427653271297458559e-05 1.535258488729596138e-04 -2.520148700568825006e-04
3.718000000000000000e+03 6.389202594757080078e+00 6.838854789733886719e+00 4.115434421692043543e-04 1.465793175157159567e-04 1.674368249950930476e-04 -1.279646094189956784e-04
3.719000000000000000e+03 9.161306381225585938e+00 2.238085556030273438e+01 -2.261082874611020088e-03 -2.752078231424093246e-03 -1.503948238678276539e-03 1.255261595360934734e-03
3.720000000000000000e+03 7.292020416259765625e+01 -1.948962211608886719e+01 -2.599903615191578865e-03 7.816000938415527344e+00 2.344020366668701172e+00 -4.364048689603805542e-02
3.721000000000000000e+03 7.197878265380859375e+01 -2.007095336914062500e+01 -3.385051386430859566e-03 7.813046932220458984e+00 2.342898607254028320e+00 -4.785329103469848633e-02
3.722000000000000000e+03 7.227681636810302734e+00 -8.739700317382812500e+00 1.451693242415785789e-03 2.519044792279601097e-04 5.110793281346559525e-04 -6.431796646211296320e-05
3.723000000000000000e+03 9.896986007690429688e+00 -9.249946594238281250e+00 4.435504670254886150e-04 -7.068389095366001129e-04 -7.898653711890801787e-05 3.331558255013078451e-04
3.724000000000000000e+03 9.462965011596679688e+00 -8.837800979614257812e+00 8.252554107457399368e-05 5.087237223051488400e-04 1.773747790139168501e-04 -2.976154792122542858e-04
3.725000000000000000e+03 2.759056091308593750e+01 -1.258424949645996094e+01 3.703720495104789734e-02 7.627253532409667969e+00 2.299287319183349609e+00 1.416255980730056763e-01
3.726000000000000000e+03 7.720589160919189453e+00 -1.902819252014160156e+01 5.622435710392892361e-04 6.425817846320569515e-04 3.614476008806377649e-04 -1.725323381833732128e-03
3.727000000000000000e+03 7.145384216308593750e+01 -2.471404075622558594e+01 -7.231038063764572144e-03 7.827999591827392578e+00 2.346230506896972656e+00 -4.353544861078262329e-02
3.728000000000000000e+03 3.242708587646484375e+01 2.302955055236816406e+01 9.322233498096466064e-02 7.965473651885986328e+00 2.417608737945556641e+00 2.377350901952013373e-04
3.729000000000000000e+03 6.946222305297851562e+00 2.187364959716796875e+01 -1.245522755198180676e-03 -2.923036459833383560e-03 -1.250567729584872723e-03 2.234065206721425056e-03
3.730000000000000000e+03 9.999306678771972656e+00 2.372027778625488281e+01 -8.407604182139039040e-04 -2.553506346885114908e-04 -3.288333246018737555e-04 -1.688996213488280773e-03
3.731000000000000000e+03 2.814824295043945312e+01 -8.280845642089843750e+00 4.214803222566843033e-03 7.739773273468017578e+00 2.323196411132812500e+00 1.558560580015182495e-01
3.732000000000000000e+03 8.708777427673339844e+00 -1.371004867553710938e+01 -6.008325144648551941e-04 -2.555917890276759863e-04 -2.569272764958441257e-04 -4.788833030033856630e-04
3.733000000000000000e+03 9.927702903747558594e+00 -1.112438201904296875e+01 -7.874465081840753555e-04 -9.408545447513461113e-04 -5.184903275221586227e-04 1.030804123729467392e-03
3.734000000000000000e+03 8.956391334533691406e+00 -2.200764656066894531e+01 -2.652467228472232819e-03 8.888667798601090908e-05 -7.690741913393139839e-04 -8.436582284048199654e-04
3.735000000000000000e+03 7.244623565673828125e+01 -1.380354213714599609e+01 -3.675334446597844362e-04 7.787206649780273438e+00 2.336051702499389648e+00 -4.889238998293876648e-02
3.736000000000000000e+03 9.201678276062011719e+00 1.974911308288574219e+01 2.048691501840949059e-03 7.441521738655865192e-04 8.378531201742589474e-04 -4.313405952416360378e-04
3.737000000000000000e+03 7.238551616668701172e+00 1.901526641845703125e+01 1.229760237038135529e-03 9.511825628578662872e-04 6.542828050442039967e-04 -3.713680780492722988e-04
3.738000000000000000e+03 6.390845298767089844e+00 -1.705772972106933594e+01 3.303715959191322327e-03 -6.674796459265053272e-04 7.908708648756146431e-04 5.717289750464260578e-04
3.739000000000000000e+03 6.645342350006103516e+00 -1.779380226135253906e+01 -1.825551968067884445e-03 -4.221716608299175277e-06 -5.489321192726492882e-04 -4.450681735761463642e-04
3.740000000000000000e+03 2.751303672790527344e+01 1.518288612365722656e+01 5.994408950209617615e-02 8.111983299255371094e+00 2.451578378677368164e+00 4.605906084179878235e-02
3.741000000000000000e+03 3.008246040344238281e+01 1.642774391174316406e+01 7.619944214820861816e-02 8.043023109436035156e+00 2.435766696929931641e+00 3.280818089842796326e-02
3.742000000000000000e+03 8.701214790344238281e+00 -1.490228748321533203e+01 8.299634791910648346e-04 1.467628870159387589e-03 6.892777164466679096e-04 -3.304159035906195641e-04
3.743000000000000000e+03 7.661033153533935547e+00 -1.799197196960449219e+01 -6.134861032478511333e-04 8.489056490361690521e-04 7.062586519168689847e-05 -1.385797746479511261e-03
3.744000000000000000e+03 6.596160888671875000e+00 -1.108646774291992188e+01 1.805774169042706490e-03 3.388555778656154871e-04 6.433888920582830906e-04 -2.072981988021638244e-05
3.745000000000000000e+03 8.242971420288085938e+00 -1.950103759765625000e+01 6.024261238053441048e-04 -2.397638047114014626e-03 -5.385635304264724255e-04 1.839619479142129421e-03
3.746000000000000000e+03 7.122827529907226562e+00 -1.849001693725585938e+01 5.894305650144815445e-04 -1.650788937695324421e-03 -3.184075176250189543e-04 1.851639011874794960e-03
3.747000000000000000e+03 6.893417358398437500e+00 -2.477070999145507812e+01 1.026763711706735194e-04 3.178337821736931801e-03 9.843042353168129921e-04 -1.196758938021957874e-03
3.748000000000000000e+03 7.121565818786621094e+00 -2.391957092285156250e+01 -2.158338902518153191e-03 -5.780984181910753250e-03 -2.381796948611736298e-03 2.229796024039387703e-03
3.749000000000000000e+03 9.157501220703125000e+00 -1.593723869323730469e+01 3.273369220551103354e-04 1.873235567472875118e-03 6.601717905141413212e-04 -5.784700042568147182e-04
3.750000000000000000e+03 7.204820632934570312e+00 -1.740596580505371094e+01 1.348892808891832829e-03 -1.145816990174353123e-03 6.092273542890325189e-05 3.782382409553974867e-04
3.751000000000000000e+03 7.437119007110595703e+00 -7.229635715484619141e+00 1.404925016686320305e-03 4.337533027864992619e-05 4.344900953583419323e-04 1.985796552617102861e-05
3.752000000000000000e+03 9.166353225708007812e+00 -2.461156845092773438e+01 2.835013670846819878e-03 2.868497977033257484e-03 1.711053424514830112e-03 -1.775935408659279346e-03
3.753000000000000000e+03 6.283423423767089844e+00 -2.444156646728515625e+01 -1.876682392321527004e-03 -4.389179870486259460e-03 -1.879758667200803757e-03 1.496676268288865685e-04
3.754000000000000000e+03 8.168680191040039062e+00 -2.610719871520996094e+01 -5.693855695426464081e-03 -6.802844814956188202e-03 -3.749010153114795685e-03 2.367805223912000656e-03
3.755000000000000000e+03 7.801351547241210938e+00 -2.418793106079101562e+01 4.700845165643841028e-04 3.318429226055741310e-03 1.136554172262549400e-03 -1.331655657850205898e-03
3.756000000000000000e+03 6.672927379608154297e+00 -1.196489429473876953e+01 -1.604826771654188633e-03 -5.903479177504777908e-04 -6.585524533875286579e-04 1.703307789284735918e-04
3.757000000000000000e+03 8.797599792480468750e+00 -1.051656341552734375e+01 1.676466054050251842e-04 1.433301717042922974e-03 4.802844778168946505e-04 -6.210167193785309792e-04
3.758000000000000000e+03 6.526914119720458984e+00 2.323240852355957031e+01 -1.813977607525885105e-03 3.320301882922649384e-03 4.518973291851580143e-04 -1.035358523949980736e-03
3.759000000000000000e+03 6.375420093536376953e+00 2.608813095092773438e+01 -2.983483951538801193e-03 -3.994991537183523178e-03 -2.093542600050568581e-03 -8.731295238249003887e-04
3.760000000000000000e+03 7.552432060241699219e+00 2.666284561157226562e+01 -5.949076730757951736e-03 -4.914613906294107437e-03 -3.259107237681746483e-03 2.004630514420568943e-04
3.761000000000000000e+03 7.058451843261718750e+01 -1.927165412902832031e+01 -4.577364306896924973e-03 7.802723407745361328e+00 2.339443922042846680e+00 -5.401584878563880920e-02
3.762000000000000000e+03 2.838459014892578125e+01 1.779042816162109375e+01 5.701566487550735474e-02 8.085862159729003906e+00 2.442863464355468750e+00 2.009521797299385071e-02
3.763000000000000000e+03 9.328569412231445312e+00 -1.057130241394042969e+01 -4.816116997972130775e-04 -1.054472057148814201e-03 -4.608251038007438183e-04 4.734938847832381725e-04
3.764000000000000000e+03 7.284647369384765625e+01 7.685434818267822266e+00 6.252081599086523056e-03 7.696364879608154297e+00 2.310785055160522461e+00 -2.833472006022930145e-02
3.765000000000000000e+03 7.224726867675781250e+01 -2.500864410400390625e+01 -7.079095114022493362e-03 7.834662914276123047e+00 2.348275184631347656e+00 -4.058827087283134460e-02
3.766000000000000000e+03 7.109727478027343750e+01 1.195917987823486328e+01 9.950052946805953979e-03 7.693142414093017578e+00 2.310927629470825195e+00 -2.540343254804611206e-02
3.767000000000000000e+03 7.093362426757812500e+01 -1.145181274414062500e+01 4.486066172830760479e-04 7.772474765777587891e+00 2.331876993179321289e+00 -5.579366162419319153e-02
3.768000000000000000e+03 2.740109634399414062e+01 8.205241203308105469e+00 1.344496160745620728e-01 8.073572158813476562e+00 2.462406635284423828e+00 1.105876564979553223e-01
3.769000000000000000e+03 2.823559570312500000e+01 1.035680770874023438e+01 1.075885444879531860e-01 8.068889617919921875e+00 2.452943325042724609e+00 9.010606259107589722e-02
3.770000000000000000e+03 7.180846405029296875e+01 1.422434997558593750e+01 7.844629697501659393e-03 7.685694694519042969e+00 2.308061838150024414e+00 -1.945938356220722198e-02
3.771000000000000000e+03 7.234588623046875000e+01 1.700505065917968750e+01 6.685283966362476349e-03 7.678586959838867188e+00 2.305581569671630859e+00 -1.389152929186820984e-02
3.772000000000000000e+03 2.819072723388671875e+01 9.618361473083496094e+00 1.183325573801994324e-01 8.062742233276367188e+00 2.454322338104248047e+00 9.461599588394165039e-02
3.773000000000000000e+03 2.802950286865234375e+01 -3.456839799880981445e+00 -5.249448120594024658e-03 7.858120441436767578e+00 2.355861425399780273e+00 1.154012233018875122e-01
3.774000000000000000e+03 7.217237091064453125e+01 -4.911203861236572266e+00 3.535042516887187958e-03 7.745505332946777344e+00 2.324712038040161133e+00 -4.762541875243186951e-02
3.775000000000000000e+03 7.216429138183593750e+01 -1.699982833862304688e+01 -2.960939658805727959e-03 7.800816059112548828e+00 2.339356660842895508e+00 -4.919616132974624634e-02
3.776000000000000000e+03 7.283451843261718750e+01 -2.480049133300781250e+00 3.959785681217908859e-03 7.734649658203125000e+00 2.321582794189453125e+00 -4.244088381528854370e-02
3.777000000000000000e+03 7.057485961914062500e+01 -3.403455495834350586e+00 5.936342291533946991e-03 7.739751338958740234e+00 2.323706388473510742e+00 -5.261667072772979736e-02
3.778000000000000000e+03 7.203679656982421875e+01 1.799862980842590332e+00 6.624714937061071396e-03 7.718355178833007812e+00 2.317493915557861328e+00 -4.050309211015701294e-02
3.779000000000000000e+03 7.124057769775390625e+01 1.857067108154296875e+00 7.847856730222702026e-03 7.719539642333984375e+00 2.318216323852539062e+00 -4.285565763711929321e-02
3.780000000000000000e+03 7.215661621093750000e+01 -9.990241050720214844e+00 1.021139207296073437e-03 7.768835544586181641e+00 2.330956935882568359e+00 -5.031732469797134399e-02
3.781000000000000000e+03 2.825530242919921875e+01 1.113276958465576172e+01 9.955601394176483154e-02 8.075139045715332031e+00 2.452408552169799805e+00 8.369070291519165039e-02
3.782000000000000000e+03 7.102591705322265625e+01 -2.706293106079101562e+01 -9.462654590606689453e-03 7.832545280456542969e+00 2.346924781799316406e+00 -4.047852009534835815e-02
3.783000000000000000e+03 7.149465942382812500e+01 -4.874675750732421875e+00 4.375898744910955429e-03 7.745059013366699219e+00 2.324830532073974609e+00 -5.003039911389350891e-02
3.784000000000000000e+03 6.522397518157958984e+00 2.554917335510253906e+01 -8.634112775325775146e-03 4.510133527219295502e-03 -1.237193704582750797e-03 4.175492562353610992e-03
3.785000000000000000e+03 7.135480880737304688e+00 2.580099868774414062e+01 -3.042666008695960045e-03 -4.494737833738327026e-03 -2.261221176013350487e-03 -1.763768726959824562e-03
3.786000000000000000e+03 7.216399383544921875e+01 -1.221716785430908203e+01 3.405096940696239471e-04 7.778878211975097656e+00 2.333765506744384766e+00 -5.056717991828918457e-02
3.787000000000000000e+03 7.015620422363281250e+01 2.624522447586059570e+00 9.597479365766048431e-03 7.719786167144775391e+00 2.318814992904663086e+00 -4.526153579354286194e-02
3.788000000000000000e+03 7.116284942626953125e+01 -9.269161224365234375e+00 1.801389502361416817e-03 7.763658523559570312e+00 2.329638004302978516e+00 -5.478006973862648010e-02
3.789000000000000000e+03 7.229138183593750000e+01 -1.073561382293701172e+01 1.186067936941981316e-03 7.771927356719970703e+00 2.331933975219726562e+00 -4.962845891714096069e-02
3.790000000000000000e+03 2.832807922363281250e+01 1.432605934143066406e+01 7.251732051372528076e-02 8.088039398193359375e+00 2.448167085647583008e+00 5.307450890541076660e-02
3.791000000000000000e+03 7.313196563720703125e+01 1.296177482604980469e+01 6.411102600395679474e-03 7.681392192840576172e+00 2.306340932846069336e+00 -1.924321055412292480e-02
3.792000000000000000e+03 7.193872070312500000e+01 9.208844184875488281e+00 8.241176605224609375e-03 7.695769786834716797e+00 2.311203241348266602e+00 -2.866126783192157745e-02
3.793000000000000000e+03 2.799181747436523438e+01 1.892171478271484375e+01 5.244572833180427551e-02 8.095880508422851562e+00 2.444497823715209961e+00 8.030894212424755096e-03
3.794000000000000000e+03 7.278163146972656250e+01 -7.914274930953979492e-01 4.580622538924217224e-03 7.727409362792968750e+00 2.319597005844116211e+00 -4.081873968243598938e-02
3.795000000000000000e+03 7.204461669921875000e+01 -2.475143909454345703e+00 4.813793115317821503e-03 7.735241413116455078e+00 2.322016477584838867e+00 -4.561737924814224243e-02
3.796000000000000000e+03 7.291395568847656250e+01 6.142950534820556641e+00 5.881752353161573410e-03 7.700851440429687500e+00 2.312020063400268555e+00 -3.056591935455799103e-02
3.797000000000000000e+03 7.226769256591796875e+01 4.055863380432128906e+00 6.659007631242275238e-03 7.710331916809082031e+00 2.315097093582153320e+00 -3.613219782710075378e-02
3.798000000000000000e+03 7.122550487518310547e+00 1.625969314575195312e+01 -4.197393718641251326e-05 -2.518939785659313202e-03 -7.682741270400583744e-04 3.204875974915921688e-04
3.799000000000000000e+03 7.563584327697753906e+00 1.685390853881835938e+01 6.304851267486810684e-04 1.487021450884640217e-03 6.352519849315285683e-04 -4.503298841882497072e-04
3.800000000000000000e+03 7.155235290527343750e+01 -1.510648059844970703e+01 -1.333168824203312397e-03 7.789988040924072266e+00 2.336596488952636719e+00 -5.322270840406417847e-02
3.801000000000000000e+03 7.280451965332031250e+01 -1.878533172607421875e+01 -2.476007677614688873e-03 7.812188625335693359e+00 2.342913866043090820e+00 -4.537494480609893799e-02
3.802000000000000000e+03 7.489300727844238281e+00 1.796898078918457031e+01 1.591191394254565239e-03 7.943586679175496101e-04 7.156650535762310028e-04 -5.136832478456199169e-04
3.803000000000000000e+03 7.598676681518554688e+00 1.959489631652832031e+01 -1.404235139489173889e-03 -2.412308938801288605e-03 -1.144963200204074383e-03 4.087858542334288359e-04
3.804000000000000000e+03 8.549001693725585938e+00 1.688115119934082031e+01 3.675974730867892504e-04 7.972564199008047581e-04 3.494561533443629742e-04 3.817749675363302231e-04
3.805000000000000000e+03 8.578769683837890625e+00 1.849280929565429688e+01 1.863156910985708237e-03 3.392382932361215353e-04 6.607185350731015205e-04 4.508511483436450362e-05
3.806000000000000000e+03 7.173390960693359375e+01 -1.886244392395019531e+01 -3.364088945090770721e-03 7.807674884796142578e+00 2.341293096542358398e+00 -4.974752292037010193e-02
3.807000000000000000e+03 7.378841400146484375e+00 2.469368362426757812e+01 -2.063174732029438019e-03 -2.583787543699145317e-03 -1.394088729284703732e-03 -2.325562294572591782e-03
3.808000000000000000e+03 7.284050750732421875e+01 1.366522026062011719e+01 6.028025411069393158e-03 7.681487560272216797e+00 2.306254625320434570e+00 -1.844862289726734161e-02
3.809000000000000000e+03 7.196723175048828125e+01 1.184902572631835938e+01 8.262705057859420776e-03 7.689373970031738281e+00 2.309291124343872070e+00 -2.353589236736297607e-02
3.810000000000000000e+03 2.973763275146484375e+01 2.155737876892089844e+01 7.630635052919387817e-02 8.045578956604003906e+00 2.436565399169921875e+00 -1.255716849118471146e-02
3.811000000000000000e+03 2.863346481323242188e+01 1.937346839904785156e+01 5.650357529520988464e-02 8.081270217895507812e+00 2.441332101821899414e+00 5.177177023142576218e-03
3.812000000000000000e+03 9.337171554565429688e+00 -2.381934165954589844e+01 -3.668154822662472725e-03 -5.122238770127296448e-03 -2.637118101119995117e-03 1.404002076014876366e-03
3.813000000000000000e+03 9.633691787719726562e+00 -2.317273139953613281e+01 -1.483937958255410194e-04 1.365352072753012180e-03 3.650874714367091656e-04 -7.768151699565351009e-04
3.814000000000000000e+03 7.221106719970703125e+01 1.931190681457519531e+01 6.350806448608636856e-03 7.676440715789794922e+00 2.304837465286254883e+00 -1.107524242252111435e-02
3.815000000000000000e+03 2.726276016235351562e+01 3.045613467693328857e-01 5.092444270849227905e-02 7.947304248809814453e+00 2.399468660354614258e+00 9.140001237392425537e-02
3.816000000000000000e+03 2.817768096923828125e+01 1.967933773994445801e+00 9.738958626985549927e-02 7.951159000396728516e+00 2.414564609527587891e+00 6.763990223407745361e-02
3.817000000000000000e+03 6.557231426239013672e+00 9.846485137939453125e+00 8.981709834188222885e-04 8.822912786854431033e-05 2.959200355689972639e-04 -7.621385157108306885e-04
3.818000000000000000e+03 7.191748046875000000e+01 -2.377193450927734375e+01 -7.219324354082345963e-03 7.827899932861328125e+00 2.346204042434692383e+00 -4.366656765341758728e-02
3.819000000000000000e+03 7.150442504882812500e+01 -2.222809219360351562e+01 -7.010546978563070297e-03 7.819027900695800781e+00 2.343605041503906250e+00 -4.729198291897773743e-02
3.820000000000000000e+03 7.891870498657226562e+00 1.102723217010498047e+01 9.472015663050115108e-04 3.616045869421213865e-04 3.926418430637568235e-04 -1.043266733177006245e-03
3.821000000000000000e+03 6.748735904693603516e+00 1.036062049865722656e+01 -5.588068161159753799e-04 -5.854533519595861435e-04 -3.432780504226684570e-04 6.953373667784035206e-04
3.822000000000000000e+03 6.791861534118652344e+00 8.104300498962402344e+00 -5.724703660234808922e-04 2.033768760156817734e-05 -1.656398089835420251e-04 2.361219667363911867e-04
3.823000000000000000e+03 7.269804954528808594e+00 -2.671627426147460938e+01 -6.812805309891700745e-03 -5.353135988116264343e-03 -3.649782389402389526e-03 3.717711369972676039e-04
3.824000000000000000e+03 9.032240867614746094e+00 -2.543453979492187500e+01 -7.007876411080360413e-03 -5.729954689741134644e-03 -3.821349237114191055e-03 3.312921384349465370e-03
3.825000000000000000e+03 2.728553390502929688e+01 -1.003775405883789062e+01 2.254587225615978241e-02 7.686831474304199219e+00 2.312813282012939453e+00 1.767114847898483276e-01
3.826000000000000000e+03 2.814643859863281250e+01 -1.153878593444824219e+01 3.228171169757843018e-02 7.649808883666992188e+00 2.304627180099487305e+00 1.422351151704788208e-01
3.827000000000000000e+03 7.313401794433593750e+01 -1.373138904571533203e+01 -8.510384941473603249e-04 7.789301872253417969e+00 2.336535215377807617e+00 -4.595279693603515625e-02
3.828000000000000000e+03 7.446959018707275391e+00 1.123882961273193359e+01 -8.670534589327871799e-04 -3.854713286273181438e-04 -3.757574304472655058e-04 9.009105851873755455e-04
3.829000000000000000e+03 6.925642967224121094e+00 1.127099514007568359e+01 9.375592926517128944e-04 4.370133683551102877e-05 2.943781728390604258e-04 -3.472275056992657483e-05
3.830000000000000000e+03 2.855231666564941406e+01 2.622121047973632812e+01 1.089895889163017273e-01 8.040374755859375000e+00 2.444809436798095703e+00 -5.863027647137641907e-02
3.831000000000000000e+03 7.870877742767333984e+00 -1.029712677001953125e+01 -1.272739958949387074e-03 -2.268352109240368009e-04 -4.498725465964525938e-04 2.395345363765954971e-04
3.832000000000000000e+03 7.530622482299804688e+00 7.565313816070556641e+00 -4.053453740198165178e-04 -9.974469867302104831e-05 -1.515270269010215998e-04 1.562659163028001785e-04
3.833000000000000000e+03 7.044613838195800781e+00 1.186761760711669922e+01 -8.758231415413320065e-04 -4.193840431980788708e-04 -3.885621554218232632e-04 1.588892482686787844e-04
3.834000000000000000e+03 6.437203407287597656e+00 1.191693878173828125e+01 1.284933299757540226e-03 4.238144902046769857e-05 3.981944173574447632e-04 -4.411751870065927505e-04
3.835000000000000000e+03 7.945010662078857422e+00 1.298189926147460938e+01 1.647463999688625336e-03 -1.690952340140938759e-04 4.435106238815933466e-04 -1.625290024094283581e-04
3.836000000000000000e+03 8.200497627258300781e+00 2.704530525207519531e+01 -1.228239107877016068e-02 9.323485195636749268e-03 -8.876718929968774319e-04 9.190359269268810749e-04
3.837000000000000000e+03 8.357992172241210938e+00 2.811953163146972656e+01 -1.711095124483108521e-02 1.393176149576902390e-02 -9.537569712847471237e-04 -1.256239629583433270e-04
3.838000000000000000e+03 7.265590667724609375e+01 1.446047019958496094e+01 6.831106264144182205e-03 7.681084156036376953e+00 2.306374549865722656e+00 -1.787268742918968201e-02
3.839000000000000000e+03 9.794590950012207031e+00 -1.481909847259521484e+01 -3.948095545638352633e-04 1.020518830046057701e-03 1.877127651823684573e-04 -2.337678306503221393e-04
3.840000000000000000e+03 8.566941261291503906e+00 -7.023294925689697266e+00 5.719951004721224308e-04 -1.074237516149878502e-04 1.393714192090556026e-04 -6.052266689948737621e-04
3.841000000000000000e+03 9.211720466613769531e+00 -1.328134822845458984e+01 1.139342930400744081e-04 -6.248864810913801193e-04 -1.532856549602001905e-04 5.230585229583084583e-04
3.842000000000000000e+03 7.081892967224121094e+00 -1.388700199127197266e+01 5.969742778688669205e-04 8.765389211475849152e-04 4.420539480634033680e-04 8.226538193412125111e-05
3.843000000000000000e+03 7.258191585540771484e+00 2.723125076293945312e+01 -1.133223064243793488e-02 8.125931955873966217e-03 -9.618897456675767899e-04 1.429983298294246197e-03
3.844000000000000000e+03 8.522206306457519531e+00 1.994069480895996094e+01 -1.953041297383606434e-03 -2.385313855484127998e-03 -1.301506534218788147e-03 7.401820621453225613e-04
3.845000000000000000e+03 7.211760711669921875e+01 -5.695171833038330078e+00 3.518479643389582634e-03 7.748994827270507812e+00 2.325753927230834961e+00 -4.828651994466781616e-02
3.846000000000000000e+03 7.282799530029296875e+01 -6.595970630645751953e+00 2.518484368920326233e-03 7.753615379333496094e+00 2.326840162277221680e+00 -4.569423943758010864e-02
3.847000000000000000e+03 8.000858306884765625e+00 -3.320997238159179688e+01 -3.685048595070838928e-02 2.138133160769939423e-02 -4.640746861696243286e-03 -1.272254809737205505e-02
3.848000000000000000e+03 7.202029418945312500e+01 -2.151533126831054688e+01 -4.314388614147901535e-03 7.818614959716796875e+00 2.344290256500244141e+00 -4.656222090125083923e-02
3.849000000000000000e+03 7.214882659912109375e+01 5.305544853210449219e+00 6.744100712239742279e-03 7.706016063690185547e+00 2.313827991485595703e+00 -3.421402350068092346e-02
3.850000000000000000e+03 2.826189994812011719e+01 -1.000004768371582031e+01 2.136779390275478363e-02 7.692664146423339844e+00 2.314209699630737305e+00 1.500284671783447266e-01
3.851000000000000000e+03 2.716867256164550781e+01 -2.804873466491699219e+00 -8.010793477296829224e-03 7.878927230834960938e+00 2.361274957656860352e+00 1.271832734346389771e-01
3.852000000000000000e+03 2.766602706909179688e+01 5.906017780303955078e+00 1.553005725145339966e-01 8.021720886230468750e+00 2.453106403350830078e+00 9.859084337949752808e-02
3.853000000000000000e+03 2.822249794006347656e+01 2.746867895126342773e+00 1.156823188066482544e-01 7.960446834564208984e+00 2.422838687896728516e+00 6.960310041904449463e-02
3.854000000000000000e+03 1.024462223052978516e+01 -1.312900829315185547e+01 -8.210666128434240818e-04 -1.135730650275945663e-03 -5.870391614735126495e-04 1.089887926355004311e-03
3.855000000000000000e+03 9.805538177490234375e+00 -1.224853229522705078e+01 -5.209602531976997852e-04 -1.116837724111974239e-03 -4.913393640890717506e-04 8.920980035327374935e-04
3.856000000000000000e+03 2.772958946228027344e+01 -1.530336380004882812e+01 6.639583734795451164e-04 7.582809925079345703e+00 2.275042057037353516e+00 1.109755709767341614e-01
3.857000000000000000e+03 9.418010711669921875e+00 -1.535837364196777344e+01 2.155706752091646194e-04 -2.129936590790748596e-03 -5.743097281083464622e-04 -1.303735916735604405e-04
3.858000000000000000e+03 2.801123046875000000e+01 -2.683915376663208008e+00 1.384022296406328678e-03 7.872896671295166016e+00 2.362284183502197266e+00 1.062954589724540710e-01
3.859000000000000000e+03 1.000731563568115234e+01 8.713074684143066406e+00 4.141877579968422651e-04 2.064800355583429337e-04 1.862003409769386053e-04 -2.900030085584148765e-05
3.860000000000000000e+03 2.873639297485351562e+01 1.657242393493652344e+01 6.199457123875617981e-02 8.078227043151855469e+00 2.442066669464111328e+00 3.225080296397209167e-02
3.861000000000000000e+03 8.462548255920410156e+00 2.240292358398437500e+01 -4.763378237839788198e-04 8.706517401151359081e-04 1.182941850856877863e-04 -1.777595491148531437e-03
3.862000000000000000e+03 7.278578948974609375e+01 4.867756366729736328e-02 4.869318101555109024e-03 7.723873138427734375e+00 2.318622589111328125e+00 -3.968344628810882568e-02
3.863000000000000000e+03 7.281514739990234375e+01 8.806298971176147461e-01 5.169882904738187790e-03 7.720409870147705078e+00 2.317673921585083008e+00 -3.873796388506889343e-02
3.864000000000000000e+03 2.857704162597656250e+01 2.152697181701660156e+01 6.109003722667694092e-02 8.075483322143554688e+00 2.440972089767456055e+00 -1.347963046282529831e-02
3.865000000000000000e+03 2.717682647705078125e+01 -2.028574705123901367e+00 1.243739970959722996e-03 7.895308017730712891e+00 2.368965625762939453e+00 1.173480153083801270e-01
3.866000000000000000e+03 7.195026397705078125e+01 -7.422958612442016602e-01 5.656281486153602600e-03 7.728253364562988281e+00 2.320172786712646484e+00 -4.398112371563911438e-02
3.867000000000000000e+03 6.941432952880859375e+00 2.126992988586425781e+01 2.262826747028157115e-04 -3.436010447330772877e-04 -3.519551319186575711e-05 -2.478457288816571236e-03
3.868000000000000000e+03 7.559521198272705078e+00 2.080551147460937500e+01 1.052598352544009686e-03 -6.589008989976719022e-05 2.960124693345278502e-04 -2.095125382766127586e-03
3.869000000000000000e+03 2.838714408874511719e+01 5.019713401794433594e+00 1.476173400878906250e-01 7.985575675964355469e+00 2.439957857131958008e+00 8.026601374149322510e-02
3.870000000000000000e+03 2.755589294433593750e+01 5.075171947479248047e+00 1.546878069639205933e-01 8.010620117187500000e+00 2.449592351913452148e+00 9.402121603488922119e-02
3.871000000000000000e+03 8.562611579895019531e+00 2.923881340026855469e+01 -2.186546474695205688e-02 1.734048686921596527e-02 -1.357493340037763119e-03 -3.276161151006817818e-04
3.872000000000000000e+03 8.028244018554687500e+00 -3.110730361938476562e+01 -1.858718320727348328e-02 1.533834170550107956e-02 -9.746521827764809132e-04 -7.595648989081382751e-03
3.873000000000000000e+03 7.229421234130859375e+01 -1.305752754211425781e+01 -6.467402563430368900e-04 7.783564567565917969e+00 2.334875345230102539e+00 -5.018743127584457397e-02
3.874000000000000000e+03 7.252850341796875000e+01 1.529843425750732422e+01 6.250782869756221771e-03 7.680124282836914062e+00 2.305912494659423828e+00 -1.641298830509185791e-02
3.875000000000000000e+03 2.808654212951660156e+01 3.965364694595336914e-01 5.885636806488037109e-02 7.930324554443359375e+00 2.396754264831542969e+00 7.484013587236404419e-02
3.876000000000000000e+03 2.750271224975585938e+01 1.360260391235351562e+01 6.876790523529052734e-02 8.111692428588867188e+00 2.454138040542602539e+00 6.246700137853622437e-02
3.877000000000000000e+03 2.981159782409667969e+01 1.412134742736816406e+01 8.674121648073196411e-02 8.042737007141113281e+00 2.438843250274658203e+00 5.131813883781433105e-02
3.878000000000000000e+03 7.190188407897949219e+00 -9.512129783630371094e+00 -1.374902669340372086e-03 -2.830917655956000090e-04 -4.973983159288764000e-04 4.159061791142448783e-05
3.879000000000000000e+03 2.897476577758789062e+01 1.258895635604858398e+00 8.260849118232727051e-02 7.924188613891601562e+00 2.402039051055908203e+00 5.857072770595550537e-02
3.880000000000000000e+03 7.199342346191406250e+01 8.394763946533203125e+00 7.712398190051317215e-03 7.697658061981201172e+00 2.311611175537109375e+00 -2.955813147127628326e-02
3.881000000000000000e+03 7.287873840332031250e+01 6.903922557830810547e+00 6.410247180610895157e-03 7.698678016662597656e+00 2.311526536941528320e+00 -2.979751490056514740e-02
3.882000000000000000e+03 7.197856140136718750e+01 2.654129409790039062e+01 3.548211883753538132e-03 7.674274921417236328e+00 2.303346872329711914e+00 -2.676599659025669098e-03
3.883000000000000000e+03 7.131029510498046875e+01 -2.997170448303222656e+01 -1.155974809080362320e-02 7.843578338623046875e+00 2.349605560302734375e+00 -3.431036695837974548e-02
3.884000000000000000e+03 7.327671813964843750e+01 -2.791975402832031250e+01 -6.114135496318340302e-03 7.854125976562500000e+00 2.354403495788574219e+00 -3.193371370434761047e-02
3.885000000000000000e+03 9.041659355163574219e+00 -2.851236915588378906e+01 -1.161555573344230652e-02 -5.306389182806015015e-03 -5.076583474874496460e-03 6.306188646703958511e-03
3.886000000000000000e+03 7.301184177398681641e+00 -2.861807823181152344e+01 -1.194164250046014786e-02 5.896844901144504547e-03 -1.813439303077757359e-03 -1.148406445281580091e-04
3.887000000000000000e+03 9.298684120178222656e+00 2.366903114318847656e+01 -3.399042878299951553e-03 -1.875623711384832859e-03 -1.582399941980838776e-03 9.153041755780577660e-04
3.888000000000000000e+03 2.802037048339843750e+01 -1.151974439620971680e+00 2.540332078933715820e-02 7.903893470764160156e+00 2.378788948059082031e+00 8.962165564298629761e-02
3.889000000000000000e+03 2.804859733581542969e+01 -3.810675740242004395e-01 4.220916330814361572e-02 7.919187068939208984e+00 2.388418912887573242e+00 8.274403959512710571e-02
3.890000000000000000e+03 2.826235008239746094e+01 3.512160062789916992e+00 1.302488446235656738e-01 7.968740463256835938e+00 2.429696798324584961e+00 7.104044407606124878e-02
3.891000000000000000e+03 9.018233299255371094e+00 3.336319732666015625e+01 -4.207314178347587585e-02 4.001400247216224670e-02 -6.177415489219129086e-04 1.428492832928895950e-02
3.892000000000000000e+03 7.088078308105468750e+01 1.765866088867187500e+01 8.501060307025909424e-03 7.685361385345458984e+00 2.308158874511718750e+00 -1.461557671427726746e-02
3.893000000000000000e+03 7.156193542480468750e+01 1.603013229370117188e+01 7.841935381293296814e-03 7.684063434600830078e+00 2.307571649551391602e+00 -1.685325987637042999e-02
3.894000000000000000e+03 2.598083305358886719e+01 -1.966913414001464844e+01 -8.406773954629898071e-02 7.499936580657958984e+00 2.224760532379150391e+00 1.486757844686508179e-01
3.895000000000000000e+03 7.206746673583984375e+01 6.820788383483886719e+00 7.390898652374744415e-03 7.701972484588623047e+00 2.312808990478515625e+00 -3.208838403224945068e-02
3.896000000000000000e+03 7.208662414550781250e+01 6.046774864196777344e+00 7.519202306866645813e-03 7.704232215881347656e+00 2.313525438308715820e+00 -3.359734266996383667e-02
3.897000000000000000e+03 2.863438606262207031e+01 1.857036209106445312e+01 6.161563098430633545e-02 8.079747200012207031e+00 2.442408800125122070e+00 1.413458213210105896e-02
3.898000000000000000e+03 2.854232978820800781e+01 2.036106109619140625e+01 6.232844665646553040e-02 8.081628799438476562e+00 2.443187236785888672e+00 -5.348859354853630066e-03
3.899000000000000000e+03 7.088309478759765625e+01 2.093375015258789062e+01 7.479419931769371033e-03 7.682029247283935547e+00 2.306852579116821289e+00 -9.451919235289096832e-03
3.900000000000000000e+03 8.352042198181152344e+00 -2.815215682983398438e+01 -6.659173406660556793e-03 7.344858720898628235e-03 2.057055389741435647e-04 -1.823563710786402225e-03
3.901000000000000000e+03 8.920974731445312500e+00 -2.633107376098632812e+01 5.650917883031070232e-04 5.088924895972013474e-03 1.696204999461770058e-03 -2.304490888491272926e-03
3.902000000000000000e+03 6.933410644531250000e+01 2.743466758728027344e+01 5.370129365473985672e-03 7.689713478088378906e+00 2.308525085449218750e+00 -2.047480316832661629e-03
3.903000000000000000e+03 7.199372863769531250e+01 9.791476130485534668e-01 6.301182322204113007e-03 7.721779823303222656e+00 2.318424224853515625e+00 -4.164075478911399841e-02
3.904000000000000000e+03 7.194213104248046875e+01 1.342182159423828125e-01 5.890948697924613953e-03 7.724990844726562500e+00 2.319264650344848633e+00 -4.304903000593185425e-02
3.905000000000000000e+03 7.586118698120117188e+00 -3.196645927429199219e+01 -3.624472394585609436e-02 1.411129347980022430e-02 -6.640028674155473709e-03 -3.252223599702119827e-03
3.906000000000000000e+03 9.774924278259277344e+00 -2.066219520568847656e+01 2.873831894248723984e-03 -9.831254137679934502e-04 5.672119441442191601e-04 -7.178027299232780933e-04
3.907000000000000000e+03 7.347418975830078125e+01 2.084499549865722656e+01 3.722209483385086060e-03 7.666754245758056641e+00 2.301142930984497070e+00 -7.295664865523576736e-03
3.908000000000000000e+03 7.129774475097656250e+01 1.900933265686035156e+01 7.555430755019187927e-03 7.681647777557373047e+00 2.306761026382446289e+00 -1.195229496806859970e-02
3.909000000000000000e+03 9.485643386840820312e+00 -2.162926483154296875e+01 2.417963929474353790e-03 -1.313534099608659744e-03 3.313289780635386705e-04 -1.084358809748664498e-04
3.910000000000000000e+03 7.228060150146484375e+01 4.654773235321044922e+00 7.081918884068727493e-03 7.707611083984375000e+00 2.314407825469970703e+00 -3.517171740531921387e-02
3.911000000000000000e+03 2.829896926879882812e+01 -2.597418022155761719e+01 -1.858509704470634460e-02 7.422116279602050781e+00 2.221059322357177734e+00 1.401082277297973633e-01
3.912000000000000000e+03 8.844532966613769531e+00 1.211371326446533203e+01 8.778634364716708660e-04 8.353432058356702328e-04 5.139620043337345123e-04 -7.562119862996041775e-04
3.913000000000000000e+03 8.752368927001953125e+00 1.392335319519042969e+01 1.053499989211559296e-03 7.666660239920020103e-04 5.460497923195362091e-04 -5.199882434681057930e-04
3.914000000000000000e+03 8.213450431823730469e+00 1.478715229034423828e+01 1.563757774420082569e-03 6.711107562296092510e-04 6.704605766572058201e-04 2.951441565528512001e-04
3.915000000000000000e+03 2.571651840209960938e+01 -2.112193679809570312e+01 -8.847310394048690796e-02 7.469767093658447266e+00 2.214388132095336914e+00 1.701421141624450684e-01
3.916000000000000000e+03 2.531391716003417969e+01 -2.548544120788574219e+01 -4.079132899641990662e-02 7.385630607604980469e+00 2.203451871871948242e+00 1.987001299858093262e-01
3.917000000000000000e+03 7.325104522705078125e+01 2.202592849731445312e+01 3.795691998675465584e-03 7.667906761169433594e+00 2.301510810852050781e+00 -6.393400486558675766e-03
3.918000000000000000e+03 2.969665336608886719e+01 2.588200950622558594e+01 1.071142554283142090e-01 7.999688148498535156e+00 2.432040691375732422e+00 -3.631906956434249878e-02
3.919000000000000000e+03 7.176790618896484375e+01 2.761363410949707031e+01 2.732466207817196846e-03 7.674851894378662109e+00 2.303275346755981445e+00 -1.858486328274011612e-03
3.920000000000000000e+03 7.065557098388671875e+01 2.752888298034667969e+01 4.339548293501138687e-03 7.681724071502685547e+00 2.305819034576416016e+00 -1.448657829314470291e-03
3.921000000000000000e+03 3.046039581298828125e+01 3.248531723022460938e+01 1.299826800823211670e-01 7.865974903106689453e+00 2.398787260055541992e+00 5.086358264088630676e-02
3.922000000000000000e+03 2.912047004699707031e+01 3.013957786560058594e+01 1.582727730274200439e-01 7.923678398132324219e+00 2.424585342407226562e+00 -3.053127601742744446e-02
3.923000000000000000e+03 3.080007743835449219e+01 -3.151046562194824219e+01 -1.309924664383288473e-05 7.335756301879882812e+00 2.200722932815551758e+00 1.545804925262928009e-02
3.924000000000000000e+03 3.022040939331054688e+01 -2.453234291076660156e+01 -3.411467000842094421e-02 7.477833747863769531e+00 2.233115673065185547e+00 1.027887910604476929e-01
3.925000000000000000e+03 6.614649963378906250e+01 3.338700485229492188e+01 1.493669231422245502e-03 7.709634780883789062e+00 2.313338518142700195e+00 2.491618972271680832e-03
3.926000000000000000e+03 6.819386291503906250e+01 2.929237937927246094e+01 4.729968495666980743e-03 7.696898937225341797e+00 2.310488700866699219e+00 -2.279936161357909441e-04
3.927000000000000000e+03 6.805927276611328125e+01 -3.276098251342773438e+01 -2.204716950654983521e-02 7.823688507080078125e+00 2.340492486953735352e+00 -3.374271467328071594e-02
3.928000000000000000e+03 7.004936218261718750e+01 3.170314025878906250e+01 2.672969363629817963e-03 7.686602115631103516e+00 2.306782484054565430e+00 1.405440852977335453e-03
3.929000000000000000e+03 2.940002250671386719e+01 -3.475152587890625000e+01 -2.854469977319240570e-02 7.261686325073242188e+00 2.169942378997802734e+00 -6.477489322423934937e-02
3.930000000000000000e+03 9.169742584228515625e+00 1.760635566711425781e+01 -1.153490506112575531e-03 -2.354217460379004478e-03 -1.052312320098280907e-03 1.690175384283065796e-03
3.931000000000000000e+03 8.691815376281738281e+00 8.405706405639648438e+00 4.891263088211417198e-04 1.124060654547065496e-04 1.804597122827544808e-04 -1.388445671182125807e-04
3.932000000000000000e+03 8.301215171813964844e+00 1.019452762603759766e+01 -5.116172833368182182e-04 2.725771628320217133e-05 -1.453078730264678597e-04 4.884432419203221798e-04
3.933000000000000000e+03 7.955717563629150391e+00 -2.905390739440917969e+01 -1.412780769169330597e-02 -2.563731744885444641e-03 -5.007462110370397568e-03 3.801885060966014862e-03
3.934000000000000000e+03 9.627795219421386719e+00 2.105251312255859375e+01 1.630762708373367786e-03 3.270352608524262905e-04 5.873393965885043144e-04 -9.719535009935498238e-04
3.935000000000000000e+03 7.772198200225830078e+00 2.606637382507324219e+01 -9.746300056576728821e-03 5.570208653807640076e-03 -1.252827350981533527e-03 3.361386479809880257e-03
3.936000000000000000e+03 8.566166877746582031e+00 9.032102584838867188e+00 -3.968159435316920280e-04 -1.513537572463974357e-04 -1.644509175093844533e-04 2.432931360090151429e-04
3.937000000000000000e+03 8.704580307006835938e+00 -1.902209091186523438e+01 -2.512313367333263159e-04 6.649984279647469521e-04 1.241301215486600995e-04 -2.252991078421473503e-03
3.938000000000000000e+03 9.149424552917480469e+00 -2.101604461669921875e+01 -2.666699001565575600e-03 -2.134021779056638479e-04 -8.640303276479244232e-04 4.369775342638604343e-05
3.939000000000000000e+03 7.428248882293701172e+00 -1.516763401031494141e+01 1.621624222025275230e-03 7.562820101156830788e-04 7.133719045668840408e-04 -1.686272735241800547e-04
3.940000000000000000e+03 2.896072196960449219e+01 -4.080989837646484375e+00 1.516917400294914842e-04 7.837456703186035156e+00 2.351282358169555664e+00 1.026535928249359131e-01
3.941000000000000000e+03 9.505791664123535156e+00 -7.901044368743896484e+00 2.279193868162110448e-04 3.303027478978037834e-04 1.674666418693959713e-04 -4.976186319254338741e-04
3.942000000000000000e+03 7.232691955566406250e+01 -1.930637931823730469e+01 -3.591477870941162109e-03 7.811652183532714844e+00 2.342418193817138672e+00 -4.666634649038314819e-02
3.943000000000000000e+03 7.906672000885009766e+00 1.865607643127441406e+01 -1.482502324506640434e-03 -2.152401255443692207e-03 -1.090471050702035427e-03 5.045030266046524048e-04
3.944000000000000000e+03 9.576319694519042969e+00 1.886011314392089844e+01 2.131246961653232574e-03 7.434105500578880310e-04 8.623972535133361816e-04 -5.993754602968692780e-04
3.945000000000000000e+03 7.227215576171875000e+01 -2.230621528625488281e+01 -5.881365388631820679e-03 7.825044631958007812e+00 2.345748901367187500e+00 -4.353905096650123596e-02
3.946000000000000000e+03 7.052217864990234375e+01 -2.430011558532714844e+01 -9.801659733057022095e-03 7.820356845855712891e+00 2.343166589736938477e+00 -4.783407598733901978e-02
3.947000000000000000e+03 9.764077186584472656e+00 2.170766258239746094e+01 -2.307937480509281158e-03 -2.353634452447295189e-03 -1.398471533320844173e-03 1.136058941483497620e-03
3.948000000000000000e+03 9.240512847900390625e+00 2.301326370239257812e+01 -5.445227725431323051e-04 2.416374918539077044e-04 -9.086559293791651726e-05 -1.565891434438526630e-03
3.949000000000000000e+03 7.691974639892578125e+00 -2.145705604553222656e+01 1.900326344184577465e-03 -3.646225202828645706e-03 -5.237696459516882896e-04 -5.978939007036387920e-04
3.950000000000000000e+03 7.214848327636718750e+01 -4.117469310760498047e+00 4.109767265617847443e-03 7.741947650909423828e+00 2.323817253112792969e+00 -4.673049971461296082e-02
3.951000000000000000e+03 7.138556671142578125e+01 -5.528362274169921875e+00 3.741606371477246284e-03 7.748136997222900391e+00 2.325563669204711914e+00 -5.137618258595466614e-02
3.952000000000000000e+03 7.256857299804687500e+01 -1.445108032226562500e+01 -1.365459640510380268e-03 7.791006088256835938e+00 2.336892127990722656e+00 -4.849378392100334167e-02
3.953000000000000000e+03 9.510706901550292969e+00 -9.725811958312988281e+00 -3.660458605736494064e-04 1.097541186027228832e-03 2.194485859945416451e-04 -2.645460190251469612e-04
3.954000000000000000e+03 9.083671569824218750e+00 9.812929153442382812e+00 -3.894076508004218340e-04 -1.409075484843924642e-04 -1.590945612406358123e-04 2.789244754239916801e-04
3.955000000000000000e+03 8.163992881774902344e+00 1.068608474731445312e+01 6.486981874331831932e-04 -4.682629369199275970e-04 5.413057078840211034e-05 -3.282239194959402084e-04
3.956000000000000000e+03 7.204616546630859375e+01 2.612989664077758789e+00 6.644452922046184540e-03 7.715110301971435547e+00 2.316526412963867188e+00 -3.873395919799804688e-02
3.957000000000000000e+03 7.116043853759765625e+01 1.109144926071166992e+00 7.477627601474523544e-03 7.722899436950683594e+00 2.319113254547119141e+00 -4.492256045341491699e-02
3.958000000000000000e+03 7.120355224609375000e+01 3.623745203018188477e+00 8.254285901784896851e-03 7.713970184326171875e+00 2.316667318344116211e+00 -4.006707295775413513e-02
3.959000000000000000e+03 7.985558986663818359e+00 -2.341648101806640625e+01 -1.507687149569392204e-03 -6.060271058231592178e-03 -2.270387485623359680e-03 1.666260766796767712e-03
3.960000000000000000e+03 7.700199127197265625e+00 1.178662300109863281e+01 1.339708804152905941e-03 1.451406715204939246e-04 4.454548470675945282e-04 -3.529994573909789324e-04
3.961000000000000000e+03 3.081904029846191406e+01 2.420457077026367188e+01 9.385354816913604736e-02 7.994680881500244141e+00 2.426560163497924805e+00 -1.580831222236156464e-02
3.962000000000000000e+03 2.870493507385253906e+01 2.268775749206542969e+01 7.310879975557327271e-02 8.071051597595214844e+00 2.443248033523559570e+00 -2.914531342685222626e-02
3.963000000000000000e+03 6.974150085449218750e+01 -2.608050107955932617e+00 7.465822156518697739e-03 7.737117290496826172e+00 2.323374986648559570e+00 -5.468431860208511353e-02
3.964000000000000000e+03 7.199281311035156250e+01 -1.617818236351013184e+00 5.235981661826372147e-03 7.731877326965332031e+00 2.321134090423583984e+00 -4.510869085788726807e-02
3.965000000000000000e+03 8.134786605834960938e+00 -1.751889801025390625e+01 7.209947798401117325e-04 -1.443658838979899883e-03 -2.167992061004042625e-04 1.059750444255769253e-03
3.966000000000000000e+03 6.837781429290771484e+00 -1.678507232666015625e+01 2.492401690687984228e-04 -1.144599664257839322e-04 4.043406079290434718e-05 3.607714461395516992e-05
3.967000000000000000e+03 7.100337982177734375e+01 9.967782020568847656e+00 1.006999053061008453e-02 7.697697162628173828e+00 2.312330245971679688e+00 -2.945776842534542084e-02
3.968000000000000000e+03 8.669810295104980469e+00 -2.361372184753417969e+01 2.595115453004837036e-03 2.733873901888728142e-03 1.598696806468069553e-03 -1.202651183120906353e-03
3.969000000000000000e+03 8.549473762512207031e+00 2.300378036499023438e+01 -2.509942045435309410e-03 -2.753862412646412849e-03 -1.579141360707581043e-03 1.248838612809777260e-03
3.970000000000000000e+03 9.575881958007812500e+00 -1.278664684295654297e+01 4.660501144826412201e-04 9.735908824950456619e-04 4.318922874517738819e-04 -7.356933783739805222e-04
3.971000000000000000e+03 7.257605075836181641e+00 -1.646060752868652344e+01 1.489042304456233978e-03 -5.815548938699066639e-04 2.722462231758981943e-04 6.037667626515030861e-04
3.972000000000000000e+03 7.390224933624267578e+00 -1.192768001556396484e+01 1.203219871968030930e-03 5.775969475507736206e-04 5.342450458556413651e-04 2.670243557076901197e-04
3.973000000000000000e+03 9.357141494750976562e+00 -1.159865188598632812e+01 -6.272064638324081898e-04 -8.083856082521378994e-04 -4.306776099838316441e-04 1.224459148943424225e-03
3.974000000000000000e+03 7.983352661132812500e+00 -1.566495704650878906e+01 -1.613578497199341655e-04 -2.403437683824449778e-04 -1.205104854307137430e-04 -9.681116207502782345e-04
3.975000000000000000e+03 7.327748775482177734e+00 -1.959014129638671875e+01 -6.350960466079413891e-04 -2.448049141094088554e-03 -9.249435388483107090e-04 1.185979810543358326e-03
3.976000000000000000e+03 7.870054244995117188e+00 -2.001506996154785156e+01 3.992323181591928005e-04 1.871460815891623497e-03 6.812079227529466152e-04 -1.231686677783727646e-03
3.977000000000000000e+03 7.917968273162841797e+00 -8.812324523925781250e+00 -1.188321737572550774e-03 -4.185393918305635452e-04 -4.820583271794021130e-04 3.034702967852354050e-05
3.978000000000000000e+03 7.610995769500732422e+00 -2.502132606506347656e+01 -4.196299239993095398e-03 -5.662227980792522430e-03 -2.957558259367942810e-03 1.376637024804949760e-03
3.979000000000000000e+03 2.881489753723144531e+01 -1.119190788269042969e+01 1.956845447421073914e-02 7.668578147888183594e+00 2.306443929672241211e+00 1.286991685628890991e-01
3.980000000000000000e+03 2.915043640136718750e+01 -1.192943191528320312e+01 2.041120640933513641e-02 7.656442642211914062e+00 2.303056001663208008e+00 1.155833005905151367e-01
3.981000000000000000e+03 7.074086666107177734e+00 -2.749663925170898438e+01 -4.649223294109106064e-03 5.010894034057855606e-03 1.085012190742418170e-04 6.328704184852540493e-04
3.982000000000000000e+03 2.814097785949707031e+01 8.233538627624511719e+00 1.358625441789627075e-01 8.045143127441406250e+00 2.454301834106445312e+00 9.975858777761459351e-02
3.983000000000000000e+03 2.805294418334960938e+01 1.707943725585937500e+01 5.668056011199951172e-02 8.099470138549804688e+00 2.446845293045043945e+00 2.552530728280544281e-02
3.984000000000000000e+03 3.060626220703125000e+01 1.697904396057128906e+01 7.881198823451995850e-02 8.031315803527832031e+00 2.433038234710693359e+00 2.571916207671165466e-02
3.985000000000000000e+03 7.983911514282226562e+00 -1.107545185089111328e+01 1.004948862828314304e-03 8.204132318496704102e-04 5.476086516864597797e-04 -3.399851557333022356e-04
3.986000000000000000e+03 8.409090995788574219e+00 -1.014628887176513672e+01 1.081682392396032810e-03 -7.445201626978814602e-04 1.011486820061691105e-04 -1.935361797222867608e-04
3.987000000000000000e+03 9.060085296630859375e+00 -9.336105346679687500e+00 8.092149073490872979e-05 -9.410912753082811832e-04 -2.580509462859481573e-04 1.066720651579089463e-04
3.988000000000000000e+03 8.327126502990722656e+00 -2.524921798706054688e+01 3.092956903856247663e-04 4.072973970323801041e-03 1.314680790528655052e-03 -1.621130388230085373e-03
3.989000000000000000e+03 2.813082313537597656e+01 1.181374192237854004e+00 7.884079962968826294e-02 7.942092418670654297e+00 2.406280040740966797e+00 7.132542133331298828e-02
3.990000000000000000e+03 2.909307098388671875e+01 2.806224346160888672e+00 1.136562898755073547e-01 7.940398216247558594e+00 2.416216373443603516e+00 5.775612220168113708e-02
3.991000000000000000e+03 7.408828258514404297e+00 2.413843727111816406e+01 -4.579939879477024078e-03 -4.251994541846215725e-04 -1.501541817560791969e-03 2.304512308910489082e-03
3.992000000000000000e+03 7.343997001647949219e+00 2.359590530395507812e+01 -1.405502320267260075e-03 6.713269976899027824e-04 -2.202525793109089136e-04 -1.666101510636508465e-03
3.993000000000000000e+03 7.214467620849609375e+01 -1.566247558593750000e+01 -2.352427225559949875e-03 7.795138835906982422e+00 2.337835788726806641e+00 -4.981400445103645325e-02
3.994000000000000000e+03 7.159681701660156250e+01 -1.764636993408203125e+01 -2.488216850906610489e-03 7.800810337066650391e+00 2.339496612548828125e+00 -5.159346386790275574e-02
3.995000000000000000e+03 7.188759613037109375e+01 1.093551826477050781e+01 8.426589891314506531e-03 7.691963195800781250e+00 2.310117006301879883e+00 -2.580451034009456635e-02
3.996000000000000000e+03 8.013998031616210938e+00 -1.179347229003906250e+01 -9.313859627582132816e-04 -1.014981302432715893e-03 -5.839102086611092091e-04 1.317175883741583675e-05
3.997000000000000000e+03 9.443881034851074219e+00 2.039518737792968750e+01 -2.060544444248080254e-03 -2.298499224707484245e-03 -1.307713100686669350e-03 1.151709351688623428e-03
3.998000000000000000e+03 7.364151954650878906e+00 -1.321601867675781250e+01 -4.125065170228481293e-04 -1.429393421858549118e-03 -5.525699816644191742e-04 3.587741812225431204e-04
3.999000000000000000e+03 2.938885116577148438e+01 1.838578224182128906e+01 6.337246298789978027e-02 8.061206817626953125e+00 2.437373638153076172e+00 1.577158644795417786e-02
4.000000000000000000e+03 8.641370773315429688e+00 2.493646240234375000e+01 -3.377257613465189934e-03 -1.308345701545476913e-03 -1.405681017786264420e-03 -2.714546630159020424e-03
4.001000000000000000e+03 7.201277923583984375e+01 -8.326419830322265625e+00 1.822356251068413258e-03 7.761214256286621094e+00 2.328910827636718750e+00 -5.068381130695343018e-02
4.002000000000000000e+03 7.004557037353515625e+01 -1.186671924591064453e+01 3.035129047930240631e-04 7.772090911865234375e+00 2.331718206405639648e+00 -5.977933853864669800e-02
4.003000000000000000e+03 7.099403381347656250e+01 1.091724300384521484e+01 9.709127247333526611e-03 7.695742607116699219e+00 2.311635494232177734e+00 -2.721630781888961792e-02
4.004000000000000000e+03 7.001502227783203125e+01 1.086583137512207031e+01 1.206731330603361130e-02 7.699892997741699219e+00 2.313588142395019531e+00 -2.994324266910552979e-02
4.005000000000000000e+03 3.047415733337402344e+01 1.174099349975585938e+01 1.074651107192039490e-01 8.011615753173828125e+00 2.435724258422851562e+00 6.153716892004013062e-02
4.006000000000000000e+03 2.904835510253906250e+01 1.105240058898925781e+01 1.044021919369697571e-01 8.046602249145507812e+00 2.445301294326782227e+00 7.800152897834777832e-02
4.007000000000000000e+03 8.867250442504882812e+00 -1.166031932830810547e+01 7.238844409584999084e-04 -1.897454640129581094e-04 1.602416887180879712e-04 -5.674282438121736050e-04
4.008000000000000000e+03 7.126543426513671875e+01 -2.499197006225585938e+00 5.669544450938701630e-03 7.736009597778320312e+00 2.322503805160522461e+00 -4.898446053266525269e-02
4.009000000000000000e+03 2.904000663757324219e+01 1.185671520233154297e+01 9.776248782873153687e-02 8.054212570190429688e+00 2.445592403411865234e+00 7.161167263984680176e-02
4.010000000000000000e+03 2.826280593872070312e+01 1.193062973022460938e+01 8.873750269412994385e-02 8.080535888671875000e+00 2.450782060623168945e+00 7.762919366359710693e-02
4.011000000000000000e+03 2.946467399597167969e+01 1.595091533660888672e+01 7.350981235504150391e-02 8.058626174926757812e+00 2.439640760421752930e+00 3.612670674920082092e-02
4.012000000000000000e+03 7.166159820556640625e+01 -1.101294517517089844e+01 7.907418184913694859e-04 7.772651672363281250e+00 2.332032680511474609e+00 -5.299442261457443237e-02
4.013000000000000000e+03 7.119961547851562500e+01 -1.629612207412719727e+00 6.117928773164749146e-03 7.732639312744140625e+00 2.321627140045166016e+00 -4.797159507870674133e-02
4.014000000000000000e+03 7.279622077941894531e+00 2.524588394165039062e+01 -7.630922365933656693e-03 3.472830168902873993e-03 -1.247427775524556637e-03 3.418610664084553719e-03
4.015000000000000000e+03 8.002481460571289062e+00 2.419592475891113281e+01 -2.131947549059987068e-03 -8.555037784390151501e-04 -8.962354040704667568e-04 -2.056987956166267395e-03
4.016000000000000000e+03 9.814910888671875000e+00 -1.376381587982177734e+01 -2.223049668828025460e-04 8.873249753378331661e-04 1.995060010813176632e-04 -1.103973947465419769e-03
4.017000000000000000e+03 7.105152893066406250e+01 -2.319979667663574219e+01 -6.462952587753534317e-03 7.819813728332519531e+00 2.344005346298217773e+00 -4.732535779476165771e-02
4.018000000000000000e+03 8.886772155761718750e+00 1.912521553039550781e+01 -1.980704488232731819e-03 -2.024135552346706390e-03 -1.201451988890767097e-03 3.030042571481317282e-04
4.019000000000000000e+03 8.224991798400878906e+00 1.933126640319824219e+01 2.118622884154319763e-03 3.414258244447410107e-04 7.380146416835486889e-04 -3.782108833547681570e-04
4.020000000000000000e+03 7.104574584960937500e+01 -1.839269638061523438e+01 -4.868118558079004288e-03 7.801533699035644531e+00 2.338999748229980469e+00 -5.324242636561393738e-02
4.021000000000000000e+03 2.955596733093261719e+01 1.935972976684570312e+01 7.028640061616897583e-02 8.056202888488769531e+00 2.437946796417236328e+00 5.044230725616216660e-03
4.022000000000000000e+03 7.151372528076171875e+01 -1.327404403686523438e+01 -5.110792117193341255e-04 7.781963825225830078e+00 2.334435701370239258e+00 -5.325127393007278442e-02
4.023000000000000000e+03 7.093270111083984375e+01 -1.705701637268066406e+01 -3.942870069295167923e-03 7.795669078826904297e+00 2.337517976760864258e+00 -5.436235293745994568e-02
4.024000000000000000e+03 6.763260364532470703e+00 -2.082596015930175781e+01 2.708406536839902401e-04 -3.160657361149787903e-03 -8.669450180605053902e-04 9.579887846484780312e-04
4.025000000000000000e+03 8.717773437500000000e+00 -2.289762687683105469e+01 -4.812293685972690582e-03 -3.336934605613350868e-03 -2.444768557325005531e-03 1.312083331868052483e-03
4.026000000000000000e+03 2.828015899658203125e+01 1.511551666259765625e+01 6.297807395458221436e-02 8.091953277587890625e+00 2.446479558944702148e+00 4.700358211994171143e-02
4.027000000000000000e+03 7.648523807525634766e+00 1.058694171905517578e+01 -1.171495299786329269e-03 -1.950098958332091570e-04 -4.099515790585428476e-04 7.860598852857947350e-04
4.028000000000000000e+03 2.905777931213378906e+01 1.025789356231689453e+01 1.152065917849540710e-01 8.039557456970214844e+00 2.446429252624511719e+00 8.211762458086013794e-02
4.029000000000000000e+03 7.417044162750244141e+00 8.184717178344726562e+00 6.051771342754364014e-04 1.559184784127864987e-05 1.862306962721049786e-04 -2.429744054097682238e-04
4.030000000000000000e+03 7.925920009613037109e+00 8.893660545349121094e+00 6.263997638598084450e-04 2.443521589157171547e-05 1.952504971995949745e-04 -2.790828293655067682e-04
4.031000000000000000e+03 8.334473609924316406e+00 1.151591873168945312e+01 -4.727340128738433123e-04 -9.260580409318208694e-04 -4.196376248728483915e-04 7.728857453912496567e-04
4.032000000000000000e+03 8.395685195922851562e+00 1.257555770874023438e+01 -1.841004122979938984e-04 -8.356402395293116570e-04 -3.059222071897238493e-04 3.168978146277368069e-04
4.033000000000000000e+03 7.178750991821289062e+00 1.247136688232421875e+01 1.415447914041578770e-03 -6.371218478307127953e-05 4.055207245983183384e-04 -7.754338002996519208e-05
4.034000000000000000e+03 8.928206443786621094e+00 -2.041959762573242188e+01 2.854404971003532410e-03 2.585782785899937153e-04 9.338950039818882942e-04 -3.226692788302898407e-04
4.035000000000000000e+03 2.965524291992187500e+01 2.041223907470703125e+01 6.780621409416198730e-02 8.048389434814453125e+00 2.434858560562133789e+00 -5.361908697523176670e-04
4.036000000000000000e+03 2.964271163940429688e+01 -1.077111434936523438e+01 1.782206259667873383e-02 7.680096149444580078e+00 2.309375524520874023e+00 1.142321825027465820e-01
4.037000000000000000e+03 2.885569381713867188e+01 -2.544711589813232422e+00 1.353815943002700806e-02 7.868716239929199219e+00 2.364676237106323242e+00 8.899616450071334839e-02
4.038000000000000000e+03 8.376874923706054688e+00 -1.612947082519531250e+01 8.823450189083814621e-04 5.344246164895594120e-04 4.250308847986161709e-04 -2.545122406445443630e-04
4.039000000000000000e+03 8.616601943969726562e+00 2.362513351440429688e+01 -1.510114409029483795e-03 3.956534328608540818e-06 -4.518473579082638025e-04 -1.829309621825814247e-03
4.040000000000000000e+03 2.800685501098632812e+01 -1.917813897132873535e+00 1.355752721428871155e-02 7.890666007995605469e+00 2.371267080307006836e+00 9.875634312629699707e-02
4.041000000000000000e+03 7.748502731323242188e+00 -1.266893386840820312e+01 -1.186478111776523292e-04 2.053224743576720357e-04 2.600239713501650840e-05 -1.000060583464801311e-03
4.042000000000000000e+03 8.698916435241699219e+00 -2.725798797607421875e+01 -8.501186966896057129e-03 -6.352273747324943542e-03 -4.456038121134042740e-03 4.196003079414367676e-03
4.043000000000000000e+03 2.827146911621093750e+01 1.272840499877929688e+01 8.352769166231155396e-02 8.084779739379882812e+00 2.450492143630981445e+00 6.923482567071914673e-02
4.044000000000000000e+03 2.891721153259277344e+01 4.835739433765411377e-01 6.657622009515762329e-02 7.916012763977050781e+00 2.394776821136474609e+00 6.341709196567535400e-02
4.045000000000000000e+03 2.903344345092773438e+01 -4.878138542175292969e+00 -4.974980838596820831e-03 7.817660331726074219e+00 2.343805551528930664e+00 1.098517626523971558e-01
4.046000000000000000e+03 9.503449440002441406e+00 -2.007827758789062500e+01 -1.955862157046794891e-03 -3.039212315343320370e-04 -6.779350223951041698e-04 -4.449331318028271198e-04
4.047000000000000000e+03 7.270092964172363281e+00 1.387917709350585938e+01 6.655830657109618187e-04 -4.031742864754050970e-04 7.872263086028397083e-05 3.314737987238913774e-04
4.048000000000000000e+03 7.136688995361328125e+01 -1.018960666656494141e+01 1.180234714411199093e-03 7.768144607543945312e+00 2.330797433853149414e+00 -5.407710745930671692e-02
4.049000000000000000e+03 9.241246223449707031e+00 1.627164649963378906e+01 1.349545316770672798e-03 7.546153501607477665e-04 6.312481709755957127e-04 1.419601845555007458e-03
4.050000000000000000e+03 2.884523773193359375e+01 -1.043284654617309570e+00 3.632373362779617310e-02 7.894690513610839844e+00 2.379304170608520508e+00 7.488460838794708252e-02
4.051000000000000000e+03 2.887224960327148438e+01 -2.850768566131591797e-01 4.963665083050727844e-02 7.904849052429199219e+00 2.386345863342285156e+00 6.755136698484420776e-02
4.052000000000000000e+03 7.196238708496093750e+01 -7.432107925415039062e+00 2.780327573418617249e-03 7.756361484527587891e+00 2.327742576599121094e+00 -5.031086876988410950e-02
4.053000000000000000e+03 8.878326416015625000e+00 1.306483173370361328e+01 9.778819512575864792e-04 5.517012323252856731e-04 4.588749725371599197e-04 -6.078846054151654243e-04
4.054000000000000000e+03 9.059685707092285156e+00 1.448573780059814453e+01 -9.277941426262259483e-04 -1.225724816322326660e-03 -6.460556760430335999e-04 2.188641519751399755e-05
4.055000000000000000e+03 8.610424041748046875e+00 1.604257202148437500e+01 1.323743257671594620e-03 7.267083274200558662e-04 6.151354755274951458e-04 6.729613523930311203e-04
4.056000000000000000e+03 7.387431621551513672e+00 1.515279388427734375e+01 -5.327832186594605446e-04 -1.795029966160655022e-03 -6.983439670875668526e-04 2.657455042935907841e-04
4.057000000000000000e+03 7.162301635742187500e+01 1.515288639068603516e+01 8.328118361532688141e-03 7.685174942016601562e+00 2.308050870895385742e+00 -1.844740472733974457e-02
4.058000000000000000e+03 7.115666961669921875e+01 -7.571028232574462891e+00 3.006674116477370262e-03 7.756205081939697266e+00 2.327763557434082031e+00 -5.384025722742080688e-02
4.059000000000000000e+03 7.117996215820312500e+01 -8.377643585205078125e+00 2.595364581793546677e-03 7.759971141815185547e+00 2.328769922256469727e+00 -5.404146760702133179e-02
4.060000000000000000e+03 7.109903717041015625e+01 1.302833652496337891e+01 9.403189644217491150e-03 7.690867900848388672e+00 2.310081243515014648e+00 -2.279940433800220490e-02
4.061000000000000000e+03 7.203999328613281250e+01 7.602347850799560547e+00 7.906769402325153351e-03 7.699765205383300781e+00 2.312301635742187500e+00 -3.120208717882633209e-02
4.062000000000000000e+03 7.122459411621093750e+01 5.947670459747314453e+00 8.675416931509971619e-03 7.707411766052246094e+00 2.314826011657714844e+00 -3.616284579038619995e-02
4.063000000000000000e+03 2.979638862609863281e+01 5.051085472106933594e+00 1.373534351587295532e-01 7.948396205902099609e+00 2.425724983215332031e+00 6.151345744729042053e-02
4.064000000000000000e+03 2.830374908447265625e+01 4.264524459838867188e+00 1.412099897861480713e-01 7.977712154388427734e+00 2.435676574707031250e+00 7.685562968254089355e-02
4.065000000000000000e+03 7.760150432586669922e+00 2.243224906921386719e+01 -1.605005469173192978e-03 -3.539330791682004929e-03 -1.543300808407366276e-03 1.680834917351603508e-03
4.066000000000000000e+03 2.903777313232421875e+01 2.036159276962280273e+00 9.947460144758224487e-02 7.932863712310791016e+00 2.409701347351074219e+00 5.832310393452644348e-02
4.067000000000000000e+03 2.991158485412597656e+01 2.090975284576416016e+00 9.962844848632812500e-02 7.914987087249755859e+00 2.404384613037109375e+00 4.731612652540206909e-02
4.068000000000000000e+03 7.041204452514648438e+00 2.248601531982421875e+01 -1.220879494212567806e-03 1.889660488814115524e-03 2.006342983804643154e-04 -1.998503459617495537e-03
4.069000000000000000e+03 7.603983879089355469e+00 2.130659866333007812e+01 -1.535334391519427299e-03 -2.444159239530563354e-03 -1.193848089314997196e-03 2.216634340584278107e-03
4.070000000000000000e+03 7.205870819091796875e+01 -1.464663600921630859e+01 -1.400802750140428543e-03 7.789948463439941406e+00 2.336564302444458008e+00 -5.058441683650016785e-02
4.071000000000000000e+03 7.112349700927734375e+01 -7.225883603096008301e-01 6.774431560188531876e-03 7.729432106018066406e+00 2.320862054824829102e+00 -4.736232757568359375e-02
4.072000000000000000e+03 7.201798248291015625e+01 2.017400932312011719e+01 5.855230148881673813e-03 7.676141738891601562e+00 2.304599046707153320e+00 -9.458040818572044373e-03
4.073000000000000000e+03 7.071797180175781250e+01 2.186429023742675781e+01 7.432439364492893219e-03 7.683117866516113281e+00 2.307165145874023438e+00 -8.096280507743358612e-03
4.074000000000000000e+03 2.886259269714355469e+01 8.847243309020996094e+00 1.288243979215621948e-01 8.029544830322265625e+00 2.447510957717895508e+00 8.802647143602371216e-02
4.075000000000000000e+03 7.971550464630126953e+00 -8.114358901977539062e+00 1.345839118584990501e-03 1.115562408813275397e-04 4.372186085674911737e-04 -2.171701198676601052e-04
4.076000000000000000e+03 8.125911712646484375e+00 2.068892097473144531e+01 -1.871791784651577473e-03 -2.443826990202069283e-03 -1.294685644097626209e-03 1.519441604614257812e-03
4.077000000000000000e+03 2.928255653381347656e+01 -9.861059188842773438e+00 1.200719270855188370e-02 7.700046539306640625e+00 2.313616275787353516e+00 1.242590695619583130e-01
4.078000000000000000e+03 2.913119888305664062e+01 -8.992297172546386719e+00 1.092320960015058517e-02 7.722917079925537109e+00 2.320152044296264648e+00 1.323862075805664062e-01
4.079000000000000000e+03 7.108177947998046875e+01 9.091643333435058594e+00 9.453846141695976257e-03 7.699395656585693359e+00 2.312654733657836914e+00 -3.066172823309898376e-02
4.080000000000000000e+03 7.022991180419921875e+01 8.919240951538085938e+00 1.153039839118719101e-02 7.703184604644775391e+00 2.314414501190185547e+00 -3.323494642972946167e-02
4.081000000000000000e+03 6.768768310546875000e+01 2.408231544494628906e+01 9.931710548698902130e-03 7.699804306030273438e+00 2.312920808792114258e+00 -6.101852282881736755e-03
4.082000000000000000e+03 6.947929382324218750e+01 2.586411666870117188e+01 6.525415461510419846e-03 7.689467430114746094e+00 2.308797836303710938e+00 -3.659780835732817650e-03
4.083000000000000000e+03 2.780571556091308594e+01 -2.293043899536132812e+01 -6.447724997997283936e-02 7.470710277557373047e+00 2.221869945526123047e+00 1.433883905410766602e-01
4.084000000000000000e+03 3.080776786804199219e+01 1.336588382720947266e+01 9.762456268072128296e-02 8.013081550598144531e+00 2.433211803436279297e+00 5.039354041218757629e-02
4.085000000000000000e+03 2.655851173400878906e+01 -2.159753608703613281e+01 -8.775332570075988770e-02 7.473828792572021484e+00 2.215822696685791016e+00 1.580057293176651001e-01
4.086000000000000000e+03 2.644710922241210938e+01 -2.443288421630859375e+01 -5.798287689685821533e-02 7.423779010772705078e+00 2.209738969802856445e+00 1.773413121700286865e-01
4.087000000000000000e+03 6.992288208007812500e+01 2.974211692810058594e+01 3.491947893053293228e-03 7.686652660369873047e+00 2.307043313980102539e+00 4.830904654227197170e-04
4.088000000000000000e+03 6.942176055908203125e+01 2.877259254455566406e+01 4.196347668766975403e-03 7.689518928527832031e+00 2.308114528656005859e+00 -5.390680744312703609e-04
4.089000000000000000e+03 2.918938255310058594e+01 2.468873405456542969e+01 9.033703058958053589e-02 8.041839599609375000e+00 2.439652919769287109e+00 -4.131025075912475586e-02
4.090000000000000000e+03 7.135081481933593750e+01 2.500492668151855469e+01 5.145847331732511520e-03 7.678348064422607422e+00 2.305048227310180664e+00 -4.222929012030363083e-03
4.091000000000000000e+03 7.048270416259765625e+01 2.877493858337402344e+01 2.869754564017057419e-03 7.682255744934082031e+00 2.305537462234497070e+00 -1.060154638253152370e-03
4.092000000000000000e+03 2.812019348144531250e+01 -6.628970623016357422e+00 -9.832957759499549866e-03 7.784260749816894531e+00 2.332328319549560547e+00 1.476906836032867432e-01
4.093000000000000000e+03 7.141356658935546875e+01 -2.084871673583984375e+01 -6.332636810839176178e-03 7.813570499420166016e+00 2.342171430587768555e+00 -4.866304248571395874e-02
4.094000000000000000e+03 2.981833457946777344e+01 -2.936629867553710938e+01 3.107637539505958557e-02 7.358917713165283203e+00 2.216998100280761719e+00 7.521270960569381714e-02
4.095000000000000000e+03 3.143431663513183594e+01 -2.541217994689941406e+01 -3.229220584034919739e-02 7.462775707244873047e+00 2.229145050048828125e+00 7.885082066059112549e-02
4.096000000000000000e+03 7.116963958740234375e+01 -2.581258964538574219e+01 -9.446661919355392456e-03 7.829533100128173828e+00 2.346025943756103516e+00 -4.313560575246810913e-02
4.097000000000000000e+03 2.879595375061035156e+01 -1.551242351531982422e+01 -1.849797903560101986e-03 7.596068382263183594e+00 2.278265714645385742e+00 9.706635028123855591e-02
4.098000000000000000e+03 2.771566772460937500e+01 -1.670763587951660156e+01 -1.965942978858947754e-02 7.568078517913818359e+00 2.264525890350341797e+00 1.063910946249961853e-01
4.099000000000000000e+03 3.145715904235839844e+01 -1.263464641571044922e+01 2.496852539479732513e-03 7.655207633972167969e+00 2.297311305999755859e+00 7.253558188676834106e-02
4.100000000000000000e+03 2.785208892822265625e+01 -2.443046569824218750e+01 -4.161105304956436157e-02 7.450122833251953125e+00 2.222553491592407227e+00 1.536244899034500122e-01
4.101000000000000000e+03 3.100117874145507812e+01 2.931265830993652344e+01 1.261177510023117065e-01 7.917437076568603516e+00 2.413066387176513672e+00 1.045508193783462048e-03
4.102000000000000000e+03 7.165246582031250000e+01 2.225661277770996094e+01 5.610151216387748718e-03 7.677027225494384766e+00 2.304791212081909180e+00 -7.294122595340013504e-03
4.103000000000000000e+03 2.889917755126953125e+01 -1.450789070129394531e+01 3.812076291069388390e-03 7.607990741729736328e+00 2.283540964126586914e+00 1.014035940170288086e-01
4.104000000000000000e+03 3.099271011352539062e+01 2.287311935424804688e+01 8.969161659479141235e-02 8.006897926330566406e+00 2.428977012634277344e+00 -1.318275183439254761e-02
4.105000000000000000e+03 2.979208946228027344e+01 2.273753166198730469e+01 7.917279750108718872e-02 8.031868934631347656e+00 2.433312654495239258e+00 -1.628984883427619934e-02
4.106000000000000000e+03 7.010110473632812500e+01 -2.553426742553710938e+01 -1.019365992397069931e-02 7.821343421936035156e+00 2.343344926834106445e+00 -4.629630967974662781e-02
4.107000000000000000e+03 2.650804710388183594e+01 -2.057866859436035156e+01 -7.620185613632202148e-02 7.493882179260253906e+00 2.225304126739501953e+00 1.499166935682296753e-01
4.108000000000000000e+03 2.710867309570312500e+01 -1.779334259033203125e+01 -4.535692930221557617e-02 7.546719551086425781e+00 2.250408649444580078e+00 1.183007508516311646e-01
4.109000000000000000e+03 7.124787139892578125e+01 -3.424627304077148438e+01 -1.392973866313695908e-02 7.851248741149902344e+00 2.351195573806762695e+00 -2.416941151022911072e-02
4.110000000000000000e+03 3.033141517639160156e+01 -2.669482994079589844e+01 -8.958706632256507874e-03 7.429773330688476562e+00 2.226244449615478516e+00 9.749298542737960815e-02
4.111000000000000000e+03 8.187108039855957031e+00 -1.851928901672363281e+01 6.767670856788754463e-04 -1.670482568442821503e-03 -2.981146681122481823e-04 1.896810717880725861e-03
4.112000000000000000e+03 8.093790054321289062e+00 -2.094644927978515625e+01 -4.890837954008020461e-05 1.692263758741319180e-03 4.930066061206161976e-04 -9.181272471323609352e-04
4.113000000000000000e+03 8.531675338745117188e+00 -1.199152374267578125e+01 -8.441384852631017566e-05 1.160954707302153111e-03 3.229622670914977789e-04 1.321035088039934635e-04
4.114000000000000000e+03 8.098228454589843750e+00 1.638870048522949219e+01 -1.153358098235912621e-04 -2.299084328114986420e-03 -7.243260042741894722e-04 1.204551081173121929e-04
4.115000000000000000e+03 8.174061775207519531e+00 -2.278518867492675781e+01 -1.233200076967477798e-03 3.993082325905561447e-03 8.279646281152963638e-04 -2.083167200908064842e-03
4.116000000000000000e+03 7.822269439697265625e+00 1.238646125793457031e+01 -1.250032917596399784e-03 1.886729442048817873e-04 -3.184080123901367188e-04 2.121244906447827816e-04
4.117000000000000000e+03 7.030034637451171875e+01 -1.787069511413574219e+01 -3.453805344179272652e-03 7.795911312103271484e+00 2.337737321853637695e+00 -5.648552253842353821e-02
4.118000000000000000e+03 7.005686950683593750e+01 9.833961486816406250e+00 1.139185391366481781e-02 7.701847553253173828e+00 2.313971996307373047e+00 -3.132611885666847229e-02
4.119000000000000000e+03 6.980837249755859375e+01 -3.490169525146484375e+00 6.642063613981008530e-03 7.740089416503906250e+00 2.324019432067871094e+00 -5.528947710990905762e-02
4.120000000000000000e+03 7.133311462402343750e+01 -3.337016344070434570e+00 5.092019680887460709e-03 7.739219665527343750e+00 2.323293447494506836e+00 -4.941555857658386230e-02
4.121000000000000000e+03 6.980107116699218750e+01 1.185535192489624023e+00 9.098472073674201965e-03 7.724704265594482422e+00 2.320140838623046875e+00 -4.864291846752166748e-02
4.122000000000000000e+03 7.114335632324218750e+01 2.696270465850830078e+00 8.182028308510780334e-03 7.717179298400878906e+00 2.317608356475830078e+00 -4.208657518029212952e-02
4.123000000000000000e+03 7.089396667480468750e+01 -5.029177665710449219e+00 4.641711711883544922e-03 7.746268749237060547e+00 2.325273036956787109e+00 -5.300446972250938416e-02
4.124000000000000000e+03 7.141223144531250000e+01 -4.138000011444091797e+00 4.554967861622571945e-03 7.742573738098144531e+00 2.324138641357421875e+00 -4.992897063493728638e-02
4.125000000000000000e+03 9.125668525695800781e+00 1.833616256713867188e+01 -2.891851181630045176e-04 -2.903942251577973366e-03 -9.579382021911442280e-04 1.863953890278935432e-03
4.126000000000000000e+03 7.160886383056640625e+01 4.356612205505371094e+00 7.596092764288187027e-03 7.711044311523437500e+00 2.315592050552368164e+00 -3.795555979013442993e-02
4.127000000000000000e+03 7.055404663085937500e+01 -1.051278114318847656e+01 1.309257815591990948e-03 7.767673492431640625e+00 2.330694913864135742e+00 -5.756752938032150269e-02
4.128000000000000000e+03 8.343816757202148438e+00 -9.600088119506835938e+00 -7.829452515579760075e-04 -7.769458461552858353e-04 -4.679673293139785528e-04 1.294307585339993238e-04
4.129000000000000000e+03 7.014690399169921875e+01 1.193745231628417969e+01 1.172684412449598312e-02 7.697210311889648438e+00 2.312681198120117188e+00 -2.672883681952953339e-02
4.130000000000000000e+03 2.914406013488769531e+01 1.742579841613769531e+01 6.787049025297164917e-02 8.067636489868164062e+00 2.440652132034301758e+00 2.316166646778583527e-02
4.131000000000000000e+03 3.094829368591308594e+01 2.156261253356933594e+01 8.132763206958770752e-02 8.008794784545898438e+00 2.427036762237548828e+00 -3.054533153772354126e-03
4.132000000000000000e+03 8.673180580139160156e+00 1.792009544372558594e+01 2.544129165471531451e-05 1.577415619976818562e-03 4.808570665773004293e-04 -1.093978527933359146e-03
4.133000000000000000e+03 2.991771507263183594e+01 1.722833061218261719e+01 7.013819366693496704e-02 8.048814773559570312e+00 2.435685873031616211e+00 2.620099112391471863e-02
4.134000000000000000e+03 8.649437904357910156e+00 2.426827049255371094e+01 -4.435401875525712967e-03 -8.841688977554440498e-04 -1.595871290192008018e-03 1.397782703861594200e-03
4.135000000000000000e+03 8.690300941467285156e+00 -1.107907295227050781e+01 -4.826488438993692398e-04 -1.222977414727210999e-03 -5.116878892295062542e-04 7.835249998606741428e-04
4.136000000000000000e+03 7.630662441253662109e+00 -2.240551567077636719e+01 2.988642780110239983e-03 -5.539737176150083542e-03 -7.653283537365496159e-04 1.660872949287295341e-03
4.137000000000000000e+03 9.189664840698242188e+00 -1.429248332977294922e+01 5.051908083260059357e-04 -1.039689988829195499e-03 -1.603497366886585951e-04 6.315572536550462246e-04
4.138000000000000000e+03 7.816401958465576172e+00 -1.442383003234863281e+01 -7.670118357054889202e-04 -1.427582348696887493e-03 -6.583782378584146500e-04 3.546816005837172270e-04
4.139000000000000000e+03 7.050209808349609375e+01 -2.550365686416625977e+00 6.412054877728223801e-03 7.736612319946289062e+00 2.322907209396362305e+00 -5.172914266586303711e-02
4.140000000000000000e+03 2.910071182250976562e+01 1.416861057281494141e+01 7.758694887161254883e-02 8.065638542175292969e+00 2.442967653274536133e+00 5.391376838088035583e-02
4.141000000000000000e+03 7.127035522460937500e+01 -1.239067077636718750e+01 -8.550715574529021978e-05 7.777387619018554688e+00 2.333190679550170898e+00 -5.469323694705963135e-02
4.142000000000000000e+03 3.070966529846191406e+01 -3.634503841400146484e+00 1.880081184208393097e-02 7.828772544860839844e+00 2.354271888732910156e+00 6.748501956462860107e-02
4.143000000000000000e+03 2.966495132446289062e+01 -1.662309885025024414e+00 3.338402509689331055e-02 7.873038768768310547e+00 2.371926784515380859e+00 6.715910881757736206e-02
4.144000000000000000e+03 9.274483680725097656e+00 -2.263772773742675781e+01 2.502169692888855934e-03 -1.439818763174116611e-03 3.187052498105913401e-04 -3.155619197059422731e-04
4.145000000000000000e+03 2.899614906311035156e+01 9.507996559143066406e+00 1.218387410044670105e-01 8.033914566040039062e+00 2.446726083755493164e+00 8.614559471607208252e-02
4.146000000000000000e+03 2.982332992553710938e+01 1.101437568664550781e+01 1.108073964715003967e-01 8.021671295166015625e+00 2.439743518829345703e+00 7.024767249822616577e-02
4.147000000000000000e+03 7.023809051513671875e+01 -9.527179718017578125e+00 1.952831982634961605e-03 7.763018131256103516e+00 2.329491376876831055e+00 -5.832850933074951172e-02
4.148000000000000000e+03 7.094800567626953125e+01 -1.569775772094726562e+01 -2.607043366879224777e-03 7.789926528930664062e+00 2.336195945739746094e+00 -5.495902895927429199e-02
4.149000000000000000e+03 2.888735580444335938e+01 8.238306999206542969e+00 1.349132806062698364e-01 8.017326354980468750e+00 2.445671796798706055e+00 8.792950212955474854e-02
4.150000000000000000e+03 2.994217681884765625e+01 1.016757583618164062e+01 1.178225055336952209e-01 8.009605407714843750e+00 2.438228368759155273e+00 7.329165935516357422e-02
4.151000000000000000e+03 8.680020332336425781e+00 -1.992919158935546875e+01 -7.268834160640835762e-04 8.439323282800614834e-04 3.511466275085695088e-05 -2.352473326027393341e-03
4.152000000000000000e+03 7.071079254150390625e+01 -2.014344978332519531e+01 -5.302259232848882675e-03 7.806243896484375000e+00 2.340282440185546875e+00 -5.341804400086402893e-02
4.153000000000000000e+03 7.130263519287109375e+01 -1.958348846435546875e+01 -4.663357045501470566e-03 7.807731151580810547e+00 2.340920209884643555e+00 -5.063437670469284058e-02
4.154000000000000000e+03 2.982267570495605469e+01 1.318254113197326660e+00 8.601507544517517090e-02 7.908807754516601562e+00 2.398446798324584961e+00 4.979566112160682678e-02
4.155000000000000000e+03 7.631027698516845703e+00 -1.612520027160644531e+01 -2.434810448903590441e-05 1.119420747272670269e-03 3.285217972006648779e-04 5.703010247088968754e-04
4.156000000000000000e+03 8.529388427734375000e+00 -1.558251285552978516e+01 -6.384459557011723518e-04 -1.954394625499844551e-03 -7.778521976433694363e-04 7.476215832866728306e-04
4.157000000000000000e+03 2.811553573608398438e+01 -5.817540645599365234e+00 -1.558303553611040115e-02 7.802377223968505859e+00 2.336038351058959961e+00 1.392013728618621826e-01
4.158000000000000000e+03 2.906562042236328125e+01 -5.704883575439453125e+00 -4.834421910345554352e-03 7.803546905517578125e+00 2.339613676071166992e+00 1.177017912268638611e-01
4.159000000000000000e+03 8.217066764831542969e+00 -1.235180377960205078e+01 9.486513445153832436e-04 -5.053823115304112434e-04 1.329806982539594173e-04 6.874485407024621964e-04
4.160000000000000000e+03 8.444275856018066406e+00 1.547007274627685547e+01 -7.457900792360305786e-04 -1.541673089377582073e-03 -6.862389273010194302e-04 7.004602230153977871e-05
4.161000000000000000e+03 2.912903785705566406e+01 3.558970689773559570e+00 1.262328326702117920e-01 7.948890209197998047e+00 2.422536849975585938e+00 6.207950785756111145e-02
4.162000000000000000e+03 2.933796882629394531e+01 5.501756191253662109e+00 1.422388404607772827e-01 7.966776847839355469e+00 2.432704687118530273e+00 7.013474404811859131e-02
4.163000000000000000e+03 8.366305351257324219e+00 2.181863594055175781e+01 -1.717142877168953419e-03 -3.079426707699894905e-03 -1.438970793969929218e-03 1.804535742849111557e-03
4.164000000000000000e+03 8.931125640869140625e+00 2.115337181091308594e+01 -2.007586648687720299e-03 -2.595897065475583076e-03 -1.381045090965926647e-03 1.537811360321938992e-03
4.165000000000000000e+03 3.066435050964355469e+01 1.342339158058166504e+00 8.692365139722824097e-02 7.893185138702392578e+00 2.394032716751098633e+00 3.970837593078613281e-02
4.166000000000000000e+03 2.844634628295898438e+01 -1.226352119445800781e+01 2.441473118960857391e-02 7.641208171844482422e+00 2.299686908721923828e+00 1.301326751708984375e-01
4.167000000000000000e+03 2.897274780273437500e+01 -1.354905796051025391e+01 1.635666377842426300e-02 7.626838207244873047e+00 2.292958498001098633e+00 1.076009422540664673e-01
4.168000000000000000e+03 7.868852138519287109e+00 2.300997924804687500e+01 -1.288219238631427288e-03 1.061711576767265797e-03 -6.795228546252474189e-05 -1.596327056176960468e-03
4.169000000000000000e+03 7.124631500244140625e+01 7.509099960327148438e+00 8.849919773638248444e-03 7.702823638916015625e+00 2.313502073287963867e+00 -3.300991654396057129e-02
4.170000000000000000e+03 7.032589721679687500e+01 5.973615169525146484e+00 1.035026740282773972e-02 7.709539413452148438e+00 2.315966844558715820e+00 -3.858977556228637695e-02
4.171000000000000000e+03 8.757375717163085938e+00 2.054471969604492188e+01 1.560723874717950821e-03 5.014566704630851746e-04 6.186541868373751640e-04 -1.116917119361460209e-03
4.172000000000000000e+03 7.104886627197265625e+01 2.445657253265380859e-01 7.082474417984485626e-03 7.725940704345703125e+00 2.319906949996948242e+00 -4.597244784235954285e-02
4.173000000000000000e+03 2.889786148071289062e+01 -3.305353879928588867e+00 4.054787568747997284e-03 7.851941585540771484e+00 2.356798887252807617e+00 9.532190114259719849e-02
4.174000000000000000e+03 7.666431903839111328e+00 2.185890769958496094e+01 -3.734694328159093857e-04 9.372854256071150303e-04 1.691447832854464650e-04 -2.276179613545536995e-03
4.175000000000000000e+03 3.065841484069824219e+01 -1.039938259124755859e+01 9.689715690910816193e-03 7.695954799652099609e+00 2.311693429946899414e+00 9.469196945428848267e-02
4.176000000000000000e+03 7.043762207031250000e+01 -1.680370330810546875e+00 7.254599127918481827e-03 7.733464241027832031e+00 2.322215557098388672e+00 -5.108841508626937866e-02
4.177000000000000000e+03 7.079872894287109375e+01 1.492971897125244141e+01 9.352135471999645233e-03 7.688856124877929688e+00 2.309462547302246094e+00 -1.974336616694927216e-02
4.178000000000000000e+03 6.928144836425781250e+01 1.200454616546630859e+01 1.335131749510765076e-02 7.700843334197998047e+00 2.314258337020874023e+00 -2.871594764292240143e-02
4.179000000000000000e+03 7.075747680664062500e+01 1.630174446105957031e+01 9.137080982327461243e-03 7.688066959381103516e+00 2.309161186218261719e+00 -1.776395365595817566e-02
4.180000000000000000e+03 6.923334503173828125e+01 1.393058776855468750e+01 1.330337952822446823e-02 7.698551177978515625e+00 2.313556432723999023e+00 -2.471289224922657013e-02
4.181000000000000000e+03 7.248279571533203125e+01 -1.502690887451171875e+01 -5.869863089174032211e-04 7.793137550354003906e+00 2.337765216827392578e+00 -4.862548783421516418e-02
4.182000000000000000e+03 6.951087188720703125e+01 -1.326592922210693359e+01 -8.273565908893942833e-04 7.775809288024902344e+00 2.332494497299194336e+00 -6.169902533292770386e-02
4.183000000000000000e+03 7.043839263916015625e+01 -6.153436183929443359e+00 4.442462697625160217e-03 7.749845027923583984e+00 2.326286315917968750e+00 -5.583344772458076477e-02
4.184000000000000000e+03 3.003576660156250000e+01 -4.712923526763916016e+00 6.644665729254484177e-03 7.816750049591064453e+00 2.347018241882324219e+00 8.716281503438949585e-02
4.185000000000000000e+03 3.091728591918945312e+01 -4.371332168579101562e+00 1.514905318617820740e-02 7.811814785003662109e+00 2.348089218139648438e+00 7.027379423379898071e-02
4.186000000000000000e+03 2.907159805297851562e+01 1.341978549957275391e+01 8.492476493120193481e-02 8.064274787902832031e+00 2.444759845733642578e+00 5.876341834664344788e-02
4.187000000000000000e+03 8.355480194091796875e+00 1.346856880187988281e+01 -7.238074904307723045e-04 -3.806861350312829018e-04 -3.313480992801487446e-04 8.866004063747823238e-04
4.188000000000000000e+03 7.116958618164062500e+01 8.276954650878906250e+00 9.445508942008018494e-03 7.701184272766113281e+00 2.313189029693603516e+00 -3.235643357038497925e-02
4.189000000000000000e+03 2.841929435729980469e+01 7.000428676605224609e+00 1.464225053787231445e-01 8.014026641845703125e+00 2.448134899139404297e+00 9.220828115940093994e-02
4.190000000000000000e+03 2.858376502990722656e+01 5.791765689849853516e+00 1.483899354934692383e-01 7.991385459899902344e+00 2.441932678222656250e+00 8.365394175052642822e-02
4.191000000000000000e+03 2.974532127380371094e+01 5.557135939598083496e-01 7.080800086259841919e-02 7.900694847106933594e+00 2.391450881958007812e+00 5.136816576123237610e-02
4.192000000000000000e+03 2.812296867370605469e+01 -7.452458858489990234e+00 -7.126671262085437775e-03 7.761169433593750000e+00 2.326212882995605469e+00 1.520488262176513672e-01
4.193000000000000000e+03 2.966635513305664062e+01 -9.349249005317687988e-01 4.355630278587341309e-02 7.882276535034179688e+00 2.377749919891357422e+00 6.074418500065803528e-02
4.194000000000000000e+03 3.001508903503417969e+01 3.643592357635498047e+00 1.224203780293464661e-01 7.929799079895019531e+00 2.415665864944458008e+00 5.034347623586654663e-02
4.195000000000000000e+03 2.913674736022949219e+01 4.276431560516357422e+00 1.357398331165313721e-01 7.956656455993652344e+00 2.427718877792358398e+00 6.474150717258453369e-02
4.196000000000000000e+03 7.104472351074218750e+01 1.994352149963378906e+01 7.765145041048526764e-03 7.682361602783203125e+00 2.307038068771362305e+00 -1.131617743521928787e-02
4.197000000000000000e+03 2.886881256103515625e+01 7.583699226379394531e+00 1.414029896259307861e-01 8.008382797241210938e+00 2.444935798645019531e+00 8.653914928436279297e-02
4.198000000000000000e+03 2.985287475585937500e+01 9.303647994995117188e+00 1.265099495649337769e-01 8.002837181091308594e+00 2.438804149627685547e+00 7.478568702936172485e-02
4.199000000000000000e+03 8.092333793640136719e+00 -2.191003417968750000e+01 -4.079911392182111740e-03 2.945748157799243927e-03 -3.402490401640534401e-04 -6.416175165213644505e-04
4.200000000000000000e+03 7.125870513916015625e+01 5.071468830108642578e+00 8.682246319949626923e-03 7.709934711456298828e+00 2.315585136413574219e+00 -3.778935223817825317e-02
4.201000000000000000e+03 8.491386413574218750e+00 -2.441771316528320312e+01 -4.509319551289081573e-03 -5.527811590582132339e-03 -3.011139342561364174e-03 2.079842379316687584e-03
4.202000000000000000e+03 7.141351318359375000e+01 1.682811927795410156e+01 8.947243914008140564e-03 7.683638095855712891e+00 2.307775735855102539e+00 -1.597358658909797668e-02
4.203000000000000000e+03 8.546051979064941406e+00 -7.940101623535156250e+00 2.673083217814564705e-04 7.766313501633703709e-06 8.252239058492705226e-05 -9.532250260235741735e-05
4.204000000000000000e+03 7.004063415527343750e+01 1.484228801727294922e+01 1.132213510572910309e-02 7.693487644195556641e+00 2.311442852020263672e+00 -2.151710912585258484e-02
4.205000000000000000e+03 2.943269729614257812e+01 1.475633525848388672e+01 7.773914933204650879e-02 8.058102607727050781e+00 2.440752744674682617e+00 4.575610160827636719e-02
4.206000000000000000e+03 2.909899139404296875e+01 -2.426360893249511719e+01 -4.049240425229072571e-02 7.461467266082763672e+00 2.226292371749877930e+00 1.252894699573516846e-01
4.207000000000000000e+03 2.918603324890136719e+01 -2.290819549560546875e+01 -5.144166201353073120e-02 7.494765281677246094e+00 2.232996940612792969e+00 1.210853159427642822e-01
4.208000000000000000e+03 3.224650573730468750e+01 2.147063255310058594e+01 8.912681788206100464e-02 7.983430862426757812e+00 2.421767234802246094e+00 1.878996030427515507e-03
4.209000000000000000e+03 6.597096252441406250e+01 2.621957206726074219e+01 1.021151617169380188e-02 7.710619449615478516e+00 2.316249370574951172e+00 -2.995328046381473541e-03
4.210000000000000000e+03 7.053349304199218750e+01 1.633367538452148438e+00 8.911247365176677704e-03 7.722375869750976562e+00 2.319386243820190430e+00 -4.602288827300071716e-02
4.211000000000000000e+03 7.016867828369140625e+01 1.891930252313613892e-01 8.546118624508380890e-03 7.727149963378906250e+00 2.320708751678466797e+00 -4.902391508221626282e-02
4.212000000000000000e+03 3.004978179931640625e+01 -8.810564041137695312e+00 7.017298601567745209e-03 7.727140426635742188e+00 2.320247411727905273e+00 1.073862537741661072e-01
4.213000000000000000e+03 2.896155166625976562e+01 -1.995462989807128906e+01 -5.483644455671310425e-02 7.534429550170898438e+00 2.243877887725830078e+00 1.052192822098731995e-01
4.214000000000000000e+03 7.034451293945312500e+01 8.098105430603027344e+00 1.025148760527372360e-02 7.704218864440917969e+00 2.314341068267822266e+00 -3.411483764648437500e-02
4.215000000000000000e+03 7.076690673828125000e+01 -6.865802288055419922e+00 3.395211417227983475e-03 7.753472328186035156e+00 2.327060222625732422e+00 -5.454548075795173645e-02
4.216000000000000000e+03 6.764369964599609375e+01 -2.445594978332519531e+01 -1.304579526185989380e-02 7.802525043487548828e+00 2.336843729019165039e+00 -5.550148338079452515e-02
4.217000000000000000e+03 2.920243072509765625e+01 -2.142978668212890625e+01 -6.279385834932327271e-02 7.513554573059082031e+00 2.235228061676025391e+00 1.127079576253890991e-01
4.218000000000000000e+03 7.177209472656250000e+01 -1.402967357635498047e+01 -1.033371547237038612e-03 7.786352157592773438e+00 2.335595607757568359e+00 -5.249463766813278198e-02
4.219000000000000000e+03 7.109977722167968750e+01 -1.443165588378906250e+01 -1.509983674623072147e-03 7.785340785980224609e+00 2.335149288177490234e+00 -5.485613644123077393e-02
4.220000000000000000e+03 6.979331970214843750e+01 -2.693665504455566406e+01 -1.270682830363512039e-02 7.823331832885742188e+00 2.343187570571899414e+00 -4.486310854554176331e-02
4.221000000000000000e+03 2.672299194335937500e+01 1.367002677917480469e+01 5.597592517733573914e-02 8.137560844421386719e+00 2.458061218261718750e+00 6.346376985311508179e-02
4.222000000000000000e+03 7.071618652343750000e+01 -2.164204597473144531e+01 -5.896272137761116028e-03 7.812400817871093750e+00 2.341951370239257812e+00 -5.120021849870681763e-02
4.223000000000000000e+03 3.076558113098144531e+01 2.031987762451171875e+01 7.982106506824493408e-02 8.022699356079101562e+00 2.430756092071533203e+00 1.345915137790143490e-03
4.224000000000000000e+03 3.064839172363281250e+01 -2.311578369140625000e+01 -4.684348404407501221e-02 7.498025417327880859e+00 2.235354661941528320e+00 9.489793330430984497e-02
4.225000000000000000e+03 6.917205810546875000e+01 2.345728492736816406e+01 8.800206705927848816e-03 7.690963745117187500e+00 2.309929132461547852e+00 -6.664998363703489304e-03
4.226000000000000000e+03 2.887753677368164062e+01 -1.661643791198730469e+01 -2.645686268806457520e-02 7.581946849822998047e+00 2.266647100448608398e+00 9.245217591524124146e-02
4.227000000000000000e+03 6.894384002685546875e+01 3.066945457458496094e+01 2.816841239109635353e-03 7.692160129547119141e+00 2.308493137359619141e+00 5.054606590420007706e-04
4.228000000000000000e+03 2.788632392883300781e+01 -1.756766510009765625e+01 -4.084197431802749634e-02 7.562556266784667969e+00 2.256514310836791992e+00 1.036953032016754150e-01
4.229000000000000000e+03 3.236852264404296875e+01 3.065971755981445312e+01 1.087835654616355896e-01 7.881857395172119141e+00 2.397192239761352539e+00 3.967962041497230530e-02
4.230000000000000000e+03 7.008686828613281250e+01 -2.262103080749511719e+01 -9.428028017282485962e-03 7.811843872070312500e+00 2.340724706649780273e+00 -5.167595297098159790e-02
4.231000000000000000e+03 6.979074859619140625e+01 -3.033172798156738281e+01 -1.523982547223567963e-02 7.830456733703613281e+00 2.344564914703369141e+00 -3.787728026509284973e-02
4.232000000000000000e+03 6.771951293945312500e+01 -3.549242782592773438e+01 -2.552760392427444458e-02 7.824737071990966797e+00 2.339762926101684570e+00 -2.471214532852172852e-02
4.233000000000000000e+03 6.921358489990234375e+01 1.816224861145019531e+01 1.132003404200077057e-02 7.693651676177978516e+00 2.311491489410400391e+00 -1.544160209596157074e-02
4.234000000000000000e+03 6.991142272949218750e+01 1.705554008483886719e+01 1.172990072518587112e-02 7.691453933715820312e+00 2.310955047607421875e+00 -1.730394363403320312e-02
4.235000000000000000e+03 7.020880126953125000e+01 2.264911651611328125e+01 7.189119700342416763e-03 7.684998512268066406e+00 2.307656288146972656e+00 -7.342562079429626465e-03
4.236000000000000000e+03 6.871588897705078125e+01 2.083370208740234375e+01 1.133193820714950562e-02 7.694741725921630859e+00 2.311822175979614258e+00 -1.054509542882442474e-02
4.237000000000000000e+03 3.073738861083984375e+01 2.547187995910644531e+01 1.057084947824478149e-01 7.985134124755859375e+00 2.427252769470214844e+00 -2.275940775871276855e-02
4.238000000000000000e+03 3.042740249633789062e+01 2.719062232971191406e+01 1.188860684633255005e-01 7.965601921081542969e+00 2.425346374511718750e+00 -2.716890722513198853e-02
4.239000000000000000e+03 6.966751098632812500e+01 -2.852695465087890625e+01 -1.260928437113761902e-02 7.826125621795654297e+00 2.344054937362670898e+00 -4.094041883945465088e-02
4.240000000000000000e+03 6.800647735595703125e+01 -3.038037490844726562e+01 -1.813429407775402069e-02 7.818707942962646484e+00 2.340172052383422852e+00 -4.006637632846832275e-02
4.241000000000000000e+03 7.105361175537109375e+01 -2.846083068847656250e+01 -1.039139553904533386e-02 7.836369991302490234e+00 2.347793579101562500e+00 -3.872889280319213867e-02
4.242000000000000000e+03 3.438401031494140625e+01 -3.230443191528320312e+01 -7.791899144649505615e-02 7.425790309906005859e+00 2.204361438751220703e+00 -3.618204593658447266e-02
4.243000000000000000e+03 3.144669151306152344e+01 -2.825115013122558594e+01 -1.202410086989402771e-02 7.405902385711669922e+00 2.218163490295410156e+00 5.818334594368934631e-02
4.244000000000000000e+03 7.170943450927734375e+01 -4.118142318725585938e+01 -1.195756439119577408e-02 7.868750572204589844e+00 2.357038021087646484e+00 -3.391916863620281219e-03
4.245000000000000000e+03 7.063251495361328125e+01 -3.861600875854492188e+01 -1.654868386685848236e-02 7.853973388671875000e+00 2.351227521896362305e+00 -1.011106651276350021e-02
4.246000000000000000e+03 6.417946624755859375e+01 3.530616760253906250e+01 3.485656634438782930e-04 7.725965023040771484e+00 2.317894220352172852e+00 3.023956669494509697e-03
4.247000000000000000e+03 7.814408779144287109e+00 -9.551650047302246094e+00 1.401388552039861679e-03 2.597314014565199614e-04 4.983359831385314465e-04 -2.393107570242136717e-05
4.248000000000000000e+03 8.102613449096679688e+00 1.744606781005859375e+01 -8.764579251874238253e-05 -2.375773154199123383e-03 -7.390257087536156178e-04 5.478906678035855293e-04
4.249000000000000000e+03 7.051638031005859375e+01 -8.023313522338867188e+00 2.764967270195484161e-03 7.757697582244873047e+00 2.328138828277587891e+00 -5.677027627825737000e-02
4.250000000000000000e+03 8.049700736999511719e+00 8.283957481384277344e+00 -4.141448589507490396e-04 -1.301592128584161401e-04 -1.632912171771749854e-04 2.111139183398336172e-04
4.251000000000000000e+03 8.261868476867675781e+00 2.124837684631347656e+01 7.476216997019946575e-04 5.362217198126018047e-04 3.851530200336128473e-04 -2.021488267928361893e-03
4.252000000000000000e+03 7.010485076904296875e+01 3.790155172348022461e+00 1.032578665763139725e-02 7.716397285461425781e+00 2.318016767501831055e+00 -4.355002194643020630e-02
4.253000000000000000e+03 6.922370147705078125e+01 2.154178142547607422e+00 1.160054467618465424e-02 7.722400665283203125e+00 2.320200443267822266e+00 -4.870989546179771423e-02
4.254000000000000000e+03 3.206169509887695312e+01 1.577267551422119141e+01 9.194912761449813843e-02 7.992930889129638672e+00 2.425463914871215820e+00 3.131736442446708679e-02
4.255000000000000000e+03 8.062148094177246094e+00 -1.370630645751953125e+01 1.394960330799221992e-03 1.053066691383719444e-03 7.344080950133502483e-04 -9.707242134027183056e-04
4.256000000000000000e+03 6.968619537353515625e+01 -1.091518306732177734e+01 1.001032651402056217e-03 7.767300605773925781e+00 2.330490589141845703e+00 -6.076031923294067383e-02
4.257000000000000000e+03 3.051753997802734375e+01 1.109401798248291016e+01 1.115419492125511169e-01 8.005373954772949219e+00 2.435074806213378906e+00 6.436619907617568970e-02
4.258000000000000000e+03 3.061603546142578125e+01 1.434500789642333984e+01 8.915627002716064453e-02 8.023451805114746094e+00 2.433782577514648438e+00 4.625351354479789734e-02
4.259000000000000000e+03 3.090220260620117188e+01 2.923894166946411133e+00 1.104714050889015198e-01 7.904691696166992188e+00 2.404548883438110352e+00 3.877256065607070923e-02
4.260000000000000000e+03 6.952343750000000000e+01 -1.719995117187500000e+01 -4.883931484073400497e-03 7.790144920349121094e+00 2.335578203201293945e+00 -5.946662276983261108e-02
4.261000000000000000e+03 6.880032348632812500e+01 -1.812459373474121094e+01 -5.288862623274326324e-03 7.790505886077880859e+00 2.335565090179443359e+00 -6.165003031492233276e-02
4.262000000000000000e+03 6.933094024658203125e+01 -9.946233749389648438e+00 2.122294390574097633e-03 7.762852191925048828e+00 2.329492330551147461e+00 -6.226732209324836731e-02
4.263000000000000000e+03 7.069055175781250000e+01 -4.236741065979003906e+00 5.208927206695079803e-03 7.742912769317626953e+00 2.324436426162719727e+00 -5.300221592187881470e-02
4.264000000000000000e+03 6.917325592041015625e+01 5.181062698364257812e+00 1.252364367246627808e-02 7.714864730834960938e+00 2.318216562271118164e+00 -4.322527348995208740e-02
4.265000000000000000e+03 7.025614929199218750e+01 -1.639071273803710938e+01 -2.632442628964781761e-03 7.790147304534912109e+00 2.336254358291625977e+00 -5.774972587823867798e-02
4.266000000000000000e+03 8.383875846862792969e+00 -2.039234542846679688e+01 -4.768317157868295908e-04 -4.276996012777090073e-03 -1.426148344762623310e-03 1.979300985112786293e-03
4.267000000000000000e+03 6.814583587646484375e+01 1.147269344329833984e+01 1.566959358751773834e-02 7.705949306488037109e+00 2.316485643386840820e+00 -3.145241737365722656e-02
4.268000000000000000e+03 6.853089141845703125e+01 1.220149517059326172e+01 1.524052023887634277e-02 7.703259944915771484e+00 2.315550088882446289e+00 -2.862518467009067535e-02
4.269000000000000000e+03 3.048459434509277344e+01 -1.538452029228210449e+00 4.053853079676628113e-02 7.861726760864257812e+00 2.370679616928100586e+00 5.372168496251106262e-02
4.270000000000000000e+03 2.975231552124023438e+01 -3.129454612731933594e+00 1.543425954878330231e-02 7.848297119140625000e+00 2.359119415283203125e+00 7.883983850479125977e-02
4.271000000000000000e+03 6.961611938476562500e+01 -1.562135314941406250e+01 -3.089418401941657066e-03 7.784596920013427734e+00 2.334452390670776367e+00 -6.015139445662498474e-02
4.272000000000000000e+03 2.985932922363281250e+01 -3.887816190719604492e+00 8.426113985478878021e-03 7.832168579101562500e+00 2.352178335189819336e+00 8.312949538230895996e-02
4.273000000000000000e+03 2.997081375122070312e+01 -6.546101093292236328e+00 2.964852843433618546e-03 7.778683662414550781e+00 2.334494590759277344e+00 1.044113785028457642e-01
4.274000000000000000e+03 3.005361557006835938e+01 -1.172231197357177734e+01 1.206225715577602386e-02 7.663724422454833984e+00 2.302736043930053711e+00 1.018823385238647461e-01
4.275000000000000000e+03 3.021526527404785156e+01 -9.562480926513671875e+00 1.281284540891647339e-02 7.707807064056396484e+00 2.316185951232910156e+00 1.047527790069580078e-01
4.276000000000000000e+03 2.983530044555664062e+01 -7.341401100158691406e+00 7.432430284097790718e-04 7.762179374694824219e+00 2.328876733779907227e+00 1.095704957842826843e-01
4.277000000000000000e+03 2.969202232360839844e+01 -1.964248567819595337e-01 5.738839879631996155e-02 7.892983913421630859e+00 2.385111570358276367e+00 5.656788870692253113e-02
4.278000000000000000e+03 3.049412727355957031e+01 -1.242712363600730896e-01 6.175111979246139526e-02 7.879995822906494141e+00 2.382524013519287109e+00 4.535779356956481934e-02
4.279000000000000000e+03 2.905447196960449219e+01 1.265067195892333984e+01 8.855913579463958740e-02 8.059930801391601562e+00 2.444546937942504883e+00 6.652347743511199951e-02
4.280000000000000000e+03 2.979187011718750000e+01 1.180100250244140625e+01 1.015919446945190430e-01 8.030380249023437500e+00 2.439591646194458008e+00 6.652287393808364868e-02
4.281000000000000000e+03 3.043281555175781250e+01 6.760842800140380859e+00 1.383954882621765137e-01 7.958560466766357422e+00 2.429086685180664062e+00 6.328138709068298340e-02
4.282000000000000000e+03 2.913657188415527344e+01 4.931092739105224609e+00 1.410246044397354126e-01 7.965365409851074219e+00 2.431916952133178711e+00 6.965791434049606323e-02
4.283000000000000000e+03 3.079577255249023438e+01 2.115081548690795898e+00 9.966459125280380249e-02 7.899147510528564453e+00 2.399643659591674805e+00 3.952340036630630493e-02
4.284000000000000000e+03 2.998548507690429688e+01 2.869385957717895508e+00 1.122509613633155823e-01 7.922179698944091797e+00 2.410329341888427734e+00 4.904549941420555115e-02
4.285000000000000000e+03 3.050084304809570312e+01 -2.232595920562744141e+00 3.278383240103721619e-02 7.853701591491699219e+00 2.365945577621459961e+00 5.946912616491317749e-02
4.286000000000000000e+03 7.049202728271484375e+01 6.752548217773437500e+00 1.046223007142543793e-02 7.707364559173583984e+00 2.315347909927368164e+00 -3.655759245157241821e-02
4.287000000000000000e+03 6.838561248779296875e+01 6.630430221557617188e+00 1.438578870147466660e-02 7.713459014892578125e+00 2.318353414535522461e+00 -4.169490188360214233e-02
4.288000000000000000e+03 7.028118133544921875e+01 1.560521316528320312e+01 1.057043857872486115e-02 7.690417289733886719e+00 2.310296297073364258e+00 -1.914847455918788910e-02
4.289000000000000000e+03 6.814215850830078125e+01 1.499839591979980469e+01 1.557563524693250656e-02 7.701823711395263672e+00 2.315219879150390625e+00 -2.356924302875995636e-02
4.290000000000000000e+03 2.961462402343750000e+01 7.269994258880615234e+00 1.398314982652664185e-01 7.985560894012451172e+00 2.437617778778076172e+00 7.676003128290176392e-02
4.291000000000000000e+03 3.081980705261230469e+01 1.035022640228271484e+01 1.197553873062133789e-01 7.987484931945800781e+00 2.432172060012817383e+00 6.353845447301864624e-02
4.292000000000000000e+03 3.047784996032714844e+01 -8.364838361740112305e-01 5.121769756078720093e-02 7.872371673583984375e+00 2.377076864242553711e+00 4.984185844659805298e-02
4.293000000000000000e+03 2.997200775146484375e+01 4.392041206359863281e+00 1.312162727117538452e-01 7.940087795257568359e+00 2.421391248703002930e+00 5.644673109054565430e-02
4.294000000000000000e+03 3.070572662353515625e+01 1.571629047393798828e+01 8.319047838449478149e-02 8.028839111328125000e+00 2.433608770370483398e+00 3.548678010702133179e-02
4.295000000000000000e+03 3.006708717346191406e+01 1.519583606719970703e+01 8.075751364231109619e-02 8.039131164550781250e+00 2.435966730117797852e+00 4.197803512215614319e-02
4.296000000000000000e+03 7.033528137207031250e+01 -7.803587317466735840e-01 7.630263920873403549e-03 7.730290412902832031e+00 2.321376085281372070e+00 -4.983252659440040588e-02
4.297000000000000000e+03 6.889459991455078125e+01 -1.126344799995422363e+00 9.695868007838726044e-03 7.732374191284179688e+00 2.322621107101440430e+00 -5.505516380071640015e-02
4.298000000000000000e+03 6.920703125000000000e+01 9.460235595703125000e+00 1.383593119680881500e-02 7.705217361450195312e+00 2.315716028213500977e+00 -3.369456529617309570e-02
4.299000000000000000e+03 6.944158935546875000e+01 8.700386047363281250e+00 1.244122628122568130e-02 7.705949306488037109e+00 2.315517187118530273e+00 -3.502501919865608215e-02
4.300000000000000000e+03 3.005394554138183594e+01 -1.465221881866455078e+01 7.235947996377944946e-04 7.619149684906005859e+00 2.285962104797363281e+00 8.533948659896850586e-02
4.301000000000000000e+03 3.019721984863281250e+01 -1.368733024597167969e+01 3.404816612601280212e-03 7.629371643066406250e+00 2.289833068847656250e+00 8.689255267381668091e-02
4.302000000000000000e+03 6.971247100830078125e+01 -1.887100219726562500e+01 -6.176264025270938873e-03 7.796959400177001953e+00 2.337234973907470703e+00 -5.726446211338043213e-02
4.303000000000000000e+03 6.949536132812500000e+01 7.815149307250976562e+00 1.263939216732978821e-02 7.707929134368896484e+00 2.316170692443847656e+00 -3.701048344373703003e-02
4.304000000000000000e+03 2.987912368774414062e+01 -1.557389259338378906e+01 -1.343487016856670380e-02 7.602394580841064453e+00 2.276687860488891602e+00 8.175213634967803955e-02
4.305000000000000000e+03 6.936298370361328125e+01 -7.814022153615951538e-02 9.603903628885746002e-03 7.728626251220703125e+00 2.321469068527221680e+00 -5.187356099486351013e-02
4.306000000000000000e+03 6.990972900390625000e+01 -2.084199523925781250e+01 -7.751677650958299637e-03 7.804815769195556641e+00 2.339119195938110352e+00 -5.444937571883201599e-02
4.307000000000000000e+03 6.891056060791015625e+01 -2.509449768066406250e+01 -1.347351726144552231e-02 7.812201976776123047e+00 2.339618444442749023e+00 -5.119095742702484131e-02
4.308000000000000000e+03 6.948233032226562500e+01 -2.377355766296386719e+01 -9.178347885608673096e-03 7.811639308929443359e+00 2.340738296508789062e+00 -5.158225074410438538e-02
4.309000000000000000e+03 7.039384460449218750e+01 -1.278621101379394531e+01 -4.274204839020967484e-04 7.776351451873779297e+00 2.332777261734008789e+00 -5.816651508212089539e-02
4.310000000000000000e+03 7.072818756103515625e+01 -1.365334224700927734e+01 -8.305602823384106159e-04 7.781066894531250000e+00 2.334070920944213867e+00 -5.685264989733695984e-02
4.311000000000000000e+03 6.791544342041015625e+01 1.789108467102050781e+01 1.470773201435804367e-02 7.700448036193847656e+00 2.314546823501586914e+00 -1.755498535931110382e-02
4.312000000000000000e+03 6.999101257324218750e+01 1.970771789550781250e+01 9.591020643711090088e-03 7.688313961029052734e+00 2.309371471405029297e+00 -1.207641698420047760e-02
4.313000000000000000e+03 7.117893218994140625e+01 -6.259383201599121094e+00 3.888800507411360741e-03 7.751080989837646484e+00 2.326490879058837891e+00 -5.271540209650993347e-02
4.314000000000000000e+03 7.021002197265625000e+01 -5.292740821838378906e+00 5.091508384793996811e-03 7.746689319610595703e+00 2.325534343719482422e+00 -5.580123886466026306e-02
4.315000000000000000e+03 6.623867034912109375e+01 2.097917938232421875e+01 1.547198928892612457e-02 7.706840991973876953e+00 2.316694021224975586e+00 -1.062586158514022827e-02
4.316000000000000000e+03 6.983238983154296875e+01 2.182751846313476562e+01 8.961867541074752808e-03 7.687574863433837891e+00 2.308961153030395508e+00 -8.917924016714096069e-03
4.317000000000000000e+03 2.874181747436523438e+01 -1.867671203613281250e+01 -5.630697682499885559e-02 7.551993370056152344e+00 2.248705863952636719e+00 9.907923638820648193e-02
4.318000000000000000e+03 2.780218315124511719e+01 -2.154308700561523438e+01 -6.576270610094070435e-02 7.498613357543945312e+00 2.229855298995971680e+00 1.372511237859725952e-01
4.319000000000000000e+03 3.451116561889648438e+01 2.467536926269531250e+01 9.653765708208084106e-02 7.917618751525878906e+00 2.404247045516967773e+00 1.381877064704895020e-02
4.320000000000000000e+03 3.019568061828613281e+01 1.816540908813476562e+01 7.497468590736389160e-02 8.042302131652832031e+00 2.435183048248291016e+00 1.690923608839511871e-02
4.321000000000000000e+03 3.050067520141601562e+01 1.918769645690917969e+01 7.312113046646118164e-02 8.030166625976562500e+00 2.430986404418945312e+00 1.121453288942575455e-02
4.322000000000000000e+03 2.903806304931640625e+01 -6.546646118164062500e+00 -5.928350146859884262e-03 7.782680511474609375e+00 2.333025693893432617e+00 1.229620724916458130e-01
4.323000000000000000e+03 2.904063987731933594e+01 -8.179844856262207031e+00 2.257639076560735703e-03 7.740790843963623047e+00 2.322914361953735352e+00 1.314401626586914062e-01
4.324000000000000000e+03 2.992564964294433594e+01 -8.060008049011230469e+00 6.664593704044818878e-03 7.744699001312255859e+00 2.325409173965454102e+00 1.111641079187393188e-01
4.325000000000000000e+03 3.188181114196777344e+01 2.008070945739746094e+01 8.369049429893493652e-02 7.992568016052246094e+00 2.422877550125122070e+00 8.692077361047267914e-03
4.326000000000000000e+03 6.929399108886718750e+01 1.611333274841308594e+01 1.194839365780353546e-02 7.695519924163818359e+00 2.312240362167358398e+00 -1.957446150481700897e-02
4.327000000000000000e+03 3.283912277221679688e+01 -2.672418594360351562e+01 -2.860554307699203491e-02 7.470911502838134766e+00 2.232691764831542969e+00 4.477797821164131165e-02
4.328000000000000000e+03 3.339005279541015625e+01 2.528790664672851562e+01 1.003050580620765686e-01 7.934402465820312500e+00 2.410412311553955078e+00 8.569308556616306305e-03
4.329000000000000000e+03 3.273863983154296875e+01 2.637218856811523438e+01 1.090763062238693237e-01 7.936290264129638672e+00 2.413609981536865234e+00 5.568063716054894030e-05
4.330000000000000000e+03 3.206883621215820312e+01 2.723855781555175781e+01 1.101138368248939514e-01 7.940227031707763672e+00 2.415102243423461914e+00 -5.460631567984819412e-03
4.331000000000000000e+03 6.580281829833984375e+01 -3.223805236816406250e+01 -2.667969278991222382e-02 7.806233406066894531e+00 2.333866119384765625e+00 -3.772705048322677612e-02
4.332000000000000000e+03 6.781330871582031250e+01 2.586878395080566406e+01 8.434069342911243439e-03 7.697899818420410156e+00 2.311900138854980469e+00 -3.622455755248665810e-03
4.333000000000000000e+03 6.748843383789062500e+01 2.244259262084960938e+01 1.213825959712266922e-02 7.700319290161132812e+00 2.313737154006958008e+00 -8.125905878841876984e-03
4.334000000000000000e+03 6.894849395751953125e+01 -2.621980428695678711e+00 8.277871645987033844e-03 7.737351417541503906e+00 2.323688745498657227e+00 -5.698895826935768127e-02
4.335000000000000000e+03 6.941057586669921875e+01 -5.494447708129882812e+00 5.845740437507629395e-03 7.747002601623535156e+00 2.325854539871215820e+00 -5.913161486387252808e-02
4.336000000000000000e+03 6.848735046386718750e+01 1.389141917228698730e+00 1.176266465336084366e-02 7.726190090179443359e+00 2.321385860443115234e+00 -5.241548642516136169e-02
4.337000000000000000e+03 3.150429344177246094e+01 -4.866280555725097656e+00 1.488148327916860580e-02 7.801713466644287109e+00 2.344978332519531250e+00 6.270401179790496826e-02
4.338000000000000000e+03 3.155008506774902344e+01 -3.355002641677856445e+00 2.642413787543773651e-02 7.821795940399169922e+00 2.354465961456298828e+00 5.239798501133918762e-02
4.339000000000000000e+03 6.842277526855468750e+01 -1.036197280883789062e+01 1.688519376330077648e-03 7.762572288513183594e+00 2.329278230667114258e+00 -6.528718024492263794e-02
4.340000000000000000e+03 6.913437652587890625e+01 -1.232310771942138672e+01 -2.329442504560574889e-04 7.771126270294189453e+00 2.331268072128295898e+00 -6.296923011541366577e-02
4.341000000000000000e+03 2.989031982421875000e+01 1.336437988281250000e+01 8.981505036354064941e-02 8.039385795593261719e+00 2.438760280609130859e+00 5.642997473478317261e-02
4.342000000000000000e+03 3.230032348632812500e+01 1.408832073211669922e+01 1.003267467021942139e-01 7.982001304626464844e+00 2.424698352813720703e+00 3.910550102591514587e-02
4.343000000000000000e+03 3.156552886962890625e+01 1.088473510742187500e+01 1.161225736141204834e-01 7.974990367889404297e+00 2.427333831787109375e+00 5.435499176383018494e-02
4.344000000000000000e+03 3.064889144897460938e+01 1.246720504760742188e+01 1.013611480593681335e-01 8.010616302490234375e+00 2.433593273162841797e+00 5.739383399486541748e-02
4.345000000000000000e+03 3.068268203735351562e+01 8.855632781982421875e+00 1.283064186573028564e-01 7.975360870361328125e+00 2.431100130081176758e+00 6.620129942893981934e-02
4.346000000000000000e+03 3.125376319885253906e+01 -7.318325340747833252e-02 6.539569795131683350e-02 7.869711875915527344e+00 2.380532264709472656e+00 3.749657794833183289e-02
4.347000000000000000e+03 3.055585289001464844e+01 6.006656289100646973e-01 7.477530092000961304e-02 7.887828350067138672e+00 2.388781070709228516e+00 4.326687008142471313e-02
4.348000000000000000e+03 6.991723632812500000e+01 -1.415663623809814453e+01 -1.629045349545776844e-03 7.780173301696777344e+00 2.333563327789306641e+00 -5.969621613621711731e-02
4.349000000000000000e+03 6.981509399414062500e+01 -8.558295249938964844e+00 3.145130118355154991e-03 7.758652687072753906e+00 2.328539371490478516e+00 -5.977219343185424805e-02
4.350000000000000000e+03 6.894520568847656250e+01 -8.980986595153808594e+00 2.835543593391776085e-03 7.758901119232177734e+00 2.328521013259887695e+00 -6.296727806329727173e-02
4.351000000000000000e+03 3.169920158386230469e+01 -4.080403804779052734e+00 2.331338450312614441e-02 7.814806938171386719e+00 2.351436138153076172e+00 5.256737023591995239e-02
4.352000000000000000e+03 3.056998825073242188e+01 -2.930840730667114258e+00 2.314326912164688110e-02 7.839741230010986328e+00 2.358865261077880859e+00 6.349223107099533081e-02
4.353000000000000000e+03 3.193314361572265625e+01 -3.294221311807632446e-02 6.817315518856048584e-02 7.858560085296630859e+00 2.378019809722900391e+00 3.063435852527618408e-02
4.354000000000000000e+03 3.112795448303222656e+01 -1.145268917083740234e+01 1.165270712226629257e-02 7.675383090972900391e+00 2.306110620498657227e+00 8.177258074283599854e-02
4.355000000000000000e+03 3.114631843566894531e+01 -5.766239166259765625e+00 1.127474289387464523e-02 7.789113998413085938e+00 2.340116500854492188e+00 7.428544014692306519e-02
4.356000000000000000e+03 7.039113616943359375e+01 -1.496889591217041016e+01 -1.722692511975765228e-03 7.785136222839355469e+00 2.335024118423461914e+00 -5.787347629666328430e-02
4.357000000000000000e+03 3.233788299560546875e+01 1.841472434997558594e+01 8.706686645746231079e-02 7.986391067504882812e+00 2.422037363052368164e+00 1.904257573187351227e-02
4.358000000000000000e+03 3.143163681030273438e+01 1.215535068511962891e+01 1.086150407791137695e-01 7.989713191986083984e+00 2.429498434066772461e+00 5.283002927899360657e-02
4.359000000000000000e+03 2.984790039062500000e+01 1.258126068115234375e+01 9.668794274330139160e-02 8.035687446594238281e+00 2.439712524414062500e+00 6.047653034329414368e-02
4.360000000000000000e+03 3.128890609741210938e+01 1.643319702148437500e+01 8.465518802404403687e-02 8.011353492736816406e+00 2.428802728652954102e+00 3.145444393157958984e-02
4.361000000000000000e+03 3.262711334228515625e+01 1.675681877136230469e+01 9.147393703460693359e-02 7.979099273681640625e+00 2.421171903610229492e+00 2.666677348315715790e-02
4.362000000000000000e+03 3.098731422424316406e+01 7.522524833679199219e+00 1.348511874675750732e-01 7.953720569610595703e+00 2.426571607589721680e+00 6.012332066893577576e-02
4.363000000000000000e+03 3.216645050048828125e+01 1.015212726593017578e+01 1.211382597684860229e-01 7.953343391418457031e+00 2.422344446182250977e+00 4.974874481558799744e-02
4.364000000000000000e+03 2.904389381408691406e+01 6.524929046630859375e+00 1.461808681488037109e-01 7.991313457489013672e+00 2.441248178482055664e+00 8.168579638004302979e-02
4.365000000000000000e+03 6.902176666259765625e+01 -1.997212219238281250e+01 -6.553538143634796143e-03 7.797352313995361328e+00 2.337239503860473633e+00 -5.906395986676216125e-02
4.366000000000000000e+03 3.055772209167480469e+01 -7.589062690734863281e+00 7.483446504920721054e-03 7.753066539764404297e+00 2.328164815902709961e+00 9.630765020847320557e-02
4.367000000000000000e+03 6.983198547363281250e+01 7.063120841979980469e+00 1.141987647861242294e-02 7.708506584167480469e+00 2.315977811813354492e+00 -3.768300265073776245e-02
4.368000000000000000e+03 3.086449050903320312e+01 4.628964424133300781e+00 1.283250749111175537e-01 7.921728610992431641e+00 2.415016174316406250e+00 4.687178134918212891e-02
4.369000000000000000e+03 3.132980728149414062e+01 -2.724408864974975586e+00 3.285480290651321411e-02 7.834215164184570312e+00 2.360121011734008789e+00 5.079738423228263855e-02
4.370000000000000000e+03 3.132286453247070312e+01 -1.444979667663574219e+00 4.766229167580604553e-02 7.854121208190917969e+00 2.370534896850585938e+00 4.274290427565574646e-02
4.371000000000000000e+03 3.149489974975585938e+01 1.294948220252990723e+00 8.772751688957214355e-02 7.879521846771240234e+00 2.390174865722656250e+00 3.297072276473045349e-02
4.372000000000000000e+03 3.189880752563476562e+01 2.955601930618286133e+00 1.085963919758796692e-01 7.887888908386230469e+00 2.398945569992065430e+00 3.102995455265045166e-02
4.373000000000000000e+03 6.805047607421875000e+01 1.636417007446289062e+01 1.453316491097211838e-02 7.700206756591796875e+00 2.314422130584716797e+00 -1.957181096076965332e-02
4.374000000000000000e+03 3.022899627685546875e+01 -1.270903873443603516e+01 1.222036592662334442e-02 7.648377418518066406e+00 2.298179388046264648e+00 9.139402210712432861e-02
4.375000000000000000e+03 3.014699745178222656e+01 8.056450843811035156e+00 1.347900480031967163e-01 7.982693672180175781e+00 2.435245037078857422e+00 7.100990414619445801e-02
4.376000000000000000e+03 2.914203453063964844e+01 -1.268688011169433594e+01 1.572700776159763336e-02 7.637723445892333984e+00 2.296035051345825195e+00 1.123456731438636780e-01
4.377000000000000000e+03 6.877313232421875000e+01 -1.134992980957031250e+01 9.064553305506706238e-04 7.766771793365478516e+00 2.330303430557250977e+00 -6.452402472496032715e-02
4.378000000000000000e+03 6.644421386718750000e+01 1.944754981994628906e+01 1.670401915907859802e-02 7.706993103027343750e+00 2.317109107971191406e+00 -1.474042236804962158e-02
4.379000000000000000e+03 3.181072044372558594e+01 1.735033035278320312e+01 8.615721762180328369e-02 8.002007484436035156e+00 2.426449298858642578e+00 2.261079661548137665e-02
4.380000000000000000e+03 3.100766754150390625e+01 1.783730316162109375e+01 7.898738235235214233e-02 8.018959045410156250e+00 2.429383754730224609e+00 2.232285216450691223e-02
4.381000000000000000e+03 6.872615814208984375e+01 8.736431121826171875e+00 1.446862425655126572e-02 7.708499431610107422e+00 2.316890478134155273e+00 -3.660413995385169983e-02
4.382000000000000000e+03 6.855438232421875000e+01 7.759172439575195312e+00 1.446823403239250183e-02 7.710555553436279297e+00 2.317507028579711914e+00 -3.881905600428581238e-02
4.383000000000000000e+03 2.887102508544921875e+01 -1.765648651123046875e+01 -2.971595339477062225e-02 7.568873405456542969e+00 2.261747121810913086e+00 9.296549856662750244e-02
4.384000000000000000e+03 6.904611968994140625e+01 7.566202282905578613e-01 1.050863787531852722e-02 7.726884365081787109e+00 2.321218013763427734e+00 -5.153883993625640869e-02
4.385000000000000000e+03 6.858464813232421875e+01 -3.853998780250549316e-01 1.093887630850076675e-02 7.730665206909179688e+00 2.322481155395507812e+00 -5.514382943511009216e-02
4.386000000000000000e+03 6.958989715576171875e+01 -9.231136441230773926e-01 9.060540236532688141e-03 7.731282234191894531e+00 2.322102785110473633e+00 -5.285638198256492615e-02
4.387000000000000000e+03 6.839933013916015625e+01 -2.662409591674804688e+01 -1.449621748179197311e-02 7.812897682189941406e+00 2.339520454406738281e+00 -4.863643273711204529e-02
4.388000000000000000e+03 2.983716011047363281e+01 6.074664592742919922e+00 1.411804258823394775e-01 7.962035655975341797e+00 2.430964946746826172e+00 6.711570173501968384e-02
4.389000000000000000e+03 6.913269805908203125e+01 -2.190354347229003906e+01 -8.364805951714515686e-03 7.803820133209228516e+00 2.338636636734008789e+00 -5.619310587644577026e-02
4.390000000000000000e+03 2.974764442443847656e+01 -1.830507469177246094e+01 -4.179532825946807861e-02 7.567338943481445312e+00 2.257663011550903320e+00 8.537530153989791870e-02
4.391000000000000000e+03 7.006401062011718750e+01 -7.250164031982421875e+00 3.908676560968160629e-03 7.754329204559326172e+00 2.327471256256103516e+00 -5.818482860922813416e-02
4.392000000000000000e+03 6.995320129394531250e+01 -4.387813568115234375e+00 6.128613837063312531e-03 7.743130683898925781e+00 2.324777841567993164e+00 -5.596744641661643982e-02
4.393000000000000000e+03 6.894438171386718750e+01 -6.702864646911621094e+00 5.290562286972999573e-03 7.750828742980957031e+00 2.326835870742797852e+00 -6.185889244079589844e-02
4.394000000000000000e+03 3.229222869873046875e+01 -2.372557449340820312e+01 -3.976742178201675415e-02 7.515564441680908203e+00 2.242739200592041016e+00 6.197370588779449463e-02
4.395000000000000000e+03 6.900177001953125000e+01 -3.566602945327758789e+00 7.814531214535236359e-03 7.740198612213134766e+00 2.324404001235961914e+00 -5.827526375651359558e-02
4.396000000000000000e+03 3.088442039489746094e+01 -6.724874973297119141e+00 6.674630567431449890e-03 7.768061637878417969e+00 2.332420825958251953e+00 8.423484116792678833e-02
4.397000000000000000e+03 7.023781585693359375e+01 4.967456817626953125e+00 1.046758703887462616e-02 7.712367534637451172e+00 2.316850662231445312e+00 -4.050052538514137268e-02
4.398000000000000000e+03 6.939653015136718750e+01 6.266936302185058594e+00 1.253748591989278793e-02 7.711276531219482422e+00 2.317144155502319336e+00 -3.999146819114685059e-02
4.399000000000000000e+03 3.089955902099609375e+01 -9.023088455200195312e+00 9.619675576686859131e-03 7.725507259368896484e+00 2.320538043975830078e+00 8.950519561767578125e-02
4.400000000000000000e+03 3.234612655639648438e+01 -8.434500694274902344e+00 1.249462645500898361e-02 7.734783172607421875e+00 2.324183225631713867e+00 6.360270082950592041e-02
4.401000000000000000e+03 6.604926300048828125e+01 2.259836387634277344e+01 1.435602921992540359e-02 7.708746433258056641e+00 2.316930770874023438e+00 -8.787508122622966766e-03
4.402000000000000000e+03 6.838819885253906250e+01 -2.309867477416992188e+01 -1.269311923533678055e-02 7.803456783294677734e+00 2.337229251861572266e+00 -5.595233663916587830e-02
4.403000000000000000e+03 6.666888427734375000e+01 1.310480785369873047e+01 1.868979632854461670e-02 7.709206104278564453e+00 2.318368673324584961e+00 -2.900123782455921173e-02
4.404000000000000000e+03 6.858623504638671875e+01 1.294595623016357422e+01 1.491530146449804306e-02 7.702287673950195312e+00 2.315160989761352539e+00 -2.758892066776752472e-02
4.405000000000000000e+03 6.903481292724609375e+01 1.102086353302001953e+01 1.409517973661422729e-02 7.703122138977050781e+00 2.315165281295776367e+00 -3.054363094270229340e-02
4.406000000000000000e+03 6.915692138671875000e+01 1.497602462768554688e+01 1.331666763871908188e-02 7.696866989135742188e+00 2.313055038452148438e+00 -2.158721163868904114e-02
4.407000000000000000e+03 3.278729248046875000e+01 -3.013607406616210938e+01 -2.284338138997554779e-02 7.417373180389404297e+00 2.218358993530273438e+00 8.467466570436954498e-03
4.408000000000000000e+03 3.080899238586425781e+01 -2.137759399414062500e+01 -4.845352470874786377e-02 7.534962654113769531e+00 2.245952606201171875e+00 8.254375308752059937e-02
4.409000000000000000e+03 3.043824958801269531e+01 -1.965777778625488281e+01 -4.982500895857810974e-02 7.557558059692382812e+00 2.252319812774658203e+00 7.986316829919815063e-02
4.410000000000000000e+03 6.751673889160156250e+01 2.091403961181640625e+01 1.349229831248521805e-02 7.701602458953857422e+00 2.314528465270996094e+00 -1.164056267589330673e-02
4.411000000000000000e+03 6.416370391845703125e+01 -3.086998176574707031e+01 -3.148519992828369141e-02 7.793264389038085938e+00 2.328533887863159180e+00 -4.489385336637496948e-02
4.412000000000000000e+03 6.887198638916015625e+01 1.951212692260742188e+01 1.230560522526502609e-02 7.695134639739990234e+00 2.312232017517089844e+00 -1.361507084220647812e-02
4.413000000000000000e+03 6.983390808105468750e+01 2.080761528015136719e+01 9.576173499226570129e-03 7.689235210418701172e+00 2.309643507003784180e+00 -1.066273916512727737e-02
4.414000000000000000e+03 3.219430923461914062e+01 2.450430679321289062e+01 1.011646240949630737e-01 7.961247920989990234e+00 2.418723821640014648e+00 -5.761416163295507431e-03
4.415000000000000000e+03 3.179524612426757812e+01 1.307907390594482422e+01 1.028093844652175903e-01 7.985676765441894531e+00 2.426545858383178711e+00 4.760486632585525513e-02
4.416000000000000000e+03 3.246160125732421875e+01 -5.052514076232910156e+00 2.176831103861331940e-02 7.790568828582763672e+00 2.343701124191284180e+00 4.818183928728103638e-02
4.417000000000000000e+03 3.243608093261718750e+01 -3.012794494628906250e+00 3.663557767868041992e-02 7.820294380187988281e+00 2.357079029083251953e+00 3.551833704113960266e-02
4.418000000000000000e+03 3.169763374328613281e+01 2.064176797866821289e+00 9.755057096481323242e-02 7.882860183715820312e+00 2.394123315811157227e+00 3.024313226342201233e-02
4.419000000000000000e+03 6.815835571289062500e+01 -7.012649059295654297e+00 5.276892799884080887e-03 7.751036643981933594e+00 2.326894044876098633e+00 -6.432939320802688599e-02
4.420000000000000000e+03 3.265210342407226562e+01 -3.967682600021362305e+00 2.859647013247013092e-02 7.805058956146240234e+00 2.350096702575683594e+00 3.900149464607238770e-02
4.421000000000000000e+03 3.103958511352539062e+01 1.146575546264648438e+01 1.116248369216918945e-01 7.991769790649414062e+00 2.431018352508544922e+00 5.939128994941711426e-02
4.422000000000000000e+03 6.842186737060546875e+01 2.948871850967407227e+00 1.255423482507467270e-02 7.721863746643066406e+00 2.320325374603271484e+00 -4.934531450271606445e-02
4.423000000000000000e+03 3.230014419555664062e+01 7.945445537567138672e+00 1.293075978755950928e-01 7.927340030670166016e+00 2.416994333267211914e+00 4.602944105863571167e-02
4.424000000000000000e+03 3.209432601928710938e+01 -1.268304824829101562e+00 5.363990366458892822e-02 7.844234943389892578e+00 2.369362354278564453e+00 3.311849012970924377e-02
4.425000000000000000e+03 3.250893020629882812e+01 1.677254289388656616e-01 7.221017032861709595e-02 7.853280544281005859e+00 2.377647161483764648e+00 2.384301647543907166e-02
4.426000000000000000e+03 3.143461990356445312e+01 8.264636039733886719e+00 1.308935731649398804e-01 7.952166557312011719e+00 2.424918174743652344e+00 5.599194392561912537e-02
4.427000000000000000e+03 3.199984169006347656e+01 8.810980796813964844e+00 1.270248591899871826e-01 7.942002296447753906e+00 2.420708179473876953e+00 5.094115808606147766e-02
4.428000000000000000e+03 3.193276023864746094e+01 -2.356960296630859375e+00 4.098784551024436951e-02 7.834089756011962891e+00 2.362523317337036133e+00 3.911580517888069153e-02
4.429000000000000000e+03 3.129158401489257812e+01 -2.119361639022827148e+00 3.877612948417663574e-02 7.844093799591064453e+00 2.364861011505126953e+00 4.584383964538574219e-02
4.430000000000000000e+03 3.285090255737304688e+01 2.762997150421142578e+00 1.042092740535736084e-01 7.873452663421630859e+00 2.393298625946044922e+00 2.174433507025241852e-02
4.431000000000000000e+03 6.933288574218750000e+01 -7.641575813293457031e+00 3.899445990100502968e-03 7.754448413848876953e+00 2.327504396438598633e+00 -6.087255477905273438e-02
4.432000000000000000e+03 6.853965759277343750e+01 -8.010406494140625000e+00 4.353543277829885483e-03 7.754776954650878906e+00 2.327739000320434570e+00 -6.405754387378692627e-02
4.433000000000000000e+03 3.245790100097656250e+01 -1.806686997413635254e+00 4.723222181200981140e-02 7.836401462554931641e+00 2.365090131759643555e+00 3.079189173877239227e-02
4.434000000000000000e+03 3.126524543762207031e+01 -7.461203336715698242e-01 5.628230050206184387e-02 7.861371517181396484e+00 2.375296115875244141e+00 3.922320902347564697e-02
4.435000000000000000e+03 3.052359580993652344e+01 5.458206176757812500e+00 1.355963796377182007e-01 7.938356399536132812e+00 2.422185897827148438e+00 5.481303110718727112e-02
4.436000000000000000e+03 3.092071151733398438e+01 3.750981330871582031e+00 1.190010160207748413e-01 7.912065982818603516e+00 2.409320116043090820e+00 4.271294176578521729e-02
4.437000000000000000e+03 3.405213165283203125e+01 1.719468688964843750e+01 9.631274640560150146e-02 7.947813034057617188e+00 2.413237810134887695e+00 2.256136387586593628e-02
4.438000000000000000e+03 6.818748474121093750e+01 -1.280572795867919922e+01 -6.089299567975103855e-04 7.770217895507812500e+00 2.330882787704467773e+00 -6.648807972669601440e-02
4.439000000000000000e+03 3.195438003540039062e+01 7.014317512512207031e+00 1.312482506036758423e-01 7.925821781158447266e+00 2.417120933532714844e+00 4.560888186097145081e-02
4.440000000000000000e+03 6.853105926513671875e+01 1.006369876861572266e+01 1.434457115828990936e-02 7.706536293029785156e+00 2.316264390945434570e+00 -3.408351913094520569e-02
4.441000000000000000e+03 3.141654586791992188e+01 1.489523887634277344e+01 9.205828607082366943e-02 8.003580093383789062e+00 2.428691625595092773e+00 4.021314531564712524e-02
4.442000000000000000e+03 6.752526855468750000e+01 8.079916954040527344e+00 1.698331721127033234e-02 7.713462352752685547e+00 2.319133758544921875e+00 -4.020427539944648743e-02
4.443000000000000000e+03 6.808717346191406250e+01 -2.506647825241088867e+00 9.784860536456108093e-03 7.737071990966796875e+00 2.324057102203369141e+00 -5.981538444757461548e-02
4.444000000000000000e+03 6.916547393798828125e+01 -4.538171768188476562e+00 6.712520029395818710e-03 7.743553161621093750e+00 2.325079679489135742e+00 -5.872998759150505066e-02
4.445000000000000000e+03 3.159412956237792969e+01 -9.891901969909667969e+00 1.012186519801616669e-02 7.708352565765380859e+00 2.315542459487915039e+00 7.685209065675735474e-02
4.446000000000000000e+03 6.833663177490234375e+01 -4.692856311798095703e+00 7.613493595272302628e-03 7.743808269500732422e+00 2.325426578521728516e+00 -6.184100359678268433e-02
4.447000000000000000e+03 6.789020538330078125e+01 4.471457481384277344e+00 1.499932911247014999e-02 7.719671726226806641e+00 2.320401191711425781e+00 -4.807408154010772705e-02
4.448000000000000000e+03 3.244684219360351562e+01 -1.549609184265136719e+01 -1.362740900367498398e-02 7.628793239593505859e+00 2.284549713134765625e+00 4.811369255185127258e-02
4.449000000000000000e+03 3.001924514770507812e+01 -1.650515174865722656e+01 -2.007257565855979919e-02 7.592264175415039062e+00 2.271657466888427734e+00 8.094669133424758911e-02
4.450000000000000000e+03 6.729130554199218750e+01 -2.225856018066406250e+01 -1.170730497688055038e-02 7.794952869415283203e+00 2.334973573684692383e+00 -6.098145619034767151e-02
4.451000000000000000e+03 6.729235839843750000e+01 6.895881175994873047e+00 1.745751500129699707e-02 7.715658187866210938e+00 2.319934606552124023e+00 -4.315561801195144653e-02
4.452000000000000000e+03 3.299105072021484375e+01 1.964695739746093750e+01 9.049089998006820679e-02 7.972865104675292969e+00 2.419006824493408203e+00 1.216406933963298798e-02
4.453000000000000000e+03 3.187310600280761719e+01 3.837743520736694336e+00 1.152640432119369507e-01 7.894700050354003906e+00 2.402989387512207031e+00 3.333432972431182861e-02
4.454000000000000000e+03 3.182523727416992188e+01 4.682830333709716797e+00 1.257813870906829834e-01 7.907733440399169922e+00 2.410054445266723633e+00 3.849808499217033386e-02
4.455000000000000000e+03 6.829438018798828125e+01 5.167335867881774902e-01 1.184105500578880310e-02 7.728470325469970703e+00 2.322093248367309570e+00 -5.415242165327072144e-02
4.456000000000000000e+03 6.832895660400390625e+01 -1.587134003639221191e+00 1.062706485390663147e-02 7.734411239624023438e+00 2.323511362075805664e+00 -5.779461190104484558e-02
4.457000000000000000e+03 6.636298370361328125e+01 -2.357221603393554688e+01 -1.690740324556827545e-02 7.793388366699218750e+00 2.332944154739379883e+00 -6.005347520112991333e-02
4.458000000000000000e+03 6.723777008056640625e+01 5.773830890655517578e+00 1.686752028763294220e-02 7.718288421630859375e+00 2.320546865463256836e+00 -4.633715376257896423e-02
4.459000000000000000e+03 6.816837310791015625e+01 5.500655651092529297e+00 1.513237599283456802e-02 7.716394901275634766e+00 2.319458246231079102e+00 -4.461630061268806458e-02
4.460000000000000000e+03 6.427571868896484375e+01 1.919884872436523438e+01 2.202480658888816833e-02 7.717135429382324219e+00 2.321748018264770508e+00 -1.552575454115867615e-02
4.461000000000000000e+03 6.519943237304687500e+01 1.822195243835449219e+01 1.963598467409610748e-02 7.712779998779296875e+00 2.319724798202514648e+00 -1.763840578496456146e-02
4.462000000000000000e+03 6.750885009765625000e+01 1.360385036468505859e+01 1.759032905101776123e-02 7.705646991729736328e+00 2.316971302032470703e+00 -2.721288241446018219e-02
4.463000000000000000e+03 3.138296127319335938e+01 -8.102293014526367188e+00 7.411458995193243027e-03 7.741116046905517578e+00 2.324558258056640625e+00 7.988891750574111938e-02
4.464000000000000000e+03 3.413106918334960938e+01 -1.992688179016113281e+01 -3.962393850088119507e-02 7.584363937377929688e+00 2.263422012329101562e+00 3.433841839432716370e-02
4.465000000000000000e+03 6.808036041259765625e+01 -1.914273452758789062e+01 -7.887608371675014496e-03 7.789690971374511719e+00 2.334541082382202148e+00 -6.223513185977935791e-02
4.466000000000000000e+03 6.817483520507812500e+01 -2.108177757263183594e+01 -1.048534736037254333e-02 7.796326160430908203e+00 2.335752248764038086e+00 -5.955655127763748169e-02
4.467000000000000000e+03 3.143973731994628906e+01 1.887586402893066406e+01 8.297269046306610107e-02 8.009621620178222656e+00 2.427778482437133789e+00 1.315014529973268509e-02
4.468000000000000000e+03 3.214244079589843750e+01 -6.062359333038330078e+00 1.377176586538553238e-02 7.775673389434814453e+00 2.336833477020263672e+00 5.754769593477249146e-02
4.469000000000000000e+03 7.212203216552734375e+01 -2.703553771972656250e+01 -7.639576680958271027e-03 7.840471744537353516e+00 2.349849700927734375e+00 -3.784457966685295105e-02
4.470000000000000000e+03 6.649575805664062500e+01 1.787253761291503906e+01 1.768763363361358643e-02 7.706897735595703125e+00 2.317375659942626953e+00 -1.729089953005313873e-02
4.471000000000000000e+03 3.179226303100585938e+01 -7.060128688812255859e+00 1.149425562471151352e-02 7.763446807861328125e+00 2.332482337951660156e+00 6.811773777008056641e-02
4.472000000000000000e+03 6.665757751464843750e+01 1.625453186035156250e+01 1.857651956379413605e-02 7.707262992858886719e+00 2.317751884460449219e+00 -2.169172838330268860e-02
4.473000000000000000e+03 6.905524444580078125e+01 -1.475455951690673828e+01 -2.195090055465698242e-03 7.779675960540771484e+00 2.333244323730468750e+00 -6.293200701475143433e-02
4.474000000000000000e+03 6.876725769042968750e+01 -1.638205337524414062e+01 -3.744193818420171738e-03 7.784135341644287109e+00 2.334117412567138672e+00 -6.322247534990310669e-02
4.475000000000000000e+03 6.893402099609375000e+01 4.024329185485839844e+00 1.282482128590345383e-02 7.718170166015625000e+00 2.319298505783081055e+00 -4.604508355259895325e-02
4.476000000000000000e+03 6.899787902832031250e+01 -1.803844332695007324e+00 9.146315045654773712e-03 7.734796047210693359e+00 2.323182582855224609e+00 -5.623843520879745483e-02
4.477000000000000000e+03 6.795638275146484375e+01 1.270847797393798828e+01 1.573861390352249146e-02 7.705108642578125000e+00 2.316254138946533203e+00 -2.847670949995517731e-02
4.478000000000000000e+03 6.767592620849609375e+01 1.942635345458984375e+01 1.409211009740829468e-02 7.700570583343505859e+00 2.314398765563964844e+00 -1.333654578775167465e-02
4.479000000000000000e+03 3.148933029174804688e+01 -1.383456993103027344e+01 3.097918524872511625e-04 7.642364501953125000e+00 2.292802333831787109e+00 6.674858927726745605e-02
4.480000000000000000e+03 3.221944046020507812e+01 -1.107271003723144531e+01 6.123710889369249344e-03 7.689799308776855469e+00 2.308776855468750000e+00 6.246954202651977539e-02
4.481000000000000000e+03 3.167634201049804688e+01 -1.665015602111816406e+01 -2.355758100748062134e-02 7.602495670318603516e+00 2.273681402206420898e+00 5.906839296221733093e-02
4.482000000000000000e+03 3.122581672668457031e+01 -1.494777870178222656e+01 -1.045106910169124603e-02 7.620878696441650391e+00 2.283128261566162109e+00 6.621678918600082397e-02
4.483000000000000000e+03 3.521105194091796875e+01 -2.346738052368164062e+01 -4.508113116025924683e-02 7.552895545959472656e+00 2.252344369888305664e+00 1.958129554986953735e-02
4.484000000000000000e+03 6.602213287353515625e+01 -3.013670921325683594e+01 -2.495088428258895874e-02 7.805518627166748047e+00 2.334170341491699219e+00 -4.551975429058074951e-02
4.485000000000000000e+03 6.805921173095703125e+01 -2.838313484191894531e+01 -1.741427369415760040e-02 7.815410137176513672e+00 2.339398860931396484e+00 -4.541616886854171753e-02
4.486000000000000000e+03 3.291379928588867188e+01 1.085779094696044922e+01 1.174403131008148193e-01 7.945725440979003906e+00 2.418949604034423828e+00 4.231892153620719910e-02
4.487000000000000000e+03 3.347713088989257812e+01 -5.270070075988769531e+00 2.329870127141475677e-02 7.779411792755126953e+00 2.340813159942626953e+00 3.459840640425682068e-02
4.488000000000000000e+03 3.316363906860351562e+01 -2.300038337707519531e+00 4.563339799642562866e-02 7.820844650268554688e+00 2.359943389892578125e+00 2.529630996286869049e-02
4.489000000000000000e+03 3.292718887329101562e+01 1.508166694641113281e+01 9.811311215162277222e-02 7.968537807464599609e+00 2.419995307922363281e+00 3.332762047648429871e-02
4.490000000000000000e+03 3.357506179809570312e+01 -1.943959742784500122e-01 7.076694816350936890e-02 7.838599681854248047e+00 2.372810125350952148e+00 1.401401404291391373e-02
4.491000000000000000e+03 6.683557128906250000e+01 -8.701645851135253906e+00 4.655865021049976349e-03 7.754185199737548828e+00 2.327652215957641602e+00 -6.977791339159011841e-02
4.492000000000000000e+03 6.782675933837890625e+01 -1.178931236267089844e+01 2.352330629946663976e-04 7.765840053558349609e+00 2.329822540283203125e+00 -6.750799715518951416e-02
4.493000000000000000e+03 3.281334686279296875e+01 9.287210464477539062e+00 1.245331317186355591e-01 7.935115814208984375e+00 2.417894601821899414e+00 4.335400462150573730e-02
4.494000000000000000e+03 3.365495681762695312e+01 9.992682456970214844e+00 1.219645291566848755e-01 7.922096252441406250e+00 2.413218259811401367e+00 3.795299679040908813e-02
4.495000000000000000e+03 3.126941490173339844e+01 6.142253875732421875e+00 1.338881999254226685e-01 7.929214000701904297e+00 2.418930768966674805e+00 4.959255829453468323e-02
4.496000000000000000e+03 6.768634033203125000e+01 1.989471435546875000e+00 1.413520425558090210e-02 7.725554466247558594e+00 2.321906805038452148e+00 -5.313204973936080933e-02
4.497000000000000000e+03 6.749180603027343750e+01 -1.076510620117187500e+01 1.805088948458433151e-03 7.761688232421875000e+00 2.329047918319702148e+00 -6.868354976177215576e-02
4.498000000000000000e+03 3.342759704589843750e+01 3.564154863357543945e+00 1.100707724690437317e-01 7.869082450866699219e+00 2.393745899200439453e+00 1.925917714834213257e-02
4.499000000000000000e+03 6.814820861816406250e+01 -3.625263690948486328e+00 8.741501718759536743e-03 7.740473747253417969e+00 2.324764490127563477e+00 -6.095424294471740723e-02
4.500000000000000000e+03 6.861325836181640625e+01 -5.719905376434326172e+00 6.244619376957416534e-03 7.747147083282470703e+00 2.326017618179321289e+00 -6.173679232597351074e-02
4.501000000000000000e+03 6.761814880371093750e+01 1.064675903320312500e+01 1.751084625720977783e-02 7.708599090576171875e+00 2.317832946777343750e+00 -3.359861671924591064e-02
4.502000000000000000e+03 6.795957946777343750e+01 9.131860733032226562e+00 1.617241464555263519e-02 7.709898471832275391e+00 2.317821264266967773e+00 -3.659681230783462524e-02
4.503000000000000000e+03 6.779772186279296875e+01 -5.972100734710693359e+00 7.059811148792505264e-03 7.747371196746826172e+00 2.326329231262207031e+00 -6.495347619056701660e-02
4.504000000000000000e+03 6.970214843750000000e+01 -6.408193588256835938e+00 4.691750742495059967e-03 7.750298023223876953e+00 2.326497077941894531e+00 -5.860761925578117371e-02
4.505000000000000000e+03 6.836382293701171875e+01 1.386454677581787109e+01 1.481039542704820633e-02 7.701791286468505859e+00 2.314980506896972656e+00 -2.489223517477512360e-02
4.506000000000000000e+03 6.735379791259765625e+01 1.215462398529052734e+01 1.818383298814296722e-02 7.707732200622558594e+00 2.317774772644042969e+00 -3.048025816679000854e-02
4.507000000000000000e+03 6.746524810791015625e+01 2.425331622362136841e-01 1.342073362320661545e-02 7.729969024658203125e+00 2.323016881942749023e+00 -5.701109394431114197e-02
4.508000000000000000e+03 6.714154052734375000e+01 -1.832051277160644531e+01 -7.190620992332696915e-03 7.783508300781250000e+00 2.332895278930664062e+00 -6.664976477622985840e-02
4.509000000000000000e+03 6.784857940673828125e+01 -1.726562881469726562e+01 -6.148811895400285721e-03 7.782990932464599609e+00 2.333052635192871094e+00 -6.511680036783218384e-02
4.510000000000000000e+03 3.350178146362304688e+01 1.612147521972656250e+01 9.741630405187606812e-02 7.961217403411865234e+00 2.417590141296386719e+00 2.604281529784202576e-02
4.511000000000000000e+03 3.318165969848632812e+01 1.782042121887207031e+01 9.193722903728485107e-02 7.971608161926269531e+00 2.419063568115234375e+00 1.936650834977626801e-02
4.512000000000000000e+03 6.538110351562500000e+01 -2.512712287902832031e+01 -1.871182397007942200e-02 7.791683673858642578e+00 2.331891536712646484e+00 -5.925245955586433411e-02
4.513000000000000000e+03 3.212851715087890625e+01 5.572721958160400391e+00 1.283547729253768921e-01 7.911865711212158203e+00 2.412066221237182617e+00 3.955671936273574829e-02
4.514000000000000000e+03 6.707583618164062500e+01 1.478818607330322266e+01 1.719688065350055695e-02 7.706118583679199219e+00 2.316994667053222656e+00 -2.430035360157489777e-02
4.515000000000000000e+03 6.549454498291015625e+01 5.490485191345214844e+00 2.139997296035289764e-02 7.722130298614501953e+00 2.323059082031250000e+00 -5.009597539901733398e-02
4.516000000000000000e+03 6.858881378173828125e+01 -1.380409526824951172e+01 -1.755646895617246628e-03 7.774698257446289062e+00 2.331882715225219727e+00 -6.464084982872009277e-02
4.517000000000000000e+03 6.811067199707031250e+01 -1.542990779876708984e+01 -3.617993090301752090e-03 7.778468132019042969e+00 2.332455158233642578e+00 -6.546118110418319702e-02
4.518000000000000000e+03 3.166565895080566406e+01 -1.882103919982910156e+01 -3.983597457408905029e-02 7.572690486907958984e+00 2.259856462478637695e+00 6.272175908088684082e-02
4.519000000000000000e+03 6.623085021972656250e+01 6.896262168884277344e+00 2.043492533266544342e-02 7.718594551086425781e+00 2.321708917617797852e+00 -4.533215984702110291e-02
4.520000000000000000e+03 3.248555374145507812e+01 -9.429566383361816406e+00 8.067940361797809601e-03 7.718664169311523438e+00 2.318019628524780273e+00 6.107859313488006592e-02
4.521000000000000000e+03 3.312451934814453125e+01 -6.383013248443603516e+00 1.896461844444274902e-02 7.766658782958984375e+00 2.335686922073364258e+00 4.431291297078132629e-02
4.522000000000000000e+03 6.617954254150390625e+01 -2.799778366088867188e+01 -2.068140357732772827e-02 7.801870822906494141e+00 2.334356784820556641e+00 -5.021480098366737366e-02
4.523000000000000000e+03 3.628370666503906250e+01 2.468223953247070312e+01 9.212780743837356567e-02 7.895481109619140625e+00 2.396282672882080078e+00 2.397024817764759064e-02
4.524000000000000000e+03 3.296395111083984375e+01 -1.406539154052734375e+01 -9.522482752799987793e-03 7.646661758422851562e+00 2.291141748428344727e+00 4.629290103912353516e-02
4.525000000000000000e+03 6.770436096191406250e+01 -8.361546516418457031e+00 4.134586546570062637e-03 7.754754066467285156e+00 2.327666521072387695e+00 -6.669214367866516113e-02
4.526000000000000000e+03 6.806423187255859375e+01 -9.368371963500976562e+00 3.203178057447075844e-03 7.758469104766845703e+00 2.328501701354980469e+00 -6.638371944427490234e-02
4.527000000000000000e+03 6.358094406127929688e+01 2.060977363586425781e+01 2.146303467452526093e-02 7.720119476318359375e+00 2.322474718093872070e+00 -1.149206608533859253e-02
4.528000000000000000e+03 6.099003601074218750e+01 1.684782409667968750e+01 3.232058137655258179e-02 7.729656696319580078e+00 2.328593254089355469e+00 -2.055327408015727997e-02
4.529000000000000000e+03 6.759631347656250000e+01 -1.437485408782958984e+01 -2.584669971838593483e-03 7.773499488830566406e+00 2.331274271011352539e+00 -6.801986694335937500e-02
4.530000000000000000e+03 3.362866973876953125e+01 -1.865791511535644531e+01 -3.584938123822212219e-02 7.595946788787841797e+00 2.268029212951660156e+00 4.063020274043083191e-02
4.531000000000000000e+03 3.070366859436035156e+01 -1.756508827209472656e+01 -3.251063823699951172e-02 7.586036682128906250e+00 2.266057729721069336e+00 7.072363048791885376e-02
4.532000000000000000e+03 6.668927001953125000e+01 1.139944362640380859e+01 1.903899945318698883e-02 7.711011886596679688e+00 2.319015264511108398e+00 -3.323440253734588623e-02
4.533000000000000000e+03 3.284607315063476562e+01 -1.247718811035156250e+01 3.574886824935674667e-03 7.667551994323730469e+00 2.301338195800781250e+00 4.986670240759849548e-02
4.534000000000000000e+03 3.261386489868164062e+01 -2.167160606384277344e+01 -4.711050167679786682e-02 7.545003414154052734e+00 2.249367952346801758e+00 5.934995412826538086e-02
4.535000000000000000e+03 3.443323516845703125e+01 1.549002838134765625e+01 1.018360406160354614e-01 7.937555789947509766e+00 2.411817550659179688e+00 2.716535888612270355e-02
4.536000000000000000e+03 3.329460144042968750e+01 1.338861942291259766e+01 1.069434881210327148e-01 7.952069282531738281e+00 2.417703866958618164e+00 3.748533502221107483e-02
4.537000000000000000e+03 3.340906143188476562e+01 8.186768531799316406e+00 1.266078501939773560e-01 7.909837722778320312e+00 2.410933732986450195e+00 3.535093367099761963e-02
4.538000000000000000e+03 6.651949310302734375e+01 -7.669163227081298828e+00 5.770692601799964905e-03 7.750955104827880859e+00 2.327017784118652344e+00 -6.962318718433380127e-02
4.539000000000000000e+03 6.623431396484375000e+01 3.155731678009033203e+00 1.787164621055126190e-02 7.724875926971435547e+00 2.322824239730834961e+00 -5.352634564042091370e-02
4.540000000000000000e+03 6.747696685791015625e+01 3.538330316543579102e+00 1.526636723428964615e-02 7.722204685211181641e+00 2.321241378784179688e+00 -5.022608861327171326e-02
4.541000000000000000e+03 6.724114990234375000e+01 -3.716656446456909180e+00 9.744243696331977844e-03 7.740749835968017578e+00 2.325148344039916992e+00 -6.383307278156280518e-02
4.542000000000000000e+03 6.780654907226562500e+01 -8.338120579719543457e-01 1.134316530078649521e-02 7.732792854309082031e+00 2.323240756988525391e+00 -5.792586132884025574e-02
4.543000000000000000e+03 6.693658447265625000e+01 -1.246639490127563477e+00 1.296703238040208817e-02 7.734087467193603516e+00 2.324116230010986328e+00 -6.103821471333503723e-02
4.544000000000000000e+03 6.653443145751953125e+01 -5.125354766845703125e+00 9.384951554238796234e-03 7.744029998779296875e+00 2.326024532318115234e+00 -6.754917651414871216e-02
4.545000000000000000e+03 3.359519958496093750e+01 1.515768527984619141e+00 8.929678052663803101e-02 7.850676059722900391e+00 2.381991863250732422e+00 1.246323063969612122e-02
4.546000000000000000e+03 6.602360534667968750e+01 1.431208610534667969e+01 2.084250748157501221e-02 7.710521697998046875e+00 2.319409132003784180e+00 -2.670627087354660034e-02
4.547000000000000000e+03 6.716014099121093750e+01 -9.735147476196289062e+00 2.801940310746431351e-03 7.757943153381347656e+00 2.328223466873168945e+00 -6.905373930931091309e-02
4.548000000000000000e+03 6.704143524169921875e+01 -1.617914581298828125e+01 -5.065231584012508392e-03 7.777019977569580078e+00 2.331586360931396484e+00 -6.869716942310333252e-02
4.549000000000000000e+03 6.496931457519531250e+01 -1.411068534851074219e+01 -3.021939657628536224e-03 7.763612747192382812e+00 2.328177213668823242e+00 -7.500192523002624512e-02
4.550000000000000000e+03 3.217910766601562500e+01 1.159083271026611328e+01 1.131470426917076111e-01 7.965272903442382812e+00 2.423526048660278320e+00 4.833765700459480286e-02
4.551000000000000000e+03 6.588610839843750000e+01 8.074265480041503906e+00 2.081971988081932068e-02 7.717798709869384766e+00 2.321585416793823242e+00 -4.254917800426483154e-02
4.552000000000000000e+03 6.550096893310546875e+01 4.353922367095947266e+00 2.003061585128307343e-02 7.723901748657226562e+00 2.323179721832275391e+00 -5.214601382613182068e-02
4.553000000000000000e+03 3.552977371215820312e+01 1.778397941589355469e+01 9.798353165388107300e-02 7.922770023345947266e+00 2.406226158142089844e+00 2.051786892116069794e-02
4.554000000000000000e+03 6.455543518066406250e+01 9.196665763854980469e+00 2.402367256581783295e-02 7.719467639923095703e+00 2.323047399520874023e+00 -4.085399210453033447e-02
4.555000000000000000e+03 6.724273681640625000e+01 -2.019003868103027344e+01 -9.213746525347232819e-03 7.788949489593505859e+00 2.333920717239379883e+00 -6.442733108997344971e-02
4.556000000000000000e+03 3.268627166748046875e+01 -1.761165618896484375e+01 -2.997671812772750854e-02 7.604924201965332031e+00 2.272484302520751953e+00 4.373526200652122498e-02
4.557000000000000000e+03 3.273101043701171875e+01 -7.428256511688232422e+00 1.201782748103141785e-02 7.750382423400878906e+00 2.328720092773437500e+00 5.424165353178977966e-02
4.558000000000000000e+03 6.564430999755859375e+01 9.254892349243164062e+00 2.219060994684696198e-02 7.716918945312500000e+00 2.321732997894287109e+00 -4.002080857753753662e-02
4.559000000000000000e+03 6.659488677978515625e+01 8.696851730346679688e+00 1.946008205413818359e-02 7.714552879333496094e+00 2.320203781127929688e+00 -4.002823680639266968e-02
4.560000000000000000e+03 3.816370773315429688e+01 2.818043708801269531e+01 6.646084040403366089e-02 7.866731643676757812e+00 2.379957675933837891e+00 4.809490591287612915e-02
4.561000000000000000e+03 3.565318679809570312e+01 2.264803695678710938e+01 9.284259378910064697e-02 7.909581661224365234e+00 2.400727272033691406e+00 1.700910553336143494e-02
4.562000000000000000e+03 6.581654357910156250e+01 1.238642024993896484e+01 2.171049080789089203e-02 7.712781429290771484e+00 2.320347547531127930e+00 -3.162303194403648376e-02
4.563000000000000000e+03 6.526218414306640625e+01 6.673095226287841797e+00 2.212459594011306763e-02 7.721018314361572266e+00 2.322942972183227539e+00 -4.680275544524192810e-02
4.564000000000000000e+03 6.684122467041015625e+01 -1.221089553833007812e+01 1.078448403859511018e-04 7.764350891113281250e+00 2.329337596893310547e+00 -7.071782648563385010e-02
4.565000000000000000e+03 6.323405838012695312e+01 1.632356834411621094e+01 2.612309344112873077e-02 7.720626831054687500e+00 2.324024915695190430e+00 -2.236810885369777679e-02
4.566000000000000000e+03 6.332736968994140625e+01 1.850910568237304688e+01 2.328472957015037537e-02 7.720573425292968750e+00 2.323157310485839844e+00 -1.612750999629497528e-02
4.567000000000000000e+03 3.279559707641601562e+01 6.318596839904785156e+00 1.281758695840835571e-01 7.903550624847412109e+00 2.409518003463745117e+00 3.588956221938133240e-02
4.568000000000000000e+03 3.588415527343750000e+01 -9.239263534545898438e+00 1.245874911546707153e-02 7.722069263458251953e+00 2.320358514785766602e+00 1.020400412380695343e-02
4.569000000000000000e+03 3.474726104736328125e+01 -8.536007881164550781e+00 1.362365484237670898e-02 7.728221416473388672e+00 2.322553634643554688e+00 2.457097172737121582e-02
4.570000000000000000e+03 3.415535736083984375e+01 -6.797421932220458984e+00 1.890906505286693573e-02 7.754068851470947266e+00 2.331893205642700195e+00 3.002203255891799927e-02
4.571000000000000000e+03 3.488166809082031250e+01 -4.315702915191650391e+00 3.535099327564239502e-02 7.782544136047363281e+00 2.345368385314941406e+00 1.265191752463579178e-02
4.572000000000000000e+03 3.174885368347167969e+01 2.566508674621582031e+01 1.035984158515930176e-01 7.958355426788330078e+00 2.418586015701293945e+00 -6.796611007302999496e-03
4.573000000000000000e+03 6.700826263427734375e+01 1.164686799049377441e+00 1.425495091825723648e-02 7.728330135345458984e+00 2.322775602340698242e+00 -5.618944391608238220e-02
4.574000000000000000e+03 3.648382186889648438e+01 2.045117759704589844e+01 9.544883668422698975e-02 7.902577877044677734e+00 2.399408102035522461e+00 1.885914616286754608e-02
4.575000000000000000e+03 3.384304046630859375e+01 1.891223907470703125e+01 9.353609383106231689e-02 7.952817916870117188e+00 2.413906097412109375e+00 1.610878296196460724e-02
4.576000000000000000e+03 6.392717361450195312e+01 -2.385658836364746094e+01 -2.234443463385105133e-02 7.780803203582763672e+00 2.327537536621093750e+00 -6.494046002626419067e-02
4.577000000000000000e+03 3.386796569824218750e+01 1.440545463562011719e+01 1.044195592403411865e-01 7.948058128356933594e+00 2.415743350982666016e+00 3.097037039697170258e-02
4.578000000000000000e+03 6.735173034667968750e+01 -7.333380222320556641e+00 5.959013011306524277e-03 7.750977039337158203e+00 2.327080726623535156e+00 -6.734474748373031616e-02
4.579000000000000000e+03 3.277743911743164062e+01 -1.162850022315979004e+00 5.709112063050270081e-02 7.839390277862548828e+00 2.368944406509399414e+00 2.535024657845497131e-02
4.580000000000000000e+03 3.373879241943359375e+01 2.591958999633789062e+00 9.965433925390243530e-02 7.856127262115478516e+00 2.386734485626220703e+00 1.364766806364059448e-02
4.581000000000000000e+03 6.698033905029296875e+01 -6.266723155975341797e+00 7.014964707195758820e-03 7.747674942016601562e+00 2.326406955718994141e+00 -6.714846938848495483e-02
4.582000000000000000e+03 3.498956298828125000e+01 1.661409950256347656e+01 1.008453890681266785e-01 7.931500911712646484e+00 2.409703969955444336e+00 2.222082577645778656e-02
4.583000000000000000e+03 6.623605346679687500e+01 -2.124775123596191406e+01 -1.370223890990018845e-02 7.786764144897460938e+00 2.331918478012084961e+00 -6.470151990652084351e-02
4.584000000000000000e+03 6.252362442016601562e+01 -2.235966682434082031e+01 -2.082845009863376617e-02 7.769610881805419922e+00 2.324634790420532227e+00 -7.150109857320785522e-02
4.585000000000000000e+03 6.533802795410156250e+01 1.576634025573730469e+01 2.090576291084289551e-02 7.712473869323730469e+00 2.320013999938964844e+00 -2.288394793868064880e-02
4.586000000000000000e+03 3.482345581054687500e+01 1.936659622192382812e+01 9.383388608694076538e-02 7.935564517974853516e+00 2.408819437026977539e+00 1.732132025063037872e-02
4.587000000000000000e+03 3.445632553100585938e+01 -2.835832786560058594e+01 -4.548671096563339233e-02 7.466455936431884766e+00 2.226290702819824219e+00 9.188397787511348724e-03
4.588000000000000000e+03 3.670842361450195312e+01 -2.279346656799316406e+01 -4.285958409309387207e-02 7.576955795288085938e+00 2.260228872299194336e+00 1.971152378246188164e-03
4.589000000000000000e+03 6.510512542724609375e+01 -1.576894521713256836e+00 1.541065331548452377e-02 7.735594272613525391e+00 2.325301408767700195e+00 -6.575448811054229736e-02
4.590000000000000000e+03 6.623548126220703125e+01 -3.871818065643310547e+00 1.079612784087657928e-02 7.740835666656494141e+00 2.325489521026611328e+00 -6.634884327650070190e-02
4.591000000000000000e+03 6.651503753662109375e+01 -1.493473529815673828e+01 -4.018787294626235962e-03 7.771046161651611328e+00 2.330108165740966797e+00 -7.091831415891647339e-02
4.592000000000000000e+03 6.718619537353515625e+01 -1.328912734985351562e+01 -1.570322783663868904e-03 7.768589019775390625e+00 2.330105543136596680e+00 -6.944882124662399292e-02
4.593000000000000000e+03 6.623265075683593750e+01 -1.008416652679443359e+01 3.087104065343737602e-03 7.756825923919677734e+00 2.327973842620849609e+00 -7.221909612417221069e-02
4.594000000000000000e+03 3.478024673461914062e+01 2.669829607009887695e+00 9.796217828989028931e-02 7.844748973846435547e+00 2.382813453674316406e+00 6.551120895892381668e-03
4.595000000000000000e+03 3.459130859375000000e+01 -8.693456649780273438e-02 7.235378026962280273e-02 7.825985908508300781e+00 2.369501829147338867e+00 5.779782775789499283e-03
4.596000000000000000e+03 3.471852874755859375e+01 1.296483755111694336e+00 8.675173670053482056e-02 7.836162090301513672e+00 2.376873970031738281e+00 5.233211908489465714e-03
4.597000000000000000e+03 3.422618103027343750e+01 5.405007839202880859e+00 1.179980635643005371e-01 7.872066020965576172e+00 2.397019147872924805e+00 1.853492669761180878e-02
4.598000000000000000e+03 6.499801635742187500e+01 1.360797500610351562e+01 2.286526001989841461e-02 7.714818477630615234e+00 2.321305036544799805e+00 -2.909374609589576721e-02
4.599000000000000000e+03 6.393757247924804688e+01 1.062265777587890625e+01 2.689976617693901062e-02 7.720191478729248047e+00 2.324127435684204102e+00 -3.785139322280883789e-02
4.600000000000000000e+03 3.454512405395507812e+01 -5.598568439483642578e+00 2.694788388907909393e-02 7.771065711975097656e+00 2.339404106140136719e+00 2.086956426501274109e-02
4.601000000000000000e+03 3.519616317749023438e+01 -2.980470895767211914e+00 4.685096070170402527e-02 7.795223236083984375e+00 2.352622270584106445e+00 5.984403658658266068e-03
4.602000000000000000e+03 6.555438232421875000e+01 -1.148329830169677734e+01 1.212246133945882320e-03 7.758963584899902344e+00 2.328052759170532227e+00 -7.411145418882369995e-02
4.603000000000000000e+03 3.390887069702148438e+01 6.844438552856445312e+00 1.247826740145683289e-01 7.891475200653076172e+00 2.404877424240112305e+00 2.792966924607753754e-02
4.604000000000000000e+03 3.442282867431640625e+01 9.013711929321289062e+00 1.225823983550071716e-01 7.900185585021972656e+00 2.406830310821533203e+00 2.921000309288501740e-02
4.605000000000000000e+03 3.591258239746093750e+01 1.309078216552734375e+01 1.108115315437316895e-01 7.902208805084228516e+00 2.403906106948852539e+00 2.222604863345623016e-02
4.606000000000000000e+03 3.452336502075195312e+01 4.016118049621582031e+00 1.102554649114608765e-01 7.858930110931396484e+00 2.390755653381347656e+00 1.236881036311388016e-02
4.607000000000000000e+03 6.575698852539062500e+01 -1.678174400329589844e+01 -7.124073803424835205e-03 7.773540496826171875e+00 2.329924821853637695e+00 -7.146678864955902100e-02
4.608000000000000000e+03 6.403592681884765625e+01 -1.576253795623779297e+01 -6.215526722371578217e-03 7.763870716094970703e+00 2.327296495437622070e+00 -7.631637901067733765e-02
4.609000000000000000e+03 6.221644973754882812e+01 1.770380210876464844e+01 2.896209992468357086e-02 7.724670886993408203e+00 2.326089859008789062e+00 -1.793722063302993774e-02
4.610000000000000000e+03 3.652923583984375000e+01 1.722506523132324219e+01 1.014548689126968384e-01 7.906883716583251953e+00 2.402501583099365234e+00 1.767094060778617859e-02
4.611000000000000000e+03 3.458116912841796875e+01 -1.477525043487548828e+01 -1.143179554492235184e-02 7.650077342987060547e+00 2.291593551635742188e+00 2.400011196732521057e-02
4.612000000000000000e+03 3.550668716430664062e+01 -1.309790706634521484e+01 -5.896144546568393707e-03 7.673496723175048828e+00 2.300280094146728516e+00 1.672281324863433838e-02
4.613000000000000000e+03 6.416090393066406250e+01 1.495780372619628906e+01 2.585694938898086548e-02 7.717526435852050781e+00 2.323014974594116211e+00 -2.577774785459041595e-02
4.614000000000000000e+03 6.306435012817382812e+01 1.411526489257812500e+01 2.821105159819126129e-02 7.721511363983154297e+00 2.324916839599609375e+00 -2.844290062785148621e-02
4.615000000000000000e+03 6.564831542968750000e+01 -7.999356269836425781e+00 6.351469084620475769e-03 7.750421524047851562e+00 2.327031850814819336e+00 -7.248876243829727173e-02
4.616000000000000000e+03 6.529773712158203125e+01 -1.041323852539062500e+01 2.269440330564975739e-03 7.756091594696044922e+00 2.327508449554443359e+00 -7.428903132677078247e-02
4.617000000000000000e+03 3.599060821533203125e+01 1.903326034545898438e+01 9.894241392612457275e-02 7.916507244110107422e+00 2.404634952545166016e+00 1.544572133570909500e-02
4.618000000000000000e+03 6.651951599121093750e+01 4.060983180999755859e+00 1.770978793501853943e-02 7.722882747650146484e+00 2.322177648544311523e+00 -5.166627839207649231e-02
4.619000000000000000e+03 3.636646652221679688e+01 1.432010555267333984e+01 1.067663878202438354e-01 7.898912429809570312e+00 2.401703596115112305e+00 2.108412981033325195e-02
4.620000000000000000e+03 6.639695739746093750e+01 5.702836990356445312e+00 1.850735396146774292e-02 7.720230579376220703e+00 2.321621417999267578e+00 -4.788984730839729309e-02
4.621000000000000000e+03 3.427311325073242188e+01 1.267188739776611328e+01 1.113753169775009155e-01 7.930434226989746094e+00 2.412542819976806641e+00 3.184740990400314331e-02
4.622000000000000000e+03 3.530255889892578125e+01 1.190779876708984375e+01 1.143945306539535522e-01 7.903707981109619141e+00 2.405430793762207031e+00 2.613227628171443939e-02
4.623000000000000000e+03 3.547823715209960938e+01 -1.615090608596801758e+00 5.855931714177131653e-02 7.805239200592041016e+00 2.359139680862426758e+00 8.965178858488798141e-04
4.624000000000000000e+03 3.439209747314453125e+01 -2.167720413208007812e+01 -4.032671824097633362e-02 7.561553001403808594e+00 2.256367921829223633e+00 2.910995110869407654e-02
4.625000000000000000e+03 6.429294586181640625e+01 -2.700813674926757812e+01 -2.594864927232265472e-02 7.788681030273437500e+00 2.328819751739501953e+00 -5.637265741825103760e-02
4.626000000000000000e+03 6.525309753417968750e+01 2.386827230453491211e+00 1.899575814604759216e-02 7.727884769439697266e+00 2.324064016342163086e+00 -5.703320726752281189e-02
4.627000000000000000e+03 6.527092742919921875e+01 1.460685253143310547e+00 1.839604601263999939e-02 7.729541778564453125e+00 2.324381351470947266e+00 -5.959812179207801819e-02
4.628000000000000000e+03 6.538259124755859375e+01 -6.986494541168212891e+00 7.772938348352909088e-03 7.747581958770751953e+00 2.326606512069702148e+00 -7.201775908470153809e-02
4.629000000000000000e+03 6.571195983886718750e+01 -4.271218776702880859e-01 1.609921455383300781e-02 7.732820034027099609e+00 2.324675798416137695e+00 -6.244235858321189880e-02
4.630000000000000000e+03 6.599237060546875000e+01 -1.453643202781677246e+00 1.404531579464673996e-02 7.735198497772216797e+00 2.324773073196411133e+00 -6.337311118841171265e-02
4.631000000000000000e+03 3.409532546997070312e+01 -2.718955516815185547e+00 4.496860876679420471e-02 7.806443214416503906e+00 2.355423450469970703e+00 1.670528948307037354e-02
4.632000000000000000e+03 3.120234870910644531e+01 2.646861457824707031e+01 1.106317937374114990e-01 7.959053516387939453e+00 2.420905590057373047e+00 -1.330292131751775742e-02
4.633000000000000000e+03 6.471728515625000000e+01 -1.866868209838867188e+01 -1.109075266867876053e-02 7.773566722869873047e+00 2.328742742538452148e+00 -7.197372615337371826e-02
4.634000000000000000e+03 6.511041259765625000e+01 -2.242383956909179688e+01 -1.621695049107074738e-02 7.784147739410400391e+00 2.330379247665405273e+00 -6.599138677120208740e-02
4.635000000000000000e+03 6.121481704711914062e+01 1.912975311279296875e+01 2.713465876877307892e-02 7.728899478912353516e+00 2.326810359954833984e+00 -1.382704544812440872e-02
4.636000000000000000e+03 3.447237777709960938e+01 1.089415931701660156e+01 1.178063973784446716e-01 7.913617134094238281e+00 2.409427165985107422e+00 3.119087778031826019e-02
4.637000000000000000e+03 3.370785903930664062e+01 -7.900834083557128906e+00 1.513643842190504074e-02 7.740474224090576172e+00 2.326683282852172852e+00 3.950856998562812805e-02
4.638000000000000000e+03 3.567054367065429688e+01 -5.994225025177001953e+00 2.677143737673759460e-02 7.758899211883544922e+00 2.335701227188110352e+00 8.233540691435337067e-03
4.639000000000000000e+03 6.611943817138671875e+01 -1.373729324340820312e+01 -2.082150895148515701e-03 7.766416072845458984e+00 2.329300165176391602e+00 -7.257079333066940308e-02
4.640000000000000000e+03 3.320439147949218750e+01 -8.847968101501464844e+00 1.074164733290672302e-02 7.725940227508544922e+00 2.321004629135131836e+00 4.770932719111442566e-02
4.641000000000000000e+03 6.419032287597656250e+01 2.443879127502441406e+01 1.540229190140962601e-02 7.719766616821289062e+00 2.320550680160522461e+00 -5.005306564271450043e-03
4.642000000000000000e+03 3.767261886596679688e+01 -8.358109474182128906e+00 1.886024326086044312e-02 7.731038093566894531e+00 2.324969530105590820e+00 -9.985779412090778351e-03
4.643000000000000000e+03 3.407946777343750000e+01 -9.641804695129394531e+00 9.746110998094081879e-03 7.715226173400878906e+00 2.317491769790649414e+00 3.574414178729057312e-02
4.644000000000000000e+03 3.611883163452148438e+01 -1.553686332702636719e+01 -1.937223970890045166e-02 7.648477077484130859e+00 2.288731336593627930e+00 9.742412716150283813e-03
4.645000000000000000e+03 6.399575805664062500e+01 -3.700273036956787109e+00 1.457898970693349838e-02 7.739624023437500000e+00 2.326260805130004883e+00 -7.098180800676345825e-02
4.646000000000000000e+03 6.493687438964843750e+01 -9.357353210449218750e+00 4.887481685727834702e-03 7.752218723297119141e+00 2.327131748199462891e+00 -7.536579668521881104e-02
4.647000000000000000e+03 6.580567169189453125e+01 -1.258737945556640625e+01 -7.087575504556298256e-04 7.762589931488037109e+00 2.328564405441284180e+00 -7.327435910701751709e-02
4.648000000000000000e+03 6.492696380615234375e+01 7.858870029449462891e+00 2.388306148350238800e-02 7.720302104949951172e+00 2.323255538940429688e+00 -4.481757059693336487e-02
4.649000000000000000e+03 6.358005142211914062e+01 6.255339145660400391e+00 2.604537829756736755e-02 7.724988937377929688e+00 2.325310230255126953e+00 -5.000708624720573425e-02
4.650000000000000000e+03 3.602446746826171875e+01 2.762304544448852539e+00 9.725434333086013794e-02 7.831912994384765625e+00 2.378750085830688477e+00 -2.096920972689986229e-03
4.651000000000000000e+03 3.578890228271484375e+01 4.253833293914794922e+00 1.069389134645462036e-01 7.845063686370849609e+00 2.385600805282592773e+00 3.502038307487964630e-03
4.652000000000000000e+03 3.633029937744140625e+01 -3.229642868041992188e+00 4.630193114280700684e-02 7.784056663513183594e+00 2.349107503890991211e+00 -4.119810648262500763e-03
4.653000000000000000e+03 3.736496734619140625e+01 1.165178298950195312e+01 1.134317666292190552e-01 7.872693538665771484e+00 2.395837545394897461e+00 1.433469355106353760e-02
4.654000000000000000e+03 3.539481353759765625e+01 1.487890625000000000e+01 1.056997254490852356e-01 7.919296264648437500e+00 2.407498836517333984e+00 2.421820722520351410e-02
4.655000000000000000e+03 3.711021804809570312e+01 1.845327758789062500e+01 9.936480969190597534e-02 7.895240783691406250e+00 2.398381710052490234e+00 1.865587942302227020e-02
4.656000000000000000e+03 3.776454925537109375e+01 1.976745605468750000e+01 9.620796144008636475e-02 7.889243125915527344e+00 2.395635366439819336e+00 1.824345625936985016e-02
4.657000000000000000e+03 3.693251800537109375e+01 1.545293140411376953e+01 1.049956679344177246e-01 7.896646499633789062e+00 2.400492668151855469e+00 1.873406209051609039e-02
4.658000000000000000e+03 3.485552597045898438e+01 1.373820495605468750e+01 1.084226816892623901e-01 7.922666549682617188e+00 2.409326791763305664e+00 2.871404029428958893e-02
4.659000000000000000e+03 6.541649627685546875e+01 5.209183096885681152e-01 1.686471328139305115e-02 7.731096267700195312e+00 2.324388265609741211e+00 -6.044648215174674988e-02
4.660000000000000000e+03 6.629553985595703125e+01 7.168089151382446289e-01 1.584150828421115875e-02 7.730274677276611328e+00 2.323834896087646484e+00 -5.919590592384338379e-02
4.661000000000000000e+03 3.569731521606445312e+01 -2.250404804944992065e-01 7.246991246938705444e-02 7.814589977264404297e+00 2.366117954254150391e+00 -2.593562472611665726e-03
4.662000000000000000e+03 3.445211791992187500e+01 -1.425397396087646484e+00 5.929445102810859680e-02 7.817039012908935547e+00 2.362900018692016602e+00 8.833643980324268341e-03
4.663000000000000000e+03 6.370882797241210938e+01 5.463988780975341797e+00 2.583752386271953583e-02 7.725559711456298828e+00 2.325419187545776367e+00 -5.248892307281494141e-02
4.664000000000000000e+03 6.617706298828125000e+01 -6.627718448638916016e+00 7.900266908109188080e-03 7.747549533843994141e+00 2.326634883880615234e+00 -6.987857073545455933e-02
4.665000000000000000e+03 6.470940399169921875e+01 -8.271207809448242188e+00 6.585339084267616272e-03 7.749520301818847656e+00 2.326831579208374023e+00 -7.452571392059326172e-02
4.666000000000000000e+03 6.491429901123046875e+01 -5.061119079589843750e+00 1.129392813891172409e-02 7.742863655090332031e+00 2.326247215270996094e+00 -7.063980400562286377e-02
4.667000000000000000e+03 6.464442443847656250e+01 -7.262477874755859375e+00 8.466782048344612122e-03 7.747063636779785156e+00 2.326659202575683594e+00 -7.421917468309402466e-02
4.668000000000000000e+03 3.551035308837890625e+01 5.667781352996826172e+00 1.155043467879295349e-01 7.858654499053955078e+00 2.392247676849365234e+00 1.054446585476398468e-02
4.669000000000000000e+03 3.595507812500000000e+01 1.604280281066894531e+01 1.030474156141281128e-01 7.911473274230957031e+00 2.404356241226196289e+00 2.196266874670982361e-02
4.670000000000000000e+03 3.651753997802734375e+01 -1.154513549804687500e+01 2.966254716739058495e-03 7.696764469146728516e+00 2.309919118881225586e+00 3.855583723634481430e-03
4.671000000000000000e+03 6.494031524658203125e+01 1.146263694763183594e+01 2.329661510884761810e-02 7.716640472412109375e+00 2.321981191635131836e+00 -3.503996133804321289e-02
4.672000000000000000e+03 6.206324386596679688e+01 1.545333099365234375e+01 3.122765570878982544e-02 7.725076198577880859e+00 2.326891183853149414e+00 -2.463665604591369629e-02
4.673000000000000000e+03 3.602623367309570312e+01 -4.630136489868164062e+00 3.704741224646568298e-02 7.773520946502685547e+00 2.343170404434204102e+00 1.160831539891660213e-03
4.674000000000000000e+03 3.751555252075195312e+01 -3.475777387619018555e+00 4.764785990118980408e-02 7.775502204895019531e+00 2.346945047378540039e+00 -1.456261705607175827e-02
4.675000000000000000e+03 6.642335510253906250e+01 -1.926033210754394531e+01 -1.020977925509214401e-02 7.782700538635253906e+00 2.331747293472290039e+00 -6.688441336154937744e-02
4.676000000000000000e+03 6.436695861816406250e+01 -1.719525146484375000e+01 -9.393010288476943970e-03 7.768373012542724609e+00 2.327693939208984375e+00 -7.525509595870971680e-02
4.677000000000000000e+03 3.716211700439453125e+01 -9.918295860290527344e+00 8.751957677304744720e-03 7.713240146636962891e+00 2.316597700119018555e+00 -2.457566326484084129e-03
4.678000000000000000e+03 3.516250228881835938e+01 -1.059033203125000000e+01 5.818686448037624359e-03 7.701587677001953125e+00 2.312222003936767578e+00 2.061008103191852570e-02
4.679000000000000000e+03 6.572274017333984375e+01 -5.601359844207763672e+00 9.300010278820991516e-03 7.744417667388916016e+00 2.326115369796752930e+00 -6.964565068483352661e-02
4.680000000000000000e+03 6.267702484130859375e+01 -2.549717521667480469e+01 -2.668404392898082733e-02 7.775921344757080078e+00 2.324771165847778320e+00 -6.359428912401199341e-02
4.681000000000000000e+03 3.791061019897460938e+01 1.481288528442382812e+01 1.055527701973915100e-01 7.877943515777587891e+00 2.395048856735229492e+00 1.609729230403900146e-02
4.682000000000000000e+03 6.511648559570312500e+01 -3.877773046493530273e+00 1.238387823104858398e-02 7.740429401397705078e+00 2.325844049453735352e+00 -6.937867403030395508e-02
4.683000000000000000e+03 6.479808807373046875e+01 -6.909770369529724121e-01 1.691822893917560577e-02 7.733973026275634766e+00 2.325267553329467773e+00 -6.426019966602325439e-02
4.684000000000000000e+03 6.660564422607421875e+01 -1.632752418518066406e-01 1.431751996278762817e-02 7.731657981872558594e+00 2.323792695999145508e+00 -5.950612202286720276e-02
4.685000000000000000e+03 6.124157714843750000e+01 -2.400619888305664062e+01 -2.953543886542320251e-02 7.764428138732910156e+00 2.320467710494995117e+00 -6.942723691463470459e-02
4.686000000000000000e+03 3.622800445556640625e+01 1.095353603363037109e+01 1.152458414435386658e-01 7.886268138885498047e+00 2.400454044342041016e+00 1.992728747427463531e-02
4.687000000000000000e+03 3.790608596801757812e+01 -6.154450774192810059e-01 6.960723549127578735e-02 7.793269634246826172e+00 2.358863115310668945e+00 -1.843234151601791382e-02
4.688000000000000000e+03 3.595390319824218750e+01 1.228931784629821777e+00 8.394024521112442017e-02 7.821542263031005859e+00 2.371644735336303711e+00 -3.904574783518910408e-03
4.689000000000000000e+03 3.544466400146484375e+01 -1.946047592163085938e+01 -3.698289766907691956e-02 7.599219799041748047e+00 2.268671035766601562e+00 1.605153642594814301e-02
4.690000000000000000e+03 6.118978500366210938e+01 2.168386650085449219e+01 2.558069676160812378e-02 7.732153892517089844e+00 2.327320337295532227e+00 -7.262429688125848770e-03
4.691000000000000000e+03 5.986911392211914062e+01 2.029220199584960938e+01 3.109742328524589539e-02 7.736328601837158203e+00 2.330227851867675781e+00 -9.503010660409927368e-03
4.692000000000000000e+03 6.596353149414062500e+01 2.434898757934570312e+01 1.248986832797527313e-02 7.708600997924804688e+00 2.316327095031738281e+00 -5.069810431450605392e-03
4.693000000000000000e+03 6.350584793090820312e+01 8.730565071105957031e+00 2.789440937340259552e-02 7.723031520843505859e+00 2.325277805328369141e+00 -4.361246898770332336e-02
4.694000000000000000e+03 6.324604415893554688e+01 -1.926332473754882812e+01 -1.427590288221836090e-02 7.767573356628417969e+00 2.325989246368408203e+00 -7.511475682258605957e-02
4.695000000000000000e+03 6.326646804809570312e+01 -1.067718982696533203e+00 1.933890767395496368e-02 7.735280513763427734e+00 2.326385736465454102e+00 -6.816989928483963013e-02
4.696000000000000000e+03 6.429982757568359375e+01 -6.481257438659667969e+00 9.287645108997821808e-03 7.745373249053955078e+00 2.326398134231567383e+00 -7.343676686286926270e-02
4.697000000000000000e+03 6.355707550048828125e+01 -1.071117019653320312e+01 3.106730757281184196e-03 7.752482414245605469e+00 2.326676845550537109e+00 -7.829581946134567261e-02
4.698000000000000000e+03 6.453054046630859375e+01 -1.173797702789306641e+01 7.250156486406922340e-04 7.757220268249511719e+00 2.327383756637573242e+00 -7.618106156587600708e-02
4.699000000000000000e+03 3.705320358276367188e+01 9.041524529457092285e-01 8.152467012405395508e-02 7.811131954193115234e+00 2.367797136306762695e+00 -1.141232904046773911e-02
4.700000000000000000e+03 6.425349426269531250e+01 1.415281772613525391e+00 2.044783905148506165e-02 7.730488300323486328e+00 2.325280666351318359e+00 -6.076551973819732666e-02
4.701000000000000000e+03 6.533531188964843750e+01 3.331855297088623047e+00 1.970414817333221436e-02 7.726025581359863281e+00 2.323718786239624023e+00 -5.537897720932960510e-02
4.702000000000000000e+03 3.743907928466796875e+01 8.765809059143066406e+00 1.154611632227897644e-01 7.854215621948242188e+00 2.390902996063232422e+00 7.901869714260101318e-03
4.703000000000000000e+03 6.311160659790039062e+01 7.127423286437988281e+00 2.839666232466697693e-02 7.725214481353759766e+00 2.326083183288574219e+00 -4.849282279610633850e-02
4.704000000000000000e+03 6.372771072387695312e+01 -1.439064311981201172e+01 -4.018509760499000549e-03 7.760205745697021484e+00 2.326856136322021484e+00 -7.791978120803833008e-02
4.705000000000000000e+03 6.440896606445312500e+01 -1.071151542663574219e+01 2.629102673381567001e-03 7.754417896270751953e+00 2.327114105224609375e+00 -7.655030488967895508e-02
4.706000000000000000e+03 6.470210266113281250e+01 -1.288474655151367188e+01 -1.041401177644729614e-03 7.759963512420654297e+00 2.327676534652709961e+00 -7.611216604709625244e-02
4.707000000000000000e+03 6.397220993041992188e+01 -7.246392250061035156e+00 9.828689508140087128e-03 7.745903491973876953e+00 2.326719760894775391e+00 -7.532735168933868408e-02
4.708000000000000000e+03 6.498188018798828125e+01 -6.039173603057861328e+00 1.001181453466415405e-02 7.744987010955810547e+00 2.326499700546264648e+00 -7.260945439338684082e-02
4.709000000000000000e+03 6.303201675415039062e+01 -1.753164482116699219e+01 -1.070444658398628235e-02 7.763134002685546875e+00 2.325728893280029297e+00 -7.675433158874511719e-02
4.710000000000000000e+03 3.819590759277343750e+01 1.771545410156250000e+01 1.000924780964851379e-01 7.881880760192871094e+00 2.394592046737670898e+00 1.640030555427074432e-02
4.711000000000000000e+03 3.754501342773437500e+01 1.657162475585937500e+01 1.036871820688247681e-01 7.887279987335205078e+00 2.397289991378784180e+00 1.796613447368144989e-02
4.712000000000000000e+03 3.710126876831054688e+01 4.535404205322265625e+00 1.053814366459846497e-01 7.832874774932861328e+00 2.381476879119873047e+00 -3.581415163353085518e-03
4.713000000000000000e+03 3.534809875488281250e+01 8.336636543273925781e+00 1.209807768464088440e-01 7.880612850189208984e+00 2.400478124618530273e+00 2.102500200271606445e-02
4.714000000000000000e+03 3.857852935791015625e+01 1.584075546264648438e+01 1.037018299102783203e-01 7.873195171356201172e+00 2.393069267272949219e+00 1.540534384548664093e-02
4.715000000000000000e+03 6.440029144287109375e+01 2.950062453746795654e-01 1.909524388611316681e-02 7.732412815093994141e+00 2.325452327728271484e+00 -6.360450387001037598e-02
4.716000000000000000e+03 6.412017822265625000e+01 -2.505002021789550781e+00 1.583677716553211212e-02 7.737582683563232422e+00 2.326025962829589844e+00 -6.933207064867019653e-02
4.717000000000000000e+03 3.525996780395507812e+01 7.076415061950683594e+00 1.202699244022369385e-01 7.873355865478515625e+00 2.398087739944458008e+00 1.683143898844718933e-02
4.718000000000000000e+03 3.782553482055664062e+01 1.766537189483642578e+00 8.736611902713775635e-02 7.809261322021484375e+00 2.368988275527954102e+00 -1.480315718799829483e-02
4.719000000000000000e+03 3.525732040405273438e+01 -7.302290916442871094e+00 2.010115608572959900e-02 7.746204853057861328e+00 2.329891920089721680e+00 1.570725440979003906e-02
4.720000000000000000e+03 3.720719528198242188e+01 -4.955418586730957031e+00 3.566896542906761169e-02 7.763029575347900391e+00 2.339609622955322266e+00 -9.233675897121429443e-03
4.721000000000000000e+03 3.857892608642578125e+01 1.226397609710693359e+01 1.090636551380157471e-01 7.858770370483398438e+00 2.390350341796875000e+00 9.741328656673431396e-03
4.722000000000000000e+03 3.799584197998046875e+01 1.321996974945068359e+01 1.094138324260711670e-01 7.868721008300781250e+00 2.393440485000610352e+00 1.296122744679450989e-02
4.723000000000000000e+03 6.400105285644531250e+01 1.278489875793457031e+01 2.681985870003700256e-02 7.718971252441406250e+00 2.323737382888793945e+00 -3.194729983806610107e-02
4.724000000000000000e+03 6.110876464843750000e+01 1.034711933135986328e+01 3.455267101526260376e-02 7.728425502777099609e+00 2.328893423080444336e+00 -3.966400772333145142e-02
4.725000000000000000e+03 6.202631759643554688e+01 1.323276042938232422e+01 3.235050290822982788e-02 7.725144386291503906e+00 2.327248573303222656e+00 -3.133255988359451294e-02
4.726000000000000000e+03 3.684831237792968750e+01 -6.411856174468994141e+00 2.777901664376258850e-02 7.751740455627441406e+00 2.333855867385864258e+00 -4.250899422913789749e-03
4.727000000000000000e+03 3.842596435546875000e+01 -5.290813446044921875e+00 3.659783303737640381e-02 7.755875110626220703e+00 2.337741851806640625e+00 -2.003071643412113190e-02
4.728000000000000000e+03 6.532034301757812500e+01 -1.540640068054199219e+01 -5.087549798190593719e-03 7.767960548400878906e+00 2.328861951828002930e+00 -7.408743351697921753e-02
4.729000000000000000e+03 3.718199539184570312e+01 2.211512184143066406e+01 9.413953870534896851e-02 7.894865036010742188e+00 2.396701335906982422e+00 1.964057609438896179e-02
4.730000000000000000e+03 3.858810043334960938e+01 2.122021484375000000e+01 9.319092333316802979e-02 7.873331546783447266e+00 2.389956712722778320e+00 2.081802114844322205e-02
4.731000000000000000e+03 6.392517852783203125e+01 -2.099580764770507812e+01 -1.674494333565235138e-02 7.774276733398437500e+00 2.327259540557861328e+00 -7.043810933828353882e-02
4.732000000000000000e+03 6.381251525878906250e+01 -4.915216445922851562e+00 1.232891064137220383e-02 7.741930961608886719e+00 2.326277971267700195e+00 -7.318598031997680664e-02
4.733000000000000000e+03 3.806737518310546875e+01 -1.373803329467773438e+01 -6.717292126268148422e-03 7.676709175109863281e+00 2.300997495651245117e+00 -9.705682285130023956e-03
4.734000000000000000e+03 6.376573562622070312e+01 -8.205068588256835938e+00 6.747900042682886124e-03 7.748128890991210938e+00 2.326462984085083008e+00 -7.681435346603393555e-02
4.735000000000000000e+03 6.312178802490234375e+01 -2.300915241241455078e+00 1.817701198160648346e-02 7.737116336822509766e+00 2.326587915420532227e+00 -7.023228704929351807e-02
4.736000000000000000e+03 3.527683639526367188e+01 1.002818012237548828e+01 1.190944239497184753e-01 7.892803668975830078e+00 2.403569459915161133e+00 2.427612617611885071e-02
4.737000000000000000e+03 3.598594665527343750e+01 9.220912933349609375e+00 1.191087663173675537e-01 7.879380226135253906e+00 2.399546861648559570e+00 1.858766376972198486e-02
4.738000000000000000e+03 5.814400863647460938e+01 2.370525550842285156e+01 2.758129686117172241e-02 7.747387409210205078e+00 2.332490682601928711e+00 5.350112915039062500e-04
4.739000000000000000e+03 3.904767227172851562e+01 -6.945784687995910645e-01 6.609412282705307007e-02 7.784901618957519531e+00 2.355298757553100586e+00 -2.531646750867366791e-02
4.740000000000000000e+03 3.657874679565429688e+01 -1.821390986442565918e+00 5.897586420178413391e-02 7.795139312744140625e+00 2.356234550476074219e+00 -8.406236767768859863e-03
4.741000000000000000e+03 6.405460357666015625e+01 2.651626014709472656e+01 1.256280485540628433e-02 7.720041751861572266e+00 2.319781303405761719e+00 -1.167145441286265850e-03
4.742000000000000000e+03 3.685456466674804688e+01 -1.903354263305664062e+01 -3.625212982296943665e-02 7.617147445678710938e+00 2.274268627166748047e+00 1.509205554611980915e-03
4.743000000000000000e+03 3.679339599609375000e+01 -1.425220870971679688e+01 -9.408350102603435516e-03 7.667275428771972656e+00 2.297360181808471680e+00 -4.232323262840509415e-04
4.744000000000000000e+03 6.400204467773437500e+01 7.561320304870605469e+00 2.530760876834392548e-02 7.722569942474365234e+00 2.324363231658935547e+00 -4.601836949586868286e-02
4.745000000000000000e+03 6.160909652709960938e+01 5.648297309875488281e+00 3.194092959165573120e-02 7.729318618774414062e+00 2.328377962112426758e+00 -5.360677838325500488e-02
4.746000000000000000e+03 3.791396713256835938e+01 -1.706601715087890625e+01 -2.544545195996761322e-02 7.646036148071289062e+00 2.286177158355712891e+00 -1.091096922755241394e-02
4.747000000000000000e+03 6.272285842895507812e+01 -2.893796157836914062e+01 -3.271976858377456665e-02 7.782370090484619141e+00 2.324895143508911133e+00 -5.411334335803985596e-02
4.748000000000000000e+03 6.193731689453125000e+01 -3.325673103332519531e+00 1.826574467122554779e-02 7.738452434539794922e+00 2.327015399932861328e+00 -7.338599860668182373e-02
4.749000000000000000e+03 6.435627746582031250e+01 3.466686487197875977e+00 2.193167433142662048e-02 7.727210998535156250e+00 2.324742794036865234e+00 -5.606773123145103455e-02
4.750000000000000000e+03 6.324838256835937500e+01 1.950649172067642212e-01 2.138838544487953186e-02 7.733098030090332031e+00 2.326345920562744141e+00 -6.491540372371673584e-02
4.751000000000000000e+03 3.878618621826171875e+01 3.473908424377441406e+00 9.441294521093368530e-02 7.809946060180664062e+00 2.371307849884033203e+00 -1.657779142260551453e-02
4.752000000000000000e+03 3.678799438476562500e+01 -4.387352764606475830e-01 6.983519345521926880e-02 7.803652763366699219e+00 2.362046480178833008e+00 -9.894307702779769897e-03
4.753000000000000000e+03 3.656772232055664062e+01 7.222565174102783203e+00 1.155193671584129333e-01 7.854956626892089844e+00 2.391142845153808594e+00 8.381410501897335052e-03
4.754000000000000000e+03 3.896028518676757812e+01 1.885279464721679688e+01 9.705786406993865967e-02 7.869189739227294922e+00 2.389874219894409180e+00 1.722680591046810150e-02
4.755000000000000000e+03 3.692739105224609375e+01 9.868113517761230469e+00 1.164217516779899597e-01 7.867398738861083984e+00 2.395146131515502930e+00 1.350871194154024124e-02
4.756000000000000000e+03 3.729071426391601562e+01 1.385504722595214844e+01 1.086124479770660400e-01 7.885666370391845703e+00 2.398283720016479492e+00 1.744863577187061310e-02
4.757000000000000000e+03 3.966505813598632812e+01 1.508323097229003906e+01 1.025038734078407288e-01 7.853960037231445312e+00 2.386939287185668945e+00 1.023024506866931915e-02
4.758000000000000000e+03 6.425344848632812500e+01 -1.381082057952880859e+00 1.776840165257453918e-02 7.735167026519775391e+00 2.325880765914916992e+00 -6.663708388805389404e-02
4.759000000000000000e+03 6.352778244018554688e+01 -6.046049594879150391e+00 1.156039722263813019e-02 7.743699073791503906e+00 2.326577901840209961e+00 -7.454013079404830933e-02
4.760000000000000000e+03 6.184578323364257812e+01 9.238386154174804688e+00 3.284594789147377014e-02 7.726846694946289062e+00 2.327907800674438477e+00 -4.331789538264274597e-02
4.761000000000000000e+03 3.844536590576171875e+01 4.896984100341796875e+00 1.023212820291519165e-01 7.820589065551757812e+00 2.376873254776000977e+00 -1.120799593627452850e-02
4.762000000000000000e+03 6.329688644409179688e+01 -7.001035213470458984e+00 9.221939370036125183e-03 7.745616912841796875e+00 2.326451539993286133e+00 -7.615496218204498291e-02
4.763000000000000000e+03 3.774030685424804688e+01 -2.008702993392944336e+00 5.667213723063468933e-02 7.784471988677978516e+00 2.352343320846557617e+00 -1.669901050627231598e-02
4.764000000000000000e+03 3.884910202026367188e+01 1.404834461212158203e+01 1.061654388904571533e-01 7.862081050872802734e+00 2.390473842620849609e+00 1.142036169767379761e-02
4.765000000000000000e+03 6.301958084106445312e+01 1.195853996276855469e+01 2.831406705081462860e-02 7.722348690032958984e+00 2.325198888778686523e+00 -3.452607989311218262e-02
4.766000000000000000e+03 6.256182479858398438e+01 5.000504016876220703e+00 2.812623977661132812e-02 7.728343009948730469e+00 2.326940774917602539e+00 -5.479662492871284485e-02
4.767000000000000000e+03 6.352878952026367188e+01 4.616101264953613281e+00 2.522905729711055756e-02 7.726899147033691406e+00 2.325638532638549805e+00 -5.443212389945983887e-02
4.768000000000000000e+03 6.330569458007812500e+01 3.666901111602783203e+00 2.481096610426902771e-02 7.728550910949707031e+00 2.326008558273315430e+00 -5.748599395155906677e-02
4.769000000000000000e+03 6.230662155151367188e+01 -8.572395324707031250e+00 6.982957944273948669e-03 7.746335506439208984e+00 2.325995445251464844e+00 -7.938488572835922241e-02
4.770000000000000000e+03 3.857379913330078125e+01 9.288896560668945312e+00 1.121544465422630310e-01 7.843603134155273438e+00 2.386727333068847656e+00 2.281289082020521164e-03
4.771000000000000000e+03 3.681580352783203125e+01 5.929346561431884766e+00 1.116859912872314453e-01 7.844525337219238281e+00 2.386863470077514648e+00 1.768415211699903011e-03
4.772000000000000000e+03 3.857862472534179688e+01 -1.048807716369628906e+01 9.593766182661056519e-03 7.709893226623535156e+00 2.315846204757690430e+00 -1.681885868310928345e-02
4.773000000000000000e+03 3.903509521484375000e+01 -8.843072891235351562e+00 1.516871713101863861e-02 7.723959445953369141e+00 2.321738481521606445e+00 -2.128108963370323181e-02
4.774000000000000000e+03 6.299477386474609375e+01 5.783906936645507812e+00 2.810217067599296570e-02 7.726600646972656250e+00 2.326410770416259766e+00 -5.214694887399673462e-02
4.775000000000000000e+03 6.286347198486328125e+01 9.950228691101074219e+00 2.915667183697223663e-02 7.723729610443115234e+00 2.325865983963012695e+00 -4.018107429146766663e-02
4.776000000000000000e+03 3.642239379882812500e+01 -7.838159561157226562e+00 1.846005767583847046e-02 7.735712051391601562e+00 2.326251506805419922e+00 3.121640533208847046e-03
4.777000000000000000e+03 6.351088714599609375e+01 -1.306684112548828125e+01 -1.302720629610121250e-03 7.757019519805908203e+00 2.326714992523193359e+00 -7.823240756988525391e-02
4.778000000000000000e+03 3.809000396728515625e+01 -6.826219558715820312e+00 2.561438083648681641e-02 7.742941379547119141e+00 2.330566883087158203e+00 -1.453891210258007050e-02
4.779000000000000000e+03 3.876054382324218750e+01 -3.717241525650024414e+00 4.546963423490524292e-02 7.765766143798828125e+00 2.343370676040649414e+00 -2.317778766155242920e-02
4.780000000000000000e+03 5.992986679077148438e+01 1.844114112854003906e+01 3.506153821945190430e-02 7.735495090484619141e+00 2.331166982650756836e+00 -1.531174499541521072e-02
4.781000000000000000e+03 6.177077102661132812e+01 -1.764992523193359375e+01 -1.263245847076177597e-02 7.759177684783935547e+00 2.323963403701782227e+00 -7.902875542640686035e-02
4.782000000000000000e+03 3.630924987792968750e+01 -1.726776504516601562e+01 -2.410327829420566559e-02 7.631117820739746094e+00 2.282104492187500000e+00 6.123132538050413132e-03
4.783000000000000000e+03 3.745624160766601562e+01 -1.553510379791259766e+01 -1.711454056203365326e-02 7.654790401458740234e+00 2.291302680969238281e+00 -7.795311510562896729e-03
4.784000000000000000e+03 6.294249343872070312e+01 -3.516965866088867188e+00 1.594945602118968964e-02 7.739089012145996094e+00 2.326511621475219727e+00 -7.293176651000976562e-02
4.785000000000000000e+03 6.252201843261718750e+01 -5.965722084045410156e+00 1.216664351522922516e-02 7.742685317993164062e+00 2.326455593109130859e+00 -7.658354192972183228e-02
4.786000000000000000e+03 6.323746490478515625e+01 -9.230875968933105469e+00 6.496361456811428070e-03 7.748769760131835938e+00 2.326579809188842773e+00 -7.831691950559616089e-02
4.787000000000000000e+03 6.404263305664062500e+01 -9.863958358764648438e+00 3.513995558023452759e-03 7.751892566680908203e+00 2.326622009277343750e+00 -7.702294737100601196e-02
4.788000000000000000e+03 3.578270339965820312e+01 -2.642639160156250000e+01 -4.634579643607139587e-02 7.524994850158691406e+00 2.243594646453857422e+00 -1.266401144675910473e-03
4.789000000000000000e+03 3.594496154785156250e+01 -2.112707138061523438e+01 -4.150448739528656006e-02 7.590739727020263672e+00 2.264770507812500000e+00 9.714978747069835663e-03
4.790000000000000000e+03 6.163631439208984375e+01 -1.929844284057617188e+01 -1.523215044289827347e-02 7.760794639587402344e+00 2.323668718338012695e+00 -7.697761803865432739e-02
4.791000000000000000e+03 5.783824539184570312e+01 2.108939933776855469e+01 3.488751873373985291e-02 7.746519565582275391e+00 2.334422111511230469e+00 -6.271505728363990784e-03
4.792000000000000000e+03 5.690983963012695312e+01 1.879903793334960938e+01 4.215045273303985596e-02 7.747097015380859375e+00 2.336774349212646484e+00 -1.093219593167304993e-02
4.793000000000000000e+03 6.117082214355468750e+01 -2.711735343933105469e+01 -3.483288735151290894e-02 7.768133640289306641e+00 2.319990158081054688e+00 -6.169020757079124451e-02
4.794000000000000000e+03 6.233522033691406250e+01 2.430613708496093750e+01 1.782130263745784760e-02 7.728003501892089844e+00 2.323747396469116211e+00 -2.950839698314666748e-03
4.795000000000000000e+03 6.785041809082031250e+01 2.766629600524902344e+01 6.587287876754999161e-03 7.698769092559814453e+00 2.311606884002685547e+00 -1.440904918126761913e-03
4.796000000000000000e+03 6.271524429321289062e+01 -4.743478298187255859e+00 1.452197507023811340e-02 7.740871906280517578e+00 2.326618194580078125e+00 -7.461151480674743652e-02
4.797000000000000000e+03 6.240966415405273438e+01 -1.460333442687988281e+01 -4.433866124600172043e-03 7.756209373474121094e+00 2.325532674789428711e+00 -7.971805334091186523e-02
4.798000000000000000e+03 6.344346618652343750e+01 -1.181410884857177734e+01 5.173782701604068279e-04 7.754322052001953125e+00 2.326451778411865234e+00 -7.878815382719039917e-02
4.799000000000000000e+03 6.297799682617187500e+01 -7.775324344635009766e+00 9.716544300317764282e-03 7.745723247528076172e+00 2.326631784439086914e+00 -7.815768569707870483e-02
4.800000000000000000e+03 6.225588989257812500e+01 -1.167215061187744141e+01 1.487886998802423477e-03 7.751209735870361328e+00 2.325809240341186523e+00 -8.059450238943099976e-02
4.801000000000000000e+03 6.031091308593750000e+01 1.136728382110595703e+01 3.737296164035797119e-02 7.730312824249267578e+00 2.330305814743041992e+00 -3.683968633413314819e-02
4.802000000000000000e+03 6.012435531616210938e+01 9.608197212219238281e+00 3.833112865686416626e-02 7.731363773345947266e+00 2.330908298492431641e+00 -4.284660145640373230e-02
4.803000000000000000e+03 3.739701080322265625e+01 3.052226066589355469e+00 9.467031061649322510e-02 7.820315361022949219e+00 2.374495744705200195e+00 -1.025410089641809464e-02
4.804000000000000000e+03 6.254510879516601562e+01 -7.047961711883544922e+00 1.059862226247787476e-02 7.744210243225097656e+00 2.326442718505859375e+00 -7.722712308168411255e-02
4.805000000000000000e+03 3.942707824707031250e+01 -7.223977088928222656e+00 2.651761285960674286e-02 7.738565444946289062e+00 2.329524993896484375e+00 -2.628674171864986420e-02
4.806000000000000000e+03 6.315502166748046875e+01 2.603378057479858398e+00 2.410589717328548431e-02 7.729936122894287109e+00 2.326212644577026367e+00 -5.975446477532386780e-02
4.807000000000000000e+03 3.969951629638671875e+01 -1.259125804901123047e+01 -1.097236876375973225e-03 7.692209243774414062e+00 2.307333707809448242e+00 -2.762559242546558380e-02
4.808000000000000000e+03 6.158286666870117188e+01 7.420012474060058594e+00 3.295652568340301514e-02 7.728419303894042969e+00 2.328412771224975586e+00 -4.884274676442146301e-02
4.809000000000000000e+03 3.638576889038085938e+01 8.347027778625488281e+00 1.179710328578948975e-01 7.864194393157958984e+00 2.394649744033813477e+00 1.210555713623762131e-02
4.810000000000000000e+03 6.273833847045898438e+01 -1.603733825683593750e+01 -7.985197007656097412e-03 7.759777545928955078e+00 2.325537681579589844e+00 -7.912674546241760254e-02
4.811000000000000000e+03 6.140637969970703125e+01 -6.065604686737060547e+00 1.363056711852550507e-02 7.741654396057128906e+00 2.326585531234741211e+00 -7.800479233264923096e-02
4.812000000000000000e+03 3.969215011596679688e+01 -5.627741336822509766e+00 3.367577120661735535e-02 7.748746871948242188e+00 2.334726810455322266e+00 -2.814319357275962830e-02
4.813000000000000000e+03 6.195531845092773438e+01 2.831945419311523438e+00 2.722818776965141296e-02 7.731378555297851562e+00 2.327582120895385742e+00 -6.091770902276039124e-02
4.814000000000000000e+03 3.966997909545898438e+01 2.280863952636718750e+01 8.426857739686965942e-02 7.861678600311279297e+00 2.383784294128417969e+00 2.684731781482696533e-02
4.815000000000000000e+03 6.124055862426757812e+01 -1.996836185455322266e+00 2.171991951763629913e-02 7.736823081970214844e+00 2.327562808990478516e+00 -7.189665734767913818e-02
4.816000000000000000e+03 4.370837402343750000e+01 1.690230941772460938e+01 8.936319500207901001e-02 7.817033767700195312e+00 2.371919155120849609e+00 5.669651553034782410e-03
4.817000000000000000e+03 4.228359985351562500e+01 1.751943397521972656e+01 9.296216815710067749e-02 7.832536220550537109e+00 2.377649545669555664e+00 1.079404819756746292e-02
4.818000000000000000e+03 3.987039947509765625e+01 2.005496788024902344e+01 9.246976673603057861e-02 7.860808372497558594e+00 2.385983467102050781e+00 1.991211809217929840e-02
4.819000000000000000e+03 6.108052825927734375e+01 1.229520797729492188e+01 3.385797515511512756e-02 7.728333473205566406e+00 2.328657388687133789e+00 -3.400875255465507507e-02
4.820000000000000000e+03 3.869624710083007812e+01 -1.510114097595214844e+01 -1.678778417408466339e-02 7.666359901428222656e+00 2.294871568679809570e+00 -1.835122518241405487e-02
4.821000000000000000e+03 3.840419006347656250e+01 -1.879375648498535156e+01 -3.060768358409404755e-02 7.630914688110351562e+00 2.280092000961303711e+00 -1.518380176275968552e-02
4.822000000000000000e+03 6.091967010498046875e+01 1.448809719085693359e+01 3.435973450541496277e-02 7.729268074035644531e+00 2.329088211059570312e+00 -2.721104398369789124e-02
4.823000000000000000e+03 5.983258438110351562e+01 1.331483268737792969e+01 3.888566792011260986e-02 7.732399463653564453e+00 2.331385374069213867e+00 -3.056145645678043365e-02
4.824000000000000000e+03 3.921208572387695312e+01 1.113575267791748047e+01 1.105059981346130371e-01 7.845458030700683594e+00 2.386789083480834961e+00 4.277576692402362823e-03
4.825000000000000000e+03 6.099393463134765625e+01 -2.109280204772949219e+01 -2.208180539309978485e-02 7.759569644927978516e+00 2.321246385574340820e+00 -7.534272968769073486e-02
4.826000000000000000e+03 5.991762924194335938e+01 -2.547535896301269531e+01 -3.365077823400497437e-02 7.759301662445068359e+00 2.317695140838623047e+00 -6.720476597547531128e-02
4.827000000000000000e+03 3.895014572143554688e+01 -2.145689964294433594e+00 5.793320015072822571e-02 7.775289058685302734e+00 2.349966526031494141e+00 -2.596091106534004211e-02
4.828000000000000000e+03 3.804692459106445312e+01 6.500533819198608398e-01 7.681258022785186768e-02 7.799140930175781250e+00 2.362786054611206055e+00 -1.821839809417724609e-02
4.829000000000000000e+03 6.119382095336914062e+01 -1.043030261993408203e+00 2.378974109888076782e-02 7.735809803009033203e+00 2.327879905700683594e+00 -7.121971249580383301e-02
4.830000000000000000e+03 6.218425369262695312e+01 -9.748538732528686523e-01 2.227201312780380249e-02 7.735136032104492188e+00 2.327222347259521484e+00 -6.886332482099533081e-02
4.831000000000000000e+03 6.061830902099609375e+01 -1.720518684387207031e+01 -1.139894966036081314e-02 7.753626346588134766e+00 2.322668313980102539e+00 -8.133622258901596069e-02
4.832000000000000000e+03 5.848064422607421875e+01 1.743868446350097656e+01 3.873832151293754578e-02 7.740376949310302734e+00 2.333734512329101562e+00 -1.649998128414154053e-02
4.833000000000000000e+03 3.971430206298828125e+01 1.309348678588867188e+01 1.066425442695617676e-01 7.846439838409423828e+00 2.385924816131591797e+00 6.179624702781438828e-03
4.834000000000000000e+03 6.251829147338867188e+01 8.141767501831054688e+00 2.978179790079593658e-02 7.725800991058349609e+00 2.326674938201904297e+00 -4.553980380296707153e-02
4.835000000000000000e+03 6.419889831542968750e+01 2.877697372436523438e+01 8.524348959326744080e-03 7.722541332244873047e+00 2.319319725036621094e+00 8.038094965741038322e-04
4.836000000000000000e+03 5.582598114013671875e+01 2.404244232177734375e+01 3.218385949730873108e-02 7.761954784393310547e+00 2.338241577148437500e+00 4.070172552019357681e-03
4.837000000000000000e+03 4.253915405273437500e+01 -8.254838943481445312e+00 2.188341133296489716e-02 7.727723598480224609e+00 2.324882030487060547e+00 -4.764425754547119141e-02
4.838000000000000000e+03 6.191382598876953125e+01 1.513323664665222168e+00 2.594026923179626465e-02 7.732546806335449219e+00 2.327546119689941406e+00 -6.380948424339294434e-02
4.839000000000000000e+03 6.099694061279296875e+01 -1.484809780120849609e+01 -6.483431439846754074e-03 7.752264022827148438e+00 2.323734045028686523e+00 -8.194980770349502563e-02
4.840000000000000000e+03 6.259503936767578125e+01 -1.034132957458496094e+01 2.927271183580160141e-03 7.749932765960693359e+00 2.325857877731323242e+00 -8.019653707742691040e-02
4.841000000000000000e+03 6.313527679443359375e+01 1.436114072799682617e+00 2.280469052493572235e-02 7.731687068939208984e+00 2.326347589492797852e+00 -6.289477646350860596e-02
4.842000000000000000e+03 3.812315368652343750e+01 6.273919105529785156e+00 1.084964945912361145e-01 7.831840991973876953e+00 2.382101297378540039e+00 -3.897313727065920830e-03
4.843000000000000000e+03 6.214849090576171875e+01 -2.138239145278930664e+00 1.943814009428024292e-02 7.737057685852050781e+00 2.326948642730712891e+00 -7.198697328567504883e-02
4.844000000000000000e+03 4.016055297851562500e+01 -7.767588496208190918e-01 6.623896211385726929e-02 7.777732849121093750e+00 2.353191375732421875e+00 -3.109661303460597992e-02
4.845000000000000000e+03 4.660686111450195312e+01 1.664534759521484375e+01 8.103012293577194214e-02 7.795903682708740234e+00 2.363080024719238281e+00 -4.856495652347803116e-04
4.846000000000000000e+03 3.918694305419921875e+01 6.824342012405395508e-01 7.730176299810409546e-02 7.792747020721435547e+00 2.361014604568481445e+00 -2.418956160545349121e-02
4.847000000000000000e+03 6.084442520141601562e+01 8.483242034912109375e+00 3.487775847315788269e-02 7.729778766632080078e+00 2.329396963119506836e+00 -4.545911028981208801e-02
4.848000000000000000e+03 6.222384262084960938e+01 -1.313295269012451172e+01 -2.223465591669082642e-03 7.753417015075683594e+00 2.325357913970947266e+00 -8.086322993040084839e-02
4.849000000000000000e+03 5.799660491943359375e+01 -4.887855529785156250e+00 2.055318653583526611e-02 7.737944126129150391e+00 2.327549219131469727e+00 -7.956941425800323486e-02
4.850000000000000000e+03 6.165668869018554688e+01 -4.599586009979248047e+00 1.606393605470657349e-02 7.739761352539062500e+00 2.326747417449951172e+00 -7.629176974296569824e-02
4.851000000000000000e+03 3.909859085083007812e+01 2.067170143127441406e+00 8.575677126646041870e-02 7.800772190093994141e+00 2.365958690643310547e+00 -2.191914990544319153e-02
4.852000000000000000e+03 6.069314193725585938e+01 6.559287548065185547e+00 3.401215001940727234e-02 7.730889797210693359e+00 2.329470634460449219e+00 -5.138107761740684509e-02
4.853000000000000000e+03 6.065703964233398438e+01 3.149815082550048828e+00 3.162869811058044434e-02 7.732495307922363281e+00 2.329237222671508789e+00 -6.060154363512992859e-02
4.854000000000000000e+03 3.780282592773437500e+01 7.569278717041015625e+00 1.120241656899452209e-01 7.842692375183105469e+00 2.386415004730224609e+00 9.936798596754670143e-04
4.855000000000000000e+03 3.979523086547851562e+01 9.875550270080566406e+00 1.085113063454627991e-01 7.833648681640625000e+00 2.382647991180419922e+00 -1.309912768192589283e-03
4.856000000000000000e+03 3.812166976928710938e+01 -1.216548347473144531e+01 -2.620869083330035210e-03 7.690118789672851562e+00 2.306249380111694336e+00 -1.083026826381683350e-02
4.857000000000000000e+03 4.168162536621093750e+01 1.576313209533691406e+01 9.789489954710006714e-02 7.832904338836669922e+00 2.379239797592163086e+00 7.043450605124235153e-03
4.858000000000000000e+03 4.334379196166992188e+01 1.328163909912109375e+01 9.566252678632736206e-02 7.812490463256835938e+00 2.372445821762084961e+00 -3.952107392251491547e-03
4.859000000000000000e+03 6.060101318359375000e+01 -4.347244739532470703e+00 1.864671893417835236e-02 7.738980770111083984e+00 2.327288150787353516e+00 -7.649423182010650635e-02
4.860000000000000000e+03 4.144991302490234375e+01 -1.151488208770751953e+01 4.633008968085050583e-03 7.704761028289794922e+00 2.312818288803100586e+00 -4.034443199634552002e-02
4.861000000000000000e+03 4.198586654663085938e+01 -9.917020797729492188e+00 1.069442089647054672e-02 7.715998172760009766e+00 2.318007707595825195e+00 -4.373015463352203369e-02
4.862000000000000000e+03 5.946446609497070312e+01 -1.493375778198242188e+01 -6.993076764047145844e-03 7.747091293334960938e+00 2.322029352188110352e+00 -8.354667574167251587e-02
4.863000000000000000e+03 6.145732498168945312e+01 -1.632308959960937500e+01 -9.074534289538860321e-03 7.755022525787353516e+00 2.323784351348876953e+00 -8.009748160839080811e-02
4.864000000000000000e+03 4.093268585205078125e+01 -7.606858730316162109e+00 2.286602184176445007e-02 7.731964111328125000e+00 2.326448917388916016e+00 -3.698062524199485779e-02
4.865000000000000000e+03 4.320284652709960938e+01 -6.953998088836669922e+00 2.720211818814277649e-02 7.733672142028808594e+00 2.328262329101562500e+00 -5.001309141516685486e-02
4.866000000000000000e+03 4.181471252441406250e+01 1.276004600524902344e+01 1.016205400228500366e-01 7.824159622192382812e+00 2.377734184265136719e+00 -1.412153011187911034e-03
4.867000000000000000e+03 5.973253250122070312e+01 1.583297634124755859e+01 3.722124546766281128e-02 7.733582973480224609e+00 2.331241369247436523e+00 -2.291951142251491547e-02
4.868000000000000000e+03 5.907905578613281250e+01 8.912470817565917969e+00 4.046978056430816650e-02 7.734221935272216797e+00 2.332407474517822266e+00 -4.427614063024520874e-02
4.869000000000000000e+03 6.482342529296875000e+01 3.113795089721679688e+01 5.135733634233474731e-03 7.718480110168457031e+00 2.317084789276123047e+00 1.497092540375888348e-03
4.870000000000000000e+03 6.158694839477539062e+01 -7.518820285797119141e+00 1.097714155912399292e-02 7.743594646453857422e+00 2.326371431350708008e+00 -7.981763780117034912e-02
4.871000000000000000e+03 6.145887374877929688e+01 -9.726008415222167969e+00 6.248448044061660767e-03 7.746297359466552734e+00 2.325763702392578125e+00 -8.128274232149124146e-02
4.872000000000000000e+03 3.678174972534179688e+01 -2.453877830505371094e+01 -5.365689098834991455e-02 7.557922363281250000e+00 2.251279592514038086e+00 -1.987569557968527079e-04
4.873000000000000000e+03 5.980812454223632812e+01 5.539479255676269531e+00 3.651896119117736816e-02 7.732798576354980469e+00 2.330795288085937500e+00 -5.518977344036102295e-02
4.874000000000000000e+03 4.294001007080078125e+01 2.572781181335449219e+01 5.930563062429428101e-02 7.835818290710449219e+00 2.368537187576293945e+00 3.462789580225944519e-02
4.875000000000000000e+03 5.848651504516601562e+01 1.449549007415771484e+01 4.156258702278137207e-02 7.737928867340087891e+00 2.333847522735595703e+00 -2.633846551179885864e-02
4.876000000000000000e+03 3.801517868041992188e+01 1.048374271392822266e+01 1.133201867341995239e-01 7.857795238494873047e+00 2.391334533691406250e+00 9.321424178779125214e-03
4.877000000000000000e+03 4.011706924438476562e+01 -1.863394546508789062e+01 -3.376014158129692078e-02 7.649065017700195312e+00 2.284591436386108398e+00 -3.039217554032802582e-02
4.878000000000000000e+03 6.034901046752929688e+01 2.388637351989746094e+01 2.371325157582759857e-02 7.738321304321289062e+00 2.328610420227050781e+00 -2.469469327479600906e-03
4.879000000000000000e+03 5.715437316894531250e+01 1.317647647857666016e+01 4.770786315202713013e-02 7.741370677947998047e+00 2.336723566055297852e+00 -2.968419156968593597e-02
4.880000000000000000e+03 6.237403106689453125e+01 -3.286614990234375000e+01 -3.907899558544158936e-02 7.784043788909912109e+00 2.323489427566528320e+00 -4.108601063489913940e-02
4.881000000000000000e+03 5.841635131835937500e+01 -2.156043243408203125e+01 -2.705247513949871063e-02 7.746687412261962891e+00 2.315890550613403320e+00 -7.638533413410186768e-02
4.882000000000000000e+03 5.928266525268554688e+01 -2.849349784851074219e+01 -4.380302503705024719e-02 7.757043361663818359e+00 2.313972234725952148e+00 -6.000298634171485901e-02
4.883000000000000000e+03 6.058309555053710938e+01 1.542174339294433594e+00 2.891798689961433411e-02 7.734230518341064453e+00 2.328944444656372070e+00 -6.566328555345535278e-02
4.884000000000000000e+03 6.218047332763671875e+01 4.019050598144531250e+00 2.830045856535434723e-02 7.729678630828857422e+00 2.327393770217895508e+00 -5.743419378995895386e-02
4.885000000000000000e+03 3.941110610961914062e+01 6.690109729766845703e+00 1.050118878483772278e-01 7.821245193481445312e+00 2.377876996994018555e+00 -1.052594464272260666e-02
4.886000000000000000e+03 4.050445938110351562e+01 2.232931375503540039e+00 8.404534310102462769e-02 7.790275573730468750e+00 2.362296342849731445e+00 -2.826551906764507294e-02
4.887000000000000000e+03 6.096710586547851562e+01 4.564688682556152344e+00 3.170687705278396606e-02 7.731588363647460938e+00 2.328988552093505859e+00 -5.714942142367362976e-02
4.888000000000000000e+03 4.063824462890625000e+01 -3.119724035263061523e+00 5.182190984487533569e-02 7.762284755706787109e+00 2.344231843948364258e+00 -3.457281738519668579e-02
4.889000000000000000e+03 4.013744735717773438e+01 -1.999165415763854980e+00 5.614448711276054382e-02 7.770283699035644531e+00 2.347928524017333984e+00 -3.260727599263191223e-02
4.890000000000000000e+03 6.085635375976562500e+01 -1.313397502899169922e+01 -1.980440458282828331e-03 7.749277591705322266e+00 2.324189186096191406e+00 -8.271855115890502930e-02
4.891000000000000000e+03 5.791189956665039062e+01 1.170809936523437500e+01 4.446655139327049255e-02 7.737880229949951172e+00 2.334704160690307617e+00 -3.473681956529617310e-02
4.892000000000000000e+03 5.948178100585937500e+01 1.073262596130371094e+01 4.021002352237701416e-02 7.733471870422363281e+00 2.332104682922363281e+00 -3.868422284722328186e-02
4.893000000000000000e+03 3.977225494384765625e+01 5.295482635498046875e+00 9.985755383968353271e-02 7.811070919036865234e+00 2.373278379440307617e+00 -1.614203304052352905e-02
4.894000000000000000e+03 6.092328262329101562e+01 -1.135138416290283203e+01 1.823959057219326496e-03 7.747163772583007812e+00 2.324696302413940430e+00 -8.275637775659561157e-02
4.895000000000000000e+03 6.042941665649414062e+01 -1.565069913864135742e+00 2.325459383428096771e-02 7.736447811126708984e+00 2.327910900115966797e+00 -7.232478260993957520e-02
4.896000000000000000e+03 4.109737396240234375e+01 -5.857109546661376953e+00 3.474168106913566589e-02 7.743566513061523438e+00 2.333492517471313477e+00 -3.915427997708320618e-02
4.897000000000000000e+03 4.101675033569335938e+01 -4.299286842346191406e+00 4.232535138726234436e-02 7.753772258758544922e+00 2.338829278945922852e+00 -3.831433132290840149e-02
4.898000000000000000e+03 5.911429977416992188e+01 -5.309377670288085938e+00 1.852432452142238617e-02 7.738849163055419922e+00 2.327212095260620117e+00 -7.941453158855438232e-02
4.899000000000000000e+03 6.023964309692382812e+01 -5.857697010040283203e+00 1.490579079836606979e-02 7.740270137786865234e+00 2.326552867889404297e+00 -7.940448075532913208e-02
4.900000000000000000e+03 5.990541076660156250e+01 -2.625420570373535156e+00 2.325275912880897522e-02 7.737267017364501953e+00 2.328155994415283203e+00 -7.434204965829849243e-02
4.901000000000000000e+03 5.580221557617187500e+01 1.694379425048828125e+01 4.835025966167449951e-02 7.750764846801757812e+00 2.339734554290771484e+00 -1.617795415222644806e-02
4.902000000000000000e+03 5.956981277465820312e+01 -7.323156356811523438e+00 1.388474367558956146e-02 7.740424156188964844e+00 2.326292514801025391e+00 -8.139405399560928345e-02
4.903000000000000000e+03 4.342910766601562500e+01 -3.712768554687500000e+00 4.463906213641166687e-02 7.749029636383056641e+00 2.338100671768188477e+00 -5.107530206441879272e-02
4.904000000000000000e+03 4.028712081909179688e+01 8.529791831970214844e+00 1.058803796768188477e-01 7.821919441223144531e+00 2.378340005874633789e+00 -8.820013143122196198e-03
4.905000000000000000e+03 5.882906723022460938e+01 -1.787374114990234375e+01 -1.571232639253139496e-02 7.746319770812988281e+00 2.319182395935058594e+00 -8.187875896692276001e-02
4.906000000000000000e+03 4.408826065063476562e+01 -2.462023162841796875e+01 -6.006805226206779480e-02 7.645233631134033203e+00 2.275549650192260742e+00 -5.156244710087776184e-02
4.907000000000000000e+03 3.971461105346679688e+01 -2.302530097961425781e+01 -5.292333289980888367e-02 7.608198642730712891e+00 2.266582489013671875e+00 -2.397450245916843414e-02
4.908000000000000000e+03 5.657292175292968750e+01 2.939392805099487305e+00 4.170396551489830017e-02 7.738191604614257812e+00 2.333968639373779297e+00 -6.248845532536506653e-02
4.909000000000000000e+03 4.327112197875976562e+01 2.104660987854003906e+01 8.032766729593276978e-02 7.828143119812011719e+00 2.372541189193725586e+00 1.924422197043895721e-02
4.910000000000000000e+03 4.204154586791992188e+01 1.997929000854492188e+01 8.653585612773895264e-02 7.837223529815673828e+00 2.377127885818481445e+00 1.783525384962558746e-02
4.911000000000000000e+03 6.076725769042968750e+01 8.597354590892791748e-02 2.660360187292098999e-02 7.734758853912353516e+00 2.328408718109130859e+00 -6.793954223394393921e-02
4.912000000000000000e+03 5.955957031250000000e+01 -6.397703886032104492e-01 2.831813879311084747e-02 7.735874176025390625e+00 2.329257726669311523e+00 -7.103026658296585083e-02
4.913000000000000000e+03 3.943797683715820312e+01 -1.668156242370605469e+01 -2.109719067811965942e-02 7.658057212829589844e+00 2.291088104248046875e+00 -2.309642359614372253e-02
4.914000000000000000e+03 5.798977279663085938e+01 8.158134460449218750e+00 4.460881650447845459e-02 7.736444473266601562e+00 2.334316015243530273e+00 -4.701674729585647583e-02
4.915000000000000000e+03 3.902558135986328125e+01 8.022579193115234375e+00 1.093698069453239441e-01 7.832115650177001953e+00 2.382445573806762695e+00 -3.337548812851309776e-03
4.916000000000000000e+03 4.663537216186523438e+01 1.835389709472656250e+01 7.906279712915420532e-02 7.798858165740966797e+00 2.363376140594482422e+00 4.922951571643352509e-03
4.917000000000000000e+03 4.400629425048828125e+01 2.371137428283691406e+01 6.788389384746551514e-02 7.826133251190185547e+00 2.368205070495605469e+00 2.666286937892436981e-02
4.918000000000000000e+03 4.113761138916015625e+01 -1.309153747558593750e+01 -6.066291593015193939e-03 7.692918777465820312e+00 2.306055784225463867e+00 -3.645084798336029053e-02
4.919000000000000000e+03 5.473564147949218750e+01 1.535048770904541016e+01 5.479783564805984497e-02 7.752063274383544922e+00 2.342058420181274414e+00 -1.936767250299453735e-02
4.920000000000000000e+03 5.599538040161132812e+01 1.438691806793212891e+01 4.987588897347450256e-02 7.747213363647460938e+00 2.339126825332641602e+00 -2.449935860931873322e-02
4.921000000000000000e+03 5.876815032958984375e+01 -2.001377105712890625e+00 2.626441232860088348e-02 7.736964225769042969e+00 2.328968524932861328e+00 -7.422338426113128662e-02
4.922000000000000000e+03 5.784325408935546875e+01 -1.308898925781250000e+01 -2.119405195116996765e-03 7.740427970886230469e+00 2.321492433547973633e+00 -8.470416069030761719e-02
4.923000000000000000e+03 5.931667709350585938e+01 1.806433796882629395e+00 3.229025006294250488e-02 7.734797477722167969e+00 2.330126285552978516e+00 -6.539833545684814453e-02
4.924000000000000000e+03 5.875477218627929688e+01 4.630363941192626953e+00 3.766088560223579407e-02 7.734792232513427734e+00 2.331735849380493164e+00 -5.751675367355346680e-02
4.925000000000000000e+03 4.114384841918945312e+01 -1.311940670013427734e+00 6.077443808317184448e-02 7.769221782684326172e+00 2.348998785018920898e+00 -3.734918311238288879e-02
4.926000000000000000e+03 4.218920135498046875e+01 -4.028623580932617188e+00 4.463230818510055542e-02 7.751225948333740234e+00 2.338757514953613281e+00 -4.393751546740531921e-02
4.927000000000000000e+03 5.663036727905273438e+01 -1.698057746887207031e+01 -1.540955156087875366e-02 7.735827922821044922e+00 2.316125631332397461e+00 -8.397355675697326660e-02
4.928000000000000000e+03 6.203696060180664062e+01 2.240729928016662598e-01 2.384764142334461212e-02 7.734198570251464844e+00 2.327414035797119141e+00 -6.716426461935043335e-02
4.929000000000000000e+03 5.771535491943359375e+01 -6.178066730499267578e+00 1.828036829829216003e-02 7.737947463989257812e+00 2.326868295669555664e+00 -8.072578907012939453e-02
4.930000000000000000e+03 4.250697326660156250e+01 -5.623208999633789062e+00 3.417899459600448608e-02 7.741094589233398438e+00 2.332581996917724609e+00 -4.701758921146392822e-02
4.931000000000000000e+03 4.108599472045898438e+01 1.049938964843750000e+01 1.047179996967315674e-01 7.822859287261962891e+00 2.378273010253906250e+00 -5.986438598483800888e-03
4.932000000000000000e+03 5.761450195312500000e+01 3.839756488800048828e+00 4.075206071138381958e-02 7.736829757690429688e+00 2.333274602890014648e+00 -6.050613895058631897e-02
4.933000000000000000e+03 5.725253677368164062e+01 9.508495330810546875e+00 4.628774151206016541e-02 7.738775253295898438e+00 2.335518836975097656e+00 -4.200160130858421326e-02
4.934000000000000000e+03 5.729791641235351562e+01 -2.027169609069824219e+01 -2.502747252583503723e-02 7.740420341491699219e+00 2.314617872238159180e+00 -7.999078184366226196e-02
4.935000000000000000e+03 5.946887969970703125e+01 -2.012498664855957031e+01 -2.017433941364288330e-02 7.750959873199462891e+00 2.319235563278198242e+00 -7.864130288362503052e-02
4.936000000000000000e+03 4.241491699218750000e+01 1.109587669372558594e+01 9.958934783935546875e-02 7.812195301055908203e+00 2.373535394668579102e+00 -8.723841980099678040e-03
4.937000000000000000e+03 5.791391372680664062e+01 -1.128529548645019531e+01 2.489324426278471947e-03 7.739544391632080078e+00 2.322610139846801758e+00 -8.555112779140472412e-02
4.938000000000000000e+03 5.926219177246093750e+01 -9.524351119995117188e+00 7.508150767534971237e-03 7.741733551025390625e+00 2.324772357940673828e+00 -8.391996473073959351e-02
4.939000000000000000e+03 4.397726058959960938e+01 -1.249897956848144531e+01 4.623314307536929846e-04 7.705662250518798828e+00 2.311837434768676758e+00 -5.580523610115051270e-02
4.940000000000000000e+03 4.418407058715820312e+01 -8.824757575988769531e+00 1.644256524741649628e-02 7.723015308380126953e+00 2.321837425231933594e+00 -5.634066089987754822e-02
4.941000000000000000e+03 4.321279144287109375e+01 -1.070970726013183594e+01 8.967051282525062561e-03 7.715022563934326172e+00 2.317196846008300781e+00 -5.144277215003967285e-02
4.942000000000000000e+03 5.597753524780273438e+01 8.684659004211425781e+00 5.141400545835494995e-02 7.742206096649169922e+00 2.338085889816284180e+00 -4.439373314380645752e-02
4.943000000000000000e+03 4.157629013061523438e+01 -1.798446655273437500e+01 -2.948908321559429169e-02 7.659074306488037109e+00 2.288875579833984375e+00 -3.679355978965759277e-02
4.944000000000000000e+03 5.839971923828125000e+01 2.651126623153686523e+00 3.634598478674888611e-02 7.735819816589355469e+00 2.331649780273437500e+00 -6.330501288175582886e-02
4.945000000000000000e+03 4.167204284667968750e+01 2.784930801391601562e+01 5.122575908899307251e-02 7.846336841583251953e+00 2.369268894195556641e+00 4.566174745559692383e-02
4.946000000000000000e+03 5.330140686035156250e+01 1.997977256774902344e+01 5.055933073163032532e-02 7.765899181365966797e+00 2.344937562942504883e+00 -1.023762859404087067e-03
4.947000000000000000e+03 4.480183792114257812e+01 2.182785224914550781e+01 7.159348577260971069e-02 7.817762851715087891e+00 2.366806983947753906e+00 1.941126398742198944e-02
4.948000000000000000e+03 4.496530151367187500e+01 2.684289360046386719e+01 4.845263436436653137e-02 7.825149059295654297e+00 2.362080574035644531e+00 3.573464974761009216e-02
4.949000000000000000e+03 4.391932678222656250e+01 1.966598892211914062e+01 8.096995949745178223e-02 7.821118831634521484e+00 2.370626688003540039e+00 1.418073847889900208e-02
4.950000000000000000e+03 4.108250427246093750e+01 5.717470645904541016e+00 9.684580564498901367e-02 7.802587509155273438e+00 2.369829893112182617e+00 -2.129345200955867767e-02
4.951000000000000000e+03 4.070434951782226562e+01 7.142468452453613281e+00 1.021505296230316162e-01 7.811738491058349609e+00 2.374166727066040039e+00 -1.453771255910396576e-02
4.952000000000000000e+03 5.736643981933593750e+01 -2.932401299476623535e-01 3.314594551920890808e-02 7.737218379974365234e+00 2.331109285354614258e+00 -7.109671831130981445e-02
4.953000000000000000e+03 5.850951766967773438e+01 5.439220070838928223e-01 3.174927458167076111e-02 7.736226558685302734e+00 2.330392837524414062e+00 -6.853330880403518677e-02
4.954000000000000000e+03 5.640661239624023438e+01 -1.077852249145507812e+00 3.357698395848274231e-02 7.737639427185058594e+00 2.331364870071411133e+00 -7.248757779598236084e-02
4.955000000000000000e+03 5.883505249023437500e+01 6.839564800262451172e+00 4.011535272002220154e-02 7.734648227691650391e+00 2.332429170608520508e+00 -5.100326985120773315e-02
4.956000000000000000e+03 4.379814910888671875e+01 -5.159210205078125000e+00 3.726372867822647095e-02 7.741422653198242188e+00 2.333606004714965820e+00 -5.327130854129791260e-02
4.957000000000000000e+03 4.184295272827148438e+01 -4.123219754546880722e-03 6.848347932100296021e-02 7.772413730621337891e+00 2.352269172668457031e+00 -3.904903680086135864e-02
4.958000000000000000e+03 4.278831863403320312e+01 4.683065414428710938e+00 8.813430368900299072e-02 7.785979747772216797e+00 2.362234354019165039e+00 -3.145769983530044556e-02
4.959000000000000000e+03 4.051029586791992188e+01 6.077500581741333008e-01 7.347693294286727905e-02 7.783279418945312500e+00 2.357026815414428711e+00 -3.173312544822692871e-02
4.960000000000000000e+03 4.522865676879882812e+01 2.004784965515136719e+01 7.790774106979370117e-02 7.812677860260009766e+00 2.367175579071044922e+00 1.386380009353160858e-02
4.961000000000000000e+03 4.528790283203125000e+01 1.834009552001953125e+01 8.053505420684814453e-02 7.808160305023193359e+00 2.366608619689941406e+00 7.071370258927345276e-03
4.962000000000000000e+03 5.666677093505859375e+01 -7.663993835449218750e+00 1.537648960947990417e-02 7.737044334411621094e+00 2.325726270675659180e+00 -8.224648237228393555e-02
4.963000000000000000e+03 5.783126831054687500e+01 -7.396026134490966797e+00 1.458318531513214111e-02 7.738664627075195312e+00 2.325974464416503906e+00 -8.279289305210113525e-02
4.964000000000000000e+03 5.661679458618164062e+01 1.085584926605224609e+01 5.003763362765312195e-02 7.741668224334716797e+00 2.337511777877807617e+00 -3.745306655764579773e-02
4.965000000000000000e+03 4.191040420532226562e+01 2.647726774215698242e+00 8.214765787124633789e-02 7.783405780792236328e+00 2.359666109085083008e+00 -3.404118865728378296e-02
4.966000000000000000e+03 4.014027023315429688e+01 3.825744867324829102e+00 9.245052933692932129e-02 7.801331996917724609e+00 2.368134737014770508e+00 -2.284074202179908752e-02
4.967000000000000000e+03 5.940220642089843750e+01 -1.311930656433105469e+01 -2.736306749284267426e-03 7.745079994201660156e+00 2.322703123092651367e+00 -8.444657921791076660e-02
4.968000000000000000e+03 5.806149291992187500e+01 -1.664439582824707031e+01 -1.336922496557235718e-02 7.742269039154052734e+00 2.318669795989990234e+00 -8.335682749748229980e-02
4.969000000000000000e+03 5.665514755249023438e+01 -6.102422237396240234e+00 1.900253631174564362e-02 7.737525939941406250e+00 2.326958417892456055e+00 -8.130512386560440063e-02
4.970000000000000000e+03 5.787784576416015625e+01 -1.490583515167236328e+01 -8.108890615403652191e-03 7.740452289581298828e+00 2.319703102111816406e+00 -8.491875976324081421e-02
4.971000000000000000e+03 5.682759857177734375e+01 -1.878113174438476562e+01 -2.117969840764999390e-02 7.737789154052734375e+00 2.314982891082763672e+00 -8.139555156230926514e-02
4.972000000000000000e+03 4.376619720458984375e+01 1.156269550323486328e+01 9.677165746688842773e-02 7.802891731262207031e+00 2.369899034500122070e+00 -1.181321218609809875e-02
4.973000000000000000e+03 4.240687561035156250e+01 6.148348808288574219e+00 9.403025358915328979e-02 7.794564247131347656e+00 2.366578340530395508e+00 -2.462457865476608276e-02
4.974000000000000000e+03 4.493437957763671875e+01 1.329990196228027344e+01 9.059002250432968140e-02 7.799738883972167969e+00 2.367098569869995117e+00 -8.707304485142230988e-03
4.975000000000000000e+03 5.855348205566406250e+01 -8.392244338989257812e+00 1.029740087687969208e-02 7.740208625793457031e+00 2.325151920318603516e+00 -8.254040032625198364e-02
4.976000000000000000e+03 4.465056610107421875e+01 -3.489362955093383789e+00 4.578969255089759827e-02 7.747090816497802734e+00 2.337864160537719727e+00 -5.568446591496467590e-02
4.977000000000000000e+03 5.863329696655273438e+01 -6.549726486206054688e+00 1.535104773938655853e-02 7.739200115203857422e+00 2.326365470886230469e+00 -8.105538040399551392e-02
4.978000000000000000e+03 5.710857772827148438e+01 -3.142950296401977539e+00 2.631240524351596832e-02 7.737400531768798828e+00 2.329113721847534180e+00 -7.705309242010116577e-02
4.979000000000000000e+03 5.455285644531250000e+01 -1.014827966690063477e+00 3.803636133670806885e-02 7.739153385162353516e+00 2.333156824111938477e+00 -7.107767462730407715e-02
4.980000000000000000e+03 5.650144958496093750e+01 8.699371814727783203e-01 3.720502182841300964e-02 7.738006114959716797e+00 2.332563400268554688e+00 -6.743197143077850342e-02
4.981000000000000000e+03 4.375420379638671875e+01 6.562091350555419922e+00 9.079311043024063110e-02 7.786982536315917969e+00 2.363332748413085938e+00 -2.874693274497985840e-02
4.982000000000000000e+03 4.202175521850585938e+01 7.601178169250488281e+00 9.889239072799682617e-02 7.802839279174804688e+00 2.370519638061523438e+00 -1.902911067008972168e-02
4.983000000000000000e+03 4.309069442749023438e+01 -6.900820136070251465e-01 6.110351160168647766e-02 7.763243198394775391e+00 2.347304105758666992e+00 -4.553453251719474792e-02
4.984000000000000000e+03 4.181575775146484375e+01 -2.524686813354492188e+00 5.408192798495292664e-02 7.761660099029541016e+00 2.344722509384155273e+00 -4.205724969506263733e-02
4.985000000000000000e+03 4.372061538696289062e+01 2.018358945846557617e+00 7.587697356939315796e-02 7.772670745849609375e+00 2.354564428329467773e+00 -4.222396388649940491e-02
4.986000000000000000e+03 5.749175262451171875e+01 1.753789186477661133e+00 3.772739320993423462e-02 7.736971855163574219e+00 2.332409858703613281e+00 -6.579016894102096558e-02
4.987000000000000000e+03 5.685573577880859375e+01 -4.637592315673828125e+00 2.356407977640628815e-02 7.737258911132812500e+00 2.328246831893920898e+00 -7.889296114444732666e-02
4.988000000000000000e+03 5.540305328369140625e+01 1.004007911682128906e+01 5.359783023595809937e-02 7.744479179382324219e+00 2.339422941207885742e+00 -3.895882144570350647e-02
4.989000000000000000e+03 5.670127868652343750e+01 5.096326828002929688e+00 4.438514634966850281e-02 7.738615989685058594e+00 2.334900379180908203e+00 -5.608997493982315063e-02
4.990000000000000000e+03 4.438695144653320312e+01 -7.538326740264892578e+00 2.486518211662769318e-02 7.729432582855224609e+00 2.326289415359497070e+00 -5.645832046866416931e-02
4.991000000000000000e+03 4.275460815429687500e+01 -1.205658912658691406e+01 -2.071704948320984840e-04 7.705011844635009766e+00 2.311441421508789062e+00 -4.778357222676277161e-02
4.992000000000000000e+03 4.424680328369140625e+01 -1.130741214752197266e+01 3.207407658919692039e-03 7.710831642150878906e+00 2.314211845397949219e+00 -5.716748908162117004e-02
4.993000000000000000e+03 5.944124603271484375e+01 -1.123916912078857422e+01 3.071216866374015808e-03 7.743719577789306641e+00 2.324037313461303711e+00 -8.376071602106094360e-02
4.994000000000000000e+03 5.510613632202148438e+01 -1.723229980468750000e+01 -1.767246797680854797e-02 7.730316162109375000e+00 2.313793182373046875e+00 -8.223260939121246338e-02
4.995000000000000000e+03 5.719173812866210938e+01 1.585072422027587891e+01 4.634882882237434387e-02 7.743626594543457031e+00 2.336992502212524414e+00 -2.053461596369743347e-02
4.996000000000000000e+03 4.516856765747070312e+01 1.667064285278320312e+01 8.735040575265884399e-02 7.805903911590576172e+00 2.367976427078247070e+00 2.317852107807993889e-03
4.997000000000000000e+03 4.334505462646484375e+01 1.514976882934570312e+01 9.506882727146148682e-02 7.817425251007080078e+00 2.373748302459716797e+00 1.493077259510755539e-03
4.998000000000000000e+03 4.159087753295898438e+01 9.051239967346191406e+00 1.021291241049766541e-01 7.812026023864746094e+00 2.374246597290039062e+00 -1.216009259223937988e-02
4.999000000000000000e+03 4.507791137695312500e+01 1.191637802124023438e+01 9.187681972980499268e-02 7.795337677001953125e+00 2.366164445877075195e+00 -1.379272434860467911e-02
5.000000000000000000e+03 5.535896682739257812e+01 -1.913405609130859375e+01 -2.329327166080474854e-02 7.729369163513183594e+00 2.311822652816772461e+00 -8.169528096914291382e-02
5.001000000000000000e+03 4.503500366210937500e+01 -4.864333629608154297e+00 3.733147308230400085e-02 7.742066860198974609e+00 2.333819627761840820e+00 -5.843696743249893188e-02
5.002000000000000000e+03 4.425040817260742188e+01 -6.411975383758544922e+00 2.980008907616138458e-02 7.736764430999755859e+00 2.329969406127929688e+00 -5.590762197971343994e-02
5.003000000000000000e+03 5.586991500854492188e+01 1.208047676086425781e+01 5.203538760542869568e-02 7.745427608489990234e+00 2.339238882064819336e+00 -3.192456439137458801e-02
5.004000000000000000e+03 4.403170394897460938e+01 1.836963844299316406e+01 8.642049133777618408e-02 7.818412303924560547e+00 2.371449708938598633e+00 1.029047183692455292e-02
5.005000000000000000e+03 5.750052261352539062e+01 -1.630797743797302246e+00 3.052286989986896515e-02 7.736904144287109375e+00 2.330228090286254883e+00 -7.357589155435562134e-02
5.006000000000000000e+03 5.664918518066406250e+01 -9.358362197875976562e+00 8.750591427087783813e-03 7.737462997436523438e+00 2.323864221572875977e+00 -8.445680141448974609e-02
5.007000000000000000e+03 5.551705551147460938e+01 -1.946108698844909668e+00 3.389810025691986084e-02 7.737638473510742188e+00 2.331460952758789062e+00 -7.465972006320953369e-02
5.008000000000000000e+03 4.428120040893554688e+01 1.000395011901855469e+01 9.345845133066177368e-02 7.794848442077636719e+00 2.366492033004760742e+00 -1.791197992861270905e-02
5.009000000000000000e+03 4.449308776855468750e+01 3.645840644836425781e+00 7.882718741893768311e-02 7.773320198059082031e+00 2.355644226074218750e+00 -4.070260375738143921e-02
5.010000000000000000e+03 4.569790649414062500e+01 -1.044140625000000000e+01 8.359914645552635193e-03 7.717969894409179688e+00 2.317898988723754883e+00 -6.340306997299194336e-02
5.011000000000000000e+03 4.424865722656250000e+01 -1.015822792053222656e+01 1.184339914470911026e-02 7.717582225799560547e+00 2.318827629089355469e+00 -5.597704276442527771e-02
5.012000000000000000e+03 5.474704360961914062e+01 7.664817810058593750e+00 5.400412902235984802e-02 7.744736194610595703e+00 2.339622020721435547e+00 -4.650535061955451965e-02
5.013000000000000000e+03 5.619476318359375000e+01 -1.299523735046386719e+01 -3.148368559777736664e-03 7.734794616699218750e+00 2.319494009017944336e+00 -8.584627509117126465e-02
5.014000000000000000e+03 4.321632385253906250e+01 3.254798650741577148e+00 8.090343326330184937e-02 7.778468132019042969e+00 2.357811450958251953e+00 -3.715283423662185669e-02
5.015000000000000000e+03 4.411451339721679688e+01 5.085102558135986328e+00 8.494623750448226929e-02 7.779985904693603516e+00 2.359479665756225586e+00 -3.462100774049758911e-02
5.016000000000000000e+03 5.588942718505859375e+01 -3.072713851928710938e+00 2.938795089721679688e-02 7.737521648406982422e+00 2.330072879791259766e+00 -7.595268636941909790e-02
5.017000000000000000e+03 5.546296691894531250e+01 -5.975937366485595703e+00 2.158764377236366272e-02 7.736424446105957031e+00 2.327403545379638672e+00 -8.058785647153854370e-02
5.018000000000000000e+03 5.686320114135742188e+01 7.319290637969970703e+00 4.667590185999870300e-02 7.738927364349365234e+00 2.335680961608886719e+00 -4.920146241784095764e-02
5.019000000000000000e+03 5.459397506713867188e+01 3.132962226867675781e+00 4.756228998303413391e-02 7.741512775421142578e+00 2.336722373962402344e+00 -6.111991032958030701e-02
5.020000000000000000e+03 5.557001876831054688e+01 1.997964739799499512e+00 4.292763024568557739e-02 7.739341735839843750e+00 2.334680795669555664e+00 -6.494816392660140991e-02
5.021000000000000000e+03 4.508140182495117188e+01 1.492629146575927734e+01 8.834514766931533813e-02 7.801561355590820312e+00 2.366971969604492188e+00 -3.571803681552410126e-03
5.022000000000000000e+03 5.478619766235351562e+01 -2.855454921722412109e+00 3.133283555507659912e-02 7.737766742706298828e+00 2.330729961395263672e+00 -7.570848613977432251e-02
5.023000000000000000e+03 5.566766357421875000e+01 -4.465626239776611328e+00 2.500540763139724731e-02 7.737032890319824219e+00 2.328611373901367188e+00 -7.904599606990814209e-02
5.024000000000000000e+03 4.549161148071289062e+01 -6.214024066925048828e+00 3.171576187014579773e-02 7.734900474548339844e+00 2.329984903335571289e+00 -6.045532226562500000e-02
5.025000000000000000e+03 4.617132186889648438e+01 -4.570733547210693359e+00 3.898208215832710266e-02 7.740990161895751953e+00 2.333991765975952148e+00 -6.175161898136138916e-02
5.026000000000000000e+03 4.674587249755859375e+01 -5.949995517730712891e+00 3.122072294354438782e-02 7.735831260681152344e+00 2.330115556716918945e+00 -6.598601490259170532e-02
5.027000000000000000e+03 5.574069595336914062e+01 6.374491214752197266e+00 4.984092712402343750e-02 7.741089820861816406e+00 2.337279319763183594e+00 -5.199567601084709167e-02
5.028000000000000000e+03 5.562787246704101562e+01 4.136405944824218750e+00 4.714137688279151917e-02 7.740141868591308594e+00 2.336184978485107422e+00 -5.901161208748817444e-02
5.029000000000000000e+03 5.483051681518554688e+01 1.110738277435302734e+01 5.700036510825157166e-02 7.747252941131591797e+00 2.341275930404663086e+00 -3.450770303606987000e-02
5.030000000000000000e+03 5.201287460327148438e+01 1.183261585235595703e+01 6.595830619335174561e-02 7.759309291839599609e+00 2.347580194473266602e+00 -2.879025600850582123e-02
5.031000000000000000e+03 5.299715042114257812e+01 1.079046154022216797e+01 6.362508237361907959e-02 7.753020763397216797e+00 2.344993829727172852e+00 -3.391937166452407837e-02
5.032000000000000000e+03 5.390058517456054688e+01 1.192863273620605469e+01 5.845530703663825989e-02 7.752032279968261719e+00 2.343146324157714844e+00 -3.057984635233879089e-02
5.033000000000000000e+03 4.292251586914062500e+01 9.545817375183105469e+00 9.884434938430786133e-02 7.802789688110351562e+00 2.370490312576293945e+00 -1.582260802388191223e-02
5.034000000000000000e+03 4.776446533203125000e+01 9.638134956359863281e+00 8.167983591556549072e-02 7.773272514343261719e+00 2.356485605239868164e+00 -2.911691367626190186e-02
5.035000000000000000e+03 5.536888504028320312e+01 -7.562684535980224609e+00 1.551955658942461014e-02 7.736259460449218750e+00 2.325533628463745117e+00 -8.237907290458679199e-02
5.036000000000000000e+03 5.372778320312500000e+01 1.396330642700195312e+01 5.809595435857772827e-02 7.754840850830078125e+00 2.343881130218505859e+00 -2.390173077583312988e-02
5.037000000000000000e+03 4.680595779418945312e+01 2.025794410705566406e+01 6.982871890068054199e-02 7.801479816436767578e+00 2.361392498016357422e+00 1.148166973143815994e-02
5.038000000000000000e+03 5.625839614868164062e+01 -1.498621845245361328e+01 -8.561330847442150116e-03 7.735174655914306641e+00 2.317984104156494141e+00 -8.400040119886398315e-02
5.039000000000000000e+03 5.480532073974609375e+01 -1.537708091735839844e+01 -9.832812473177909851e-03 7.729631423950195312e+00 2.315939426422119141e+00 -8.402138948440551758e-02
5.040000000000000000e+03 5.588685989379882812e+01 -2.109155273437500000e+01 -3.079312667250633240e-02 7.733026981353759766e+00 2.310670137405395508e+00 -7.827389240264892578e-02
5.041000000000000000e+03 4.266411590576171875e+01 1.269989490509033203e+00 7.378325611352920532e-02 7.774409770965576172e+00 2.354457855224609375e+00 -3.941724076867103577e-02
5.042000000000000000e+03 5.459254455566406250e+01 1.028509140014648438e+00 4.237778112292289734e-02 7.740327835083007812e+00 2.334811687469482422e+00 -6.649165600538253784e-02
5.043000000000000000e+03 5.551623535156250000e+01 -3.561250120401382446e-02 3.845610469579696655e-02 7.738735675811767578e+00 2.333157539367675781e+00 -7.016862928867340088e-02
5.044000000000000000e+03 5.499943923950195312e+01 -1.077589130401611328e+01 4.463552031666040421e-03 7.734034538269042969e+00 2.321549415588378906e+00 -8.429810404777526855e-02
5.045000000000000000e+03 4.336817932128906250e+01 8.046430587768554688e+00 9.487205743789672852e-02 7.794706821441650391e+00 2.366873502731323242e+00 -2.179358340799808502e-02
5.046000000000000000e+03 4.880469131469726562e+01 -4.795914649963378906e+00 3.475582972168922424e-02 7.736908912658691406e+00 2.331499338150024414e+00 -7.002148032188415527e-02
5.047000000000000000e+03 5.415888977050781250e+01 -5.770748615264892578e+00 2.311312407255172729e-02 7.735785484313964844e+00 2.327669620513916016e+00 -7.997574657201766968e-02
5.048000000000000000e+03 5.643518066406250000e+01 -1.113163852691650391e+01 4.993060138076543808e-03 7.735945701599121094e+00 2.322281599044799805e+00 -8.463411033153533936e-02
5.049000000000000000e+03 5.265672302246093750e+01 7.589172840118408203e+00 6.104696914553642273e-02 7.750804901123046875e+00 2.343555450439453125e+00 -4.513945057988166809e-02
5.050000000000000000e+03 5.359847259521484375e+01 8.750847816467285156e+00 5.993704125285148621e-02 7.748455047607421875e+00 2.342517614364624023e+00 -4.183667153120040894e-02
5.051000000000000000e+03 5.778598022460937500e+01 5.985085487365722656e+00 4.304589331150054932e-02 7.736605167388916016e+00 2.333895206451416016e+00 -5.379687249660491943e-02
5.052000000000000000e+03 4.431757736206054688e+01 -6.478787064552307129e-01 5.985274165868759155e-02 7.758345603942871094e+00 2.345459461212158203e+00 -4.988455399870872498e-02
5.053000000000000000e+03 5.362247848510742188e+01 -2.150590896606445312e+00 3.707725182175636292e-02 7.738650321960449219e+00 2.332718133926391602e+00 -7.391507923603057861e-02
5.054000000000000000e+03 5.440802001953125000e+01 -4.186482906341552734e+00 2.919419482350349426e-02 7.737047195434570312e+00 2.329872369766235352e+00 -7.730676978826522827e-02
5.055000000000000000e+03 4.712658691406250000e+01 -1.097375202178955078e+01 7.345136720687150955e-03 7.717471599578857422e+00 2.317445039749145508e+00 -6.939060240983963013e-02
5.056000000000000000e+03 4.617351150512695312e+01 1.261593341827392578e+01 8.718371391296386719e-02 7.788780689239501953e+00 2.362789392471313477e+00 -1.412521582096815109e-02
5.057000000000000000e+03 5.610155105590820312e+01 -2.693968391418457031e+01 -4.870540648698806763e-02 7.735304355621337891e+00 2.305979728698730469e+00 -6.703687459230422974e-02
5.058000000000000000e+03 4.626703262329101562e+01 8.915176391601562500e+00 8.531000465154647827e-02 7.779438018798828125e+00 2.359424352645874023e+00 -2.776153199374675751e-02
5.059000000000000000e+03 4.364342498779296875e+01 3.485026955604553223e-01 6.716819852590560913e-02 7.765061378479003906e+00 2.349668979644775391e+00 -4.621027782559394836e-02
5.060000000000000000e+03 4.452422714233398438e+01 1.141279220581054688e+00 6.881377100944519043e-02 7.765342235565185547e+00 2.350246906280517578e+00 -4.685707017779350281e-02
5.061000000000000000e+03 5.372457122802734375e+01 -1.940725326538085938e+01 -2.609964087605476379e-02 7.722349166870117188e+00 2.308874845504760742e+00 -7.891032844781875610e-02
5.062000000000000000e+03 5.360208892822265625e+01 3.680180758237838745e-02 4.281072318553924561e-02 7.740962505340576172e+00 2.335131883621215820e+00 -6.888887286186218262e-02
5.063000000000000000e+03 5.405672073364257812e+01 -2.173128700256347656e+01 -3.473015502095222473e-02 7.721894741058349609e+00 2.306149482727050781e+00 -7.772150635719299316e-02
5.064000000000000000e+03 5.401681518554687500e+01 -7.404609680175781250e+00 1.805587857961654663e-02 7.734392642974853516e+00 2.325734615325927734e+00 -8.148834854364395142e-02
5.065000000000000000e+03 5.488260650634765625e+01 1.310271930694580078e+01 5.525784194469451904e-02 7.749086856842041016e+00 2.341303348541259766e+00 -2.778710238635540009e-02
5.066000000000000000e+03 5.432747650146484375e+01 1.772222900390625000e+01 5.168763920664787292e-02 7.756920814514160156e+00 2.342582464218139648e+00 -1.109710428863763809e-02
5.067000000000000000e+03 4.735527038574218750e+01 -7.588289737701416016e+00 2.283797413110733032e-02 7.729494094848632812e+00 2.325699567794799805e+00 -6.854420155286788940e-02
5.068000000000000000e+03 5.012574768066406250e+01 -8.492954254150390625e+00 1.549437455832958221e-02 7.729273796081542969e+00 2.323430538177490234e+00 -7.624056190252304077e-02
5.069000000000000000e+03 5.399458312988281250e+01 -8.905680656433105469e+00 1.236181892454624176e-02 7.733911514282226562e+00 2.323881864547729492e+00 -8.250068128108978271e-02
5.070000000000000000e+03 5.528160858154296875e+01 -9.161578178405761719e+00 1.216162368655204773e-02 7.734684944152832031e+00 2.324054002761840820e+00 -8.349908888339996338e-02
5.071000000000000000e+03 4.664371871948242188e+01 8.752720952033996582e-01 6.296861916780471802e-02 7.756313323974609375e+00 2.345784664154052734e+00 -5.383107811212539673e-02
5.072000000000000000e+03 4.512573242187500000e+01 6.935102939605712891e+00 8.648140728473663330e-02 7.780515193939208984e+00 2.360098838806152344e+00 -3.126319125294685364e-02
5.073000000000000000e+03 4.312272262573242188e+01 -2.161421775817871094e+00 5.569084361195564270e-02 7.757954120635986328e+00 2.344093561172485352e+00 -4.691583663225173950e-02
5.074000000000000000e+03 4.806807327270507812e+01 -3.568844318389892578e+00 4.046399891376495361e-02 7.740817070007324219e+00 2.334384202957153320e+00 -6.643756479024887085e-02
5.075000000000000000e+03 4.253837966918945312e+01 -1.354489707946777344e+01 -5.259450525045394897e-03 7.694168090820312500e+00 2.306672573089599609e+00 -4.723266139626502991e-02
5.076000000000000000e+03 4.572367095947265625e+01 -2.206968545913696289e+00 5.127375945448875427e-02 7.749774456024169922e+00 2.340314388275146484e+00 -5.712581425905227661e-02
5.077000000000000000e+03 4.572202301025390625e+01 -3.348574399948120117e+00 4.479538649320602417e-02 7.746335029602050781e+00 2.337339162826538086e+00 -5.924166738986968994e-02
5.078000000000000000e+03 4.482975006103515625e+01 2.257264614105224609e+00 7.351105660200119019e-02 7.766599178314208984e+00 2.352033138275146484e+00 -4.508964717388153076e-02
5.079000000000000000e+03 4.898172760009765625e+01 -2.942271471023559570e+00 4.163915663957595825e-02 7.740833759307861328e+00 2.334741830825805664e+00 -6.807573139667510986e-02
5.080000000000000000e+03 5.368443298339843750e+01 -1.015287208557128906e+01 8.798070251941680908e-03 7.730925559997558594e+00 2.321917057037353516e+00 -8.336830139160156250e-02
5.081000000000000000e+03 4.875226974487304688e+01 -7.035086154937744141e+00 2.437029033899307251e-02 7.731628894805908203e+00 2.326799869537353516e+00 -7.271777838468551636e-02
5.082000000000000000e+03 5.153787612915039062e+01 -5.212099552154541016e+00 2.784554287791252136e-02 7.735948085784912109e+00 2.329138040542602539e+00 -7.612242549657821655e-02
5.083000000000000000e+03 4.450880813598632812e+01 -2.031486272811889648e+00 5.313816666603088379e-02 7.753264427185058594e+00 2.341920852661132812e+00 -5.334286391735076904e-02
5.084000000000000000e+03 5.464566802978515625e+01 5.336195468902587891e+00 5.117418617010116577e-02 7.743210792541503906e+00 2.338315486907958984e+00 -5.421453341841697693e-02
5.085000000000000000e+03 5.097771453857421875e+01 1.711562919616699219e+01 6.548153609037399292e-02 7.772201538085937500e+00 2.351305007934570312e+00 -7.253783289343118668e-03
5.086000000000000000e+03 5.291520309448242188e+01 1.274264717102050781e+01 6.201071292161941528e-02 7.755054950714111328e+00 2.345119714736938477e+00 -2.663102559745311737e-02
5.087000000000000000e+03 5.358411026000976562e+01 -1.740459632873535156e+01 -1.915514096617698669e-02 7.723123073577880859e+00 2.311190366744995117e+00 -8.196262270212173462e-02
5.088000000000000000e+03 5.981217193603515625e+01 -2.273864555358886719e+01 -2.668453380465507507e-02 7.754609584808349609e+00 2.318377494812011719e+00 -7.433801889419555664e-02
5.089000000000000000e+03 5.251048660278320312e+01 3.168262720108032227e+00 5.375442653894424438e-02 7.745693683624267578e+00 2.339834451675415039e+00 -5.894198268651962280e-02
5.090000000000000000e+03 5.169244766235351562e+01 2.006287765502929688e+01 5.763907730579376221e-02 7.773558139801025391e+00 2.349359273910522461e+00 9.443436865694820881e-04
5.091000000000000000e+03 5.050933837890625000e+01 -3.621295213699340820e+00 3.655043989419937134e-02 7.738976478576660156e+00 2.332658052444458008e+00 -7.196944206953048706e-02
5.092000000000000000e+03 4.736372756958007812e+01 1.361800003051757812e+01 8.145660907030105591e-02 7.784889698028564453e+00 2.359904050827026367e+00 -1.387953478842973709e-02
5.093000000000000000e+03 4.843370819091796875e+01 1.220150661468505859e+01 7.969345897436141968e-02 7.775050640106201172e+00 2.356423139572143555e+00 -2.080005779862403870e-02
5.094000000000000000e+03 4.918164825439453125e+01 1.055343341827392578e+01 7.540729641914367676e-02 7.767894744873046875e+00 2.352990627288818359e+00 -2.874348498880863190e-02
5.095000000000000000e+03 4.702146530151367188e+01 1.122114086151123047e+01 8.447092771530151367e-02 7.781324863433837891e+00 2.359738826751708984e+00 -2.125912718474864960e-02
5.096000000000000000e+03 4.546138381958007812e+01 7.271485775709152222e-02 6.215523183345794678e-02 7.757262706756591797e+00 2.345825433731079102e+00 -5.284850671887397766e-02
5.097000000000000000e+03 4.786100006103515625e+01 -5.481545925140380859e+00 3.227274864912033081e-02 7.736251831054687500e+00 2.330557346343994141e+00 -6.804321706295013428e-02
5.098000000000000000e+03 5.248426818847656250e+01 -9.412598013877868652e-01 4.233722761273384094e-02 7.741135120391845703e+00 2.335041761398315430e+00 -6.944651156663894653e-02
5.099000000000000000e+03 5.066692733764648438e+01 1.123433494567871094e+01 7.183517515659332275e-02 7.762410163879394531e+00 2.350273609161376953e+00 -2.924637869000434875e-02
5.100000000000000000e+03 5.236423492431640625e+01 9.591128349304199219e+00 6.449629366397857666e-02 7.754749774932861328e+00 2.345773935317993164e+00 -3.739192336797714233e-02
5.101000000000000000e+03 4.541932678222656250e+01 5.404594898223876953e+00 8.162188529968261719e-02 7.774112701416015625e+00 2.356720447540283203e+00 -3.825208172202110291e-02
5.102000000000000000e+03 4.655729675292968750e+01 7.229960918426513672e+00 8.238353580236434937e-02 7.773561477661132812e+00 2.356783628463745117e+00 -3.497661650180816650e-02
5.103000000000000000e+03 5.255720138549804688e+01 -7.329014778137207031e+00 1.879721507430076599e-02 7.732832431793212891e+00 2.325488805770874023e+00 -8.003063499927520752e-02
5.104000000000000000e+03 5.363128662109375000e+01 2.121021032333374023e+00 4.828154295682907104e-02 7.742082118988037109e+00 2.337109088897705078e+00 -6.356894224882125854e-02
5.105000000000000000e+03 5.256861495971679688e+01 5.413475513458251953e+00 5.773620307445526123e-02 7.748164653778076172e+00 2.341770172119140625e+00 -5.199135094881057739e-02
5.106000000000000000e+03 5.306110382080078125e+01 -3.705572128295898438e+00 3.183835372328758240e-02 7.737828254699707031e+00 2.330899953842163086e+00 -7.551904022693634033e-02
5.107000000000000000e+03 5.291521835327148438e+01 -1.136209774017333984e+01 2.350204158574342728e-03 7.728458404541015625e+00 2.319242477416992188e+00 -8.225543051958084106e-02
5.108000000000000000e+03 5.239259719848632812e+01 1.468172168731689453e+01 6.348162144422531128e-02 7.760859489440917969e+00 2.347302436828613281e+00 -1.828074455261230469e-02
5.109000000000000000e+03 5.284839248657226562e+01 1.826436042785644531e+01 5.678424984216690063e-02 7.764646053314208984e+00 2.346429109573364258e+00 -8.052088320255279541e-03
5.110000000000000000e+03 5.173107528686523438e+01 1.322251415252685547e+01 6.719801574945449829e-02 7.762330055236816406e+00 2.348858356475830078e+00 -2.329399809241294861e-02
5.111000000000000000e+03 4.976052474975585938e+01 -5.957341670989990234e+00 2.706106565892696381e-02 7.733958244323730469e+00 2.328305721282958984e+00 -7.378040999174118042e-02
5.112000000000000000e+03 4.952583312988281250e+01 1.691085624694824219e+01 6.901068985462188721e-02 7.778717994689941406e+00 2.354318618774414062e+00 -6.102559622377157211e-03
5.113000000000000000e+03 4.543032073974609375e+01 -1.170883464813232422e+01 3.647856414318084717e-03 7.711700916290283203e+00 2.314604520797729492e+00 -6.148234382271766663e-02
5.114000000000000000e+03 4.476531600952148438e+01 8.475644111633300781e+00 9.136861562728881836e-02 7.786969184875488281e+00 2.363501310348510742e+00 -2.544519491493701935e-02
5.115000000000000000e+03 5.282004547119140625e+01 -5.512137413024902344e+00 2.715438418090343475e-02 7.735463619232177734e+00 2.328785419464111328e+00 -7.787268608808517456e-02
5.116000000000000000e+03 4.749925231933593750e+01 -9.355936050415039062e+00 1.288655493408441544e-02 7.724236965179443359e+00 2.321136951446533203e+00 -7.026730477809906006e-02
5.117000000000000000e+03 5.160730361938476562e+01 -9.895074844360351562e+00 1.116046588867902756e-02 7.728212356567382812e+00 2.321811914443969727e+00 -8.041818439960479736e-02
5.118000000000000000e+03 5.122332000732421875e+01 -1.756861329078674316e+00 4.232619702816009521e-02 7.741253376007080078e+00 2.335073947906494141e+00 -7.040444016456604004e-02
5.119000000000000000e+03 4.971067047119140625e+01 6.983796119689941406e+00 7.069010287523269653e-02 7.758689880371093750e+00 2.348814010620117188e+00 -4.271247610449790955e-02
5.120000000000000000e+03 4.824846267700195312e+01 -1.744065403938293457e+00 4.741816967725753784e-02 7.745259761810302734e+00 2.337803363800048828e+00 -6.393899768590927124e-02
5.121000000000000000e+03 4.875103759765625000e+01 3.175646781921386719e+00 6.543589383363723755e-02 7.755165100097656250e+00 2.346180200576782227e+00 -5.345226451754570007e-02
5.122000000000000000e+03 4.743642807006835938e+01 -4.950718879699707031e-01 5.522140860557556152e-02 7.750360012054443359e+00 2.341674327850341797e+00 -5.971705541014671326e-02
5.123000000000000000e+03 4.701201629638671875e+01 4.188353061676025391e+00 7.396956533193588257e-02 7.763614654541015625e+00 2.351275205612182617e+00 -4.610053077340126038e-02
5.124000000000000000e+03 5.143492126464843750e+01 4.370324134826660156e+00 6.044308096170425415e-02 7.749358654022216797e+00 2.342940568923950195e+00 -5.431602150201797485e-02
5.125000000000000000e+03 5.105763244628906250e+01 -6.916838169097900391e+00 2.324593625962734222e-02 7.732977867126464844e+00 2.326867103576660156e+00 -7.740099728107452393e-02
5.126000000000000000e+03 4.668399047851562500e+01 5.638545036315917969e+00 7.793556153774261475e-02 7.768432617187500000e+00 2.353910446166992188e+00 -4.024494439363479614e-02
5.127000000000000000e+03 4.610270690917968750e+01 2.391252040863037109e+00 7.046014070510864258e-02 7.762362957000732422e+00 2.349847078323364258e+00 -4.902901127934455872e-02
5.128000000000000000e+03 4.788444519042968750e+01 7.057267665863037109e+00 7.768508046865463257e-02 7.767022609710693359e+00 2.353412389755249023e+00 -3.776691481471061707e-02
5.129000000000000000e+03 5.162877655029296875e+01 6.589701175689697266e+00 6.391394138336181641e-02 7.751750469207763672e+00 2.344699382781982422e+00 -4.716240242123603821e-02
5.130000000000000000e+03 5.181095504760742188e+01 5.550607442855834961e-01 4.912504553794860840e-02 7.744007587432861328e+00 2.337939739227294922e+00 -6.586097925901412964e-02
5.131000000000000000e+03 4.086688232421875000e+01 -1.637500000000000000e+01 -2.280636690557003021e-02 7.667490005493164062e+00 2.293405055999755859e+00 -3.320536389946937561e-02
5.132000000000000000e+03 4.394408035278320312e+01 -1.546986484527587891e+01 -1.445226185023784637e-02 7.688443660736083984e+00 2.302197456359863281e+00 -5.495781078934669495e-02
5.133000000000000000e+03 4.843030548095703125e+01 -1.606642532348632812e+01 -1.479035615921020508e-02 7.704586505889892578e+00 2.306938886642456055e+00 -7.242796570062637329e-02
5.134000000000000000e+03 5.195738601684570312e+01 -1.729677391052246094e+01 -1.894908584654331207e-02 7.716750621795654297e+00 2.309340476989746094e+00 -7.894294708967208862e-02
5.135000000000000000e+03 4.961773300170898438e+01 -4.056913852691650391e+00 3.640326857566833496e-02 7.737656116485595703e+00 2.332217693328857422e+00 -7.087134569883346558e-02
5.136000000000000000e+03 5.169257736206054688e+01 -3.482392549514770508e+00 3.579379990696907043e-02 7.738424301147460938e+00 2.332265377044677734e+00 -7.350431382656097412e-02
5.137000000000000000e+03 5.274992752075195312e+01 -9.015775680541992188e+00 1.299371477216482162e-02 7.730764389038085938e+00 2.323127508163452148e+00 -8.075748383998870850e-02
5.138000000000000000e+03 5.067213439941406250e+01 -1.505482101440429688e+01 -9.565510787069797516e-03 7.716028690338134766e+00 2.311939001083374023e+00 -7.800401002168655396e-02
5.139000000000000000e+03 4.988525009155273438e+01 -1.267498302459716797e+01 -2.895694342441856861e-04 7.719578266143798828e+00 2.315786600112915039e+00 -7.748090475797653198e-02
5.140000000000000000e+03 4.389468002319335938e+01 -1.388968658447265625e+01 -9.881000034511089325e-03 7.698007583618164062e+00 2.306437969207763672e+00 -5.492374673485755920e-02
5.141000000000000000e+03 4.974004364013671875e+01 1.498100757598876953e+01 7.274392992258071899e-02 7.773909091949462891e+00 2.353995800018310547e+00 -1.392550300806760788e-02
5.142000000000000000e+03 5.223911285400390625e+01 1.679544067382812500e+01 5.931667238473892212e-02 7.763968944549560547e+00 2.346985578536987305e+00 -1.114499848335981369e-02
5.143000000000000000e+03 4.733326721191406250e+01 -2.372028350830078125e+00 4.682738706469535828e-02 7.744878292083740234e+00 2.337511539459228516e+00 -6.281023472547531128e-02
5.144000000000000000e+03 5.181134414672851562e+01 1.937786221504211426e+00 5.394167080521583557e-02 7.745548248291015625e+00 2.339847087860107422e+00 -6.109447404742240906e-02
5.145000000000000000e+03 4.957601928710937500e+01 5.286787152290344238e-01 5.469799786806106567e-02 7.747738838195800781e+00 2.340730905532836914e+00 -6.216033175587654114e-02
5.146000000000000000e+03 5.001387786865234375e+01 -2.360415220260620117e+00 4.248126968741416931e-02 7.740703582763671875e+00 2.334955453872680664e+00 -6.914815306663513184e-02
5.147000000000000000e+03 5.026900863647460938e+01 -5.025157928466796875e-01 4.845133051276206970e-02 7.744579315185546875e+00 2.337909221649169922e+00 -6.534370034933090210e-02
5.148000000000000000e+03 4.575526046752929688e+01 3.912736415863037109e+00 7.658367604017257690e-02 7.768173694610595703e+00 2.353427171707153320e+00 -4.306534677743911743e-02
5.149000000000000000e+03 4.827883148193359375e+01 1.983883094787597656e+01 6.777966767549514771e-02 7.792583465576171875e+00 2.358108997344970703e+00 7.286277599632740021e-03
5.150000000000000000e+03 5.129424285888671875e+01 1.565406227111816406e+01 6.545792520046234131e-02 7.767600059509277344e+00 2.349917411804199219e+00 -1.426932960748672485e-02
5.151000000000000000e+03 5.052825927734375000e+01 2.090105772018432617e+00 5.669473111629486084e-02 7.748380661010742188e+00 2.341522693634033203e+00 -5.975821241736412048e-02
5.152000000000000000e+03 4.791015243530273438e+01 1.390862226486206055e+00 6.210465729236602783e-02 7.753943443298339844e+00 2.344814538955688477e+00 -5.634372308850288391e-02
5.153000000000000000e+03 5.365538406372070312e+01 6.504025459289550781e+00 5.723210051655769348e-02 7.746400833129882812e+00 2.341089963912963867e+00 -4.997786134481430054e-02
5.154000000000000000e+03 4.640405273437500000e+01 -1.224550008773803711e+00 5.304058641195297241e-02 7.751004219055175781e+00 2.341213464736938477e+00 -5.776903778314590454e-02
5.155000000000000000e+03 3.944079971313476562e+01 -1.411482906341552734e+01 -1.195657905191183090e-02 7.678161144256591797e+00 2.299861431121826172e+00 -2.302692271769046783e-02
5.156000000000000000e+03 4.511604309082031250e+01 -1.399098873138427734e+01 -6.635716184973716736e-03 7.700911045074462891e+00 2.308282613754272461e+00 -6.009767204523086548e-02
5.157000000000000000e+03 5.113972473144531250e+01 9.737022399902343750e+00 6.827758252620697021e-02 7.758817672729492188e+00 2.348128557205200195e+00 -3.444901481270790100e-02
5.158000000000000000e+03 4.786864089965820312e+01 -1.332475948333740234e+01 -3.773988690227270126e-03 7.711940288543701172e+00 2.312449932098388672e+00 -7.215072959661483765e-02
5.159000000000000000e+03 4.916784286499023438e+01 -1.006728172302246094e+01 1.153306011110544205e-02 7.724233150482177734e+00 2.320729970932006836e+00 -7.546853274106979370e-02
5.160000000000000000e+03 4.921565628051757812e+01 -1.429764366149902344e+01 -9.350572712719440460e-03 7.713376522064208984e+00 2.311207771301269531e+00 -7.431750744581222534e-02
5.161000000000000000e+03 4.926278305053710938e+01 -1.149465560913085938e+00 4.789881408214569092e-02 7.744719982147216797e+00 2.337785720825195312e+00 -6.573043763637542725e-02
5.162000000000000000e+03 4.742179107666015625e+01 2.775868415832519531e+00 6.764443218708038330e-02 7.758346557617187500e+00 2.347797393798828125e+00 -5.108348652720451355e-02
5.163000000000000000e+03 4.918638229370117188e+01 1.810548424720764160e+00 5.981009826064109802e-02 7.751147747039794922e+00 2.343287467956542969e+00 -5.746962130069732666e-02
5.164000000000000000e+03 4.946319961547851562e+01 5.008193969726562500e+00 6.824279576539993286e-02 7.756312370300292969e+00 2.347366571426391602e+00 -4.896968230605125427e-02
5.165000000000000000e+03 4.784543991088867188e+01 5.787250518798828125e+00 7.583019882440567017e-02 7.764644622802734375e+00 2.352142333984375000e+00 -4.308686032891273499e-02
5.166000000000000000e+03 5.066241836547851562e+01 5.772306919097900391e-01 5.185288563370704651e-02 7.745037078857421875e+00 2.339066982269287109e+00 -6.387276947498321533e-02
5.167000000000000000e+03 5.447668457031250000e+01 -1.248502159118652344e+01 5.584355676546692848e-04 7.730501651763916016e+00 2.319318056106567383e+00 -8.379290252923965454e-02
5.168000000000000000e+03 5.072217178344726562e+01 7.797192573547363281e+00 6.796401739120483398e-02 7.756929874420166016e+00 2.347468137741088867e+00 -4.176371917128562927e-02
5.169000000000000000e+03 4.852603149414062500e+01 -1.174977493286132812e+01 1.390510355122387409e-03 7.718128204345703125e+00 2.315855503082275391e+00 -7.310175150632858276e-02
5.170000000000000000e+03 4.954438018798828125e+01 -2.108986473083496094e+01 -3.934741020202636719e-02 7.697208881378173828e+00 2.297358512878417969e+00 -7.173909246921539307e-02
5.171000000000000000e+03 5.187402725219726562e+01 -1.933957099914550781e+01 -2.851439453661441803e-02 7.713857173919677734e+00 2.305602788925170898e+00 -7.808464020490646362e-02
5.172000000000000000e+03 4.663795089721679688e+01 -1.238049507141113281e+01 -1.792920404113829136e-03 7.710531234741210938e+00 2.312621593475341797e+00 -6.699822843074798584e-02
5.173000000000000000e+03 4.558823776245117188e+01 -1.556385040283203125e+01 -1.700158976018428802e-02 7.696722984313964844e+00 2.303916454315185547e+00 -6.243796646595001221e-02
5.174000000000000000e+03 5.239501953125000000e+01 -1.381863212585449219e+01 -4.278300330042839050e-03 7.724339008331298828e+00 2.316018104553222656e+00 -8.054477721452713013e-02
5.175000000000000000e+03 4.570991134643554688e+01 -1.763809776306152344e+01 -2.262887544929981232e-02 7.686465740203857422e+00 2.299150943756103516e+00 -6.166932731866836548e-02
5.176000000000000000e+03 4.852056884765625000e+01 7.013260573148727417e-02 5.535573139786720276e-02 7.749275207519531250e+00 2.341389179229736328e+00 -6.037198752164840698e-02
5.177000000000000000e+03 4.880300903320312500e+01 6.210570335388183594e+00 7.198620587587356567e-02 7.760789871215820312e+00 2.349832773208618164e+00 -4.342966526746749878e-02
5.178000000000000000e+03 5.170928955078125000e+01 8.581717491149902344e+00 6.678620725870132446e-02 7.754289627075195312e+00 2.346322774887084961e+00 -3.997880592942237854e-02
5.179000000000000000e+03 4.869922637939453125e+01 8.207135200500488281e+00 7.600010931491851807e-02 7.766059398651123047e+00 2.352617740631103516e+00 -3.619972988963127136e-02
5.180000000000000000e+03 4.826593017578125000e+01 4.517136573791503906e+00 7.011277228593826294e-02 7.759618282318115234e+00 2.348919391632080078e+00 -4.772346466779708862e-02
5.181000000000000000e+03 5.013746643066406250e+01 3.619577884674072266e+00 6.193025410175323486e-02 7.751593112945556641e+00 2.344057083129882812e+00 -5.421407148241996765e-02
5.182000000000000000e+03 5.114630126953125000e+01 -1.350666999816894531e+01 -5.258598830550909042e-03 7.720775604248046875e+00 2.314655065536499023e+00 -7.922063767910003662e-02
5.183000000000000000e+03 4.698037338256835938e+01 -1.479726123809814453e+01 -1.230904739350080490e-02 7.702524662017822266e+00 2.307064771652221680e+00 -6.702910363674163818e-02
5.184000000000000000e+03 4.380627822875976562e+01 -1.724754524230957031e+01 -2.586727216839790344e-02 7.680225372314453125e+00 2.296307325363159180e+00 -5.137116461992263794e-02
5.185000000000000000e+03 5.057085037231445312e+01 5.716642379760742188e+00 6.513772159814834595e-02 7.753963470458984375e+00 2.345730304718017578e+00 -4.816744476556777954e-02
5.186000000000000000e+03 5.065313720703125000e+01 -1.121628475189208984e+01 4.088643472641706467e-03 7.724766254425048828e+00 2.318656444549560547e+00 -7.824058830738067627e-02
5.187000000000000000e+03 5.193229675292968750e+01 -1.241529083251953125e+01 1.290877815335988998e-03 7.724724769592285156e+00 2.317804574966430664e+00 -8.199221640825271606e-02
5.188000000000000000e+03 4.318659591674804688e+01 -1.915795516967773438e+01 -3.034398704767227173e-02 7.664196968078613281e+00 2.290155887603759766e+00 -4.899809136986732483e-02
5.189000000000000000e+03 4.737179565429687500e+01 -2.048062896728515625e+01 -3.508028015494346619e-02 7.684851646423339844e+00 2.294931411743164062e+00 -6.589414179325103760e-02
5.190000000000000000e+03 4.985442352294921875e+01 -1.888663864135742188e+01 -2.633524499833583832e-02 7.703845500946044922e+00 2.303253173828125000e+00 -7.409878075122833252e-02
5.191000000000000000e+03 5.021931457519531250e+01 -1.685558700561523438e+01 -2.093828655779361725e-02 7.710516929626464844e+00 2.306873559951782227e+00 -7.668644189834594727e-02
5.192000000000000000e+03 4.778231811523437500e+01 -1.816928863525390625e+01 -2.792835235595703125e-02 7.695409297943115234e+00 2.300244331359863281e+00 -6.870666146278381348e-02
5.193000000000000000e+03 4.526168823242187500e+01 -1.987329673767089844e+01 -3.819301724433898926e-02 7.674422264099121094e+00 2.290868759155273438e+00 -5.863199010491371155e-02
5.194000000000000000e+03 4.990475082397460938e+01 9.090121269226074219e+00 7.386074215173721313e-02 7.762301921844482422e+00 2.350848674774169922e+00 -3.488926216959953308e-02
5.195000000000000000e+03 4.035773849487304688e+01 -2.078206253051757812e+01 -3.695906698703765869e-02 7.633265495300292969e+00 2.278891801834106445e+00 -3.069522045552730560e-02
5.196000000000000000e+03 4.804797744750976562e+01 1.669137001037597656e+01 7.605239003896713257e-02 7.786937236785888672e+00 2.358896970748901367e+00 -4.055567551404237747e-03
5.197000000000000000e+03 6.204720687866210938e+01 2.664543724060058594e+01 1.584060676395893097e-02 7.733519554138183594e+00 2.324807882308959961e+00 1.116471321438439190e-04
5.198000000000000000e+03 5.143246459960937500e+01 2.183898735046386719e+01 5.040007084608078003e-02 7.778234958648681641e+00 2.348590612411499023e+00 7.683307863771915436e-03
5.199000000000000000e+03 5.346717453002929688e+01 2.200046157836914062e+01 4.641306027770042419e-02 7.769227504730224609e+00 2.344692230224609375e+00 3.305335994809865952e-03
5.200000000000000000e+03 5.012587738037109375e+01 2.625530433654785156e+01 3.600554540753364563e-02 7.794558048248291016e+00 2.349169254302978516e+00 2.152842096984386444e-02
5.201000000000000000e+03 3.333828353881835938e+01 3.248656845092773438e+01 6.757023185491561890e-02 7.869450569152832031e+00 2.381106376647949219e+00 8.028176426887512207e-02
5.202000000000000000e+03 3.178440093994140625e+01 3.285024261474609375e+01 8.837824314832687378e-02 7.853486061096191406e+00 2.382559299468994141e+00 8.184686303138732910e-02
5.203000000000000000e+03 4.663721847534179688e+01 2.238890838623046875e+01 6.637832522392272949e-02 7.806380748748779297e+00 2.361827850341796875e+00 1.840313337743282318e-02
5.204000000000000000e+03 3.776871109008789062e+01 -2.774602699279785156e+01 -6.683768332004547119e-02 7.542869091033935547e+00 2.242809295654296875e+00 -1.956832408905029297e-02
5.205000000000000000e+03 2.641857528686523438e+01 4.120079421997070312e+01 -6.639636158943176270e-01 7.760863780975341797e+00 2.129070043563842773e+00 1.511011123657226562e-01
5.206000000000000000e+03 4.914296340942382812e+01 -2.333385276794433594e+01 -4.530791565775871277e-02 7.689483642578125000e+00 2.293252706527709961e+00 -6.738352775573730469e-02
5.207000000000000000e+03 4.469947814941406250e+01 -2.215645980834960938e+01 -4.321730881929397583e-02 7.659770011901855469e+00 2.284965753555297852e+00 -5.547786504030227661e-02
5.208000000000000000e+03 5.137296676635742188e+01 -2.386948204040527344e+01 -4.786675423383712769e-02 7.705023765563964844e+00 2.297147035598754883e+00 -7.154203951358795166e-02
5.209000000000000000e+03 5.184646987915039062e+01 -2.167954635620117188e+01 -3.651498630642890930e-02 7.710166931152343750e+00 2.302095651626586914e+00 -7.428504526615142822e-02
5.210000000000000000e+03 3.158604431152343750e+01 2.817384719848632812e+01 1.211267784237861633e-01 7.927280902862548828e+00 2.414522409439086914e+00 -8.270060061477124691e-04
5.211000000000000000e+03 4.712864685058593750e+01 2.771537780761718750e+01 3.300317004323005676e-02 7.815226554870605469e+00 2.354468822479248047e+00 3.244866803288459778e-02
5.212000000000000000e+03 3.880176544189453125e+01 -2.534787178039550781e+01 -5.245400592684745789e-02 7.578025817871093750e+00 2.257671594619750977e+00 -2.375653758645057678e-02
5.213000000000000000e+03 4.183906555175781250e+01 -2.383866882324218750e+01 -5.044383183121681213e-02 7.623381137847900391e+00 2.271881341934204102e+00 -4.143667966127395630e-02
5.214000000000000000e+03 3.811776351928710938e+01 2.411715316772460938e+01 8.619463443756103516e-02 7.874093055725097656e+00 2.388086318969726562e+00 2.847070991992950439e-02
5.215000000000000000e+03 5.344064712524414062e+01 1.612351036071777344e+01 5.723327770829200745e-02 7.759290218353271484e+00 2.344957113265991211e+00 -1.570141501724720001e-02
5.216000000000000000e+03 5.140319824218750000e+01 1.860788345336914062e+01 5.934657528996467590e-02 7.772847652435302734e+00 2.349658250808715820e+00 -2.958743367344141006e-03
5.217000000000000000e+03 6.717311096191406250e+01 3.751634979248046875e+01 -1.961983041837811470e-03 7.707328796386718750e+00 2.311609983444213867e+00 2.590517513453960419e-03
5.218000000000000000e+03 6.259254455566406250e+01 3.217538452148437500e+01 3.690934274345636368e-03 7.735603332519531250e+00 2.321788311004638672e+00 4.081781953573226929e-03
5.219000000000000000e+03 2.983893775939941406e+01 3.403738021850585938e+01 1.004785746335983276e-01 7.827716350555419922e+00 2.378458499908447266e+00 1.004511117935180664e-01
5.220000000000000000e+03 3.963309860229492188e+01 2.614670753479003906e+01 7.001569867134094238e-02 7.860111713409423828e+00 2.379038095474243164e+00 3.857999294996261597e-02
5.221000000000000000e+03 4.024340057373046875e+01 3.010526084899902344e+01 3.133882954716682434e-02 7.857458114624023438e+00 2.366639137268066406e+00 5.782518535852432251e-02
5.222000000000000000e+03 4.794437789916992188e+01 1.830251693725585938e+01 7.349570840597152710e-02 7.791266918182373047e+00 2.359428882598876953e+00 2.998500829562544823e-03
5.223000000000000000e+03 4.809234237670898438e+01 1.496662330627441406e+01 7.714154571294784546e-02 7.781993865966796875e+00 2.357740640640258789e+00 -1.021307427436113358e-02
5.224000000000000000e+03 4.531868743896484375e+01 3.325989913940429688e+01 -7.240151520818471909e-03 7.843824863433837891e+00 2.350975275039672852e+00 4.628263041377067566e-02
5.225000000000000000e+03 4.641938781738281250e+01 -2.526819419860839844e+01 -5.687184259295463562e-02 7.662514209747314453e+00 2.281692743301391602e+00 -5.906075239181518555e-02
5.226000000000000000e+03 5.696148300170898438e+01 -2.304950714111328125e+01 -3.322278335690498352e-02 7.739425182342529297e+00 2.311860799789428711e+00 -7.497858256101608276e-02
5.227000000000000000e+03 5.704880142211914062e+01 -2.964000701904296875e+01 -5.449120700359344482e-02 7.742999076843261719e+00 2.306552410125732422e+00 -5.619969591498374939e-02
5.228000000000000000e+03 6.475310516357421875e+01 -3.455784988403320312e+01 -3.476813435554504395e-02 7.802028656005859375e+00 2.330178260803222656e+00 -3.247044235467910767e-02
5.229000000000000000e+03 3.386666870117187500e+01 3.471924591064453125e+01 -1.988613978028297424e-03 7.868229389190673828e+00 2.359872341156005859e+00 1.099697798490524292e-01
5.230000000000000000e+03 3.314398956298828125e+01 4.070344543457031250e+01 -2.723586857318878174e-01 7.946648120880126953e+00 2.302286863327026367e+00 6.200396642088890076e-02
5.231000000000000000e+03 3.629508209228515625e+01 -3.476296997070312500e+01 -1.301584690809249878e-01 7.490344047546386719e+00 2.208055734634399414e+00 -5.876347795128822327e-02
5.232000000000000000e+03 3.296607208251953125e+01 -3.686202239990234375e+01 -1.822370290756225586e-01 7.406260490417480469e+00 2.167207002639770508e+00 -7.511180639266967773e-02
5.233000000000000000e+03 3.749458312988281250e+01 3.688466644287109375e+01 -8.745185285806655884e-02 7.901871681213378906e+00 2.344326019287109375e+00 8.627764135599136353e-02
5.234000000000000000e+03 4.354773330688476562e+01 -3.738655090332031250e+01 -1.400236338376998901e-01 7.618351459503173828e+00 2.243498325347900391e+00 -3.020809032022953033e-02
5.235000000000000000e+03 4.060725784301757812e+01 3.481954193115234375e+01 -3.764252364635467529e-02 7.878082752227783203e+00 2.352132081985473633e+00 6.489090621471405029e-02
5.236000000000000000e+03 4.386731338500976562e+01 3.665927505493164062e+01 -4.177515953779220581e-02 7.872037410736083984e+00 2.349078655242919922e+00 4.139605537056922913e-02
5.237000000000000000e+03 5.665083312988281250e+01 -3.692831420898437500e+01 -7.070756703615188599e-02 7.746909618377685547e+00 2.302860498428344727e+00 -2.810345031321048737e-02
5.238000000000000000e+03 5.681352233886718750e+01 3.724135971069335938e+01 -8.149880915880203247e-03 7.776459217071533203e+00 2.330492973327636719e+00 8.387124165892601013e-03
5.239000000000000000e+03 6.101416015625000000e+01 3.670962905883789062e+01 -3.143720561638474464e-03 7.747724533081054688e+00 2.323374271392822266e+00 4.962673410773277283e-03
5.240000000000000000e+03 5.101292800903320312e+01 2.409012222290039062e+01 4.627246037125587463e-02 7.785195827484130859e+00 2.349440574645996094e+00 1.482401788234710693e-02
5.241000000000000000e+03 4.794584274291992188e+01 2.537700462341308594e+01 4.966813325881958008e-02 7.804196834564208984e+00 2.356159448623657227e+00 2.460837550461292267e-02
5.242000000000000000e+03 3.672915649414062500e+01 3.019111061096191406e+01 5.870864540338516235e-02 7.870545387268066406e+00 2.378776073455810547e+00 6.137616187334060669e-02
5.243000000000000000e+03 2.655011940002441406e+01 -3.710062408447265625e+01 -8.411123603582382202e-02 7.118684291839599609e+00 2.110371828079223633e+00 -1.803829073905944824e-01
5.244000000000000000e+03 6.202659606933593750e+01 2.927757072448730469e+01 9.556886740028858185e-03 7.734596252441406250e+00 2.323246002197265625e+00 4.022233188152313232e-03
5.245000000000000000e+03 4.253566741943359375e+01 3.189849472045898438e+01 1.106271892786026001e-02 7.853258132934570312e+00 2.359296321868896484e+00 5.457716807723045349e-02
5.246000000000000000e+03 3.374878311157226562e+01 2.972189521789550781e+01 9.536225348711013794e-02 7.887916088104248047e+00 2.394983530044555664e+00 4.013422504067420959e-02
5.247000000000000000e+03 5.824868011474609375e+01 -2.630401420593261719e+01 -4.098625108599662781e-02 7.748025417327880859e+00 2.312111854553222656e+00 -6.600859761238098145e-02
5.248000000000000000e+03 3.453397369384765625e+01 2.612184715270996094e+01 1.014314740896224976e-01 7.907455444335937500e+00 2.402666091918945312e+00 1.727523840963840485e-02
5.249000000000000000e+03 5.295738601684570312e+01 -2.532629585266113281e+01 -4.971831291913986206e-02 7.714196681976318359e+00 2.299343585968017578e+00 -7.067532092332839966e-02
5.250000000000000000e+03 5.999601364135742188e+01 2.653532981872558594e+01 1.783067360520362854e-02 7.742869853973388672e+00 2.328210115432739258e+00 3.656181739643216133e-03
5.251000000000000000e+03 5.952178955078125000e+01 2.945187759399414062e+01 1.241771411150693893e-02 7.751464843750000000e+00 2.329164743423461914e+00 6.719521712511777878e-03
5.252000000000000000e+03 4.588658523559570312e+01 -2.795705986022949219e+01 -7.525834441184997559e-02 7.652821540832519531e+00 2.273268938064575195e+00 -5.640446767210960388e-02
5.253000000000000000e+03 4.445750808715820312e+01 -3.402529144287109375e+01 -1.167208850383758545e-01 7.628354072570800781e+00 2.253489971160888672e+00 -4.762835800647735596e-02
5.254000000000000000e+03 4.115924453735351562e+01 -3.313763427734375000e+01 -1.061616390943527222e-01 7.578197479248046875e+00 2.241610765457153320e+00 -4.694993048906326294e-02
5.255000000000000000e+03 5.225527954101562500e+01 -3.755527496337890625e+01 -9.348838776350021362e-02 7.710030078887939453e+00 2.284962415695190430e+00 -2.445002645254135132e-02
5.256000000000000000e+03 5.831429290771484375e+01 -3.233565521240234375e+01 -5.677672475576400757e-02 7.753160953521728516e+00 2.308915138244628906e+00 -4.741532728075981140e-02
5.257000000000000000e+03 3.628648757934570312e+01 3.395505523681640625e+01 1.576448266860097647e-05 7.875205993652343750e+00 2.362566471099853516e+00 9.562279284000396729e-02
5.258000000000000000e+03 3.618085861206054688e+01 2.680511093139648438e+01 8.465195447206497192e-02 7.884808540344238281e+00 2.390838146209716797e+00 3.437482193112373352e-02
5.259000000000000000e+03 5.375450897216796875e+01 -2.782580947875976562e+01 -5.840499326586723328e-02 7.719577312469482422e+00 2.298351764678955078e+00 -6.335711479187011719e-02
5.260000000000000000e+03 4.871805191040039062e+01 2.312564849853515625e+01 5.484418943524360657e-02 7.796032428741455078e+00 2.355262994766235352e+00 1.681401953101158142e-02
5.261000000000000000e+03 3.280429840087890625e+01 2.823655700683593750e+01 1.113915592432022095e-01 7.905336380004882812e+00 2.405018329620361328e+00 1.715554110705852509e-02
5.262000000000000000e+03 3.514359283447265625e+01 2.853999519348144531e+01 8.735733479261398315e-02 7.882297039031982422e+00 2.390896320343017578e+00 4.110028594732284546e-02
5.263000000000000000e+03 5.611474609375000000e+01 2.645473480224609375e+01 2.433106675744056702e-02 7.763939857482910156e+00 2.336481332778930664e+00 9.493180550634860992e-03
5.264000000000000000e+03 5.388438415527343750e+01 2.718498992919921875e+01 2.628493495285511017e-02 7.778331279754638672e+00 2.341384887695312500e+00 1.477107219398021698e-02
5.265000000000000000e+03 5.122972869873046875e+01 -2.835079765319824219e+01 -6.716739386320114136e-02 7.699699878692626953e+00 2.289759635925292969e+00 -6.322442740201950073e-02
5.266000000000000000e+03 5.186121749877929688e+01 -3.429310226440429688e+01 -8.704634755849838257e-02 7.707582950592041016e+00 2.286160945892333984e+00 -4.231730103492736816e-02
5.267000000000000000e+03 4.787070465087890625e+01 -3.767662048339843750e+01 -1.174996420741081238e-01 7.671569347381591797e+00 2.266220808029174805e+00 -2.682442590594291687e-02
5.268000000000000000e+03 4.336475372314453125e+01 -2.725298500061035156e+01 -6.727387011051177979e-02 7.624014854431152344e+00 2.267022371292114258e+00 -4.920366406440734863e-02
5.269000000000000000e+03 4.869145584106445312e+01 3.398983383178710938e+01 -8.559157140552997589e-03 7.828888893127441406e+00 2.346098899841308594e+00 3.165736794471740723e-02
5.270000000000000000e+03 5.506014251708984375e+01 3.013139533996582031e+01 1.211558189243078232e-02 7.775531291961669922e+00 2.336294174194335938e+00 1.625236496329307556e-02
5.271000000000000000e+03 4.525292968750000000e+01 -3.086990547180175781e+01 -8.791895210742950439e-02 7.636965274810791016e+00 2.264714002609252930e+00 -5.136109516024589539e-02
5.272000000000000000e+03 5.101458358764648438e+01 -2.590939712524414062e+01 -5.623324215412139893e-02 7.698276996612548828e+00 2.292613029479980469e+00 -6.644012033939361572e-02
5.273000000000000000e+03 3.996003723144531250e+01 -2.898839569091796875e+01 -7.335932552814483643e-02 7.571385383605957031e+00 2.249407768249511719e+00 -3.965618088841438293e-02
5.274000000000000000e+03 5.249728775024414062e+01 4.085418319702148438e+01 -2.218906208872795105e-02 7.811602115631103516e+00 2.336823940277099609e+00 4.915435332804918289e-03
5.275000000000000000e+03 5.155533218383789062e+01 2.804000473022460938e+01 2.666646987199783325e-02 7.789806365966796875e+00 2.344941854476928711e+00 2.253703586757183075e-02
5.276000000000000000e+03 4.936339187622070312e+01 2.832938385009765625e+01 2.900707162916660309e-02 7.805214881896972656e+00 2.350266695022583008e+00 2.796440757811069489e-02
5.277000000000000000e+03 4.811951065063476562e+01 -3.441946792602539062e+01 -1.041091680526733398e-01 7.670403003692626953e+00 2.269888162612915039e+00 -4.143753647804260254e-02
5.278000000000000000e+03 5.208488082885742188e+01 3.086648178100585938e+01 9.930506348609924316e-03 7.796875000000000000e+00 2.342041730880737305e+00 2.222944982349872589e-02
5.279000000000000000e+03 7.851766967773437500e+01 4.195229339599609375e+01 -5.885542122996412218e-05 7.628058910369873047e+00 2.288399934768676758e+00 -6.074482225812971592e-04
5.280000000000000000e+03 1.656819725036621094e+01 3.890694427490234375e+01 -2.789615094661712646e-01 3.671385049819946289e-01 2.645309828221797943e-02 2.693938910961151123e-01
5.281000000000000000e+03 1.300965070724487305e+00 4.194058990478515625e+01 -2.947463362943381071e-04 -7.812441885471343994e-02 -2.352574840188026428e-02 -6.278488785028457642e-03
5.282000000000000000e+03 2.101224517822265625e+01 -3.499381637573242188e+01 6.065304875373840332e-01 7.390408992767333984e+00 2.399081945419311523e+00 4.200693368911743164e-01
5.283000000000000000e+03 1.499848461151123047e+01 -3.814954757690429688e+01 -4.924963116645812988e-01 5.150051414966583252e-02 -1.322987377643585205e-01 1.219995692372322083e-01
5.284000000000000000e+03 1.714319992065429688e+01 3.985400009155273438e+01 5.405482649803161621e-01 4.235259294509887695e-01 2.892222702503204346e-01 -4.681453481316566467e-02
5.285000000000000000e+03 7.255927276611328125e+01 -3.651531219482421875e+01 -9.184961207211017609e-03 7.869889736175537109e+00 2.358211278915405273e+00 -1.495988015085458755e-02
5.286000000000000000e+03 1.999892592430114746e+00 4.042773818969726562e+01 3.566575702279806137e-03 -6.349472701549530029e-02 -1.797844655811786652e-02 1.157377474009990692e-02
5.287000000000000000e+03 1.745862841606140137e+00 -3.928145217895507812e+01 -5.948882550001144409e-03 -5.860879272222518921e-02 -1.936730369925498962e-02 -1.549024228006601334e-02
5.288000000000000000e+03 2.219790697097778320e+00 -3.841683578491210938e+01 -3.361829556524753571e-03 -5.037821829319000244e-02 -1.612201519310474396e-02 -1.272374950349330902e-02
5.289000000000000000e+03 2.164087104797363281e+01 -3.595861434936523438e+01 5.347407460212707520e-01 6.876224040985107422e+00 2.223289489746093750e+00 1.930627524852752686e-01
5.290000000000000000e+03 1.168575096130371094e+01 -2.771557807922363281e+00 3.792867064476013184e-04 9.343146666651591659e-05 1.418154424754902720e-04 1.050070859491825104e-04
5.291000000000000000e+03 4.754528999328613281e+00 -3.610353088378906250e+01 1.231306465342640877e-03 -7.504967041313648224e-03 -1.882098149508237839e-03 -3.146087005734443665e-02
5.292000000000000000e+03 3.850194168090820312e+01 3.231613540649414062e+01 1.273165456950664520e-02 7.868851661682128906e+00 2.364475011825561523e+00 7.757373154163360596e-02
5.293000000000000000e+03 4.834160614013671875e+01 -3.127658653259277344e+01 -8.826000243425369263e-02 7.672969341278076172e+00 2.275412797927856445e+00 -5.533313006162643433e-02
5.294000000000000000e+03 7.818321228027343750e+01 3.763583755493164062e+01 -4.265199822839349508e-04 7.630956172943115234e+00 2.289159059524536133e+00 9.511363459751009941e-04
5.295000000000000000e+03 1.247180652618408203e+01 -2.735585212707519531e+01 9.193954989314079285e-03 -5.678884917870163918e-04 2.587819937616586685e-03 -2.423541154712438583e-03
5.296000000000000000e+03 1.455394649505615234e+01 3.376992797851562500e+01 -7.039574533700942993e-02 -2.065862156450748444e-02 -2.731630951166152954e-02 -6.156326085329055786e-02
5.297000000000000000e+03 1.358322620391845703e+01 3.450107574462890625e+01 -1.283724904060363770e-01 7.692146301269531250e-02 -1.543530542403459549e-02 -4.251625761389732361e-02
5.298000000000000000e+03 6.396498680114746094e+00 3.553332138061523438e+01 -2.040755376219749451e-02 1.080735400319099426e-02 -2.880060113966464996e-03 4.439400136470794678e-02
5.299000000000000000e+03 3.490980625152587891e+00 -3.681489181518554688e+01 1.112698670476675034e-02 -2.575288154184818268e-02 -4.387768451124429703e-03 -2.382614649832248688e-02
5.300000000000000000e+03 5.725129699707031250e+01 2.853399467468261719e+01 1.475148648023605347e-02 7.761765480041503906e+00 2.332955121994018555e+00 1.038685347884893417e-02
5.301000000000000000e+03 1.288211822509765625e+01 -2.864116191864013672e+00 -4.464463854674249887e-04 -1.517658529337495565e-04 -1.794636773411184549e-04 4.018751553758193040e-07
5.302000000000000000e+03 1.576599121093750000e+00 4.051770210266113281e+00 -2.683020720724016428e-04 -3.101074253208935261e-05 -8.979384438134729862e-05 8.101361163426190615e-05
5.303000000000000000e+03 2.229300022125244141e+00 4.687103271484375000e+00 -3.308439336251467466e-04 -5.274324212223291397e-05 -1.150761527242138982e-04 1.269914937438443303e-04
5.304000000000000000e+03 2.226536369323730469e+01 -2.928795623779296875e+01 4.035696014761924744e-02 7.402513504028320312e+00 2.232861042022705078e+00 2.316054552793502808e-01
5.305000000000000000e+03 7.266853332519531250e+01 -3.372210311889648438e+01 -1.090519595891237259e-02 7.863046646118164062e+00 2.355642557144165039e+00 -2.247343212366104126e-02
5.306000000000000000e+03 6.524070262908935547e+00 -3.297938919067382812e+01 -4.390375316143035889e-02 1.473840139806270599e-02 -8.749606087803840637e-03 -2.187124826014041901e-02
5.307000000000000000e+03 9.764434814453125000e+00 -3.102109146118164062e+01 -2.584528550505638123e-02 -2.669735113158822060e-03 -8.554506115615367889e-03 1.499086339026689529e-02
5.308000000000000000e+03 2.947802162170410156e+01 3.143552398681640625e+01 1.625356972217559814e-01 7.883948326110839844e+00 2.413945198059082031e+00 7.141948211938142776e-03
5.309000000000000000e+03 2.341596221923828125e+01 3.069556999206542969e+01 1.208701282739639282e-01 8.338214874267578125e+00 2.537725448608398438e+00 -2.146740704774856567e-01
5.310000000000000000e+03 3.349781274795532227e+00 -3.171982192993164062e+01 2.790034050121903419e-03 -3.131658537313342094e-03 -1.024873417918570340e-04 -1.169658266007900238e-02
5.311000000000000000e+03 2.333673667907714844e+01 -2.924039077758789062e+01 9.323274344205856323e-02 7.362667083740234375e+00 2.236769914627075195e+00 2.399303764104843140e-01
5.312000000000000000e+03 2.901102542877197266e+00 5.296957969665527344e+00 -3.694107290357351303e-04 -1.138519073720090091e-04 -1.449787960154935718e-04 2.003879053518176079e-04
5.313000000000000000e+03 1.157639503479003906e+01 2.859357643127441406e+01 -1.459926459938287735e-02 9.640791104175150394e-04 -4.090555477887392044e-03 -1.135756261646747589e-02
5.314000000000000000e+03 1.183944988250732422e+01 -2.649847984313964844e+01 7.491020020097494125e-03 1.044506352627649903e-04 2.278641099110245705e-03 -2.580199623480439186e-03
5.315000000000000000e+03 3.808231735229492188e+01 -2.199607086181640625e+01 -4.277390241622924805e-02 7.601856708526611328e+00 2.267724752426147461e+00 -1.260353438556194305e-02
5.316000000000000000e+03 3.863157653808593750e+01 -2.050417900085449219e+01 -4.205410555005073547e-02 7.619200229644775391e+00 2.273144006729125977e+00 -1.536776963621377945e-02
5.317000000000000000e+03 1.292406368255615234e+01 -3.322568178176879883e+00 6.307925796136260033e-04 -1.790745736798271537e-04 1.355154090560972691e-04 2.168855571653693914e-04
5.318000000000000000e+03 2.394582939147949219e+01 -2.716850471496582031e+01 1.187230576761066914e-03 7.363189220428466797e+00 2.209312915802001953e+00 2.154093384742736816e-01
5.319000000000000000e+03 4.534349441528320312e+00 -3.008938789367675781e+01 1.711352146230638027e-03 7.222720305435359478e-04 7.300872239284217358e-04 -5.856423638761043549e-03
5.320000000000000000e+03 4.096073532104492188e+01 2.137253570556640625e+01 8.604366332292556763e-02 7.848436355590820312e+00 2.380344152450561523e+00 2.231127209961414337e-02
5.321000000000000000e+03 2.444429016113281250e+01 -2.620073318481445312e+01 -2.330530621111392975e-02 7.365507125854492188e+00 2.202660560607910156e+00 2.089743614196777344e-01
5.322000000000000000e+03 1.058163166046142578e+01 2.235832977294921875e+01 -2.644900698214769363e-03 -2.013209043070673943e-03 -1.397432992234826088e-03 6.762393750250339508e-04
5.323000000000000000e+03 7.306223392486572266e+00 -3.286348342895507812e+01 -1.004816871136426926e-02 1.763170212507247925e-02 2.275059930980205536e-03 -1.258673798292875290e-02
5.324000000000000000e+03 4.954764175415039062e+01 2.110976409912109375e+01 6.127841770648956299e-02 7.787850856781005859e+00 2.354738950729370117e+00 9.440398775041103363e-03
5.325000000000000000e+03 2.638167190551757812e+01 -2.726719284057617188e+01 8.803027682006359100e-03 7.379118919372558594e+00 2.216376543045043945e+00 1.699603348970413208e-01
5.326000000000000000e+03 2.465121269226074219e+01 -2.679204750061035156e+01 -2.025061286985874176e-03 7.362642765045166016e+00 2.208185434341430664e+00 2.197824716567993164e-01
5.327000000000000000e+03 2.575055313110351562e+01 -2.663108253479003906e+01 -9.665321558713912964e-03 7.368807315826416016e+00 2.207742691040039062e+00 2.039961069822311401e-01
5.328000000000000000e+03 3.610678195953369141e+00 5.811194419860839844e+00 -1.539820805191993713e-04 -3.963636700063943863e-04 -1.651037164265289903e-04 2.211297251051291823e-04
5.329000000000000000e+03 8.771809577941894531e+00 -4.776459217071533203e+00 3.933414991479367018e-04 3.320398100186139345e-04 2.176143898395821452e-04 9.007018525153398514e-05
5.330000000000000000e+03 6.498454570770263672e+00 3.170935821533203125e+01 -1.681011542677879333e-02 1.096386648714542389e-02 -1.753874588757753372e-03 1.180992741137742996e-02
5.331000000000000000e+03 7.364347839355468750e+01 -3.158163833618164062e+01 -6.258010864257812500e-03 7.868024826049804688e+00 2.358530044555664062e+00 -2.469426952302455902e-02
5.332000000000000000e+03 3.728411102294921875e+01 -2.062117576599121094e+01 -3.970143571496009827e-02 7.603719234466552734e+00 2.269205331802368164e+00 -1.788429683074355125e-03
5.333000000000000000e+03 2.944061660766601562e+01 -2.544848442077636719e+01 -3.103436902165412903e-02 7.443285942077636719e+00 2.223675489425659180e+00 1.224056258797645569e-01
5.334000000000000000e+03 4.576421260833740234e+00 -3.071156311035156250e+01 -2.242310903966426849e-02 1.449321745894849300e-03 -6.292136386036872864e-03 -1.048060692846775055e-02
5.335000000000000000e+03 4.103445053100585938e+01 1.869042205810546875e+01 9.363365918397903442e-02 7.845289230346679688e+00 2.381676912307739258e+00 1.491070445626974106e-02
5.336000000000000000e+03 2.443355751037597656e+01 -2.473250198364257812e+01 -6.114825978875160217e-02 7.376192092895507812e+00 2.194513320922851562e+00 2.053734213113784790e-01
5.337000000000000000e+03 6.877153015136718750e+01 2.214296340942382812e+01 1.015692576766014099e-02 7.694932937622070312e+00 2.311527013778686523e+00 -8.974483236670494080e-03
5.338000000000000000e+03 4.298815917968750000e+01 1.886450195312500000e+01 8.721578121185302734e-02 7.827430248260498047e+00 2.374393701553344727e+00 1.302760001271963120e-02
5.339000000000000000e+03 5.815012741088867188e+01 -1.912730026245117188e+01 -2.085565775632858276e-02 7.743954181671142578e+00 2.316929578781127930e+00 -8.075080811977386475e-02
5.340000000000000000e+03 3.920163726806640625e+01 1.690292739868164062e+01 1.026759073138237000e-01 7.865071296691894531e+00 2.390324115753173828e+00 1.464276108890771866e-02
5.341000000000000000e+03 2.549174308776855469e+01 2.593055915832519531e+01 6.829949468374252319e-02 8.165389060974121094e+00 2.470106363296508789e+00 -8.460612595081329346e-02
5.342000000000000000e+03 9.737582206726074219e+00 -2.555125427246093750e+01 3.830167697742581367e-03 2.284517046064138412e-03 1.834405469708144665e-03 -9.104387136176228523e-04
5.343000000000000000e+03 8.054674148559570312e+00 1.404886150360107422e+01 -5.857399082742631435e-04 -5.756340106017887592e-04 -3.484121698420494795e-04 -1.759439328452572227e-04
5.344000000000000000e+03 5.158267974853515625e+00 -3.002877044677734375e+01 -1.947008073329925537e-02 2.069850219413638115e-03 -5.220069084316492081e-03 -9.621741250157356262e-03
5.345000000000000000e+03 5.746724605560302734e+00 -3.017647552490234375e+01 -8.452658541500568390e-03 4.706624895334243774e-03 -1.123810070566833019e-03 -9.178550913929939270e-03
5.346000000000000000e+03 4.918338012695312500e+01 1.860545921325683594e+01 6.737636029720306396e-02 7.783830165863037109e+00 2.355361938476562500e+00 8.172686793841421604e-04
5.347000000000000000e+03 2.608257102966308594e+01 2.551809692382812500e+01 7.167948782444000244e-02 8.131434440612792969e+00 2.460934162139892578e+00 -7.378615438938140869e-02
5.348000000000000000e+03 2.700507926940917969e+01 -1.914829254150390625e+01 -6.669187545776367188e-02 7.527514934539794922e+00 2.238246917724609375e+00 1.302847415208816528e-01
5.349000000000000000e+03 2.759868431091308594e+01 -2.023804664611816406e+01 -7.541142404079437256e-02 7.516680717468261719e+00 2.232380867004394531e+00 1.263975352048873901e-01
5.350000000000000000e+03 4.224514389038085938e+01 -1.664788627624511719e+01 -2.088854461908340454e-02 7.675018787384033203e+00 2.296239137649536133e+00 -4.641757160425186157e-02
5.351000000000000000e+03 6.606892585754394531e+00 2.933201026916503906e+01 -1.477943733334541321e-02 1.077302265912294388e-02 -1.201924402266740799e-03 3.653360763564705849e-03
5.352000000000000000e+03 9.060515403747558594e+00 2.176359748840332031e+01 6.292226025834679604e-04 5.414481274783611298e-04 3.512012190185487270e-04 -1.543319202028214931e-03
5.353000000000000000e+03 3.283037948608398438e+01 -1.981965065002441406e+01 -3.840532898902893066e-02 7.578025817871093750e+00 2.261886119842529297e+00 4.781105741858482361e-02
5.354000000000000000e+03 9.502573013305664062e+00 1.574387168884277344e+01 1.370910322293639183e-03 9.477480198256671429e-04 6.955974968150258064e-04 1.233471324667334557e-03
5.355000000000000000e+03 9.101252555847167969e+00 1.544533061981201172e+01 -2.978118136525154114e-04 5.253961426205933094e-04 6.827529432484880090e-05 2.680018369574099779e-04
5.356000000000000000e+03 9.095345497131347656e+00 1.588834762573242188e+01 -3.875576949212700129e-04 -1.741772517561912537e-03 -6.387990433722734451e-04 -1.490856870077550411e-03
5.357000000000000000e+03 6.490209960937500000e+01 2.092498397827148438e+01 1.876915059983730316e-02 7.714013576507568359e+00 2.319834709167480469e+00 -1.164998207241296768e-02
5.358000000000000000e+03 2.885825157165527344e+01 2.374844169616699219e+01 7.683838903903961182e-02 8.054956436157226562e+00 2.439538478851318359e+00 -2.862223796546459198e-02
5.359000000000000000e+03 5.213963699340820312e+01 -1.547795677185058594e+01 -1.394883729517459869e-02 7.720827579498291016e+00 2.312063694000244141e+00 -8.160218596458435059e-02
5.360000000000000000e+03 6.386979103088378906e+00 -2.854502677917480469e+01 -1.654895208775997162e-02 1.344971940852701664e-03 -4.561194218695163727e-03 -5.273343063890933990e-03
5.361000000000000000e+03 6.527033996582031250e+01 1.949164009094238281e+01 1.863798871636390686e-02 7.711473941802978516e+00 2.319033622741699219e+00 -1.390218827873468399e-02
5.362000000000000000e+03 7.032077026367187500e+01 1.862388610839843750e+01 9.693440049886703491e-03 7.687582969665527344e+00 2.309182882308959961e+00 -1.422964408993721008e-02
5.363000000000000000e+03 6.148783683776855469e+00 2.879136848449707031e+01 -1.151821296662092209e-02 -3.523959079757332802e-03 -4.512651823461055756e-03 1.058584824204444885e-02
5.364000000000000000e+03 9.261708259582519531e+00 1.664709091186523438e+01 -5.924625438638031483e-04 -6.966118817217648029e-04 -3.867223276756703854e-04 1.133355399360880256e-04
5.365000000000000000e+03 7.301338958740234375e+01 -2.201250839233398438e+01 -4.169675987213850021e-03 7.828180313110351562e+00 2.347203254699707031e+00 -4.183479771018028259e-02
5.366000000000000000e+03 4.601809692382812500e+01 -1.349880313873291016e+01 -5.034775938838720322e-03 7.705778598785400391e+00 2.310223102569580078e+00 -6.420771032571792603e-02
5.367000000000000000e+03 2.971881484985351562e+01 2.390829658508300781e+01 9.087504446506500244e-02 8.029354095458984375e+00 2.436068773269653320e+00 -3.188249468803405762e-02
5.368000000000000000e+03 4.664896392822265625e+01 1.499478721618652344e+01 8.437028527259826660e-02 7.792888641357421875e+00 2.363177537918090820e+00 -6.657126825302839279e-03
5.369000000000000000e+03 6.332262516021728516e+00 -2.796240425109863281e+01 5.159497377462685108e-04 2.260764129459857941e-03 8.330141426995396614e-04 6.302045076154172421e-04
5.370000000000000000e+03 6.455205440521240234e+00 -2.730433082580566406e+01 -1.108230557292699814e-02 -2.295376034453511238e-03 -4.013304598629474640e-03 -2.232258440926671028e-03
5.371000000000000000e+03 4.976487159729003906e+00 2.903430557250976562e+01 -4.467274062335491180e-03 -1.179734608740545809e-04 -1.375574269331991673e-03 6.150566041469573975e-03
5.372000000000000000e+03 7.381503105163574219e+00 2.037955856323242188e+01 -1.336428686045110226e-03 -2.423875033855438232e-03 -1.128091127611696720e-03 4.984877305105328560e-04
5.373000000000000000e+03 2.776591682434082031e+01 -1.349863815307617188e+01 2.459207363426685333e-02 7.610344886779785156e+00 2.290481090545654297e+00 1.271902769804000854e-01
5.374000000000000000e+03 8.755503654479980469e+00 -9.797400474548339844e+00 -6.346008740365505219e-04 1.420779735781252384e-03 2.358536439714953303e-04 -1.910272549139335752e-04
5.375000000000000000e+03 9.328804016113281250e+00 -1.109686470031738281e+01 4.782159230671823025e-04 1.186841633170843124e-03 4.995172494091093540e-04 -1.059605157934129238e-03
5.376000000000000000e+03 4.004180908203125000e+01 -1.098890495300292969e+01 4.195463377982378006e-03 7.705026626586914062e+00 2.312766551971435547e+00 -2.933956682682037354e-02
5.377000000000000000e+03 7.026839733123779297e+00 -2.020374870300292969e+01 1.033469219692051411e-03 1.553284586407244205e-03 7.760261651128530502e-04 -9.082771721296012402e-04
5.378000000000000000e+03 9.840047836303710938e+00 -2.223355674743652344e+01 -3.397074528038501740e-03 3.855329705402255058e-04 -9.034624672494828701e-04 -6.680748192593455315e-04
5.379000000000000000e+03 5.858655929565429688e+00 1.199752330780029297e+01 -9.185698581859469414e-04 -1.931634178617969155e-04 -3.335199726279824972e-04 7.228158647194504738e-04
5.380000000000000000e+03 4.509373092651367188e+01 -1.283317470550537109e+01 -4.372692666947841644e-03 7.705940246582031250e+00 2.310470342636108398e+00 -6.097095087170600891e-02
5.381000000000000000e+03 2.818411636352539062e+01 7.590063095092773438e+00 1.433233916759490967e-01 8.035620689392089844e+00 2.453683137893676758e+00 9.983856230974197388e-02
5.382000000000000000e+03 9.266845703125000000e+00 -1.202357292175292969e+01 4.361662722658365965e-04 7.920964271761476994e-04 3.684788243845105171e-04 -4.965475527569651604e-04
5.383000000000000000e+03 4.566372680664062500e+01 1.050322151184082031e+01 9.013261646032333374e-02 7.787514686584472656e+00 2.363294124603271484e+00 -2.058050408959388733e-02
5.384000000000000000e+03 6.205371475219726562e+01 1.115113735198974609e+01 3.197278082370758057e-02 7.725476264953613281e+00 2.327234745025634766e+00 -3.730610013008117676e-02
5.385000000000000000e+03 7.009947204589843750e+01 1.393715286254882812e+01 1.136241108179092407e-02 7.693974971771240234e+00 2.311601161956787109e+00 -2.258058637380599976e-02
5.386000000000000000e+03 6.826619148254394531e+00 2.455701637268066406e+01 -5.410341545939445496e-03 1.775378943420946598e-03 -1.090488862246274948e-03 3.015162888914346695e-03
5.387000000000000000e+03 6.819866180419921875e+00 2.368288612365722656e+01 -2.626233734190464020e-03 -4.094454459846019745e-03 -2.016206504777073860e-03 2.160534961149096489e-03
5.388000000000000000e+03 5.463409900665283203e+00 2.018125534057617188e+01 -5.121371941640973091e-04 -2.560878871008753777e-03 -9.219048079103231430e-04 3.405072784516960382e-04
5.389000000000000000e+03 3.701715850830078125e+01 1.281746387481689453e+01 1.104183495044708252e-01 7.883283138275146484e+00 2.398110389709472656e+00 1.831685192883014679e-02
5.390000000000000000e+03 8.487496376037597656e+00 -2.235838890075683594e+01 3.975672647356987000e-03 -3.839971730485558510e-03 4.071033254149369895e-05 1.735403900966048241e-03
5.391000000000000000e+03 6.246438503265380859e+00 2.112375831604003906e+01 -8.653306867927312851e-04 -1.473973272368311882e-03 -7.017911993898451328e-04 1.758980914019048214e-03
5.392000000000000000e+03 2.891704750061035156e+01 1.536523914337158203e+01 7.107017189264297485e-02 8.070811271667480469e+00 2.442564487457275391e+00 4.300563037395477295e-02
5.393000000000000000e+03 7.274022674560546875e+01 1.179690742492675781e+01 6.651652511209249496e-03 7.685699462890625000e+00 2.307705402374267578e+00 -2.194389887154102325e-02
5.394000000000000000e+03 6.933278656005859375e+01 1.295344352722167969e+01 1.323014032095670700e-02 7.698910236358642578e+00 2.313642263412475586e+00 -2.570220641791820526e-02
5.395000000000000000e+03 7.095619201660156250e+01 1.402383422851562500e+01 9.892597794532775879e-03 7.689698219299316406e+00 2.309877395629882812e+00 -2.156464196741580963e-02
5.396000000000000000e+03 7.212806701660156250e+00 -2.180525779724121094e+01 -4.894854500889778137e-03 -3.364915028214454651e-04 -1.569403801113367081e-03 2.202355070039629936e-03
5.397000000000000000e+03 2.828707122802734375e+01 1.351832485198974609e+01 7.453757524490356445e-02 8.087661743164062500e+00 2.448659896850585938e+00 6.304243952035903931e-02
5.398000000000000000e+03 6.354741573333740234e+00 2.438644027709960938e+01 -2.294469391927123070e-03 -2.026039874181151390e-03 -1.296152709983289242e-03 -3.391433507204055786e-03
5.399000000000000000e+03 7.017450714111328125e+01 1.295972251892089844e+01 1.162120699882507324e-02 7.695666313171386719e+00 2.312186241149902344e+00 -2.533056586980819702e-02
5.400000000000000000e+03 2.883886909484863281e+01 -1.793716192245483398e+00 2.267356216907501221e-02 7.880517482757568359e+00 2.370957374572753906e+00 8.111198991537094116e-02
5.401000000000000000e+03 5.949716949462890625e+01 -3.936951637268066406e+00 2.052648365497589111e-02 7.738178730010986328e+00 2.327611446380615234e+00 -7.724869996309280396e-02
5.402000000000000000e+03 5.041733932495117188e+01 -4.813771247863769531e+00 3.200006857514381409e-02 7.736723423004150391e+00 2.330616950988769531e+00 -7.382481545209884644e-02
5.403000000000000000e+03 7.126080322265625000e+01 6.748563289642333984e+00 9.215844795107841492e-03 7.704829692840576172e+00 2.314213752746582031e+00 -3.491173312067985535e-02
5.404000000000000000e+03 2.900614356994628906e+01 -7.374952793121337891e+00 4.209626058582216501e-04 7.763106822967529297e+00 2.329058408737182617e+00 1.299589425325393677e-01
5.405000000000000000e+03 7.155548095703125000e+00 -1.585457324981689453e+01 -1.664264360442757607e-03 -1.375799882225692272e-03 -9.120192844420671463e-04 -2.628063666634261608e-04
5.406000000000000000e+03 7.223545837402343750e+01 -1.142703151702880859e+01 1.314356450166087598e-05 7.775595188140869141e+00 2.332682371139526367e+00 -5.053120851516723633e-02
5.407000000000000000e+03 2.968952751159667969e+01 -2.390301227569580078e+00 2.233130298554897308e-02 7.859344959259033203e+00 2.364502906799316406e+00 7.255075871944427490e-02
5.408000000000000000e+03 6.231008148193359375e+01 6.495829105377197266e+00 2.958649583160877228e-02 7.727624416351318359e+00 2.327163219451904297e+00 -5.057260394096374512e-02
5.409000000000000000e+03 2.948025512695312500e+01 8.559790611267089844e+00 1.326485127210617065e-01 8.002860069274902344e+00 2.440652608871459961e+00 8.038450777530670166e-02
5.410000000000000000e+03 7.049530792236328125e+01 7.396841526031494141e+00 1.072499621659517288e-02 7.705322742462158203e+00 2.314814329147338867e+00 -3.544135019183158875e-02
5.411000000000000000e+03 3.009524536132812500e+01 -5.633929729461669922e+00 3.049366874620318413e-03 7.795665740966796875e+00 2.339614391326904297e+00 9.308346360921859741e-02
5.412000000000000000e+03 6.746698760986328125e+01 -4.875905513763427734e+00 8.278684690594673157e-03 7.743821620941162109e+00 2.325629949569702148e+00 -6.426440924406051636e-02
5.413000000000000000e+03 6.614088439941406250e+01 -2.608680009841918945e+00 1.268548332154750824e-02 7.737567901611328125e+00 2.325075864791870117e+00 -6.519715487957000732e-02
5.414000000000000000e+03 3.135528182983398438e+01 9.554390907287597656e+00 1.240798979997634888e-01 7.968217849731445312e+00 2.427689313888549805e+00 5.824574828147888184e-02
5.415000000000000000e+03 6.437533569335937500e+01 6.481198310852050781e+00 2.494466491043567657e-02 7.723057270050048828e+00 2.324400663375854492e+00 -4.893491417169570923e-02
5.416000000000000000e+03 3.132739639282226562e+01 5.976315140724182129e-01 7.588770985603332520e-02 7.875012874603271484e+00 2.385270118713378906e+00 3.470290824770927429e-02
5.417000000000000000e+03 3.353931045532226562e+01 -1.267609953880310059e+00 5.834432691335678101e-02 7.825967788696289062e+00 2.365293502807617188e+00 1.642609201371669769e-02
5.418000000000000000e+03 3.274752426147460938e+01 -4.461631476879119873e-01 6.634730845689773560e-02 7.843111038208007812e+00 2.372837543487548828e+00 2.355550788342952728e-02
5.419000000000000000e+03 6.454560089111328125e+01 5.449926376342773438e+00 2.327367849647998810e-02 7.724190235137939453e+00 2.324239253997802734e+00 -5.107304453849792480e-02
5.420000000000000000e+03 6.450037384033203125e+01 4.449050426483154297e+00 2.283639460802078247e-02 7.725553989410400391e+00 2.324517250061035156e+00 -5.401409044861793518e-02
5.421000000000000000e+03 6.513174438476562500e+01 -2.640124797821044922e+00 1.419325917959213257e-02 7.737627506256103516e+00 2.325546264648437500e+00 -6.686930358409881592e-02
5.422000000000000000e+03 6.425103759765625000e+01 2.464395284652709961e+00 2.140410803258419037e-02 7.728964805603027344e+00 2.325110673904418945e+00 -5.909597873687744141e-02
5.423000000000000000e+03 3.201313018798828125e+01 -6.228134036064147949e-01 6.059370562434196472e-02 7.854360580444335938e+00 2.374486207962036133e+00 3.213826939463615417e-02
5.424000000000000000e+03 3.201753234863281250e+01 5.024840235710144043e-01 7.564425468444824219e-02 7.863369464874267578e+00 2.381704092025756836e+00 2.864681743085384369e-02
5.425000000000000000e+03 3.231474685668945312e+01 1.102082610130310059e+00 8.506594598293304443e-02 7.866359233856201172e+00 2.385427474975585938e+00 2.464793249964714050e-02
5.426000000000000000e+03 3.311560440063476562e+01 6.543987393379211426e-01 7.920973747968673706e-02 7.848741531372070312e+00 2.378385305404663086e+00 1.793389394879341125e-02
5.427000000000000000e+03 3.261504364013671875e+01 1.863017559051513672e+00 9.440032392740249634e-02 7.869548320770263672e+00 2.389184713363647461e+00 2.334925904870033264e-02
5.428000000000000000e+03 6.696207427978515625e+01 2.703017473220825195e+00 1.552086882293224335e-02 7.724921703338623047e+00 2.322132825851440430e+00 -5.348431318998336792e-02
5.429000000000000000e+03 6.970297241210937500e+01 -1.755465745925903320e+00 7.982510142028331757e-03 7.734239101409912109e+00 2.322666406631469727e+00 -5.351223796606063843e-02
5.430000000000000000e+03 6.622732543945312500e+01 1.514760255813598633e+00 1.622464694082736969e-02 7.728259086608886719e+00 2.323345184326171875e+00 -5.679871514439582825e-02
5.431000000000000000e+03 8.781352043151855469e+00 -3.719603419303894043e-01 -3.056444256799295545e-05 -1.738848222885280848e-04 -6.133478018455207348e-05 -3.929199010599404573e-06
5.432000000000000000e+03 9.592894554138183594e+00 -3.821278512477874756e-01 3.649899372248910367e-05 1.924270327435806394e-04 6.867780757602304220e-05 -2.715471282499493100e-06
5.433000000000000000e+03 7.937124252319335938e+00 -3.697004318237304688e-01 2.526721254980657250e-05 1.256127725355327129e-04 4.526399789028801024e-05 2.269933975185267627e-05
5.434000000000000000e+03 6.087632656097412109e+00 -1.287102699279785156e+00 3.168893163092434406e-04 2.574928803369402885e-04 1.723146560834720731e-04 -2.193847103626467288e-05
5.435000000000000000e+03 7.112461090087890625e+00 -2.933476567268371582e-01 -1.251622743438929319e-04 -1.468900009058415890e-04 -8.161568257492035627e-05 4.516347325989045203e-05
5.436000000000000000e+03 5.898520469665527344e+00 -5.217865109443664551e-01 3.896735433954745531e-04 3.659264475572854280e-04 2.266800001962110400e-04 3.510430906317196786e-05
5.437000000000000000e+03 3.587535858154296875e+00 -4.029285311698913574e-01 -1.773517433321103454e-04 -1.406289520673453808e-04 -9.539420716464519501e-05 -1.116892308345995843e-04
5.438000000000000000e+03 2.811208486557006836e+00 -3.814771473407745361e-01 5.059531031292863190e-05 7.969988655531778932e-05 3.908855796908028424e-05 3.753165583475492895e-05
5.439000000000000000e+03 2.012033939361572266e+00 -3.757362067699432373e-01 -6.776070949854329228e-05 -4.871339842793531716e-05 -3.494223346933722496e-05 -3.434635436860844493e-05
5.440000000000000000e+03 1.208169579505920410e+00 -3.758563995361328125e-01 6.123029015725478530e-05 1.788850931916385889e-05 2.373563984292559326e-05 1.647730823606252670e-05
5.441000000000000000e+03 3.727707266807556152e-01 -1.123655557632446289e+00 1.771099632605910301e-04 1.085771509679034352e-05 5.639030496240593493e-05 2.213505831605289131e-05
5.442000000000000000e+03 4.027584791183471680e-01 -3.836556077003479004e-01 -5.455108112073503435e-05 -3.528960633047972806e-06 -1.742401218507438898e-05 -5.667252935381839052e-06
5.443000000000000000e+03 9.616543769836425781e+00 -1.122127890586853027e+00 -1.159188832389190793e-04 -1.436623570043593645e-04 -7.787437061779201031e-05 -3.028949504368938506e-05
5.444000000000000000e+03 8.864976882934570312e+00 -1.111960291862487793e+00 7.356120477197691798e-05 1.010518171824514866e-04 5.238390440354123712e-05 3.330955951241776347e-05
5.445000000000000000e+03 8.080724716186523438e+00 -1.109700441360473633e+00 -5.770586358266882598e-05 -6.935832061572000384e-05 -3.811925489571876824e-05 -4.770472878590226173e-05
5.446000000000000000e+03 6.701405525207519531e+00 -1.300178170204162598e+00 7.298688433365896344e-05 -1.694927195785567164e-04 -2.895174839068204165e-05 1.225411142513621598e-05
5.447000000000000000e+03 6.357324600219726562e+00 -9.457411170005798340e-01 -5.353701417334377766e-04 5.077436435385607183e-05 -1.453787408536300063e-04 2.161190241167787462e-05
5.448000000000000000e+03 5.392152309417724609e+00 -1.238638997077941895e+00 -2.454464847687631845e-04 -1.929188147187232971e-04 -1.315095869358628988e-04 -5.603102545137517154e-05
5.449000000000000000e+03 4.670648097991943359e+00 -1.238708138465881348e+00 3.978522436227649450e-04 2.142629382433369756e-04 1.836345472838729620e-04 -1.516284191893646494e-05
5.450000000000000000e+03 3.995083332061767578e+00 -1.194472670555114746e+00 -5.426841089501976967e-04 -1.488927082391455770e-04 -2.074730582535266876e-04 1.657196480664424598e-05
5.451000000000000000e+03 3.317646026611328125e+00 -1.142928481101989746e+00 3.528865927364677191e-04 1.042339863488450646e-04 1.371361722704023123e-04 1.051233339239843190e-04
5.452000000000000000e+03 2.601294279098510742e+00 -1.121477127075195312e+00 -1.830822438932955265e-04 -1.055211905622854829e-04 -8.658102888148277998e-05 -9.239919018000364304e-05
5.453000000000000000e+03 1.862095236778259277e+00 -1.115736246109008789e+00 1.715112302917987108e-04 6.715591734973713756e-05 7.160014502005651593e-05 6.312990444712340832e-05
5.454000000000000000e+03 1.118206262588500977e+00 -1.115856409072875977e+00 -1.789126545190811157e-04 -4.278589767636731267e-05 -6.650956493103876710e-05 -5.370959843276068568e-05
5.455000000000000000e+03 7.334480762481689453e+00 -1.182360172271728516e+00 -1.096837659133598208e-04 5.013389818486757576e-05 -1.786495886335615069e-05 3.148694668198004365e-05
5.456000000000000000e+03 5.361784934997558594e+00 -2.532311081886291504e-01 -2.205732453148812056e-04 -2.280386834172531962e-04 -1.345835771644487977e-04 -3.221320221200585365e-04
5.457000000000000000e+03 4.737035274505615234e+00 -7.355351448059082031e-01 -1.179889150080271065e-04 -2.554265374783426523e-04 -1.120246379286982119e-04 -3.191659634467214346e-04
5.458000000000000000e+03 4.202100276947021484e+00 -5.742921233177185059e-01 5.328420666046440601e-04 5.297543248161673546e-04 3.187789116054773331e-04 -4.469037958187982440e-05
5.459000000000000000e+03 6.872361183166503906e+00 -6.919860839843750000e-01 4.330107185523957014e-04 -8.622175664640963078e-05 1.040366914821788669e-04 -7.334499241551384330e-05
5.460000000000000000e+03 6.408009052276611328e+00 -2.696259319782257080e-01 -1.915888569783419371e-04 1.056396940839476883e-04 -2.578474959591403604e-05 6.856221443740651011e-05
5.461000000000000000e+03 4.676460742950439453e+00 -2.568270266056060791e-01 -2.586712071206420660e-04 -1.645081065362319350e-04 -1.269537897314876318e-04 3.815810487139970064e-04
5.462000000000000000e+03 5.370520591735839844e+00 -7.318700551986694336e-01 1.551061723148450255e-04 -1.807089574867859483e-04 -7.680836461076978594e-06 3.226542612537741661e-04
5.463000000000000000e+03 1.331343936920166016e+01 -3.676339089870452881e-01 -8.625051850685849786e-05 -2.705710649024695158e-04 -1.070464786607772112e-04 -2.565890645200852305e-05
5.464000000000000000e+03 1.480976009368896484e+01 -4.812801480293273926e-01 -1.036736139212734997e-04 -8.223607437685132027e-05 -5.577290721703320742e-05 7.803945482010021806e-05
5.465000000000000000e+03 1.442627048492431641e+01 -1.284505367279052734e+00 -4.729747015517205000e-04 -2.010859589063329622e-06 -1.424956572009250522e-04 5.240694736130535603e-05
5.466000000000000000e+03 1.321720409393310547e+01 -1.251073479652404785e+00 -5.932172280154190958e-05 3.102104237768799067e-04 7.526660920120775700e-05 -8.897969382815063000e-05
5.467000000000000000e+03 1.487863063812255859e+01 -1.231170654296875000e+00 3.297378425486385822e-04 -5.744378358940593898e-05 8.168821659637615085e-05 -1.090954683604650199e-04
5.468000000000000000e+03 1.426698017120361328e+01 -6.911123991012573242e-01 3.702091635204851627e-04 1.779820886440575123e-04 1.644573785597458482e-04 -2.996846342284698039e-05
5.469000000000000000e+03 1.401542663574218750e+01 -1.369322538375854492e+00 2.043776767095550895e-04 2.732246357481926680e-04 1.432806893717497587e-04 -7.106580596882849932e-05
5.470000000000000000e+03 1.348995685577392578e+01 -7.763931751251220703e-01 3.282225225120782852e-04 -2.154586836695671082e-04 3.382915383554063737e-05 8.376585174119099975e-05
5.471000000000000000e+03 1.364190769195556641e+01 -1.364929676055908203e+00 1.284414029214531183e-04 -4.150127642787992954e-04 -8.597141277277842164e-05 1.015336019918322563e-04
5.472000000000000000e+03 1.389176082611083984e+01 -3.455835580825805664e-01 -1.572622131789103150e-04 1.569037267472594976e-04 -1.075458442301169271e-07 -8.604489994468167424e-05
5.473000000000000000e+03 1.384758949279785156e+01 -1.028696417808532715e+00 -3.882590099237859249e-04 6.208238482940942049e-05 -9.785298607312142849e-05 1.187424277304671705e-04
5.474000000000000000e+03 1.221821880340576172e+01 -1.226628899574279785e+00 6.273321923799812794e-05 2.391637244727462530e-04 9.056908311322331429e-05 -6.731284429406514391e-06
5.475000000000000000e+03 1.167969799041748047e+01 -7.760205864906311035e-01 1.615168876014649868e-04 5.080633854959160089e-05 6.369697075570002198e-05 -6.455086986534297466e-05
5.476000000000000000e+03 1.267180538177490234e+01 -4.488613903522491455e-01 5.713287828257307410e-05 3.067594661843031645e-04 1.091677040676586330e-04 -6.819755799369886518e-05
5.477000000000000000e+03 1.036360645294189453e+01 -3.936253786087036133e-01 -6.847165786894038320e-05 -2.366959961364045739e-04 -9.155029692919924855e-05 -3.204720269422978163e-05
5.478000000000000000e+03 1.116112613677978516e+01 -8.620877265930175781e-01 4.838141103391535580e-05 8.077147867879830301e-06 1.693756712484173477e-05 -1.076635962817817926e-04
5.479000000000000000e+03 1.029410457611083984e+01 -1.132543325424194336e+00 1.963478716788813472e-04 2.075095399050042033e-04 1.211572234751656651e-04 7.614167407155036926e-05
5.480000000000000000e+03 1.272050189971923828e+01 -1.189804315567016602e+00 -1.115069680963642895e-04 -2.612703246995806694e-04 -1.118331856559962034e-04 6.117893644841387868e-05
5.481000000000000000e+03 1.124737453460693359e+01 -1.293578028678894043e+00 3.966732765547931194e-05 2.471775806043297052e-04 8.605347102275118232e-05 8.816876652417704463e-05
5.482000000000000000e+03 1.080749988555908203e+01 -1.222419857978820801e+00 -2.474283974152058363e-04 -2.760532952379435301e-04 -1.570445019751787186e-04 -3.638850466813892126e-05
5.483000000000000000e+03 1.213544750213623047e+01 -6.081690788269042969e-01 -1.530459485366009176e-06 -2.016748767346143723e-04 -6.096159995649941266e-05 1.938924979185685515e-04
5.484000000000000000e+03 1.175527763366699219e+01 -3.008702993392944336e-01 -1.221266138600185513e-04 -3.247001441195607185e-04 -1.340480230282992125e-04 -8.478314703097566962e-05
5.485000000000000000e+03 1.172527027130126953e+01 -1.266113281250000000e+00 -7.275732059497386217e-05 -2.080409612972289324e-04 -8.423948747804388404e-05 -4.126913336222060025e-05
5.486000000000000000e+03 1.109109306335449219e+01 -3.487910628318786621e-01 3.367989484104327857e-05 3.031204396393150091e-04 1.010400956147350371e-04 6.642399966949597001e-05
