# el_label, x, y, sXX, sYY, sZZ, sXY
1.000000000000000000e+00 5.459188461303710938e+01 3.143828201293945312e+01 -7.256920814514160156e+00 -2.103448152542114258e+00 -2.808110713958740234e+00 -2.412494659423828125e+00
2.000000000000000000e+00 5.439285278320312500e+01 3.144013977050781250e+01 -1.806385278701782227e+00 8.514154553413391113e-01 -2.864909470081329346e-01 9.886118173599243164e-01
3.000000000000000000e+00 5.419382095336914062e+01 3.144199752807617188e+01 -3.007031679153442383e+00 -4.540551900863647461e-01 -1.038326025009155273e+00 1.607910245656967163e-01
4.000000000000000000e+00 5.399478912353515625e+01 3.144385528564453125e+01 -3.036160945892333984e+00 1.963241845369338989e-01 -8.519510626792907715e-01 4.131160676479339600e-01
5.000000000000000000e+00 5.459705352783203125e+01 3.138010597229003906e+01 9.434374809265136719e+00 -2.763949871063232422e+00 2.001127481460571289e+00 4.414054453372955322e-01
6.000000000000000000e+00 5.440147018432617188e+01 3.134318161010742188e+01 2.479116678237915039e+00 5.004639178514480591e-02 7.587488889694213867e-01 1.004029512405395508e+00
7.000000000000000000e+00 5.420588302612304688e+01 3.130625534057617188e+01 2.588219642639160156e+00 5.169017910957336426e-01 9.315364360809326172e-01 1.755827188491821289e+00
8.000000000000000000e+00 5.401029968261718750e+01 3.126932907104492188e+01 1.150514364242553711e+00 -1.174440607428550720e-01 3.099211156368255615e-01 1.088261723518371582e+00
9.000000000000000000e+00 5.461345291137695312e+01 3.132405090332031250e+01 1.636158561706542969e+01 8.531290888786315918e-01 5.164414405822753906e+00 7.398578643798828125e+00
1.000000000000000000e+01 5.442879867553710938e+01 3.124975395202636719e+01 9.420683860778808594e+00 4.609885811805725098e-01 2.964501619338989258e+00 4.280970573425292969e+00
1.100000000000000000e+01 5.424414062500000000e+01 3.117545890808105469e+01 6.043440341949462891e+00 1.360980987548828125e+00 2.221326351165771484e+00 3.637476444244384766e+00
1.200000000000000000e+01 5.405948638916015625e+01 3.110116195678710938e+01 5.172206878662109375e+00 1.173161387443542480e+00 1.903610467910766602e+00 3.484413862228393555e+00
1.300000000000000000e+01 5.464044952392578125e+01 3.127226066589355469e+01 1.936551475524902344e+01 6.661920547485351562e+00 7.808230400085449219e+00 1.334516620635986328e+01
1.400000000000000000e+01 5.447378921508789062e+01 3.116343688964843750e+01 1.215158367156982422e+01 4.034205913543701172e+00 4.855737209320068359e+00 8.658312797546386719e+00
1.500000000000000000e+01 5.430713272094726562e+01 3.105461311340332031e+01 9.374807357788085938e+00 3.331855297088623047e+00 3.811998844146728516e+00 6.949671268463134766e+00
1.600000000000000000e+01 5.414047622680664062e+01 3.094578933715820312e+01 7.496854782104492188e+00 3.286723613739013672e+00 3.235073566436767578e+00 5.897942066192626953e+00
1.700000000000000000e+01 5.467700958251953125e+01 3.122671508789062500e+01 1.841293525695800781e+01 1.465547180175781250e+01 9.920522689819335938e+00 1.776328086853027344e+01
1.800000000000000000e+01 5.453472900390625000e+01 3.108752822875976562e+01 1.295552158355712891e+01 9.341488838195800781e+00 6.689103126525878906e+00 1.232803916931152344e+01
1.900000000000000000e+01 5.439244461059570312e+01 3.094834136962890625e+01 1.005709075927734375e+01 7.278695583343505859e+00 5.200736045837402344e+00 9.852256774902343750e+00
2.000000000000000000e+01 5.425016021728515625e+01 3.080915451049804688e+01 8.531531333923339844e+00 6.395055770874023438e+00 4.477976322174072266e+00 8.573648452758789062e+00
2.100000000000000000e+01 5.472173690795898438e+01 3.118916130065917969e+01 1.588235092163085938e+01 2.356826591491699219e+01 1.183518505096435547e+01 1.968214225769042969e+01
2.200000000000000000e+01 5.460927581787109375e+01 3.102493667602539062e+01 1.153723907470703125e+01 1.580384445190429688e+01 8.202324867248535156e+00 1.441452026367187500e+01
2.300000000000000000e+01 5.449681091308593750e+01 3.086071395874023438e+01 9.490293502807617188e+00 1.256085014343261719e+01 6.615343093872070312e+00 1.183551883697509766e+01
2.400000000000000000e+01 5.438434982299804688e+01 3.069648933410644531e+01 7.647339820861816406e+00 1.055374717712402344e+01 5.460326194763183594e+00 1.018370342254638672e+01
2.500000000000000000e+01 5.477292251586914062e+01 3.116103172302246094e+01 1.233107185363769531e+01 3.222718429565429688e+01 1.336747741699218750e+01 1.892721366882324219e+01
2.600000000000000000e+01 5.469458389282226562e+01 3.097805595397949219e+01 9.666578292846679688e+00 2.256012916564941406e+01 9.668011665344238281e+00 1.461951351165771484e+01
2.700000000000000000e+01 5.461624145507812500e+01 3.079508018493652344e+01 7.629550457000732422e+00 1.820313835144042969e+01 7.749806880950927734e+00 1.228782081604003906e+01
2.800000000000000000e+01 5.453790283203125000e+01 3.061210441589355469e+01 6.362797260284423828e+00 1.578502845764160156e+01 6.644347667694091797e+00 1.081403064727783203e+01
2.900000000000000000e+01 5.482860565185546875e+01 3.114340591430664062e+01 9.714735984802246094e+00 3.957420349121093750e+01 1.478668117523193359e+01 1.585009002685546875e+01
3.000000000000000000e+01 5.478738784790039062e+01 3.094868087768554688e+01 7.543859481811523438e+00 2.866418266296386719e+01 1.086241245269775391e+01 1.296607494354248047e+01
3.100000000000000000e+01 5.474616622924804688e+01 3.075395393371582031e+01 5.966490745544433594e+00 2.361298942565917969e+01 8.873844146728515625e+00 1.126196384429931641e+01
3.200000000000000000e+01 5.470494842529296875e+01 3.055922698974609375e+01 4.894230365753173828e+00 2.056724929809570312e+01 7.638443946838378906e+00 1.008611583709716797e+01
3.300000000000000000e+01 5.488665390014648438e+01 3.113695907592773438e+01 8.479729652404785156e+00 4.473356246948242188e+01 1.596398735046386719e+01 1.111855030059814453e+01
3.400000000000000000e+01 5.488413238525390625e+01 3.093793296813964844e+01 6.320948123931884766e+00 3.350415420532226562e+01 1.194753074645996094e+01 9.985581398010253906e+00
3.500000000000000000e+01 5.488161087036132812e+01 3.073890876770019531e+01 4.844518184661865234e+00 2.796746826171875000e+01 9.843595504760742188e+00 8.870066642761230469e+00
3.600000000000000000e+01 5.487908935546875000e+01 3.053988265991210938e+01 3.893451690673828125e+00 2.445021629333496094e+01 8.503100395202636719e+00 8.083379745483398438e+00
3.700000000000000000e+01 5.494484710693359375e+01 3.114193344116210938e+01 9.183979034423828125e+00 4.740186309814453125e+01 1.697575378417968750e+01 5.918091773986816406e+00
3.800000000000000000e+01 5.498112106323242188e+01 3.094622611999511719e+01 6.345787048339843750e+00 3.656882095336914062e+01 1.287438297271728516e+01 6.156196594238281250e+00
3.900000000000000000e+01 5.501739501953125000e+01 3.075051879882812500e+01 4.751539230346679688e+00 3.087738800048828125e+01 1.068867778778076172e+01 5.714059829711914062e+00
4.000000000000000000e+01 5.505366897583007812e+01 3.055481147766113281e+01 3.733438014984130859e+00 2.722758293151855469e+01 9.288306236267089844e+00 5.259763240814208984e+00
4.100000000000000000e+01 5.500095367431640625e+01 3.115814399719238281e+01 1.169551467895507812e+01 4.769508361816406250e+01 1.781717872619628906e+01 1.134867191314697266e+00
4.200000000000000000e+01 5.507463455200195312e+01 3.097324180603027344e+01 7.763587951660156250e+00 3.778729248046875000e+01 1.366526508331298828e+01 2.314432144165039062e+00
4.300000000000000000e+01 5.514831542968750000e+01 3.078834152221679688e+01 5.847810268402099609e+00 3.216896820068359375e+01 1.140503406524658203e+01 2.331951141357421875e+00
4.400000000000000000e+01 5.522199630737304688e+01 3.060343933105468750e+01 4.666872024536132812e+00 2.857563972473144531e+01 9.972753524780273438e+00 2.347471475601196289e+00
4.500000000000000000e+01 5.505283737182617188e+01 3.118496704101562500e+01 1.546832942962646484e+01 4.624415206909179688e+01 1.851374435424804688e+01 -2.377872467041015625e+00
4.600000000000000000e+01 5.516110229492187500e+01 3.101794815063476562e+01 1.042813682556152344e+01 3.727358245849609375e+01 1.431051635742187500e+01 -9.596520066261291504e-01
4.700000000000000000e+01 5.526937103271484375e+01 3.085092735290527344e+01 8.002731323242187500e+00 3.203081130981445312e+01 1.201006317138671875e+01 -5.058763623237609863e-01
4.800000000000000000e+01 5.537763977050781250e+01 3.068390846252441406e+01 6.608436584472656250e+00 2.844990158081054688e+01 1.051750183105468750e+01 -3.095394074916839600e-01
4.900000000000000000e+01 5.509850311279296875e+01 3.122137641906738281e+01 1.979345703125000000e+01 4.368669509887695312e+01 1.904404640197753906e+01 -4.299959182739257812e+00
5.000000000000000000e+01 5.523721313476562500e+01 3.107863044738769531e+01 1.385475540161132812e+01 3.562327957153320312e+01 1.484341049194335938e+01 -3.060893774032592773e+00
5.100000000000000000e+01 5.537592697143554688e+01 3.093588638305664062e+01 1.095851135253906250e+01 3.065067672729492188e+01 1.248275661468505859e+01 -2.415605783462524414e+00
5.200000000000000000e+01 5.551463699340820312e+01 3.079314041137695312e+01 9.090866088867187500e+00 2.739131164550781250e+01 1.094465351104736328e+01 -2.081246852874755859e+00
5.300000000000000000e+01 5.513620376586914062e+01 3.126598167419433594e+01 2.395230484008789062e+01 4.094488525390625000e+01 1.946915626525878906e+01 -4.554891109466552734e+00
5.400000000000000000e+01 5.530005264282226562e+01 3.115297126770019531e+01 1.744339942932128906e+01 3.327711486816406250e+01 1.521615409851074219e+01 -3.753605842590332031e+00
5.500000000000000000e+01 5.546390151977539062e+01 3.103996086120605469e+01 1.412357234954833984e+01 2.877596282958984375e+01 1.286986064910888672e+01 -3.110172748565673828e+00
5.600000000000000000e+01 5.562775039672851562e+01 3.092695045471191406e+01 1.189480495452880859e+01 2.564422416687011719e+01 1.126170825958251953e+01 -2.711507320404052734e+00
5.700000000000000000e+01 5.516450500488281250e+01 3.131707191467285156e+01 2.728631019592285156e+01 3.844193649291992188e+01 1.971847343444824219e+01 -3.427097082138061523e+00
5.800000000000000000e+01 5.534722137451171875e+01 3.123812294006347656e+01 2.059641838073730469e+01 3.109774589538574219e+01 1.550824928283691406e+01 -3.023661375045776367e+00
5.900000000000000000e+01 5.552993392944335938e+01 3.115917205810546875e+01 1.684989356994628906e+01 2.679229927062988281e+01 1.309265804290771484e+01 -2.564587593078613281e+00
6.000000000000000000e+01 5.571264648437500000e+01 3.108022308349609375e+01 1.448073863983154297e+01 2.404786491394042969e+01 1.155858135223388672e+01 -2.293388366699218750e+00
6.100000000000000000e+01 5.518231582641601562e+01 3.137269401550292969e+01 2.943673515319824219e+01 3.681961059570312500e+01 1.987690353393554688e+01 -1.293007493019104004e+00
6.200000000000000000e+01 5.537690353393554688e+01 3.133082580566406250e+01 2.268536186218261719e+01 2.945450973510742188e+01 1.564196109771728516e+01 -1.182411789894104004e+00
6.300000000000000000e+01 5.557149124145507812e+01 3.128895950317382812e+01 1.871730422973632812e+01 2.543915367126464844e+01 1.324693775177001953e+01 -1.009312510490417480e+00
6.400000000000000000e+01 5.576607894897460938e+01 3.124709129333496094e+01 1.604558753967285156e+01 2.282979583740234375e+01 1.166261482238769531e+01 -8.897508382797241211e-01
6.500000000000000000e+01 5.518895721435546875e+01 3.143071937561035156e+01 3.015752029418945312e+01 3.622791290283203125e+01 1.991562843322753906e+01 1.415164709091186523e+00
6.600000000000000000e+01 5.538797378540039062e+01 3.142753601074218750e+01 2.333737373352050781e+01 2.883860588073730469e+01 1.565279388427734375e+01 1.261073708534240723e+00
6.700000000000000000e+01 5.558699035644531250e+01 3.142435264587402344e+01 1.927858352661132812e+01 2.498886680603027344e+01 1.328023529052734375e+01 1.131229758262634277e+00
6.800000000000000000e+01 5.578600692749023438e+01 3.142116737365722656e+01 1.657191085815429688e+01 2.231904220581054688e+01 1.166728591918945312e+01 1.065925121307373047e+00
6.900000000000000000e+01 5.518417739868164062e+01 3.148892784118652344e+01 2.928463554382324219e+01 3.665701675415039062e+01 1.978249549865722656e+01 4.157150745391845703e+00
7.000000000000000000e+01 5.538000488281250000e+01 3.152454948425292969e+01 2.243852233886718750e+01 2.952170944213867188e+01 1.558806991577148438e+01 3.733093738555908203e+00
7.100000000000000000e+01 5.557583236694335938e+01 3.156017112731933594e+01 1.840930175781250000e+01 2.542076110839843750e+01 1.314901828765869141e+01 3.291588068008422852e+00
7.200000000000000000e+01 5.577165603637695312e+01 3.159579277038574219e+01 1.585907268524169922e+01 2.288111686706542969e+01 1.162205696105957031e+01 2.927527427673339844e+00
7.300000000000000000e+01 5.516815567016601562e+01 3.154509162902832031e+01 2.696698379516601562e+01 3.839821624755859375e+01 1.960956001281738281e+01 6.432852268218994141e+00
7.400000000000000000e+01 5.535329818725585938e+01 3.161815643310546875e+01 2.001825332641601562e+01 3.104750251770019531e+01 1.531972694396972656e+01 5.630583763122558594e+00
7.500000000000000000e+01 5.553844451904296875e+01 3.169121932983398438e+01 1.632709121704101562e+01 2.694973754882812500e+01 1.298304843902587891e+01 4.848749637603759766e+00
7.600000000000000000e+01 5.572359085083007812e+01 3.176428413391113281e+01 1.379861259460449219e+01 2.409233856201171875e+01 1.136728572845458984e+01 4.347756862640380859e+00
7.700000000000000000e+01 5.514150238037109375e+01 3.159706115722656250e+01 2.321730041503906250e+01 4.081678771972656250e+01 1.921022605895996094e+01 7.771616458892822266e+00
7.800000000000000000e+01 5.530888366699218750e+01 3.170477294921875000e+01 1.661229133605957031e+01 3.344412612915039062e+01 1.501692485809326172e+01 6.368914604187011719e+00
7.900000000000000000e+01 5.547626113891601562e+01 3.181248283386230469e+01 1.320691394805908203e+01 2.883992576599121094e+01 1.261405181884765625e+01 5.434848785400390625e+00
8.000000000000000000e+01 5.564363861083984375e+01 3.192019271850585938e+01 1.108230495452880859e+01 2.590553283691406250e+01 1.109635066986083984e+01 4.845444679260253906e+00
8.100000000000000000e+01 5.510524368286132812e+01 3.164284896850585938e+01 1.867284584045410156e+01 4.386730194091796875e+01 1.876204490661621094e+01 7.599438190460205078e+00
8.200000000000000000e+01 5.524845123291015625e+01 3.178108406066894531e+01 1.259251880645751953e+01 3.574742507934570312e+01 1.450198268890380859e+01 5.737565040588378906e+00
8.300000000000000000e+01 5.539165878295898438e+01 3.191931915283203125e+01 9.764958381652832031e+00 3.092706680297851562e+01 1.220760726928710938e+01 4.722984313964843750e+00
8.400000000000000000e+01 5.553486633300781250e+01 3.205755615234375000e+01 8.003191947937011719e+00 2.751741409301757812e+01 1.065618228912353516e+01 4.149986743927001953e+00
8.500000000000000000e+01 5.506076812744140625e+01 3.168070030212402344e+01 1.375859546661376953e+01 4.660486221313476562e+01 1.810903739929199219e+01 5.714565753936767578e+00
8.600000000000000000e+01 5.517432403564453125e+01 3.184417152404785156e+01 8.799825668334960938e+00 3.756890106201171875e+01 1.391061782836914062e+01 3.585923671722412109e+00
8.700000000000000000e+01 5.528787994384765625e+01 3.200764083862304688e+01 6.464931011199951172e+00 3.227049255371093750e+01 1.162062740325927734e+01 2.807881355285644531e+00
8.800000000000000000e+01 5.540143203735351562e+01 3.217111206054687500e+01 5.144063472747802734e+00 2.880756568908691406e+01 1.018548870086669922e+01 2.274510860443115234e+00
8.900000000000000000e+01 5.500976943969726562e+01 3.170916938781738281e+01 9.404979705810546875e+00 4.832769393920898438e+01 1.731980133056640625e+01 2.069922685623168945e+00
9.000000000000000000e+01 5.508932876586914062e+01 3.189161872863769531e+01 5.753832340240478516e+00 3.812409210205078125e+01 1.316337680816650391e+01 2.261739671230316162e-01
9.100000000000000000e+01 5.516888809204101562e+01 3.207406997680664062e+01 3.940649747848510742e+00 3.246945571899414062e+01 1.092303180694580078e+01 -1.321510672569274902e-01
9.200000000000000000e+01 5.524844360351562500e+01 3.225651931762695312e+01 2.929501771926879883e+00 2.892599296569824219e+01 9.556648254394531250e+00 -3.598529100418090820e-01
9.300000000000000000e+01 5.495420837402343750e+01 3.172716522216796875e+01 6.416678905487060547e+00 4.814786911010742188e+01 1.636936378479003906e+01 -2.908240556716918945e+00
9.400000000000000000e+01 5.499672317504882812e+01 3.192161369323730469e+01 3.889860391616821289e+00 3.700760269165039062e+01 1.226923942565917969e+01 -3.807171106338500977e+00
9.500000000000000000e+01 5.503924179077148438e+01 3.211606216430664062e+01 2.606253147125244141e+00 3.111445045471191406e+01 1.011621093750000000e+01 -3.636552333831787109e+00
9.600000000000000000e+01 5.508175659179687500e+01 3.231050872802734375e+01 1.640488743782043457e+00 2.742465782165527344e+01 8.719544410705566406e+00 -3.391568422317504883e+00
9.700000000000000000e+01 5.489620590209960938e+01 3.173400115966796875e+01 5.293636798858642578e+00 4.555056381225585938e+01 1.525326061248779297e+01 -8.496994972229003906e+00
9.800000000000000000e+01 5.490005111694335938e+01 3.193300437927246094e+01 3.514237403869628906e+00 3.384948730468750000e+01 1.120911788940429688e+01 -7.766306400299072266e+00
9.900000000000000000e+01 5.490390014648437500e+01 3.213200759887695312e+01 2.411216497421264648e+00 2.821617698669433594e+01 9.188218116760253906e+00 -7.034133911132812500e+00
1.000000000000000000e+02 5.490774536132812500e+01 3.233101272583007812e+01 1.600848674774169922e+00 2.451115608215332031e+01 7.833601474761962891e+00 -6.340470790863037109e+00
1.010000000000000000e+02 5.483798217773437500e+01 3.172941398620605469e+01 6.052051544189453125e+00 4.020352172851562500e+01 1.387667179107666016e+01 -1.343018245697021484e+01
1.020000000000000000e+02 5.480301284790039062e+01 3.192535781860351562e+01 4.575534343719482422e+00 2.894924736022949219e+01 1.005743408203125000e+01 -1.106601810455322266e+01
1.030000000000000000e+02 5.476804351806640625e+01 3.212130355834960938e+01 3.197248935699462891e+00 2.366614151000976562e+01 8.059017181396484375e+00 -9.494997978210449219e+00
1.040000000000000000e+02 5.473307418823242188e+01 3.231724929809570312e+01 2.508778810501098633e+00 2.071217918395996094e+01 6.966287612915039062e+00 -8.517854690551757812e+00
1.050000000000000000e+02 5.478176498413085938e+01 3.171357917785644531e+01 8.732797622680664062e+00 3.258666610717773438e+01 1.239583873748779297e+01 -1.687320899963378906e+01
1.060000000000000000e+02 5.470932006835937500e+01 3.189896583557128906e+01 6.188235282897949219e+00 2.254208564758300781e+01 8.619096755981445312e+00 -1.276251983642578125e+01
1.070000000000000000e+02 5.463687133789062500e+01 3.208435440063476562e+01 4.871358394622802734e+00 1.823267936706542969e+01 6.931211471557617188e+00 -1.072341728210449219e+01
1.080000000000000000e+02 5.456442642211914062e+01 3.226974105834960938e+01 3.687566518783569336e+00 1.569911479949951172e+01 5.816004276275634766e+00 -9.227708816528320312e+00
1.090000000000000000e+02 5.472970581054687500e+01 3.168710136413574219e+01 1.165293502807617188e+01 2.342466926574707031e+01 1.052328109741210938e+01 -1.774008369445800781e+01
1.100000000000000000e+02 5.462255477905273438e+01 3.185483932495117188e+01 8.291433334350585938e+00 1.549092197418212891e+01 7.134706974029541016e+00 -1.265033721923828125e+01
1.110000000000000000e+02 5.451540374755859375e+01 3.202257537841796875e+01 6.091920852661132812e+00 1.236837100982666016e+01 5.538087368011474609e+00 -1.010897064208984375e+01
1.120000000000000000e+02 5.440824890136718750e+01 3.219031143188476562e+01 4.991661548614501953e+00 1.066800212860107422e+01 4.697899341583251953e+00 -8.792224884033203125e+00
1.130000000000000000e+02 5.468379974365234375e+01 3.165099716186523438e+01 1.440725517272949219e+01 1.382512474060058594e+01 8.469714164733886719e+00 -1.578308200836181641e+01
1.140000000000000000e+02 5.454604339599609375e+01 3.179466438293457031e+01 8.978259086608886719e+00 8.736107826232910156e+00 5.314310073852539062e+00 -1.035300922393798828e+01
1.150000000000000000e+02 5.440828323364257812e+01 3.193832969665527344e+01 6.826279163360595703e+00 7.104706764221191406e+00 4.179296016693115234e+00 -8.118690490722656250e+00
1.160000000000000000e+02 5.427052688598632812e+01 3.208199691772460938e+01 5.015998840332031250e+00 6.245278358459472656e+00 3.378383159637451172e+00 -6.873869419097900391e+00
1.170000000000000000e+02 5.464579772949218750e+01 3.160664558410644531e+01 1.420528030395507812e+01 5.309570312500000000e+00 5.854454994201660156e+00 -1.104606914520263672e+01
1.180000000000000000e+02 5.448270797729492188e+01 3.172074508666992188e+01 8.323079109191894531e+00 3.217512369155883789e+00 3.462177515029907227e+00 -6.498041152954101562e+00
1.190000000000000000e+02 5.431961441040039062e+01 3.183484458923339844e+01 5.232185840606689453e+00 3.365786075592041016e+00 2.579391717910766602e+00 -4.918156147003173828e+00
1.200000000000000000e+02 5.415652465820312500e+01 3.194894409179687500e+01 4.144625186920166016e+00 3.150759458541870117e+00 2.188615560531616211e+00 -4.543168067932128906e+00
1.210000000000000000e+02 5.461715698242187500e+01 3.155574417114257812e+01 1.086157321929931641e+01 -1.722017526626586914e+00 2.741866827011108398e+00 -3.916224241256713867e+00
1.220000000000000000e+02 5.443497467041015625e+01 3.163591003417968750e+01 3.388801574707031250e+00 8.896663784980773926e-01 1.283540368080139160e+00 -1.991093039512634277e+00
1.230000000000000000e+02 5.425279235839843750e+01 3.171607589721679688e+01 2.803752660751342773e+00 1.480437040328979492e+00 1.285256862640380859e+00 -2.628523826599121094e+00
1.240000000000000000e+02 5.407061004638671875e+01 3.179624176025390625e+01 1.668288707733154297e+00 6.712353229522705078e-01 7.018572092056274414e-01 -1.738195180892944336e+00
1.250000000000000000e+02 5.459897613525390625e+01 3.150024223327636719e+01 -3.359278202056884766e+00 -3.345082759857177734e+00 -2.011308193206787109e+00 2.730312585830688477e+00
1.260000000000000000e+02 5.440467453002929688e+01 3.154340553283691406e+01 -3.672785162925720215e-01 1.282052278518676758e+00 2.744321227073669434e-01 -7.112327814102172852e-01
1.270000000000000000e+02 5.421036911010742188e+01 3.158656883239746094e+01 -1.772866606712341309e+00 -4.912244379520416260e-01 -6.792272925376892090e-01 7.758819311857223511e-02
1.280000000000000000e+02 5.401606369018554688e+01 3.162973403930664062e+01 -2.303035259246826172e+00 3.125453889369964600e-01 -5.971469879150390625e-01 6.308020651340484619e-02
1.290000000000000000e+02 2.333872413635253906e+01 3.602074050903320312e+01 4.986360436305403709e-04 -1.442623033653944731e-04 1.063121089828200638e-04 -1.922541647218167782e-03
1.300000000000000000e+02 2.389290046691894531e+01 3.609888076782226562e+01 -3.636652836576104164e-03 -3.051439765840768814e-03 -2.006427850574254990e-03 -3.588710213080048561e-03
1.310000000000000000e+02 2.284308815002441406e+01 3.526721954345703125e+01 -1.464289426803588867e-02 -4.739478230476379395e-03 -5.814712028950452805e-03 -8.601791225373744965e-03
1.320000000000000000e+02 2.421754455566406250e+01 3.556056594848632812e+01 -3.051575459539890289e-02 -3.354606684297323227e-03 -1.016110833734273911e-02 -1.581203565001487732e-02
1.330000000000000000e+02 2.498613166809082031e+01 3.604191207885742188e+01 -2.663310803472995758e-02 -1.347371726296842098e-04 -8.030354045331478119e-03 -5.916987545788288116e-03
1.340000000000000000e+02 2.485820960998535156e+01 3.530118560791015625e+01 -4.952547699213027954e-02 -2.224249066784977913e-03 -1.552491821348667145e-02 -2.373702451586723328e-02
1.350000000000000000e+02 2.364893722534179688e+01 3.528245925903320312e+01 -2.664585225284099579e-02 -5.919830407947301865e-03 -9.769705124199390411e-03 -1.684536598622798920e-02
1.360000000000000000e+02 2.269410705566406250e+01 3.600639724731445312e+01 3.444398753345012665e-03 -1.418047850165748969e-05 1.029065460897982121e-03 -1.877588452771306038e-03
1.370000000000000000e+02 2.440931320190429688e+01 3.610589981079101562e+01 -1.605142652988433838e-02 9.032167145051062107e-04 -4.544463008642196655e-03 -6.573090329766273499e-03
1.380000000000000000e+02 2.713174057006835938e+01 3.578996658325195312e+01 -1.071614250540733337e-01 1.373677398078143597e-03 -3.173632174730300903e-02 -4.143497906625270844e-03
1.390000000000000000e+02 2.639669990539550781e+01 3.588855361938476562e+01 -7.241462171077728271e-02 1.993332291021943092e-03 -2.112638764083385468e-02 -6.170541513711214066e-03
1.400000000000000000e+02 2.560692596435546875e+01 3.524289321899414062e+01 -7.512667775154113770e-02 -4.861132183577865362e-04 -2.268383651971817017e-02 -2.898230776190757751e-02
1.410000000000000000e+02 2.704477500915527344e+01 3.505500793457031250e+01 -1.362704187631607056e-01 5.885396152734756470e-03 -3.911550715565681458e-02 -3.739172965288162231e-02
1.420000000000000000e+02 2.786719703674316406e+01 3.568653869628906250e+01 -1.458110809326171875e-01 2.330715535208582878e-03 -4.304410889744758606e-02 -8.956247474998235703e-04
1.430000000000000000e+02 2.776436805725097656e+01 3.495370483398437500e+01 -1.760028302669525146e-01 9.545918554067611694e-03 -4.993707314133644104e-02 -3.847750276327133179e-02
1.440000000000000000e+02 2.632559776306152344e+01 3.515146636962890625e+01 -1.029575392603874207e-01 3.568123094737529755e-03 -2.981682494282722473e-02 -3.377770259976387024e-02
1.450000000000000000e+02 2.566216468811035156e+01 3.598210525512695312e+01 -4.377782717347145081e-02 1.059129717759788036e-04 -1.310157496482133865e-02 -6.751747801899909973e-03
1.460000000000000000e+02 2.933965110778808594e+01 3.544803619384765625e+01 -2.472318857908248901e-01 1.467908499762415886e-03 -7.372919470071792603e-02 1.192621327936649323e-02
1.470000000000000000e+02 2.922042655944824219e+01 3.471769332885742188e+01 -2.704158723354339600e-01 1.471621636301279068e-02 -7.670989632606506348e-02 -3.986590728163719177e-02
1.480000000000000000e+02 2.848941230773925781e+01 3.484096145629882812e+01 -2.207867205142974854e-01 1.236794143915176392e-02 -6.252562999725341797e-02 -4.005977138876914978e-02
1.490000000000000000e+02 3.068212890625000000e+01 3.447154998779296875e+01 -3.860810101032257080e-01 1.996052078902721405e-02 -1.098361462354660034e-01 -3.119421936571598053e-02
1.500000000000000000e+02 2.995129966735839844e+01 3.459505081176757812e+01 -3.247765302658081055e-01 1.649584248661994934e-02 -9.248419851064682007e-02 -3.647619485855102539e-02
1.510000000000000000e+02 3.081263542175292969e+01 3.519998931884765625e+01 -3.670563697814941406e-01 8.525028824806213379e-04 -1.098611578345298767e-01 3.016359545290470123e-02
1.520000000000000000e+02 2.860299301147460938e+01 3.557225799560546875e+01 -1.921147108078002930e-01 2.753247972577810287e-03 -5.680843815207481384e-02 5.034590605646371841e-03
1.530000000000000000e+02 3.007616424560546875e+01 3.532444381713867188e+01 -3.064916133880615234e-01 1.123513095080852509e-03 -9.161043167114257812e-02 1.980897970497608185e-02
1.540000000000000000e+02 3.228277587890625000e+01 3.491655731201171875e+01 -5.194845795631408691e-01 -4.670754075050354004e-03 -1.572466045618057251e-01 5.744162946939468384e-02
1.550000000000000000e+02 3.141323661804199219e+01 3.433660507202148438e+01 -4.528321623802185059e-01 2.176362648606300354e-02 -1.293205618858337402e-01 -2.739527821540832520e-02
1.560000000000000000e+02 3.301699829101562500e+01 3.477141952514648438e+01 -6.054884791374206543e-01 -5.738962907344102859e-03 -1.833682358264923096e-01 7.187623530626296997e-02
1.570000000000000000e+02 3.287635040283203125e+01 3.404490280151367188e+01 -5.993053913116455078e-01 2.165763638913631439e-02 -1.732943207025527954e-01 -1.444301288574934006e-02
1.580000000000000000e+02 3.360715103149414062e+01 3.390307235717773438e+01 -6.803760528564453125e-01 2.277120016515254974e-02 -1.972814649343490601e-01 -5.147895310074090958e-03
1.590000000000000000e+02 3.375072097778320312e+01 3.462901306152343750e+01 -6.959863305091857910e-01 -8.844884112477302551e-03 -2.114493548870086670e-01 8.782015740871429443e-02
1.600000000000000000e+02 3.214505767822265625e+01 3.418946456909179688e+01 -5.227704644203186035e-01 2.258207276463508606e-02 -1.500565111637115479e-01 -2.221478149294853210e-02
1.610000000000000000e+02 3.154802894592285156e+01 3.506427764892578125e+01 -4.369994103908538818e-01 -6.374850054271519184e-04 -1.312910616397857666e-01 4.374939203262329102e-02
1.620000000000000000e+02 3.448552703857421875e+01 3.448280334472656250e+01 -7.930038571357727051e-01 -1.127581205219030380e-02 -2.412839084863662720e-01 1.054033711552619934e-01
1.630000000000000000e+02 3.581328582763671875e+01 3.345945358276367188e+01 -9.527192115783691406e-01 1.905868574976921082e-02 -2.800981402397155762e-01 2.350750565528869629e-02
1.640000000000000000e+02 3.434083938598632812e+01 3.375708389282226562e+01 -7.668048143386840820e-01 2.179599367082118988e-02 -2.235026508569717407e-01 3.718642517924308777e-03
1.650000000000000000e+02 3.654941177368164062e+01 3.331057739257812500e+01 -1.047464728355407715e+00 1.681234873831272125e-02 -3.091956973075866699e-01 3.363672271370887756e-02
1.660000000000000000e+02 3.595657730102539062e+01 3.418545532226562500e+01 -1.008355975151062012e+00 -1.795982383191585541e-02 -3.078947365283966064e-01 1.421849727630615234e-01
1.670000000000000000e+02 3.669200897216796875e+01 3.403672027587890625e+01 -1.128633499145507812e+00 -2.358156628906726837e-02 -3.456645309925079346e-01 1.596926003694534302e-01
1.680000000000000000e+02 3.522108078002929688e+01 3.433415222167968750e+01 -8.977620601654052734e-01 -1.561711356043815613e-02 -2.740137577056884766e-01 1.232947632670402527e-01
1.690000000000000000e+02 3.507709503173828125e+01 3.360829162597656250e+01 -8.571032881736755371e-01 2.172580175101757050e-02 -2.506132423877716064e-01 1.388239208608865738e-02
1.700000000000000000e+02 3.742828750610351562e+01 3.389342117309570312e+01 -1.247520923614501953e+00 -2.473565377295017242e-02 -3.816769719123840332e-01 1.756839752197265625e-01
1.710000000000000000e+02 3.802332687377929688e+01 3.303014373779296875e+01 -1.247627615928649902e+00 1.458978187292814255e-02 -3.699113428592681885e-01 6.290056556463241577e-02
1.720000000000000000e+02 3.728625106811523438e+01 3.316717147827148438e+01 -1.144829630851745605e+00 1.370390970259904861e-02 -3.393377065658569336e-01 4.799287766218185425e-02
1.730000000000000000e+02 3.890202331542968750e+01 3.361664962768554688e+01 -1.480572462081909180e+00 -2.937886677682399750e-02 -4.529854059219360352e-01 2.143920958042144775e-01
1.740000000000000000e+02 3.963956451416015625e+01 3.347409820556640625e+01 -1.599817752838134766e+00 -3.218913078308105469e-02 -4.896020591259002686e-01 2.364254444837570190e-01
1.750000000000000000e+02 3.949879837036132812e+01 3.274760437011718750e+01 -1.452731370925903320e+00 1.554357726126909256e-02 -4.311563372611999512e-01 9.240702539682388306e-02
1.760000000000000000e+02 3.876083374023437500e+01 3.289023590087890625e+01 -1.347943425178527832e+00 1.464125141501426697e-02 -3.999906480312347412e-01 7.682967931032180786e-02
1.770000000000000000e+02 3.816493988037109375e+01 3.375647735595703125e+01 -1.361415147781372070e+00 -2.586879394948482513e-02 -4.161852002143859863e-01 1.938920617103576660e-01
1.780000000000000000e+02 4.037628555297851562e+01 3.333070373535156250e+01 -1.729086160659790039e+00 -3.604122996330261230e-02 -5.295382142066955566e-01 2.624169290065765381e-01
1.790000000000000000e+02 4.171068954467773438e+01 3.231314468383789062e+01 -1.777651548385620117e+00 4.111525136977434158e-03 -5.320619940757751465e-01 1.316991299390792847e-01
1.800000000000000000e+02 4.023619079589843750e+01 3.260407638549804688e+01 -1.559362292289733887e+00 1.365619897842407227e-02 -4.637118279933929443e-01 1.055962517857551575e-01
1.810000000000000000e+02 4.244785308837890625e+01 3.216765213012695312e+01 -1.877748012542724609e+00 -2.974141621962189674e-03 -5.642166733741760254e-01 1.420777589082717896e-01
1.820000000000000000e+02 4.184893417358398438e+01 3.304013442993164062e+01 -2.019083738327026367e+00 -4.730580002069473267e-02 -6.199168562889099121e-01 3.129520416259765625e-01
1.830000000000000000e+02 4.258517456054687500e+01 3.289482498168945312e+01 -2.183005571365356445e+00 -5.619346722960472107e-02 -6.717597246170043945e-01 3.327559828758239746e-01
1.840000000000000000e+02 4.111263656616210938e+01 3.318542480468750000e+01 -1.871344804763793945e+00 -4.357836768031120300e-02 -5.744769573211669922e-01 2.881218791007995605e-01
1.850000000000000000e+02 4.097346878051757812e+01 3.245861816406250000e+01 -1.665661334991455078e+00 1.082688849419355392e-02 -4.964503347873687744e-01 1.197031959891319275e-01
1.860000000000000000e+02 4.332307434082031250e+01 3.275568008422851562e+01 -2.334476470947265625e+00 -5.635768547654151917e-02 -7.172502875328063965e-01 3.447839319705963135e-01
1.870000000000000000e+02 4.318753814697265625e+01 3.202817916870117188e+01 -1.977457761764526367e+00 -9.136698208749294281e-03 -5.959783196449279785e-01 1.605221927165985107e-01
1.880000000000000000e+02 4.392967605590820312e+01 3.189475250244140625e+01 -2.079546689987182617e+00 -6.052899174392223358e-03 -6.256799101829528809e-01 1.761345118284225464e-01
1.890000000000000000e+02 4.480221557617187500e+01 3.249026870727539062e+01 -2.611149311065673828e+00 -5.549397319555282593e-02 -7.999929785728454590e-01 3.806016445159912109e-01
1.900000000000000000e+02 4.541445922851562500e+01 3.162938690185546875e+01 -2.239050626754760742e+00 -1.188191026449203491e-02 -6.752797365188598633e-01 1.962176561355590820e-01
1.910000000000000000e+02 4.554204177856445312e+01 3.235831069946289062e+01 -2.768497228622436523e+00 -6.156874075531959534e-02 -8.490198254585266113e-01 3.985626399517059326e-01
1.920000000000000000e+02 4.406255722045898438e+01 3.262272644042968750e+01 -2.467472791671752930e+00 -5.257028713822364807e-02 -7.560129761695861816e-01 3.597878217697143555e-01
1.930000000000000000e+02 4.467198181152343750e+01 3.176181983947753906e+01 -2.168302059173583984e+00 -5.914203822612762451e-03 -6.522648334503173828e-01 1.853176653385162354e-01
1.940000000000000000e+02 4.628276062011718750e+01 3.223004150390625000e+01 -2.914144754409790039e+00 -6.233280897140502930e-02 -8.929432630538940430e-01 4.107547402381896973e-01
1.950000000000000000e+02 4.764949035644531250e+01 3.125085830688476562e+01 -2.357836008071899414e+00 -1.069775130599737167e-02 -7.105601429939270020e-01 2.391950339078903198e-01
1.960000000000000000e+02 4.615840911865234375e+01 3.150056076049804688e+01 -2.298580884933471680e+00 -1.477114576846361160e-02 -6.940056085586547852e-01 2.140149772167205811e-01
1.970000000000000000e+02 4.839503097534179688e+01 3.112652587890625000e+01 -2.309785366058349609e+00 -5.192231759428977966e-02 -7.085123062133789062e-01 2.398377954959869385e-01
1.980000000000000000e+02 4.776623153686523438e+01 3.198161315917968750e+01 -3.180501461029052734e+00 -5.973777547478675842e-02 -9.720717668533325195e-01 4.453803300857543945e-01
1.990000000000000000e+02 4.850796127319335938e+01 3.185791587829589844e+01 -3.344280242919921875e+00 -8.022774010896682739e-02 -1.027352452278137207e+00 4.465461075305938721e-01
2.000000000000000000e+02 4.702449035644531250e+01 3.210565567016601562e+01 -3.044405698776245117e+00 -6.010193377733230591e-02 -9.313523173332214355e-01 4.242183864116668701e-01
2.010000000000000000e+02 4.690394592285156250e+01 3.137553787231445312e+01 -2.342687129974365234e+00 -1.522634364664554596e-02 -7.073740363121032715e-01 2.299830168485641479e-01
2.020000000000000000e+02 5.022457504272460938e+01 3.070078277587890625e+01 -1.338781237602233887e+00 6.262788921594619751e-02 -3.828459978103637695e-01 4.003710150718688965e-01
2.030000000000000000e+02 5.071279907226562500e+01 3.113070487976074219e+01 -2.410760164260864258e+00 -4.924814030528068542e-02 -7.380024790763854980e-01 3.730299770832061768e-01
2.040000000000000000e+02 5.160374069213867188e+01 3.066433715820312500e+01 -6.357932686805725098e-01 -5.107663106173276901e-03 -1.922702789306640625e-01 7.268369197845458984e-01
2.050000000000000000e+02 4.911908340454101562e+01 3.101469039916992188e+01 -2.154092788696289062e+00 -3.430363535881042480e-02 -6.565189361572265625e-01 2.909040451049804688e-01
2.060000000000000000e+02 5.012353515625000000e+01 3.113617897033691406e+01 -2.423340559005737305e+00 -2.284947782754898071e-02 -7.338569760322570801e-01 3.566132783889770508e-01
2.070000000000000000e+02 5.167695236206054688e+01 3.123740386962890625e+01 -2.656049728393554688e+00 -1.098451949656009674e-02 -8.001102805137634277e-01 4.522630274295806885e-01
2.080000000000000000e+02 5.149268722534179688e+01 3.044661331176757812e+01 -6.571154296398162842e-02 1.039499640464782715e-01 1.147152762860059738e-02 9.679217338562011719e-01
2.090000000000000000e+02 5.167561340332031250e+01 3.085018730163574219e+01 -1.049440503120422363e+00 -3.490546345710754395e-02 -3.253037631511688232e-01 5.826371908187866211e-01
2.100000000000000000e+02 5.112265396118164062e+01 3.101871871948242188e+01 -1.991273164749145508e+00 4.420517385005950928e-02 -5.841203927993774414e-01 4.623254835605621338e-01
2.110000000000000000e+02 5.167706298828125000e+01 3.145271682739257812e+01 -3.216055870056152344e+00 1.510498672723770142e-01 -9.195018410682678223e-01 3.163030445575714111e-01
2.120000000000000000e+02 5.076196289062500000e+01 3.064986991882324219e+01 -9.944176077842712402e-01 4.373877495527267456e-02 -2.852036654949188232e-01 5.927491784095764160e-01
2.130000000000000000e+02 5.129362869262695312e+01 3.152886199951171875e+01 -3.662938117980957031e+00 -1.311470419168472290e-01 -1.138225555419921875e+00 4.112061560153961182e-01
2.140000000000000000e+02 4.971329879760742188e+01 3.084141921997070312e+01 -1.907158613204956055e+00 -5.697464197874069214e-02 -5.892399549484252930e-01 3.305987119674682617e-01
2.150000000000000000e+02 4.926537704467773438e+01 3.174159049987792969e+01 -3.476554393768310547e+00 -7.458220422267913818e-02 -1.065340995788574219e+00 4.187051951885223389e-01
2.160000000000000000e+02 5.169743347167968750e+01 3.103168869018554688e+01 -1.659990549087524414e+00 -4.897407442331314087e-02 -5.126894116401672363e-01 5.605793595314025879e-01
2.170000000000000000e+02 5.161196517944335938e+01 3.168290138244628906e+01 -4.217399120330810547e+00 2.646095119416713715e-02 -1.257281541824340820e+00 4.715798795223236084e-01
2.180000000000000000e+02 5.135027313232421875e+01 3.083342361450195312e+01 -1.208876848220825195e+00 -2.001810446381568909e-02 -3.686684966087341309e-01 5.869897007942199707e-01
2.190000000000000000e+02 5.115924453735351562e+01 3.067872810363769531e+01 -9.315378069877624512e-01 5.545302480459213257e-02 -2.628254294395446777e-01 6.419965624809265137e-01
2.200000000000000000e+02 5.003249740600585938e+01 3.168717384338378906e+01 -3.572660684585571289e+00 -5.067617818713188171e-02 -1.087001085281372070e+00 4.019019603729248047e-01
2.210000000000000000e+02 5.134400558471679688e+01 3.121129608154296875e+01 -2.529027700424194336e+00 -6.155716627836227417e-02 -7.771754860877990723e-01 4.951854050159454346e-01
2.220000000000000000e+02 5.075709533691406250e+01 3.164090347290039062e+01 -3.739125967025756836e+00 -4.107924178242683411e-02 -1.134061574935913086e+00 4.223348796367645264e-01
2.230000000000000000e+02 5.149631118774414062e+01 3.098321342468261719e+01 -1.486477255821228027e+00 -1.979873329401016235e-02 -4.518828094005584717e-01 5.565736293792724609e-01
2.240000000000000000e+02 5.583771514892578125e+01 3.041151237487792969e+01 6.184916496276855469e+00 2.265938568115234375e+01 8.653290748596191406e+00 -1.399867773056030273e+00
2.250000000000000000e+02 5.621551513671875000e+01 3.102078819274902344e+01 1.174179744720458984e+01 1.931231689453125000e+01 9.316233634948730469e+00 -1.318640351295471191e+00
2.260000000000000000e+02 5.264479446411132812e+01 3.199172592163085938e+01 -3.105287075042724609e+00 8.640845865011215210e-02 -9.056636095046997070e-01 1.586880981922149658e-01
2.270000000000000000e+02 5.258024215698242188e+01 3.308866882324218750e+01 6.857845187187194824e-01 1.818931818008422852e+00 7.514148950576782227e-01 -2.003325939178466797e+00
2.280000000000000000e+02 5.203708648681640625e+01 3.189946746826171875e+01 -4.225645542144775391e+00 -1.059363111853599548e-01 -1.299474596977233887e+00 4.312406778335571289e-01
2.290000000000000000e+02 5.556024551391601562e+01 3.233074569702148438e+01 4.541220188140869141e+00 2.591064834594726562e+01 9.135560989379882812e+00 2.316595315933227539e+00
2.300000000000000000e+02 5.582273483276367188e+01 3.058093452453613281e+01 7.586627006530761719e+00 2.308144187927246094e+01 9.200420379638671875e+00 -1.820541381835937500e+00
2.310000000000000000e+02 5.464588928222656250e+01 3.008564567565917969e+01 3.485512018203735352e+00 1.711612701416015625e+01 6.180491924285888672e+00 8.066576957702636719e+00
2.320000000000000000e+02 5.319910049438476562e+01 3.146912002563476562e+01 -3.658896446228027344e+00 -5.638580396771430969e-02 -1.114584684371948242e+00 4.757432341575622559e-01
2.330000000000000000e+02 5.183781433105468750e+01 3.037881088256835938e+01 6.732934713363647461e-01 4.328168332576751709e-01 3.318330943584442139e-01 1.351189613342285156e+00
2.340000000000000000e+02 5.203062438964843750e+01 3.034518241882324219e+01 8.639529943466186523e-01 4.461909234523773193e-01 3.930431902408599854e-01 1.519980907440185547e+00
2.350000000000000000e+02 5.263010025024414062e+01 3.032095336914062500e+01 2.070756196975708008e+00 8.672788739204406738e-01 8.814105391502380371e-01 2.329406499862670898e+00
2.360000000000000000e+02 5.489355850219726562e+01 3.033271217346191406e+01 3.244010448455810547e+00 2.210573387145996094e+01 7.604923248291015625e+00 7.355155944824218750e+00
2.370000000000000000e+02 5.408742141723632812e+01 3.061032867431640625e+01 6.832857131958007812e+00 5.855380535125732422e+00 3.806471109390258789e+00 7.551279067993164062e+00
2.380000000000000000e+02 5.378906631469726562e+01 3.143904495239257812e+01 -3.201876640319824219e+00 -1.865376383066177368e-01 -1.016524314880371094e+00 3.359263539314270020e-01
2.390000000000000000e+02 5.221229553222656250e+01 3.034892082214355469e+01 1.205860614776611328e+00 5.736887454986572266e-01 5.338647961616516113e-01 1.710475921630859375e+00
2.400000000000000000e+02 5.509854888916015625e+01 3.248144149780273438e+01 1.250251293182373047e+00 2.548886489868164062e+01 8.021734237670898438e+00 -3.518108606338500977e+00
2.410000000000000000e+02 5.526585006713867188e+01 3.245404434204101562e+01 1.947162985801696777e+00 2.618448829650878906e+01 8.439495086669921875e+00 -1.144483685493469238e+00
2.420000000000000000e+02 5.597343826293945312e+01 3.168214035034179688e+01 1.351325893402099609e+01 2.102583503723144531e+01 1.036172771453857422e+01 2.883593082427978516e+00
2.430000000000000000e+02 5.218173980712890625e+01 3.314687728881835938e+01 3.594180941581726074e-02 1.380477786064147949e+00 4.249258935451507568e-01 -1.349954843521118164e+00
2.440000000000000000e+02 5.277866744995117188e+01 3.307040405273437500e+01 1.020611763000488281e+00 1.939381837844848633e+00 8.879981040954589844e-01 -2.358896970748901367e+00
2.450000000000000000e+02 5.297386550903320312e+01 3.306330490112304688e+01 1.136281847953796387e+00 2.387717723846435547e+00 1.057199954986572266e+00 -2.743226766586303711e+00
2.460000000000000000e+02 5.411842727661132812e+01 3.224139404296875000e+01 4.223079204559326172e+00 5.851945400238037109e+00 3.022507429122924805e+00 -6.171351909637451172e+00
2.470000000000000000e+02 5.429657745361328125e+01 3.236142730712890625e+01 4.118598461151123047e+00 9.382196426391601562e+00 4.050238609313964844e+00 -7.647631645202636719e+00
2.480000000000000000e+02 5.476080322265625000e+01 3.261219024658203125e+01 1.343488097190856934e+00 1.939112854003906250e+01 6.220384597778320312e+00 -6.775078773498535156e+00
2.490000000000000000e+02 5.207371902465820312e+01 3.212026977539062500e+01 -3.243957757949829102e+00 -7.541404664516448975e-02 -9.958115220069885254e-01 3.703972697257995605e-01
2.500000000000000000e+02 5.210087203979492188e+01 3.253094482421875000e+01 -1.510344624519348145e+00 2.397390902042388916e-01 -3.811816573143005371e-01 -2.227668315172195435e-01
2.510000000000000000e+02 5.341435241699218750e+01 3.171216201782226562e+01 -3.576016426086425781e+00 -5.655643343925476074e-02 -1.089771866798400879e+00 2.433345168828964233e-01
2.520000000000000000e+02 5.315908432006835938e+01 3.263540649414062500e+01 1.131671905517578125e+00 2.139315128326416016e+00 9.812960624694824219e-01 -2.500688076019287109e+00
2.530000000000000000e+02 5.310235214233398438e+01 3.196516609191894531e+01 -2.300368309020996094e+00 1.996069550514221191e-01 -6.302284598350524902e-01 -7.565572857856750488e-02
2.540000000000000000e+02 5.381600952148437500e+01 3.167152404785156250e+01 -2.751022577285766602e+00 -1.494930982589721680e-01 -8.701547384262084961e-01 1.520707905292510986e-01
2.550000000000000000e+02 5.599216842651367188e+01 3.146871566772460938e+01 1.454192829132080078e+01 2.048567771911621094e+01 1.050828170776367188e+01 1.387817144393920898e+00
2.560000000000000000e+02 5.493350982666015625e+01 3.252391815185546875e+01 1.155886411666870117e+00 2.265238952636718750e+01 7.142482757568359375e+00 -5.661500453948974609e+00
2.570000000000000000e+02 5.456370544433593750e+01 3.286552047729492188e+01 1.484618425369262695e+00 1.491566085815429688e+01 4.920083522796630859e+00 -6.838769435882568359e+00
2.580000000000000000e+02 5.361206054687500000e+01 3.169916725158691406e+01 -3.143620252609252930e+00 9.278627485036849976e-02 -9.152502417564392090e-01 1.737044751644134521e-01
2.590000000000000000e+02 5.358930969238281250e+01 3.146023559570312500e+01 -3.307825088500976562e+00 1.446396205574274063e-02 -9.880083799362182617e-01 4.298633933067321777e-01
2.600000000000000000e+02 5.511593627929687500e+01 3.035870933532714844e+01 3.110817670822143555e+00 2.484013557434082031e+01 8.385286331176757812e+00 4.500906944274902344e+00
2.610000000000000000e+02 5.566700363159179688e+01 3.031585502624511719e+01 4.867143630981445312e+00 2.355519104003906250e+01 8.526700019836425781e+00 -3.646253943443298340e-01
2.620000000000000000e+02 5.566120147705078125e+01 3.065742683410644531e+01 7.917349815368652344e+00 2.508385276794433594e+01 9.900361061096191406e+00 -1.867648482322692871e+00
2.630000000000000000e+02 5.244629287719726562e+01 3.065912437438964844e+01 6.786662340164184570e-01 3.411939442157745361e-01 3.059580624103546143e-01 1.380156397819519043e+00
2.640000000000000000e+02 5.258320236206054688e+01 3.154879379272460938e+01 -4.110341548919677734e+00 -3.792589530348777771e-02 -1.244480133056640625e+00 4.533751308917999268e-01
2.650000000000000000e+02 5.241532516479492188e+01 3.035629653930664062e+01 1.556915163993835449e+00 6.859349608421325684e-01 6.728550195693969727e-01 1.936895847320556641e+00
2.660000000000000000e+02 5.218265533447265625e+01 3.122201538085937500e+01 -2.223150491714477539e+00 -1.317420452833175659e-01 -7.064677476882934570e-01 4.701502025127410889e-01
2.670000000000000000e+02 5.196995544433593750e+01 3.142948722839355469e+01 -3.310248136520385742e+00 -2.271674871444702148e-01 -1.061224699020385742e+00 3.847691714763641357e-01
2.680000000000000000e+02 5.199402236938476562e+01 3.164047813415527344e+01 -4.341123104095458984e+00 -2.575004696846008301e-01 -1.379587054252624512e+00 5.527733564376831055e-01
2.690000000000000000e+02 5.569728469848632812e+01 3.219838714599609375e+01 6.913480758666992188e+00 2.514668273925781250e+01 9.618048667907714844e+00 3.834857463836669922e+00
2.700000000000000000e+02 5.327975463867187500e+01 3.280925750732421875e+01 1.566204071044921875e+00 2.647782564163208008e+00 1.264196038246154785e+00 -3.031289100646972656e+00
2.710000000000000000e+02 5.435356140136718750e+01 3.289477920532226562e+01 1.973808050155639648e+00 1.196418476104736328e+01 4.181397914886474609e+00 -6.715523242950439453e+00
2.720000000000000000e+02 5.457878494262695312e+01 3.265771484375000000e+01 1.986810684204101562e+00 1.533143806457519531e+01 5.195474624633789062e+00 -7.350002765655517578e+00
2.730000000000000000e+02 5.465633773803710938e+01 3.249096679687500000e+01 2.219477653503417969e+00 1.814912033081054688e+01 6.110579013824462891e+00 -7.897966861724853516e+00
2.740000000000000000e+02 5.581568145751953125e+01 3.204428863525390625e+01 9.391942024230957031e+00 2.382725143432617188e+01 9.965758323669433594e+00 4.414196014404296875e+00
2.750000000000000000e+02 5.521194839477539062e+01 3.264394378662109375e+01 8.940089941024780273e-01 2.358495140075683594e+01 7.343688488006591797e+00 -2.538569211959838867e+00
2.760000000000000000e+02 5.346712493896484375e+01 3.273120880126953125e+01 2.049948930740356445e+00 3.246443033218383789e+00 1.588917613029479980e+00 -3.734076499938964844e+00
2.770000000000000000e+02 5.364037322998046875e+01 3.113401794433593750e+01 1.255362749099731445e+00 1.524460166692733765e-01 4.223426282405853271e-01 1.471667170524597168e+00
2.780000000000000000e+02 5.443382644653320312e+01 3.012164306640625000e+01 4.379601478576660156e+00 1.402573013305664062e+01 5.521599292755126953e+00 8.623754501342773438e+00
2.790000000000000000e+02 5.532566070556640625e+01 3.041244506835937500e+01 3.895473480224609375e+00 2.574220275878906250e+01 8.891303062438964844e+00 1.958533763885498047e+00
2.800000000000000000e+02 5.551140594482421875e+01 3.051344299316406250e+01 5.644336223602294922e+00 2.578217315673828125e+01 9.427952766418457031e+00 -3.894090950489044189e-01
2.810000000000000000e+02 5.598575592041015625e+01 3.125119018554687500e+01 1.420204734802246094e+01 2.068415451049804688e+01 1.046586036682128906e+01 -5.305641293525695801e-01
2.820000000000000000e+02 5.395323944091796875e+01 3.081234359741210938e+01 6.207657814025878906e+00 2.811549663543701172e+00 2.705762386322021484e+00 5.361978530883789062e+00
2.830000000000000000e+02 5.427666473388671875e+01 3.047148323059082031e+01 6.354531288146972656e+00 1.016807937622070312e+01 4.956783294677734375e+00 9.072517395019531250e+00
2.840000000000000000e+02 5.504354476928710938e+01 3.263048934936523438e+01 8.467898964881896973e-01 2.262814331054687500e+01 7.042479991912841797e+00 -4.328807353973388672e+00
2.850000000000000000e+02 5.483745956420898438e+01 3.003675079345703125e+01 2.649440765380859375e+00 1.910104560852050781e+01 6.525146007537841797e+00 7.045810699462890625e+00
2.860000000000000000e+02 5.495352935791015625e+01 3.015761566162109375e+01 2.724525213241577148e+00 2.118137931823730469e+01 7.171771526336669922e+00 6.339245319366455078e+00
2.870000000000000000e+02 5.618836975097656250e+01 3.184561729431152344e+01 1.110165500640869141e+01 1.964524841308593750e+01 9.224071502685546875e+00 3.200304031372070312e+00
2.880000000000000000e+02 5.515446090698242188e+01 3.018805122375488281e+01 2.723308563232421875e+00 2.309490013122558594e+01 7.745462417602539062e+00 4.252219200134277344e+00
2.890000000000000000e+02 5.606898117065429688e+01 3.066837882995605469e+01 8.835154533386230469e+00 2.077005004882812500e+01 8.881561279296875000e+00 -2.042798280715942383e+00
2.900000000000000000e+02 5.615581893920898438e+01 3.083566856384277344e+01 1.049682521820068359e+01 2.019029426574707031e+01 9.206135749816894531e+00 -1.990586638450622559e+00
2.910000000000000000e+02 5.576020812988281250e+01 3.249301910400390625e+01 4.376732349395751953e+00 2.337278938293457031e+01 8.324856758117675781e+00 2.435503005981445312e+00
2.920000000000000000e+02 5.617733001708984375e+01 3.131628608703613281e+01 1.318825054168701172e+01 1.911555099487304688e+01 9.691140174865722656e+00 3.176461160182952881e-01
2.930000000000000000e+02 5.630890655517578125e+01 3.153203773498535156e+01 1.199173259735107422e+01 1.840879631042480469e+01 9.120158195495605469e+00 1.480265617370605469e+00
2.940000000000000000e+02 5.548615264892578125e+01 3.273258209228515625e+01 1.227235913276672363e+00 2.343464088439941406e+01 7.398562908172607422e+00 -2.925460040569305420e-01
2.950000000000000000e+02 5.533997726440429688e+01 3.279545211791992188e+01 8.048167228698730469e-01 2.240227127075195312e+01 6.962126731872558594e+00 -1.775886535644531250e+00
2.960000000000000000e+02 5.626286697387695312e+01 3.168419647216796875e+01 1.194634914398193359e+01 1.891444969177246094e+01 9.258239746093750000e+00 2.503179550170898438e+00
2.970000000000000000e+02 5.627789306640625000e+01 3.119688606262207031e+01 1.217531776428222656e+01 1.848600959777832031e+01 9.198398590087890625e+00 -5.172891020774841309e-01
2.980000000000000000e+02 5.548378372192382812e+01 3.020918655395507812e+01 3.572180747985839844e+00 2.364125061035156250e+01 8.164030075073242188e+00 1.227168083190917969e+00
2.990000000000000000e+02 5.590847778320312500e+01 3.187176895141601562e+01 1.168387985229492188e+01 2.239722061157226562e+01 1.022432994842529297e+01 4.002732753753662109e+00
3.000000000000000000e+02 5.589350128173828125e+01 3.235570526123046875e+01 6.195010185241699219e+00 2.308653640747070312e+01 8.784463882446289062e+00 3.504040002822875977e+00
3.010000000000000000e+02 5.600479507446289062e+01 3.105960464477539062e+01 1.288999938964843750e+01 2.082777786254882812e+01 1.011533355712890625e+01 -1.505735754966735840e+00
3.020000000000000000e+02 5.562155532836914062e+01 3.262042999267578125e+01 2.633178472518920898e+00 2.337381744384765625e+01 7.802098751068115234e+00 1.160528421401977539e+00
3.030000000000000000e+02 5.596969985961914062e+01 3.051828765869140625e+01 7.541727542877197266e+00 2.151663780212402344e+01 8.717509269714355469e+00 -1.974143266677856445e+00
3.040000000000000000e+02 5.354631805419921875e+01 3.297650527954101562e+01 2.247058391571044922e+00 4.722922325134277344e+00 2.090994358062744141e+00 -4.558059692382812500e+00
3.050000000000000000e+02 5.424251937866210938e+01 3.253763198852539062e+01 3.372397422790527344e+00 9.267348289489746094e+00 3.791923522949218750e+00 -7.263525962829589844e+00
3.060000000000000000e+02 5.393625640869140625e+01 3.273193740844726562e+01 2.946018695831298828e+00 6.342517375946044922e+00 2.786560773849487305e+00 -5.959829330444335938e+00
3.070000000000000000e+02 5.395353317260742188e+01 3.294279098510742188e+01 2.347796916961669922e+00 7.424253940582275391e+00 2.931615114212036133e+00 -5.906604290008544922e+00
3.080000000000000000e+02 5.497760009765625000e+01 3.282144927978515625e+01 5.204985737800598145e-01 2.038204193115234375e+01 6.270761966705322266e+00 -4.706550121307373047e+00
3.090000000000000000e+02 5.477383041381835938e+01 3.283763885498046875e+01 8.806726932525634766e-01 1.839694404602050781e+01 5.783284664154052734e+00 -6.050474643707275391e+00
3.100000000000000000e+02 5.303303146362304688e+01 3.176471328735351562e+01 -4.042115211486816406e+00 -1.046175882220268250e-01 -1.244019746780395508e+00 4.560269117355346680e-01
3.110000000000000000e+02 5.342848205566406250e+01 3.189504432678222656e+01 -1.631560564041137695e+00 4.176225662231445312e-01 -3.641813993453979492e-01 -4.202423691749572754e-01
3.120000000000000000e+02 5.356537246704101562e+01 3.214048385620117188e+01 1.113692760467529297e+00 1.094365239143371582e+00 6.624174118041992188e-01 -2.014559984207153320e+00
3.130000000000000000e+02 5.322309494018554688e+01 3.173298454284667969e+01 -3.894963741302490234e+00 9.437008202075958252e-02 -1.140178084373474121e+00 4.062475264072418213e-01
3.140000000000000000e+02 5.344141769409179688e+01 3.023077011108398438e+01 4.594209671020507812e+00 3.147682428359985352e+00 2.322567701339721680e+00 5.012494564056396484e+00
3.150000000000000000e+02 5.275225830078125000e+01 3.125374221801757812e+01 -2.164946556091308594e+00 1.240130513906478882e-02 -6.457635760307312012e-01 4.751339256763458252e-01
3.160000000000000000e+02 5.191732025146484375e+01 3.078841400146484375e+01 -7.335358858108520508e-01 8.639412373304367065e-02 -1.941425204277038574e-01 7.459680438041687012e-01
3.170000000000000000e+02 5.219283676147460938e+01 3.161610412597656250e+01 -4.227945804595947266e+00 -2.520403126254677773e-03 -1.269139885902404785e+00 4.296942651271820068e-01
3.180000000000000000e+02 5.238777542114257812e+01 3.158336830139160156e+01 -4.180259704589843750e+00 -5.267948284745216370e-02 -1.269881844520568848e+00 4.517236948013305664e-01
3.190000000000000000e+02 5.283340835571289062e+01 3.029086494445800781e+01 2.644481182098388672e+00 1.231517910957336426e+00 1.162799715995788574e+00 2.863584280014038086e+00
3.200000000000000000e+02 5.303522872924804688e+01 3.027186203002929688e+01 3.355259656906127930e+00 1.709466338157653809e+00 1.519417762756347656e+00 3.463636398315429688e+00
3.210000000000000000e+02 5.278452301025390625e+01 3.152436828613281250e+01 -4.000037193298339844e+00 -1.093252189457416534e-02 -1.203290939331054688e+00 4.877684116363525391e-01
3.220000000000000000e+02 5.402050018310546875e+01 3.016705894470214844e+01 5.195176601409912109e+00 7.852455615997314453e+00 3.914289712905883789e+00 7.785974979400634766e+00
3.230000000000000000e+02 5.347944641113281250e+01 3.049802589416503906e+01 4.251151561737060547e+00 2.054762125015258789e+00 1.891774177551269531e+00 4.157286643981933594e+00
3.240000000000000000e+02 5.285578155517578125e+01 3.053228759765625000e+01 2.211416244506835938e+00 7.713593244552612305e-01 8.948326706886291504e-01 2.254677295684814453e+00
3.250000000000000000e+02 5.422282409667968750e+01 3.016548919677734375e+01 5.019637107849121094e+00 1.041605567932128906e+01 4.630707740783691406e+00 8.421154975891113281e+00
3.260000000000000000e+02 5.370836257934570312e+01 3.047136688232421875e+01 5.458891391754150391e+00 3.400227785110473633e+00 2.657735824584960938e+00 5.598304271697998047e+00
3.270000000000000000e+02 5.383617401123046875e+01 3.016717147827148438e+01 4.764209270477294922e+00 5.788652420043945312e+00 3.165858507156372070e+00 6.598205566406250000e+00
3.280000000000000000e+02 5.373251724243164062e+01 3.073191070556640625e+01 5.023248195648193359e+00 2.098405122756958008e+00 2.136496067047119141e+00 4.356793880462646484e+00
3.290000000000000000e+02 5.467807388305664062e+01 3.033824729919433594e+01 4.064644813537597656e+00 1.870745849609375000e+01 6.831630706787109375e+00 8.994916915893554688e+00
3.300000000000000000e+02 5.209014129638671875e+01 3.232813644409179688e+01 -2.272298812866210938e+00 1.050043106079101562e-01 -6.501883268356323242e-01 1.177673116326332092e-01
3.310000000000000000e+02 5.246302032470703125e+01 3.185096549987792969e+01 -4.080974102020263672e+00 -9.441663324832916260e-02 -1.252617239952087402e+00 5.269139409065246582e-01
3.320000000000000000e+02 5.212143325805664062e+01 3.273248672485351562e+01 -7.143222093582153320e-01 4.499742984771728516e-01 -7.930437475442886353e-02 -5.892781019210815430e-01
3.330000000000000000e+02 5.194484710693359375e+01 3.100644111633300781e+01 -1.513373136520385742e+00 -3.882356360554695129e-02 -4.656589925289154053e-01 6.132498979568481445e-01
3.340000000000000000e+02 5.195607757568359375e+01 3.122029495239257812e+01 -2.239389896392822266e+00 2.663776651024818420e-02 -6.638256311416625977e-01 3.052362501621246338e-01
3.350000000000000000e+02 5.277034378051757812e+01 3.282953643798828125e+01 4.896768629550933838e-01 1.441446781158447266e+00 5.793371200561523438e-01 -1.885988593101501465e+00
3.360000000000000000e+02 5.304390335083007812e+01 3.246237182617187500e+01 4.008066058158874512e-01 9.282059073448181152e-01 3.987037539482116699e-01 -1.517517209053039551e+00
3.370000000000000000e+02 5.233242797851562500e+01 3.214493942260742188e+01 -2.730307817459106445e+00 -7.902338169515132904e-03 -8.214630484580993652e-01 1.522472202777862549e-01
3.380000000000000000e+02 5.298962020874023438e+01 3.150321578979492188e+01 -3.836951255798339844e+00 -6.623186171054840088e-02 -1.170954942703247070e+00 4.967470467090606689e-01
3.390000000000000000e+02 5.233287811279296875e+01 3.134961509704589844e+01 -2.806190252304077148e+00 1.354695949703454971e-02 -8.377929925918579102e-01 4.138107895851135254e-01
3.400000000000000000e+02 5.304920578002929688e+01 3.080046272277832031e+01 1.452964425086975098e+00 4.937395155429840088e-01 5.840111970901489258e-01 1.826094865798950195e+00
3.410000000000000000e+02 5.281540679931640625e+01 3.074352073669433594e+01 1.031084895133972168e+00 3.738224804401397705e-01 4.214722216129302979e-01 1.626476287841796875e+00
3.420000000000000000e+02 5.381468582153320312e+01 3.122261428833007812e+01 8.751180171966552734e-01 1.777196675539016724e-01 3.158513009548187256e-01 1.318727970123291016e+00
3.430000000000000000e+02 5.209499740600585938e+01 3.051257324218750000e+01 6.688652634620666504e-01 2.946871221065521240e-01 2.890657186508178711e-01 1.276949167251586914e+00
3.440000000000000000e+02 5.217921447753906250e+01 3.072198486328125000e+01 -8.260139822959899902e-02 1.614788621664047241e-01 2.366323955357074738e-02 1.051363229751586914e+00
3.450000000000000000e+02 5.296017837524414062e+01 3.223936080932617188e+01 -8.334308266639709473e-01 4.598741829395294189e-01 -1.120669916272163391e-01 -7.388728857040405273e-01
3.460000000000000000e+02 5.396524047851562500e+01 3.207879638671875000e+01 2.967313289642333984e+00 2.311066150665283203e+00 1.583513855934143066e+00 -3.607814788818359375e+00
3.470000000000000000e+02 5.441375732421875000e+01 3.259844207763671875e+01 2.728375434875488281e+00 1.289353084564208984e+01 4.686571598052978516e+00 -7.699731826782226562e+00
3.480000000000000000e+02 5.238028335571289062e+01 3.311854171752929688e+01 3.492723107337951660e-01 1.286229848861694336e+00 4.906506538391113281e-01 -1.578699231147766113e+00
3.490000000000000000e+02 5.370520401000976562e+01 3.269358444213867188e+01 2.505684852600097656e+00 4.417210578918457031e+00 2.076868772506713867e+00 -4.576443195343017578e+00
3.500000000000000000e+02 5.301946258544921875e+01 3.272954559326171875e+01 1.097309231758117676e+00 1.839057922363281250e+00 8.809100985527038574e-01 -2.402064561843872070e+00
3.510000000000000000e+02 5.378279876708984375e+01 3.224502182006835938e+01 2.454281806945800781e+00 2.384270191192626953e+00 1.451565623283386230e+00 -3.482804775238037109e+00
3.520000000000000000e+02 5.234815597534179688e+01 3.290186309814453125e+01 -1.143979653716087341e-01 1.066659212112426758e+00 2.856783866882324219e-01 -1.199937343597412109e+00
3.530000000000000000e+02 5.263379669189453125e+01 3.220941162109375000e+01 -1.784581661224365234e+00 2.623076140880584717e-01 -4.566822052001953125e-01 -1.977048069238662720e-01
3.540000000000000000e+02 5.299108505249023438e+01 3.103620147705078125e+01 1.878238618373870850e-01 1.278980448842048645e-02 6.018409878015518188e-02 9.671117663383483887e-01
3.550000000000000000e+02 5.216330337524414062e+01 3.141103935241699219e+01 -3.326452016830444336e+00 -1.037441492080688477e-01 -1.029058814048767090e+00 4.661850929260253906e-01
3.560000000000000000e+02 5.328343200683593750e+01 3.079823684692382812e+01 2.228976964950561523e+00 6.418038010597229004e-01 8.612341880798339844e-01 2.256026506423950195e+00
3.570000000000000000e+02 5.283972549438476562e+01 3.259956359863281250e+01 1.980615556240081787e-01 9.501595497131347656e-01 3.444663286209106445e-01 -1.420063018798828125e+00
3.580000000000000000e+02 5.342819976806640625e+01 3.234107589721679688e+01 1.379095554351806641e+00 1.634542346000671387e+00 9.040913581848144531e-01 -2.367490053176879883e+00
3.590000000000000000e+02 5.315073394775390625e+01 3.119261932373046875e+01 -8.797280788421630859e-01 -2.584629319608211517e-02 -2.716723084449768066e-01 7.140086293220520020e-01
3.600000000000000000e+02 5.334776306152343750e+01 3.107206535339355469e+01 7.870830297470092773e-01 1.944235265254974365e-01 2.944519519805908203e-01 1.295067429542541504e+00
3.610000000000000000e+02 5.187542343139648438e+01 3.058063125610351562e+01 -5.021973699331283569e-02 2.574306428432464600e-01 6.216327100992202759e-02 9.836719632148742676e-01
3.620000000000000000e+02 5.267044067382812500e+01 3.058400917053222656e+01 1.382539629936218262e+00 4.748672842979431152e-01 5.572220683097839355e-01 1.769100785255432129e+00
3.630000000000000000e+02 5.305474472045898438e+01 3.053487968444824219e+01 2.731216430664062500e+00 1.040482759475708008e+00 1.131509780883789062e+00 2.671220302581787109e+00
3.640000000000000000e+02 5.323715591430664062e+01 3.025290489196777344e+01 3.908488512039184570e+00 2.287817239761352539e+00 1.858891725540161133e+00 4.069922447204589844e+00
3.650000000000000000e+02 5.215232467651367188e+01 3.293663406372070312e+01 -3.570766150951385498e-01 8.590185046195983887e-01 1.505825519561767578e-01 -8.942281603813171387e-01
3.660000000000000000e+02 5.246465682983398438e+01 3.263941955566406250e+01 -4.552942216396331787e-01 7.729492187500000000e-01 9.529650211334228516e-02 -9.332662224769592285e-01
3.670000000000000000e+02 5.296282577514648438e+01 3.287318801879882812e+01 1.103124499320983887e+00 1.851040720939636230e+00 8.862495422363281250e-01 -2.458616256713867188e+00
3.680000000000000000e+02 5.311908721923828125e+01 3.286867904663085938e+01 1.321882486343383789e+00 2.631383180618286133e+00 1.185979723930358887e+00 -2.810186862945556641e+00
3.690000000000000000e+02 5.316416168212890625e+01 3.304578781127929688e+01 1.450001358985900879e+00 3.012847185134887695e+00 1.338854551315307617e+00 -3.143464326858520508e+00
3.700000000000000000e+02 5.335314178466796875e+01 3.301313400268554688e+01 1.924314379692077637e+00 3.836013078689575195e+00 1.728098154067993164e+00 -3.889713764190673828e+00
3.710000000000000000e+02 5.221269989013671875e+01 3.099237823486328125e+01 -1.148796916007995605e+00 8.627054095268249512e-02 -3.187579214572906494e-01 6.597380638122558594e-01
3.720000000000000000e+02 5.252631759643554688e+01 3.127468490600585938e+01 -2.378777503967285156e+00 -8.933264762163162231e-03 -7.163131833076477051e-01 4.625041782855987549e-01
3.730000000000000000e+02 5.296129608154296875e+01 3.125227165222167969e+01 -2.062742710113525391e+00 -1.505926251411437988e-02 -6.233406066894531250e-01 5.198753476142883301e-01
3.740000000000000000e+02 5.340051269531250000e+01 3.146684837341308594e+01 -3.521818637847900391e+00 -1.017922312021255493e-01 -1.087083220481872559e+00 4.350223243236541748e-01
3.750000000000000000e+02 5.349240875244140625e+01 3.127544975280761719e+01 -1.225150346755981445e+00 -3.350380063056945801e-02 -3.775962293148040771e-01 7.340809702873229980e-01
3.760000000000000000e+02 5.374930953979492188e+01 3.295177078247070312e+01 2.370084762573242188e+00 5.964086532592773438e+00 2.500251293182373047e+00 -5.158381462097167969e+00
3.770000000000000000e+02 5.411457061767578125e+01 3.274584960937500000e+01 2.767967939376831055e+00 9.125841140747070312e+00 3.568142652511596680e+00 -6.556242942810058594e+00
3.780000000000000000e+02 5.415153121948242188e+01 3.292900466918945312e+01 2.227158308029174805e+00 9.633814811706542969e+00 3.558292150497436523e+00 -6.457839965820312500e+00
3.790000000000000000e+02 5.516897964477539062e+01 3.281790161132812500e+01 4.441627562046051025e-01 2.189508247375488281e+01 6.701773643493652344e+00 -3.144711971282958984e+00
3.800000000000000000e+02 5.544634246826171875e+01 3.249071502685546875e+01 2.712454557418823242e+00 2.534121894836425781e+01 8.416102409362792969e+00 3.769177496433258057e-01
3.810000000000000000e+02 5.370793533325195312e+01 3.095704269409179688e+01 3.721613645553588867e+00 8.537737727165222168e-01 1.372616171836853027e+00 2.816205739974975586e+00
3.820000000000000000e+02 5.387908554077148438e+01 3.102121162414550781e+01 4.330173969268798828e+00 7.211255431175231934e-01 1.515389919281005859e+00 2.916541099548339844e+00
3.830000000000000000e+02 5.601237106323242188e+01 3.220127487182617188e+01 7.844653606414794922e+00 2.202433013916015625e+01 8.960695266723632812e+00 3.810549020767211914e+00
3.840000000000000000e+02 5.611112976074218750e+01 3.203143310546875000e+01 9.592292785644531250e+00 2.063401222229003906e+01 9.067891120910644531e+00 3.745585441589355469e+00
3.850000000000000000e+02 5.631599044799804688e+01 3.135962867736816406e+01 1.222353744506835938e+01 1.821855163574218750e+01 9.132626533508300781e+00 6.552790999412536621e-01
3.860000000000000000e+02 5.226726150512695312e+01 3.189446258544921875e+01 -4.106354236602783203e+00 -8.592755347490310669e-02 -1.257684588432312012e+00 4.956042766571044922e-01
3.870000000000000000e+02 5.263742446899414062e+01 3.180783843994140625e+01 -4.115106105804443359e+00 -4.704133048653602600e-02 -1.248644113540649414e+00 5.505557656288146973e-01
3.880000000000000000e+02 5.283612442016601562e+01 3.179315567016601562e+01 -4.123094081878662109e+00 -1.152439508587121964e-02 -1.240385532379150391e+00 4.902447462081909180e-01
3.890000000000000000e+02 5.289142227172851562e+01 3.200630569458007812e+01 -2.491713762283325195e+00 7.424816489219665527e-02 -7.252396941184997559e-01 5.365988239645957947e-02
3.900000000000000000e+02 5.386121749877929688e+01 3.188529014587402344e+01 8.327862620353698730e-01 7.977071404457092285e-01 4.891480207443237305e-01 -1.610330700874328613e+00
3.910000000000000000e+02 5.585919952392578125e+01 3.098059463500976562e+01 1.271743774414062500e+01 2.249543762207031250e+01 1.056386280059814453e+01 -2.203948020935058594e+00
3.920000000000000000e+02 5.599107742309570312e+01 3.089773368835449219e+01 1.104488563537597656e+01 2.113809776306152344e+01 9.654894828796386719e+00 -2.029227256774902344e+00
3.930000000000000000e+02 5.577275466918945312e+01 3.082442474365234375e+01 1.058960819244384766e+01 2.381783676147460938e+01 1.032223415374755859e+01 -2.527013063430786133e+00
3.940000000000000000e+02 5.532721328735351562e+01 3.011019897460937500e+01 2.601895809173583984e+00 2.295147323608398438e+01 7.666010856628417969e+00 2.753190755844116211e+00
3.950000000000000000e+02 5.517805480957031250e+01 3.004413032531738281e+01 2.159352779388427734e+00 2.131607055664062500e+01 7.042626857757568359e+00 4.292998790740966797e+00
3.960000000000000000e+02 5.500569152832031250e+01 3.001698112487792969e+01 2.145051479339599609e+00 2.046243667602539062e+01 6.782246589660644531e+00 5.222671985626220703e+00
3.970000000000000000e+02 5.447309112548828125e+01 3.039218902587890625e+01 5.315231323242187500e+00 1.444250202178955078e+01 5.927320003509521484e+00 9.655256271362304688e+00
3.980000000000000000e+02 5.232642745971679688e+01 3.236246871948242188e+01 -1.805250644683837891e+00 1.299447566270828247e-01 -5.025917887687683105e-01 -1.456516236066818237e-01
3.990000000000000000e+02 5.362792968750000000e+01 3.192252922058105469e+01 -2.690526247024536133e-01 4.181499779224395752e-01 4.472920671105384827e-02 -1.058998107910156250e+00
4.000000000000000000e+02 5.393320465087890625e+01 3.240050125122070312e+01 3.354581594467163086e+00 4.815217018127441406e+00 2.450939655303955078e+00 -5.344700813293457031e+00
4.010000000000000000e+02 5.350601577758789062e+01 3.075083732604980469e+01 3.577357053756713867e+00 1.223319768905639648e+00 1.440203070640563965e+00 3.181077480316162109e+00
4.020000000000000000e+02 5.326407241821289062e+01 3.052328872680664062e+01 3.466292619705200195e+00 1.460897445678710938e+00 1.478157043457031250e+00 3.342498540878295898e+00
4.030000000000000000e+02 5.364535522460937500e+01 3.020464897155761719e+01 4.710670948028564453e+00 4.608166694641113281e+00 2.795651197433471680e+00 5.962655067443847656e+00
4.040000000000000000e+02 5.392364120483398438e+01 3.038365745544433594e+01 5.777002811431884766e+00 5.813633918762207031e+00 3.477190971374511719e+00 6.978380680084228516e+00
4.050000000000000000e+02 5.448604965209960938e+01 3.243769454956054688e+01 3.284350872039794922e+00 1.431178474426269531e+01 5.278840541839599609e+00 -8.396044731140136719e+00
4.060000000000000000e+02 5.429219436645507812e+01 3.270560455322265625e+01 2.615919828414916992e+00 1.093836879730224609e+01 4.066286563873291016e+00 -7.070394515991210938e+00
4.070000000000000000e+02 5.536842346191406250e+01 3.266022872924804688e+01 1.065420389175415039e+00 2.375632476806640625e+01 7.446523189544677734e+00 -1.201114416122436523e+00
4.080000000000000000e+02 5.591246414184570312e+01 3.074501991271972656e+01 9.809892654418945312e+00 2.229689788818359375e+01 9.632037162780761719e+00 -2.315464019775390625e+00
4.090000000000000000e+02 5.616724777221679688e+01 3.151163101196289062e+01 1.317740631103515625e+01 1.930313110351562500e+01 9.744161605834960938e+00 1.533152580261230469e+00
4.100000000000000000e+02 5.248706436157226562e+01 3.097372817993164062e+01 -6.947419047355651855e-01 3.724195435643196106e-02 -1.972499936819076538e-01 8.196538686752319336e-01
4.110000000000000000e+02 5.230122756958007812e+01 3.271293640136718750e+01 -5.661889314651489258e-01 6.888029575347900391e-01 3.678420186042785645e-02 -8.369570374488830566e-01
4.120000000000000000e+02 5.255520629882812500e+01 3.284354400634765625e+01 1.581718921661376953e-01 1.070292830467224121e+00 3.685393929481506348e-01 -1.424174308776855469e+00
4.130000000000000000e+02 5.275093460083007812e+01 3.098045349121093750e+01 -1.398515701293945312e-01 1.175438761711120605e-01 -6.692309863865375519e-03 9.446972012519836426e-01
4.140000000000000000e+02 5.404210281372070312e+01 3.257822418212890625e+01 3.355929374694824219e+00 7.104994773864746094e+00 3.138277292251586914e+00 -6.256445884704589844e+00
4.150000000000000000e+02 5.330015945434570312e+01 3.251731109619140625e+01 1.108066201210021973e+00 1.847704052925109863e+00 8.867310881614685059e-01 -2.533188581466674805e+00
4.160000000000000000e+02 5.259229278564453125e+01 3.245807647705078125e+01 -8.504806756973266602e-01 5.252208113670349121e-01 -9.757796674966812134e-02 -7.538583874702453613e-01
4.170000000000000000e+02 5.229304122924804688e+01 3.254582977294921875e+01 -1.052603483200073242e+00 3.172560036182403564e-01 -2.206042557954788208e-01 -4.106987416744232178e-01
4.180000000000000000e+02 5.336993789672851562e+01 3.204284286499023438e+01 -6.744948029518127441e-01 5.940048694610595703e-01 -2.414698712527751923e-02 -8.362409472465515137e-01
4.190000000000000000e+02 5.326906967163085938e+01 3.190742874145507812e+01 -2.208556175231933594e+00 1.306636631488800049e-01 -6.233677864074707031e-01 -1.075637415051460266e-01
4.200000000000000000e+02 5.353925704956054688e+01 3.097348976135253906e+01 2.426103591918945312e+00 5.690065622329711914e-01 8.985331058502197266e-01 2.092733860015869141e+00
4.210000000000000000e+02 5.369913482666015625e+01 3.244743728637695312e+01 2.430142164230346680e+00 3.404019594192504883e+00 1.750248551368713379e+00 -4.010293006896972656e+00
4.220000000000000000e+02 5.321613693237304688e+01 3.216217422485351562e+01 -4.011121392250061035e-01 5.468001365661621094e-01 4.370639100670814514e-02 -8.868705034255981445e-01
4.230000000000000000e+02 5.123065185546875000e+01 3.221573257446289062e+01 -3.676640748977661133e+00 -1.896393150091171265e-01 -1.159883975982666016e+00 5.750748515129089355e-01
4.240000000000000000e+02 5.189754104614257812e+01 3.277025985717773438e+01 -9.187272787094116211e-01 5.018073320388793945e-01 -1.250759810209274292e-01 -4.665428400039672852e-01
4.250000000000000000e+02 5.164810562133789062e+01 3.277241134643554688e+01 -1.452543377876281738e+00 3.565736413002014160e-01 -3.287909328937530518e-01 -2.380110472440719604e-01
4.260000000000000000e+02 5.006782531738281250e+01 3.314083099365234375e+01 -1.895964264869689941e+00 4.263084009289741516e-02 -5.559999942779541016e-01 3.277482986450195312e-01
4.270000000000000000e+02 5.151110076904296875e+01 3.237784194946289062e+01 -2.840792894363403320e+00 1.026453524827957153e-01 -8.214442729949951172e-01 2.678955495357513428e-01
4.280000000000000000e+02 5.191036224365234375e+01 3.297105026245117188e+01 -5.874563455581665039e-01 5.605721473693847656e-01 -8.065252564847469330e-03 -7.056701779365539551e-01
4.290000000000000000e+02 4.942316055297851562e+01 3.324626541137695312e+01 -1.994556307792663574e+00 -2.674482017755508423e-02 -6.063903570175170898e-01 4.734775125980377197e-01
4.300000000000000000e+02 5.007393264770507812e+01 3.239315414428710938e+01 -3.490378141403198242e+00 -1.168600395321846008e-01 -1.082171440124511719e+00 6.023243069648742676e-01
4.310000000000000000e+02 5.076143264770507812e+01 3.222447967529296875e+01 -3.713104009628295898e+00 -4.890620335936546326e-02 -1.128602981567382812e+00 6.031125187873840332e-01
4.320000000000000000e+02 4.935117340087890625e+01 3.250923538208007812e+01 -3.229360103607177734e+00 -7.236254215240478516e-02 -9.905168414115905762e-01 5.782883167266845703e-01
4.330000000000000000e+02 5.181023788452148438e+01 3.237941741943359375e+01 -2.463089227676391602e+00 1.729486286640167236e-01 -6.870421767234802246e-01 2.231467068195343018e-01
4.340000000000000000e+02 5.163067245483398438e+01 3.196504592895507812e+01 -4.066905021667480469e+00 -2.048890292644500732e-02 -1.226218104362487793e+00 6.358445286750793457e-01
4.350000000000000000e+02 5.185066223144531250e+01 3.258126449584960938e+01 -1.724441409111022949e+00 3.290893137454986572e-01 -4.186056256294250488e-01 -8.737405389547348022e-02
4.360000000000000000e+02 5.133168411254882812e+01 3.271439743041992188e+01 -1.967631220817565918e+00 1.088561788201332092e-01 -5.576325058937072754e-01 2.830777503550052643e-02
4.370000000000000000e+02 5.186336898803710938e+01 3.318756866455078125e+01 -3.282659947872161865e-01 7.872983813285827637e-01 1.377097219228744507e-01 -9.514015913009643555e-01
4.380000000000000000e+02 5.162135696411132812e+01 3.306402206420898438e+01 -7.855819463729858398e-01 5.809906125068664551e-01 -6.137739866971969604e-02 -5.947747826576232910e-01
4.390000000000000000e+02 5.176880264282226562e+01 3.217386627197265625e+01 -3.328560113906860352e+00 1.445811986923217773e-01 -9.551936984062194824e-01 4.600509703159332275e-01
4.400000000000000000e+02 5.092823028564453125e+01 3.259221649169921875e+01 -2.606455326080322266e+00 3.016334213316440582e-02 -7.728876471519470215e-01 3.007843792438507080e-01
4.410000000000000000e+02 5.122161483764648438e+01 3.314736557006835938e+01 -9.873872995376586914e-01 4.228832423686981201e-01 -1.693512201309204102e-01 -2.613871693611145020e-01
4.420000000000000000e+02 5.068022537231445312e+01 3.312337112426757812e+01 -1.578659653663635254e+00 2.031946927309036255e-01 -4.126394987106323242e-01 1.258900165557861328e-01
4.430000000000000000e+02 4.727144622802734375e+01 3.360919570922851562e+01 -1.805999994277954102e+00 -1.383926123380661011e-01 -5.833177566528320312e-01 5.534144043922424316e-01
4.440000000000000000e+02 4.715089797973632812e+01 3.287907791137695312e+01 -2.658876895904541016e+00 -8.437516540288925171e-02 -8.229756355285644531e-01 5.536860823631286621e-01
4.450000000000000000e+02 4.641378021240234375e+01 3.299990844726562500e+01 -2.435061931610107422e+00 -1.167830303311347961e-01 -7.655534744262695312e-01 5.291441679000854492e-01
4.460000000000000000e+02 4.788861083984375000e+01 3.275563049316406250e+01 -2.847357988357543945e+00 -1.229423210024833679e-01 -8.910900950431823730e-01 5.659980773925781250e-01
4.470000000000000000e+02 4.873987197875976562e+01 3.336110687255859375e+01 -1.999775052070617676e+00 -5.707041174173355103e-02 -6.170536279678344727e-01 4.946988224983215332e-01
4.480000000000000000e+02 4.862693405151367188e+01 3.262971878051757812e+01 -3.012370347976684570e+00 -9.222822636365890503e-02 -9.313795566558837891e-01 5.909181833267211914e-01
4.490000000000000000e+02 4.653813171386718750e+01 3.372938919067382812e+01 -1.738550543785095215e+00 -8.053248375654220581e-02 -5.457249283790588379e-01 5.717962384223937988e-01
4.500000000000000000e+02 4.800535202026367188e+01 3.348638153076171875e+01 -1.915050983428955078e+00 -8.845575898885726929e-02 -6.010520458221435547e-01 5.634126663208007812e-01
4.510000000000000000e+02 4.420226669311523438e+01 3.339414215087890625e+01 -1.790372490882873535e+00 -9.083566814661026001e-02 -5.643624663352966309e-01 4.346616268157958984e-01
4.520000000000000000e+02 4.433515167236328125e+01 3.412211608886718750e+01 -1.338065385818481445e+00 -1.596939265727996826e-01 -4.493277966976165771e-01 5.198692083358764648e-01
4.530000000000000000e+02 4.346595001220703125e+01 3.352351760864257812e+01 -1.580752253532409668e+00 -1.025644913315773010e-01 -5.049950480461120605e-01 3.859887719154357910e-01
4.540000000000000000e+02 4.493911361694335938e+01 3.326211166381835938e+01 -2.005650997161865234e+00 -1.098292991518974304e-01 -6.346440911293029785e-01 4.695731103420257568e-01
4.550000000000000000e+02 4.580409240722656250e+01 3.385649871826171875e+01 -1.613397479057312012e+00 -1.615225225687026978e-01 -5.324760079383850098e-01 5.788794159889221191e-01
4.560000000000000000e+02 4.567650985717773438e+01 3.312757492065429688e+01 -2.214881896972656250e+00 -9.362475574016571045e-02 -6.925520300865173340e-01 5.015386343002319336e-01
4.570000000000000000e+02 4.360148620605468750e+01 3.425101852416992188e+01 -1.230863094329833984e+00 -1.428668200969696045e-01 -4.121189713478088379e-01 4.927950501441955566e-01
4.580000000000000000e+02 4.506934738159179688e+01 3.399055862426757812e+01 -1.460146188735961914e+00 -1.337737292051315308e-01 -4.781759679317474365e-01 5.496715307235717773e-01
4.590000000000000000e+02 4.139850234985351562e+01 3.467833328247070312e+01 -8.082666993141174316e-01 -1.296239048242568970e-01 -2.813671827316284180e-01 3.835707306861877441e-01
4.600000000000000000e+02 4.199465942382812500e+01 3.380642318725585938e+01 -1.229021191596984863e+00 -9.078008681535720825e-02 -3.959403932094573975e-01 3.314592242240905762e-01
4.610000000000000000e+02 4.052394866943359375e+01 3.409660720825195312e+01 -9.128299355506896973e-01 -6.640781462192535400e-02 -2.937713265419006348e-01 2.585467994213104248e-01
4.620000000000000000e+02 4.213290405273437500e+01 3.453341293334960938e+01 -9.265280365943908691e-01 -1.518903076648712158e-01 -3.235254883766174316e-01 4.162176847457885742e-01
4.630000000000000000e+02 4.272992324829101562e+01 3.366130447387695312e+01 -1.398706793785095215e+00 -6.975015252828598022e-02 -4.405370652675628662e-01 3.596256375312805176e-01
4.640000000000000000e+02 4.286724853515625000e+01 3.438847732543945312e+01 -1.066773653030395508e+00 -1.246661692857742310e-01 -3.574319779872894287e-01 4.747544229030609131e-01
4.650000000000000000e+02 4.066404342651367188e+01 3.482323455810546875e+01 -7.323177456855773926e-01 -1.333540081977844238e-01 -2.597015202045440674e-01 3.255996406078338623e-01
4.660000000000000000e+02 4.125933456420898438e+01 3.395152664184570312e+01 -1.067528843879699707e+00 -7.534681260585784912e-02 -3.428627252578735352e-01 2.904369235038757324e-01
4.670000000000000000e+02 3.905131912231445312e+01 3.438002777099609375e+01 -6.552773118019104004e-01 -2.999779582023620605e-02 -2.055825293064117432e-01 1.915336996316909790e-01
4.680000000000000000e+02 3.845631790161132812e+01 3.524533081054687500e+01 -4.215181171894073486e-01 -7.777462154626846313e-02 -1.497878134250640869e-01 2.351311445236206055e-01
4.690000000000000000e+02 3.757802581787109375e+01 3.465816116333007812e+01 -4.354860782623291016e-01 -2.223696745932102203e-02 -1.373169124126434326e-01 1.339377015829086304e-01
4.700000000000000000e+02 3.992870712280273438e+01 3.496635818481445312e+01 -6.195313334465026855e-01 -9.674984216690063477e-02 -2.148843407630920410e-01 3.241486847400665283e-01
4.710000000000000000e+02 3.978794097900390625e+01 3.423986434936523438e+01 -7.818805575370788574e-01 -7.172428071498870850e-02 -2.560814619064331055e-01 2.092714160680770874e-01
4.720000000000000000e+02 3.772006225585937500e+01 3.538441467285156250e+01 -3.373126983642578125e-01 -9.020177274942398071e-02 -1.282543390989303589e-01 2.099185883998870850e-01
4.730000000000000000e+02 3.919250869750976562e+01 3.510644531250000000e+01 -5.029755234718322754e-01 -1.160460785031318665e-01 -1.857064813375473022e-01 2.710178196430206299e-01
4.740000000000000000e+02 3.831470489501953125e+01 3.451899719238281250e+01 -5.388535261154174805e-01 -6.366027891635894775e-02 -1.807541400194168091e-01 1.569431275129318237e-01
4.750000000000000000e+02 3.551680755615234375e+01 3.582569122314453125e+01 -1.762287020683288574e-01 -5.136401206254959106e-02 -6.827781349420547485e-02 1.199897304177284241e-01
4.760000000000000000e+02 3.610754394531250000e+01 3.495201110839843750e+01 -2.692774832248687744e-01 -2.150349877774715424e-02 -8.723429590463638306e-02 9.194783121347427368e-02
4.770000000000000000e+02 3.463803482055664062e+01 3.524788665771484375e+01 -1.568437814712524414e-01 -1.417298801243305206e-02 -5.130502954125404358e-02 5.444292724132537842e-02
4.780000000000000000e+02 3.684228134155273438e+01 3.480297470092773438e+01 -3.455111384391784668e-01 -4.354273155331611633e-02 -1.167161613702774048e-01 1.116882935166358948e-01
4.790000000000000000e+02 3.698487472534179688e+01 3.552911758422851562e+01 -2.720225453376770020e-01 -6.585801392793655396e-02 -1.013641729950904846e-01 1.675104647874832153e-01
4.800000000000000000e+02 3.478272247314453125e+01 3.597360992431640625e+01 -1.214625686407089233e-01 -5.031207576394081116e-02 -5.153239145874977112e-02 1.018951013684272766e-01
4.810000000000000000e+02 3.625083541870117188e+01 3.567801284790039062e+01 -2.225767821073532104e-01 -6.748739629983901978e-02 -8.701925724744796753e-02 1.445108056068420410e-01
4.820000000000000000e+02 3.537281799316406250e+01 3.509983062744140625e+01 -2.061745673418045044e-01 -3.053506277501583099e-02 -7.101289182901382446e-02 7.083681970834732056e-02
4.830000000000000000e+02 3.242737579345703125e+01 3.568672943115234375e+01 -5.181926488876342773e-02 -4.161233548074960709e-03 -1.679414883255958557e-02 2.263190224766731262e-02
4.840000000000000000e+02 3.169006347656250000e+01 3.583216094970703125e+01 -2.982541173696517944e-02 -8.864628151059150696e-03 -1.160701271146535873e-02 1.637091673910617828e-02
4.850000000000000000e+02 3.330534362792968750e+01 3.626757049560546875e+01 -7.571475207805633545e-02 -2.517093718051910400e-02 -3.026570752263069153e-02 6.105731800198554993e-02
4.860000000000000000e+02 3.316469573974609375e+01 3.554105377197265625e+01 -7.747499644756317139e-02 -1.525631546974182129e-02 -2.781939320266246796e-02 2.967903204262256622e-02
4.870000000000000000e+02 3.390202713012695312e+01 3.539514541625976562e+01 -1.123441532254219055e-01 -1.477259676903486252e-02 -3.813502565026283264e-02 4.522209614515304565e-02
4.880000000000000000e+02 3.404560089111328125e+01 3.612108612060546875e+01 -9.418882429599761963e-02 -3.850580006837844849e-02 -3.980838507413864136e-02 6.652058660984039307e-02
4.890000000000000000e+02 3.182485580444335938e+01 3.655983352661132812e+01 -3.255893662571907043e-02 -1.481304969638586044e-02 -1.421159598976373672e-02 3.255158290266990662e-02
4.900000000000000000e+02 3.256509399414062500e+01 3.641382217407226562e+01 -4.777299612760543823e-02 -2.778609097003936768e-02 -2.266772650182247162e-02 4.671812057495117188e-02
4.910000000000000000e+02 2.946516418457031250e+01 3.621912765502929688e+01 6.287465803325176239e-03 -1.778110861778259277e-03 1.352806575596332550e-03 1.314005698077380657e-03
4.920000000000000000e+02 2.958438682556152344e+01 3.694947052001953125e+01 -1.495089614763855934e-03 -7.691020611673593521e-03 -2.755833091214299202e-03 9.665737859904766083e-03
4.930000000000000000e+02 2.872264671325683594e+01 3.634394836425781250e+01 1.044074911624193192e-02 7.068212289595976472e-05 3.153429366648197174e-03 1.524345861980691552e-04
4.940000000000000000e+02 3.020768547058105469e+01 3.609378433227539062e+01 -6.352794589474797249e-04 -3.486637957394123077e-03 -1.236575306393206120e-03 5.248770117759704590e-03
4.950000000000000000e+02 3.095018768310546875e+01 3.596792221069335938e+01 -1.276675332337617874e-02 -3.513435600325465202e-03 -4.884056746959686279e-03 9.752623736858367920e-03
4.960000000000000000e+02 3.108069419860839844e+01 3.669636154174804688e+01 -1.969800144433975220e-02 -1.645479537546634674e-02 -1.084583904594182968e-02 2.679267339408397675e-02
4.970000000000000000e+02 2.883622932434082031e+01 3.707524490356445312e+01 1.915113884024322033e-03 -4.227285739034414291e-03 -6.936515565030276775e-04 3.159514861181378365e-03
4.980000000000000000e+02 3.033255004882812500e+01 3.682317352294921875e+01 -9.275183081626892090e-03 -1.135877612978219986e-02 -6.190187763422727585e-03 1.565378531813621521e-02
4.990000000000000000e+02 2.647223281860351562e+01 3.666142654418945312e+01 1.326512265950441360e-02 -1.527986838482320309e-03 3.521140664815902710e-03 -2.126032719388604164e-03
5.000000000000000000e+02 2.572040748596191406e+01 3.676027679443359375e+01 1.271625421941280365e-02 1.988608157262206078e-03 4.411458503454923630e-03 -1.901109004393219948e-03
5.010000000000000000e+02 2.731099891662597656e+01 3.729562377929687500e+01 5.776599515229463577e-03 -2.333859680220484734e-03 1.032821950502693653e-03 -1.809882814995944500e-04
5.020000000000000000e+02 2.722403526306152344e+01 3.656066131591796875e+01 1.316593401134014130e-02 1.418532803654670715e-03 4.375339951366186142e-03 -1.240569399669766426e-03
5.030000000000000000e+02 2.797564125061035156e+01 3.645804595947265625e+01 1.238555647432804108e-02 -1.239589648321270943e-03 3.343790071085095406e-03 -1.419151783920824528e-03
5.040000000000000000e+02 2.807846832275390625e+01 3.719087982177734375e+01 4.012251272797584534e-03 -6.235821056179702282e-04 1.016600755974650383e-03 2.447797683998942375e-03
5.050000000000000000e+02 2.577564430236816406e+01 3.749948883056640625e+01 7.080913987010717392e-03 -1.091618556529283524e-03 1.796788652427494526e-03 -1.407570322044193745e-03
5.060000000000000000e+02 2.654333496093750000e+01 3.739851379394531250e+01 6.148564629256725311e-03 5.935172084718942642e-04 2.022624481469392776e-03 -6.106818909756839275e-04
5.070000000000000000e+02 2.340743637084960938e+01 3.754123687744140625e+01 4.777591209858655930e-03 1.242361176991835237e-04 1.470548100769519806e-03 -2.995938528329133987e-03
5.080000000000000000e+02 2.266618919372558594e+01 3.679620742797851562e+01 5.535574629902839661e-03 3.684141556732356548e-04 1.771196722984313965e-03 -9.434578241780400276e-04
5.090000000000000000e+02 2.419788742065429688e+01 3.680555725097656250e+01 9.048716165125370026e-03 8.791972068138420582e-04 2.978374017402529716e-03 -1.025045407004654408e-03
5.100000000000000000e+02 2.496211051940917969e+01 3.680892944335937500e+01 1.136266347020864487e-02 -8.066949667409062386e-04 3.166790353134274483e-03 -1.148225390352308750e-03
5.110000000000000000e+02 2.499495697021484375e+01 3.754912567138671875e+01 6.417792290449142456e-03 1.598439179360866547e-03 2.404869534075260162e-03 -2.748785540461540222e-03
5.120000000000000000e+02 2.261228370666503906e+01 3.753591537475585938e+01 3.147419309243559837e-03 5.529629997909069061e-04 1.110114739276468754e-03 -1.826101914048194885e-03
5.130000000000000000e+02 2.343242454528808594e+01 3.680136489868164062e+01 7.249371614307165146e-03 -5.740883643738925457e-04 2.002584980800747871e-03 -6.860860157757997513e-04
5.140000000000000000e+02 2.420181655883789062e+01 3.754558944702148438e+01 6.285225506871938705e-03 -5.750834825448691845e-04 1.713042496703565121e-03 -1.851124572567641735e-03
5.150000000000000000e+02 1.998039245605468750e+01 3.692026138305664062e+01 1.317406888119876385e-03 1.007491606287658215e-03 6.974695716053247452e-04 -8.788668201304972172e-04
5.160000000000000000e+02 2.062745285034179688e+01 3.732268142700195312e+01 1.801910460926592350e-03 2.320699131814762950e-04 6.101941107772290707e-04 -7.871608831919729710e-04
5.170000000000000000e+02 2.113145446777343750e+01 3.686664581298828125e+01 1.665935269556939602e-03 -5.361078074201941490e-04 3.389482444617897272e-04 -7.190930191427469254e-04
5.180000000000000000e+02 2.021580696105957031e+01 3.715901565551757812e+01 1.959786284714937210e-03 4.284516326151788235e-04 7.164713460952043533e-04 -8.897334337234497070e-04
5.190000000000000000e+02 2.186282539367675781e+01 3.673282623291015625e+01 3.296833252534270287e-03 9.285358828492462635e-05 1.016906113363802433e-03 -3.282567486166954041e-04
5.200000000000000000e+02 2.186202239990234375e+01 3.748466491699218750e+01 2.836526371538639069e-03 1.336310670012608171e-04 8.910472388379275799e-04 -2.009972464293241501e-03
5.210000000000000000e+02 2.119230079650878906e+01 3.743341445922851562e+01 2.700132317841053009e-03 -2.644535852596163750e-04 7.307035848498344421e-04 -1.306107500568032265e-03
5.220000000000000000e+02 2.068652153015136719e+01 3.649208450317382812e+01 1.027398277074098587e-03 -4.374805575935170054e-05 2.950950583908706903e-04 -5.903526907786726952e-04
5.230000000000000000e+02 2.102560424804687500e+01 3.579481887817382812e+01 1.694257138296961784e-03 1.437725964933633804e-03 9.395949309691786766e-04 1.752525102347135544e-03
5.240000000000000000e+02 2.197462081909179688e+01 3.519912338256835938e+01 -6.171968765556812286e-03 -5.471400916576385498e-03 -3.493010997772216797e-03 -2.824742579832673073e-03
5.250000000000000000e+02 2.189435958862304688e+01 3.593660354614257812e+01 4.328862763941287994e-03 -1.931739272549748421e-03 7.191370241343975067e-04 1.117348554544150829e-03
5.260000000000000000e+02 2.057264900207519531e+01 3.514139175415039062e+01 3.644360695034265518e-04 5.790985655039548874e-03 1.846626517362892628e-03 1.933812629431486130e-03
5.270000000000000000e+02 2.112965202331542969e+01 3.506163787841796875e+01 -9.986485820263624191e-04 -8.673692354932427406e-04 -5.598053685389459133e-04 9.706313721835613251e-04
5.280000000000000000e+02 2.111800956726074219e+01 3.338737487792968750e+01 -3.743919776752591133e-03 -1.126050669699907303e-02 -4.501327872276306152e-03 -9.592069312930107117e-03
5.290000000000000000e+02 2.201938819885253906e+01 3.431914520263671875e+01 -1.293179392814636230e-02 -1.208112854510545731e-02 -7.503876462578773499e-03 -1.125650666654109955e-02
5.300000000000000000e+02 2.541710853576660156e+01 3.346199417114257812e+01 -1.072863638401031494e-01 -1.939963735640048981e-02 -3.800579905509948730e-02 -9.118852019309997559e-02
5.310000000000000000e+02 2.696767616271972656e+01 3.426186370849609375e+01 -1.592832803726196289e-01 5.671882070600986481e-03 -4.608342051506042480e-02 -7.380183041095733643e-02
5.320000000000000000e+02 2.199731445312500000e+01 3.332632446289062500e+01 -1.362667512148618698e-02 -3.120259009301662445e-02 -1.344877947121858597e-02 -2.491296455264091492e-02
5.330000000000000000e+02 2.098884010314941406e+01 2.545808029174804688e+01 -5.886039580218493938e-04 -4.643512368202209473e-01 -1.394819468259811401e-01 -4.572456330060958862e-02
5.340000000000000000e+02 2.584899330139160156e+01 1.612321281433105469e+01 6.577022373676300049e-02 -5.429412722587585449e-01 -1.431513130664825439e-01 -2.305067181587219238e-01
5.350000000000000000e+02 3.329734420776367188e+01 1.130434703826904297e+01 2.242034524679183960e-01 5.509429574012756348e-01 2.325439304113388062e-01 -1.356091164052486420e-02
5.360000000000000000e+02 3.957875823974609375e+01 4.771470546722412109e+00 9.919190406799316406e-02 2.049996614456176758e+00 6.447565555572509766e-01 2.895254194736480713e-01
5.370000000000000000e+02 4.683755493164062500e+01 -3.556364536285400391e+00 -1.532526910305023193e-01 3.704234361648559570e+00 1.065294504165649414e+00 1.998230963945388794e-01
5.380000000000000000e+02 5.652507781982421875e+01 -9.158812522888183594e+00 -2.109284251928329468e-01 5.529308319091796875e+00 1.595513939857482910e+00 -3.177136648446321487e-03
5.390000000000000000e+02 6.473493194580078125e+01 -1.671757888793945312e+01 -8.433526009321212769e-02 6.884757041931152344e+00 2.040126562118530273e+00 -6.804564595222473145e-02
5.400000000000000000e+02 7.046662139892578125e+01 -2.473715209960937500e+01 -3.405963769182562828e-03 7.932538032531738281e+00 2.378739595413208008e+00 -2.654520608484745026e-02
5.410000000000000000e+02 7.795700836181640625e+01 -2.996199989318847656e+01 -4.278659820556640625e-03 9.298455238342285156e+00 2.788252830505371094e+00 -1.129971630871295929e-02
5.420000000000000000e+02 7.934480285644531250e+01 -2.624956893920898438e+01 -1.317381043918430805e-03 9.552060127258300781e+00 2.865222692489624023e+00 -8.643702603876590729e-03
5.430000000000000000e+02 7.807432556152343750e+01 -2.304111099243164062e+01 -1.566026709042489529e-03 9.304663658142089844e+00 2.790929317474365234e+00 -1.763629168272018433e-02
5.440000000000000000e+02 7.935668182373046875e+01 -2.208240699768066406e+01 -8.373467717319726944e-04 9.541029930114746094e+00 2.862057685852050781e+00 -1.355988532304763794e-02
5.450000000000000000e+02 7.269752502441406250e+01 -1.282816410064697266e+01 -4.470780491828918457e-02 8.269330024719238281e+00 2.467386722564697266e+00 -1.008409187197685242e-01
5.460000000000000000e+02 6.530892181396484375e+01 -4.876785755157470703e+00 -2.247983813285827637e-01 7.099040508270263672e+00 2.062272787094116211e+00 -2.030159682035446167e-01
5.470000000000000000e+02 6.121076965332031250e+01 4.084706306457519531e+00 -4.988671839237213135e-01 6.806396484375000000e+00 1.892258882522583008e+00 -1.702223867177963257e-01
5.480000000000000000e+02 4.882485198974609375e+01 1.392863559722900391e+01 7.383117079734802246e-02 4.177356719970703125e+00 1.275356292724609375e+00 1.044900417327880859e+00
5.490000000000000000e+02 4.259895324707031250e+01 2.059494590759277344e+01 6.959969401359558105e-01 1.308780550956726074e+00 6.014332771301269531e-01 5.264785885810852051e-01
5.500000000000000000e+02 3.840073776245117188e+01 2.879441833496093750e+01 -5.207167267799377441e-01 1.467489153146743774e-01 -1.121903359889984131e-01 -3.351425230503082275e-01
5.510000000000000000e+02 3.201929092407226562e+01 3.275634765625000000e+01 -5.045465826988220215e-01 5.025430396199226379e-02 -1.362876892089843750e-01 -1.554622352123260498e-01
5.520000000000000000e+02 2.986817359924316406e+01 3.385729217529296875e+01 -3.377490043640136719e-01 2.711031027138233185e-02 -9.319160878658294678e-02 -9.109562635421752930e-02
5.530000000000000000e+02 2.110729408264160156e+01 -3.840677642822265625e+01 4.814076423645019531e-02 -9.329392313957214355e-01 -2.654395401477813721e-01 2.918240614235401154e-02
5.540000000000000000e+02 1.643386840820312500e+01 -3.864737701416015625e+01 5.234904959797859192e-02 -3.236868605017662048e-02 5.994109436869621277e-03 -1.577068567276000977e-01
5.550000000000000000e+02 1.902643394470214844e+01 -3.790338897705078125e+01 -1.617690771818161011e-01 -1.216239690780639648e+00 -4.134026467800140381e-01 -3.190126419067382812e-01
5.560000000000000000e+02 1.821462440490722656e+01 -3.945289611816406250e+01 -6.740698218345642090e-02 -6.846798658370971680e-01 -2.256260514259338379e-01 -2.973539233207702637e-01
5.570000000000000000e+02 1.445388221740722656e+01 -3.639541625976562500e+01 -1.909194141626358032e-02 7.146023679524660110e-03 -3.583775134757161140e-03 -5.494704097509384155e-02
5.580000000000000000e+02 1.525173473358154297e+01 -3.756959915161132812e+01 1.936153024435043335e-01 4.948174580931663513e-02 7.292911410331726074e-02 9.267326822737231851e-05
5.590000000000000000e+02 1.258716106414794922e+01 -3.246013641357421875e+01 1.281604915857315063e-02 8.778808638453483582e-03 6.478457245975732803e-03 -7.945924066007137299e-03
5.600000000000000000e+02 6.412727236747741699e-01 -2.480368804931640625e+01 -3.263563383370637894e-03 -5.114095984026789665e-04 -1.132491859607398510e-03 3.692281461553648114e-05
5.610000000000000000e+02 6.512019634246826172e-01 -3.042492103576660156e+01 -3.199988510459661484e-03 8.296484156744554639e-05 -9.351071203127503395e-04 1.830245455494150519e-04
5.620000000000000000e+02 6.580459475517272949e-01 -3.182824325561523438e+01 3.312887158244848251e-03 1.091423677280545235e-03 1.321293297223746777e-03 6.797083187848329544e-04
5.630000000000000000e+02 7.880898714065551758e-01 -3.737365341186523438e+01 3.785439068451523781e-03 9.869474917650222778e-03 4.096474032849073410e-03 2.256307983770966530e-03
5.640000000000000000e+02 7.958930492401123047e+00 -4.141141510009765625e+01 -1.660537719726562500e-02 1.872982480563223362e-03 -4.419718403369188309e-03 1.180321676656603813e-03
5.650000000000000000e+02 1.201858711242675781e+01 -4.139875030517578125e+01 -4.851675778627395630e-02 -4.660148173570632935e-03 -1.595307141542434692e-02 1.144913211464881897e-02
5.660000000000000000e+02 2.108919715881347656e+01 -3.361959075927734375e+01 -9.752734005451202393e-02 -1.185383200645446777e+00 -3.848731517791748047e-01 -1.251705288887023926e-01
5.670000000000000000e+02 1.965813255310058594e+01 -2.800688362121582031e+01 1.303512603044509888e-03 -1.418546438217163086e+00 -4.251728653907775879e-01 -7.291986607015132904e-03
5.680000000000000000e+02 2.108709716796875000e+01 -3.086916923522949219e+01 -3.068224526941776276e-02 -1.197309017181396484e+00 -3.683973848819732666e-01 -4.938989132642745972e-02
5.690000000000000000e+02 1.962386131286621094e+01 -3.506166076660156250e+01 -1.077090352773666382e-01 -1.703255891799926758e+00 -5.432894825935363770e-01 -1.845987290143966675e-01
5.700000000000000000e+02 1.945319747924804688e+01 -3.651073074340820312e+01 -1.420609503984451294e-01 -1.571429014205932617e+00 -5.140470266342163086e-01 -3.019438087940216064e-01
5.710000000000000000e+02 1.967529106140136719e+01 -2.378427696228027344e+01 7.300737313926219940e-03 -1.353288412094116211e+00 -4.037963151931762695e-01 -3.001018799841403961e-02
5.720000000000000000e+02 1.975412750244140625e+01 -2.096202087402343750e+01 -1.181908231228590012e-02 -1.393090844154357910e+00 -4.214729666709899902e-01 -3.631906956434249878e-02
5.730000000000000000e+02 2.269967269897460938e+01 -2.533699798583984375e+01 1.403903402388095856e-02 -8.802093267440795898e-01 -2.598510980606079102e-01 -2.796060778200626373e-02
5.740000000000000000e+02 2.063986778259277344e+01 -1.268449902534484863e+00 -1.174258254468441010e-02 -1.543018460273742676e+00 -4.664283096790313721e-01 -6.319814175367355347e-02
5.750000000000000000e+02 2.035766601562500000e+01 -6.888169288635253906e+00 6.460144184529781342e-03 -1.438281178474426270e+00 -4.295462965965270996e-01 -2.496221661567687988e-02
5.760000000000000000e+02 2.161658096313476562e+01 -1.108587265014648438e+01 -1.159845199435949326e-02 -1.246638536453247070e+00 -3.774710893630981445e-01 -3.293688967823982239e-02
5.770000000000000000e+02 2.663013458251953125e+01 -2.696162605285644531e+01 1.050677616149187088e-03 -1.227106973528862000e-01 -3.649800643324851990e-02 -3.037318959832191467e-02
5.780000000000000000e+02 3.405194473266601562e+01 -3.255542755126953125e+01 2.394472016021609306e-03 1.287640690803527832e+00 3.870105445384979248e-01 3.189641609787940979e-02
5.790000000000000000e+02 4.448836898803710938e+01 -3.618946456909179688e+01 -5.067063495516777039e-03 3.113411188125610352e+00 9.325032234191894531e-01 1.539269834756851196e-02
5.800000000000000000e+02 4.784215927124023438e+01 -4.070510482788085938e+01 -5.435412283986806870e-03 3.787699460983276367e+00 1.134679198265075684e+00 -1.506057567894458771e-03
5.810000000000000000e+02 5.314456558227539062e+01 -3.753194808959960938e+01 -1.908520609140396118e-02 4.755445003509521484e+00 1.420907974243164062e+00 3.469738177955150604e-03
5.820000000000000000e+02 6.239826965332031250e+01 -4.091934204101562500e+01 -3.738515544682741165e-03 6.449695587158203125e+00 1.933787107467651367e+00 -4.416466690599918365e-03
5.830000000000000000e+02 5.754510498046875000e+01 -4.090724563598632812e+01 -5.012044683098793030e-03 5.565570831298828125e+00 1.668167591094970703e+00 3.650306724011898041e-03
5.840000000000000000e+02 5.405083465576171875e+01 -3.074220085144042969e+01 -3.486192598938941956e-02 4.916663169860839844e+00 1.464540481567382812e+00 -4.303138237446546555e-03
5.850000000000000000e+02 5.936124801635742188e+01 -1.606856155395507812e+01 -1.188167110085487366e-01 5.959258079528808594e+00 1.752132415771484375e+00 -4.210586845874786377e-02
5.860000000000000000e+02 5.996326446533203125e+01 -1.083348369598388672e+01 -1.862685680389404297e-01 6.116086483001708984e+00 1.778945326805114746e+00 -6.033646687865257263e-02
5.870000000000000000e+02 5.176591873168945312e+01 -9.273887634277343750e+00 -1.897014826536178589e-01 4.627928256988525391e+00 1.331468105316162109e+00 8.570905029773712158e-02
5.880000000000000000e+02 4.796859359741210938e+01 -2.556333065032958984e+00 -1.740583777427673340e-01 3.952668428421020508e+00 1.133583068847656250e+00 2.157115936279296875e-01
5.890000000000000000e+02 3.895564270019531250e+01 -2.518123626708984375e+00 -1.970620267093181610e-02 2.040839910507202148e+00 6.063401103019714355e-01 1.808865368366241455e-01
5.900000000000000000e+02 2.712191200256347656e+01 -2.521550655364990234e+00 2.113287709653377533e-02 -2.742787003517150879e-01 -7.594374567270278931e-02 2.448260225355625153e-02
5.910000000000000000e+02 2.057097244262695312e+01 -2.679230690002441406e+00 -1.960338279604911804e-02 -1.548849701881408691e+00 -4.705359339714050293e-01 -8.892236649990081787e-02
5.920000000000000000e+02 2.032214927673339844e+01 -9.704670906066894531e+00 -1.857115514576435089e-02 -1.531183719635009766e+00 -4.649264514446258545e-01 -3.783048316836357117e-02
5.930000000000000000e+02 1.994150352478027344e+01 -1.674261283874511719e+01 6.618573330342769623e-03 -1.381561160087585449e+00 -4.124827980995178223e-01 -1.094779297709465027e-01
5.940000000000000000e+02 2.135184097290039062e+01 -1.675139999389648438e+01 8.272558450698852539e-03 -1.180433630943298340e+00 -3.516483008861541748e-01 -4.399030655622482300e-02
5.950000000000000000e+02 2.895119667053222656e+01 -3.121512794494628906e+01 -7.646224461495876312e-03 3.026832044124603271e-01 8.851109445095062256e-02 -2.270308695733547211e-02
5.960000000000000000e+02 3.779393005371093750e+01 -4.022400665283203125e+01 1.720614731311798096e-02 1.947628498077392578e+00 5.894503593444824219e-01 6.535430438816547394e-03
5.970000000000000000e+02 4.290914154052734375e+01 -4.030374526977539062e+01 3.595059737563133240e-03 2.822549819946289062e+00 8.478434681892395020e-01 7.048297207802534103e-03
5.980000000000000000e+02 1.318422222137451172e+01 -3.554785919189453125e+01 3.131086751818656921e-02 1.339104212820529938e-02 1.341057289391756058e-02 1.341420039534568787e-02
5.990000000000000000e+02 1.388744354248046875e+01 -3.429615020751953125e+01 2.151751518249511719e-02 1.404177211225032806e-02 1.066778600215911865e-02 -1.498328056186437607e-02
6.000000000000000000e+02 1.414011383056640625e+01 -3.297363662719726562e+01 -1.291645411401987076e-02 -2.192159881815314293e-03 -4.532583989202976227e-03 3.837794065475463867e-03
6.010000000000000000e+02 1.346819782257080078e+01 -2.732679748535156250e+01 7.429242599755525589e-03 -2.990820212289690971e-04 2.139048185199499130e-03 -1.732413773424923420e-03
6.020000000000000000e+02 1.936545252799987793e+00 -1.774944496154785156e+01 -2.910102484747767448e-03 -9.112375846598297358e-05 -9.003678569570183754e-04 -1.879343326436355710e-04
6.030000000000000000e+02 6.367959976196289062e-01 -2.339467048645019531e+01 3.358660964295268059e-03 -4.269836645107716322e-04 8.795031462796032429e-04 -8.497630915371701121e-05
6.040000000000000000e+02 1.440046787261962891e+01 -3.026182174682617188e+01 -1.050202921032905579e-02 -2.397338394075632095e-03 -3.869810141623020172e-03 2.883455017581582069e-03
6.050000000000000000e+02 1.300173187255859375e+01 -2.989049148559570312e+01 7.741607259958982468e-03 3.498487174510955811e-03 3.372028470039367676e-03 -3.425484290346503258e-03
6.060000000000000000e+02 1.422889137268066406e+01 -2.205933952331542969e+01 -4.466862883418798447e-03 -5.431083627627231181e-05 -1.356352120637893677e-03 1.136371793108992279e-04
6.070000000000000000e+02 1.451023483276367188e+01 -1.345649909973144531e+01 -2.945246873423457146e-03 -6.918737926753237844e-05 -9.043302852660417557e-04 4.073759773746132851e-04
6.080000000000000000e+02 1.460746097564697266e+01 -6.533004283905029297e+00 1.847628387622535229e-03 4.750977677758783102e-05 5.685414653271436691e-04 -1.195178847410716116e-04
6.090000000000000000e+02 1.460991859436035156e+01 -3.850320816040039062e+00 1.169351860880851746e-03 1.363973860861733556e-04 3.917247813660651445e-04 1.260654389625415206e-04
6.100000000000000000e+02 1.443335628509521484e+01 -2.832484722137451172e+00 -9.667646954767405987e-04 1.714111749606672674e-05 -2.848870644811540842e-04 -4.857638559769839048e-04
6.110000000000000000e+02 1.037031745910644531e+01 -2.613557815551757812e+00 -5.289712571538984776e-04 -3.563904028851538897e-04 -2.656084834598004818e-04 3.493084805086255074e-04
6.120000000000000000e+02 1.348608398437500000e+01 -1.054304790496826172e+01 2.314489800482988358e-03 1.008459876175038517e-04 7.246007444337010384e-04 -4.683762381318956614e-04
6.130000000000000000e+02 1.279987430572509766e+01 -1.880486106872558594e+01 3.169622039422392845e-03 1.447223621653392911e-04 9.943032637238502502e-04 -9.128492674790322781e-04
6.140000000000000000e+02 1.340580368041992188e+01 -2.507201766967773438e+01 5.390118807554244995e-03 6.061160238459706306e-04 1.798870391212403774e-03 -5.471351323649287224e-04
6.150000000000000000e+02 1.459907913208007812e+01 -2.621549606323242188e+01 1.054549030959606171e-02 -7.601047400385141373e-04 2.935615601018071175e-03 -6.572242127731442451e-04
6.160000000000000000e+02 1.110217285156250000e+01 -1.880118727684020996e+00 -4.603533598128706217e-04 -2.820565132424235344e-04 -2.227229706477373838e-04 2.898751408793032169e-04
6.170000000000000000e+02 4.231476306915283203e+00 -1.950064778327941895e+00 2.242011396447196603e-04 2.738515031524002552e-04 1.494157913839444518e-04 1.259082928299903870e-04
6.180000000000000000e+02 1.845494747161865234e+00 -1.042325592041015625e+01 1.955601619556546211e-03 -1.452608121326193213e-04 5.431022727862000465e-04 2.287225652253255248e-04
6.190000000000000000e+02 6.475900411605834961e-01 -1.774940490722656250e+01 2.647566376253962517e-03 -7.646656740689650178e-05 7.713299128226935863e-04 9.568675886839628220e-05
6.200000000000000000e+02 2.616798877716064453e+00 -3.804943847656250000e+01 2.600267529487609863e-03 8.672512136399745941e-03 3.381833899766206741e-03 5.924560595303773880e-03
6.210000000000000000e+02 2.134138298034667969e+01 -3.666246795654296875e+01 -1.242298781871795654e-01 -9.514653682708740234e-01 -3.227085769176483154e-01 -4.287908226251602173e-02
6.220000000000000000e+02 3.266156768798828125e+01 -4.040538024902343750e+01 4.434890300035476685e-02 9.467716813087463379e-01 2.973361611366271973e-01 1.540836878120899200e-02
6.230000000000000000e+02 2.594953727722167969e+01 -3.220124435424804688e+01 -5.091892182826995850e-02 -2.170025706291198730e-01 -8.037644624710083008e-02 -1.888362807221710682e-03
6.240000000000000000e+02 1.963506889343261719e+01 -3.081021881103515625e+01 -1.042005722410976887e-03 -1.465442776679992676e+00 -4.399454295635223389e-01 -1.725595444440841675e-02
6.250000000000000000e+02 6.691694641113281250e+01 -3.057017326354980469e+01 -1.475530583411455154e-02 7.332162380218505859e+00 2.195222139358520508e+00 -7.461798377335071564e-03
6.260000000000000000e+02 6.564395141601562500e+01 -2.849811744689941406e+01 -3.830639645457267761e-02 7.041974544525146484e+00 2.101100444793701172e+00 -3.906400501728057861e-02
6.270000000000000000e+02 6.284735107421875000e+01 -1.704016876220703125e+01 -9.009756147861480713e-02 6.562601566314697266e+00 1.941751241683959961e+00 -5.605426803231239319e-02
6.280000000000000000e+02 6.716147613525390625e+01 -4.101374435424804688e+01 -7.420337758958339691e-03 7.304350376129150391e+00 2.189079046249389648e+00 6.023090332746505737e-03
6.290000000000000000e+02 7.055744171142578125e+01 -3.829890441894531250e+01 8.641843684017658234e-03 7.988723754882812500e+00 2.399209737777709961e+00 -1.394877396523952484e-02
6.300000000000000000e+02 7.183087158203125000e+01 -3.092383575439453125e+01 -1.033394318073987961e-02 8.146552085876464844e+00 2.440865516662597656e+00 -2.841956354677677155e-02
6.310000000000000000e+02 7.268911743164062500e+01 -2.528002738952636719e+01 -7.445593830198049545e-03 8.304706573486328125e+00 2.489178180694580078e+00 -2.587223239243030548e-02
6.320000000000000000e+02 7.792459106445312500e+01 -4.165948104858398438e+01 6.927803158760070801e-02 9.320945739746093750e+00 2.817067146301269531e+00 1.944323629140853882e-02
6.330000000000000000e+02 7.736466217041015625e+01 -3.676406860351562500e+01 -2.172546461224555969e-02 9.218971252441406250e+00 2.759173870086669922e+00 2.287922240793704987e-02
6.340000000000000000e+02 7.925135803222656250e+01 -3.321595382690429688e+01 -1.901841489598155022e-03 9.544946670532226562e+00 2.862913608551025391e+00 6.228400161489844322e-05
6.350000000000000000e+02 7.805865478515625000e+01 -1.616975975036621094e+01 -4.317084327340126038e-03 9.263602256774902344e+00 2.777785539627075195e+00 -3.068292699754238129e-02
6.360000000000000000e+02 7.934230041503906250e+01 -1.235957908630371094e+01 -7.789204246364533901e-04 9.461505889892578125e+00 2.838218212127685547e+00 -2.631741389632225037e-02
6.370000000000000000e+02 7.265499877929687500e+01 -5.670549392700195312e+00 -8.364441245794296265e-02 8.185430526733398438e+00 2.430536031723022461e+00 -2.005840688943862915e-01
6.380000000000000000e+02 6.778665161132812500e+01 3.464587926864624023e+00 -3.358927667140960693e-01 7.565003395080566406e+00 2.168733119964599609e+00 -4.461262822151184082e-01
6.390000000000000000e+02 5.991436004638671875e+01 1.078100585937500000e+01 -7.136983871459960938e-01 7.211691856384277344e+00 1.949398040771484375e+00 -5.380371958017349243e-02
6.400000000000000000e+02 4.762864303588867188e+01 2.033516693115234375e+01 7.105239033699035645e-01 3.032179832458496094e+00 1.122811198234558105e+00 1.501501202583312988e+00
6.410000000000000000e+02 4.435928344726562500e+01 2.843315887451171875e+01 -3.250885903835296631e-01 2.168436944484710693e-01 -3.247346729040145874e-02 2.002172917127609253e-02
6.420000000000000000e+02 3.719386291503906250e+01 3.246527481079101562e+01 -1.050900220870971680e+00 4.676243290305137634e-02 -3.012413382530212402e-01 -5.896701663732528687e-02
6.430000000000000000e+02 3.572066497802734375e+01 3.275452423095703125e+01 -8.883217573165893555e-01 4.698134958744049072e-02 -2.524021267890930176e-01 -7.439573109149932861e-02
6.440000000000000000e+02 3.351597595214843750e+01 3.319028472900390625e+01 -6.573607325553894043e-01 4.408250749111175537e-02 -1.839834749698638916e-01 -8.769322931766510010e-02
6.450000000000000000e+02 7.802025604248046875e+01 -9.232780456542968750e+00 -6.457628682255744934e-03 9.160248756408691406e+00 2.746137142181396484e+00 -5.950757116079330444e-02
6.460000000000000000e+02 7.934047698974609375e+01 -5.394808769226074219e+00 -1.583064673468470573e-03 9.302032470703125000e+00 2.790134668350219727e+00 -4.201753437519073486e-02
6.470000000000000000e+02 7.292269134521484375e+01 1.316674351692199707e+00 -1.337796896696090698e-01 8.100623130798339844e+00 2.390053033828735352e+00 -3.603462576866149902e-01
6.480000000000000000e+02 6.673370361328125000e+01 1.043721866607666016e+01 -5.289741754531860352e-01 7.749479293823242188e+00 2.166151523590087891e+00 -6.937823891639709473e-01
6.490000000000000000e+02 6.054117584228515625e+01 1.830071640014648438e+01 -7.943480014801025391e-01 8.630061149597167969e+00 2.350713968276977539e+00 -2.276922166347503662e-01
6.500000000000000000e+02 5.033416748046875000e+01 2.864191436767578125e+01 1.328832983970642090e+00 1.003497242927551270e+00 6.996990442276000977e-01 1.777979612350463867e+00
6.510000000000000000e+02 4.229722595214843750e+01 3.081120491027832031e+01 -1.331198334693908691e+00 6.663389503955841064e-02 -3.793693482875823975e-01 -7.979980856180191040e-02
6.520000000000000000e+02 4.161532592773437500e+01 3.161825180053710938e+01 -1.530593872070312500e+00 4.119433090090751648e-02 -4.468198716640472412e-01 -1.428118674084544182e-03
6.530000000000000000e+02 3.940579986572265625e+01 3.204807281494140625e+01 -1.299913644790649414e+00 4.880705103278160095e-02 -3.753319680690765381e-01 -2.848024293780326843e-02
6.540000000000000000e+02 7.804560089111328125e+01 -2.263796567916870117e+00 -9.775152429938316345e-03 8.953007698059082031e+00 2.682969808578491211e+00 -1.080776154994964600e-01
6.550000000000000000e+02 7.935998535156250000e+01 2.962001800537109375e+00 -3.585611470043659210e-03 8.864583015441894531e+00 2.658299207687377930e+00 -7.262634485960006714e-02
6.560000000000000000e+02 7.330890655517578125e+01 1.095802021026611328e+01 -1.919889450073242188e-01 7.784502506256103516e+00 2.277754068374633789e+00 -7.381905913352966309e-01
6.570000000000000000e+02 6.732160186767578125e+01 1.532072162628173828e+01 -4.956977069377899170e-01 8.012208938598632812e+00 2.254953384399414062e+00 -9.868863224983215332e-01
6.580000000000000000e+02 5.675295257568359375e+01 2.945431518554687500e+01 3.492695569992065430e+00 1.684281539916992188e+01 6.100653171539306641e+00 -1.083342194557189941e+00
6.590000000000000000e+02 5.075104904174804688e+01 3.016658973693847656e+01 -1.210230886936187744e-01 2.173079252243041992e-01 2.888544835150241852e-02 8.389630317687988281e-01
6.600000000000000000e+02 4.946121978759765625e+01 2.979873085021972656e+01 -2.791029214859008789e-01 1.663133949041366577e-01 -3.383686020970344543e-02 6.345708966255187988e-01
6.610000000000000000e+02 4.755089950561523438e+01 3.060404586791992188e+01 -1.636414170265197754e+00 1.086339075118303299e-02 -4.876652359962463379e-01 1.624820977449417114e-01
6.620000000000000000e+02 4.532386398315429688e+01 3.094952964782714844e+01 -1.760100007057189941e+00 2.597799710929393768e-02 -5.202366113662719727e-01 7.868888974189758301e-02
6.630000000000000000e+02 7.809658050537109375e+01 4.683550834655761719e+00 -1.704716682434082031e-02 8.543741226196289062e+00 2.558008193969726562e+00 -1.897372901439666748e-01
6.640000000000000000e+02 7.937416839599609375e+01 8.531114578247070312e+00 -4.314462188631296158e-03 8.302612304687500000e+00 2.489489316940307617e+00 -1.038598790764808655e-01
6.650000000000000000e+02 7.346866607666015625e+01 1.505545711517333984e+01 -1.628244668245315552e-01 7.530829429626464844e+00 2.210401535034179688e+00 -9.221500158309936523e-01
6.660000000000000000e+02 6.779127502441406250e+01 2.439785575866699219e+01 4.225982427597045898e-01 8.125983238220214844e+00 2.564574241638183594e+00 -1.352836728096008301e+00
6.670000000000000000e+02 5.524906921386718750e+01 2.983330726623535156e+01 1.906430363655090332e+00 2.051887893676757812e+01 6.727592945098876953e+00 3.833506822586059570e+00
6.680000000000000000e+02 7.814531707763671875e+01 1.163625240325927734e+01 -1.778981648385524750e-02 7.792425155639648438e+00 2.332390546798706055e+00 -3.082886040210723877e-01
6.690000000000000000e+02 7.941871643066406250e+01 1.687393188476562500e+01 -4.658491350710391998e-03 6.860644340515136719e+00 2.056795835494995117e+00 -1.470843106508255005e-01
6.700000000000000000e+02 7.317115783691406250e+01 2.200988006591796875e+01 6.188228726387023926e-02 7.031373977661132812e+00 2.127976894378662109e+00 -1.115484714508056641e+00
6.710000000000000000e+02 5.865343856811523438e+01 3.163932037353515625e+01 5.807044029235839844e+00 1.245456886291503906e+01 5.478483676910400391e+00 7.915738821029663086e-01
6.720000000000000000e+02 5.657205963134765625e+01 3.178160285949707031e+01 1.018292236328125000e+01 1.732216262817382812e+01 8.251525878906250000e+00 2.367407321929931641e+00
6.730000000000000000e+02 5.651958084106445312e+01 3.090693855285644531e+01 1.002585506439208984e+01 1.759677696228027344e+01 8.286789894104003906e+00 -1.240265011787414551e+00
6.740000000000000000e+02 5.604138946533203125e+01 3.019458007812500000e+01 5.247248172760009766e+00 2.072247505187988281e+01 7.790916919708251953e+00 -1.285961031913757324e+00
6.750000000000000000e+02 7.828715515136718750e+01 1.852960205078125000e+01 -9.417857043445110321e-03 6.620353221893310547e+00 1.983280658721923828e+00 -3.937803506851196289e-01
6.760000000000000000e+02 7.942423248291015625e+01 2.378827857971191406e+01 7.505541667342185974e-03 5.258961677551269531e+00 1.579940080642700195e+00 -1.396948397159576416e-01
6.770000000000000000e+02 7.375654602050781250e+01 3.168780326843261719e+01 3.294831514358520508e-01 6.176777839660644531e+00 1.951878190040588379e+00 -4.227490723133087158e-01
6.780000000000000000e+02 6.240341949462890625e+01 3.815545654296875000e+01 -4.195168316364288330e-01 1.128483486175537109e+01 3.259595394134521484e+00 8.960790038108825684e-01
6.790000000000000000e+02 5.658071899414062500e+01 3.567527389526367188e+01 -9.363436698913574219e-01 1.371008396148681641e+01 3.832122087478637695e+00 -3.883911371231079102e-01
6.800000000000000000e+02 5.058289718627929688e+01 3.954350280761718750e+01 4.404012262821197510e-01 3.731709480285644531e+00 1.251633167266845703e+00 -7.797716259956359863e-01
6.810000000000000000e+02 4.986687088012695312e+01 3.494016265869140625e+01 4.958321526646614075e-02 8.758504986763000488e-01 2.776301205158233643e-01 -3.728843927383422852e-01
6.820000000000000000e+02 4.743251037597656250e+01 3.444456481933593750e+01 -1.032594561576843262e+00 -1.622258685529232025e-02 -3.146451413631439209e-01 4.839735329151153564e-01
6.830000000000000000e+02 4.956273269653320312e+01 3.406727218627929688e+01 -7.941792607307434082e-01 2.229253947734832764e-01 -1.713761538267135620e-01 1.186923384666442871e-01
6.840000000000000000e+02 5.014711380004882812e+01 3.392124938964843750e+01 -6.463870406150817871e-01 4.635810256004333496e-01 -5.484180897474288940e-02 -7.787502557039260864e-02
6.850000000000000000e+02 5.240804290771484375e+01 3.336950302124023438e+01 6.502448320388793945e-01 2.084569454193115234e+00 8.204442858695983887e-01 -2.043547868728637695e+00
6.860000000000000000e+02 5.536578369140625000e+01 3.300598144531250000e+01 3.195159137248992920e-01 2.119364929199218750e+01 6.453949451446533203e+00 -1.902053594589233398e+00
6.870000000000000000e+02 5.597713470458984375e+01 3.282280731201171875e+01 2.911683320999145508e+00 2.071089744567871094e+01 7.086774349212646484e+00 2.029534578323364258e+00
6.880000000000000000e+02 7.701364135742187500e+01 2.139800834655761719e+01 2.210992202162742615e-02 6.306173324584960938e+00 1.898485064506530762e+00 -6.385183334350585938e-01
6.890000000000000000e+02 7.948632812500000000e+01 2.925226783752441406e+01 6.381031125783920288e-03 4.195030212402343750e+00 1.260423302650451660e+00 -7.763347029685974121e-02
6.900000000000000000e+02 7.128630065917968750e+01 3.405337142944335938e+01 5.267462134361267090e-01 7.104007244110107422e+00 2.289226055145263672e+00 -1.273547857999801636e-01
6.910000000000000000e+02 7.937668609619140625e+01 3.200274276733398438e+01 7.057147100567817688e-03 3.926099061965942383e+00 1.179946899414062500e+00 -4.511779546737670898e-02
6.920000000000000000e+02 7.893180847167968750e+01 3.880177307128906250e+01 6.956549733877182007e-02 4.008295059204101562e+00 1.223358154296875000e+00 1.285961717367172241e-01
6.930000000000000000e+02 7.137599945068359375e+01 3.819941329956054688e+01 8.785732835531234741e-02 7.196455478668212891e+00 2.185293912887573242e+00 6.536003202199935913e-02
6.940000000000000000e+02 7.564849090576171875e+01 3.803423690795898438e+01 1.520356237888336182e-01 5.357601165771484375e+00 1.652891039848327637e+00 -1.533069927245378494e-02
6.950000000000000000e+02 4.485493469238281250e+01 3.657435607910156250e+01 2.234233543276786804e-02 -1.500553488731384277e-01 -3.831390291452407837e-02 5.136170387268066406e-01
6.960000000000000000e+02 4.452840423583984375e+01 3.514349746704101562e+01 -7.799907326698303223e-01 -1.830224096775054932e-01 -2.889039516448974609e-01 5.731921792030334473e-01
6.970000000000000000e+02 2.739796066284179688e+01 3.868244934082031250e+01 -9.609790868125855923e-04 -3.818437457084655762e-03 -1.433825003914535046e-03 3.748525865375995636e-03
6.980000000000000000e+02 2.415218162536621094e+01 3.862126922607421875e+01 1.232167123816907406e-03 -2.922106359619647264e-04 2.819869550876319408e-04 -3.790725953876972198e-03
6.990000000000000000e+02 2.237110328674316406e+01 3.842243576049804688e+01 1.721807522699236870e-03 6.436102557927370071e-04 7.096253102645277977e-04 -2.405671635642647743e-03
7.000000000000000000e+02 2.160345840454101562e+01 4.039862442016601562e+01 -1.635807566344738007e-03 1.251855515874922276e-03 -1.151856122305616736e-04 -1.884612021967768669e-03
7.010000000000000000e+02 2.097770881652832031e+01 3.803541946411132812e+01 1.805944484658539295e-03 3.296631912235170603e-04 6.406822940334677696e-04 -1.508306362666189671e-03
7.020000000000000000e+02 1.947359466552734375e+01 3.770960998535156250e+01 2.167345490306615829e-03 1.256270334124565125e-03 1.027084770612418652e-03 -1.443462329916656017e-03
7.030000000000000000e+02 1.845855474472045898e+00 2.609580993652343750e+01 2.043092899839393795e-05 -2.217922428826568648e-06 5.463901743496535346e-06 4.981089205102762207e-06
7.040000000000000000e+02 1.978339433670043945e+00 3.027868080139160156e+01 -1.745386907714419067e-05 -1.157320184574928135e-05 -8.708121640665922314e-06 3.791967174038290977e-06
7.050000000000000000e+02 4.080217361450195312e+00 3.643044662475585938e+01 -2.227673212473746389e-05 -3.021162228833418339e-05 -1.574650559632573277e-05 5.754252015321981162e-06
7.060000000000000000e+02 2.005258321762084961e+00 4.165090942382812500e+01 1.013734799926169217e-05 -3.608856786740943789e-05 -7.785366506141144782e-06 3.321637450426351279e-06
7.070000000000000000e+02 1.356265449523925781e+01 3.649589538574218750e+01 -8.629067451693117619e-05 3.412218939047306776e-05 -1.565054481034167111e-05 4.003759386250749230e-06
7.080000000000000000e+02 1.455290603637695312e+01 2.295682144165039062e+01 2.578424755483865738e-05 2.124709226336563006e-07 7.799016202625352889e-06 -1.427212851012882311e-06
7.090000000000000000e+02 1.451061820983886719e+01 1.737390708923339844e+01 2.314711127837654203e-05 4.717207104931731010e-07 7.085649940563598648e-06 -3.153606087380467216e-07
7.100000000000000000e+02 1.448422813415527344e+01 1.050416755676269531e+01 -1.533403701614588499e-05 3.349686039655352943e-07 -4.499720489548053592e-06 1.033920170812052675e-06
7.110000000000000000e+02 1.369388771057128906e+01 1.792656183242797852e+00 -1.048170815920457244e-06 -1.217909471051825676e-06 -6.798240974603686482e-07 -1.379097966491826810e-06
7.120000000000000000e+02 1.318540382385253906e+01 1.745246171951293945e+00 1.275702516068122350e-06 1.642856091166322585e-06 8.755675366955983918e-07 6.705585633426380809e-07
7.130000000000000000e+02 6.726015806198120117e-01 3.461304473876953125e+01 -1.867342507466673851e-05 -2.644282176333945245e-05 -1.353487459709867835e-05 4.484097644308349118e-06
7.140000000000000000e+02 6.268928647041320801e-01 2.760324287414550781e+01 1.694848288025241345e-05 -3.717301524375216104e-06 3.969354565924732015e-06 1.839193373598391190e-06
7.150000000000000000e+02 6.242508292198181152e-01 2.054832839965820312e+01 -1.992446595977526158e-05 4.218486537865828723e-07 -5.850784873473457992e-06 7.821732879165210761e-07
7.160000000000000000e+02 1.805332660675048828e+00 1.619622230529785156e+01 -1.868686194939073175e-05 1.888353011736398912e-07 -5.549407887883717194e-06 9.863941841103951447e-07
7.170000000000000000e+02 1.211575031280517578e+01 1.224221229553222656e+01 1.402270117978332564e-05 3.351821646901953500e-07 4.307365088607184589e-06 -5.421413789008511230e-07
7.180000000000000000e+02 1.335209846496582031e+01 1.604049873352050781e+01 2.000656604650430381e-05 7.734281552984612063e-07 6.233998192328726873e-06 4.433571518802637001e-07
7.190000000000000000e+02 1.212386894226074219e+01 1.869905853271484375e+01 -2.376680822635535151e-05 5.455744940263684839e-07 -6.966370165173429996e-06 -4.478494702198076993e-06
7.200000000000000000e+02 1.330109882354736328e+01 2.451132774353027344e+01 3.052118699997663498e-05 -2.507697672626818530e-06 8.404046639043372124e-06 -1.629110556677915156e-06
7.210000000000000000e+02 1.253035449981689453e+01 2.908013153076171875e+01 3.467556962277740240e-05 -2.576533006504178047e-06 9.629710802983026952e-06 -9.139840585703495890e-06
7.220000000000000000e+02 6.073493957519531250e-01 1.487547969818115234e+01 -1.679155684541910887e-05 2.403907828352203069e-08 -5.030255124438554049e-06 1.498413325862202328e-06
7.230000000000000000e+02 1.690348982810974121e+00 9.113380432128906250e+00 1.476761462981812656e-05 -1.258925749425543472e-06 4.052606527693569660e-06 -2.190035274907131679e-06
7.240000000000000000e+02 8.909934043884277344e+00 2.566518306732177734e+00 -3.052243073398130946e-06 -2.107843101839534938e-06 -1.548025807096564677e-06 -8.182588828731240937e-09
7.250000000000000000e+02 9.648208618164062500e+00 1.846667289733886719e+00 -2.381996182521106675e-06 -2.043203949142480269e-06 -1.327560084973811172e-06 2.008699766520294361e-07
7.260000000000000000e+02 1.092137932777404785e+00 3.782892704010009766e+00 -4.876916591456392780e-06 4.344349690654780716e-06 -1.597700247657485306e-07 -7.817304322088602930e-06
7.270000000000000000e+02 5.065726637840270996e-01 6.403975963592529297e+00 -1.271702512894989923e-05 -1.110851030716730747e-06 -4.148362677369732410e-06 8.941756277636159211e-07
7.280000000000000000e+02 3.677350044250488281e+00 3.762676715850830078e+00 -4.901817646896233782e-06 -3.488810534690856002e-06 -2.517188477213494480e-06 2.140599690392264165e-06
7.290000000000000000e+02 1.322255039215087891e+01 1.070051288604736328e+01 1.466666981286834925e-05 -5.623084007311263122e-07 4.231308139424072579e-06 -1.023670392896747217e-06
7.300000000000000000e+02 1.447649574279785156e+01 2.015099716186523438e+01 2.372912422288209200e-05 3.402331287816195982e-07 7.220806764962617308e-06 -9.310693371844536159e-07
7.310000000000000000e+02 1.559467601776123047e+01 3.132151985168457031e+01 4.553314647637307644e-05 -2.763915472314693034e-05 5.368197889765724540e-06 -2.534853774704970419e-05
7.320000000000000000e+02 1.532983493804931641e+01 2.994056701660156250e+01 -5.185902409721165895e-05 -1.672759572102222592e-05 -2.057598612736910582e-05 6.150992248876718804e-07
7.330000000000000000e+02 1.806707572937011719e+01 3.774291610717773438e+01 5.038654780946671963e-04 -4.857290605286834762e-06 1.497024495620280504e-04 -2.509374462533742189e-04
7.340000000000000000e+02 1.834779357910156250e+01 3.926619720458984375e+01 3.436330298427492380e-04 8.784925448708236217e-04 3.666376869659870863e-04 -7.233154028654098511e-04
7.350000000000000000e+02 1.948432540893554688e+01 4.004924011230468750e+01 -8.566739852540194988e-04 1.257905387319624424e-03 1.203694191644899547e-04 -1.098677166737616062e-03
7.360000000000000000e+02 1.214110755920410156e+01 4.128058624267578125e+01 6.294818740570917726e-05 1.662625872995704412e-04 6.876323459437116981e-05 1.249383240065071732e-05
7.370000000000000000e+02 1.985784149169921875e+01 3.776257324218750000e+01 1.416483544744551182e-03 5.153331439942121506e-04 5.795449833385646343e-04 -8.472132030874490738e-04
7.380000000000000000e+02 3.196892929077148438e+01 3.747262954711914062e+01 -2.706837467849254608e-02 -3.759988024830818176e-02 -1.940047554671764374e-02 5.184942111372947693e-02
7.390000000000000000e+02 3.573650360107421875e+01 3.657997131347656250e+01 -9.771685302257537842e-02 -1.110950335860252380e-01 -6.264356523752212524e-02 1.761584281921386719e-01
7.400000000000000000e+02 3.657691955566406250e+01 3.647359848022460938e+01 -1.665411889553070068e-01 -1.001648232340812683e-01 -8.001180738210678101e-02 2.123504877090454102e-01
7.410000000000000000e+02 4.063530349731445312e+01 3.589480972290039062e+01 -4.072081148624420166e-01 -1.826220899820327759e-01 -1.769490689039230347e-01 3.914556205272674561e-01
7.420000000000000000e+02 4.146314239501953125e+01 3.569341278076171875e+01 -4.858740270137786865e-01 -2.049402892589569092e-01 -2.072442919015884399e-01 4.183220863342285156e-01
7.430000000000000000e+02 3.062551116943359375e+01 2.932014846801757812e+01 -2.758342921733856201e-01 1.711935736238956451e-02 -7.761447876691818237e-02 -3.639688193798065186e-01
7.440000000000000000e+02 2.646994400024414062e+01 2.444711494445800781e+01 -1.238327659666538239e-02 -2.600536346435546875e-01 -8.173107355833053589e-02 -3.597569465637207031e-01
7.450000000000000000e+02 3.768409347534179688e+01 2.892290878295898438e+01 -5.224445462226867676e-01 1.386678814888000488e-01 -1.151330024003982544e-01 -3.494447767734527588e-01
7.460000000000000000e+02 4.429342269897460938e+01 2.776409530639648438e+01 -5.776745453476905823e-02 2.933398783206939697e-01 7.067172229290008545e-02 8.256411552429199219e-02
7.470000000000000000e+02 4.993519592285156250e+01 2.921468162536621094e+01 6.479735374450683594e-01 4.790385663509368896e-01 3.381036221981048584e-01 1.154688954353332520e+00
7.480000000000000000e+02 6.711793518066406250e+01 2.576943397521972656e+01 6.993761658668518066e-01 8.263911247253417969e+00 2.688986063003540039e+00 -1.296588420867919922e+00
7.490000000000000000e+02 7.355472564697265625e+01 2.404883766174316406e+01 1.547325551509857178e-01 6.738337993621826172e+00 2.067921161651611328e+00 -1.022789597511291504e+00
7.500000000000000000e+02 7.352975463867187500e+01 3.433987045288085938e+01 2.975404858589172363e-01 6.180268764495849609e+00 1.943342804908752441e+00 -2.254493981599807739e-01
7.510000000000000000e+02 5.853063583374023438e+01 3.226419448852539062e+01 5.325333118438720703e+00 1.287173175811767578e+01 5.459119319915771484e+00 1.552679538726806641e+00
7.520000000000000000e+02 3.288976669311523438e+01 1.540115737915039062e+01 2.684390544891357422e-01 3.372997939586639404e-01 1.817216575145721436e-01 -1.419525593519210815e-01
7.530000000000000000e+02 3.260210037231445312e+01 1.672727584838867188e+01 2.616975307464599609e-01 2.473084330558776855e-01 1.527017951011657715e-01 -2.010970562696456909e-01
7.540000000000000000e+02 4.488417053222656250e+01 2.122830963134765625e+01 8.123930096626281738e-01 1.763340830802917480e+00 7.727201581001281738e-01 9.204366803169250488e-01
7.550000000000000000e+02 4.964561462402343750e+01 2.199680328369140625e+01 7.490215897560119629e-01 3.832264661788940430e+00 1.374385833740234375e+00 2.047776937484741211e+00
7.560000000000000000e+02 5.985883712768554688e+01 2.012056541442871094e+01 -7.653775811195373535e-01 9.075349807739257812e+00 2.492991685867309570e+00 -1.161976456642150879e-01
7.570000000000000000e+02 6.599171447753906250e+01 1.650926780700683594e+01 -5.458146929740905762e-01 8.185039520263671875e+00 2.291767597198486328e+00 -9.660665988922119141e-01
7.580000000000000000e+02 7.339595031738281250e+01 1.644965744018554688e+01 -1.427737772464752197e-01 7.440201282501220703e+00 2.189228296279907227e+00 -9.914057254791259766e-01
7.590000000000000000e+02 2.700853919982910156e+01 1.620673370361328125e+01 9.361147880554199219e-02 -3.994444012641906738e-01 -9.174987673759460449e-02 -2.500284016132354736e-01
7.600000000000000000e+02 2.718907546997070312e+01 1.198363399505615234e+01 8.285869657993316650e-02 -3.951253890991210938e-01 -9.368000924587249756e-02 -1.526709347963333130e-01
7.610000000000000000e+02 2.725511169433593750e+01 3.196330964565277100e-01 1.485941279679536819e-02 -2.849852442741394043e-01 -8.103775233030319214e-02 2.192300930619239807e-02
7.620000000000000000e+02 2.601431083679199219e+01 3.199711561203002930e+00 4.657676443457603455e-03 -5.525813102722167969e-01 -1.643770933151245117e-01 -1.077749487012624741e-02
7.630000000000000000e+02 3.482069396972656250e+01 4.469729900360107422e+00 1.031079888343811035e-01 1.064097046852111816e+00 3.501615226268768311e-01 1.334652900695800781e-01
7.640000000000000000e+02 3.406757354736328125e+01 6.118378162384033203e+00 1.345923691987991333e-01 8.797966837882995605e-01 3.043167293071746826e-01 9.660015255212783813e-02
7.650000000000000000e+02 3.528097915649414062e+01 9.258838653564453125e+00 2.181457132101058960e-01 9.920061826705932617e-01 3.630455732345581055e-01 1.115658357739448547e-01
7.660000000000000000e+02 2.852569770812988281e+01 9.180463790893554688e+00 8.611796051263809204e-02 -1.613121330738067627e-01 -2.255825139582157135e-02 -8.269929885864257812e-02
7.670000000000000000e+02 4.018322372436523438e+01 8.107100486755371094e+00 1.818663477897644043e-01 2.044800043106079102e+00 6.679999232292175293e-01 3.364937007427215576e-01
7.680000000000000000e+02 3.977813339233398438e+01 1.305835723876953125e+01 3.774316012859344482e-01 1.613445043563842773e+00 5.972629785537719727e-01 3.411378562450408936e-01
7.690000000000000000e+02 4.614908218383789062e+01 1.198957633972167969e+01 1.656368374824523926e-01 3.368677616119384766e+00 1.060294270515441895e+00 7.913158535957336426e-01
7.700000000000000000e+02 5.767349624633789062e+01 1.120103454589843750e+01 -6.752331852912902832e-01 6.839513778686523438e+00 1.849284172058105469e+00 2.291967570781707764e-01
7.710000000000000000e+02 6.726580047607421875e+01 1.155866146087646484e+01 -5.107446312904357910e-01 7.816902637481689453e+00 2.191847324371337891e+00 -7.774919867515563965e-01
7.720000000000000000e+02 2.103505325317382812e+01 1.843757629394531250e+01 1.466862508095800877e-03 -1.053960680961608887e+00 -3.157481253147125244e-01 -4.056470096111297607e-02
7.730000000000000000e+02 2.104012107849121094e+01 1.703178977966308594e+01 2.334567951038479805e-03 -1.151866436004638672e+00 -3.448595702648162842e-01 -3.635891899466514587e-02
7.740000000000000000e+02 2.105483055114746094e+01 9.994714736938476562e+00 4.619687970262020826e-04 -1.491251707077026367e+00 -4.472369253635406494e-01 -1.636343263089656830e-02
7.750000000000000000e+02 2.100489997863769531e+01 4.342956066131591797e+00 -3.101839870214462280e-02 -1.695740342140197754e+00 -5.180276036262512207e-01 -7.782657444477081299e-02
7.760000000000000000e+02 2.104405975341796875e+01 5.759649753570556641e+00 -1.166177541017532349e-02 -1.655748009681701660e+00 -5.002229213714599609e-01 -3.081432543694972992e-02
7.770000000000000000e+02 4.802038192749023438e+01 1.535255074501037598e+00 -1.675218194723129272e-01 4.010166168212890625e+00 1.152793288230895996e+00 3.164499700069427490e-01
7.780000000000000000e+02 4.590043640136718750e+01 3.127182960510253906e+00 -8.857157826423645020e-02 3.492830753326416016e+00 1.021277785301208496e+00 3.668470680713653564e-01
7.790000000000000000e+02 5.930974960327148438e+01 2.601706027984619141e+00 -4.589463770389556885e-01 6.407307147979736328e+00 1.784508228302001953e+00 -5.308138951659202576e-02
7.800000000000000000e+02 6.614162445068359375e+01 1.917387962341308594e+00 -3.517178595066070557e-01 7.357412338256835938e+00 2.101708412170410156e+00 -3.592831790447235107e-01
7.810000000000000000e+02 7.202036285400390625e+01 4.120705127716064453e+00 -1.912311911582946777e-01 7.950441360473632812e+00 2.327763080596923828e+00 -4.758862853050231934e-01
7.820000000000000000e+02 2.105052566528320312e+01 1.281124114990234375e+01 1.288059051148593426e-03 -1.383493304252624512e+00 -4.146615564823150635e-01 -2.306597679853439331e-02
7.830000000000000000e+02 4.071235275268554688e+01 4.760546684265136719e+00 7.174973189830780029e-02 2.264624834060668945e+00 7.009123563766479492e-01 3.012889325618743896e-01
7.840000000000000000e+02 5.529600524902343750e+01 -3.903964281082153320e+00 -2.771299481391906738e-01 5.418791770935058594e+00 1.542498588562011719e+00 6.030334904789924622e-02
7.850000000000000000e+02 6.574230957031250000e+01 -7.925507545471191406e+00 -1.693795323371887207e-01 7.114820957183837891e+00 2.083632469177246094e+00 -1.632172018289566040e-01
7.860000000000000000e+02 7.139801025390625000e+01 -2.827906847000122070e+00 -1.267518848180770874e-01 7.975243568420410156e+00 2.354547500610351562e+00 -2.702498137950897217e-01
7.870000000000000000e+02 2.831908607482910156e+01 -3.718191385269165039e+00 1.380032207816839218e-02 -2.290970459580421448e-02 -2.732814522460103035e-03 3.084558807313442230e-02
7.880000000000000000e+02 2.783363914489746094e+01 -1.022131061553955078e+01 -1.048304047435522079e-02 -5.137196928262710571e-02 -1.855650357902050018e-02 2.868117205798625946e-02
7.890000000000000000e+02 4.178681945800781250e+01 -2.092157745361328125e+01 -4.407670348882675171e-02 2.675077199935913086e+00 7.893001437187194824e-01 5.075849965214729309e-02
7.900000000000000000e+02 5.142394256591796875e+01 -2.752482604980468750e+01 -4.923174157738685608e-02 4.458849430084228516e+00 1.322885274887084961e+00 1.379356253892183304e-02
7.910000000000000000e+02 5.758768463134765625e+01 -3.418645858764648438e+01 -2.438205294311046600e-02 5.564672946929931641e+00 1.662087202072143555e+00 -4.821616224944591522e-03
7.920000000000000000e+02 3.538245010375976562e+01 -1.517528414726257324e+00 2.190863154828548431e-02 1.303464174270629883e+00 3.976118266582489014e-01 1.426463723182678223e-01
7.930000000000000000e+02 3.372903060913085938e+01 -1.176817131042480469e+01 -3.038674034178256989e-02 1.094069123268127441e+00 3.191047012805938721e-01 7.753783464431762695e-02
7.940000000000000000e+02 4.295151519775390625e+01 -1.580660152435302734e+01 -7.042907923460006714e-02 2.904399156570434570e+00 8.501909971237182617e-01 7.304238528013229370e-02
7.950000000000000000e+02 5.679619598388671875e+01 -2.080619812011718750e+01 -8.782698214054107666e-02 5.460267066955566406e+00 1.611732006072998047e+00 -6.738343741744756699e-03
7.960000000000000000e+02 4.203381729125976562e+01 -3.416866064071655273e+00 -6.656768918037414551e-02 2.718739748001098633e+00 7.956516742706298828e-01 2.104950398206710815e-01
7.970000000000000000e+02 4.090138244628906250e+01 -8.250143051147460938e+00 -7.387793809175491333e-02 2.490845441818237305e+00 7.250902056694030762e-01 1.379313319921493530e-01
7.980000000000000000e+02 4.988971710205078125e+01 -1.599616050720214844e+01 -1.081213355064392090e-01 4.234895229339599609e+00 1.238032102584838867e+00 3.457197546958923340e-02
7.990000000000000000e+02 5.777969741821289062e+01 -1.732405471801757812e+01 -1.120267063379287720e-01 5.626304149627685547e+00 1.654283165931701660e+00 -1.477139070630073547e-02
8.000000000000000000e+02 6.754724121093750000e+01 -1.267440605163574219e+01 -9.088180214166641235e-02 7.390343189239501953e+00 2.189838409423828125e+00 -1.144153922796249390e-01
8.010000000000000000e+02 6.546140289306640625e+01 -1.238127326965332031e+01 -1.203479543328285217e-01 7.031658649444580078e+00 2.073393106460571289e+00 -1.009535267949104309e-01
8.020000000000000000e+02 7.123355102539062500e+01 -1.145722961425781250e+01 -6.605051457881927490e-02 8.007901191711425781e+00 2.382555246353149414e+00 -1.272328794002532959e-01
8.030000000000000000e+02 2.713529586791992188e+01 -1.286596870422363281e+01 -1.444807928055524826e-02 -1.508821398019790649e-01 -4.959906637668609619e-02 2.675990760326385498e-02
8.040000000000000000e+02 2.714768981933593750e+01 -1.695342445373535156e+01 -5.311321932822465897e-03 -9.730122238397598267e-02 -3.078376315534114838e-02 1.566544547677040100e-02
8.050000000000000000e+02 4.377709197998046875e+01 -3.106945610046386719e+01 -1.329897157847881317e-02 3.067613124847412109e+00 9.162942767143249512e-01 1.063501089811325073e-02
8.060000000000000000e+02 4.988683700561523438e+01 -3.366976928710937500e+01 -3.274967148900032043e-02 4.134585857391357422e+00 1.230550765991210938e+00 8.219000883400440216e-03
8.070000000000000000e+02 4.313077926635742188e+01 -6.734927177429199219e+00 -9.163145720958709717e-02 2.916173458099365234e+00 8.473625779151916504e-01 1.622252166271209717e-01
8.080000000000000000e+02 5.209919738769531250e+01 -1.413236808776855469e+01 -1.422944962978363037e-01 4.655288219451904297e+00 1.353898048400878906e+00 4.465780034661293030e-02
8.090000000000000000e+02 7.286604309082031250e+01 -1.919114303588867188e+01 -2.217167429625988007e-02 8.334038734436035156e+00 2.493560075759887695e+00 -5.541831627488136292e-02
8.100000000000000000e+02 7.144181060791015625e+01 -1.925370788574218750e+01 -3.154553100466728210e-02 8.086863517761230469e+00 2.416595458984375000e+00 -5.568270385265350342e-02
8.110000000000000000e+02 2.006939697265625000e+01 -1.534464645385742188e+01 -2.347946353256702423e-02 -1.480240941047668457e+00 -4.511161148548126221e-01 -1.182944551110267639e-01
8.120000000000000000e+02 2.882278823852539062e+01 -1.580138206481933594e+01 -8.769295178353786469e-03 2.018041610717773438e-01 5.791045725345611572e-02 3.133059293031692505e-02
8.130000000000000000e+02 3.762188339233398438e+01 -1.610788345336914062e+01 -5.214545130729675293e-02 1.826394796371459961e+00 5.322747826576232910e-01 7.945057749748229980e-02
8.140000000000000000e+02 4.828217697143554688e+01 -1.489201259613037109e+01 -1.133036389946937561e-01 3.887158393859863281e+00 1.132156491279602051e+00 6.829386949539184570e-02
8.150000000000000000e+02 2.739052200317382812e+01 -2.861077690124511719e+01 -1.063087675720453262e-02 1.943081431090831757e-02 2.639981219545006752e-03 -2.266375534236431122e-02
8.160000000000000000e+02 3.725037384033203125e+01 -2.446501350402832031e+01 -1.920072920620441437e-02 1.789365530014038086e+00 5.310494303703308105e-01 5.183606594800949097e-02
8.170000000000000000e+02 4.344433212280273438e+01 -2.665516853332519531e+01 -4.834226518869400024e-02 2.973101139068603516e+00 8.774276971817016602e-01 2.466514892876148224e-02
8.180000000000000000e+02 4.720705032348632812e+01 -2.582692718505859375e+01 -4.463933780789375305e-02 3.687644004821777344e+00 1.092901349067687988e+00 2.777804434299468994e-02
8.190000000000000000e+02 6.277128982543945312e+01 -2.664870071411132812e+01 -4.785356298089027405e-02 6.507330417633056641e+00 1.937843084335327148e+00 -1.577382721006870270e-02
8.200000000000000000e+02 3.699576950073242188e+01 -3.262334442138671875e+01 -1.726524531841278076e-02 1.731843590736389160e+00 5.143735408782958984e-01 4.506320506334304810e-02
8.210000000000000000e+02 7.284926605224609375e+01 -3.210266494750976562e+01 -1.374900713562965393e-02 8.349297523498535156e+00 2.500664710998535156e+00 -2.594385668635368347e-02
8.220000000000000000e+02 1.145428848266601562e+01 -3.078326225280761719e+01 6.672411691397428513e-03 6.565034389495849609e-03 3.971233963966369629e-03 -6.975201424211263657e-03
8.230000000000000000e+02 1.438040161132812500e+01 -1.766287803649902344e+01 3.133287886157631874e-03 5.137404514243826270e-05 9.553985437378287315e-04 -4.926731926389038563e-04
8.240000000000000000e+02 1.158662223815917969e+01 -1.712251663208007812e+01 2.815891290083527565e-03 3.156620368827134371e-04 9.394660010002553463e-04 -5.667553050443530083e-04
8.250000000000000000e+02 1.456996345520019531e+01 -1.067797756195068359e+01 -2.735257614403963089e-03 -4.081856968696229160e-05 -8.328228723257780075e-04 3.676687483675777912e-04
8.260000000000000000e+02 1.240493679046630859e+01 -1.039107608795166016e+01 -2.179122762754559517e-03 6.867977845104178414e-06 -6.516764406114816666e-04 4.561563255265355110e-04
8.270000000000000000e+02 6.187528371810913086e-01 -1.061122608184814453e+01 -1.867089536972343922e-03 8.340421118191443384e-06 -5.576247349381446838e-04 -1.581396209076046944e-04
8.280000000000000000e+02 1.308065509796142578e+01 9.345850944519042969e+00 -1.381224137730896473e-05 5.264506626190268435e-07 -3.985737293987767771e-06 2.783764045943826204e-07
8.290000000000000000e+02 2.624419212341308594e+01 3.433477020263671875e+01 -1.254497468471527100e-01 -1.031957333907485008e-03 -3.794451057910919189e-02 -6.628330051898956299e-02
8.300000000000000000e+02 2.470174217224121094e+01 3.442781829833984375e+01 -6.818812340497970581e-02 -1.172712445259094238e-02 -2.397457323968410492e-02 -4.718688130378723145e-02
8.310000000000000000e+02 2.093878746032714844e+01 2.964524269104003906e+01 -3.052534069865942001e-03 -1.500020772218704224e-01 -4.591638222336769104e-02 -2.905156277120113373e-02
8.320000000000000000e+02 2.095814895629882812e+01 2.825518035888671875e+01 -1.830678782425820827e-03 -2.414852678775787354e-01 -7.299478352069854736e-02 -3.597769886255264282e-02
8.330000000000000000e+02 2.212929916381835938e+01 2.418115997314453125e+01 -1.638787507545202971e-04 -5.156013369560241699e-01 -1.547295600175857544e-01 -1.394143998622894287e-01
8.340000000000000000e+02 2.100084877014160156e+01 2.405507850646972656e+01 -7.408288074657320976e-04 -5.866736173629760742e-01 -1.762243211269378662e-01 -4.781665280461311340e-02
8.350000000000000000e+02 2.102112007141113281e+01 2.124743270874023438e+01 5.052766064181923866e-04 -8.312743902206420898e-01 -2.492307275533676147e-01 -4.672604799270629883e-02
8.360000000000000000e+02 2.226064872741699219e+01 1.577091312408447266e+01 1.063778065145015717e-02 -1.042647480964660645e+00 -3.096028864383697510e-01 -9.912152588367462158e-02
8.370000000000000000e+02 2.104399871826171875e+01 1.562521553039550781e+01 1.753895892761647701e-03 -1.239633917808532715e+00 -3.713640272617340088e-01 -3.193411231040954590e-02
8.380000000000000000e+02 2.104753303527832031e+01 1.421838378906250000e+01 2.543298294767737389e-03 -1.316656708717346191e+00 -3.942340016365051270e-01 -2.714369818568229675e-02
8.390000000000000000e+02 2.228883171081542969e+01 1.154358005523681641e+01 7.388058118522167206e-03 -1.208626627922058105e+00 -3.603715598583221436e-01 -6.405053287744522095e-02
8.400000000000000000e+02 2.105469512939453125e+01 8.584856986999511719e+00 4.992562462575733662e-04 -1.537158370018005371e+00 -4.609977304935455322e-01 -1.541365310549736023e-02
8.410000000000000000e+02 2.105111885070800781e+01 7.173985481262207031e+00 -4.279495333321392536e-04 -1.581525921821594238e+00 -4.745861589908599854e-01 -1.548240054398775101e-02
8.420000000000000000e+02 2.223074722290039062e+01 4.429112911224365234e+00 -4.339437931776046753e-02 -1.336109161376953125e+00 -4.138510525226593018e-01 -5.469444766640663147e-02
8.430000000000000000e+02 2.091047477722167969e+01 2.933115005493164062e+00 -2.099590376019477844e-02 -1.628960847854614258e+00 -4.949870407581329346e-01 -1.185321286320686340e-01
8.440000000000000000e+02 2.078608322143554688e+01 1.534970402717590332e+00 -1.494596479460597038e-03 -1.513767838478088379e+00 -4.545787274837493896e-01 -1.146362721920013428e-01
8.450000000000000000e+02 2.068913078308105469e+01 1.383887380361557007e-01 2.167553268373012543e-02 -1.468810915946960449e+00 -4.341406226158142090e-01 -7.533013820648193359e-02
8.460000000000000000e+02 2.046647644042968750e+01 -4.081883907318115234e+00 4.554059356451034546e-03 -1.449319362640380859e+00 -4.334295988082885742e-01 -8.703274279832839966e-02
8.470000000000000000e+02 2.188792419433593750e+01 -2.628427743911743164e+00 -1.664334349334239960e-02 -1.239533305168151855e+00 -3.768529891967773438e-01 -3.922335803508758545e-02
8.480000000000000000e+02 2.034381103515625000e+01 -8.295679092407226562e+00 3.607230028137564659e-04 -1.488767385482788086e+00 -4.465219974517822266e-01 -1.834398135542869568e-02
8.490000000000000000e+02 2.022818565368652344e+01 -1.252342224121093750e+01 -6.261629518121480942e-03 -1.512921452522277832e+00 -4.557549357414245605e-01 -4.796976968646049500e-02
8.500000000000000000e+02 2.027127075195312500e+01 -1.111343097686767578e+01 4.314407706260681152e-03 -1.494876384735107422e+00 -4.471685886383056641e-01 -4.846010357141494751e-02
8.510000000000000000e+02 2.156537055969238281e+01 -1.250721931457519531e+01 -1.469100918620824814e-02 -1.241788268089294434e+00 -3.769437968730926514e-01 -5.964037030935287476e-02
8.520000000000000000e+02 1.977602195739746094e+01 -1.954705238342285156e+01 2.223591133952140808e-02 -1.333243727684020996e+00 -3.933023512363433838e-01 -4.759963229298591614e-02
8.530000000000000000e+02 2.128247451782226562e+01 -1.815176391601562500e+01 3.534787520766258240e-02 -1.155066013336181641e+00 -3.359154462814331055e-01 -4.878921434283256531e-02
8.540000000000000000e+02 1.971851348876953125e+01 -2.237682151794433594e+01 3.103452036157250404e-03 -1.389292478561401367e+00 -4.158567190170288086e-01 -4.295283928513526917e-02
8.550000000000000000e+02 1.966026496887207031e+01 -2.659678077697753906e+01 -8.342260844074189663e-04 -1.402227044105529785e+00 -4.209184050559997559e-01 -7.324608042836189270e-03
8.560000000000000000e+02 1.966350555419921875e+01 -2.518986892700195312e+01 8.536807261407375336e-03 -1.379483342170715332e+00 -4.112839400768280029e-01 -1.518700551241636276e-02
8.570000000000000000e+02 1.965057754516601562e+01 -2.941263580322265625e+01 -5.398291163146495819e-03 -1.437610507011413574e+00 -4.329026341438293457e-01 -1.055249944329261780e-02
8.580000000000000000e+02 1.962401580810546875e+01 -3.221171569824218750e+01 -1.489815860986709595e-02 -1.515816330909729004e+00 -4.592143297195434570e-01 -3.232898935675621033e-02
8.590000000000000000e+02 2.102978515625000000e+01 -3.223502731323242188e+01 -3.329598158597946167e-02 -1.231872677803039551e+00 -3.795505762100219727e-01 -8.066612482070922852e-02
8.600000000000000000e+02 1.964169883728027344e+01 -3.362766647338867188e+01 -3.065594285726547241e-02 -1.636037468910217285e+00 -5.000080466270446777e-01 -7.801049202680587769e-02
8.610000000000000000e+02 1.431677436828613281e+01 -3.162903594970703125e+01 1.212422735989093781e-02 1.989792508538812399e-04 3.696962026879191399e-03 -3.896008711308240891e-03
8.620000000000000000e+02 1.456398391723632812e+01 -2.755056953430175781e+01 -1.122475415468215942e-02 -1.231472124345600605e-03 -3.736868035048246384e-03 9.892327943816781044e-04
8.630000000000000000e+02 1.309895992279052734e+01 -2.382538795471191406e+01 -4.952213261276483536e-03 -4.441915079951286316e-04 -1.618921407498419285e-03 2.463951241225004196e-04
8.640000000000000000e+02 1.442109870910644531e+01 -2.349462699890136719e+01 6.298240739852190018e-03 -3.469719376880675554e-04 1.785380649380385876e-03 1.842388301156461239e-04
8.650000000000000000e+02 1.419028472900390625e+01 -2.055561828613281250e+01 3.490062663331627846e-03 -1.454872690374031663e-04 1.003372599370777607e-03 -2.168536011595278978e-04
8.660000000000000000e+02 1.295362663269042969e+01 -1.740701675415039062e+01 -2.942932303994894028e-03 -2.871254982892423868e-04 -9.690173319540917873e-04 7.083485834300518036e-04
8.670000000000000000e+02 1.442260742187500000e+01 -1.625401496887207031e+01 -2.991222776472568512e-03 -1.221539714606478810e-04 -9.340129909105598927e-04 4.596578364726155996e-04
8.680000000000000000e+02 1.458582878112792969e+01 -9.292562484741210938e+00 2.496613422408699989e-03 7.688203186262398958e-05 7.720486610196530819e-04 -3.158117760904133320e-04
8.690000000000000000e+02 1.255152130126953125e+01 -1.911978125572204590e+00 -2.980516583193093538e-04 -2.824642288032919168e-04 -1.741547603160142899e-04 1.900246279546990991e-04
8.700000000000000000e+02 1.302940654754638672e+01 -2.783407688140869141e+00 -3.904949699062854052e-05 -6.358440150506794453e-04 -2.024680434260517359e-04 4.560903180390596390e-04
8.710000000000000000e+02 1.428828716278076172e+01 -2.019095897674560547e+00 4.209765756968408823e-04 1.085675612557679415e-04 1.588632439961656928e-04 3.218882775399833918e-04
8.720000000000000000e+02 1.374145221710205078e+01 -2.024700403213500977e+00 -8.295474108308553696e-04 2.250849502161145210e-05 -2.421116660116240382e-04 2.032400225289165974e-04
8.730000000000000000e+02 1.318260574340820312e+01 -1.969554066658020020e+00 3.459943691268563271e-04 3.693476901389658451e-04 2.146026090485975146e-04 -4.556286730803549290e-04
8.740000000000000000e+02 1.183404827117919922e+01 -1.889567255973815918e+00 4.554153711069375277e-04 2.235460851807147264e-04 2.036884397966787219e-04 -1.998256775550544262e-04
8.750000000000000000e+02 9.609169006347656250e+00 -1.871057033538818359e+00 -4.100757359992712736e-04 -3.980880428571254015e-04 -2.424491394776850939e-04 2.283868816448375583e-04
8.760000000000000000e+02 1.036111068725585938e+01 -1.872616052627563477e+00 4.210655461065471172e-04 3.636072506196796894e-04 2.354018361074849963e-04 -2.820217632688581944e-04
8.770000000000000000e+02 8.848314285278320312e+00 -1.877599000930786133e+00 4.041590145789086819e-04 4.352765681687742472e-04 2.518306719139218330e-04 -1.970660669030621648e-04
8.780000000000000000e+02 7.316627025604248047e+00 -1.900722861289978027e+00 2.962710859719663858e-04 4.945554537698626518e-04 2.372479648329317570e-04 -5.968515324639156461e-05
8.790000000000000000e+02 5.773399829864501953e+00 -1.927767276763916016e+00 1.288048079004511237e-04 5.432022735476493835e-04 2.016021171584725380e-04 1.441802014596760273e-04
8.800000000000000000e+02 3.466576576232910156e+00 -1.959894895553588867e+00 -3.856823896057903767e-04 -1.183799176942557096e-04 -1.512187009211629629e-04 -9.650078573031350970e-05
8.810000000000000000e+02 5.001422405242919922e+00 -1.939005851745605469e+00 -7.119524525478482246e-05 -4.986893618479371071e-04 -1.709653733996674418e-04 -1.477633923059329391e-04
8.820000000000000000e+02 4.243671417236328125e+00 -2.865905523300170898e+00 -3.216696204617619514e-04 -4.338070575613528490e-04 -2.266430092277005315e-04 -2.891913754865527153e-04
8.830000000000000000e+02 2.704124689102172852e+00 -1.980527758598327637e+00 2.510931226424872875e-04 2.598484861664474010e-04 1.532824826426804066e-04 -8.970573617261834443e-06
8.840000000000000000e+02 1.942985415458679199e+00 -2.047058582305908203e+00 -2.022017870331183076e-04 -3.860308206640183926e-04 -1.764697808539494872e-04 -7.385543722193688154e-05
8.850000000000000000e+02 1.174648880958557129e+00 -2.133157491683959961e+00 6.741771940141916275e-04 2.593463577795773745e-04 2.800570800900459290e-04 2.166601043427363038e-04
8.860000000000000000e+02 2.031992197036743164e+00 -4.163894271850585938e+01 -2.725767204537987709e-03 1.494039315730333328e-02 3.664387855678796768e-03 8.470499888062477112e-04
8.870000000000000000e+02 4.894306659698486328e+00 -3.759341430664062500e+01 6.841357680968940258e-04 3.630668623372912407e-03 1.294441288337111473e-03 8.902734145522117615e-03
8.880000000000000000e+02 9.665088653564453125e-01 -3.871509552001953125e+01 -3.674143925309181213e-03 1.215331815183162689e-02 2.543752081692218781e-03 8.165916660800576210e-04
8.890000000000000000e+02 7.023158073425292969e-01 -3.462104034423828125e+01 2.999735530465841293e-03 5.021268036216497421e-03 2.406301209703087807e-03 1.441811560653150082e-03
8.900000000000000000e+02 6.819686889648437500e-01 -3.322865676879882812e+01 -2.856389619410037994e-03 2.657582284882664680e-03 -5.964220326859503984e-05 7.984297117218375206e-04
8.910000000000000000e+02 6.580872535705566406e-01 -2.902549743652343750e+01 3.312022425234317780e-03 -3.925097407773137093e-04 8.758538169786334038e-04 2.852058969438076019e-04
8.920000000000000000e+02 6.580713391304016113e-01 -2.762093353271484375e+01 -3.089644014835357666e-03 -6.852350197732448578e-04 -1.132463687099516392e-03 -5.526796303456649184e-05
8.930000000000000000e+02 6.501650214195251465e-01 -2.621244430541992188e+01 3.147379960864782333e-03 -5.180942825973033905e-04 7.887856918387115002e-04 -7.061534415697678924e-05
8.940000000000000000e+02 6.357377767562866211e-01 -2.198450851440429688e+01 -3.334863344207406044e-03 -2.937446406576782465e-04 -1.088582444936037064e-03 -6.567587843164801598e-05
8.950000000000000000e+02 6.357450485229492188e-01 -2.057388305664062500e+01 3.185323439538478851e-03 -2.177311107516288757e-04 8.902777335606515408e-04 2.980521639983635396e-05
8.960000000000000000e+02 1.900178670883178711e+00 -2.055677032470703125e+01 -3.371878294274210930e-03 -7.298555283341556787e-05 -1.033459091559052467e-03 -1.575711939949542284e-04
8.970000000000000000e+02 6.623499393463134766e-01 -1.633051872253417969e+01 -2.330012153834104538e-03 -5.895099457120522857e-05 -7.166889263316988945e-04 -1.446049427613615990e-04
8.980000000000000000e+02 6.797416210174560547e-01 -1.490179729461669922e+01 2.041420433670282364e-03 9.418397894478403032e-06 6.152516580186784267e-04 1.148491719504818320e-04
8.990000000000000000e+02 6.866388916969299316e-01 -1.346738338470458984e+01 -1.895075547508895397e-03 -3.706123607116751373e-05 -5.796410259790718555e-04 -1.083872994058765471e-04
9.000000000000000000e+02 2.070260286331176758e+00 -1.337221622467041016e+01 2.088026842102408409e-03 1.294114917982369661e-04 6.652314914390444756e-04 8.013439946807920933e-05
9.010000000000000000e+02 5.680724978446960449e-01 -9.194334030151367188e+00 1.845473772846162319e-03 -6.336698788800276816e-06 5.517411045730113983e-04 2.320342027815058827e-04
9.020000000000000000e+02 5.265784859657287598e-01 -7.787774085998535156e+00 -1.722174230962991714e-03 -3.088576340815052390e-05 -5.259179743006825447e-04 -2.837002102751284838e-04
9.030000000000000000e+02 4.978249073028564453e-01 -6.383122444152832031e+00 1.518131117336452007e-03 8.365685062017291784e-05 4.805364005733281374e-04 2.646962238941341639e-04
9.040000000000000000e+02 7.479735565185546875e+01 -4.042990493774414062e+01 2.912939153611660004e-02 8.767321586608886719e+00 2.638935327529907227e+00 -5.486771464347839355e-02
9.050000000000000000e+02 5.269093322753906250e+01 -4.086517715454101562e+01 -1.513246214017271996e-03 4.662624835968017578e+00 1.398333430290222168e+00 -1.144151785410940647e-03
9.060000000000000000e+02 1.129946231842041016e+01 -3.927727508544921875e+01 -2.616081759333610535e-02 -2.074619568884372711e-02 -1.407210435718297958e-02 2.749736234545707703e-02
9.070000000000000000e+02 7.861678314208984375e+01 4.017255020141601562e+01 1.012070178985595703e-01 4.206166744232177734e+00 1.292212128639221191e+00 2.218151390552520752e-01
9.080000000000000000e+02 7.806157684326171875e+01 4.171834182739257812e+01 -2.862588763236999512e-01 4.348054885864257812e+00 1.218538761138916016e+00 7.989808171987533569e-02
9.090000000000000000e+02 7.772097778320312500e+01 3.778882217407226562e+01 1.472020596265792847e-01 4.429810523986816406e+00 1.373103737831115723e+00 -3.773882286623120308e-03
9.100000000000000000e+02 7.925084686279296875e+01 3.479702377319335938e+01 -1.250232756137847900e-02 3.791027069091796875e+00 1.133557438850402832e+00 -4.244138300418853760e-02
9.110000000000000000e+02 7.630179595947265625e+01 3.442930603027343750e+01 9.455852955579757690e-02 5.139965534210205078e+00 1.570357203483581543e+00 -1.087962165474891663e-01
9.120000000000000000e+02 7.931152343750000000e+01 3.339231491088867188e+01 4.361639730632305145e-03 3.855482101440429688e+00 1.157953143119812012e+00 -3.317813202738761902e-02
9.130000000000000000e+02 7.943796539306640625e+01 3.062252998352050781e+01 6.557758431881666183e-03 4.034483432769775391e+00 1.212312340736389160e+00 -6.089474260807037354e-02
9.140000000000000000e+02 7.761366271972656250e+01 2.790924072265625000e+01 3.765190392732620239e-02 5.105715274810791016e+00 1.543010115623474121e+00 -3.702818155288696289e-01
9.150000000000000000e+02 7.949635314941406250e+01 2.652845382690429688e+01 1.532895583659410477e-02 4.662220478057861328e+00 1.403264760971069336e+00 -1.117020621895790100e-01
9.160000000000000000e+02 7.699229431152343750e+01 2.426015281677246094e+01 4.211290925741195679e-02 5.857549667358398438e+00 1.769898772239685059e+00 -5.900509357452392578e-01
9.170000000000000000e+02 7.945723724365234375e+01 2.516450500488281250e+01 2.793909516185522079e-04 4.956240177154541016e+00 1.486955881118774414e+00 -1.296357661485671997e-01
9.180000000000000000e+02 7.941223144531250000e+01 2.102771377563476562e+01 9.830000344663858414e-04 5.894275665283203125e+00 1.768577575683593750e+00 -1.545051485300064087e-01
9.190000000000000000e+02 7.942096710205078125e+01 1.964634132385253906e+01 -1.182318432256579399e-03 6.219758987426757812e+00 1.865572929382324219e+00 -1.526540219783782959e-01
9.200000000000000000e+02 7.826377868652343750e+01 1.988909721374511719e+01 1.738831517286598682e-03 6.349855422973632812e+00 1.905478358268737793e+00 -4.116973280906677246e-01
9.210000000000000000e+02 7.942500305175781250e+01 1.826264953613281250e+01 1.906261895783245564e-03 6.546089649200439453e+00 1.964398741722106934e+00 -1.532871574163436890e-01
9.220000000000000000e+02 7.939208984375000000e+01 1.410010910034179688e+01 -4.431583918631076813e-03 7.426459312438964844e+00 2.226608276367187500e+00 -1.366680711507797241e-01
9.230000000000000000e+02 7.938522338867187500e+01 1.270914649963378906e+01 -1.696751802228391171e-03 7.676782608032226562e+00 2.302525758743286133e+00 -1.295486837625503540e-01
9.240000000000000000e+02 7.938096618652343750e+01 1.131737327575683594e+01 -4.186642356216907501e-03 7.906428813934326172e+00 2.370672702789306641e+00 -1.213499456644058228e-01
9.250000000000000000e+02 7.937127685546875000e+01 7.139732837677001953e+00 -2.742173383012413979e-03 8.470126152038574219e+00 2.540215015411376953e+00 -9.581401944160461426e-02
9.260000000000000000e+02 7.936803436279296875e+01 5.747311592102050781e+00 -3.926946781575679779e-03 8.618833541870117188e+00 2.584471940994262695e+00 -8.752389252185821533e-02
9.270000000000000000e+02 7.936400604248046875e+01 4.356067657470703125e+00 -2.636730670928955078e-03 8.750054359436035156e+00 2.624225139617919922e+00 -8.014687150716781616e-02
9.280000000000000000e+02 7.935448455810546875e+01 1.799430549144744873e-01 -2.991053275763988495e-03 9.052501678466796875e+00 2.714853286743164062e+00 -6.050253286957740784e-02
9.290000000000000000e+02 7.935203552246093750e+01 -1.212397813796997070e+00 -1.973605714738368988e-03 9.128754615783691406e+00 2.738034248352050781e+00 -5.510605126619338989e-02
9.300000000000000000e+02 7.803102874755859375e+01 -3.653749465942382812e+00 -9.694597683846950531e-03 9.005321502685546875e+00 2.698688030242919922e+00 -9.673050791025161743e-02
9.310000000000000000e+02 7.934413146972656250e+01 -3.997866153717041016e+00 -1.944001996889710426e-03 9.252496719360351562e+00 2.775165796279907227e+00 -4.585570096969604492e-02
9.320000000000000000e+02 7.934284973144531250e+01 -8.179893493652343750e+00 -1.759291044436395168e-03 9.381744384765625000e+00 2.813995599746704102e+00 -3.462240099906921387e-02
9.330000000000000000e+02 7.802065277099609375e+01 -1.062221717834472656e+01 -5.827188026160001755e-03 9.186531066894531250e+00 2.754210948944091797e+00 -5.220136418938636780e-02
9.340000000000000000e+02 7.934197235107421875e+01 -1.096481037139892578e+01 -1.426239032298326492e-03 9.439069747924804688e+00 2.831292867660522461e+00 -2.860587835311889648e-02
9.350000000000000000e+02 7.934948730468750000e+01 -1.514008522033691406e+01 -1.187459914945065975e-03 9.496951103210449219e+00 2.848729133605957031e+00 -2.168416604399681091e-02
9.360000000000000000e+02 7.806410217285156250e+01 -1.754783058166503906e+01 -3.407628973945975304e-03 9.275052070617675781e+00 2.781493186950683594e+00 -2.663457579910755157e-02
9.370000000000000000e+02 7.935324859619140625e+01 -1.791894912719726562e+01 -1.069623278453946114e-03 9.519924163818359375e+00 2.855656385421752930e+00 -1.748102344572544098e-02
9.380000000000000000e+02 7.935518646240234375e+01 -2.346808433532714844e+01 -9.667421181802637875e-06 9.546552658081054688e+00 2.863962650299072266e+00 -1.285225804895162582e-02
9.390000000000000000e+02 7.806377410888671875e+01 -2.441709899902343750e+01 -2.482838463038206100e-03 9.306285858154296875e+00 2.791140794754028320e+00 -1.519272662699222565e-02
9.400000000000000000e+02 7.935140228271484375e+01 -2.485705375671386719e+01 -1.055499422363936901e-03 9.550850868225097656e+00 2.864938735961914062e+00 -1.135632488876581192e-02
9.410000000000000000e+02 7.932630920410156250e+01 -2.903508758544921875e+01 -7.568197179352864623e-05 9.555951118469238281e+00 2.866762638092041016e+00 -9.111047722399234772e-03
9.420000000000000000e+02 7.788593292236328125e+01 -3.135435867309570312e+01 -6.089807488024234772e-03 9.289274215698242188e+00 2.784955501556396484e+00 -7.319610565900802612e-03
9.430000000000000000e+02 7.928531646728515625e+01 -3.182144165039062500e+01 -1.276807975955307484e-03 9.553214073181152344e+00 2.865581274032592773e+00 -3.098867833614349365e-03
9.440000000000000000e+02 7.916045379638671875e+01 -3.597731399536132812e+01 -4.177319933660328388e-04 9.506251335144042969e+00 2.851750135421752930e+00 1.000013202428817749e-02
9.450000000000000000e+02 7.906822967529296875e+01 -3.735332107543945312e+01 -1.938622072339057922e-02 9.462008476257324219e+00 2.832786798477172852e+00 3.163812309503555298e-02
9.460000000000000000e+02 7.888829803466796875e+01 -3.872102737426757812e+01 1.922306371852755547e-03 9.407496452331542969e+00 2.822825431823730469e+00 3.784634172916412354e-02
9.470000000000000000e+02 7.855930328369140625e+01 -4.011095046997070312e+01 -2.201762050390243530e-02 9.348552703857421875e+00 2.797960758209228516e+00 5.532136559486389160e-02
9.480000000000000000e+02 4.881308555603027344e+00 4.048966979980468750e+01 -1.979323133127763867e-05 -4.561799505609087646e-05 -1.962336682481691241e-05 1.340617927780840546e-05
9.490000000000000000e+02 2.744458580017089844e+01 3.802092742919921875e+01 -5.040944670327007771e-04 -1.705912523902952671e-03 -6.630020798183977604e-04 2.376770135015249252e-03
9.500000000000000000e+02 4.683497619628906250e+01 3.828514099121093750e+01 7.475479841232299805e-01 6.706560254096984863e-01 4.254612028598785400e-01 1.231404840946197510e-01
9.510000000000000000e+02 6.842247772216796875e+01 3.826961898803710938e+01 5.320664495229721069e-02 8.445951461791992188e+00 2.549747467041015625e+00 2.884055972099304199e-01
9.520000000000000000e+02 6.662142276763916016e-01 3.015746116638183594e+00 5.929863618803210557e-06 -2.271207222293014638e-06 1.097596964427793864e-06 8.271655133285094053e-06
9.530000000000000000e+02 3.095146179199218750e+00 2.753417968750000000e+00 -4.629081558960024267e-06 -3.928087608073838055e-06 -2.567150886534363963e-06 8.786037710706295911e-07
9.540000000000000000e+02 5.279762744903564453e+00 2.699546813964843750e+00 2.382558704994153231e-06 3.457709226495353505e-06 1.752080379446852021e-06 -7.610879606545495335e-07
9.550000000000000000e+02 1.543426394462585449e+00 6.281347751617431641e+00 1.016763599182013422e-05 1.916750306918402202e-06 3.625315912358928472e-06 -2.939066234830534086e-06
9.560000000000000000e+02 5.620384216308593750e-01 9.229393959045410156e+00 -1.483262985857436433e-05 1.778637397364946082e-07 -4.396429631015053019e-06 1.219125465468096081e-06
9.570000000000000000e+02 6.117218732833862305e-01 1.204154777526855469e+01 -1.552592402731534094e-05 -2.506043585981387878e-07 -4.732958586828317493e-06 1.136074502028350253e-06
9.580000000000000000e+02 1.859008908271789551e+00 1.191003990173339844e+01 1.548432373965624720e-05 1.286613496631616727e-06 5.031281489209504798e-06 -8.272737090919690672e-07
9.590000000000000000e+02 6.070691347122192383e-01 1.629409027099609375e+01 1.777909346856176853e-05 3.816170988102385309e-07 5.448212959890952334e-06 -1.421772935827902984e-06
9.600000000000000000e+02 1.823949575424194336e+00 1.761658477783203125e+01 1.923450690810568631e-05 9.826015201497284579e-08 5.799829978059278801e-06 -8.153704129654215649e-07
9.610000000000000000e+02 6.127817630767822266e-01 1.771202278137207031e+01 -1.860600605141371489e-05 2.845403912488109199e-07 -5.496439825947163627e-06 1.138449306381517090e-06
9.620000000000000000e+02 6.220461130142211914e-01 2.196290969848632812e+01 2.040272556769195944e-05 6.651446256000781432e-07 6.320361080724978819e-06 -6.442367634917900432e-07
9.630000000000000000e+02 6.169267892837524414e-01 2.337559318542480469e+01 -2.068010871880687773e-05 2.611815546060825000e-07 -6.125678282842272893e-06 6.141219728306168690e-07
9.640000000000000000e+02 1.836107730865478516e+00 2.330233192443847656e+01 2.102666621794924140e-05 -6.283310653998341877e-07 6.119500540080480278e-06 1.679630599937809166e-06
9.650000000000000000e+02 6.148350834846496582e-01 2.478685569763183594e+01 2.011994729400612414e-05 -4.078799804574373411e-07 5.913620043429546058e-06 3.383398734513320960e-07
9.660000000000000000e+02 6.395460963249206543e-01 2.901120758056640625e+01 -1.540097764518577605e-05 -7.496492344216676429e-06 -6.869240678497590125e-06 1.118371301345177926e-06
9.670000000000000000e+02 6.502218842506408691e-01 3.041803550720214844e+01 1.406124283676035702e-05 -9.979426067729946226e-06 1.224545030709123239e-06 1.623579237275407650e-06
9.680000000000000000e+02 2.001497745513916016e+00 3.166898536682128906e+01 1.508127115812385455e-05 -7.198320417955983430e-06 2.364885176575626247e-06 5.436620995169505477e-06
9.690000000000000000e+02 6.556555628776550293e-01 3.182054901123046875e+01 -1.544571932754479349e-05 -1.733519457047805190e-05 -9.834274351305793971e-06 4.388827164802933112e-06
9.700000000000000000e+02 7.288383841514587402e-01 3.600156402587890625e+01 1.807293483579996973e-05 -3.041858508368022740e-05 -3.703695028889342211e-06 5.699725988961290568e-07
9.710000000000000000e+02 2.444053888320922852e+00 3.694847488403320312e+01 2.114547532983124256e-05 -1.727955896058119833e-05 1.159774797088175546e-06 4.853644895774777979e-06
9.720000000000000000e+02 9.820357561111450195e-01 3.873987197875976562e+01 2.100695019180420786e-05 -3.330313484184443951e-05 -3.688855031214188784e-06 -5.478390448843128979e-06
9.730000000000000000e+02 1.292641639709472656e+00 4.011483764648437500e+01 -2.110452624037861824e-05 -3.348387326695956290e-05 -1.637651985220145434e-05 2.496122760931029916e-06
9.740000000000000000e+02 1.038319110870361328e+01 1.824839472770690918e+00 2.430113681839429773e-06 1.913747610160498880e-06 1.303158455812081229e-06 -1.836101830576808425e-07
9.750000000000000000e+02 8.926749229431152344e+00 1.855951309204101562e+00 2.316460268048103899e-06 2.201018332925741561e-06 1.355243625766888727e-06 -2.901697371271438897e-07
9.760000000000000000e+02 8.207249641418457031e+00 1.861211538314819336e+00 -2.196013156208209693e-06 -2.404530277999583632e-06 -1.380163098474440631e-06 4.713222097052494064e-07
9.770000000000000000e+02 8.181193351745605469e+00 2.584980964660644531e+00 2.883466777348075993e-06 2.409477019682526588e-06 1.587883161846548319e-06 -2.765445685781742213e-07
9.780000000000000000e+02 7.490433692932128906e+00 1.867370367050170898e+00 2.296646016475278884e-06 2.607204578453092836e-06 1.471155201215879060e-06 -6.674727615063602570e-07
9.790000000000000000e+02 5.330565452575683594e+00 1.896456718444824219e+00 -1.970879566215444356e-06 -3.143542926409281790e-06 -1.534326770524785388e-06 1.159063344857713673e-06
9.800000000000000000e+02 4.605794429779052734e+00 1.909483551979064941e+00 2.247200200145016424e-06 3.231204800613340922e-06 1.643521500227507204e-06 -1.343561848443641793e-06
9.810000000000000000e+02 3.889380931854248047e+00 1.914341568946838379e+00 -2.948424025817075744e-06 -3.299801164757809602e-06 -1.874467557172465604e-06 1.440070263925008476e-06
9.820000000000000000e+02 3.185323476791381836e+00 1.904974341392517090e+00 3.957967237511184067e-06 3.024196075784857385e-06 2.094649062200915068e-06 -7.806199278093117755e-07
9.830000000000000000e+02 2.490662813186645508e+00 1.888108491897583008e+00 -3.378661631359136663e-06 -3.181261490681208670e-06 -1.967976913874736056e-06 -3.091622886586264940e-07
9.840000000000000000e+02 1.801707863807678223e+00 1.882052779197692871e+00 1.764457010722253472e-06 3.649002792371902615e-06 1.624037963665614370e-06 5.403967975325940643e-07
9.850000000000000000e+02 1.185722541809082031e+01 1.754492044448852539e+00 2.688921767912688665e-06 1.571303869241091888e-06 1.278067657040082850e-06 1.279223624806036241e-07
9.860000000000000000e+02 1.435422039031982422e+01 2.955781698226928711e+00 -9.279972914555401076e-07 -1.035395484905166086e-06 -5.890178158551861998e-07 3.099660034422413446e-06
9.870000000000000000e+02 1.458060073852539062e+01 3.778368711471557617e+00 5.855254130437970161e-06 1.069592599378665909e-06 2.077453927995520644e-06 -1.616076019672618713e-06
9.880000000000000000e+02 1.479311466217041016e+01 2.006027221679687500e+00 -3.922706582670798525e-06 -9.186470606437069364e-07 -1.452406081625667866e-06 -4.872999852523207664e-07
9.890000000000000000e+02 1.292856884002685547e+01 2.782108068466186523e+00 1.039439666783437133e-05 -3.114017772531951778e-06 2.184113782277563587e-06 1.566702167110634036e-06
9.900000000000000000e+02 1.452040863037109375e+01 6.376019477844238281e+00 9.427838449482806027e-06 6.435738697518900153e-08 2.847658606697223149e-06 -1.480573700973764062e-06
9.910000000000000000e+02 1.446815299987792969e+01 7.756717205047607422e+00 -1.066614277078770101e-05 -5.824446702717978042e-07 -3.374576408532448113e-06 1.346264639323635492e-06
9.920000000000000000e+02 1.445576953887939453e+01 9.133328437805175781e+00 1.287025588680990040e-05 3.058871129724138882e-07 3.952842689614044502e-06 -8.145107699419895653e-07
9.930000000000000000e+02 1.451068210601806641e+01 1.187862110137939453e+01 1.744757537380792201e-05 1.806746467991615646e-07 5.288475222187116742e-06 -1.364701574857463129e-06
9.940000000000000000e+02 1.452600002288818359e+01 1.325205612182617188e+01 -1.908687772811390460e-05 -6.535343288760486757e-08 -5.745669113821350038e-06 1.305502678405900951e-06
9.950000000000000000e+02 1.452910518646240234e+01 1.462545204162597656e+01 2.062075873254798353e-05 4.278368521681841230e-07 6.314578968158457428e-06 -9.481051392867811956e-07
9.960000000000000000e+02 1.452208995819091797e+01 1.599884414672851562e+01 -2.200753988290671259e-05 1.432333505135829910e-07 -6.559292160090990365e-06 6.790367592657275964e-07
9.970000000000000000e+02 1.321735954284667969e+01 2.014397811889648438e+01 -2.545721508795395494e-05 1.650405010877875611e-06 -7.142043159547029063e-06 8.700666853656002786e-08
9.980000000000000000e+02 1.448980998992919922e+01 2.155407905578613281e+01 -2.436530485283583403e-05 5.488589636115648318e-07 -7.144933988456614316e-06 1.114045971917221323e-06
9.990000000000000000e+02 1.478607082366943359e+01 2.576065826416015625e+01 3.236947668483480811e-05 -2.239159812233992852e-06 9.039094948093406856e-06 -3.697261490742675960e-06
1.000000000000000000e+03 1.316319465637207031e+01 2.305038452148437500e+01 -2.811183367157354951e-05 -5.736641810472065117e-07 -8.605648872617166489e-06 -7.544517188762256410e-07
1.001000000000000000e+03 1.492003726959228516e+01 2.716200828552246094e+01 -3.824353552772663534e-05 -4.108346274733776227e-06 -1.270556458621285856e-05 1.976026396732777357e-06
1.002000000000000000e+03 1.510703754425048828e+01 2.855577278137207031e+01 4.085736509296111763e-05 -9.096999747271183878e-06 9.528110240353271365e-06 -1.024212178890593350e-05
1.003000000000000000e+03 1.592921161651611328e+01 3.269002532958984375e+01 -7.106707926141098142e-05 -4.567981159198097885e-05 -3.502406616462394595e-05 -8.536180757801048458e-06
1.004000000000000000e+03 1.631980705261230469e+01 3.403524780273437500e+01 3.761330299312248826e-05 -6.195547757670283318e-05 -7.302652193175163120e-06 -5.630662781186401844e-05
1.005000000000000000e+03 1.529870986938476562e+01 3.586439132690429688e+01 5.517679892363958061e-05 3.168965849909000099e-05 2.605993722681887448e-05 -4.639573307940736413e-05
1.006000000000000000e+03 1.719312095642089844e+01 3.650334167480468750e+01 1.697204716037958860e-04 -1.289202191401273012e-04 1.224007883138256148e-05 -3.200349237886257470e-05
1.007000000000000000e+03 1.930410957336425781e+01 3.822396850585937500e+01 1.100614783354103565e-03 5.154270329512655735e-04 4.848125390708446503e-04 -1.132037490606307983e-03
1.008000000000000000e+03 2.161697769165039062e+01 3.824639892578125000e+01 1.524339197203516960e-03 4.511326551437377930e-04 5.926415324211120605e-04 -1.809391309507191181e-03
1.009000000000000000e+03 2.324129104614257812e+01 3.854788208007812500e+01 9.750439785420894623e-04 1.216732547618448734e-03 6.575329462066292763e-04 -2.645155880600214005e-03
1.010000000000000000e+03 2.516292762756347656e+01 3.866557312011718750e+01 1.596764894202351570e-03 -2.016723388805985451e-03 -1.259875716641545296e-04 -1.469689537771046162e-03
1.011000000000000000e+03 2.825275421142578125e+01 3.800743103027343750e+01 -9.204160887748003006e-04 -7.259510923177003860e-03 -2.453978173434734344e-03 4.230029881000518799e-03
1.012000000000000000e+03 2.906176376342773438e+01 3.787631225585937500e+01 -3.040403593331575394e-03 -8.646193891763687134e-03 -3.505979431793093681e-03 1.045224629342556000e-02
1.013000000000000000e+03 3.114269638061523438e+01 3.755287933349609375e+01 -1.657482609152793884e-02 -2.817648276686668396e-02 -1.342539209872484207e-02 3.619479760527610779e-02
1.014000000000000000e+03 3.351670837402343750e+01 3.722500228881835938e+01 -4.262771829962730408e-02 -6.593471020460128784e-02 -3.256873041391372681e-02 8.149857074022293091e-02
1.015000000000000000e+03 3.435374069213867188e+01 3.710137557983398438e+01 -6.358218938112258911e-02 -7.190550118684768677e-02 -4.064630717039108276e-02 1.072424352169036865e-01
1.016000000000000000e+03 3.574837493896484375e+01 3.734054565429687500e+01 -2.819634228944778442e-02 -1.598975807428359985e-01 -5.642817914485931396e-02 1.586870104074478149e-01
1.017000000000000000e+03 3.898361206054687500e+01 3.599311065673828125e+01 -3.331529498100280762e-01 -1.585982888936996460e-01 -1.475253701210021973e-01 3.043189346790313721e-01
1.018000000000000000e+03 3.976625061035156250e+01 3.601905059814453125e+01 -3.543653786182403564e-01 -1.675959229469299316e-01 -1.565883904695510864e-01 3.400821387767791748e-01
1.019000000000000000e+03 4.306891250610351562e+01 3.649353027343750000e+01 -1.744973510503768921e-01 -2.224499285221099854e-01 -1.190841868519783020e-01 4.733807146549224854e-01
1.020000000000000000e+03 4.300486755371093750e+01 3.535735702514648438e+01 -5.910284519195556641e-01 -2.300108969211578369e-01 -2.463117986917495728e-01 5.027683973312377930e-01
1.021000000000000000e+03 4.376243591308593750e+01 3.526729965209960938e+01 -6.595320701599121094e-01 -1.811624765396118164e-01 -2.522083818912506104e-01 5.692349672317504883e-01
1.022000000000000000e+03 4.527436065673828125e+01 3.494720840454101562e+01 -8.734489679336547852e-01 -1.735873371362686157e-01 -3.141109049320220947e-01 5.882642269134521484e-01
1.023000000000000000e+03 4.599449157714843750e+01 3.473731231689453125e+01 -9.371287226676940918e-01 -5.913311243057250977e-02 -2.988785505294799805e-01 5.499270558357238770e-01
1.024000000000000000e+03 4.817123413085937500e+01 3.434606933593750000e+01 -9.821612834930419922e-01 2.361445873975753784e-02 -2.875640392303466797e-01 3.513332903385162354e-01
1.025000000000000000e+03 4.890336227416992188e+01 3.421628189086914062e+01 -8.879375457763671875e-01 9.274011850357055664e-02 -2.385592311620712280e-01 2.826004922389984131e-01
1.026000000000000000e+03 5.071444702148437500e+01 3.378105926513671875e+01 -5.494796037673950195e-01 6.252833604812622070e-01 2.274112775921821594e-02 -4.222406744956970215e-01
1.027000000000000000e+03 5.093805313110351562e+01 3.439523315429687500e+01 1.964770555496215820e-01 1.332600593566894531e+00 4.587233066558837891e-01 -9.443445205688476562e-01
1.028000000000000000e+03 5.182065200805664062e+01 3.353667449951171875e+01 1.360624134540557861e-01 1.276844143867492676e+00 4.238719642162322998e-01 -1.284265160560607910e+00
1.029000000000000000e+03 5.575600433349609375e+01 3.288121032714843750e+01 1.779808402061462402e+00 2.146068382263183594e+01 6.972147941589355469e+00 9.329190850257873535e-01
1.030000000000000000e+03 5.636360168457031250e+01 3.245623779296875000e+01 6.007635593414306641e+00 1.927498245239257812e+01 7.584785461425781250e+00 3.351146459579467773e+00
1.031000000000000000e+03 5.644456863403320312e+01 3.221638870239257812e+01 7.737291812896728516e+00 1.862591552734375000e+01 7.908962249755859375e+00 3.433021068572998047e+00
1.032000000000000000e+03 5.651290512084960938e+01 3.199789810180664062e+01 9.075686454772949219e+00 1.794396591186523438e+01 8.105895996093750000e+00 3.094455242156982422e+00
1.033000000000000000e+03 5.662384033203125000e+01 3.155779457092285156e+01 1.063777065277099609e+01 1.693462753295898438e+01 8.271719932556152344e+00 1.370650053024291992e+00
1.034000000000000000e+03 5.632033920288085938e+01 3.052385139465332031e+01 7.893676280975341797e+00 1.920625877380371094e+01 8.129980087280273438e+00 -1.913334250450134277e+00
1.035000000000000000e+03 5.587940979003906250e+01 3.003049659729003906e+01 3.866350173950195312e+00 2.095056724548339844e+01 7.445075035095214844e+00 -2.594884932041168213e-01
1.036000000000000000e+03 5.533517837524414062e+01 2.958381080627441406e+01 1.625441789627075195e+00 1.932614707946777344e+01 6.285476684570312500e+00 3.315631389617919922e+00
1.037000000000000000e+03 5.383398818969726562e+01 2.992186737060546875e+01 4.672479152679443359e+00 6.984790325164794922e+00 3.497180938720703125e+00 6.987296581268310547e+00
1.038000000000000000e+03 5.418999099731445312e+01 2.990432167053222656e+01 3.950826883316040039e+00 1.066290664672851562e+01 4.384119987487792969e+00 7.958523273468017578e+00
1.039000000000000000e+03 5.341789245605468750e+01 2.992889595031738281e+01 4.132794857025146484e+00 4.356880187988281250e+00 2.546902656555175781e+00 5.459533214569091797e+00
1.040000000000000000e+03 5.281531143188476562e+01 2.999566650390625000e+01 3.244774580001831055e+00 1.910204887390136719e+00 1.546493887901306152e+00 3.511755704879760742e+00
1.041000000000000000e+03 5.239321899414062500e+01 3.000636100769042969e+01 2.368080615997314453e+00 1.293578982353210449e+00 1.098497867584228516e+00 2.626126050949096680e+00
1.042000000000000000e+03 5.218361663818359375e+01 3.002651596069335938e+01 1.876038551330566406e+00 8.765744566917419434e-01 8.257839083671569824e-01 2.176821947097778320e+00
1.043000000000000000e+03 4.828223037719726562e+01 3.049254798889160156e+01 -1.442584872245788574e+00 3.816840937361121178e-03 -4.316304028034210205e-01 2.404248416423797607e-01
1.044000000000000000e+03 4.956331634521484375e+01 3.031850624084472656e+01 -9.972907900810241699e-01 1.082838885486125946e-02 -2.959387302398681641e-01 4.662871956825256348e-01
1.045000000000000000e+03 5.016234970092773438e+01 3.024381828308105469e+01 -6.660792827606201172e-01 1.082967221736907959e-01 -1.673347651958465576e-01 6.457648277282714844e-01
1.046000000000000000e+03 4.681116867065429688e+01 3.071576690673828125e+01 -1.718969941139221191e+00 2.253031358122825623e-02 -5.089319348335266113e-01 1.340820044279098511e-01
1.047000000000000000e+03 4.606766510009765625e+01 3.082985115051269531e+01 -1.754735708236694336e+00 2.325912378728389740e-02 -5.194429755210876465e-01 1.014786362648010254e-01
1.048000000000000000e+03 4.235277557373046875e+01 3.147427749633789062e+01 -1.596910715103149414e+00 3.489347919821739197e-02 -4.686051607131958008e-01 1.218989863991737366e-02
1.049000000000000000e+03 4.309397506713867188e+01 3.133567047119140625e+01 -1.656186461448669434e+00 3.268474712967872620e-02 -4.870505332946777344e-01 2.521117404103279114e-02
1.050000000000000000e+03 4.383776092529296875e+01 3.120357322692871094e+01 -1.706488370895385742e+00 2.895840257406234741e-02 -5.032590031623840332e-01 4.195024818181991577e-02
1.051000000000000000e+03 4.087851715087890625e+01 3.176272010803222656e+01 -1.460992217063903809e+00 4.605043306946754456e-02 -4.244825541973114014e-01 -1.034150272607803345e-02
1.052000000000000000e+03 4.014214706420898438e+01 3.190669250488281250e+01 -1.381189107894897461e+00 4.937186837196350098e-02 -3.995451629161834717e-01 -1.835183799266815186e-02
1.053000000000000000e+03 3.645673751831054688e+01 3.260829162597656250e+01 -9.686682820320129395e-01 4.562956094741821289e-02 -2.769116163253784180e-01 -6.697390228509902954e-02
1.054000000000000000e+03 3.793144607543945312e+01 3.232574462890625000e+01 -1.132380008697509766e+00 4.609261453151702881e-02 -3.258862197399139404e-01 -4.878871142864227295e-02
1.055000000000000000e+03 3.935934829711914062e+01 3.137702560424804688e+01 -1.148969769477844238e+00 7.530381530523300171e-02 -3.220997750759124756e-01 -1.217428445816040039e-01
1.056000000000000000e+03 3.498502349853515625e+01 3.290095901489257812e+01 -8.101037740707397461e-01 4.663543403148651123e-02 -2.290405035018920898e-01 -7.959310710430145264e-02
1.057000000000000000e+03 3.424943542480468750e+01 3.304673004150390625e+01 -7.318987846374511719e-01 4.657071828842163086e-02 -2.055984139442443848e-01 -8.361717313528060913e-02
1.058000000000000000e+03 3.132528305053710938e+01 3.360907745361328125e+01 -4.535085260868072510e-01 3.617753833532333374e-02 -1.251993030309677124e-01 -9.240216761827468872e-02
1.059000000000000000e+03 3.278499221801757812e+01 3.333150863647460938e+01 -5.856487751007080078e-01 4.261373728513717651e-02 -1.629105061292648315e-01 -9.040046483278274536e-02
1.060000000000000000e+03 2.913913726806640625e+01 3.397330093383789062e+01 -2.860813736915588379e-01 2.153294719755649567e-02 -7.936452329158782959e-02 -8.869436383247375488e-02
1.061000000000000000e+03 2.841049385070800781e+01 3.408406066894531250e+01 -2.389488220214843750e-01 1.651251874864101410e-02 -6.673089414834976196e-02 -8.485621958971023560e-02
1.062000000000000000e+03 2.768712806701660156e+01 3.418022537231445312e+01 -1.964711099863052368e-01 1.063204929232597351e-02 -5.575171858072280884e-02 -8.014503121376037598e-02
1.063000000000000000e+03 2.380881881713867188e+01 3.441545486450195312e+01 -4.357968643307685852e-02 -1.487085595726966858e-02 -1.753516308963298798e-02 -3.505204990506172180e-02
1.064000000000000000e+03 5.620916748046875000e+01 3.268965911865234375e+01 4.322916030883789062e+00 2.002738189697265625e+01 7.305089473724365234e+00 2.869456052780151367e+00
1.065000000000000000e+03 5.551998519897460938e+01 2.961643218994140625e+01 1.807581424713134766e+00 1.992720413208007812e+01 6.520435333251953125e+00 2.290015459060668945e+00
1.066000000000000000e+03 5.661110305786132812e+01 3.133578681945800781e+01 1.082021045684814453e+01 1.689306831359863281e+01 8.313983917236328125e+00 5.656138658523559570e-01
1.067000000000000000e+03 5.567422103881835938e+01 2.992438316345214844e+01 2.934626817703247070e+00 2.111968994140625000e+01 7.216295242309570312e+00 7.853673696517944336e-01
1.068000000000000000e+03 5.555931472778320312e+01 3.294573593139648438e+01 9.182018041610717773e-01 2.173397254943847656e+01 6.795652389526367188e+00 -3.739243447780609131e-01
1.069000000000000000e+03 5.644533920288085938e+01 3.070130920410156250e+01 9.072103500366210938e+00 1.827684020996093750e+01 8.204683303833007812e+00 -1.715414762496948242e+00
1.070000000000000000e+03 5.687408828735351562e+01 3.235146713256835938e+01 6.880044460296630859e+00 1.692491912841796875e+01 7.141488552093505859e+00 3.015721321105957031e+00
1.071000000000000000e+03 5.655359268188476562e+01 3.112474632263183594e+01 1.081855773925781250e+01 1.719456672668457031e+01 8.403937339782714844e+00 -4.466085135936737061e-01
1.072000000000000000e+03 5.483480072021484375e+01 2.971934127807617188e+01 2.050492763519287109e+00 1.733287429809570312e+01 5.815010070800781250e+00 6.196536064147949219e+00
1.073000000000000000e+03 5.618698501586914062e+01 3.035622596740722656e+01 6.714138031005859375e+00 2.000957489013671875e+01 8.017113685607910156e+00 -1.797588229179382324e+00
1.074000000000000000e+03 5.279429244995117188e+01 3.337437438964843750e+01 1.157315611839294434e+00 2.740430831909179688e+00 1.169323921203613281e+00 -2.780523300170898438e+00
1.075000000000000000e+03 5.358911895751953125e+01 3.323431396484375000e+01 1.909621834754943848e+00 5.789208412170410156e+00 2.309648990631103516e+00 -4.743038177490234375e+00
1.076000000000000000e+03 5.358016586303710938e+01 3.350501251220703125e+01 1.608928561210632324e+00 6.391421318054199219e+00 2.400104999542236328e+00 -4.693219661712646484e+00
1.077000000000000000e+03 5.220106124877929688e+01 3.344299697875976562e+01 4.674494564533233643e-01 1.560968160629272461e+00 6.085252761840820312e-01 -1.727107405662536621e+00
1.078000000000000000e+03 5.405401611328125000e+01 3.357976531982421875e+01 1.134449839591979980e+00 9.642630577087402344e+00 3.233124256134033203e+00 -5.458565711975097656e+00
1.079000000000000000e+03 5.321940231323242188e+01 3.327461624145507812e+01 1.707216978073120117e+00 3.941515684127807617e+00 1.694619774818420410e+00 -3.789727210998535156e+00
1.080000000000000000e+03 5.339635467529296875e+01 3.323241806030273438e+01 1.932069301605224609e+00 4.611854553222656250e+00 1.963177204132080078e+00 -4.265494346618652344e+00
1.081000000000000000e+03 5.497570419311523438e+01 3.306806564331054688e+01 2.411013543605804443e-01 1.870359039306640625e+01 5.683407783508300781e+00 -4.466246604919433594e+00
1.082000000000000000e+03 5.458432388305664062e+01 3.310328674316406250e+01 8.936746120452880859e-01 1.485497093200683594e+01 4.724593639373779297e+00 -6.029838085174560547e+00
1.083000000000000000e+03 5.461683273315429688e+01 3.333177566528320312e+01 4.933322668075561523e-01 1.467182254791259766e+01 4.549546241760253906e+00 -5.434885025024414062e+00
1.084000000000000000e+03 5.402061462402343750e+01 2.993285942077636719e+01 4.454535484313964844e+00 8.887369155883789062e+00 4.002571582794189453e+00 7.753974914550781250e+00
1.085000000000000000e+03 5.389553070068359375e+01 2.968742561340332031e+01 3.817293643951416016e+00 8.475622177124023438e+00 3.687874794006347656e+00 6.982976913452148438e+00
1.086000000000000000e+03 5.362874221801757812e+01 2.990604209899902344e+01 4.400414466857910156e+00 5.466599464416503906e+00 2.960104227066040039e+00 6.058630466461181641e+00
1.087000000000000000e+03 5.321316528320312500e+01 2.997327041625976562e+01 3.930558443069458008e+00 3.139712572097778320e+00 2.121081352233886719e+00 4.692494869232177734e+00
1.088000000000000000e+03 5.173452758789062500e+01 3.006214523315429688e+01 1.079196095466613770e+00 5.622481703758239746e-01 4.924332797527313232e-01 1.649223446846008301e+00
1.089000000000000000e+03 5.260271072387695312e+01 2.998149299621582031e+01 2.773318767547607422e+00 1.527045965194702148e+00 1.290109395980834961e+00 3.025069713592529297e+00
1.090000000000000000e+03 5.437106704711914062e+01 2.981550407409667969e+01 3.248504638671875000e+00 1.258615398406982422e+01 4.750397682189941406e+00 7.633422851562500000e+00
1.091000000000000000e+03 2.035198783874511719e+01 3.786338806152343750e+01 1.793808885850012302e-03 4.053530574310570955e-04 6.597485626116394997e-04 -1.043261843733489513e-03
1.092000000000000000e+03 1.420841312408447266e+01 1.871640801429748535e+00 1.373829718431807123e-06 9.616741181162069552e-07 7.006511282270366792e-07 -7.986076866473013069e-08
1.093000000000000000e+03 1.256973743438720703e+01 1.735850811004638672e+00 -2.138153604391845874e-06 -1.141889583777810913e-06 -9.840130132943158969e-07 -6.624597403970255982e-08
1.094000000000000000e+03 5.042884826660156250e+01 3.465239715576171875e+01 6.485641002655029297e-02 1.117058992385864258e+00 3.545746207237243652e-01 -6.581631302833557129e-01
1.095000000000000000e+03 5.127666091918945312e+01 3.365261840820312500e+01 -3.045387566089630127e-01 8.710737824440002441e-01 1.699604988098144531e-01 -7.651753425598144531e-01
1.096000000000000000e+03 5.258993530273437500e+01 3.334721374511718750e+01 9.383153915405273438e-01 2.127332925796508789e+00 9.196944832801818848e-01 -2.414568901062011719e+00
1.097000000000000000e+03 5.144248199462890625e+01 3.418022918701171875e+01 3.513016700744628906e-01 1.669555068016052246e+00 6.062570214271545410e-01 -1.454658389091491699e+00
1.098000000000000000e+03 4.895362091064453125e+01 3.039608192443847656e+01 -1.214850187301635742e+00 3.575775772333145142e-02 -3.537277281284332275e-01 3.492961227893829346e-01
1.099000000000000000e+03 5.060725402832031250e+01 2.966160583496093750e+01 6.002593040466308594e-01 4.323372542858123779e-01 3.097789585590362549e-01 1.226758003234863281e+00
1.100000000000000000e+03 5.004929733276367188e+01 2.973503875732421875e+01 1.140024065971374512e-01 2.419834434986114502e-01 1.067957580089569092e-01 8.733803629875183105e-01
1.101000000000000000e+03 5.132067108154296875e+01 3.008155632019042969e+01 5.799058675765991211e-01 3.499619662761688232e-01 2.789603471755981445e-01 1.284406661987304688e+00
1.102000000000000000e+03 2.058868789672851562e+01 3.863050079345703125e+01 1.101455418393015862e-03 7.127291755750775337e-04 5.442553665488958359e-04 -1.280404976569116116e-03
1.103000000000000000e+03 1.971949386596679688e+01 3.826779174804687500e+01 1.518699922598898411e-03 7.503397064283490181e-04 6.807119352743029594e-04 -1.078830217011272907e-03
1.104000000000000000e+03 2.287977409362792969e+01 3.978239822387695312e+01 -9.865618776530027390e-04 1.283582299947738647e-03 8.910611359169706702e-05 -2.093136310577392578e-03
1.105000000000000000e+03 6.055122375488281250e+00 1.884792923927307129e+00 2.215350377809954807e-06 2.966305373774957843e-06 1.554496748212841339e-06 -8.225326268984645139e-07
1.106000000000000000e+03 9.645278930664062500e+00 2.541887998580932617e+00 3.334611164973466657e-06 1.786724510566273239e-06 1.536400759505340829e-06 1.031449770039216673e-08
1.107000000000000000e+03 6.774756908416748047e+00 1.875777482986450195e+00 -2.335383214813191444e-06 -2.722051249293144792e-06 -1.517230316494533326e-06 7.827955528227903415e-07
1.108000000000000000e+03 7.462694644927978516e+00 2.609789609909057617e+00 -3.026625336133292876e-06 -2.577188752184156328e-06 -1.681144226495234761e-06 5.220157390795066021e-07
1.109000000000000000e+03 8.184514045715332031e+00 3.307618141174316406e+00 -3.354430873514502309e-06 -2.343772848689695820e-06 -1.709461116661259439e-06 -2.193946500028687296e-07
1.110000000000000000e+03 6.044341087341308594e+00 4.271176338195800781e+00 -4.050455572723876685e-06 -3.179567556799156591e-06 -2.169007075281115249e-06 -7.426428965118248016e-07
1.111000000000000000e+03 1.591382503509521484e+00 7.717216014862060547e+00 -1.311650066782021895e-05 -4.450347645956753695e-08 -3.948301127820741385e-06 2.794295141939073801e-06
1.112000000000000000e+03 3.751501441001892090e-01 3.771998882293701172e+00 -1.400217752234311774e-05 -2.333628344786120579e-06 -4.900741714664036408e-06 -2.801649998218636028e-06
1.113000000000000000e+03 2.359179496765136719e+00 4.463486671447753906e+00 -3.313165279905661009e-06 1.169941924672457390e-06 -6.429669952012773138e-07 -5.003383193979971111e-06
1.114000000000000000e+03 3.828254640102386475e-01 2.093747138977050781e+00 4.406472271512029693e-06 2.764041482805623673e-06 2.151154149032663554e-06 -1.744011910886911210e-06
1.115000000000000000e+03 1.111856222152709961e+00 1.932428240776062012e+00 8.385043201997177675e-07 -4.369516318547539413e-06 -1.059303713191184215e-06 -6.937766272585577099e-08
1.116000000000000000e+03 1.112711906433105469e+01 1.789915800094604492e+00 -2.445041900500655174e-06 -1.916896280818036757e-06 -1.308581431658240035e-06 7.940202806366869481e-08
1.117000000000000000e+03 9.666707992553710938e+00 3.237995862960815430e+00 -4.407995675137499347e-06 -1.381370907438395079e-06 -1.736810077090922277e-06 -2.043422426822871785e-07
1.118000000000000000e+03 2.551273345947265625e+01 3.439949417114257812e+01 -9.509263932704925537e-02 -5.522630643099546432e-03 -3.018458001315593719e-02 -5.727412179112434387e-02
1.119000000000000000e+03 2.690325736999511719e+01 3.258317947387695312e+01 -1.773936003446578979e-01 -1.161457784473896027e-02 -5.670245364308357239e-02 -1.526081264019012451e-01
1.120000000000000000e+03 2.691720771789550781e+01 3.342460632324218750e+01 -1.715325564146041870e-01 -2.026511821895837784e-03 -5.206771939992904663e-02 -1.130783855915069580e-01
1.121000000000000000e+03 2.379759216308593750e+01 3.122758483886718750e+01 -5.755402892827987671e-02 -9.170017391443252563e-02 -4.477626085281372070e-02 -1.252424716949462891e-01
1.122000000000000000e+03 2.837708282470703125e+01 3.330262756347656250e+01 -2.492536902427673340e-01 1.509041246026754379e-02 -7.024898380041122437e-02 -1.299897283315658569e-01
1.123000000000000000e+03 2.910528755187988281e+01 3.321419525146484375e+01 -2.933064401149749756e-01 2.327203750610351562e-02 -8.101031929254531860e-02 -1.370697021484375000e-01
1.124000000000000000e+03 3.056219673156738281e+01 3.300189971923828125e+01 -3.928319513797760010e-01 3.809686377644538879e-02 -1.064205244183540344e-01 -1.482429802417755127e-01
1.125000000000000000e+03 3.059665298461914062e+01 3.373776245117187500e+01 -3.937816023826599121e-01 3.157637268304824829e-02 -1.086615696549415588e-01 -9.245902299880981445e-02
1.126000000000000000e+03 2.983394241333007812e+01 3.311326980590820312e+01 -3.416636288166046143e-01 3.062662854790687561e-02 -9.331110119819641113e-02 -1.433522999286651611e-01
1.127000000000000000e+03 4.671038055419921875e+01 3.456604003906250000e+01 -9.736552834510803223e-01 -1.120293736457824707e-01 -3.257054090499877930e-01 5.111550688743591309e-01
1.128000000000000000e+03 5.126881027221679688e+01 3.493962097167968750e+01 5.438293218612670898e-01 2.351354122161865234e+00 8.685550689697265625e-01 -1.631999611854553223e+00
1.129000000000000000e+03 3.205488204956054688e+01 3.347130203247070312e+01 -5.181339383125305176e-01 3.935236111283302307e-02 -1.436344683170318604e-01 -9.222518652677536011e-02
1.130000000000000000e+03 3.274917984008789062e+01 3.262518692016601562e+01 -5.650246739387512207e-01 5.464279651641845703e-02 -1.531145572662353516e-01 -1.577704697847366333e-01
1.131000000000000000e+03 3.129039382934570312e+01 3.288276672363281250e+01 -4.474869966506958008e-01 4.415221512317657471e-02 -1.210004314780235291e-01 -1.526855081319808960e-01
1.132000000000000000e+03 3.348115921020507812e+01 3.249016189575195312e+01 -6.272583007812500000e-01 5.938000604510307312e-02 -1.703634858131408691e-01 -1.584091484546661377e-01
1.133000000000000000e+03 4.569467544555664062e+01 3.614265823364257812e+01 -1.009843572974205017e-01 8.894461393356323242e-02 -3.611923195421695709e-03 5.003953576087951660e-01
1.134000000000000000e+03 4.273171615600585938e+01 3.742313003540039062e+01 5.945756658911705017e-02 -2.861355245113372803e-01 -6.800338625907897949e-02 4.199000000953674316e-01
1.135000000000000000e+03 1.181377696990966797e+01 -2.618062257766723633e+00 -8.102891733869910240e-04 -7.891059794928878546e-05 -2.667599474079906940e-04 3.601714561227709055e-04
1.136000000000000000e+03 1.039532852172851562e+01 -3.365553855895996094e+00 6.122780614532530308e-04 3.749722382053732872e-04 2.961750724352896214e-04 -4.036845057271420956e-04
1.137000000000000000e+03 1.110367870330810547e+01 -2.615097761154174805e+00 6.066947244107723236e-04 2.765147073660045862e-04 2.649628440849483013e-04 -4.253815277479588985e-04
1.138000000000000000e+03 4.224481964111328125e+01 3.549623107910156250e+01 -5.377481579780578613e-01 -1.919115185737609863e-01 -2.188979089260101318e-01 4.568849503993988037e-01
1.139000000000000000e+03 4.153525924682617188e+01 3.693770217895507812e+01 -1.181435212492942810e-01 -2.216401696205139160e-01 -1.019351035356521606e-01 3.991867601871490479e-01
1.140000000000000000e+03 3.274434280395507812e+01 3.727637100219726562e+01 -3.746537119150161743e-02 -4.020167514681816101e-02 -2.330011501908302307e-02 5.974912270903587341e-02
1.141000000000000000e+03 3.506544494628906250e+01 3.675033187866210938e+01 -8.415196835994720459e-02 -8.680400997400283813e-02 -5.128679424524307251e-02 1.149524897336959839e-01
1.142000000000000000e+03 3.781933975219726562e+01 3.594990539550781250e+01 -2.882024943828582764e-01 -1.067442372441291809e-01 -1.184840127825737000e-01 2.342438250780105591e-01
1.143000000000000000e+03 3.666991043090820312e+01 3.886583328247070312e+01 9.992145746946334839e-02 -2.581892311573028564e-01 -4.748032614588737488e-02 1.811563521623611450e-01
1.144000000000000000e+03 3.727745056152343750e+01 3.619939041137695312e+01 -2.362971603870391846e-01 -1.140535026788711548e-01 -1.051051989197731018e-01 2.292954474687576294e-01
1.145000000000000000e+03 3.784378051757812500e+01 3.097458839416503906e+01 -9.022209048271179199e-01 9.056765586137771606e-02 -2.434959709644317627e-01 -2.123437672853469849e-01
1.146000000000000000e+03 3.862428283691406250e+01 3.151394844055175781e+01 -1.086458563804626465e+00 7.275392115116119385e-02 -3.041113913059234619e-01 -1.302287876605987549e-01
1.147000000000000000e+03 3.866873168945312500e+01 3.218700027465820312e+01 -1.216747283935546875e+00 4.894673824310302734e-02 -3.503401875495910645e-01 -3.790966421365737915e-02
1.148000000000000000e+03 4.009230041503906250e+01 3.123777580261230469e+01 -1.207103133201599121e+00 7.439791411161422729e-02 -3.398115634918212891e-01 -1.140225455164909363e-01
1.149000000000000000e+03 3.568077468872070312e+01 3.206996917724609375e+01 -8.230844140052795410e-01 6.610928475856781006e-02 -2.270925492048263550e-01 -1.547445803880691528e-01
1.150000000000000000e+03 3.421409988403320312e+01 3.235216903686523438e+01 -6.919901371002197266e-01 6.210462003946304321e-02 -1.889656633138656616e-01 -1.586275249719619751e-01
1.151000000000000000e+03 3.494733428955078125e+01 3.221173477172851562e+01 -7.569314241409301758e-01 6.510104984045028687e-02 -2.075491100549697876e-01 -1.573334187269210815e-01
1.152000000000000000e+03 3.788817596435546875e+01 3.165049743652343750e+01 -1.021925926208496094e+00 7.209906727075576782e-02 -2.849480807781219482e-01 -1.377836167812347412e-01
1.153000000000000000e+03 4.156039428710937500e+01 3.095297431945800781e+01 -1.299732804298400879e+00 6.920046359300613403e-02 -3.691597282886505127e-01 -9.320416301488876343e-02
1.154000000000000000e+03 4.378522491455078125e+01 3.054408073425292969e+01 -1.361339092254638672e+00 6.214636564254760742e-02 -3.897578418254852295e-01 -3.848053887486457825e-02
1.155000000000000000e+03 1.243429279327392578e+01 2.286191940307617188e+00 3.929251306544756517e-06 9.007474091049516574e-07 1.448999569220177364e-06 1.456803943256090861e-06
1.156000000000000000e+03 1.038702297210693359e+01 2.494783401489257812e+00 -3.241346121285459958e-06 -1.610383606021059677e-06 -1.455518940929323435e-06 8.452210664700032794e-08
1.157000000000000000e+03 1.298498153686523438e+01 2.300837516784667969e+00 -3.103154085692949593e-06 -4.519490630627842620e-07 -1.066530899151985068e-06 -5.008644166082376614e-07
1.158000000000000000e+03 1.339652538299560547e+01 2.454922199249267578e+00 -8.033213561020602356e-08 1.984437403734773397e-06 5.712315669370582327e-07 2.407410875093773939e-06
1.159000000000000000e+03 4.458085632324218750e+01 3.107491683959960938e+01 -1.743386268615722656e+00 2.814482338726520538e-02 -5.145724415779113770e-01 5.837406590580940247e-02
1.160000000000000000e+03 4.303976821899414062e+01 3.067393493652343750e+01 -1.352872490882873535e+00 6.266711652278900146e-02 -3.870615959167480469e-01 -6.028611212968826294e-02
1.161000000000000000e+03 4.452915954589843750e+01 3.042337799072265625e+01 -1.353437781333923340e+00 5.992600321769714355e-02 -3.880535364151000977e-01 -8.976121433079242706e-03
1.162000000000000000e+03 3.053792381286621094e+01 3.960120391845703125e+01 1.305244490504264832e-02 -5.909669399261474609e-02 -1.381327491253614426e-02 2.514919824898242950e-02
1.163000000000000000e+03 4.747499465942382812e+01 3.002763748168945312e+01 -1.035604715347290039e+00 5.775281041860580444e-02 -2.933555841445922852e-01 2.052612155675888062e-01
1.164000000000000000e+03 4.527164840698242188e+01 3.031210899353027344e+01 -1.326735377311706543e+00 6.044637784361839294e-02 -3.798866868019104004e-01 2.509082295000553131e-02
1.165000000000000000e+03 4.674955749511718750e+01 3.011531257629394531e+01 -1.184670686721801758e+00 6.241451948881149292e-02 -3.366768658161163330e-01 1.237016841769218445e-01
1.166000000000000000e+03 2.949674606323242188e+01 3.879150772094726562e+01 -4.469211213290691376e-03 -2.362939529120922089e-02 -8.429582230746746063e-03 9.858022443950176239e-03
1.167000000000000000e+03 2.975202941894531250e+01 3.764608383178710938e+01 -5.479983519762754440e-03 -1.503334008157253265e-02 -6.153997033834457397e-03 1.095692906528711319e-02
1.168000000000000000e+03 3.040095329284667969e+01 3.754195022583007812e+01 -7.698965258896350861e-03 -2.536901272833347321e-02 -9.920393116772174835e-03 2.685910463333129883e-02
1.169000000000000000e+03 3.213904190063476562e+01 3.857274627685546875e+01 -1.236776821315288544e-02 -5.912556871771812439e-02 -2.144800126552581787e-02 6.234601885080337524e-02
1.170000000000000000e+03 8.084501266479492188e+00 -1.887930035591125488e+00 -3.644177049864083529e-04 -4.657441459130495787e-04 -2.490485494490712881e-04 1.382089394610375166e-04
1.171000000000000000e+03 9.629591941833496094e+00 -2.622591257095336914e+00 5.371663719415664673e-04 3.882096207235008478e-04 2.776127948891371489e-04 -2.864048001356422901e-04
1.172000000000000000e+03 7.367438316345214844e+00 -2.711766242980957031e+00 -3.419784770812839270e-04 -5.255464348010718822e-04 -2.602574822958558798e-04 1.262705773115158081e-04
1.173000000000000000e+03 8.133349418640136719e+00 -2.675304889678955078e+00 4.656785167753696442e-04 4.663455474656075239e-04 2.796072221826761961e-04 -2.203877374995499849e-04
1.174000000000000000e+03 8.885737419128417969e+00 -2.645456075668334961e+00 -5.342558724805712700e-04 -4.157574730925261974e-04 -2.850040036719292402e-04 2.490635379217565060e-04
1.175000000000000000e+03 6.545665740966796875e+00 -1.915078163146972656e+00 -2.036684745689854026e-04 -5.256925360299646854e-04 -2.188083017244935036e-04 -4.979604273103177547e-05
1.176000000000000000e+03 6.590557575225830078e+00 -2.754173994064331055e+00 2.410737361060455441e-04 5.601698649115860462e-04 2.403730904916301370e-04 -7.479399300791556016e-06
1.177000000000000000e+03 5.023854255676269531e+00 -2.833552360534667969e+00 2.122219157172366977e-04 5.177831044420599937e-04 2.190015075029805303e-04 2.149983047274872661e-04
1.178000000000000000e+03 1.566814422607421875e+00 -7.623463630676269531e+00 1.583838602527976036e-03 6.309227319434285164e-05 4.940792568959295750e-04 3.960314206779003143e-04
1.179000000000000000e+03 3.429285287857055664e+00 -3.833235263824462891e+00 -8.082669810391962528e-04 -4.137631913181394339e-04 -3.666090487968176603e-04 -4.613990895450115204e-04
1.180000000000000000e+03 4.310648143291473389e-01 -3.571255683898925781e+00 1.210539834573864937e-03 2.241556467197369784e-05 3.698866348713636398e-04 1.474180025979876518e-04
1.181000000000000000e+03 3.928399980068206787e-01 -2.187743902206420898e+00 -1.061871764250099659e-03 -6.882211891934275627e-05 -3.392081707715988159e-04 -1.139915693784132600e-04
1.182000000000000000e+03 4.736565053462982178e-01 -4.973506450653076172e+00 -1.330800238065421581e-03 -9.486068302066996694e-05 -4.276982799638062716e-04 -1.890908170025795698e-04
1.183000000000000000e+03 2.608230972290039062e+01 3.848713684082031250e+01 8.749075350351631641e-04 -8.682674961164593697e-04 1.992016677831998095e-06 -9.686710836831480265e-05
1.184000000000000000e+03 2.676755142211914062e+01 3.814390563964843750e+01 1.279475633054971695e-03 -2.459026174619793892e-03 -3.538651799317449331e-04 5.345561075955629349e-04
1.185000000000000000e+03 2.844652557373046875e+01 3.896387481689453125e+01 -6.507868412882089615e-03 -1.034020725637674332e-02 -5.054422654211521149e-03 7.693158462643623352e-03
1.186000000000000000e+03 3.017347717285156250e+01 3.819649124145507812e+01 3.820631827693432570e-04 -3.394296765327453613e-02 -1.006827130913734436e-02 2.152487821877002716e-02
1.187000000000000000e+03 2.461440277099609375e+01 4.118171310424804688e+01 -5.652978550642728806e-03 -1.001099124550819397e-03 -1.996223349124193192e-03 -2.598546445369720459e-03
1.188000000000000000e+03 2.396209907531738281e+01 3.997103500366210938e+01 -2.527901669964194298e-03 1.980630215257406235e-03 -1.641814305912703276e-04 -2.544158138334751129e-03
1.189000000000000000e+03 2.524477577209472656e+01 4.005362701416015625e+01 -3.028547391295433044e-03 -5.600017029792070389e-03 -2.588569419458508492e-03 -2.980885328724980354e-03
1.190000000000000000e+03 2.290987777709960938e+01 3.439139938354492188e+01 -2.459856867790222168e-02 -1.686186715960502625e-02 -1.243813056498765945e-02 -2.214637771248817444e-02
1.191000000000000000e+03 2.288024902343750000e+01 3.335898971557617188e+01 -3.140050917863845825e-02 -3.582914173603057861e-02 -2.016889490187168121e-02 -4.365617409348487854e-02
1.192000000000000000e+03 2.617665672302246094e+01 3.345444107055664062e+01 -1.376538276672363281e-01 -1.011314522475004196e-02 -4.433009400963783264e-02 -1.027460098266601562e-01
1.193000000000000000e+03 2.543350982666015625e+01 3.158104324340820312e+01 -1.139870956540107727e-01 -5.988924577832221985e-02 -5.216290429234504700e-02 -1.663081943988800049e-01
1.194000000000000000e+03 2.094395446777343750e+01 3.234470748901367188e+01 -2.674106974154710770e-03 -2.852614223957061768e-02 -9.360074996948242188e-03 -1.314075384289026260e-02
1.195000000000000000e+03 2.012108612060546875e+01 3.838119888305664062e+01 1.371143036521971226e-03 5.103077273815870285e-04 5.644352640956640244e-04 -1.211495720781385899e-03
1.196000000000000000e+03 2.313960266113281250e+01 -4.105914688110351562e+01 1.869264990091323853e-01 -7.017397284507751465e-01 -1.544439643621444702e-01 3.996004536747932434e-02
1.197000000000000000e+03 1.284733200073242188e+01 -3.695823669433593750e+01 6.654848158359527588e-02 -1.810921542346477509e-02 1.453178003430366516e-02 -3.228110820055007935e-02
1.198000000000000000e+03 1.347008609771728516e+01 2.595389366149902344e+01 -3.776708399527706206e-05 1.740563249086335418e-07 -1.127790801547234878e-05 -1.207370814881869592e-06
1.199000000000000000e+03 1.195405578613281250e+01 2.472566223144531250e+01 -3.615392415667884052e-05 2.208776095358189195e-06 -1.018354396364884451e-05 -5.962228328826313373e-07
1.200000000000000000e+03 1.428010272979736328e+01 3.163551521301269531e+01 -7.399274181807413697e-05 -4.710282610176363960e-06 -2.361090810154564679e-05 -1.160004467237740755e-05
1.201000000000000000e+03 1.674425125122070312e+01 3.533341979980468750e+01 -1.122517787734977901e-04 -1.143326007877476513e-04 -6.797531386837363243e-05 -4.933166201226413250e-05
1.202000000000000000e+03 1.706552124023437500e+01 3.768253707885742188e+01 -9.143339411821216345e-05 -8.904035348678007722e-05 -5.414212500909343362e-05 -7.718152482993900776e-05
1.203000000000000000e+03 1.487654590606689453e+01 3.448170471191406250e+01 -1.061125076375901699e-04 -2.144681729987496510e-06 -3.247715721954591572e-05 -1.187381440104218200e-05
1.204000000000000000e+03 1.449595069885253906e+01 1.875564575195312500e+01 -2.371602749917656183e-05 8.673862907926377375e-07 -6.854592356830835342e-06 5.583726760960416868e-07
1.205000000000000000e+03 1.328695297241210938e+01 1.874466323852539062e+01 2.419567135802935809e-05 -7.040475225039699581e-07 7.047487088129855692e-06 8.453550321974034887e-07
1.206000000000000000e+03 1.466365051269531250e+01 2.435922622680664062e+01 -2.905137262132484466e-05 -1.444855968202318763e-07 -8.758756848692428321e-06 1.151263404608471319e-06
1.207000000000000000e+03 1.383075237274169922e+01 2.880880928039550781e+01 -5.002698526368476450e-05 -3.448627239777124487e-06 -1.604268436494749039e-05 -4.883436304226052016e-06
1.208000000000000000e+03 1.364328861236572266e+01 2.738415718078613281e+01 3.663890311145223677e-05 -5.638016318698646501e-06 9.300266356149222702e-06 -7.202872438938356936e-06
1.209000000000000000e+03 1.404007434844970703e+01 3.022270584106445312e+01 4.089996946277096868e-05 -1.103654358303174376e-05 8.959027582022827119e-06 -1.665766649239230901e-05
1.210000000000000000e+03 1.332338809967041016e+01 1.738539886474609375e+01 -2.208125442848540843e-05 1.056668281762540573e-07 -6.592676527361618355e-06 -6.627128072977939155e-07
1.211000000000000000e+03 1.331238842010498047e+01 1.203388118743896484e+01 -1.566417085996363312e-05 1.532073135024347721e-08 -4.694654762715799734e-06 9.263274591830850113e-07
1.212000000000000000e+03 1.336907863616943359e+01 1.469989681243896484e+01 -1.839203650888521224e-05 -3.750633368326816708e-07 -5.630130090139573440e-06 3.308720124550745822e-07
1.213000000000000000e+03 1.456527042388916016e+01 5.031572818756103516e+00 -8.062712367973290384e-06 -4.002336311259568902e-07 -2.538883791203261353e-06 1.350916022602177691e-06
1.214000000000000000e+03 1.180490493774414062e+01 2.330789804458618164e+00 -3.116671905445400625e-06 -1.753369360812939703e-06 -1.461012402614869643e-06 -7.092210694281675387e-07
1.215000000000000000e+03 1.049715137481689453e+01 3.858212947845458984e+00 -5.210035851632710546e-06 -5.184583642403595150e-07 -1.718548219287185930e-06 1.242993562300398480e-06
1.216000000000000000e+03 1.312856006622314453e+01 7.936954975128173828e+00 1.168209291790844873e-05 6.697586059090099297e-07 3.705555627675494179e-06 4.806565243598015513e-07
1.217000000000000000e+03 1.335804557800292969e+01 1.336451435089111328e+01 1.712229823169764131e-05 4.566901736779982457e-07 5.273696388030657545e-06 -5.570184953285206575e-07
1.218000000000000000e+03 7.933645629882812500e+01 -2.764336967468261719e+01 7.344121695496141911e-04 9.552774429321289062e+00 2.866052627563476562e+00 -8.765595965087413788e-03
1.219000000000000000e+03 7.696215057373046875e+01 -3.799538421630859375e+01 -3.562232479453086853e-02 9.155285835266113281e+00 2.735898971557617188e+00 5.092911049723625183e-02
1.220000000000000000e+03 7.921215820312500000e+01 -3.459871292114257812e+01 -4.686449188739061356e-03 9.528595924377441406e+00 2.857172727584838867e+00 6.985416170209646225e-03
1.221000000000000000e+03 7.793865966796875000e+01 3.323597717285156250e+01 2.272179350256919861e-02 4.501617908477783203e+00 1.357301831245422363e+00 -1.247859746217727661e-01
1.222000000000000000e+03 7.920658874511718750e+01 3.620923995971679688e+01 6.140636280179023743e-02 3.764635324478149414e+00 1.147812485694885254e+00 4.250075202435255051e-03
1.223000000000000000e+03 7.935673522949218750e+01 -2.069813728332519531e+01 -4.345206252764910460e-04 9.535161018371582031e+00 2.860418081283569336e+00 -1.507702749222517014e-02
1.224000000000000000e+03 7.801872253417968750e+01 -2.719905662536621094e+01 -1.754372962750494480e-03 9.310178756713867188e+00 2.792527198791503906e+00 -1.069122087210416794e-02
1.225000000000000000e+03 7.804414367675781250e+01 -2.580589103698730469e+01 -3.127995412796735764e-03 9.309325218200683594e+00 2.791859149932861328e+00 -1.428670715540647507e-02
1.226000000000000000e+03 7.931068420410156250e+01 -3.042588424682617188e+01 -2.080684993416070938e-03 9.556683540344238281e+00 2.866380691528320312e+00 -6.270797923207283020e-03
1.227000000000000000e+03 7.765815734863281250e+01 -3.410303115844726562e+01 -6.416880525648593903e-03 9.263447761535644531e+00 2.777109384536743164e+00 8.174168178811669350e-04
1.228000000000000000e+03 7.777438354492187500e+01 -3.274488449096679688e+01 -7.837075740098953247e-03 9.272322654724121094e+00 2.779345512390136719e+00 8.918603416532278061e-04
1.229000000000000000e+03 7.473999786376953125e+01 -3.793954467773437500e+01 -1.289502251893281937e-02 8.777353286743164062e+00 2.629337549209594727e+00 -8.245169371366500854e-02
1.230000000000000000e+03 7.618933105468750000e+01 -3.918341827392578125e+01 1.311136060394346714e-03 9.120438575744628906e+00 2.736524820327758789e+00 -2.242886228486895561e-03
1.231000000000000000e+03 7.817575073242187500e+01 1.441888904571533203e+01 -1.453345268964767456e-02 7.368694305419921875e+00 2.206248283386230469e+00 -3.536020219326019287e-01
1.232000000000000000e+03 7.940467071533203125e+01 1.548640251159667969e+01 9.517667931504547596e-04 7.154845714569091797e+00 2.146739244461059570e+00 -1.431516259908676147e-01
1.233000000000000000e+03 7.822160339355468750e+01 2.125356864929199219e+01 6.351999007165431976e-03 6.078820228576660156e+00 1.825551629066467285e+00 -4.106870889663696289e-01
1.234000000000000000e+03 7.940994262695312500e+01 2.240800857543945312e+01 3.329717554152011871e-03 5.571282386779785156e+00 1.672383666038513184e+00 -1.508168429136276245e-01
1.235000000000000000e+03 7.813005065917968750e+01 3.185443305969238281e+01 4.214423522353172302e-02 4.506240367889404297e+00 1.364515304565429688e+00 -1.462268531322479248e-01
1.236000000000000000e+03 7.853668212890625000e+01 2.791564369201660156e+01 2.184636332094669342e-02 4.787220954895019531e+00 1.442720293998718262e+00 -2.477843910455703735e-01
1.237000000000000000e+03 7.951033020019531250e+01 2.788813972473144531e+01 1.133331446908414364e-03 4.403367519378662109e+00 1.321350336074829102e+00 -8.756124973297119141e-02
1.238000000000000000e+03 7.834297943115234375e+01 2.536581802368164062e+01 1.952064968645572662e-02 5.268959522247314453e+00 1.586544036865234375e+00 -3.396750688552856445e-01
1.239000000000000000e+03 7.823890686035156250e+01 2.400788497924804688e+01 1.757857576012611389e-02 5.548953533172607422e+00 1.669959545135498047e+00 -3.875426650047302246e-01
1.240000000000000000e+03 7.702634429931640625e+01 1.609335517883300781e+01 -3.499168157577514648e-02 7.153667926788330078e+00 2.135602951049804688e+00 -5.659868717193603516e-01
1.241000000000000000e+03 7.821634674072265625e+01 1.579463005065917969e+01 -1.660071872174739838e-02 7.138038158416748047e+00 2.136431217193603516e+00 -3.717427849769592285e-01
1.242000000000000000e+03 7.826687622070312500e+01 1.716381454467773438e+01 -8.207716047763824463e-03 6.884609699249267578e+00 2.062920570373535156e+00 -3.839773833751678467e-01
1.243000000000000000e+03 7.693898010253906250e+01 1.330124092102050781e+01 -4.495809972286224365e-02 7.551908969879150391e+00 2.252085208892822266e+00 -5.117125511169433594e-01
1.244000000000000000e+03 7.690646362304687500e+01 1.049860858917236328e+01 -4.729842022061347961e-02 7.884115695953369141e+00 2.351045131683349609e+00 -4.322317838668823242e-01
1.245000000000000000e+03 7.812631225585937500e+01 8.846218109130859375e+00 -1.791262067854404449e-02 8.143494606018066406e+00 2.437674522399902344e+00 -2.580924034118652344e-01
1.246000000000000000e+03 7.937732696533203125e+01 9.923530578613281250e+00 -2.878807019442319870e-03 8.115197181701660156e+00 2.433695316314697266e+00 -1.130075976252555847e-01
1.247000000000000000e+03 7.935493469238281250e+01 -1.930969238281250000e+01 -4.031183489132672548e-04 9.527868270874023438e+00 2.858239650726318359e+00 -1.606837660074234009e-02
1.248000000000000000e+03 7.934530639648437500e+01 -1.375162220001220703e+01 -1.052071689628064632e-03 9.480859756469726562e+00 2.843942403793334961e+00 -2.422569319605827332e-02
1.249000000000000000e+03 7.934095764160156250e+01 -6.789114952087402344e+00 -1.633750158362090588e-03 9.345057487487792969e+00 2.803027153015136719e+00 -3.840665891766548157e-02
1.250000000000000000e+03 7.806546020507812500e+01 5.124371647834777832e-01 -1.180388685315847397e-02 8.820982933044433594e+00 2.642753839492797852e+00 -1.355235576629638672e-01
1.251000000000000000e+03 7.935681152343750000e+01 1.569768309593200684e+00 -2.024480607360601425e-03 8.964892387390136719e+00 2.688860416412353516e+00 -6.654614210128784180e-02
1.252000000000000000e+03 7.845989227294921875e+01 2.919565010070800781e+01 2.419812045991420746e-02 4.629943847656250000e+00 1.396242618560791016e+00 -2.201729267835617065e-01
1.253000000000000000e+03 7.922180938720703125e+01 3.755460357666015625e+01 -2.502488205209374428e-03 3.820946455001831055e+00 1.145533204078674316e+00 5.415132641792297363e-02
1.254000000000000000e+03 7.600914001464843750e+01 3.607020568847656250e+01 1.018680930137634277e-01 5.320437908172607422e+00 1.626691699028015137e+00 -2.344143576920032501e-04
1.255000000000000000e+03 7.813488006591796875e+01 1.024084472656250000e+01 -1.996883749961853027e-02 7.976675510406494141e+00 2.387012004852294922e+00 -2.826666235923767090e-01
1.256000000000000000e+03 7.807448577880859375e+01 1.895929813385009766e+00 -1.418469753116369247e-02 8.741221427917480469e+00 2.618111133575439453e+00 -1.517369151115417480e-01
1.257000000000000000e+03 7.808522033691406250e+01 3.288971185684204102e+00 -1.468989904969930649e-02 8.648902893066406250e+00 2.590263843536376953e+00 -1.701686233282089233e-01
1.258000000000000000e+03 7.676386260986328125e+01 -5.943536758422851562e-01 -2.730809710919857025e-02 8.676053047180175781e+00 2.594623565673828125e+00 -1.828070431947708130e-01
1.259000000000000000e+03 7.934854888916015625e+01 -2.604814291000366211e+00 -2.122462494298815727e-03 9.195095062255859375e+00 2.757891654968261719e+00 -5.040128901600837708e-02
1.260000000000000000e+03 7.801632690429687500e+01 -6.458062171936035156e+00 -7.994010113179683685e-03 9.092765808105468750e+00 2.725431442260742188e+00 -7.573906332254409790e-02
1.261000000000000000e+03 7.801904296875000000e+01 -5.058351516723632812e+00 -8.218384347856044769e-03 9.051685333251953125e+00 2.713039875030517578e+00 -8.599914610385894775e-02
1.262000000000000000e+03 7.934268188476562500e+01 -9.572288513183593750e+00 -1.158867380581796169e-03 9.412878036499023438e+00 2.823515892028808594e+00 -3.152709081768989563e-02
1.263000000000000000e+03 7.802333068847656250e+01 -1.201929283142089844e+01 -4.583725240081548691e-03 9.209247589111328125e+00 2.761399269104003906e+00 -4.621739685535430908e-02
1.264000000000000000e+03 7.935208892822265625e+01 -1.652949905395507812e+01 -7.750068325549364090e-04 9.509827613830566406e+00 2.852715730667114258e+00 -1.964596100151538849e-02
1.265000000000000000e+03 7.806954956054687500e+01 -1.893075561523437500e+01 -2.806089119985699654e-03 9.285459518432617188e+00 2.784796237945556641e+00 -2.317389659583568573e-02
1.266000000000000000e+03 2.208474731445312500e+01 1.603335142135620117e+00 1.518539432436227798e-02 -1.319322586059570312e+00 -3.912411630153656006e-01 -4.466487094759941101e-02
1.267000000000000000e+03 2.338445663452148438e+01 1.666044116020202637e+00 -8.968443726189434528e-04 -1.060021519660949707e+00 -3.182755112648010254e-01 -2.797830849885940552e-02
1.268000000000000000e+03 2.017945671081542969e+01 -1.393784809112548828e+01 -2.996147610247135162e-02 -1.567026019096374512e+00 -4.790962338447570801e-01 -8.266009390354156494e-02
1.269000000000000000e+03 1.983887100219726562e+01 -1.814208221435546875e+01 5.803351756185293198e-03 -1.333075404167175293e+00 -3.981816172599792480e-01 -8.054612576961517334e-02
1.270000000000000000e+03 1.112921524047851562e+01 -3.202452087402343750e+01 -3.103222232311964035e-03 5.408833967521786690e-04 -7.687016623094677925e-04 5.978549597784876823e-04
1.271000000000000000e+03 2.038897132873535156e+01 -5.482284545898437500e+00 1.922903209924697876e-02 -1.406939148902893066e+00 -4.163130223751068115e-01 -5.242692306637763977e-02
1.272000000000000000e+03 2.200970077514648438e+01 2.063591033220291138e-01 2.216047607362270355e-02 -1.306153535842895508e+00 -3.851979374885559082e-01 -6.990677118301391602e-02
1.273000000000000000e+03 2.170027923583984375e+01 -8.260241508483886719e+00 -8.178701624274253845e-03 -1.226500511169433594e+00 -3.704037368297576904e-01 -4.410764947533607483e-02
1.274000000000000000e+03 2.123324584960937500e+01 -1.956411552429199219e+01 1.948285475373268127e-02 -1.147316575050354004e+00 -3.383500874042510986e-01 -5.725991353392601013e-02
1.275000000000000000e+03 2.176456451416015625e+01 -5.442126750946044922e+00 2.952753193676471710e-02 -1.238087177276611328e+00 -3.625679016113281250e-01 -4.049920290708541870e-02
1.276000000000000000e+03 2.247556304931640625e+01 -3.342443847656250000e+01 -1.028694361448287964e-01 -8.490858674049377441e-01 -2.855865955352783203e-01 -6.896720081567764282e-02
1.277000000000000000e+03 2.143248176574707031e+01 -1.535260677337646484e+01 -1.706174947321414948e-02 -1.200886011123657227e+00 -3.653843402862548828e-01 -3.325084224343299866e-02
1.278000000000000000e+03 2.150810623168945312e+01 -1.393726539611816406e+01 -4.395182430744171143e-02 -1.197916388511657715e+00 -3.725604712963104248e-01 -5.133595317602157593e-02
1.279000000000000000e+03 2.181986618041992188e+01 -4.038313865661621094e+00 1.855578273534774780e-02 -1.252342700958251953e+00 -3.701360821723937988e-01 -2.777762152254581451e-02
1.280000000000000000e+03 2.228775978088378906e+01 7.291056632995605469e+00 -3.780969185754656792e-03 -1.324100017547607422e+00 -3.983642756938934326e-01 -5.260432139039039612e-02
1.281000000000000000e+03 2.418947792053222656e+01 -2.251875305175781250e+01 1.669807173311710358e-02 -6.155195236206054688e-01 -1.796464323997497559e-01 -1.727676764130592346e-02
1.282000000000000000e+03 1.177168369293212891e+01 -2.821340560913085938e+01 5.288884975016117096e-03 4.508648533374071121e-03 2.939260099083185196e-03 -2.328940463485196233e-04
1.283000000000000000e+03 2.216561508178710938e+01 3.006209373474121094e+00 -2.909752540290355682e-02 -1.328930735588073730e+00 -4.074084758758544922e-01 -4.316521808505058289e-02
1.284000000000000000e+03 1.453835010528564453e+01 -2.486404418945312500e+01 -8.525525219738483429e-03 -9.456473635509610176e-04 -2.841351786628365517e-03 4.112299648113548756e-04
1.285000000000000000e+03 1.233535480499267578e+01 -2.546339607238769531e+01 -3.709286917001008987e-03 -1.231484347954392433e-03 -1.482231426052749157e-03 -5.313158617354929447e-04
1.286000000000000000e+03 2.115283775329589844e+01 -2.665569877624511719e+01 9.119490161538124084e-03 -1.138791680335998535e+00 -3.389016389846801758e-01 -2.755662426352500916e-02
1.287000000000000000e+03 2.097467422485351562e+01 2.685756492614746094e+01 -2.271911129355430603e-03 -3.476214110851287842e-01 -1.049679964780807495e-01 -4.179947078227996826e-02
1.288000000000000000e+03 2.105298805236816406e+01 1.140339088439941406e+01 2.230692654848098755e-03 -1.441134214401245117e+00 -4.316710531711578369e-01 -1.912542991340160370e-02
1.289000000000000000e+03 2.092661857604980469e+01 3.101855850219726562e+01 -2.538749715313315392e-03 -7.745122909545898438e-02 -2.399699389934539795e-02 -2.082364074885845184e-02
1.290000000000000000e+03 1.483068466186523438e+01 -2.150216817855834961e+00 -4.063097003381699324e-04 -2.484284341335296631e-04 -1.964214316103607416e-04 8.008473378140479326e-05
1.291000000000000000e+03 2.166445159912109375e+01 -9.671941757202148438e+00 -1.480552274733781815e-02 -1.218394279479980469e+00 -3.699599206447601318e-01 -3.094593435525894165e-02
1.292000000000000000e+03 2.172990989685058594e+01 -6.851457118988037109e+00 2.075464092195034027e-02 -1.222015976905822754e+00 -3.603784143924713135e-01 -4.388238117098808289e-02
1.293000000000000000e+03 2.229452705383300781e+01 1.013040447235107422e+01 5.957179702818393707e-03 -1.250127434730529785e+00 -3.732510507106781006e-01 -5.566715821623802185e-02
1.294000000000000000e+03 2.344836044311523438e+01 1.731085014343261719e+01 2.391094341874122620e-02 -8.067550659179687500e-01 -2.348532378673553467e-01 -1.733772456645965576e-01
1.295000000000000000e+03 2.101126098632812500e+01 2.265054893493652344e+01 8.533048676326870918e-04 -7.103305459022521973e-01 -2.128431797027587891e-01 -4.793975502252578735e-02
1.296000000000000000e+03 2.319344329833984375e+01 2.567602920532226562e+01 -1.049083005636930466e-02 -3.678594827651977539e-01 -1.135050952434539795e-01 -2.042180299758911133e-01
1.297000000000000000e+03 2.102890586853027344e+01 1.984307670593261719e+01 1.875527319498360157e-03 -9.465177059173583984e-01 -2.833926379680633545e-01 -4.412881284952163696e-02
1.298000000000000000e+03 2.221415519714355469e+01 1.998577117919921875e+01 6.735353730618953705e-03 -8.044223785400390625e-01 -2.393061071634292603e-01 -1.318892687559127808e-01
1.299000000000000000e+03 2.339046669006347656e+01 2.011502265930175781e+01 1.727775670588016510e-02 -6.761173009872436523e-01 -1.976518630981445312e-01 -2.038304805755615234e-01
1.300000000000000000e+03 2.224799919128417969e+01 1.717701721191406250e+01 9.291577152907848358e-03 -9.710799455642700195e-01 -2.885365188121795654e-01 -1.116465255618095398e-01
1.301000000000000000e+03 2.223320007324218750e+01 1.858297729492187500e+01 9.225525893270969391e-03 -8.912141323089599609e-01 -2.645965814590454102e-01 -1.228442564606666565e-01
1.302000000000000000e+03 2.201685523986816406e+01 2.835446548461914062e+01 -1.017746981233358383e-02 -2.355415970087051392e-01 -7.371571660041809082e-02 -1.048433557152748108e-01
1.303000000000000000e+03 2.324377059936523438e+01 2.428644943237304688e+01 -2.559522399678826332e-03 -4.480763077735900879e-01 -1.351907551288604736e-01 -2.132016718387603760e-01
1.304000000000000000e+03 2.227199745178222656e+01 1.436396503448486328e+01 9.452984668314456940e-03 -1.105915069580078125e+00 -3.289386332035064697e-01 -8.690811693668365479e-02
1.305000000000000000e+03 1.317507648468017578e+01 -1.459728145599365234e+01 -2.716883318498730659e-03 -1.428341347491368651e-04 -8.579152054153382778e-04 4.264207673259079456e-04
1.306000000000000000e+03 1.354340934753417969e+01 -7.875131130218505859e+00 1.852332963608205318e-03 1.380383182549849153e-04 5.971113569103181362e-04 -4.763087781611829996e-04
1.307000000000000000e+03 1.459577465057373047e+01 -7.910949230194091797e+00 -2.178240567445755005e-03 -6.921412568772211671e-05 -6.742364494130015373e-04 2.153275709133595228e-04
1.308000000000000000e+03 1.112797832489013672e+01 -3.363174915313720703e+00 -6.817541434429585934e-04 -3.367420285940170288e-04 -3.055488341487944126e-04 5.628776270896196365e-04
1.309000000000000000e+03 1.341298389434814453e+01 -1.188463306427001953e+01 -2.569737378507852554e-03 -6.793349893996492028e-05 -7.913013105280697346e-04 4.991782479919493198e-04
1.310000000000000000e+03 1.454547214508056641e+01 -1.206689167022705078e+01 2.890552859753370285e-03 5.962132854619994760e-05 8.850522572174668312e-04 -3.862802986986935139e-04
1.311000000000000000e+03 1.362558078765869141e+01 -5.248843193054199219e+00 1.452462864108383656e-03 1.306375925196334720e-04 4.749301297124475241e-04 -3.208086709491908550e-04
1.312000000000000000e+03 1.461887168884277344e+01 -5.169705390930175781e+00 -1.509030465967953205e-03 -7.325178739847615361e-05 -4.746846971102058887e-04 1.702894405752886087e-05
1.313000000000000000e+03 1.446543884277343750e+01 -1.485184383392333984e+01 2.942530671134591103e-03 5.868722291779704392e-05 9.003654122352600098e-04 -4.127755528315901756e-04
1.314000000000000000e+03 1.431532001495361328e+01 -1.908285903930664062e+01 -3.336351830512285233e-03 -1.844523467298131436e-05 -1.006439095363020897e-03 4.375335702206939459e-04
1.315000000000000000e+03 1.361421775817871094e+01 -2.624867630004882812e+01 -6.351909600198268890e-03 -1.235450152307748795e-03 -2.276208018884062767e-03 1.962638460099697113e-03
1.316000000000000000e+03 2.195889091491699219e+01 2.971757125854492188e+01 -1.202485244721174240e-02 -1.602674722671508789e-01 -5.168769508600234985e-02 -8.429328352212905884e-02
1.317000000000000000e+03 2.309305000305175781e+01 2.845971298217773438e+01 -2.561828307807445526e-02 -2.168843597173690796e-01 -7.275079190731048584e-02 -1.615172326564788818e-01
1.318000000000000000e+03 1.332732915878295898e+00 -4.007648849487304688e+01 2.720501273870468140e-03 1.396078430116176605e-02 5.004385486245155334e-03 1.675019389949738979e-03
1.319000000000000000e+03 8.306750059127807617e-01 3.737261199951171875e+01 -1.710451215330976993e-05 -3.662059316411614418e-05 -1.611753214092459530e-05 4.795436780113959685e-06
1.320000000000000000e+03 6.581266522407531738e-01 3.321823501586914062e+01 1.761265048116911203e-05 -2.062070234387647361e-05 -9.024153655445843469e-07 -2.565618615335552022e-07
1.321000000000000000e+03 6.174293756484985352e-01 2.619546508789062500e+01 -1.922813135024625808e-05 -1.632831072129192762e-06 -6.258288976823678240e-06 3.289225674052431714e-07
1.322000000000000000e+03 1.931842803955078125e+00 2.888004112243652344e+01 1.749536022543907166e-05 -3.946271590393735096e-06 4.064726908836746588e-06 7.907034159870818257e-06
1.323000000000000000e+03 7.271235585212707520e-01 -3.600487899780273438e+01 -3.190391929820179939e-03 6.875279825180768967e-03 1.105466391891241074e-03 5.520927952602505684e-04
1.324000000000000000e+03 2.069052457809448242e+00 -3.305438613891601562e+01 3.926259931176900864e-03 2.411054214462637901e-03 1.901194336824119091e-03 2.098583616316318512e-03
1.325000000000000000e+03 3.135652542114257812e+00 2.732813835144042969e+01 2.048218266281764954e-05 -1.413293944096949417e-06 5.720666649722261354e-06 9.106915058509912342e-06
1.326000000000000000e+03 3.007467508316040039e+00 2.461832237243652344e+01 2.333705015189480036e-05 -2.616633082652697340e-06 6.216124802449485287e-06 5.893574780202470720e-06
1.327000000000000000e+03 1.993628978729248047e+00 3.304228210449218750e+01 -1.807812259357888252e-05 -1.752354364725761116e-05 -1.068050005414988846e-05 1.106059335143072531e-05
1.328000000000000000e+03 3.352556228637695312e+00 3.929182052612304688e+01 2.343039886909537017e-05 -2.155798574676737189e-05 5.617238798549806233e-07 -1.280368087464012206e-05
1.329000000000000000e+03 4.279242038726806641e+00 3.790673446655273438e+01 1.848288229666650295e-05 -1.640049413254018873e-05 6.247163923944754060e-07 9.284884072258137167e-06
1.330000000000000000e+03 1.955694556236267090e+00 -3.032006454467773438e+01 4.274722654372453690e-03 -2.241863694507628679e-05 1.275691203773021698e-03 6.753694033250212669e-04
1.331000000000000000e+03 1.988647222518920898e+00 -2.754944419860839844e+01 3.599768737331032753e-03 2.421070821583271027e-04 1.152562675997614861e-03 -1.388127420796081424e-04
1.332000000000000000e+03 2.239935398101806641e+00 -3.699028396606445312e+01 -2.559123560786247253e-03 6.992552895098924637e-03 1.330028753727674484e-03 3.134180558845400810e-03
1.333000000000000000e+03 1.899170041084289551e+00 -2.195884323120117188e+01 3.553084330633282661e-03 -2.712031127884984016e-04 9.845644235610961914e-04 -1.778376754373311996e-04
1.334000000000000000e+03 6.198937892913818359e-01 1.913048744201660156e+01 1.927873381646350026e-05 5.510372602657298557e-07 5.948931175225879997e-06 -1.016785176943812985e-06
1.335000000000000000e+03 6.121423840522766113e-01 1.345651626586914062e+01 1.592511034687049687e-05 5.132480396241589915e-07 4.931507646688260138e-06 -1.458945575905090664e-06
1.336000000000000000e+03 5.331894159317016602e-01 7.817431926727294922e+00 1.363065166515298188e-05 -1.764037271811957908e-08 4.083903149876277894e-06 -1.557146447339619044e-06
1.337000000000000000e+03 3.513595581054687500e+00 -3.911078262329101562e+01 -4.328052513301372528e-03 8.785677142441272736e-03 1.337287481874227524e-03 5.156455095857381821e-03
1.338000000000000000e+03 3.630342960357666016e+00 -3.558616256713867188e+01 -1.297518843784928322e-03 1.327693811617791653e-03 9.052500899997539818e-06 8.453622460365295410e-03
1.339000000000000000e+03 2.124396324157714844e+00 -3.441719818115234375e+01 -2.404088387265801430e-03 3.317853901535272598e-03 2.741296775639057159e-04 3.289890475571155548e-03
1.340000000000000000e+03 1.968319892883300781e+00 -3.168509101867675781e+01 -2.901951549574732780e-03 1.192071475088596344e-03 -5.129640339873731136e-04 2.058023121207952499e-03
1.341000000000000000e+03 3.343995571136474609e+00 -2.745720100402832031e+01 -3.821609308943152428e-03 -3.935143759008497000e-04 -1.264537102542817593e-03 8.800150244496762753e-04
1.342000000000000000e+03 1.904342293739318848e+00 -2.335764122009277344e+01 -3.746952395886182785e-03 -1.064767857315018773e-04 -1.156028825789690018e-03 1.061373986885882914e-04
1.343000000000000000e+03 1.953570485115051270e+00 -2.614693069458007812e+01 -3.654147032648324966e-03 -3.411297511775046587e-04 -1.198583049699664116e-03 3.690108133014291525e-04
1.344000000000000000e+03 3.148464202880859375e+00 -2.055624580383300781e+01 3.528726985678076744e-03 -1.562054967507719994e-04 1.011756365187466145e-03 -2.410499655525200069e-05
1.345000000000000000e+03 6.390466690063476562e-01 -1.916279411315917969e+01 -2.955140080302953720e-03 -1.463402441004291177e-04 -9.304441045969724655e-04 -1.266208564629778266e-04
1.346000000000000000e+03 1.911047101020812988e+00 -1.915486907958984375e+01 3.099860623478889465e-03 -7.843728235457092524e-05 9.064270416274666786e-04 5.553929804591462016e-05
1.347000000000000000e+03 1.978911638259887695e+00 -1.632810592651367188e+01 2.638720674440264702e-03 -1.231500118592521176e-05 7.879217155277729034e-04 9.494314872426912189e-05
1.348000000000000000e+03 6.654081344604492188e-01 -1.203673267364501953e+01 1.860665273852646351e-03 5.427825271908659488e-06 5.598278949037194252e-04 1.085241310647688806e-04
1.349000000000000000e+03 2.004469156265258789e+00 -1.188137340545654297e+01 -2.034973818808794022e-03 2.886469883378595114e-05 -6.018327549099922180e-04 -6.318670784821733832e-05
1.350000000000000000e+03 5.058997154235839844e+00 -3.759541273117065430e+00 -2.420892560621723533e-04 -6.185020320117473602e-04 -2.581773733254522085e-04 -2.470413455739617348e-04
1.351000000000000000e+03 3.477915287017822266e+00 -2.887907981872558594e+00 6.489974330179393291e-04 2.099884150084108114e-04 2.576957340352237225e-04 2.282013156218454242e-04
1.352000000000000000e+03 2.609291315078735352e+00 -3.735698938369750977e+00 1.415582373738288879e-03 1.588989252923056483e-04 4.723443998955190182e-04 7.429071411024779081e-05
1.353000000000000000e+03 1.307451486587524414e+00 -3.433377265930175781e+00 -8.239361923187971115e-04 -1.471583236707374454e-04 -2.913283533416688442e-04 -3.025102487299591303e-04
1.354000000000000000e+03 4.493269920349121094e-01 5.024716377258300781e+00 1.352329400106100366e-05 1.266251956621999852e-06 4.436863491719122976e-06 7.944003073134808801e-07
1.355000000000000000e+03 1.807289481163024902e+00 1.050066184997558594e+01 -1.557852738187648356e-05 4.167856957337789936e-07 -4.548522611003136262e-06 6.877532996441004798e-07
1.356000000000000000e+03 5.935716629028320312e-01 1.063485145568847656e+01 1.542793143016751856e-05 1.851249464834836544e-07 4.683917268266668543e-06 -1.024105358737870120e-06
1.357000000000000000e+03 1.836529016494750977e+00 1.334379100799560547e+01 -1.651518505241256207e-05 -5.859640168637270108e-07 -5.130344561621313915e-06 1.346996668871724978e-06
1.358000000000000000e+03 1.863705515861511230e+00 2.047364425659179688e+01 2.022193621087353677e-05 1.826826974138384685e-07 6.121385467849904671e-06 -1.034232823826641834e-07
1.359000000000000000e+03 1.848618030548095703e+00 1.904391479492187500e+01 -1.961857378773856908e-05 1.337970161330304109e-07 -5.845432951900875196e-06 3.203106757609930355e-07
1.360000000000000000e+03 1.830749869346618652e+00 2.470432281494140625e+01 -2.203832809755112976e-05 -1.407302789857567404e-07 -6.653717264271108434e-06 -1.082051653611415531e-06
1.361000000000000000e+03 5.459547042846679688e+01 2.972409439086914062e+01 2.553066253662109375e+00 1.500834274291992188e+01 5.268422603607177734e+00 7.000901699066162109e+00
1.362000000000000000e+03 5.479849624633789062e+01 3.333621215820312500e+01 2.140025794506072998e-01 1.606846618652343750e+01 4.884740352630615234e+00 -4.979177951812744141e+00
1.363000000000000000e+03 5.439125442504882812e+01 3.313660430908203125e+01 1.329301238059997559e+00 1.258350563049316406e+01 4.173841953277587891e+00 -6.212010860443115234e+00
1.364000000000000000e+03 5.517203903198242188e+01 3.304562759399414062e+01 1.668017655611038208e-01 2.016411399841308594e+01 6.099274635314941406e+00 -3.209527492523193359e+00
1.365000000000000000e+03 5.302117156982421875e+01 3.335385513305664062e+01 1.438124656677246094e+00 3.302590370178222656e+00 1.422214508056640625e+00 -3.249179124832153320e+00
1.366000000000000000e+03 5.373347473144531250e+01 3.390824127197265625e+01 1.076696872711181641e+00 7.801395416259765625e+00 2.663427829742431641e+00 -4.780012607574462891e+00
1.367000000000000000e+03 5.399798583984375000e+01 3.321807861328125000e+01 1.868562221527099609e+00 8.677700042724609375e+00 3.163878440856933594e+00 -5.830106258392333984e+00
1.368000000000000000e+03 5.331588363647460938e+01 3.364327239990234375e+01 1.497803568840026855e+00 5.106392383575439453e+00 1.981258749961853027e+00 -4.267321586608886719e+00
1.369000000000000000e+03 5.428229904174804688e+01 3.350407409667968750e+01 9.442682862281799316e-01 1.129928874969482422e+01 3.673067092895507812e+00 -5.583554744720458984e+00
1.370000000000000000e+03 5.197110748291015625e+01 3.004672241210937500e+01 1.520967841148376465e+00 7.762025594711303711e-01 6.891511082649230957e-01 1.918932676315307617e+00
1.371000000000000000e+03 5.176194000244140625e+01 2.973384094238281250e+01 1.648584008216857910e+00 8.384234309196472168e-01 7.461022138595581055e-01 2.088909626007080078e+00
1.372000000000000000e+03 5.301503753662109375e+01 2.998927688598632812e+01 3.529952049255371094e+00 2.397937774658203125e+00 1.778366923332214355e+00 4.013652801513671875e+00
1.373000000000000000e+03 5.633237457275390625e+01 2.995966339111328125e+01 4.668429851531982422e+00 1.889794158935546875e+01 7.069911479949951172e+00 -1.240612268447875977e+00
1.374000000000000000e+03 5.685302352905273438e+01 3.265070343017578125e+01 5.333320140838623047e+00 1.722305107116699219e+01 6.766911506652832031e+00 3.047010898590087891e+00
1.375000000000000000e+03 5.688072967529296875e+01 3.104597473144531250e+01 9.573559761047363281e+00 1.622263908386230469e+01 7.738859653472900391e+00 -5.049977302551269531e-01
1.376000000000000000e+03 5.701008987426757812e+01 3.064037895202636719e+01 7.934891223907470703e+00 1.599104022979736328e+01 7.177779197692871094e+00 -1.266060352325439453e+00
1.377000000000000000e+03 5.568641662597656250e+01 2.929037094116210938e+01 1.478312015533447266e+00 1.816602134704589844e+01 5.893299579620361328e+00 1.907242298126220703e+00
1.378000000000000000e+03 5.088273239135742188e+01 3.531480026245117188e+01 5.441739559173583984e-01 2.133373737335205078e+00 8.032643198966979980e-01 -1.270460963249206543e+00
1.379000000000000000e+03 5.039181137084960938e+01 3.577385711669921875e+01 4.990766644477844238e-01 1.901206612586975098e+00 7.200849652290344238e-01 -9.956152439117431641e-01
1.380000000000000000e+03 4.918345260620117188e+01 3.521715164184570312e+01 -1.958291605114936829e-02 5.308232903480529785e-01 1.533721089363098145e-01 -1.592254191637039185e-01
1.381000000000000000e+03 5.251103591918945312e+01 3.358484268188476562e+01 9.832479357719421387e-01 2.513484716415405273e+00 1.049019813537597656e+00 -2.554587125778198242e+00
1.382000000000000000e+03 4.936553955078125000e+01 2.926801872253417969e+01 2.707336843013763428e-01 3.320524692535400391e-01 1.808358430862426758e-01 8.543723225593566895e-01
1.383000000000000000e+03 5.223875427246093750e+01 2.969750785827636719e+01 2.331878662109375000e+00 1.461219310760498047e+00 1.137929320335388184e+00 2.833266735076904297e+00
1.384000000000000000e+03 4.884470367431640625e+01 2.986439895629882812e+01 -6.029435396194458008e-01 1.053387373685836792e-01 -1.492814421653747559e-01 4.506065249443054199e-01
1.385000000000000000e+03 4.875518417358398438e+01 2.931647872924804688e+01 -3.591471537947654724e-02 2.453169077634811401e-01 6.282065808773040771e-02 6.263999342918395996e-01
1.386000000000000000e+03 4.838000488281250000e+01 3.538342666625976562e+01 -1.195177286863327026e-01 2.913042604923248291e-01 5.153595656156539917e-02 6.838184595108032227e-02
1.387000000000000000e+03 4.818085479736328125e+01 2.994239044189453125e+01 -8.435801863670349121e-01 9.281900525093078613e-02 -2.252283543348312378e-01 3.224525451660156250e-01
1.388000000000000000e+03 2.764851570129394531e+01 3.337311172485351562e+01 -2.090997695922851562e-01 7.552603259682655334e-03 -6.046414747834205627e-02 -1.221638470888137817e-01
1.389000000000000000e+03 2.981557083129882812e+01 3.236972427368164062e+01 -3.359966576099395752e-01 3.022086806595325470e-02 -9.173273295164108276e-02 -1.921610683202743530e-01
1.390000000000000000e+03 2.018669319152832031e+01 3.920545196533203125e+01 4.159947275184094906e-04 6.111832917667925358e-04 3.081533941440284252e-04 -1.857195980846881866e-03
1.391000000000000000e+03 2.103774261474609375e+01 3.902406311035156250e+01 1.005123136565089226e-03 8.148862980306148529e-04 5.460028187371790409e-04 -1.701963134109973907e-03
1.392000000000000000e+03 1.384692764282226562e+01 2.661066532135009766e+00 -5.285098723106784746e-06 1.518630256214237306e-06 -1.129940528699080460e-06 -1.449643718842708040e-06
1.393000000000000000e+03 3.793927192687988281e+00 2.783568620681762695e+00 4.024314421258168295e-06 3.234639734728261828e-06 2.177686383220134303e-06 -1.393864295096136630e-06
1.394000000000000000e+03 6.021194458007812500e+00 2.662061929702758789e+00 -2.984541879413882270e-06 -3.003602159878937528e-06 -1.796443257262581028e-06 4.902135515294503421e-07
1.395000000000000000e+03 6.021006107330322266e+00 3.460716962814331055e+00 3.595817133827949874e-06 2.972175479953875765e-06 1.970397761397180147e-06 1.972588705712041701e-07
1.396000000000000000e+03 6.753021240234375000e+00 3.426543235778808594e+00 -4.407479991641594097e-06 -2.418495114397956058e-06 -2.047792577286600135e-06 1.265227353997033788e-07
1.397000000000000000e+03 8.918268203735351562e+00 3.269740819931030273e+00 4.148252628510817885e-06 1.716719793876109179e-06 1.759491851771599613e-06 5.320279115039738826e-07
1.398000000000000000e+03 6.747771739959716797e+00 2.636724710464477539e+00 3.213066065654857084e-06 2.807119699355098419e-06 1.806055706765619107e-06 -5.008616881241323426e-07
1.399000000000000000e+03 7.467175006866455078e+00 3.372307062149047852e+00 3.529105242705554701e-06 2.614981667647953145e-06 1.843226073106052354e-06 -5.397835138865048066e-07
1.400000000000000000e+03 4.496510028839111328e+00 3.624104738235473633e+00 2.354510797886177897e-06 3.967514203395694494e-06 1.896607614071399439e-06 -1.086206111722276546e-06
1.401000000000000000e+03 4.530215740203857422e+00 2.750097274780273438e+00 -2.595124669824144803e-06 -3.465066583885345608e-06 -1.818057398850214668e-06 1.547021270198456477e-06
1.402000000000000000e+03 1.818529367446899414e+00 2.616637229919433594e+00 -3.952885435865027830e-06 -2.946535687442519702e-06 -2.069826223305426538e-06 -1.207727223118126858e-06
1.403000000000000000e+03 1.112104034423828125e+01 2.419119119644165039e+00 3.119108669125125743e-06 1.632851194699469488e-06 1.425587925041327253e-06 1.357531065337980181e-08
1.404000000000000000e+03 1.119645977020263672e+01 3.070407629013061523e+00 -3.820443453150801361e-06 -1.604271460564632434e-06 -1.627414462745946366e-06 8.288658648325508693e-09
1.405000000000000000e+03 2.461090850830078125e+01 3.344722747802734375e+01 -7.834446430206298828e-02 -2.770138718187808990e-02 -3.181375563144683838e-02 -7.722349464893341064e-02
1.406000000000000000e+03 2.458460807800292969e+01 3.244901657104492188e+01 -8.325046300888061523e-02 -4.975952580571174622e-02 -3.990299627184867859e-02 -1.103814691305160522e-01
1.407000000000000000e+03 3.054129981994628906e+01 3.226990890502929688e+01 -3.828327953815460205e-01 3.915666416287422180e-02 -1.031028404831886292e-01 -2.005379945039749146e-01
1.408000000000000000e+03 3.126868820190429688e+01 3.216028976440429688e+01 -4.312134981155395508e-01 4.809932038187980652e-02 -1.149342507123947144e-01 -2.071801424026489258e-01
1.409000000000000000e+03 2.192735290527343750e+01 3.225613403320312500e+01 -1.505837589502334595e-02 -5.784139409661293030e-02 -2.186993137001991272e-02 -4.257570952177047729e-02
1.410000000000000000e+03 2.373793029785156250e+01 3.235293960571289062e+01 -5.630084872245788574e-02 -5.994052812457084656e-02 -3.487241268157958984e-02 -9.119185060262680054e-02
1.411000000000000000e+03 4.386008834838867188e+01 3.662329483032226562e+01 -5.107847601175308228e-02 -2.715059220790863037e-01 -9.677531570196151733e-02 4.714836478233337402e-01
1.412000000000000000e+03 3.819157028198242188e+01 4.133174133300781250e+01 2.958132326602935791e-01 -3.374356329441070557e-01 -1.248671673238277435e-02 9.032981842756271362e-02
1.413000000000000000e+03 2.836645507812500000e+01 3.251908493041992188e+01 -2.507705986499786377e-01 9.779531508684158325e-03 -7.229731976985931396e-02 -1.741101443767547607e-01
1.414000000000000000e+03 2.763756179809570312e+01 3.256567764282226562e+01 -2.124342322349548340e-01 -1.317646703682839870e-03 -6.412556022405624390e-02 -1.630465686321258545e-01
1.415000000000000000e+03 4.696804046630859375e+01 3.547925567626953125e+01 -3.866307139396667480e-01 4.965561907738447189e-03 -1.144995465874671936e-01 4.369136989116668701e-01
1.416000000000000000e+03 4.850265884399414062e+01 3.657276153564453125e+01 4.314438700675964355e-01 7.775990962982177734e-01 3.627128899097442627e-01 -2.542450726032257080e-01
1.417000000000000000e+03 4.760628509521484375e+01 3.537759017944335938e+01 -2.740966677665710449e-01 2.230258882045745850e-01 -1.532123237848281860e-02 2.487519383430480957e-01
1.418000000000000000e+03 3.272344589233398438e+01 3.192069053649902344e+01 -5.341081023216247559e-01 6.280360370874404907e-02 -1.413913518190383911e-01 -2.178141623735427856e-01
1.419000000000000000e+03 3.345344161987304688e+01 3.179190635681152344e+01 -5.879229903221130371e-01 6.828090548515319824e-02 -1.558926105499267578e-01 -2.217569798231124878e-01
1.420000000000000000e+03 4.632782363891601562e+01 3.572490692138671875e+01 -3.395694792270660400e-01 -7.968747615814208984e-02 -1.257770806550979614e-01 3.890745341777801514e-01
1.421000000000000000e+03 4.662554550170898438e+01 3.673520278930664062e+01 2.079043537378311157e-01 2.453221678733825684e-01 1.359679549932479858e-01 2.436154037714004517e-01
1.422000000000000000e+03 1.237988185882568359e+01 2.787579298019409180e+00 -5.836030140926595777e-06 -1.109426534640078899e-06 -2.083637127725523897e-06 -5.594548838416812941e-06
1.423000000000000000e+03 9.670669555664062500e+00 -3.393414497375488281e+00 -6.787694874219596386e-04 -3.570443077478557825e-04 -3.107441298197954893e-04 3.115891304332762957e-04
1.424000000000000000e+03 1.363890838623046875e+01 -4.022259235382080078e+00 -1.373666571453213692e-03 -9.575450530974194407e-05 -4.408263193909078836e-04 4.066161927767097950e-04
1.425000000000000000e+03 9.749954223632812500e+00 -4.191499710083007812e+00 8.260086760856211185e-04 2.851808094419538975e-04 3.333568456582725048e-04 -3.445641195867210627e-04
1.426000000000000000e+03 4.003700256347656250e+01 3.056695938110351562e+01 -1.024773478507995605e+00 9.747228771448135376e-02 -2.781903743743896484e-01 -1.875254660844802856e-01
1.427000000000000000e+03 1.366670036315917969e+01 -2.954452037811279297e+00 1.297936774790287018e-03 8.814415923552587628e-05 4.158242663834244013e-04 -4.483247757889330387e-04
1.428000000000000000e+03 1.246617603302001953e+01 -2.617140054702758789e+00 6.596136372536420822e-04 9.695519111119210720e-05 2.269706455990672112e-04 -4.218041067360900342e-05
1.429000000000000000e+03 3.930899429321289062e+01 3.070525932312011719e+01 -9.909421801567077637e-01 9.564317017793655396e-02 -2.685897052288055420e-01 -1.970519721508026123e-01
1.430000000000000000e+03 3.715147018432617188e+01 3.178857421875000000e+01 -9.553048014640808105e-01 6.877142190933227539e-02 -2.659600079059600830e-01 -1.448237299919128418e-01
1.431000000000000000e+03 3.857775115966796875e+01 3.084041023254394531e+01 -9.491115212440490723e-01 9.456782042980194092e-02 -2.563631236553192139e-01 -2.051258832216262817e-01
1.432000000000000000e+03 3.779626846313476562e+01 3.029679489135742188e+01 -7.779628038406372070e-01 1.084477081894874573e-01 -2.008545249700546265e-01 -2.719792425632476807e-01
1.433000000000000000e+03 3.418342590332031250e+01 3.165853500366210938e+01 -6.414976716041564941e-01 7.399911433458328247e-02 -1.702495664358139038e-01 -2.239300161600112915e-01
1.434000000000000000e+03 3.491309356689453125e+01 3.152203369140625000e+01 -6.955102086067199707e-01 7.763950526714324951e-02 -1.853612065315246582e-01 -2.251725047826766968e-01
1.435000000000000000e+03 3.641532516479492188e+01 3.192857360839843750e+01 -8.893727064132690430e-01 6.840131431818008423e-02 -2.462914288043975830e-01 -1.508618146181106567e-01
1.436000000000000000e+03 3.637524795532226562e+01 3.124668312072753906e+01 -8.011857271194458008e-01 8.434166759252548218e-02 -2.150532156229019165e-01 -2.221736460924148560e-01
1.437000000000000000e+03 4.082557296752929688e+01 3.109593772888183594e+01 -1.256579518318176270e+00 7.293972373008728027e-02 -3.550919592380523682e-01 -1.050254330039024353e-01
1.438000000000000000e+03 4.149886322021484375e+01 3.028299903869628906e+01 -1.064083337783813477e+00 9.663642197847366333e-02 -2.902340888977050781e-01 -1.605909913778305054e-01
1.439000000000000000e+03 4.372905349731445312e+01 2.987868118286132812e+01 -1.025408744812011719e+00 9.591971337795257568e-02 -2.788467109203338623e-01 -7.771592587232589722e-02
1.440000000000000000e+03 4.297969436645507812e+01 3.000622749328613281e+01 -1.054020643234252930e+00 9.608950465917587280e-02 -2.873793244361877441e-01 -1.135929226875305176e-01
1.441000000000000000e+03 4.447714996337890625e+01 2.976406669616699219e+01 -9.798906445503234863e-01 1.004626005887985229e-01 -2.638284265995025635e-01 -3.505307435989379883e-02
1.442000000000000000e+03 4.601274108886718750e+01 3.020966339111328125e+01 -1.271379351615905762e+00 5.965605750679969788e-02 -3.635169863700866699e-01 7.101151347160339355e-02
1.443000000000000000e+03 1.349199962615966797e+01 4.187525272369384766e+00 -9.553243216942064464e-06 2.601310313821159070e-07 -2.787933453873847611e-06 -1.224456696036213543e-06
1.444000000000000000e+03 4.669281005859375000e+01 2.949948883056640625e+01 -6.865360140800476074e-01 1.225154399871826172e-01 -1.692061573266983032e-01 1.793333590030670166e-01
1.445000000000000000e+03 4.522121429443359375e+01 2.966435623168945312e+01 -9.125193953514099121e-01 1.037960574030876160e-01 -2.426170110702514648e-01 2.136343531310558319e-02
1.446000000000000000e+03 4.809996795654296875e+01 2.937092399597167969e+01 -3.078170120716094971e-01 1.874692589044570923e-01 -3.610432520508766174e-02 4.383307993412017822e-01
1.447000000000000000e+03 4.223530578613281250e+01 3.014216232299804688e+01 -1.066316485404968262e+00 9.469412267208099365e-02 -2.914867103099822998e-01 -1.395896375179290771e-01
1.448000000000000000e+03 6.663097381591796875e+00 -3.616184234619140625e+00 -2.422144316369667649e-04 -6.173116271384060383e-04 -2.578578132670372725e-04 6.900396692799404263e-05
1.449000000000000000e+03 2.578491449356079102e+00 -7.433502197265625000e+00 -1.322450698353350163e-03 -1.705418544588610530e-04 -4.478977643884718418e-04 -4.889165866188704967e-04
1.450000000000000000e+03 7.670245170593261719e+00 -5.314068317413330078e+00 3.489343507681041956e-04 7.401980110444128513e-04 3.267397114541381598e-04 -4.226363089401274920e-04
1.451000000000000000e+03 5.865364551544189453e+00 -3.689937353134155273e+00 1.931749284267425537e-04 6.331214099191129208e-04 2.478889073245227337e-04 9.190526907332241535e-05
1.452000000000000000e+03 5.807755470275878906e+00 -2.796507358551025391e+00 -1.753263495629653335e-04 -5.730903358198702335e-04 -2.245249925181269646e-04 -1.167299706139601767e-04
1.453000000000000000e+03 2.082539796829223633e+00 -3.118850946426391602e+00 1.356023130938410759e-05 1.603185955900698900e-04 5.216364661464467645e-05 1.890424573502968997e-05
1.454000000000000000e+03 4.258493900299072266e+00 -4.816027164459228516e+00 -4.490285355132073164e-04 -6.089646485634148121e-04 -3.173979639541357756e-04 -3.782759304158389568e-04
1.455000000000000000e+03 1.434282660484313965e+00 -4.829394817352294922e+00 1.069394755177199841e-03 2.383951796218752861e-04 3.923369804397225380e-04 3.622967633418738842e-04
1.456000000000000000e+03 8.950242042541503906e+00 -3.444426774978637695e+00 6.985153886489570141e-04 3.890641382895410061e-04 3.262738464400172234e-04 -3.320670512039214373e-04
1.457000000000000000e+03 2.680298805236816406e+01 4.030097961425781250e+01 -3.051796462386846542e-03 -9.898899123072624207e-03 -3.885208629071712494e-03 5.016737617552280426e-03
1.458000000000000000e+03 2.811359977722167969e+01 3.991519165039062500e+01 -4.691349808126688004e-03 -1.164075825363397598e-02 -4.899632185697555542e-03 9.514665231108665466e-03
1.459000000000000000e+03 2.211252212524414062e+01 4.173280715942382812e+01 -3.161872737109661102e-03 2.051822841167449951e-03 -3.330149338580667973e-04 -5.084102158434689045e-04
1.460000000000000000e+03 2.375550079345703125e+01 3.340714645385742188e+01 -5.316689610481262207e-02 -3.375324234366416931e-02 -2.607604116201400757e-02 -6.083356216549873352e-02
1.461000000000000000e+03 1.883023643493652344e+01 3.774718093872070312e+01 2.058994257822632790e-03 2.707000530790537596e-04 6.989082903601229191e-04 -7.808034424670040607e-04
1.462000000000000000e+03 1.219613647460937500e+01 1.607494354248046875e+01 -1.779047670424915850e-05 -1.349818830931326374e-06 -5.742088433180470020e-06 -9.051532288140151650e-07
1.463000000000000000e+03 1.195506095886230469e+01 1.100592327117919922e+01 -1.208576304634334520e-05 -2.420991336293809582e-07 -3.698358568726689555e-06 1.596736524334119167e-06
1.464000000000000000e+03 4.052095031738281250e+01 3.730537033081054688e+01 -8.925469219684600830e-02 -2.247169464826583862e-01 -9.419149160385131836e-02 3.757533729076385498e-01
1.465000000000000000e+03 3.922536468505859375e+01 3.745048904418945312e+01 -8.022492378950119019e-02 -2.187038362026214600e-01 -8.967863023281097412e-02 3.571892380714416504e-01
1.466000000000000000e+03 1.217058849334716797e+01 2.619927597045898438e+01 3.315335925435647368e-05 -3.278499889347585849e-06 8.962458196037914604e-06 -4.778682978212600574e-06
1.467000000000000000e+03 2.299733543395996094e+01 -1.108994293212890625e+01 -1.526812184602022171e-02 -9.552794098854064941e-01 -2.911642491817474365e-01 -3.093595430254936218e-02
1.468000000000000000e+03 3.232503890991210938e+01 3.983777236938476562e+01 2.177494764328002930e-02 -9.657647460699081421e-02 -2.244045771658420563e-02 6.525576859712600708e-02
1.469000000000000000e+03 2.332291412353515625e+01 2.594461739063262939e-01 1.165760681033134460e-02 -1.042839527130126953e+00 -3.093546032905578613e-01 -3.298909217119216919e-02
1.470000000000000000e+03 2.462963867187500000e+01 -6.875033378601074219e+00 1.033456157892942429e-02 -6.963111758232116699e-01 -2.057929784059524536e-01 -1.044176891446113586e-02
1.471000000000000000e+03 2.313702583312988281e+01 -6.851473808288574219e+00 1.254654116928577423e-02 -9.797737598419189453e-01 -2.901681661605834961e-01 -2.864471822977066040e-02
1.472000000000000000e+03 2.270945358276367188e+01 -1.817450904846191406e+01 1.697702705860137939e-02 -9.185469746589660645e-01 -2.704709768295288086e-01 -2.860208228230476379e-02
1.473000000000000000e+03 2.194914817810058594e+01 -1.206248998641967773e+00 -2.167647471651434898e-03 -1.257373809814453125e+00 -3.778624236583709717e-01 -7.438678294420242310e-02
1.474000000000000000e+03 2.326782035827636719e+01 -1.159784674644470215e+00 8.693646639585494995e-03 -1.027248263359069824e+00 -3.055663704872131348e-01 -3.229872509837150574e-02
1.475000000000000000e+03 1.291841506958007812e+01 3.193905258178710938e+01 3.840894351014867425e-05 -2.409595026620081626e-06 1.079980484064435586e-05 -1.262449404748622328e-05
1.476000000000000000e+03 1.455775737762451172e+01 3.306089019775390625e+01 3.744503555935807526e-05 -1.435600370314205065e-05 6.926709374965867028e-06 -3.756378646357916296e-05
1.477000000000000000e+03 1.174214935302734375e+01 2.153821563720703125e+01 -2.837068495864514261e-05 4.629530110378254903e-07 -8.372319825866725296e-06 -3.604191761041874997e-06
1.478000000000000000e+03 1.214891147613525391e+01 1.738602638244628906e+01 1.966947820619679987e-05 1.452214632990944665e-06 6.336507794912904501e-06 2.909606564571731724e-06
1.479000000000000000e+03 2.276381301879882812e+01 -1.677203750610351562e+01 8.377708494663238525e-03 -9.237504601478576660e-01 -2.746118307113647461e-01 -1.335673034191131592e-02
1.480000000000000000e+03 1.222381782531738281e+01 1.477669715881347656e+01 1.688514566922094673e-05 9.302878538619552273e-07 5.344630153558682650e-06 4.613553414856141899e-07
1.481000000000000000e+03 1.314068889617919922e+01 2.158661460876464844e+01 2.570710785221308470e-05 3.107850687911195564e-08 7.721455403952859342e-06 -9.199060286846361123e-07
1.482000000000000000e+03 1.332879543304443359e+01 6.557708740234375000e+00 -1.049818547471659258e-05 3.373552317498251796e-07 -3.048249027415295132e-06 -4.617963043074269081e-07
1.483000000000000000e+03 1.063459205627441406e+01 4.574138164520263672e+00 7.484356501663569361e-06 -1.824346895773487631e-06 1.698002847660973202e-06 -1.978566388061153702e-06
1.484000000000000000e+03 1.219955062866210938e+01 1.349927520751953125e+01 -1.548237560200504959e-05 -5.627635459859448019e-07 -4.813541636394802481e-06 2.001279000296563026e-07
1.485000000000000000e+03 1.339898872375488281e+01 5.299190998077392578e+00 9.472180863667745143e-06 -2.626423736273864051e-07 2.762861413430073299e-06 4.937387529935222119e-07
1.486000000000000000e+03 8.954297065734863281e+00 3.952374219894409180e+00 -5.165295078768394887e-06 -1.629963776395015884e-06 -2.038577576968236826e-06 -1.830923451962007675e-06
1.487000000000000000e+03 1.282337188720703125e+01 -3.119959068298339844e+01 -8.544166572391986847e-03 -3.961998154409229755e-04 -2.682109829038381577e-03 3.982027526944875717e-03
1.488000000000000000e+03 1.201216030120849609e+01 2.005219459533691406e+01 2.613967262732330710e-05 -2.297324044775450602e-06 7.152704711188562214e-06 4.929054739477578551e-06
1.489000000000000000e+03 7.423781585693359375e+01 -3.469836807250976562e+01 -1.442381367087364197e-02 8.606774330139160156e+00 2.577705144882202148e+00 -1.114435587078332901e-02
1.490000000000000000e+03 7.597914886474609375e+01 -3.495233154296875000e+01 -2.366487123072147369e-02 8.985828399658203125e+00 2.688648939132690430e+00 -1.466450840234756470e-02
1.491000000000000000e+03 7.557736968994140625e+01 -2.231950569152832031e+01 -7.091529667377471924e-03 8.839792251586914062e+00 2.649810075759887695e+00 -2.485674805939197540e-02
1.492000000000000000e+03 7.799195861816406250e+01 -2.858371162414550781e+01 2.124746795743703842e-03 9.303930282592773438e+00 2.791816473007202148e+00 -1.120490208268165588e-02
1.493000000000000000e+03 7.330251312255859375e+01 -3.833469772338867188e+01 -1.515354844741523266e-03 8.399968147277832031e+00 2.519535779953002930e+00 -2.248257957398891449e-02
1.494000000000000000e+03 7.575123596191406250e+01 1.350496292114257812e+01 -8.482944965362548828e-02 7.550545215606689453e+00 2.239714860916137695e+00 -6.580522060394287109e-01
1.495000000000000000e+03 7.763354492187500000e+01 3.620450592041015625e+01 7.486384361982345581e-02 4.611793041229248047e+00 1.405997037887573242e+00 -6.722392886877059937e-02
1.496000000000000000e+03 7.655891418457031250e+01 3.295278167724609375e+01 9.327859431505203247e-02 5.104605197906494141e+00 1.559365153312683105e+00 -1.809141635894775391e-01
1.497000000000000000e+03 7.807662963867187500e+01 -2.167354583740234375e+01 -2.253596903756260872e-03 9.300123214721679688e+00 2.789360761642456055e+00 -1.958076655864715576e-02
1.498000000000000000e+03 7.680178833007812500e+01 -2.400913047790527344e+01 -3.575438633561134338e-03 9.070537567138671875e+00 2.720088720321655273e+00 -2.008275128901004791e-02
1.499000000000000000e+03 7.655217742919921875e+01 -3.087614250183105469e+01 -9.009701199829578400e-03 9.027796745300292969e+00 2.705636024475097656e+00 -9.578392840921878815e-03
1.500000000000000000e+03 7.664968872070312500e+01 -2.951308250427246094e+01 -1.689776894636452198e-03 9.056121826171875000e+00 2.716329574584960938e+00 -9.005696512758731842e-03
1.501000000000000000e+03 7.538477325439453125e+01 -2.634990310668945312e+01 -8.181846700608730316e-03 8.811484336853027344e+00 2.640990734100341797e+00 -1.778064854443073273e-02
1.502000000000000000e+03 7.670863342285156250e+01 -2.677095603942871094e+01 -3.730266820639371872e-03 9.063100814819335938e+00 2.717811107635498047e+00 -1.832618191838264465e-02
1.503000000000000000e+03 7.676425170898437500e+01 -2.538451385498046875e+01 -4.767549689859151840e-03 9.066056251525878906e+00 2.718386650085449219e+00 -1.746967621147632599e-02
1.504000000000000000e+03 7.632001495361328125e+01 -3.223462677001953125e+01 -9.923147968947887421e-03 9.000478744506835938e+00 2.697166681289672852e+00 -1.425546128302812576e-02
1.505000000000000000e+03 7.608376312255859375e+01 -3.358491897583007812e+01 -1.326558273285627365e-02 8.973128318786621094e+00 2.687958717346191406e+00 -8.103516884148120880e-03
1.506000000000000000e+03 7.367848205566406250e+01 -3.077855110168457031e+01 -5.912164226174354553e-03 8.525814056396484375e+00 2.555970668792724609e+00 -1.500090863555669785e-02
1.507000000000000000e+03 7.820118713378906250e+01 2.262886619567871094e+01 1.093995198607444763e-02 5.822476863861083984e+00 1.750025153160095215e+00 -4.046283066272735596e-01
1.508000000000000000e+03 7.712355804443359375e+01 2.003701210021972656e+01 -7.402300834655761719e-03 6.513238430023193359e+00 1.951750874519348145e+00 -6.164122223854064941e-01
1.509000000000000000e+03 7.582936859130859375e+01 2.139467239379882812e+01 1.362892426550388336e-02 6.561327457427978516e+00 1.972486853599548340e+00 -8.177013993263244629e-01
1.510000000000000000e+03 7.692378997802734375e+01 1.190243148803710938e+01 -4.959305003285408020e-02 7.724810600280761719e+00 2.302565097808837891e+00 -4.720320999622344971e-01
1.511000000000000000e+03 7.815718078613281250e+01 1.302730369567871094e+01 -1.829973608255386353e-02 7.588861465454101562e+00 2.271168470382690430e+00 -3.334148824214935303e-01
1.512000000000000000e+03 7.456703186035156250e+01 1.223226165771484375e+01 -1.342102140188217163e-01 7.693684101104736328e+00 2.267842292785644531e+00 -7.157484889030456543e-01
1.513000000000000000e+03 7.693662261962890625e+01 2.282147979736328125e+01 2.656290866434574127e-02 6.075396537780761719e+00 1.830587744712829590e+00 -6.252818107604980469e-01
1.514000000000000000e+03 7.848171997070312500e+01 2.665830039978027344e+01 3.357908874750137329e-02 5.017019271850585938e+00 1.515179514884948730e+00 -2.888970673084259033e-01
1.515000000000000000e+03 7.807504272460937500e+01 -2.030830192565917969e+01 -1.308523118495941162e-03 9.293234825134277344e+00 2.787577867507934570e+00 -2.101080864667892456e-02
1.516000000000000000e+03 7.681405639648437500e+01 -2.265138053894042969e+01 -4.724049475044012070e-03 9.068136215209960938e+00 2.719023704528808594e+00 -2.210163138806819916e-02
1.517000000000000000e+03 7.831350708007812500e+01 3.050577545166015625e+01 4.363792389631271362e-02 4.541000366210937500e+00 1.375391364097595215e+00 -1.899111717939376831e-01
1.518000000000000000e+03 7.747586059570312500e+01 2.688800048828125000e+01 7.304367423057556152e-02 5.321588993072509766e+00 1.618389725685119629e+00 -4.432605206966400146e-01
1.519000000000000000e+03 7.687242889404296875e+01 7.717834472656250000e+00 -4.450482502579689026e-02 8.155235290527343750e+00 2.433219194412231445e+00 -3.573662638664245605e-01
1.520000000000000000e+03 7.549305725097656250e+01 -1.566124248504638672e+01 -1.518021617084741592e-02 8.785456657409667969e+00 2.631083011627197266e+00 -5.637052655220031738e-02
1.521000000000000000e+03 7.532189941406250000e+01 -8.741906166076660156e+00 -2.880591526627540588e-02 8.674053192138671875e+00 2.593574047088623047e+00 -1.140667423605918884e-01
1.522000000000000000e+03 7.804727172851562500e+01 -1.479169940948486328e+01 -4.441201221197843552e-03 9.248311042785644531e+00 2.773160934448242188e+00 -3.597439080476760864e-02
1.523000000000000000e+03 7.539931488037109375e+01 -3.129669189453125000e+00 -4.431869462132453918e-02 8.558233261108398438e+00 2.554174184799194336e+00 -1.896755248308181763e-01
1.524000000000000000e+03 7.801918792724609375e+01 -7.844390392303466797e+00 -6.939188577234745026e-03 9.129252433776855469e+00 2.736693859100341797e+00 -6.724585592746734619e-02
1.525000000000000000e+03 7.810826110839843750e+01 6.068813800811767578e+00 -1.632248982787132263e-02 8.426419258117675781e+00 2.523029088973999023e+00 -2.110233008861541748e-01
1.526000000000000000e+03 7.554648590087890625e+01 2.375688552856445312e+00 -6.545137614011764526e-02 8.374157905578613281e+00 2.492611885070800781e+00 -2.995641231536865234e-01
1.527000000000000000e+03 7.719245147705078125e+01 1.872018623352050781e+01 -1.502821315079927444e-02 6.721345424652099609e+00 2.011895179748535156e+00 -5.978657007217407227e-01
1.528000000000000000e+03 7.811812591552734375e+01 7.456816196441650391e+00 -1.881588436663150787e-02 8.293021202087402344e+00 2.482261419296264648e+00 -2.336196899414062500e-01
1.529000000000000000e+03 7.684421539306640625e+01 4.949553966522216797e+00 -4.029856622219085693e-02 8.373057365417480469e+00 2.499827861785888672e+00 -2.899191975593566895e-01
1.530000000000000000e+03 7.805729675292968750e+01 -8.752138018608093262e-01 -1.171132083982229233e-02 8.891856193542480469e+00 2.664043426513671875e+00 -1.213382780551910400e-01
1.531000000000000000e+03 7.671694183349609375e+01 -3.362208843231201172e+00 -2.300762571394443512e-02 8.774629592895507812e+00 2.625486612319946289e+00 -1.452907621860504150e-01
1.532000000000000000e+03 7.668643951416015625e+01 -1.033758735656738281e+01 -1.403657253831624985e-02 8.939929962158203125e+00 2.677767992019653320e+00 -7.677908986806869507e-02
1.533000000000000000e+03 7.678830718994140625e+01 -1.723377227783203125e+01 -9.067321196198463440e-03 9.036747932434082031e+00 2.708304166793823242e+00 -3.627047687768936157e-02
1.534000000000000000e+03 7.457351684570312500e+01 3.044897079467773438e+01 2.663789391517639160e-01 5.902390956878662109e+00 1.850630879402160645e+00 -4.784177243709564209e-01
1.535000000000000000e+03 7.688494873046875000e+01 3.158302497863769531e+01 1.090171113610267639e-01 5.035795688629150391e+00 1.543443918228149414e+00 -2.622292041778564453e-01
1.536000000000000000e+03 7.714324951171875000e+01 1.742374229431152344e+01 -2.928318642079830170e-02 6.953944683074951172e+00 2.077398538589477539e+00 -5.802365541458129883e-01
1.537000000000000000e+03 7.688838958740234375e+01 9.101210594177246094e+00 -4.785155877470970154e-02 8.027639389038085938e+00 2.393936395645141602e+00 -3.935057520866394043e-01
1.538000000000000000e+03 7.685865783691406250e+01 6.334853172302246094e+00 -4.413126036524772644e-02 8.269739151000976562e+00 2.467682361602783203e+00 -3.227918148040771484e-01
1.539000000000000000e+03 7.803275299072265625e+01 -1.341211605072021484e+01 -4.281023051589727402e-03 9.229749679565429688e+00 2.767640590667724609e+00 -4.059594124555587769e-02
1.540000000000000000e+03 7.677067565917968750e+01 -1.587106323242187500e+01 -9.620894677937030792e-03 9.022161483764648438e+00 2.703762292861938477e+00 -4.390175268054008484e-02
1.541000000000000000e+03 7.668328857421875000e+01 -8.950837135314941406e+00 -1.543242111802101135e-02 8.913767814636230469e+00 2.669500589370727539e+00 -8.711986243724822998e-02
1.542000000000000000e+03 7.674227142333984375e+01 -1.972336053848266602e+00 -2.623901702463626862e-02 8.728662490844726562e+00 2.610727071762084961e+00 -1.635826826095581055e-01
1.543000000000000000e+03 7.776648712158203125e+01 3.467689895629882812e+01 2.598361298441886902e-02 4.579074859619140625e+00 1.381517529487609863e+00 -6.983777880668640137e-02
1.544000000000000000e+03 7.680310058593750000e+01 2.165720462799072266e+00 -3.389304876327514648e-02 8.544597625732421875e+00 2.553211212158203125e+00 -2.309105843305587769e-01
1.545000000000000000e+03 7.682535552978515625e+01 3.559499502182006836e+00 -3.906444460153579712e-02 8.464717864990234375e+00 2.527696132659912109e+00 -2.586635947227478027e-01
1.546000000000000000e+03 7.668173980712890625e+01 -6.181613445281982422e+00 -1.902651786804199219e-02 8.851899147033691406e+00 2.649861812591552734e+00 -1.129914447665214539e-01
1.547000000000000000e+03 7.669449615478515625e+01 -4.774636268615722656e+00 -2.212198264896869659e-02 8.814903259277343750e+00 2.637834310531616211e+00 -1.283501386642456055e-01
1.548000000000000000e+03 7.671247863769531250e+01 -1.313323020935058594e+01 -9.788352996110916138e-03 8.983556747436523438e+00 2.692130565643310547e+00 -5.731105431914329529e-02
1.549000000000000000e+03 7.669389343261718750e+01 -1.173534202575683594e+01 -1.272440236061811447e-02 8.963023185729980469e+00 2.685089588165283203e+00 -6.586373597383499146e-02
1.550000000000000000e+03 7.534508514404296875e+01 -1.152341079711914062e+01 -2.328392304480075836e-02 8.719058036804199219e+00 2.608732223510742188e+00 -8.679654449224472046e-02
1.551000000000000000e+03 7.680560302734375000e+01 -1.996172523498535156e+01 -4.821519367396831512e-03 9.057626724243164062e+00 2.715841770172119141e+00 -2.748300321400165558e-02
1.552000000000000000e+03 7.679807281494140625e+01 -1.860053062438964844e+01 -5.470717325806617737e-03 9.047283172607421875e+00 2.712543725967407227e+00 -3.156569227576255798e-02
1.553000000000000000e+03 7.554136657714843750e+01 -1.833040428161621094e+01 -1.367651391774415970e-02 8.818142890930175781e+00 2.641339778900146484e+00 -3.754778951406478882e-02
1.554000000000000000e+03 2.226936721801757812e+01 5.863156318664550781e+00 -2.848714403808116913e-02 -1.339223980903625488e+00 -4.103133380413055420e-01 -6.307297199964523315e-02
1.555000000000000000e+03 2.353354454040527344e+01 1.025414371490478516e+01 1.417310070246458054e-02 -1.018307328224182129e+00 -3.012402653694152832e-01 -8.638857305049896240e-02
1.556000000000000000e+03 2.264298248291015625e+01 -2.673020553588867188e+01 4.395434632897377014e-03 -8.775078654289245605e-01 -2.619337141513824463e-01 -2.490389533340930939e-02
1.557000000000000000e+03 2.119088363647460938e+01 -2.242400741577148438e+01 2.162167336791753769e-03 -1.123757600784301758e+00 -3.364786505699157715e-01 -2.200176008045673370e-02
1.558000000000000000e+03 2.191336822509765625e+01 3.103388023376464844e+01 -1.348017994314432144e-02 -9.905487298965454102e-02 -3.376051783561706543e-02 -6.290651857852935791e-02
1.559000000000000000e+03 2.350837707519531250e+01 1.308537483215332031e+01 2.200248651206493378e-02 -9.533681273460388184e-01 -2.794097065925598145e-01 -1.178309917449951172e-01
1.560000000000000000e+03 1.273347282409667969e+01 -2.659452056884765625e+01 1.642514951527118683e-03 2.695265691727399826e-03 1.301334123127162457e-03 7.430164259858429432e-04
1.561000000000000000e+03 2.464128303527832031e+01 3.141812515258789062e+01 -8.206195384263992310e-02 -7.887279242277145386e-02 -4.828042164444923401e-02 -1.461651474237442017e-01
1.562000000000000000e+03 2.205999183654785156e+01 2.696809387207031250e+01 -7.107864134013652802e-03 -3.221432268619537354e-01 -9.877533465623855591e-02 -1.209410578012466431e-01
1.563000000000000000e+03 2.314878845214843750e+01 2.706627464294433594e+01 -1.999603770673274994e-02 -2.882144451141357422e-01 -9.246314316987991333e-02 -1.871724724769592285e-01
1.564000000000000000e+03 1.357353019714355469e+01 -6.543211936950683594e+00 -1.582870492711663246e-03 -1.821593032218515873e-04 -5.295089213177561760e-04 3.901767195202410221e-04
1.565000000000000000e+03 2.209604644775390625e+01 2.557758140563964844e+01 -4.669100046157836914e-03 -4.162817895412445068e-01 -1.262852698564529419e-01 -1.329128444194793701e-01
1.566000000000000000e+03 2.449613761901855469e+01 2.161177444458007812e+01 1.961925439536571503e-02 -5.036880373954772949e-01 -1.452206224203109741e-01 -2.720448076725006104e-01
1.567000000000000000e+03 2.114879226684570312e+01 -2.807475852966308594e+01 -3.201048821210861206e-03 -1.157049179077148438e+00 -3.480750620365142822e-01 -2.132296375930309296e-02
1.568000000000000000e+03 2.215969467163085938e+01 2.278100395202636719e+01 2.127191517502069473e-03 -6.154062747955322266e-01 -1.839837282896041870e-01 -1.407175213098526001e-01
1.569000000000000000e+03 2.329787063598632812e+01 2.289752769470214844e+01 5.397776141762733459e-03 -5.271537303924560547e-01 -1.565267890691757202e-01 -2.158566415309906006e-01
1.570000000000000000e+03 2.334857749938964844e+01 2.150803947448730469e+01 1.088148355484008789e-02 -6.035580635070800781e-01 -1.778029799461364746e-01 -2.125577181577682495e-01
1.571000000000000000e+03 2.218915939331054688e+01 2.138412094116210938e+01 5.385069642215967178e-03 -7.119705677032470703e-01 -2.119756489992141724e-01 -1.381510347127914429e-01
1.572000000000000000e+03 2.460163307189941406e+01 1.883150672912597656e+01 3.736366704106330872e-02 -6.097325682640075684e-01 -1.717106699943542480e-01 -2.438271641731262207e-01
1.573000000000000000e+03 1.305219936370849609e+01 -1.599678611755371094e+01 2.780187642201781273e-03 2.112757647410035133e-04 8.974390220828354359e-04 -5.075447843410074711e-04
1.574000000000000000e+03 1.140100955963134766e+01 -1.843841361999511719e+01 -2.911664079874753952e-03 -6.323624402284622192e-04 -1.063207979314029217e-03 9.128342499025166035e-04
1.575000000000000000e+03 1.167129993438720703e+01 -1.569493865966796875e+01 -2.616975223645567894e-03 -3.967782540712505579e-04 -9.041260927915573120e-04 4.754318215418606997e-04
1.576000000000000000e+03 1.245191287994384766e+01 -9.131882667541503906e+00 2.090855501592159271e-03 -5.397510904003866017e-06 6.256373599171638489e-04 -6.146883242763578892e-04
1.577000000000000000e+03 1.352608966827392578e+01 -9.207470893859863281e+00 -2.147499006241559982e-03 -9.186397073790431023e-05 -6.718088407069444656e-04 4.638947721105068922e-04
1.578000000000000000e+03 1.226987266540527344e+01 -1.165696525573730469e+01 2.152331871911883354e-03 2.068427565973252058e-04 7.077524205669760704e-04 -4.719990538433194160e-04
1.579000000000000000e+03 2.349184799194335938e+01 1.449860477447509766e+01 2.470673434436321259e-02 -9.111049175262451172e-01 -2.659194469451904297e-01 -1.360456049442291260e-01
1.580000000000000000e+03 2.347118759155273438e+01 1.590538883209228516e+01 2.405553683638572693e-02 -8.625866174697875977e-01 -2.515593171119689941e-01 -1.551275849342346191e-01
1.581000000000000000e+03 2.228119087219238281e+01 1.295396995544433594e+01 9.597874246537685394e-03 -1.161112189292907715e+00 -3.454542756080627441e-01 -7.469584047794342041e-02
1.582000000000000000e+03 2.352265167236328125e+01 1.167236232757568359e+01 2.034760452806949615e-02 -9.894167780876159668e-01 -2.907207608222961426e-01 -1.008283272385597229e-01
1.583000000000000000e+03 1.108004283905029297e+01 -1.964787864685058594e+01 2.677693963050842285e-03 7.403722265735268593e-04 1.025419798679649830e-03 -5.642308387905359268e-04
1.584000000000000000e+03 1.187385940551757812e+01 -2.435953330993652344e+01 4.465554375201463699e-03 -2.709371619857847691e-04 1.258385134860873222e-03 1.063041272573173046e-04
1.585000000000000000e+03 2.229525184631347656e+01 8.711627960205078125e+00 1.666145748458802700e-03 -1.285640001296997070e+00 -3.851921558380126953e-01 -4.965032637119293213e-02
1.586000000000000000e+03 2.353166770935058594e+01 7.394494533538818359e+00 -7.207725662738084793e-03 -1.057870388031005859e+00 -3.195234537124633789e-01 -7.024249434471130371e-02
1.587000000000000000e+03 2.315328216552734375e+01 -5.432955741882324219e+00 2.541530691087245941e-02 -9.905298948287963867e-01 -2.895343601703643799e-01 -1.906098797917366028e-02
1.588000000000000000e+03 2.318197822570800781e+01 -4.015156745910644531e+00 1.083774585276842117e-02 -9.911822676658630371e-01 -2.941033542156219482e-01 -1.881998963654041290e-02
1.589000000000000000e+03 3.357304811477661133e+00 3.010870170593261719e+01 1.664775118115358055e-05 7.782712714288209099e-07 5.227806923358002678e-06 1.374461680825334042e-05
1.590000000000000000e+03 1.882287979125976562e+00 2.748541450500488281e+01 -2.114920789608731866e-05 -3.171719981764908880e-06 -7.296278454305138439e-06 -6.081274932512314990e-07
1.591000000000000000e+03 4.912583827972412109e+00 3.305238723754882812e+01 -1.562977922731079161e-05 -8.714432624401524663e-06 -7.303263828362105414e-06 1.120943852583877742e-05
1.592000000000000000e+03 2.154062747955322266e+00 3.568611145019531250e+01 -2.300789674336556345e-05 -2.271944140375126153e-05 -1.371820144413504750e-05 6.590190423594322056e-06
1.593000000000000000e+03 3.241544723510742188e+00 2.870348739624023438e+01 -2.451841464790049940e-05 -3.858376658172346652e-06 -8.513037755619734526e-06 7.478882366740435828e-07
1.594000000000000000e+03 2.002114295959472656e+00 3.438565826416015625e+01 2.312580545549280941e-05 -2.143344136129599065e-05 5.077095579508750234e-07 3.995364295406034216e-06
1.595000000000000000e+03 3.454514503479003906e+00 3.528263473510742188e+01 3.528309753164649010e-05 -2.019143721554428339e-05 4.527498276729602367e-06 7.457103947672294453e-06
1.596000000000000000e+03 3.395946025848388672e+00 3.293840026855468750e+01 1.488366251578554511e-05 -4.729899501398904249e-06 3.046128995265462436e-06 7.613253274030284956e-06
1.597000000000000000e+03 5.009941577911376953e+00 3.141694259643554688e+01 1.675345993135124445e-05 1.150497791968518868e-05 8.477531082462519407e-06 1.959659857675433159e-05
1.598000000000000000e+03 3.439312696456909180e+00 3.153266525268554688e+01 -1.717710802040528506e-05 -1.501383212598739192e-05 -9.657282134867273271e-06 7.648722203157376498e-06
1.599000000000000000e+03 3.562899827957153320e+00 -3.692377090454101562e+01 -8.109486661851406097e-04 5.306976381689310074e-03 1.348808291368186474e-03 6.060671526938676834e-03
1.600000000000000000e+03 3.256816387176513672e+00 -3.030561065673828125e+01 -2.407578285783529282e-03 1.537876785732805729e-03 -2.609104558359831572e-04 2.179419621825218201e-03
1.601000000000000000e+03 1.997172594070434570e+00 -2.894898223876953125e+01 -3.189253853633999825e-03 -1.202146377181634307e-04 -9.928405052050948143e-04 2.950706984847784042e-04
1.602000000000000000e+03 1.855737090110778809e+00 2.189258193969726562e+01 -2.124288039340171963e-05 6.540991392967043794e-08 -6.353241133183473721e-06 -3.083986257479409687e-07
1.603000000000000000e+03 3.014117717742919922e+00 2.324253845214843750e+01 -2.461292388034053147e-05 1.491029138378507923e-06 -6.936568297533085570e-06 -1.923530589920119382e-06
1.604000000000000000e+03 3.172369003295898438e+00 -1.917377471923828125e+01 -3.340676659718155861e-03 -4.300789078115485609e-05 -1.015105401165783405e-03 -2.166497724829241633e-04
1.605000000000000000e+03 3.388670444488525391e+00 -1.166409587860107422e+01 2.149180974811315536e-03 -2.225953357992693782e-04 5.779756465926766396e-04 4.263642476871609688e-04
1.606000000000000000e+03 1.688814640045166016e+00 -9.005982398986816406e+00 -1.772282063029706478e-03 4.095444455742835999e-05 -5.193983088247478008e-04 -3.717928484547883272e-04
1.607000000000000000e+03 3.005418062210083008e+00 1.751605606079101562e+01 -2.024348941631615162e-05 2.941894479135953588e-07 -5.984789822832681239e-06 4.723979714071901981e-07
1.608000000000000000e+03 3.176254987716674805e+00 1.178167247772216797e+01 -1.652154787734616548e-05 -1.652082687542133499e-06 -5.452089226309908554e-06 4.177163930307870032e-07
1.609000000000000000e+03 2.034210443496704102e+00 -1.486761188507080078e+01 -2.354057040065526962e-03 -6.724341074004769325e-05 -7.263901061378419399e-04 -1.750845694914460182e-04
1.610000000000000000e+03 3.504674673080444336e+00 -1.329964447021484375e+01 -2.493480918928980827e-03 -9.570333349984139204e-05 -7.767552742734551430e-04 -6.654435856034979224e-05
1.611000000000000000e+03 4.709150314331054688e+00 5.251668453216552734e+00 3.694736960824229755e-06 1.309198637500230689e-06 1.501180690866021905e-06 -2.741711341514019296e-06
1.612000000000000000e+03 2.632667064666748047e+00 7.599490642547607422e+00 1.077357683243462816e-05 9.975552757168770768e-07 3.531339643814135343e-06 -3.694132828968577087e-06
1.613000000000000000e+03 1.809296488761901855e+00 1.477424621582031250e+01 1.782590334187261760e-05 2.483196226421569008e-07 5.422266895038774237e-06 -1.396222387484158389e-06
1.614000000000000000e+03 2.970643281936645508e+00 1.610741233825683594e+01 1.957578024303074926e-05 3.471734011384342011e-09 5.873775535292224959e-06 -7.196440492407418787e-07
1.615000000000000000e+03 2.813676834106445312e+00 8.931802749633789062e+00 -1.266159051738213748e-05 1.800566337806230877e-06 -3.258307287978823297e-06 4.684603027271805331e-06
1.616000000000000000e+03 5.946775913238525391e+00 -4.606852531433105469e+00 -1.781571918400004506e-04 -7.074865861795842648e-04 -2.656931465025991201e-04 -5.538674304261803627e-05
1.617000000000000000e+03 2.416157960891723633e+00 -4.811403751373291016e+00 -1.098062959499657154e-03 -3.106656949967145920e-04 -4.226185847073793411e-04 -2.078065590467303991e-04
1.618000000000000000e+03 1.482849597930908203e+00 -6.248492717742919922e+00 -1.390436198562383652e-03 -1.476484758313745260e-04 -4.614253994077444077e-04 -3.960633766837418079e-04
1.619000000000000000e+03 3.420316696166992188e+00 -2.893220520019531250e+01 4.269617609679698944e-03 8.278831955976784229e-04 1.529250293970108032e-03 1.591431209817528725e-04
1.620000000000000000e+03 3.146248817443847656e+00 -2.194322395324707031e+01 -3.891579341143369675e-03 2.019582025241106749e-04 -1.106886425986886024e-03 -1.277170667890459299e-04
1.621000000000000000e+03 2.172998428344726562e+00 -3.574450302124023438e+01 2.770592458546161652e-03 6.304711103439331055e-03 2.722591161727905273e-03 3.929738420993089676e-03
1.622000000000000000e+03 3.162958621978759766e+00 -2.331995582580566406e+01 4.292673431336879730e-03 -3.418095002416521311e-04 1.185259199701249599e-03 -3.304625861346721649e-04
1.623000000000000000e+03 3.276432514190673828e+00 -1.638411331176757812e+01 -2.890105592086911201e-03 -1.322053285548463464e-04 -9.066932834684848785e-04 3.482481042738072574e-05
1.624000000000000000e+03 3.069334745407104492e+00 2.184012985229492188e+01 2.202070390922017395e-05 -5.672038696502568200e-07 6.436049716285197064e-06 1.619123736418259796e-06
1.625000000000000000e+03 3.036127567291259766e+00 -1.015516757965087891e+01 -1.728881034068763256e-03 1.111217134166508913e-04 -4.853277932852506638e-04 -6.532282568514347076e-04
1.626000000000000000e+03 2.770305633544921875e+00 -8.763733863830566406e+00 1.466897199861705303e-03 6.710532761644572020e-05 4.602007684297859669e-04 5.776806501671671867e-04
1.627000000000000000e+03 3.581736564636230469e+00 -3.427179718017578125e+01 5.068187136203050613e-03 2.357102057430893183e-04 1.591169158928096294e-03 3.188385395333170891e-03
1.628000000000000000e+03 4.827750682830810547e+00 -3.484766769409179688e+01 6.127328146249055862e-03 1.801136066205799580e-03 2.378539182245731354e-03 6.278328597545623779e-03
1.629000000000000000e+03 1.921534061431884766e+00 -2.475112533569335938e+01 3.852991852909326553e-03 -2.863749105017632246e-04 1.069985097274184227e-03 -4.407817032188177109e-04
1.630000000000000000e+03 4.425991535186767578e+00 -2.327499198913574219e+01 -4.570196382701396942e-03 4.778914735652506351e-04 -1.227691420353949070e-03 -2.279142354382202029e-04
1.631000000000000000e+03 3.260347604751586914e+00 -2.605532264709472656e+01 4.644902888685464859e-03 7.699024718021973968e-05 1.416567945852875710e-03 -6.068867514841258526e-04
1.632000000000000000e+03 3.365886449813842773e+00 -1.490568161010742188e+01 2.698745578527450562e-03 1.719849205983337015e-05 8.147832122631371021e-04 -1.405441435053944588e-04
1.633000000000000000e+03 3.102992773056030273e+00 1.029620742797851562e+01 1.538510332466103137e-05 -2.254888386232778430e-06 3.939064299629535526e-06 -2.760478764685103670e-06
1.634000000000000000e+03 3.043292045593261719e+00 1.327892971038818359e+01 1.838607749959919602e-05 6.883815899527689908e-07 5.722337846236769110e-06 -2.746019447386061074e-07
1.635000000000000000e+03 3.054623603820800781e+00 1.895028114318847656e+01 2.059068719972856343e-05 -5.630602117889793590e-07 6.008288437442388386e-06 9.913764920099765732e-09
1.636000000000000000e+03 2.344200706481933594e+01 3.080353975296020508e+00 -1.692629233002662659e-02 -1.059877157211303711e+00 -3.230410516262054443e-01 -2.745418250560760498e-02
1.637000000000000000e+03 2.306558609008789062e+01 -9.674010276794433594e+00 -1.214948296546936035e-02 -9.640010595321655273e-01 -2.928451597690582275e-01 -3.168087452650070190e-02
1.638000000000000000e+03 1.150563716888427734e+01 3.225788879394531250e+01 -7.636006921529769897e-05 2.285508344357367605e-05 -1.605149736860767007e-05 -1.462166528654051945e-05
1.639000000000000000e+03 1.170665740966796875e+01 2.315169525146484375e+01 2.878212762880139053e-05 -1.240385699929902330e-06 8.262522896984592080e-06 -3.485113211354473606e-07
1.640000000000000000e+03 1.596489429473876953e+01 3.711591339111328125e+01 -1.092765796784078702e-05 -3.961746915592812002e-05 -1.516353768238332123e-05 -3.600111085688695312e-05
1.641000000000000000e+03 2.282089424133300781e+01 -1.537309551239013672e+01 -1.945225335657596588e-02 -9.243119955062866211e-01 -2.831292748451232910e-01 -1.853077858686447144e-02
1.642000000000000000e+03 2.292917633056640625e+01 -1.251895427703857422e+01 -3.006236813962459564e-02 -9.455306529998779297e-01 -2.926779091358184814e-01 -2.548044547438621521e-02
1.643000000000000000e+03 1.163213253021240234e+01 -3.466193771362304688e+01 -6.855959538370370865e-03 -4.714107140898704529e-03 -3.471019910648465157e-03 -1.670765504240989685e-02
1.644000000000000000e+03 2.351560401916503906e+01 5.957209587097167969e+00 -2.074951864778995514e-02 -1.063870549201965332e+00 -3.253860175609588623e-01 -5.811041221022605896e-02
1.645000000000000000e+03 3.694339752197265625e+01 3.748805999755859375e+01 -1.832598075270652771e-02 -1.803987324237823486e-01 -5.961741134524345398e-02 2.497077435255050659e-01
1.646000000000000000e+03 3.818500518798828125e+01 3.698860549926757812e+01 -9.656822681427001953e-02 -1.592449694871902466e-01 -7.674396038055419922e-02 3.038172423839569092e-01
1.647000000000000000e+03 1.331539916992187500e+01 3.488689804077148438e+01 5.800486178486607969e-05 1.880097443063277751e-05 2.304174995515495539e-05 -1.395015442540170625e-05
1.648000000000000000e+03 3.518778228759765625e+01 3.816966629028320312e+01 -5.290013737976551056e-03 -1.375358849763870239e-01 -4.284777119755744934e-02 1.136794313788414001e-01
1.649000000000000000e+03 2.322168731689453125e+01 -2.591053009033203125e+00 1.072376780211925507e-02 -1.005163073539733887e+00 -2.983317971229553223e-01 -2.883133292198181152e-02
1.650000000000000000e+03 2.267165374755859375e+01 -1.959401130676269531e+01 2.520500309765338898e-02 -8.966234922409057617e-01 -2.614255249500274658e-01 -3.412248194217681885e-02
1.651000000000000000e+03 1.235733509063720703e+01 2.764086341857910156e+01 -4.652183633879758418e-05 2.632720452311332338e-06 -1.316673478868324310e-05 -4.381865892355563119e-06
1.652000000000000000e+03 2.120792007446289062e+01 -2.099333381652832031e+01 1.016272325068712234e-02 -1.117312669754028320e+00 -3.321449756622314453e-01 -4.920952022075653076e-02
1.653000000000000000e+03 2.259210205078125000e+01 -3.100037002563476562e+01 -4.809363931417465210e-02 -9.108420014381408691e-01 -2.876806855201721191e-01 -6.159478053450584412e-02
1.654000000000000000e+03 2.263225746154785156e+01 -2.814176940917968750e+01 -2.347371046198531985e-04 -8.677043318748474121e-01 -2.603817284107208252e-01 -3.315458446741104126e-02
1.655000000000000000e+03 2.412900543212890625e+01 -2.689037132263183594e+01 1.743128150701522827e-02 -5.982201099395751953e-01 -1.742366552352905273e-01 -2.960224635899066925e-02
1.656000000000000000e+03 2.116771125793457031e+01 -2.525163650512695312e+01 7.168444804847240448e-03 -1.129624605178833008e+00 -3.367368578910827637e-01 -2.753071300685405731e-02
1.657000000000000000e+03 2.113908386230468750e+01 -2.948889541625976562e+01 -1.048468984663486481e-02 -1.170237898826599121e+00 -3.542167544364929199e-01 -2.665979228913784027e-02
1.658000000000000000e+03 1.490617942810058594e+01 -4.037939453125000000e+01 -9.565605223178863525e-02 -1.295094490051269531e-01 -6.754965335130691528e-02 2.809011563658714294e-02
1.659000000000000000e+03 2.299625396728515625e+01 -3.473387145996093750e+01 -1.165592819452285767e-01 -6.828114986419677734e-01 -2.398112416267395020e-01 -3.668127581477165222e-02
1.660000000000000000e+03 4.989822387695312500e+00 -4.050991439819335938e+01 -3.322709118947386742e-03 4.577217157930135727e-03 3.763524000532925129e-04 6.969841197133064270e-03
1.661000000000000000e+03 6.443455696105957031e+00 -3.864349365234375000e+01 -5.078106652945280075e-03 -3.198951715603470802e-03 -2.483117626979947090e-03 7.571843452751636505e-03
1.662000000000000000e+03 5.291830825805664062e+01 3.390629196166992188e+01 1.165864825248718262e+00 4.143153190612792969e+00 1.592705368995666504e+00 -3.391993761062622070e+00
1.663000000000000000e+03 5.458977508544921875e+01 3.353427505493164062e+01 4.079067707061767578e-01 1.389458751678466797e+01 4.290748119354248047e+00 -5.082244396209716797e+00
1.664000000000000000e+03 5.380349349975585938e+01 3.355912399291992188e+01 1.434982299804687500e+00 7.931857585906982422e+00 2.810051918029785156e+00 -5.150340080261230469e+00
1.665000000000000000e+03 5.301600265502929688e+01 2.970114517211914062e+01 3.590430259704589844e+00 3.237701892852783203e+00 2.048439741134643555e+00 4.527617454528808594e+00
1.666000000000000000e+03 5.263473892211914062e+01 2.963736343383789062e+01 2.960000753402709961e+00 2.262787818908691406e+00 1.566836595535278320e+00 3.656529426574707031e+00
1.667000000000000000e+03 5.351124191284179688e+01 2.946553230285644531e+01 3.624267339706420898e+00 6.067852497100830078e+00 2.907635927200317383e+00 5.952925682067871094e+00
1.668000000000000000e+03 5.534038543701171875e+01 2.923056030273437500e+01 1.079405188560485840e+00 1.745373725891113281e+01 5.559943199157714844e+00 3.416665554046630859e+00
1.669000000000000000e+03 5.516014480590820312e+01 2.947820281982421875e+01 1.476422667503356934e+00 1.824122238159179688e+01 5.915293216705322266e+00 4.370777130126953125e+00
1.670000000000000000e+03 5.648720550537109375e+01 3.014151573181152344e+01 5.785560607910156250e+00 1.836419868469238281e+01 7.244927883148193359e+00 -1.654018878936767578e+00
1.671000000000000000e+03 5.618345260620117188e+01 2.975328636169433594e+01 3.464925527572631836e+00 1.909129524230957031e+01 6.766866207122802734e+00 -5.537581443786621094e-01
1.672000000000000000e+03 5.680955505371093750e+01 3.048752403259277344e+01 7.542557239532470703e+00 1.678493881225585938e+01 7.298248767852783203e+00 -1.588984489440917969e+00
1.673000000000000000e+03 5.697251892089843750e+01 3.122745895385742188e+01 9.433616638183593750e+00 1.569591045379638672e+01 7.538858413696289062e+00 1.775037199258804321e-01
1.674000000000000000e+03 5.707791900634765625e+01 3.161684417724609375e+01 9.052291870117187500e+00 1.545735740661621094e+01 7.352894783020019531e+00 1.365004777908325195e+00
1.675000000000000000e+03 5.543092727661132812e+01 3.366197204589843750e+01 -3.127498328685760498e-01 1.759075736999511719e+01 5.183402061462402344e+00 -2.258382558822631836e+00
1.676000000000000000e+03 5.194406509399414062e+01 3.400665664672851562e+01 6.236976981163024902e-01 2.089228630065917969e+00 8.138779401779174805e-01 -1.919652462005615234e+00
1.677000000000000000e+03 5.111145019531250000e+01 2.957335662841796875e+01 1.175500869750976562e+00 7.048076987266540527e-01 5.640925765037536621e-01 1.634023666381835938e+00
1.678000000000000000e+03 5.158365631103515625e+01 3.580685424804687500e+01 6.651615500450134277e-01 3.601800918579101562e+00 1.280088663101196289e+00 -2.093828439712524414e+00
1.679000000000000000e+03 5.126262283325195312e+01 3.650176620483398438e+01 6.035938262939453125e-01 3.578343629837036133e+00 1.254581332206726074e+00 -1.782451629638671875e+00
1.680000000000000000e+03 4.803414154052734375e+01 2.878637313842773438e+01 1.517088115215301514e-01 3.323390185832977295e-01 1.452143490314483643e-01 6.078586578369140625e-01
1.681000000000000000e+03 4.974547576904296875e+01 2.818479728698730469e+01 1.241185069084167480e+00 1.036703109741210938e+00 6.833664774894714355e-01 1.628834009170532227e+00
1.682000000000000000e+03 5.243441390991210938e+01 2.940270996093750000e+01 2.814853668212890625e+00 2.383863210678100586e+00 1.559615015983581543e+00 3.620629072189331055e+00
1.683000000000000000e+03 5.166862106323242188e+01 3.465985107421875000e+01 7.059344649314880371e-01 2.391130924224853516e+00 9.291195869445800781e-01 -1.940605998039245605e+00
1.684000000000000000e+03 5.191306304931640625e+01 3.503295898437500000e+01 8.017233610153198242e-01 3.225347757339477539e+00 1.208121418952941895e+00 -2.369086265563964844e+00
1.685000000000000000e+03 4.928043365478515625e+01 2.873002433776855469e+01 6.987683176994323730e-01 5.553435087203979492e-01 3.762335479259490967e-01 1.091438889503479004e+00
1.686000000000000000e+03 5.046642684936523438e+01 2.914149475097656250e+01 1.085800051689147949e+00 7.203399538993835449e-01 5.418419837951660156e-01 1.531525135040283203e+00
1.687000000000000000e+03 2.619005775451660156e+01 3.167364311218261719e+01 -1.455775946378707886e-01 -3.995236754417419434e-02 -5.565898865461349487e-02 -1.786222457885742188e-01
1.688000000000000000e+03 2.539050865173339844e+01 3.252296447753906250e+01 -1.118739470839500427e-01 -3.761688992381095886e-02 -4.484724998474121094e-02 -1.265987306833267212e-01
1.689000000000000000e+03 4.862089157104492188e+01 2.818607330322265625e+01 7.454947829246520996e-01 6.429563760757446289e-01 4.165353477001190186e-01 1.037352085113525391e+00
1.690000000000000000e+03 2.692727661132812500e+01 3.173290252685546875e+01 -1.751052141189575195e-01 -2.728792093694210052e-02 -6.071794405579566956e-02 -1.900275945663452148e-01
1.691000000000000000e+03 8.246117591857910156e+00 4.006872653961181641e+00 3.840093995677307248e-06 2.198496531491400674e-06 1.811577135413244832e-06 4.008462610727292486e-07
1.692000000000000000e+03 1.042646312713623047e+01 3.171645641326904297e+00 4.128892669541528448e-06 1.391579530718445312e-06 1.656141762396146078e-06 -6.364349047771611367e-08
1.693000000000000000e+03 2.615822982788085938e+01 3.256688308715820312e+01 -1.436651349067687988e-01 -2.528416924178600311e-02 -5.068479105830192566e-02 -1.410788595676422119e-01
1.694000000000000000e+03 2.554971313476562500e+01 3.066391754150390625e+01 -1.165884733200073242e-01 -7.397944480180740356e-02 -5.717037618160247803e-02 -2.001962065696716309e-01
1.695000000000000000e+03 7.487514019012451172e+00 5.381305217742919922e+00 5.413265171227976680e-06 4.758135219162795693e-06 3.051419980693026446e-06 3.173563300151727162e-06
1.696000000000000000e+03 5.306511878967285156e+00 4.327506065368652344e+00 3.459872459643520415e-06 3.242815637349849567e-06 2.010806383623275906e-06 -3.858092156860948307e-07
1.697000000000000000e+03 4.898238182067871094e+00 5.989344120025634766e+00 -5.158930889592738822e-06 -2.025621142820455134e-06 -2.155365564249223098e-06 2.799757112370571122e-06
1.698000000000000000e+03 5.270144462585449219e+00 3.520590066909790039e+00 -2.870616299333050847e-06 -3.410262934266938828e-06 -1.884263724605261814e-06 3.248035795877513010e-07
1.699000000000000000e+03 2.897409439086914062e+00 5.253475666046142578e+00 1.040537972585298121e-05 -2.112537686116411351e-06 2.487852498234133236e-06 2.374325958953704685e-06
1.700000000000000000e+03 2.910176277160644531e+01 3.168875885009765625e+01 -2.834944427013397217e-01 1.381057035177946091e-02 -8.090516179800033569e-02 -2.274552285671234131e-01
1.701000000000000000e+03 2.930907011032104492e+00 3.684650182723999023e+00 4.310251824790611863e-06 5.602269993687514216e-06 2.973756636492908001e-06 4.679364167259336682e-07
1.702000000000000000e+03 1.396629929542541504e+00 4.884755134582519531e+00 -4.426102805155096576e-06 -2.096857087963144295e-06 -1.956887899723369628e-06 4.169999101577559486e-06
1.703000000000000000e+03 1.627813577651977539e+00 3.305822849273681641e+00 9.440321264264639467e-06 1.287658051296602935e-07 2.870726120818289928e-06 1.014919234876288101e-06
1.704000000000000000e+03 2.981763458251953125e+01 3.162516403198242188e+01 -3.235248625278472900e-01 2.561620809137821198e-02 -8.937259763479232788e-02 -2.381807565689086914e-01
1.705000000000000000e+03 3.053730010986328125e+01 3.153956222534179688e+01 -3.645008504390716553e-01 3.727472946047782898e-02 -9.816783666610717773e-02 -2.477191388607025146e-01
1.706000000000000000e+03 3.198344612121582031e+01 3.133292388916015625e+01 -4.511850774288177490e-01 5.769139155745506287e-02 -1.180481091141700745e-01 -2.645828723907470703e-01
1.707000000000000000e+03 4.963240432739257812e+01 3.626118850708007812e+01 5.301625132560729980e-01 1.466885328292846680e+00 5.991143584251403809e-01 -6.077775359153747559e-01
1.708000000000000000e+03 9.711545944213867188e+00 3.941540241241455078e+00 6.486060101451585069e-06 1.206846356183177704e-08 1.949438455994823016e-06 9.055247573996894062e-07
1.709000000000000000e+03 1.051337337493896484e+01 -4.850574970245361328e+00 1.217402284964919090e-03 -2.011795440921559930e-04 3.048668149858713150e-04 -6.816778331995010376e-04
1.710000000000000000e+03 1.043957901000976562e+01 -4.119228363037109375e+00 -7.319666328839957714e-04 -2.719864714890718460e-04 -3.011859371326863766e-04 4.439049225766211748e-04
1.711000000000000000e+03 2.909151077270507812e+01 3.245259857177734375e+01 -2.924533486366271973e-01 2.009776607155799866e-02 -8.170667290687561035e-02 -1.837455332279205322e-01
1.712000000000000000e+03 1.190166759490966797e+01 -4.154699325561523438e+00 -8.418041397817432880e-04 -4.692314832936972380e-04 -3.933107072953134775e-04 8.028676384128630161e-04
1.713000000000000000e+03 3.270658111572265625e+01 3.121740531921386719e+01 -4.958459734916687012e-01 6.605142354965209961e-02 -1.289383620023727417e-01 -2.715615034103393555e-01
1.714000000000000000e+03 2.765856933593750000e+01 3.175088119506835938e+01 -2.090653032064437866e-01 -1.315629109740257263e-02 -6.666647642850875854e-02 -2.046214938163757324e-01
1.715000000000000000e+03 2.838319015502929688e+01 3.173163032531738281e+01 -2.461644560098648071e-01 9.472769452258944511e-04 -7.356515526771545410e-02 -2.165809720754623413e-01
1.716000000000000000e+03 3.199574851989746094e+01 3.204359436035156250e+01 -4.822050631046295166e-01 5.541999265551567078e-02 -1.280355155467987061e-01 -2.134508937597274780e-01
1.717000000000000000e+03 3.126075172424316406e+01 3.144034767150878906e+01 -4.077301621437072754e-01 4.750435426831245422e-02 -1.080677434802055359e-01 -2.572161555290222168e-01
1.718000000000000000e+03 3.925174331665039062e+01 3.003115844726562500e+01 -8.290973901748657227e-01 1.161682009696960449e-01 -2.138787657022476196e-01 -2.536416351795196533e-01
1.719000000000000000e+03 3.997374725341796875e+01 2.989296913146972656e+01 -8.424095511436462402e-01 1.179164275527000427e-01 -2.173479497432708740e-01 -2.407907694578170776e-01
1.720000000000000000e+03 3.710909271240234375e+01 3.110987663269042969e+01 -8.529359102249145508e-01 8.866354823112487793e-02 -2.292817085981369019e-01 -2.180547267198562622e-01
1.721000000000000000e+03 3.852627563476562500e+01 3.016516876220703125e+01 -8.070265650749206543e-01 1.114071831107139587e-01 -2.086858302354812622e-01 -2.638442516326904297e-01
1.722000000000000000e+03 3.564340209960937500e+01 3.138429450988769531e+01 -7.487535476684570312e-01 8.206844329833984375e-02 -2.000055313110351562e-01 -2.245908528566360474e-01
1.723000000000000000e+03 3.774342727661132812e+01 2.961429405212402344e+01 -6.502174735069274902e-01 1.224446892738342285e-01 -1.583318412303924561e-01 -3.175243735313415527e-01
1.724000000000000000e+03 4.076638412475585938e+01 3.042559242248535156e+01 -1.050515532493591309e+00 9.649226814508438110e-02 -2.862069904804229736e-01 -1.755293905735015869e-01
1.725000000000000000e+03 4.747767639160156250e+01 3.628252792358398438e+01 1.435950100421905518e-01 3.852926492691040039e-01 1.586662977933883667e-01 1.152775809168815613e-01
1.726000000000000000e+03 3.343146514892578125e+01 3.109392547607421875e+01 -5.399259924888610840e-01 7.451250404119491577e-02 -1.396240442991256714e-01 -2.765601277351379395e-01
1.727000000000000000e+03 3.415600967407226562e+01 3.096452331542968750e+01 -5.838715434074401855e-01 8.098510652780532837e-02 -1.508659422397613525e-01 -2.808280885219573975e-01
1.728000000000000000e+03 4.366702651977539062e+01 2.920905685424804688e+01 -7.107445597648620605e-01 1.404753774404525757e-01 -1.710807532072067261e-01 -8.510207384824752808e-02
1.729000000000000000e+03 4.596126937866210938e+01 2.957657432556152344e+01 -8.204615116119384766e-01 1.128182858228683472e-01 -2.122929543256759644e-01 8.915863186120986938e-02
1.730000000000000000e+03 7.447858333587646484e+00 -3.550706386566162109e+00 3.776720259338617325e-04 5.493469070643186569e-04 2.781056682579219341e-04 -2.258766326121985912e-04
1.731000000000000000e+03 1.179522037506103516e+01 -5.033881664276123047e+00 2.341087238164618611e-04 7.590823806822299957e-04 2.979573328047990799e-04 -5.930490442551672459e-04
1.732000000000000000e+03 4.291273117065429688e+01 2.933394050598144531e+01 -7.686489224433898926e-01 1.311436444520950317e-01 -1.912515759468078613e-01 -1.339339017868041992e-01
1.733000000000000000e+03 4.740810775756835938e+01 2.943218612670898438e+01 -5.180620551109313965e-01 1.512139290571212769e-01 -1.100544407963752747e-01 2.987825870513916016e-01
1.734000000000000000e+03 3.488055038452148438e+01 3.083126831054687500e+01 -6.263083219528198242e-01 8.790208399295806885e-02 -1.615218669176101685e-01 -2.829547524452209473e-01
1.735000000000000000e+03 3.560625457763671875e+01 3.069671821594238281e+01 -6.674059629440307617e-01 9.270425140857696533e-02 -1.724105179309844971e-01 -2.835685312747955322e-01
1.736000000000000000e+03 1.185058021545410156e+01 2.890812158584594727e+00 2.563110911069088615e-06 2.125311766576487571e-06 1.406526735081570223e-06 1.189983322547050193e-06
1.737000000000000000e+03 1.286604785919189453e+01 3.361991405487060547e+00 -8.191886990971397609e-06 -1.064665184458135627e-06 -2.776965629891492426e-06 -4.504194748733425513e-06
1.738000000000000000e+03 4.442113113403320312e+01 2.909987831115722656e+01 -6.328009963035583496e-01 1.490644812583923340e-01 -1.451209485530853271e-01 -2.108780294656753540e-02
1.739000000000000000e+03 4.069844436645507812e+01 2.975139427185058594e+01 -8.440824747085571289e-01 1.217046156525611877e-01 -2.167133539915084839e-01 -2.242211550474166870e-01
1.740000000000000000e+03 4.142827224731445312e+01 2.960889053344726562e+01 -8.339940309524536133e-01 1.228284165263175964e-01 -2.133496850728988647e-01 -2.018944323062896729e-01
1.741000000000000000e+03 8.984688758850097656e+00 4.591264247894287109e+00 4.948209152644267306e-06 3.368980060258763842e-06 2.495156650184071623e-06 4.236421318637439981e-06
1.742000000000000000e+03 4.591360855102539062e+01 2.893339157104492188e+01 -4.096209704875946045e-01 1.844973862171173096e-01 -6.753708422183990479e-02 1.545905768871307373e-01
1.743000000000000000e+03 4.216534805297851562e+01 2.946873092651367188e+01 -8.092991709709167480e-01 1.277007162570953369e-01 -2.044795453548431396e-01 -1.731950640678405762e-01
1.744000000000000000e+03 6.055356502532958984e+00 -5.537968158721923828e+00 1.267549523618072271e-04 7.687270408496260643e-04 2.686445950530469418e-04 3.596207534428685904e-05
1.745000000000000000e+03 4.246898174285888672e+00 -3.815056085586547852e+00 4.157323564868420362e-04 5.501522100530564785e-04 2.897653612308204174e-04 3.516379219945520163e-04
1.746000000000000000e+03 8.212420463562011719e+00 -3.496720075607299805e+00 -5.566443433053791523e-04 -4.696797986980527639e-04 -3.078972222283482552e-04 3.188836271874606609e-04
1.747000000000000000e+03 3.802632093429565430e+00 -8.458797454833984375e+00 -8.989878115244209766e-04 -2.842886024154722691e-04 -3.549829416442662477e-04 -6.180981290526688099e-04
1.748000000000000000e+03 3.557984828948974609e+00 -7.218671798706054688e+00 8.563285227864980698e-04 3.749448806047439575e-04 3.693820326589047909e-04 4.921583458781242371e-04
1.749000000000000000e+03 2.453170776367187500e+00 -6.128126144409179688e+00 1.211740775033831596e-03 2.363324892939999700e-04 4.344219632912427187e-04 3.673332394100725651e-04
1.750000000000000000e+03 4.664152908325195312e+01 2.887318038940429688e+01 -2.588190138339996338e-01 2.197989225387573242e-01 -1.170603279024362564e-02 2.761934101581573486e-01
1.751000000000000000e+03 4.734952545166015625e+01 2.882586288452148438e+01 -7.470823079347610474e-02 2.619935572147369385e-01 5.618559569120407104e-02 4.219745993614196777e-01
1.752000000000000000e+03 1.272245788574218750e+01 -4.117296695709228516e+00 1.319512492045760155e-03 1.105208721128292382e-04 4.290100187063217163e-04 -5.030792090110480785e-04
1.753000000000000000e+03 1.185346031188964844e+01 -3.358817815780639648e+00 1.127163297496736050e-03 1.040587085299193859e-04 3.693665785249322653e-04 -7.061708020046353340e-04
1.754000000000000000e+03 1.191029357910156250e+01 3.802439212799072266e+00 -1.358074314339319244e-06 -3.316621359772398137e-06 -1.402408656758780126e-06 -1.864401610873755999e-06
1.755000000000000000e+03 1.142568969726562500e+01 4.269284248352050781e+00 -4.385576175991445780e-06 1.821170940274896566e-06 -7.693215593462809920e-07 3.642307774498476647e-06
1.756000000000000000e+03 1.359393787384033203e+01 3.338342428207397461e+00 1.148821047536330298e-05 -1.737904312903992832e-06 2.925092076111468486e-06 1.812007553780858871e-06
1.757000000000000000e+03 2.288378715515136719e+01 3.109950447082519531e+01 -3.354775533080101013e-02 -1.020700484514236450e-01 -4.068534076213836670e-02 -9.828482568264007568e-02
1.758000000000000000e+03 1.257170963287353516e+01 -3.268477678298950195e+00 -1.586558064445853233e-03 3.977758169639855623e-04 -3.566346713341772556e-04 8.969692862592637539e-05
1.759000000000000000e+03 2.285361289978027344e+01 3.227775955200195312e+01 -3.367421030998229980e-02 -6.306883692741394043e-02 -2.902291342616081238e-02 -6.817391514778137207e-02
1.760000000000000000e+03 1.212757778167724609e+01 -1.292995166778564453e+01 -2.350535476580262184e-03 -1.578780938871204853e-04 -7.525241235271096230e-04 7.117639761418104172e-04
1.761000000000000000e+03 1.187704181671142578e+01 -1.426259231567382812e+01 2.517795888707041740e-03 2.943158870039042085e-05 7.641682168468832970e-04 -5.427395808510482311e-04
1.762000000000000000e+03 1.248042392730712891e+01 -6.513075351715087891e+00 1.491903676651418209e-03 2.206100471084937453e-04 5.137540865689516068e-04 -5.554439849220216274e-04
1.763000000000000000e+03 1.244538784027099609e+01 -7.846486091613769531e+00 -1.696256920695304871e-03 -1.615327928448095918e-04 -5.573368980549275875e-04 5.662814364768564701e-04
1.764000000000000000e+03 1.190279388427734375e+01 7.801359653472900391e+00 -6.394073807314271107e-06 -4.343820819485699758e-06 -3.221368388039991260e-06 -4.971349426341475919e-06
1.765000000000000000e+03 4.493507385253906250e+01 3.833088302612304688e+01 4.589379429817199707e-01 -1.769488602876663208e-01 8.459672331809997559e-02 2.841632664203643799e-01
1.766000000000000000e+03 2.721596717834472656e+01 4.171349334716796875e+01 -4.631123039871454239e-03 -1.496578287333250046e-02 -5.879072006791830063e-03 1.428602728992700577e-03
1.767000000000000000e+03 1.822504234313964844e+01 4.154487991333007812e+01 -4.342630272731184959e-04 1.008000806905329227e-03 1.721213338896632195e-04 -2.746240352280437946e-04
1.768000000000000000e+03 2.463648796081542969e+01 2.949077188968658447e-01 6.930877454578876495e-03 -7.908473014831542969e-01 -2.351749241352081299e-01 -9.647513739764690399e-03
1.769000000000000000e+03 2.454652404785156250e+01 -3.998599529266357422e+00 1.913078129291534424e-02 -7.417579889297485352e-01 -2.167881727218627930e-01 -3.327220911160111427e-03
1.770000000000000000e+03 2.414696502685546875e+01 -1.821918869018554688e+01 1.222015824168920517e-02 -6.521620154380798340e-01 -1.919825524091720581e-01 -6.166876759380102158e-03
1.771000000000000000e+03 2.411520767211914062e+01 -1.963477706909179688e+01 1.433533802628517151e-02 -6.460828185081481934e-01 -1.895242482423782349e-01 -1.690987870097160339e-02
1.772000000000000000e+03 2.468734359741210938e+01 1.714501261711120605e+00 1.182235777378082275e-03 -7.964060902595520020e-01 -2.385671585798263550e-01 -1.094596646726131439e-02
1.773000000000000000e+03 1.168597030639648438e+01 9.792258262634277344e+00 9.953078006219584495e-06 -3.965697601415740792e-07 2.866952627300634049e-06 -2.291606051585404202e-06
1.774000000000000000e+03 2.311224555969238281e+01 -8.262530326843261719e+00 -1.256220130017027259e-04 -9.569339752197265625e-01 -2.871178984642028809e-01 -2.959660999476909637e-02
1.775000000000000000e+03 1.331135368347167969e+01 -1.322807884216308594e+01 2.715340116992592812e-03 3.395966632524505258e-05 8.247899822890758514e-04 -4.286295734345912933e-04
1.776000000000000000e+03 2.432373046875000000e+01 -1.257149219512939453e+01 -1.511102169752120972e-02 -6.805513501167297363e-01 -2.086987197399139404e-01 -1.234739273786544800e-02
1.777000000000000000e+03 1.089031887054443359e+01 2.650245094299316406e+01 -4.038319093524478376e-05 3.062621090066386387e-06 -1.119617081712931395e-05 -2.872852519431035034e-06
1.778000000000000000e+03 1.110170269012451172e+01 8.811058044433593750e+00 -2.690515202630194835e-06 2.680804072952014394e-06 -2.913339569587947153e-09 7.476374776160810143e-06
1.779000000000000000e+03 8.581169128417968750e+00 1.932582664489746094e+01 2.006738441195921041e-06 2.874368874472565949e-06 1.464332171963178553e-06 1.752909611241193488e-06
1.780000000000000000e+03 7.696064758300781250e+01 1.470540523529052734e+01 -4.119054600596427917e-02 7.356600761413574219e+00 2.194622993469238281e+00 -5.485165119171142578e-01
1.781000000000000000e+03 7.573131561279296875e+01 1.209967899322509766e+01 -8.681882172822952271e-02 7.696566104888916016e+00 2.282924175262451172e+00 -6.074484586715698242e-01
1.782000000000000000e+03 7.678236389160156250e+01 7.812296748161315918e-01 -3.217021748423576355e-02 8.615347862243652344e+00 2.574953317642211914e+00 -2.056360542774200439e-01
1.783000000000000000e+03 7.543092346191406250e+01 -1.741124629974365234e+00 -4.617623612284660339e-02 8.521197319030761719e+00 2.542506456375122070e+00 -2.123616188764572144e-01
1.784000000000000000e+03 7.561191558837890625e+01 5.147737026214599609e+00 -7.487616688013076782e-02 8.232295989990234375e+00 2.447225809097290039e+00 -3.744359910488128662e-01
1.785000000000000000e+03 7.565786743164062500e+01 9.294066429138183594e+00 -8.509486913681030273e-02 7.945759773254394531e+00 2.358199596405029297e+00 -5.092688798904418945e-01
1.786000000000000000e+03 7.558506011962890625e+01 3.766539335250854492e+00 -6.910261511802673340e-02 8.307488441467285156e+00 2.471515893936157227e+00 -3.364151418209075928e-01
1.787000000000000000e+03 7.407148742675781250e+01 -2.955343246459960938e+00 -6.757784634828567505e-02 8.353663444519042969e+00 2.485825777053833008e+00 -2.256044000387191772e-01
1.788000000000000000e+03 7.532741546630859375e+01 -1.012244796752929688e+01 -2.601409703493118286e-02 8.696722030639648438e+00 2.601212263107299805e+00 -9.893423318862915039e-02
1.789000000000000000e+03 7.668035888671875000e+01 -7.567031860351562500e+00 -1.748878508806228638e-02 8.884731292724609375e+00 2.660172700881958008e+00 -9.941188991069793701e-02
1.790000000000000000e+03 7.619886779785156250e+01 1.879971313476562500e+01 -2.690525725483894348e-02 6.834510326385498047e+00 2.042281627655029297e+00 -7.423294186592102051e-01
1.791000000000000000e+03 7.576418304443359375e+01 1.493277740478515625e+01 -7.498866319656372070e-02 7.395853519439697266e+00 2.196259498596191406e+00 -7.074562311172485352e-01
1.792000000000000000e+03 7.393568420410156250e+01 -9.981835365295410156e+00 -4.217683151364326477e-02 8.454487800598144531e+00 2.523693323135375977e+00 -1.210491284728050232e-01
1.793000000000000000e+03 7.553139495849609375e+01 -1.699486351013183594e+01 -1.675811596214771271e-02 8.806021690368652344e+00 2.636779069900512695e+00 -4.910048097372055054e-02
1.794000000000000000e+03 7.674208831787109375e+01 -1.450822544097900391e+01 -9.642602875828742981e-03 9.003701210021972656e+00 2.698217630386352539e+00 -5.010978132486343384e-02
1.795000000000000000e+03 7.569701385498046875e+01 1.069180011749267578e+01 -8.942248672246932983e-02 7.829022407531738281e+00 2.321879863739013672e+00 -5.569621324539184570e-01
1.796000000000000000e+03 7.550310516357421875e+01 9.884816408157348633e-01 -5.707360059022903442e-02 8.429904937744140625e+00 2.511849641799926758e+00 -2.667052745819091797e-01
1.797000000000000000e+03 7.450102233886718750e+01 3.551552963256835938e+01 1.656859070062637329e-01 5.728155612945556641e+00 1.768152475357055664e+00 -6.625905632972717285e-02
1.798000000000000000e+03 7.534033966064453125e+01 -5.962801456451416016e+00 -3.627037256956100464e-02 8.620015144348144531e+00 2.575123548507690430e+00 -1.466357111930847168e-01
1.799000000000000000e+03 7.532482910156250000e+01 -7.359261512756347656e+00 -3.140325471758842468e-02 8.647228240966796875e+00 2.584747552871704102e+00 -1.291122287511825562e-01
1.800000000000000000e+03 7.536756896972656250e+01 -4.547785282135009766e+00 -4.017092660069465637e-02 8.591930389404296875e+00 2.565527915954589844e+00 -1.666738241910934448e-01
1.801000000000000000e+03 7.458032226562500000e+01 1.656845855712890625e+01 -9.602537006139755249e-02 7.298527717590332031e+00 2.160750627517700195e+00 -8.853800296783447266e-01
1.802000000000000000e+03 7.605374908447265625e+01 1.771270370483398438e+01 -4.234808310866355896e-02 7.021485805511474609e+00 2.093741178512573242e+00 -7.510768771171569824e-01
1.803000000000000000e+03 7.460822296142578125e+01 1.504882526397705078e+01 -1.165531352162361145e-01 7.452111721038818359e+00 2.200667619705200195e+00 -8.274681568145751953e-01
1.804000000000000000e+03 7.430217742919921875e+01 -1.684025955200195312e+01 -2.352709881961345673e-02 8.573760986328125000e+00 2.565070152282714844e+00 -5.833104997873306274e-02
1.805000000000000000e+03 7.556427764892578125e+01 -2.364244842529296875e+01 -6.111275870352983475e-03 8.837893486022949219e+00 2.649534702301025391e+00 -2.209668792784214020e-02
1.806000000000000000e+03 7.681142425537109375e+01 -2.130609512329101562e+01 -2.912795869633555412e-03 9.063560485839843750e+00 2.718194246292114258e+00 -2.461220510303974152e-02
1.807000000000000000e+03 7.538164520263671875e+01 -1.293159675598144531e+01 -2.100137434899806976e-02 8.743029594421386719e+00 2.616608381271362305e+00 -7.268527150154113770e-02
1.808000000000000000e+03 7.543599700927734375e+01 -1.431263923645019531e+01 -1.494950242340564728e-02 8.764122009277343750e+00 2.624751806259155273e+00 -6.244150176644325256e-02
1.809000000000000000e+03 7.554321289062500000e+01 -1.966644477844238281e+01 -5.070206709206104279e-03 8.823219299316406250e+00 2.645444869995117188e+00 -3.436231985688209534e-02
1.810000000000000000e+03 7.555863189697265625e+01 -2.099495315551757812e+01 -8.278849534690380096e-03 8.833758354187011719e+00 2.647644042968750000e+00 -3.099071234464645386e-02
1.811000000000000000e+03 7.534203338623046875e+01 -3.041269874572753906e+01 1.569146057590842247e-03 8.827752113342285156e+00 2.648796319961547852e+00 -1.530380919575691223e-02
1.812000000000000000e+03 7.666484832763671875e+01 -2.815028762817382812e+01 -2.345076063647866249e-03 9.066354751586914062e+00 2.719202995300292969e+00 -1.304700411856174469e-02
1.813000000000000000e+03 7.422935485839843750e+01 -2.455925750732421875e+01 -7.709532044827938080e-03 8.596993446350097656e+00 2.576785326004028320e+00 -2.292812243103981018e-02
1.814000000000000000e+03 7.603188323974609375e+01 2.002861785888671875e+01 -1.323395408689975739e-02 6.702920913696289062e+00 2.006906032562255859e+00 -7.759459018707275391e-01
1.815000000000000000e+03 7.377782440185546875e+01 -2.725923919677734375e+01 -6.711349822580814362e-03 8.524985313415527344e+00 2.555482149124145508e+00 -2.233115956187248230e-02
1.816000000000000000e+03 7.549758911132812500e+01 -2.497891998291015625e+01 -4.024206660687923431e-03 8.832635879516601562e+00 2.648583650588989258e+00 -2.342749387025833130e-02
1.817000000000000000e+03 7.404336547851562500e+01 2.742485618591308594e+01 2.658134102821350098e-01 6.306714534759521484e+00 1.971758484840393066e+00 -7.875439524650573730e-01
1.818000000000000000e+03 7.716616821289062500e+01 2.568677139282226562e+01 5.918557569384574890e-02 5.599449157714843750e+00 1.697590470314025879e+00 -5.265587568283081055e-01
1.819000000000000000e+03 7.442366027832031250e+01 2.521922111511230469e+01 1.682729274034500122e-01 6.414919853210449219e+00 1.974957823753356934e+00 -8.975777626037597656e-01
1.820000000000000000e+03 7.585678863525390625e+01 2.720911216735839844e+01 1.373687237501144409e-01 5.785187244415283203e+00 1.776766777038574219e+00 -6.196141839027404785e-01
1.821000000000000000e+03 7.436421966552734375e+01 -3.305149841308593750e+01 -1.201068703085184097e-02 8.639801025390625000e+00 2.588336944580078125e+00 -1.161290518939495087e-02
1.822000000000000000e+03 7.235301208496093750e+01 -3.518785095214843750e+01 -2.311517484486103058e-02 8.262852668762207031e+00 2.471921205520629883e+00 -1.456580683588981628e-02
1.823000000000000000e+03 7.594680023193359375e+01 -3.620353698730468750e+01 -5.569088831543922424e-02 8.973693847656250000e+00 2.675400972366333008e+00 2.033846639096736908e-02
1.824000000000000000e+03 7.720088958740234375e+01 3.027634811401367188e+01 9.028390794992446899e-02 5.028898239135742188e+00 1.535754561424255371e+00 -3.042908906936645508e-01
1.825000000000000000e+03 7.647153472900390625e+01 2.874593925476074219e+01 1.167031005024909973e-01 5.448922157287597656e+00 1.669687509536743164e+00 -4.615453183650970459e-01
1.826000000000000000e+03 7.536187744140625000e+01 -2.919190216064453125e+01 -1.212565880268812180e-02 8.816732406616210938e+00 2.641381978988647461e+00 -1.477311458438634872e-02
1.827000000000000000e+03 7.491047668457031250e+01 -3.162532997131347656e+01 -1.361219212412834167e-02 8.738887786865234375e+00 2.617582559585571289e+00 -8.564564399421215057e-03
1.828000000000000000e+03 7.484525299072265625e+01 3.405139160156250000e+01 2.296107262372970581e-01 5.725048065185546875e+00 1.786397576332092285e+00 -1.442639082670211792e-01
1.829000000000000000e+03 7.614724731445312500e+01 2.991696357727050781e+01 1.482516080141067505e-01 5.443875312805175781e+00 1.677638053894042969e+00 -4.259558916091918945e-01
1.830000000000000000e+03 2.477059555053710938e+01 1.036278724670410156e+01 3.051414526998996735e-02 -7.986812591552734375e-01 -2.304501235485076904e-01 -1.077720373868942261e-01
1.831000000000000000e+03 1.266544342041015625e+01 -2.253016662597656250e+01 3.372574457898736000e-03 -3.451734373811632395e-04 9.082203032448887825e-04 5.025269347243010998e-04
1.832000000000000000e+03 1.251211261749267578e+01 -2.020948982238769531e+01 -2.989789471030235291e-03 -1.006608363240957260e-03 -1.198919373564422131e-03 1.464127562940120697e-03
1.833000000000000000e+03 2.287522506713867188e+01 -1.395676040649414062e+01 -1.707565225660800934e-02 -9.456721544265747070e-01 -2.888243496417999268e-01 -2.452464774250984192e-02
1.834000000000000000e+03 2.426811218261718750e+01 -1.400230407714843750e+01 -2.255399711430072784e-02 -6.658369302749633789e-01 -2.065172791481018066e-01 -4.179421346634626389e-03
1.835000000000000000e+03 2.475204849243164062e+01 1.178711700439453125e+01 3.589678183197975159e-02 -7.811806201934814453e-01 -2.235851585865020752e-01 -1.281447410583496094e-01
1.836000000000000000e+03 5.767113685607910156e+00 -2.449533653259277344e+01 -5.305729806423187256e-03 1.279906486161053181e-03 -1.207747031003236771e-03 -3.697862848639488220e-05
1.837000000000000000e+03 1.163637256622314453e+01 -2.952435493469238281e+01 -4.646236542612314224e-03 -3.366775345057249069e-03 -2.403903519734740257e-03 1.515880809165537357e-03
1.838000000000000000e+03 2.563688087463378906e+01 2.169855690002441406e+01 2.851743623614311218e-02 -4.098492264747619629e-01 -1.143995374441146851e-01 -3.192607462406158447e-01
1.839000000000000000e+03 2.455623054504394531e+01 2.022483253479003906e+01 2.851505205035209656e-02 -5.589401721954345703e-01 -1.591275334358215332e-01 -2.607543468475341797e-01
1.840000000000000000e+03 2.472694778442382812e+01 1.320132446289062500e+01 4.189276695251464844e-02 -7.594498395919799805e-01 -2.152671217918395996e-01 -1.503289937973022461e-01
1.841000000000000000e+03 2.342304992675781250e+01 1.871641349792480469e+01 2.032854780554771423e-02 -7.443347573280334473e-01 -2.172018736600875854e-01 -1.901808679103851318e-01
1.842000000000000000e+03 2.463702964782714844e+01 1.742865753173828125e+01 4.112514108419418335e-02 -6.564029455184936523e-01 -1.845833361148834229e-01 -2.223048061132431030e-01
1.843000000000000000e+03 1.008764457702636719e+01 -1.809620285034179688e+01 2.764008939266204834e-03 6.378574762493371964e-04 1.020559924654662609e-03 -3.193147422280162573e-04
1.844000000000000000e+03 2.466948509216308594e+01 1.602375602722167969e+01 4.435474798083305359e-02 -6.963181495666503906e-01 -1.955890208482742310e-01 -1.986431032419204712e-01
1.845000000000000000e+03 2.298923873901367188e+01 2.982059288024902344e+01 -3.013345226645469666e-02 -1.551858037710189819e-01 -5.559577792882919312e-02 -1.323685646057128906e-01
1.846000000000000000e+03 2.485877418518066406e+01 3.035375022888183594e+01 -8.347003161907196045e-02 -1.097694486379623413e-01 -5.797184631228446960e-02 -1.925692111253738403e-01
1.847000000000000000e+03 2.353736305236816406e+01 8.824921607971191406e+00 8.944289758801460266e-03 -1.044361829757690430e+00 -3.106252551078796387e-01 -7.592660188674926758e-02
1.848000000000000000e+03 2.478172492980957031e+01 7.486050605773925781e+00 6.581277120858430862e-03 -8.135716319084167480e-01 -2.420970946550369263e-01 -7.303997874259948730e-02
1.849000000000000000e+03 2.426680183410644531e+01 2.573673629760742188e+01 -1.926423609256744385e-02 -3.195300400257110596e-01 -1.016382873058319092e-01 -2.616274654865264893e-01
1.850000000000000000e+03 2.433737945556640625e+01 2.436279296875000000e+01 -5.097451619803905487e-03 -3.835733830928802490e-01 -1.166012510657310486e-01 -2.726787626743316650e-01
1.851000000000000000e+03 8.053977012634277344e+00 -8.044004440307617188e+00 4.420383193064481020e-04 6.211142172105610371e-04 3.189457638654857874e-04 -5.415314808487892151e-04
1.852000000000000000e+03 2.418489074707031250e+01 2.856669616699218750e+01 -5.002852529287338257e-02 -1.875461935997009277e-01 -7.127241790294647217e-02 -2.112517505884170532e-01
1.853000000000000000e+03 3.216709613800048828e+00 -1.779115867614746094e+01 3.025656566023826599e-03 1.294647954637184739e-04 9.465364273637533188e-04 -1.234875617228681222e-05
1.854000000000000000e+03 4.658207893371582031e+00 -1.507023906707763672e+01 -2.494829241186380386e-03 -3.135615843348205090e-04 -8.425172418355941772e-04 6.173324654810130596e-04
1.855000000000000000e+03 4.271533489227294922e+00 2.184574127197265625e+01 -2.735547059273812920e-05 2.375642679908196442e-06 -7.493948487535817549e-06 -4.585641818266594782e-06
1.856000000000000000e+03 3.092544317245483398e+00 2.040492820739746094e+01 -2.115160714311059564e-05 1.995259850673392066e-07 -6.285624294832814485e-06 -8.200070737984788138e-07
1.857000000000000000e+03 4.508646965026855469e+00 -1.788004875183105469e+01 -3.025653306394815445e-03 -3.806742606684565544e-04 -1.021898235194385052e-03 -1.013725632219575346e-04
1.858000000000000000e+03 4.569673538208007812e+00 -1.650556182861328125e+01 2.612490206956863403e-03 4.704836464952677488e-04 9.248921996913850307e-04 -3.693368635140359402e-04
1.859000000000000000e+03 5.416314601898193359e+00 2.555691528320312500e+01 -2.695176954148337245e-05 8.516964840055152308e-07 -7.830021786503493786e-06 -4.056716079503530636e-06
1.860000000000000000e+03 4.546664714813232422e+00 2.845282363891601562e+01 1.888598308141808957e-05 2.989867425640113652e-06 6.562755061167990789e-06 1.064322077581891790e-05
1.861000000000000000e+03 4.717814445495605469e+00 -2.727788162231445312e+01 5.409341771155595779e-03 8.666851790621876717e-04 1.882808050140738487e-03 -4.351372481323778629e-04
1.862000000000000000e+03 3.197813034057617188e+00 -2.468335723876953125e+01 -4.417675081640481949e-03 1.850614789873361588e-04 -1.269784057512879372e-03 3.412903170101344585e-04
1.863000000000000000e+03 4.376360416412353516e+00 -2.193341636657714844e+01 3.998687490820884705e-03 -2.516794193070381880e-04 1.124102389439940453e-03 -4.309471478336490691e-05
1.864000000000000000e+03 4.163913726806640625e+00 1.740456390380859375e+01 1.986912866414058954e-05 3.247008066864509601e-07 6.058148755982983857e-06 -1.375213173560041469e-06
1.865000000000000000e+03 4.233847141265869141e+00 1.883883094787597656e+01 -2.166919148294255137e-05 6.677183250758389477e-07 -6.300441782514099032e-06 1.743427219480508938e-06
1.866000000000000000e+03 4.104389190673828125e+00 1.602764892578125000e+01 -1.907701698655728251e-05 -7.587913728457351681e-07 -5.950742433924460784e-06 3.083245871948747663e-07
1.867000000000000000e+03 4.377678871154785156e+00 -2.057633018493652344e+01 -3.839334240183234215e-03 2.871451433748006821e-04 -1.065656775608658791e-03 -2.832119353115558624e-04
1.868000000000000000e+03 4.430780410766601562e+00 -1.922804260253906250e+01 3.311495296657085419e-03 1.144074922194704413e-04 1.027770806103944778e-03 1.304389588767662644e-04
1.869000000000000000e+03 3.053360223770141602e+00 2.597220611572265625e+01 -2.533595397835597396e-05 -1.081228404586909164e-07 -7.633222594449762255e-06 -2.722005092437029816e-06
1.870000000000000000e+03 4.134551048278808594e+00 2.451902008056640625e+01 -2.757825677690561861e-05 2.134720944013679400e-06 -7.633060704392846674e-06 -5.801081897516269237e-06
1.871000000000000000e+03 4.116150856018066406e+00 2.321722221374511719e+01 2.550160752434749156e-05 -3.668374120024964213e-06 6.549969839397817850e-06 8.306641575472895056e-06
1.872000000000000000e+03 9.733038902282714844e+00 -2.280751609802246094e+01 -5.006225313991308212e-03 1.859642543422523886e-05 -1.496288692578673363e-03 1.302201184444129467e-03
1.873000000000000000e+03 4.475056648254394531e+00 -2.459149742126464844e+01 5.339275114238262177e-03 -4.919978091493248940e-04 1.454183133319020271e-03 -2.625110791996121407e-04
1.874000000000000000e+03 2.977795124053955078e+00 1.470274448394775391e+01 -1.887899088615085930e-05 -2.893600594688905403e-07 -5.750505351898027584e-06 2.597736283860285766e-07
1.875000000000000000e+03 4.431035995483398438e+00 1.195603942871093750e+01 1.354725372948450968e-05 5.731299097533337772e-06 5.783565939054824412e-06 4.902751243207603693e-06
1.876000000000000000e+03 4.206476688385009766e+00 1.332393169403076172e+01 -1.678774970059748739e-05 -3.094226258326671086e-06 -5.964592673990409821e-06 -2.764621058304328471e-06
1.877000000000000000e+03 4.161132335662841797e+00 -9.747574806213378906e+00 8.027847507037222385e-04 1.932411832967773080e-04 2.988077758345752954e-04 7.462062640115618706e-04
1.878000000000000000e+03 4.903778076171875000e+00 -1.354476070404052734e+01 2.018559491261839867e-03 4.594460478983819485e-04 7.434016442857682705e-04 -8.281665504910051823e-04
1.879000000000000000e+03 4.366644382476806641e+00 3.446329116821289062e+01 1.525157813375699334e-06 -7.629916581208817661e-06 -1.831427653087303042e-06 2.373852294113021344e-05
1.880000000000000000e+03 3.207207441329956055e+00 -3.152014541625976562e+01 5.419778637588024139e-03 6.446477491408586502e-04 1.819327822886407375e-03 1.129096955992281437e-03
1.881000000000000000e+03 4.886844635009765625e+00 -2.874798774719238281e+01 -3.110555699095129967e-03 -1.601848751306533813e-03 -1.413721358403563499e-03 3.139516047667711973e-04
1.882000000000000000e+03 5.113732337951660156e+00 1.077552509307861328e+01 -3.590379719753400423e-06 -2.829834784279228188e-06 -1.926064442159258761e-06 -7.007756266830256209e-06
1.883000000000000000e+03 4.689015388488769531e+00 -1.110383510589599609e+01 -6.237316410988569260e-04 8.147882908815518022e-05 -1.626758457859978080e-04 -8.414365584030747414e-04
1.884000000000000000e+03 5.382872581481933594e+00 -6.709915637969970703e+00 1.790357346180826426e-04 6.666173576377332211e-04 2.536959364078938961e-04 2.564718306530267000e-04
1.885000000000000000e+03 6.536981105804443359e+00 3.093025970458984375e+01 -2.863065310521051288e-05 7.912534556453465484e-07 -8.351819815288763493e-06 8.334276571986265481e-06
1.886000000000000000e+03 3.258073806762695312e+00 3.420799636840820312e+01 -2.330386087123770267e-05 -9.409109225089196116e-06 -9.813890756049659103e-06 1.642531788093037903e-05
1.887000000000000000e+03 4.227082252502441406e+00 -3.096251106262207031e+01 4.822591654374264181e-05 -3.090524813160300255e-03 -9.126896620728075504e-04 6.163555081002414227e-04
1.888000000000000000e+03 4.882227897644042969e+00 -3.230226516723632812e+01 5.655364133417606354e-03 2.968126675114035606e-03 2.587047172710299492e-03 4.912453703582286835e-03
1.889000000000000000e+03 3.541399478912353516e+00 -3.285463714599609375e+01 -1.883875695057213306e-03 8.369596616830676794e-05 -5.400539375841617584e-04 3.474621335044503212e-03
1.890000000000000000e+03 3.572006702423095703e+00 7.530955791473388672e+00 -7.487921266147168353e-06 -2.516543190722586587e-06 -3.001339337060926482e-06 3.144662287013488822e-06
1.891000000000000000e+03 3.368437051773071289e+00 -4.866324424743652344e+00 6.719367811456322670e-04 5.077690002508461475e-04 3.539117169566452503e-04 4.050255520269274712e-04
1.892000000000000000e+03 4.029180526733398438e+00 5.537552356719970703e+00 3.949993697460740805e-06 -3.524869725879398175e-06 1.275371772635480738e-07 2.928380354205728509e-06
1.893000000000000000e+03 6.049253463745117188e+00 5.053209781646728516e+00 4.912681106361560524e-06 3.488567472231807187e-06 2.520374664527480491e-06 4.239527697791345417e-07
1.894000000000000000e+03 1.316055107116699219e+01 -2.853295326232910156e+01 -6.753310561180114746e-03 -2.634715987369418144e-03 -2.816407941281795502e-03 1.438571140170097351e-03
1.895000000000000000e+03 1.175530910491943359e+01 -2.697048377990722656e+01 -4.759514238685369492e-03 -2.602585125714540482e-03 -2.208629855886101723e-03 -1.406440744176506996e-03
1.896000000000000000e+03 6.023342132568359375e+00 -3.601554489135742188e+01 -1.488780253566801548e-04 -5.211309995502233505e-03 -1.608056481927633286e-03 1.010226923972368240e-02
1.897000000000000000e+03 2.267724609375000000e+01 -2.247371292114257812e+01 1.906470768153667450e-02 -8.760161399841308594e-01 -2.570854127407073975e-01 -3.247359767556190491e-02
1.898000000000000000e+03 2.117794609069824219e+01 -2.384364128112792969e+01 2.071523293852806091e-02 -1.144382119178771973e+00 -3.371000885963439941e-01 -2.514721266925334930e-02
1.899000000000000000e+03 2.463287925720214844e+01 -8.307197570800781250e+00 -1.964656868949532509e-03 -6.910358667373657227e-01 -2.079001516103744507e-01 -1.274332217872142792e-02
1.900000000000000000e+03 1.721599006652832031e+01 3.893469619750976562e+01 5.261178012005984783e-04 2.940281992778182030e-04 2.460438117850571871e-04 -3.177574835717678070e-04
1.901000000000000000e+03 1.161935520172119141e+01 3.894105148315429688e+01 -3.815529635176062584e-05 6.100324389990419149e-05 6.854385446786182001e-06 -4.936346886097453535e-05
1.902000000000000000e+03 2.419565391540527344e+01 -1.681397056579589844e+01 -1.947042881511151791e-03 -6.603462100028991699e-01 -1.986879706382751465e-01 -4.461670294404029846e-03
1.903000000000000000e+03 2.458554267883300781e+01 -1.129925131797790527e+00 1.444364245980978012e-02 -7.768907546997070312e-01 -2.287341356277465820e-01 -1.091386564075946808e-02
1.904000000000000000e+03 2.348666763305664062e+01 4.513192653656005859e+00 -3.048790246248245239e-02 -1.061870932579040527e+00 -3.277076482772827148e-01 -4.485140368342399597e-02
1.905000000000000000e+03 2.477356719970703125e+01 6.041438102722167969e+00 -8.391106501221656799e-03 -8.111412525177001953e-01 -2.458597123622894287e-01 -5.710222944617271423e-02
1.906000000000000000e+03 2.475609207153320312e+01 4.589517593383789062e+00 -1.141689904034137726e-02 -8.067573904991149902e-01 -2.454522848129272461e-01 -3.551334515213966370e-02
1.907000000000000000e+03 3.531637191772460938e+01 4.057614898681640625e+01 1.112969219684600830e-01 -2.168047428131103516e-01 -3.165234625339508057e-02 6.442126631736755371e-02
1.908000000000000000e+03 7.729267120361328125e+00 3.013964462280273438e+01 6.640113497269339859e-06 1.593311935721430928e-05 6.771970220142975450e-06 1.513570987299317494e-05
1.909000000000000000e+03 2.443219757080078125e+01 -1.114705944061279297e+01 -2.174612320959568024e-02 -6.710456609725952148e-01 -2.078375369310379028e-01 -1.370978076010942459e-02
1.910000000000000000e+03 2.268024826049804688e+01 -2.959360504150390625e+01 -3.795200213789939880e-02 -8.858771324157714844e-01 -2.771487236022949219e-01 -4.750251397490501404e-02
1.911000000000000000e+03 2.457511520385742188e+01 -5.432788372039794922e+00 1.391153316944837570e-02 -7.165646553039550781e-01 -2.107959389686584473e-01 -6.443019956350326538e-03
1.912000000000000000e+03 2.961146163940429688e+01 4.092107772827148438e+01 3.665152704343199730e-03 -3.905477002263069153e-02 -1.061688549816608429e-02 2.039914252236485481e-03
1.913000000000000000e+03 2.181938934326171875e+01 3.938642120361328125e+01 7.463023939635604620e-05 1.031761174090206623e-03 3.319174284115433693e-04 -1.856823102571070194e-03
1.914000000000000000e+03 2.472787094116210938e+01 3.144466161727905273e+00 -9.499894455075263977e-03 -8.032229542732238770e-01 -2.438168525695800781e-01 -2.224563248455524445e-02
1.915000000000000000e+03 1.107640647888183594e+01 2.792320060729980469e+01 3.167858085362240672e-05 -5.910852109991537873e-07 9.326248800789471716e-06 -3.020660187758039683e-06
1.916000000000000000e+03 7.580107879638671875e+01 4.038239669799804688e+01 -1.831579394638538361e-02 5.023912429809570312e+00 1.501679062843322754e+00 -1.574923694133758545e-01
1.917000000000000000e+03 6.059411048889160156e+00 1.022628402709960938e+01 -1.380768571834778413e-05 4.477800757740624249e-06 -2.798965397232677788e-06 1.343472035841841716e-06
1.918000000000000000e+03 7.757552146911621094e+00 1.857199478149414062e+01 -7.372886557277524844e-06 -9.031893455357931089e-07 -2.482822765159653500e-06 -2.072572442557429895e-06
1.919000000000000000e+03 2.377797508239746094e+01 -3.847801589965820312e+01 6.736069172620773315e-02 -5.347373485565185547e-01 -1.402129977941513062e-01 5.410030484199523926e-02
1.920000000000000000e+03 2.266229820251464844e+01 -2.103172111511230469e+01 1.756419427692890167e-02 -8.902176618576049805e-01 -2.617960572242736816e-01 -2.891107089817523956e-02
1.921000000000000000e+03 1.087055110931396484e+01 -3.724360656738281250e+01 2.524155750870704651e-02 -1.737095415592193604e-02 2.361180959269404411e-03 2.301843278110027313e-02
1.922000000000000000e+03 1.231370162963867188e+01 -3.364245605468750000e+01 5.846647545695304871e-03 -8.199376316042616963e-05 1.729396171867847443e-03 -7.868199609220027924e-03
1.923000000000000000e+03 2.433551025390625000e+01 -2.550677680969238281e+01 1.014231238514184952e-03 -5.693251490592956543e-01 -1.704932749271392822e-01 -2.348757535219192505e-02
1.924000000000000000e+03 3.245882034301757812e+01 4.152594757080078125e+01 5.025178939104080200e-02 -1.155788451433181763e-01 -1.959811709821224213e-02 2.341291308403015137e-02
1.925000000000000000e+03 4.185690689086914062e+01 3.803424453735351562e+01 1.041591838002204895e-01 -3.087956011295318604e-01 -6.139092892408370972e-02 3.676051497459411621e-01
1.926000000000000000e+03 3.890024185180664062e+01 3.917757415771484375e+01 2.526568174362182617e-01 -2.852424085140228271e-01 -9.775670245289802551e-03 2.819161117076873779e-01
1.927000000000000000e+03 5.437675094604492188e+01 3.406747817993164062e+01 2.229703962802886963e-01 1.153269672393798828e+01 3.526700258255004883e+00 -4.802912712097167969e+00
1.928000000000000000e+03 5.261521148681640625e+01 3.402169036865234375e+01 1.029911279678344727e+00 3.528966903686523438e+00 1.367663502693176270e+00 -3.009085416793823242e+00
1.929000000000000000e+03 5.272089004516601562e+01 3.370374298095703125e+01 1.218306779861450195e+00 2.984945774078369141e+00 1.260975718498229980e+00 -2.946079969406127930e+00
1.930000000000000000e+03 5.365169525146484375e+01 2.918399047851562500e+01 3.056007862091064453e+00 7.601551055908203125e+00 3.197267770767211914e+00 6.185150623321533203e+00
1.931000000000000000e+03 5.295298385620117188e+01 2.933264923095703125e+01 3.217562198638916016e+00 4.031059741973876953e+00 2.174586534500122070e+00 4.759708404541015625e+00
1.932000000000000000e+03 5.403172683715820312e+01 2.927629661560058594e+01 2.867691516876220703e+00 9.794363021850585938e+00 3.798616409301757812e+00 6.608833312988281250e+00
1.933000000000000000e+03 5.495490264892578125e+01 2.934243202209472656e+01 1.402903556823730469e+00 1.646310043334960938e+01 5.359801292419433594e+00 5.176128387451171875e+00
1.934000000000000000e+03 5.567785263061523438e+01 3.349558258056640625e+01 1.761586815118789673e-01 1.858398437500000000e+01 5.628042697906494141e+00 -9.048439860343933105e-01
1.935000000000000000e+03 5.610905838012695312e+01 2.907385826110839844e+01 1.552782416343688965e+00 1.731738281250000000e+01 5.661049842834472656e+00 8.167155981063842773e-01
1.936000000000000000e+03 5.604257583618164062e+01 3.329507064819335938e+01 1.316573858261108398e+00 1.935274505615234375e+01 6.200795650482177734e+00 9.559633135795593262e-01
1.937000000000000000e+03 5.559811782836914062e+01 3.324537277221679688e+01 4.309115409851074219e-01 1.985073852539062500e+01 6.084495067596435547e+00 -9.661256074905395508e-01
1.938000000000000000e+03 5.733060836791992188e+01 3.269218444824218750e+01 5.183646678924560547e+00 1.555741691589355469e+01 6.222319126129150391e+00 2.714956045150756836e+00
1.939000000000000000e+03 5.736655807495117188e+01 3.305069732666015625e+01 4.200224876403808594e+00 1.566815376281738281e+01 5.960513591766357422e+00 2.775114536285400391e+00
1.940000000000000000e+03 5.659127807617187500e+01 3.315769195556640625e+01 2.923359870910644531e+00 1.798671150207519531e+01 6.273021697998046875e+00 2.385432004928588867e+00
1.941000000000000000e+03 5.211058044433593750e+01 3.447389602661132812e+01 8.440753817558288574e-01 2.937293767929077148e+00 1.134410738945007324e+00 -2.391312360763549805e+00
1.942000000000000000e+03 5.311652755737304688e+01 3.368004226684570312e+01 1.382801413536071777e+00 4.645006179809570312e+00 1.808342218399047852e+00 -3.756633043289184570e+00
1.943000000000000000e+03 5.095524215698242188e+01 2.903617095947265625e+01 1.544317722320556641e+00 1.110780596733093262e+00 7.965294718742370605e-01 2.043369531631469727e+00
1.944000000000000000e+03 5.148161697387695312e+01 2.943195343017578125e+01 1.689357042312622070e+00 9.901654124259948730e-01 8.038567304611206055e-01 2.068608760833740234e+00
1.945000000000000000e+03 5.539732742309570312e+01 3.330931472778320312e+01 5.454573407769203186e-02 1.954815483093261719e+01 5.880810260772705078e+00 -2.048727273941040039e+00
1.946000000000000000e+03 4.982967376708984375e+01 2.869756317138671875e+01 1.007233142852783203e+00 7.477003335952758789e-01 5.264800190925598145e-01 1.407657384872436523e+00
1.947000000000000000e+03 5.265172195434570312e+01 2.920040321350097656e+01 2.949406147003173828e+00 3.304763555526733398e+00 1.876250982284545898e+00 4.164509773254394531e+00
1.948000000000000000e+03 5.257042312622070312e+01 3.710352325439453125e+01 1.676480770111083984e-01 5.968989849090576172e+00 1.840991377830505371e+00 -2.351350545883178711e+00
1.949000000000000000e+03 5.042213058471679688e+01 3.731053924560546875e+01 6.233884692192077637e-01 3.018921375274658203e+00 1.092692971229553223e+00 -1.151044726371765137e+00
1.950000000000000000e+03 4.868082427978515625e+01 2.875592422485351562e+01 4.050050079822540283e-01 4.213664233684539795e-01 2.479114383459091187e-01 8.246624469757080078e-01
1.951000000000000000e+03 5.062686157226562500e+01 2.812476158142089844e+01 1.683492422103881836e+00 1.662655472755432129e+00 1.003844380378723145e+00 2.316342115402221680e+00
1.952000000000000000e+03 4.797924041748046875e+01 2.819314384460449219e+01 5.054319500923156738e-01 5.076552033424377441e-01 3.039261400699615479e-01 7.880252003669738770e-01
1.953000000000000000e+03 2.699172019958496094e+01 3.087265396118164062e+01 -1.673861294984817505e-01 -4.640230908989906311e-02 -6.413652747869491577e-02 -2.311244010925292969e-01
1.954000000000000000e+03 3.748878955841064453e+00 4.717711448669433594e+00 1.228664132213452831e-06 1.704385226730664726e-06 8.799148076832352672e-07 -4.054485543747432530e-06
1.955000000000000000e+03 4.557512760162353516e+00 4.470188140869140625e+00 -3.246016603952739388e-06 -2.585682295830338262e-06 -1.749509692672290839e-06 6.981170486142218579e-07
1.956000000000000000e+03 6.801719665527343750e+00 4.277145862579345703e+00 5.698822405975079164e-06 2.087648226734017953e-06 2.335941189812729135e-06 9.051697134054847993e-07
1.957000000000000000e+03 5.809226512908935547e+00 6.354320049285888672e+00 1.288477415073430166e-05 -2.229817710031056777e-06 3.196486886736238375e-06 5.213234544498845935e-06
1.958000000000000000e+03 2.401202201843261719e+01 2.998001861572265625e+01 -5.637090653181076050e-02 -1.354963332414627075e-01 -5.756017193198204041e-02 -1.701165735721588135e-01
1.959000000000000000e+03 5.372519969940185547e+00 5.097243785858154297e+00 -3.654637566796736792e-06 -2.965443400171352550e-06 -1.986024244615691714e-06 1.074739884643349797e-06
1.960000000000000000e+03 1.125435543060302734e+01 3.710184335708618164e+00 4.358749720267951488e-06 1.905495196297124494e-06 1.879273440863471478e-06 -1.073041744348302018e-06
1.961000000000000000e+03 9.559696197509765625e+00 5.481244087219238281e+00 7.727446245553437620e-06 1.559711563459131867e-06 2.786147433653241023e-06 2.546808445913484320e-06
1.962000000000000000e+03 7.545304775238037109e+00 4.175896167755126953e+00 -3.677093218357185833e-06 -1.706067337181593757e-06 -1.614948246242420282e-06 7.850280212551297154e-07
1.963000000000000000e+03 8.401239395141601562e+00 4.630757808685302734e+00 -1.829869688663166016e-06 -2.876995040423935279e-06 -1.412059418726130389e-06 1.451517391615197994e-06
1.964000000000000000e+03 2.984219741821289062e+01 3.087995529174804688e+01 -3.040556907653808594e-01 1.894680224359035492e-02 -8.553266525268554688e-02 -2.796636521816253662e-01
1.965000000000000000e+03 3.055122375488281250e+01 3.080854988098144531e+01 -3.405300080776214600e-01 3.191874176263809204e-02 -9.258338063955307007e-02 -2.912794947624206543e-01
1.966000000000000000e+03 9.059451103210449219e+00 -4.293653964996337891e+00 -8.976372191682457924e-04 -3.259248333051800728e-04 -3.670686273835599422e-04 4.042109358124434948e-04
1.967000000000000000e+03 9.928721427917480469e+00 -5.023053169250488281e+00 -9.276511846110224724e-04 1.566762948641553521e-04 -2.312924625584855676e-04 2.929162583313882351e-04
1.968000000000000000e+03 2.771776580810546875e+01 3.093786430358886719e+01 -2.024523615837097168e-01 -2.604664675891399384e-02 -6.854970008134841919e-02 -2.437960505485534668e-01
1.969000000000000000e+03 2.913807868957519531e+01 3.092647743225097656e+01 -2.695092856884002686e-01 4.642063751816749573e-03 -7.946016639471054077e-02 -2.685613632202148438e-01
1.970000000000000000e+03 3.198023796081542969e+01 3.062109184265136719e+01 -4.141037166118621826e-01 5.619315430521965027e-02 -1.073731705546379089e-01 -3.104510307312011719e-01
1.971000000000000000e+03 3.269615936279296875e+01 3.051169204711914062e+01 -4.502581357955932617e-01 6.748245656490325928e-02 -1.148326992988586426e-01 -3.176965117454528809e-01
1.972000000000000000e+03 8.326906204223632812e+00 -4.364123344421386719e+00 6.625829264521598816e-04 4.711601650342345238e-04 3.401229332666844130e-04 -4.854459257330745459e-04
1.973000000000000000e+03 1.138086032867431641e+01 -9.133140563964843750e+00 -2.189598744735121727e-03 3.658922505564987659e-04 -5.471119657158851624e-04 3.534630814101547003e-04
1.974000000000000000e+03 3.918570327758789062e+01 2.935196304321289062e+01 -6.682993173599243164e-01 1.344814747571945190e-01 -1.601453572511672974e-01 -2.929877638816833496e-01
1.975000000000000000e+03 3.341310119628906250e+01 3.039280509948730469e+01 -4.859389960765838623e-01 7.691410928964614868e-02 -1.227074638009071350e-01 -3.243021368980407715e-01
1.976000000000000000e+03 3.706480026245117188e+01 3.042873382568359375e+01 -7.437301874160766602e-01 1.026638448238372803e-01 -1.923198997974395752e-01 -2.780940234661102295e-01
1.977000000000000000e+03 3.846737670898437500e+01 2.948495674133300781e+01 -6.635063886642456055e-01 1.298388689756393433e-01 -1.601002514362335205e-01 -3.068503439426422119e-01
1.978000000000000000e+03 3.990138626098632812e+01 2.921401786804199219e+01 -6.621163487434387207e-01 1.415652036666870117e-01 -1.561653316020965576e-01 -2.752813696861267090e-01
1.979000000000000000e+03 1.098154544830322266e+01 5.203265190124511719e+00 -7.235029897856293246e-06 4.559809894999489188e-06 -8.025659212762548123e-07 5.119051820656750351e-06
1.980000000000000000e+03 3.633417892456054688e+01 3.056229209899902344e+01 -7.069723606109619141e-01 9.885416179895401001e-02 -1.824354529380798340e-01 -2.818313539028167725e-01
1.981000000000000000e+03 4.062104034423828125e+01 2.907258224487304688e+01 -6.448015570640563965e-01 1.465678215026855469e-01 -1.494701206684112549e-01 -2.520034313201904297e-01
1.982000000000000000e+03 3.413005828857421875e+01 3.026700782775878906e+01 -5.195679068565368652e-01 8.646522462368011475e-02 -1.299308091402053833e-01 -3.285235762596130371e-01
1.983000000000000000e+03 6.870645999908447266e+00 -5.401938915252685547e+00 -1.834812719607725739e-04 -7.627172744832932949e-04 -2.838595537468791008e-04 2.041930420091375709e-04
1.984000000000000000e+03 5.113961219787597656e+00 -4.718274593353271484e+00 2.229364908998832107e-04 6.902935565449297428e-04 2.739690244197845459e-04 2.401654201094061136e-04
1.985000000000000000e+03 3.408965587615966797e+00 -6.015305995941162109e+00 -7.601099787279963493e-04 -4.459597112145274878e-04 -3.618208866100758314e-04 -3.840896242763847113e-04
1.986000000000000000e+03 4.208679199218750000e+01 2.879157066345214844e+01 -5.681827664375305176e-01 1.626655608415603638e-01 -1.216551586985588074e-01 -1.814372390508651733e-01
1.987000000000000000e+03 4.506000518798828125e+01 2.768921852111816406e+01 7.356226444244384766e-02 3.453542590141296387e-01 1.256749629974365234e-01 2.087518572807312012e-01
1.988000000000000000e+03 3.484787368774414062e+01 3.013675117492675781e+01 -5.513875484466552734e-01 9.412349760532379150e-02 -1.371792107820510864e-01 -3.315528333187103271e-01
1.989000000000000000e+03 4.359783554077148438e+01 2.853683280944824219e+01 -4.236753582954406738e-01 1.914183050394058228e-01 -6.967711448669433594e-02 -6.266274303197860718e-02
1.990000000000000000e+03 4.275579452514648438e+01 2.798006057739257812e+01 -2.685899734497070312e-01 2.279386818408966064e-01 -1.219538506120443344e-02 -1.041888967156410217e-01
1.991000000000000000e+03 7.555203437805175781e+00 -4.425096035003662109e+00 -3.675012267194688320e-04 -6.185627426020801067e-04 -2.958191907964646816e-04 3.352070634718984365e-04
1.992000000000000000e+03 7.126175880432128906e+00 -7.027743339538574219e+00 -7.457545507350005209e-06 -7.187111186794936657e-04 -2.178505965275689960e-04 1.282331941183656454e-04
1.993000000000000000e+03 4.511650848388671875e+01 2.834991073608398438e+01 -2.044559121131896973e-01 2.421118468046188354e-01 1.129677891731262207e-02 1.225129216909408569e-01
1.994000000000000000e+03 4.517019271850585938e+01 2.900914192199707031e+01 -5.362235307693481445e-01 1.665207594633102417e-01 -1.109108254313468933e-01 5.591258779168128967e-02
1.995000000000000000e+03 1.221154212951660156e+01 3.258234500885009766e+00 1.839817741711158305e-06 3.227905835956335068e-06 1.520317141512350645e-06 3.570252602003165521e-06
1.996000000000000000e+03 1.219978141784667969e+01 6.621058464050292969e+00 8.743441867409273982e-06 2.566562216088641435e-06 3.393001406948314980e-06 3.123056558251846582e-06
1.997000000000000000e+03 6.759518146514892578e+00 -4.506681919097900391e+00 2.222568291472271085e-04 6.722628022544085979e-04 2.683558850549161434e-04 -1.331633829977363348e-04
1.998000000000000000e+03 6.988773345947265625e+00 -6.260134220123291016e+00 8.906848233891651034e-05 8.471951587125658989e-04 2.808790886774659157e-04 -2.027876762440428138e-04
1.999000000000000000e+03 4.134855270385742188e+01 2.893051147460937500e+01 -6.138246655464172363e-01 1.551136076450347900e-01 -1.376133114099502563e-01 -2.216774970293045044e-01
2.000000000000000000e+03 1.261824703216552734e+01 -5.247397899627685547e+00 -1.356064574792981148e-03 -2.307890827069059014e-04 -4.760560987051576376e-04 5.862450343556702137e-04
2.001000000000000000e+03 5.190171813964843750e+01 3.821662139892578125e+01 2.128652781248092651e-01 5.205308437347412109e+00 1.625452041625976562e+00 -1.671101808547973633e+00
2.002000000000000000e+03 1.256730651855468750e+01 4.137040138244628906e+00 4.291829554858850315e-06 2.940795411632279865e-06 2.169787421735236421e-06 5.295571554597700015e-06
2.003000000000000000e+03 1.011444377899169922e+01 7.307328224182128906e+00 -7.509363967983517796e-06 -2.636699264257913455e-06 -3.043819106096634641e-06 8.931602337725053076e-07
2.004000000000000000e+03 4.586532592773437500e+01 2.828584289550781250e+01 -6.336188316345214844e-02 2.881911098957061768e-01 6.744877249002456665e-02 2.485018521547317505e-01
2.005000000000000000e+03 2.594741439819335938e+01 3.146393597126007080e-01 1.072675175964832306e-02 -5.366206169128417969e-01 -1.577681601047515869e-01 7.516802288591861725e-03
2.006000000000000000e+03 3.332928419113159180e+00 6.041802883148193359e+00 -6.947798283363226801e-06 5.111538939672755077e-06 -5.508779281626630109e-07 2.155088481003986089e-07
2.007000000000000000e+03 2.527073621749877930e+00 6.279388904571533203e+00 -1.064438674802659079e-05 -2.619796077851788141e-06 -3.979254870500881225e-06 1.832217208175279666e-06
2.008000000000000000e+03 2.557652854919433594e+01 -1.969051361083984375e+01 4.641104955226182938e-03 -3.794455528259277344e-01 -1.124413311481475830e-01 -3.387498902156949043e-03
2.009000000000000000e+03 2.561034584045410156e+01 -1.828742218017578125e+01 2.908205613493919373e-03 -3.880591690540313721e-01 -1.155452877283096313e-01 5.147969815880060196e-03
2.010000000000000000e+03 2.599424362182617188e+01 -5.372498989105224609e+00 1.360559090971946716e-02 -4.541838169097900391e-01 -1.321734786033630371e-01 1.563670113682746887e-02
2.011000000000000000e+03 1.033616256713867188e+01 -1.559062290191650391e+01 2.149318344891071320e-03 7.177342777140438557e-04 8.601157460361719131e-04 1.884215016616508365e-04
2.012000000000000000e+03 1.041569995880126953e+01 1.039212322235107422e+01 -1.031311057886341587e-05 6.473129587902803905e-07 -2.899739456552197225e-06 1.803161126190389041e-06
2.013000000000000000e+03 1.095156669616699219e+01 1.740116882324218750e+01 -1.622523086552973837e-05 -3.515154503475059755e-06 -5.922115633438806981e-06 -2.950928546852082945e-06
2.014000000000000000e+03 1.107378196716308594e+01 1.366186332702636719e+01 1.383510698360623792e-05 9.588233069734997116e-07 4.438179075805237517e-06 4.821233687835047022e-07
2.015000000000000000e+03 1.027868366241455078e+01 2.354620170593261719e+01 -2.362059785809833556e-05 -4.458203477497590939e-07 -7.219925464596599340e-06 4.142101261095376685e-06
2.016000000000000000e+03 1.093883514404296875e+01 1.980753135681152344e+01 -1.681023968558292836e-05 -1.743074221849383321e-06 -5.565993888012599200e-06 -7.560630820080405101e-06
2.017000000000000000e+03 1.107659721374511719e+01 -1.138118648529052734e+01 -1.719563035294413567e-03 -3.502301406115293503e-04 -6.209379644133150578e-04 3.008614003192633390e-04
2.018000000000000000e+03 1.000940799713134766e+01 -1.282491207122802734e+01 4.818958113901317120e-04 -7.764976471662521362e-04 -8.838056237436830997e-05 -5.652108811773359776e-04
2.019000000000000000e+03 2.455150032043457031e+01 -2.564440250396728516e+00 1.425756793469190598e-02 -7.625700831413269043e-01 -2.244937568902969360e-01 -5.232397001236677170e-03
2.020000000000000000e+03 2.589578056335449219e+01 -1.116793155670166016e+00 1.195341534912586212e-02 -5.278465747833251953e-01 -1.547679454088211060e-01 9.135518223047256470e-03
2.021000000000000000e+03 9.556141853332519531e+00 -3.358713531494140625e+01 -5.165629554539918900e-03 -2.227399498224258423e-03 -2.217908855527639389e-03 -1.316935638897120953e-03
2.022000000000000000e+03 7.510931396484375000e+01 3.252594375610351562e+01 2.207385301589965820e-01 5.636200428009033203e+00 1.757081627845764160e+00 -2.859939336776733398e-01
2.023000000000000000e+03 7.522090911865234375e+01 2.942801475524902344e+01 2.096017301082611084e-01 5.791697502136230469e+00 1.800389647483825684e+00 -5.274122357368469238e-01
2.024000000000000000e+03 1.548692035675048828e+01 4.021712493896484375e+01 -7.670604827580973506e-05 1.161583859357051551e-04 1.183570020657498389e-05 -1.500106882303953171e-04
2.025000000000000000e+03 2.574198341369628906e+01 -1.268105316162109375e+01 -2.043847925961017609e-02 -3.935972750186920166e-01 -1.242107227444648743e-01 3.274394432082772255e-03
2.026000000000000000e+03 7.525798034667968750e+01 -2.778717041015625000e+01 -2.023030538111925125e-03 8.795203208923339844e+00 2.637953996658325195e+00 -2.113306708633899689e-02
2.027000000000000000e+03 7.437026214599609375e+01 -2.961754989624023438e+01 -7.867127656936645508e-03 8.635162353515625000e+00 2.588188409805297852e+00 -1.150339469313621521e-02
2.028000000000000000e+03 2.455166625976562500e+01 -9.728635787963867188e+00 -8.014194667339324951e-03 -6.687139868736267090e-01 -2.030184566974639893e-01 -9.781386703252792358e-03
2.029000000000000000e+03 2.633399581909179688e+01 -8.398942947387695312e+00 1.512626535259187222e-03 -3.483290374279022217e-01 -1.040449216961860657e-01 1.016716286540031433e-02
2.030000000000000000e+03 7.471244049072265625e+01 2.117145347595214844e+01 7.450531236827373505e-03 6.787061214447021484e+00 2.038353443145751953e+00 -9.526280164718627930e-01
2.031000000000000000e+03 7.560200500488281250e+01 2.294549369812011719e+01 6.205786764621734619e-02 6.386026859283447266e+00 1.934425354003906250e+00 -8.319582939147949219e-01
2.032000000000000000e+03 7.436012268066406250e+01 1.807896804809570312e+01 -7.805895060300827026e-02 7.180518150329589844e+00 2.130737781524658203e+00 -9.520782828330993652e-01
2.033000000000000000e+03 7.433975219726562500e+01 -2.330144500732421875e+01 -5.143427290022373199e-03 8.618057250976562500e+00 2.583873987197875977e+00 -2.710646577179431915e-02
2.034000000000000000e+03 7.334799957275390625e+01 2.622234725952148438e+01 2.766357064247131348e-01 6.629320144653320312e+00 2.071786880493164062e+00 -9.331817030906677246e-01
2.035000000000000000e+03 7.601725006103515625e+01 2.596039772033691406e+01 1.079158633947372437e-01 5.864496707916259766e+00 1.791723847389221191e+00 -6.716175079345703125e-01
2.036000000000000000e+03 7.502961730957031250e+01 2.651127815246582031e+01 1.737435162067413330e-01 6.098978996276855469e+00 1.881816744804382324e+00 -7.458974719047546387e-01
2.037000000000000000e+03 7.428737640380859375e+01 -1.811440849304199219e+01 -2.337595634162425995e-02 8.588942527770996094e+00 2.569669961929321289e+00 -5.263090506196022034e-02
2.038000000000000000e+03 7.397490692138671875e+01 -1.139856338500976562e+01 -3.756132349371910095e-02 8.477241516113281250e+00 2.531904220581054688e+00 -1.022063419222831726e-01
2.039000000000000000e+03 7.460213470458984375e+01 1.362338829040527344e+01 -1.260624229907989502e-01 7.580491065979003906e+00 2.236328601837158203e+00 -7.706382870674133301e-01
2.040000000000000000e+03 7.580208587646484375e+01 1.643035697937011719e+01 -6.674086302518844604e-02 7.205857276916503906e+00 2.141734838485717773e+00 -7.485520243644714355e-01
2.041000000000000000e+03 7.546363067626953125e+01 -3.788135349750518799e-01 -5.361999943852424622e-02 8.478754997253417969e+00 2.527540683746337891e+00 -2.385201305150985718e-01
2.042000000000000000e+03 7.409796905517578125e+01 -1.561665773391723633e+00 -7.563983649015426636e-02 8.324499130249023438e+00 2.474657773971557617e+00 -2.548331022262573242e-01
2.043000000000000000e+03 7.422795867919921875e+01 -1.554522705078125000e+01 -1.834901608526706696e-02 8.559974670410156250e+00 2.562487602233886719e+00 -6.272114813327789307e-02
2.044000000000000000e+03 7.562477111816406250e+01 6.528321266174316406e+00 -7.859820872545242310e-02 8.146630287170410156e+00 2.420409679412841797e+00 -4.173008799552917480e-01
2.045000000000000000e+03 7.440283203125000000e+01 5.288112640380859375e+00 -1.127021461725234985e-01 8.114964485168457031e+00 2.400678634643554688e+00 -4.431079328060150146e-01
2.046000000000000000e+03 7.449911499023437500e+01 1.083704185485839844e+01 -1.372206062078475952e-01 7.799021720886230469e+00 2.298540353775024414e+00 -6.592479348182678223e-01
2.047000000000000000e+03 7.563404083251953125e+01 7.910820007324218750e+00 -8.423710614442825317e-02 8.050548553466796875e+00 2.389893531799316406e+00 -4.634153544902801514e-01
2.048000000000000000e+03 7.436713409423828125e+01 3.915877103805541992e+00 -1.074550151824951172e-01 8.173106193542480469e+00 2.419695377349853516e+00 -3.981949090957641602e-01
2.049000000000000000e+03 7.404035949707031250e+01 -4.375198841094970703e+00 -6.475653499364852905e-02 8.377749443054199219e+00 2.493897914886474609e+00 -1.996866464614868164e-01
2.050000000000000000e+03 7.399476623535156250e+01 -5.798070907592773438e+00 -5.562086030840873718e-02 8.400131225585937500e+00 2.503353118896484375e+00 -1.756920516490936279e-01
2.051000000000000000e+03 7.404122924804687500e+01 -1.282633876800537109e+01 -3.148194029927253723e-02 8.503032684326171875e+00 2.541465044021606445e+00 -8.967462927103042603e-02
2.052000000000000000e+03 7.425426483154296875e+01 -1.941939353942871094e+01 -1.456464547663927078e-02 8.601100921630859375e+00 2.575960874557495117e+00 -3.978921473026275635e-02
2.053000000000000000e+03 7.442044830322265625e+01 9.433129310607910156e+00 -1.356683820486068726e-01 7.891721725463867188e+00 2.326815843582153320e+00 -6.023399829864501953e-01
2.054000000000000000e+03 7.404325103759765625e+01 -2.586371803283691406e+01 -6.817764602601528168e-03 8.571230888366699219e+00 2.569324016571044922e+00 -2.637393586337566376e-02
2.055000000000000000e+03 7.567402648925781250e+01 2.454306030273437500e+01 9.023445844650268555e-02 6.157568931579589844e+00 1.874341011047363281e+00 -7.745764851570129395e-01
2.056000000000000000e+03 7.678524780273437500e+01 2.760543441772460938e+01 8.250167965888977051e-02 5.446355342864990234e+00 1.658657073974609375e+00 -5.002825260162353516e-01
2.057000000000000000e+03 7.439350128173828125e+01 8.033885955810546875e+00 -1.280488818883895874e-01 7.971897602081298828e+00 2.353154659271240234e+00 -5.475564599037170410e-01
2.058000000000000000e+03 7.430247497558593750e+01 2.537597656250000000e+00 -1.007216647267341614e-01 8.221637725830078125e+00 2.436274766921997070e+00 -3.568132519721984863e-01
2.059000000000000000e+03 7.421898651123046875e+01 1.157559514045715332e+00 -9.274646639823913574e-02 8.262528419494628906e+00 2.450934648513793945e+00 -3.183872699737548828e-01
2.060000000000000000e+03 7.392545318603515625e+01 -8.590068817138671875e+00 -4.385029897093772888e-02 8.433097839355468750e+00 2.516774415969848633e+00 -1.364890038967132568e-01
2.061000000000000000e+03 7.500775909423828125e+01 1.980530929565429688e+01 -2.674706839025020599e-02 6.910444259643554688e+00 2.065109014511108398e+00 -9.164953827857971191e-01
2.062000000000000000e+03 6.910383605957031250e+01 2.925400733947753906e+01 9.460749626159667969e-01 7.623892784118652344e+00 2.570990324020385742e+00 -7.865153551101684570e-01
2.063000000000000000e+03 7.436724090576171875e+01 -2.205562400817871094e+01 -1.405107136815786362e-02 8.612792968750000000e+00 2.579622507095336914e+00 -2.849923633038997650e-02
2.064000000000000000e+03 2.423695945739746094e+01 -1.541287899017333984e+01 -4.536250606179237366e-03 -6.668904423713684082e-01 -2.014279961585998535e-01 -2.801541006192564964e-03
2.065000000000000000e+03 7.007024765014648438e+00 -1.545028781890869141e+01 -1.469619455747306347e-03 -1.373412553220987320e-03 -8.529096376150846481e-04 -1.171525582321919501e-04
2.066000000000000000e+03 7.272331237792968750e+01 3.047328567504882812e+01 4.481138885021209717e-01 6.589128971099853516e+00 2.111172914505004883e+00 -5.584371685981750488e-01
2.067000000000000000e+03 7.567327880859375000e+01 3.114860534667968750e+01 1.865454316139221191e-01 5.545481204986572266e+00 1.719608068466186523e+00 -3.664780259132385254e-01
2.068000000000000000e+03 5.314000129699707031e+00 -3.020967483520507812e+01 5.471681244671344757e-03 2.596778795123100281e-03 2.420537872239947319e-03 1.384171424433588982e-03
2.069000000000000000e+03 6.599857807159423828e+00 -2.975901412963867188e+01 -2.592439297586679459e-03 -3.380605252459645271e-03 -1.791913411580026150e-03 1.483553554862737656e-03
2.070000000000000000e+03 1.179963874816894531e+01 -2.144211196899414062e+01 5.394974141381680965e-04 5.456809303723275661e-04 3.255534975323826075e-04 -1.653287676163017750e-03
2.071000000000000000e+03 4.753370285034179688e+00 2.986742973327636719e+01 -2.973248956550378352e-05 -2.169975687138503417e-06 -9.570740076014772058e-06 3.691147639983682893e-06
2.072000000000000000e+03 1.132522392272949219e+01 3.081975173950195312e+01 2.999692151206545532e-05 9.032811249198857695e-06 1.170891937363194302e-05 -3.635577968452707864e-06
2.073000000000000000e+03 2.602385330200195312e+01 9.014361381530761719e+00 3.796648979187011719e-02 -5.868921279907226562e-01 -1.646776795387268066e-01 -9.499732404947280884e-02
2.074000000000000000e+03 5.866960048675537109e+00 -2.568387222290039062e+01 6.788786500692367554e-03 -8.136038668453693390e-04 1.792554743587970734e-03 -3.454398829489946365e-04
2.075000000000000000e+03 4.378434181213378906e+00 2.710795402526855469e+01 -2.758471418928820640e-05 -7.080960244820744265e-07 -8.487842933391220868e-06 -1.875828843367344234e-06
2.076000000000000000e+03 5.830910205841064453e+00 2.810525703430175781e+01 -2.914461765612941235e-05 -1.108433025365229696e-06 -9.075915841094683856e-06 -1.194880496768746525e-07
2.077000000000000000e+03 2.571335601806640625e+01 2.031566429138183594e+01 4.399036616086959839e-02 -4.492186605930328369e-01 -1.215684935450553894e-01 -3.054551780223846436e-01
2.078000000000000000e+03 2.580698204040527344e+01 1.752412605285644531e+01 6.405444443225860596e-02 -5.169168710708618164e-01 -1.358587294816970825e-01 -2.580334842205047607e-01
2.079000000000000000e+03 2.576375961303710938e+01 1.892184257507324219e+01 5.575574189424514771e-02 -4.861932098865509033e-01 -1.291312426328659058e-01 -2.842065989971160889e-01
2.080000000000000000e+03 2.598803901672363281e+01 1.751688838005065918e+00 6.456362549215555191e-03 -5.451600551605224609e-01 -1.616111099720001221e-01 -2.872772747650742531e-04
2.081000000000000000e+03 2.600427627563476562e+01 1.045787525177001953e+01 4.797944799065589905e-02 -5.874097347259521484e-01 -1.618290841579437256e-01 -1.199727803468704224e-01
2.082000000000000000e+03 2.597450828552246094e+01 1.188900470733642578e+01 5.935556069016456604e-02 -5.839376449584960938e-01 -1.573746204376220703e-01 -1.451272964477539062e-01
2.083000000000000000e+03 2.478042984008789062e+01 8.925005912780761719e+00 1.772417873144149780e-02 -8.086602687835693359e-01 -2.372808307409286499e-01 -9.096197038888931274e-02
2.084000000000000000e+03 2.603486061096191406e+01 7.570461750030517578e+00 2.199907414615154266e-02 -5.808563828468322754e-01 -1.676571965217590332e-01 -7.363142818212509155e-02
2.085000000000000000e+03 1.447458648681640625e+01 -2.889277076721191406e+01 1.041841227561235428e-02 -8.506605809088796377e-05 3.100003814324736595e-03 -1.608821796253323555e-03
2.086000000000000000e+03 3.023571586608886719e+01 1.773854637145996094e+01 1.770270168781280518e-01 -3.777000308036804199e-02 4.177710413932800293e-02 -2.899833917617797852e-01
2.087000000000000000e+03 2.469959449768066406e+01 1.461520195007324219e+01 4.295705258846282959e-02 -7.307379245758056641e-01 -2.063342630863189697e-01 -1.746984422206878662e-01
2.088000000000000000e+03 2.441942977905273438e+01 2.299017524719238281e+01 7.733951788395643234e-03 -4.451272487640380859e-01 -1.312179863452911377e-01 -2.766355276107788086e-01
2.089000000000000000e+03 5.953559398651123047e+00 2.300116348266601562e+01 8.506003723596222699e-06 -3.868711644372524461e-07 2.435739816064597107e-06 -1.580382559041026980e-06
2.090000000000000000e+03 8.436415672302246094e+00 2.295857810974121094e+01 -2.000779386435169727e-05 4.746539161715190858e-06 -4.578376319841481745e-06 6.794059572712285444e-06
2.091000000000000000e+03 7.410818576812744141e+00 -1.034468650817871094e+01 -3.838104603346437216e-04 -3.534725983627140522e-04 -2.211849205195903778e-04 1.128576812334358692e-03
2.092000000000000000e+03 5.772541522979736328e+00 -1.029217338562011719e+01 3.590886190067976713e-04 -2.685537619981914759e-04 2.716045491979457438e-05 7.797037251293659210e-04
2.093000000000000000e+03 2.531303405761718750e+01 2.574964904785156250e+01 -2.977998927235603333e-02 -2.710261046886444092e-01 -9.024183452129364014e-02 -3.081345558166503906e-01
2.094000000000000000e+03 2.421733665466308594e+01 2.711974525451660156e+01 -3.524496033787727356e-02 -2.536071538925170898e-01 -8.665563166141510010e-02 -2.430636286735534668e-01
2.095000000000000000e+03 2.593623352050781250e+01 1.330778026580810547e+01 6.338170915842056274e-02 -5.754218697547912598e-01 -1.536120474338531494e-01 -1.730455011129379272e-01
2.096000000000000000e+03 2.589330291748046875e+01 1.471979045867919922e+01 6.788942962884902954e-02 -5.625417828559875488e-01 -1.483957022428512573e-01 -2.012059688568115234e-01
2.097000000000000000e+03 2.525850868225097656e+01 2.708285331726074219e+01 -4.974329099059104919e-02 -2.211489677429199219e-01 -8.126767724752426147e-02 -2.878482043743133545e-01
2.098000000000000000e+03 2.634132575988769531e+01 2.815612983703613281e+01 -9.735929220914840698e-02 -1.386212855577468872e-01 -7.079417258501052856e-02 -3.038013577461242676e-01
2.099000000000000000e+03 5.566160202026367188e+00 -2.191177749633789062e+01 -4.279357846826314926e-03 6.164545193314552307e-04 -1.098870998248457909e-03 -6.352247437462210655e-04
2.100000000000000000e+03 9.357054710388183594e+00 2.551158332824707031e+01 -2.984816455864347517e-05 6.109077617111324798e-07 -8.771176908339839429e-06 -1.769505843185470439e-06
2.101000000000000000e+03 5.097274303436279297e+00 2.323469734191894531e+01 -2.320643216080497950e-05 6.945908808120293543e-07 -6.753552497684722766e-06 -1.069154313881881535e-05
2.102000000000000000e+03 5.892936229705810547e+00 -1.665061187744140625e+01 -2.461206866428256035e-03 -6.974417483434081078e-04 -9.475945262238383293e-04 1.114113911171443760e-04
2.103000000000000000e+03 5.886113166809082031e+00 -1.529861831665039062e+01 1.919439295306801796e-03 8.353861048817634583e-04 8.264476200565695763e-04 -4.175128124188631773e-04
2.104000000000000000e+03 1.000347042083740234e+01 1.603074836730957031e+01 -1.211126527778105810e-05 -5.205428806220879778e-06 -5.195008270675316453e-06 -4.508506663114530966e-06
2.105000000000000000e+03 7.438875675201416016e+00 1.709614944458007812e+01 -2.950483803942915983e-06 -9.335522008768748492e-06 -3.685801630126661621e-06 7.498373975067806896e-07
2.106000000000000000e+03 4.335938930511474609e+00 2.035462951660156250e+01 2.375838266743812710e-05 -2.849160864570876583e-06 6.272766768233850598e-06 8.288405695111578098e-08
2.107000000000000000e+03 7.677832126617431641e+00 -1.737620925903320312e+01 1.785715459845960140e-03 1.895339664770290256e-04 5.925748264417052269e-04 -1.002682838588953018e-03
2.108000000000000000e+03 4.567998886108398438e+00 -2.591136169433593750e+01 -5.134910810738801956e-03 3.707940923050045967e-04 -1.429235097020864487e-03 6.880888831801712513e-04
2.109000000000000000e+03 6.127457618713378906e+00 -2.698039245605468750e+01 -4.202756565064191818e-03 -1.066868542693555355e-03 -1.580887474119663239e-03 9.534895070828497410e-04
2.110000000000000000e+03 4.106785297393798828e+00 1.467258262634277344e+01 1.786656866897828877e-05 1.418509555151103996e-06 5.785523626400390640e-06 5.183262601349269971e-07
2.111000000000000000e+03 5.614976882934570312e+00 2.680570602416992188e+01 1.888815313577651978e-05 3.196034867869457230e-06 6.625256446568528190e-06 8.756213901506271213e-06
2.112000000000000000e+03 4.237175464630126953e+00 2.580346107482910156e+01 2.229057281510904431e-05 -9.215750651492271572e-07 6.410699370462680236e-06 9.135891559708397835e-06
2.113000000000000000e+03 7.456915378570556641e+00 -2.686151695251464844e+01 4.177098162472248077e-03 3.555552102625370026e-03 2.319795079529285431e-03 -3.159838728606700897e-03
2.114000000000000000e+03 2.662930107116699219e+01 2.312678718566894531e+01 1.578078977763652802e-02 -2.917622625827789307e-01 -8.279443532228469849e-02 -3.639761805534362793e-01
2.115000000000000000e+03 2.771938896179199219e+01 2.320715713500976562e+01 1.957128196954727173e-02 -2.190049588680267334e-01 -5.983010306954383850e-02 -3.922841846942901611e-01
2.116000000000000000e+03 8.256476402282714844e+00 -1.110159397125244141e+01 6.736618815921247005e-04 1.954180625034496188e-04 2.607239875942468643e-04 -1.096857478842139244e-03
2.117000000000000000e+03 6.083575725555419922e+00 2.139306449890136719e+01 1.023233471642015502e-05 -5.975304247840540484e-06 1.277109163311251905e-06 -1.492451065132627264e-05
2.118000000000000000e+03 5.384137630462646484e+00 1.869414520263671875e+01 1.955091283889487386e-05 5.926279982304549776e-07 6.043062057869974524e-06 -5.841741767653729767e-06
2.119000000000000000e+03 5.514847278594970703e+00 2.014610481262207031e+01 -2.053846401395276189e-05 2.605970166769111529e-06 -5.379748017730889842e-06 7.352847660513361916e-06
2.120000000000000000e+03 5.857983589172363281e+00 -1.802066612243652344e+01 2.860700478777289391e-03 6.171133136376738548e-04 1.043344149366021156e-03 6.471025699283927679e-05
2.121000000000000000e+03 5.456851482391357422e+00 3.535104751586914062e+01 2.678269447642378509e-05 -8.501605407218448818e-06 5.484326720761600882e-06 2.754548040684312582e-05
2.122000000000000000e+03 5.331678867340087891e+00 1.726911735534667969e+01 -1.609208447916898876e-05 -3.396292413526680321e-06 -5.846513431606581435e-06 3.557009222276974469e-06
2.123000000000000000e+03 5.372908115386962891e+00 1.344675922393798828e+01 1.294616868108278140e-05 4.802747298526810482e-06 5.324674930307082832e-06 8.776905815466307104e-07
2.124000000000000000e+03 5.190315246582031250e+00 1.467957019805908203e+01 -1.485912980569992214e-05 -3.083490128119592555e-06 -5.382785730034811422e-06 -1.577212287884321995e-06
2.125000000000000000e+03 6.287237167358398438e+00 -2.839391517639160156e+01 5.953878164291381836e-03 2.491135150194168091e-03 2.533503808081150055e-03 -4.297306295484304428e-04
2.126000000000000000e+03 5.854596138000488281e+00 -3.356887054443359375e+01 3.968674573116004467e-04 -4.617809783667325974e-03 -1.266282633878290653e-03 2.263506641611456871e-03
2.127000000000000000e+03 9.891375541687011719e+00 -3.142373847961425781e+01 1.135238446295261383e-03 -2.707323990762233734e-03 -4.716256516985595226e-04 -6.510936189442873001e-03
2.128000000000000000e+03 4.421775817871093750e+00 9.727578163146972656e+00 -4.157003331783926114e-06 2.554389766373788007e-06 -4.807841378351440653e-07 4.812452971236780286e-06
2.129000000000000000e+03 9.249567985534667969e+00 1.089359474182128906e+01 9.685973964224103838e-06 7.698523631916032173e-07 3.136748091492336243e-06 -1.500829512224299833e-06
2.130000000000000000e+03 3.897033691406250000e+00 8.584345817565917969e+00 4.966272172168828547e-06 -2.940608681001322111e-07 1.401663325850677211e-06 -4.869385520578362048e-06
2.131000000000000000e+03 5.890557289123535156e+00 1.148275852203369141e+01 1.310541938437381759e-05 -4.835828349314397201e-06 2.480877128618885763e-06 2.940997092082398012e-06
2.132000000000000000e+03 6.126296997070312500e+00 -1.403619861602783203e+01 -1.673316699452698231e-03 -6.409598863683640957e-04 -6.942829932086169720e-04 6.285260315053164959e-04
2.133000000000000000e+03 6.539522647857666016e+00 -1.121512413024902344e+01 3.514474374242126942e-04 3.310233878437429667e-04 2.047412563115358353e-04 -1.414535334333777428e-03
2.134000000000000000e+03 5.580794334411621094e+00 -1.220823669433593750e+01 -1.095524057745933533e-03 -1.843163627199828625e-04 -3.839521086774766445e-04 1.411161036230623722e-03
2.135000000000000000e+03 4.773542404174804688e+00 -8.097517013549804688e+00 4.210430197417736053e-04 4.297050472814589739e-04 2.552244113758206367e-04 4.568258009385317564e-04
2.136000000000000000e+03 7.262784576416015625e+01 3.290160751342773438e+01 4.462849497795104980e-01 6.579710006713867188e+00 2.107798576354980469e+00 -3.046575784683227539e-01
2.137000000000000000e+03 7.158365631103515625e+01 3.151260948181152344e+01 5.562242269515991211e-01 6.885199069976806641e+00 2.232427120208740234e+00 -4.492208957672119141e-01
2.138000000000000000e+03 5.550747394561767578e+00 8.801538467407226562e+00 8.918361800169805065e-07 -4.065576831635553390e-06 -9.521221500108367763e-07 -4.553961844067089260e-06
2.139000000000000000e+03 7.799983501434326172e+00 -2.378811454772949219e+01 9.040303411893546581e-04 -6.253431201912462711e-04 8.360617357539013028e-05 2.832811558619141579e-03
2.140000000000000000e+03 1.072609519958496094e+01 -2.501800346374511719e+01 -4.187302198261022568e-03 1.146124210208654404e-03 -9.123533382080495358e-04 -8.498576789861544967e-05
2.141000000000000000e+03 9.694290161132812500e+00 -2.587751007080078125e+01 2.238258719444274902e-03 7.143004913814365864e-04 8.857677457854151726e-04 -2.568439522292464972e-04
2.142000000000000000e+03 1.111864280700683594e+01 1.485469055175781250e+01 -1.502196209912654012e-05 -1.859605276877118740e-06 -5.064470315119251609e-06 -1.307693992202985100e-06
2.143000000000000000e+03 1.093990135192871094e+01 1.250628566741943359e+01 -1.255148436030140147e-05 -4.955217036695103161e-07 -3.914101853297324851e-06 1.281824069110371056e-07
2.144000000000000000e+03 4.496980667114257812e+00 -6.974408149719238281e+00 -4.433138819877058268e-04 -5.534334341064095497e-04 -2.990241919178515673e-04 -4.032629367429763079e-04
2.145000000000000000e+03 4.331401348114013672e+00 -5.875081062316894531e+00 4.233652725815773010e-04 6.127277738414704800e-04 3.108279197476804256e-04 3.857929841615259647e-04
2.146000000000000000e+03 2.624645423889160156e+01 -6.859388828277587891e+00 7.774897967465221882e-04 -3.863418102264404297e-01 -1.156692951917648315e-01 1.215489208698272705e-02
2.147000000000000000e+03 2.587882995605468750e+01 -3.952949285507202148e+00 1.712631620466709137e-02 -4.973805844783782959e-01 -1.440762877464294434e-01 1.317430660128593445e-02
2.148000000000000000e+03 2.569119453430175781e+01 -1.406886196136474609e+01 -5.861527752131223679e-03 -4.069985747337341309e-01 -1.238580346107482910e-01 4.388771951198577881e-03
2.149000000000000000e+03 2.592325210571289062e+01 -1.129215431213378906e+01 -1.806526072323322296e-02 -3.897118866443634033e-01 -1.223331466317176819e-01 1.000893395394086838e-02
2.150000000000000000e+03 2.603648757934570312e+01 6.118461608886718750e+00 1.251035183668136597e-02 -5.723042488098144531e-01 -1.679381728172302246e-01 -4.951654747128486633e-02
2.151000000000000000e+03 2.614454650878906250e+01 -9.882675170898437500e+00 -1.063280366361141205e-02 -3.731147050857543945e-01 -1.151242479681968689e-01 7.717079948633909225e-03
2.152000000000000000e+03 1.044649314880371094e+01 2.105590629577636719e+01 8.140653335431125015e-06 4.111238922632765025e-06 3.675567540994961746e-06 7.340007414313731715e-06
2.153000000000000000e+03 2.412649536132812500e+01 -2.107119178771972656e+01 2.455497346818447113e-02 -6.315864920616149902e-01 -1.821094453334808350e-01 -2.643200382590293884e-02
2.154000000000000000e+03 1.072269439697265625e+01 1.140609836578369141e+01 1.115746817959006876e-05 7.395955776701157447e-07 3.569119144231081009e-06 -3.424921430905669695e-07
2.155000000000000000e+03 8.756196975708007812e+00 2.974064826965332031e+01 -4.832146078115329146e-05 6.808771104260813445e-06 -1.245380735781509429e-05 -2.335034514544531703e-05
2.156000000000000000e+03 1.100407505035400391e+01 1.866655349731445312e+01 2.082108039758168161e-05 -4.522104291027062573e-07 6.110661161073949188e-06 5.195769517740700394e-06
2.157000000000000000e+03 2.585707283020019531e+01 -2.538865327835083008e+00 2.195184491574764252e-02 -5.158239603042602539e-01 -1.481616348028182983e-01 8.270479738712310791e-03
2.158000000000000000e+03 2.602965545654296875e+01 4.657444000244140625e+00 3.658636473119258881e-03 -5.627331137657165527e-01 -1.677223443984985352e-01 -3.047467768192291260e-02
2.159000000000000000e+03 2.565823554992675781e+01 -1.687106704711914062e+01 3.874687943607568741e-03 -3.858636319637298584e-01 -1.145966872572898865e-01 7.642461452633142471e-03
2.160000000000000000e+03 2.569572067260742188e+01 -1.545831680297851562e+01 -1.338305789977312088e-02 -3.914386034011840820e-01 -1.214465051889419556e-01 1.026917807757854462e-02
2.161000000000000000e+03 2.434662246704101562e+01 -2.968169593811035156e+01 -3.453259542584419250e-02 -5.610470175743103027e-01 -1.786738783121109009e-01 -3.887820988893508911e-02
2.162000000000000000e+03 1.121335029602050781e+01 2.936222839355468750e+01 -5.619909279630519450e-05 9.347758350486401469e-06 -1.405540024279616773e-05 -8.122288818412926048e-06
2.163000000000000000e+03 7.773309230804443359e+00 2.474125862121582031e+01 -2.563125963206402957e-05 1.638633875700179487e-06 -7.197787908808095381e-06 -1.067790094566589687e-06
2.164000000000000000e+03 1.422124481201171875e+01 3.824240493774414062e+01 1.679621345829218626e-04 6.806480814702808857e-05 7.080808427417650819e-05 -5.209524169913493097e-05
2.165000000000000000e+03 6.375530242919921875e+00 3.367897796630859375e+01 -2.571954610175453126e-05 3.747313530766405165e-05 3.526077080096001737e-06 2.527520337025634944e-05
2.166000000000000000e+03 7.218151855468750000e+01 4.098894500732421875e+01 -4.667707905173301697e-02 6.873956203460693359e+00 2.048183679580688477e+00 -1.032739039510488510e-02
2.167000000000000000e+03 5.383738708496093750e+01 2.936158180236816406e+01 3.193703413009643555e+00 8.497748374938964844e+00 3.507435321807861328e+00 6.472733497619628906e+00
2.168000000000000000e+03 5.432148361206054688e+01 2.907149887084960938e+01 2.027208566665649414e+00 1.193731880187988281e+01 4.189358234405517578e+00 6.132399559020996094e+00
2.169000000000000000e+03 5.307543182373046875e+01 2.947235679626464844e+01 3.343641042709350586e+00 4.145925521850585938e+00 2.246870040893554688e+00 4.913968086242675781e+00
2.170000000000000000e+03 5.427302932739257812e+01 2.934250450134277344e+01 2.577666997909545898e+00 1.176955604553222656e+01 4.304166793823242188e+00 6.800812721252441406e+00
2.171000000000000000e+03 5.218353271484375000e+01 2.909336280822753906e+01 2.623113870620727539e+00 2.459029912948608398e+00 1.524643182754516602e+00 3.481430530548095703e+00
2.172000000000000000e+03 5.518709945678710938e+01 3.366594314575195312e+01 -3.924561142921447754e-01 1.697391510009765625e+01 4.974437236785888672e+00 -3.161277532577514648e+00
2.173000000000000000e+03 5.649288940429687500e+01 2.957872962951660156e+01 3.384545326232910156e+00 1.759321975708007812e+01 6.293329238891601562e+00 -8.729825615882873535e-01
2.174000000000000000e+03 5.731435775756835938e+01 3.044591522216796875e+01 6.879622459411621094e+00 1.510209369659423828e+01 6.594514846801757812e+00 -1.310899257659912109e+00
2.175000000000000000e+03 5.731570053100585938e+01 3.195285797119140625e+01 7.678189277648925781e+00 1.506237030029296875e+01 6.822167873382568359e+00 2.035598993301391602e+00
2.176000000000000000e+03 5.691738510131835938e+01 3.353644943237304688e+01 2.057584524154663086e+00 1.652099227905273438e+01 5.573573112487792969e+00 2.037497758865356445e+00
2.177000000000000000e+03 5.726216888427734375e+01 3.239336776733398438e+01 6.446314334869384766e+00 1.556484222412109375e+01 6.603346824645996094e+00 2.684809684753417969e+00
2.178000000000000000e+03 5.503052139282226562e+01 3.388160705566406250e+01 -3.623462319374084473e-01 1.582287979125976562e+01 4.638160228729248047e+00 -3.538288831710815430e+00
2.179000000000000000e+03 5.519441604614257812e+01 3.333535766601562500e+01 -5.228297412395477295e-02 1.853095245361328125e+01 5.543600559234619141e+00 -3.064261674880981445e+00
2.180000000000000000e+03 5.468440246582031250e+01 3.423701858520507812e+01 -2.908668518066406250e-01 1.293331623077392578e+01 3.792734861373901367e+00 -3.969204425811767578e+00
2.181000000000000000e+03 5.405312728881835938e+01 3.399255752563476562e+01 6.185716390609741211e-01 9.926867485046386719e+00 3.163631677627563477e+00 -4.910028457641601562e+00
2.182000000000000000e+03 5.258224487304687500e+01 3.443705368041992188e+01 9.122712612152099609e-01 4.089535236358642578e+00 1.500541925430297852e+00 -2.979743957519531250e+00
2.183000000000000000e+03 5.614902496337890625e+01 3.395550918579101562e+01 8.402654528617858887e-02 1.726711463928222656e+01 5.205342292785644531e+00 -4.978844895958900452e-02
2.184000000000000000e+03 5.222638320922851562e+01 3.487292480468750000e+01 8.717610239982604980e-01 3.643623590469360352e+00 1.354615330696105957e+00 -2.596958875656127930e+00
2.185000000000000000e+03 5.168590545654296875e+01 3.531281280517578125e+01 7.851506471633911133e-01 3.143940448760986328e+00 1.178727269172668457e+00 -2.220459222793579102e+00
2.186000000000000000e+03 4.921198654174804688e+01 2.818609619140625000e+01 9.921122193336486816e-01 8.149966001510620117e-01 5.421326756477355957e-01 1.321097373962402344e+00
2.187000000000000000e+03 4.970329666137695312e+01 2.766860389709472656e+01 1.386429786682128906e+00 1.355818867683410645e+00 8.226746320724487305e-01 1.841452956199645996e+00
2.188000000000000000e+03 4.730121612548828125e+01 2.821069908142089844e+01 2.912703156471252441e-01 4.146749973297119141e-01 2.117835879325866699e-01 5.776035785675048828e-01
2.189000000000000000e+03 4.793381881713867188e+01 2.759396362304687500e+01 7.685607671737670898e-01 7.227379679679870605e-01 4.473896026611328125e-01 9.709296226501464844e-01
2.190000000000000000e+03 6.410774707794189453e+00 6.576037406921386719e+00 -1.352399158349726349e-05 3.341066076245624572e-06 -3.054877652175491676e-06 1.588170675859146286e-06
2.191000000000000000e+03 8.195693969726562500e+00 5.488095283508300781e+00 -5.453688572742976248e-06 -1.771808797457197215e-06 -2.167649199691368267e-06 3.311644832137972116e-06
2.192000000000000000e+03 9.751541137695312500e+00 4.686408996582031250e+00 -8.728340617381036282e-06 2.055462573480326682e-07 -2.556838353484636173e-06 -3.116688276350032538e-06
2.193000000000000000e+03 7.372989177703857422e+00 6.178513050079345703e+00 -6.163086254673544317e-06 -5.119340585224563256e-06 -3.384727961019962095e-06 -1.297965582125470974e-06
2.194000000000000000e+03 7.837344169616699219e+00 4.870123863220214844e+00 1.286509700548776891e-06 -2.858605228084343253e-07 3.001947561642737128e-07 -4.921985691908048466e-06
2.195000000000000000e+03 2.626355171203613281e+01 3.076115798950195312e+01 -1.370907127857208252e-01 -6.346575915813446045e-02 -6.016694381833076477e-02 -2.117919772863388062e-01
2.196000000000000000e+03 2.635695838928222656e+01 2.979022407531738281e+01 -1.236599683761596680e-01 -9.425137192010879517e-02 -6.537340581417083740e-02 -2.567362487316131592e-01
2.197000000000000000e+03 6.020395278930664062e+00 5.756904602050781250e+00 -8.395539225602988154e-06 -1.183487370326474775e-06 -2.873708126571727917e-06 -1.350540401290345471e-06
2.198000000000000000e+03 6.776799201965332031e+00 5.132540225982666016e+00 -6.797560672566760331e-06 -3.180779231115593575e-06 -2.993501993842073716e-06 -1.737197635520715266e-06
2.199000000000000000e+03 6.640960693359375000e+00 5.905198574066162109e+00 8.677200639795046300e-06 2.118580823662341572e-06 3.238734507249318995e-06 5.732526346946542617e-07
2.200000000000000000e+03 8.458995819091796875e+00 -5.277308940887451172e+00 -6.274034385569393635e-04 -6.405673339031636715e-04 -3.803912259172648191e-04 6.888888310641050339e-04
2.201000000000000000e+03 2.843152809143066406e+01 3.094834327697753906e+01 -2.346722334623336792e-01 -1.021466497331857681e-02 -7.346606999635696411e-02 -2.559392750263214111e-01
2.202000000000000000e+03 1.043579864501953125e+01 5.725255966186523438e+00 -4.039316536363912746e-06 -5.983915343676926568e-06 -3.006969564012251794e-06 -4.180752057436620817e-06
2.203000000000000000e+03 3.058139610290527344e+01 3.007182121276855469e+01 -3.102969229221343994e-01 2.550671808421611786e-02 -8.543706685304641724e-02 -3.293555974960327148e-01
2.204000000000000000e+03 2.988666725158691406e+01 3.013093185424804688e+01 -2.801107168197631836e-01 9.780319407582283020e-03 -8.109912276268005371e-02 -3.182217180728912354e-01
2.205000000000000000e+03 3.126536941528320312e+01 3.072025871276855469e+01 -3.768984377384185791e-01 4.494863376021385193e-02 -9.958494454622268677e-02 -3.010516464710235596e-01
2.206000000000000000e+03 3.128120803833007812e+01 2.999424934387207031e+01 -3.410930633544921875e-01 3.952964022755622864e-02 -9.046902507543563843e-02 -3.405326306819915771e-01
2.207000000000000000e+03 3.198430252075195312e+01 2.990311813354492188e+01 -3.707122504711151123e-01 5.367003381252288818e-02 -9.511266648769378662e-02 -3.495158553123474121e-01
2.208000000000000000e+03 2.919679641723632812e+01 3.016601371765136719e+01 -2.490933537483215332e-01 -5.969565827399492264e-03 -7.651887834072113037e-02 -3.052447438240051270e-01
2.209000000000000000e+03 2.850801277160644531e+01 3.017455482482910156e+01 -2.198596745729446411e-01 -2.299946360290050507e-02 -7.285773754119873047e-02 -2.925952374935150146e-01
2.210000000000000000e+03 2.781713104248046875e+01 3.014800071716308594e+01 -1.898090690374374390e-01 -4.060836136341094971e-02 -6.912522763013839722e-02 -2.785157263278961182e-01
2.211000000000000000e+03 3.269015884399414062e+01 2.979966354370117188e+01 -3.996723294258117676e-01 6.603839993476867676e-02 -1.000901758670806885e-01 -3.578107357025146484e-01
2.212000000000000000e+03 3.911179351806640625e+01 2.866274070739746094e+01 -5.100659132003784180e-01 1.569407284259796143e-01 -1.059375554323196411e-01 -3.166393637657165527e-01
2.213000000000000000e+03 3.701644134521484375e+01 2.974317741394042969e+01 -6.313878297805786133e-01 1.168979406356811523e-01 -1.543469727039337158e-01 -3.250803947448730469e-01
2.214000000000000000e+03 3.982143402099609375e+01 2.852759742736816406e+01 -4.895432591438293457e-01 1.653928905725479126e-01 -9.724510461091995239e-02 -2.927607297897338867e-01
2.215000000000000000e+03 4.659582519531250000e+01 2.824034309387207031e+01 1.031827405095100403e-01 3.366334438323974609e-01 1.319448500871658325e-01 3.989025056362152100e-01
2.216000000000000000e+03 3.629030609130859375e+01 2.987347221374511719e+01 -6.075220108032226562e-01 1.089585497975349426e-01 -1.495690345764160156e-01 -3.300014734268188477e-01
2.217000000000000000e+03 3.761816787719726562e+01 2.821775817871093750e+01 -3.954448997974395752e-01 1.542176604270935059e-01 -7.236817479133605957e-02 -3.688416481018066406e-01
2.218000000000000000e+03 3.339710235595703125e+01 2.968572235107421875e+01 -4.262101948261260986e-01 7.844552397727966309e-02 -1.043294072151184082e-01 -3.636647462844848633e-01
2.219000000000000000e+03 4.053601074218750000e+01 2.838764381408691406e+01 -4.559835493564605713e-01 1.779357343912124634e-01 -8.341433852910995483e-02 -2.616946697235107422e-01
2.220000000000000000e+03 5.213083744049072266e+00 -5.705762386322021484e+00 -2.124666643794625998e-04 -7.079979986883699894e-04 -2.761394134722650051e-04 -2.299990155734121799e-04
2.221000000000000000e+03 6.207026481628417969e+00 -6.457612037658691406e+00 -8.421764505328610539e-05 -7.679535774514079094e-04 -2.556513645686209202e-04 -4.248208279022946954e-05
2.222000000000000000e+03 3.556761932373046875e+01 3.000489997863769531e+01 -5.809718966484069824e-01 1.025580093264579773e-01 -1.435241550207138062e-01 -3.317891955375671387e-01
2.223000000000000000e+03 3.690307617187500000e+01 2.834433746337890625e+01 -4.025427997112274170e-01 1.421730816364288330e-01 -7.811091840267181396e-02 -3.827586770057678223e-01
2.224000000000000000e+03 3.410470581054687500e+01 2.956357002258300781e+01 -4.507700204849243164e-01 8.907780796289443970e-02 -1.085076630115509033e-01 -3.683809638023376465e-01
2.225000000000000000e+03 3.481392288208007812e+01 2.943616294860839844e+01 -4.723452925682067871e-01 1.000060439109802246e-01 -1.117017790675163269e-01 -3.701089322566986084e-01
2.226000000000000000e+03 4.283761215209960938e+01 2.865874862670898438e+01 -5.054900646209716797e-01 1.771637648344039917e-01 -9.849788993597030640e-02 -1.297751963138580322e-01
2.227000000000000000e+03 4.422777175903320312e+01 2.709342765808105469e+01 1.656673699617385864e-01 3.914124071598052979e-01 1.671239286661148071e-01 1.588173657655715942e-01
2.228000000000000000e+03 1.189330482482910156e+01 4.801878929138183594e+00 5.731396413466427475e-06 -3.520073050822247751e-06 6.633970315306214616e-07 -5.620867796096717939e-06
2.229000000000000000e+03 9.430548667907714844e+00 8.620953559875488281e+00 -3.064000793528975919e-06 1.541302481200546026e-06 -4.568094880141870817e-07 7.213820481410948560e-06
2.230000000000000000e+03 4.126187896728515625e+01 2.824632644653320312e+01 -4.088359475135803223e-01 1.894800513982772827e-01 -6.580676883459091187e-02 -2.217469066381454468e-01
2.231000000000000000e+03 6.864803314208984375e+00 -8.130991935729980469e+00 3.160550113534554839e-05 -2.960584606626071036e-05 5.998962251396733336e-07 -3.339237300679087639e-04
2.232000000000000000e+03 3.552595901489257812e+01 2.930668640136718750e+01 -4.906236231327056885e-01 1.092824414372444153e-01 -1.144023537635803223e-01 -3.700974285602569580e-01
2.233000000000000000e+03 7.750387191772460938e+00 -6.181122779846191406e+00 -3.057061403524130583e-04 -9.279266814701259136e-04 -3.700898378156125546e-04 5.019985837861895561e-04
2.234000000000000000e+03 9.254349708557128906e+00 -5.234537124633789062e+00 1.197637524455785751e-03 2.351160364923998713e-04 4.298260901123285294e-04 -6.208629347383975983e-04
2.235000000000000000e+03 4.344710922241210938e+01 2.718371772766113281e+01 4.458380490541458130e-02 3.342058658599853516e-01 1.136368960142135620e-01 3.639072552323341370e-02
2.236000000000000000e+03 2.530693244934082031e+01 2.848933792114257812e+01 -7.517954707145690918e-02 -1.608895808458328247e-01 -7.082074135541915894e-02 -2.581089437007904053e-01
2.237000000000000000e+03 1.119075202941894531e+01 6.581946849822998047e+00 -4.540720965451328084e-06 -6.078548722143750638e-06 -3.185780997227993794e-06 -2.476099552950472571e-06
2.238000000000000000e+03 4.857555007934570312e+01 2.760943603515625000e+01 9.771094918251037598e-01 8.892349600791931152e-01 5.599033236503601074e-01 1.238728761672973633e+00
2.239000000000000000e+03 4.725670623779296875e+01 2.759234237670898438e+01 5.715726017951965332e-01 5.870795249938964844e-01 3.475956320762634277e-01 7.375054359436035156e-01
2.240000000000000000e+03 1.222816467285156250e+01 5.574120521545410156e+00 -9.361257070850115269e-06 -3.666050361061934382e-07 -2.918358404713217169e-06 -1.300461036635169876e-07
2.241000000000000000e+03 1.107388401031494141e+01 1.608787727355957031e+01 1.638991125219035894e-05 2.175831696149543859e-06 5.569722816289868206e-06 2.376284101046621799e-06
2.242000000000000000e+03 8.709240913391113281e+00 1.320754432678222656e+01 -6.393940111593110487e-06 -1.686372229414700996e-06 -2.424093736408394761e-06 -4.857811859437788371e-07
2.243000000000000000e+03 1.063995838165283203e+01 2.506421089172363281e+01 2.560020038799848408e-05 1.004552032668470929e-07 7.710196769039612263e-06 -4.929873284709174186e-06
2.244000000000000000e+03 9.427597045898437500e+00 2.017413139343261719e+01 -3.079101134062511846e-06 -2.744219045780482702e-06 -1.746996076690265909e-06 -1.984228902074391954e-06
2.245000000000000000e+03 4.860791397094726562e+01 4.138285827636718750e+01 8.268375396728515625e-01 2.015759468078613281e+00 8.527790904045104980e-01 -1.114099174737930298e-01
2.246000000000000000e+03 4.566725158691406250e+01 4.020877838134765625e+01 8.749685287475585938e-01 3.696717619895935059e-01 3.733921051025390625e-01 2.595649845898151398e-02
2.247000000000000000e+03 4.341818332672119141e+00 6.214793682098388672e+00 -7.777091013849712908e-06 4.204835931886918843e-06 -1.071676365427265409e-06 1.245022644980053883e-06
2.248000000000000000e+03 2.706564331054687500e+01 -1.979134750366210938e+01 1.954137580469250679e-03 -1.259624063968658447e-01 -3.720248118042945862e-02 1.005913480184972286e-03
2.249000000000000000e+03 7.493403434753417969e+00 7.572416782379150391e+00 2.960955725939129479e-06 -1.574170198637148133e-07 8.410615919274277985e-07 -3.667379814942250960e-06
2.250000000000000000e+03 2.728214645385742188e+01 1.783990025520324707e+00 1.691594161093235016e-02 -2.964011430740356445e-01 -8.384555578231811523e-02 1.401538308709859848e-02
2.251000000000000000e+03 2.858425903320312500e+01 4.782428264617919922e+00 4.051022604107856750e-02 -9.306408464908599854e-02 -1.576615869998931885e-02 -5.362666677683591843e-03
2.252000000000000000e+03 1.138236618041992188e+01 -1.021604728698730469e+01 1.960493391379714012e-03 -1.065366304828785360e-04 5.561870639212429523e-04 -3.427128249313682318e-04
2.253000000000000000e+03 9.703004837036132812e+00 -9.018565177917480469e+00 5.004251725040376186e-04 7.223154534585773945e-04 3.668221761472523212e-04 -8.387600537389516830e-04
2.254000000000000000e+03 9.284040451049804688e+00 1.836099815368652344e+01 -5.407555363490246236e-06 -3.813756393356015906e-06 -2.766393436104408465e-06 -3.040037427126662806e-06
2.255000000000000000e+03 9.568710327148437500e+00 2.218107986450195312e+01 8.035679456952493638e-06 -3.247965423724963330e-06 1.436314278180361725e-06 -1.198649079015012830e-05
2.256000000000000000e+03 7.357017993927001953e+00 2.357250785827636719e+01 1.563639125379268080e-05 -1.620245257072383538e-06 4.204844117339234799e-06 -2.672107029866310768e-06
2.257000000000000000e+03 6.962491989135742188e+00 1.437723731994628906e+01 2.605075678729917854e-06 -6.683813808194827288e-06 -1.223621438839472830e-06 -4.853643076785374433e-06
2.258000000000000000e+03 2.864427947998046875e+01 -7.388976097106933594e+00 5.807930603623390198e-03 6.198931857943534851e-02 2.033917419612407684e-02 3.828300908207893372e-02
2.259000000000000000e+03 2.714681434631347656e+01 -3.860900163650512695e+00 2.277916111052036285e-02 -2.466091066598892212e-01 -6.714898347854614258e-02 2.518009766936302185e-02
2.260000000000000000e+03 1.076156806945800781e+01 -1.370078372955322266e+01 -1.534082693979144096e-03 2.918960817623883486e-04 -3.726559807546436787e-04 7.469811826013028622e-04
2.261000000000000000e+03 7.088438415527343750e+01 -2.615730094909667969e+01 -1.386434771120548248e-02 7.998894691467285156e+00 2.395509243011474609e+00 -1.640416309237480164e-02
2.262000000000000000e+03 7.082170867919921875e+01 -3.024477577209472656e+01 -2.551724016666412354e-02 7.955484390258789062e+00 2.378990173339843750e+00 -1.541827525943517685e-02
2.263000000000000000e+03 7.071410369873046875e+01 -3.153271675109863281e+01 -6.777565460652112961e-03 7.943312168121337891e+00 2.380960464477539062e+00 -1.108843553811311722e-02
2.264000000000000000e+03 7.142390441894531250e+01 -3.313097381591796875e+01 -2.109551988542079926e-02 8.076799392700195312e+00 2.416711091995239258e+00 -2.275427617132663727e-02
2.265000000000000000e+03 7.366035461425781250e+01 2.075062370300292969e+01 -4.823273047804832458e-03 7.027969837188720703e+00 2.106943845748901367e+00 -1.072624683380126953e+00
2.266000000000000000e+03 7.430920410156250000e+01 2.266862678527832031e+01 7.382002472877502441e-02 6.700407505035400391e+00 2.032268285751342773e+00 -9.894255399703979492e-01
2.267000000000000000e+03 7.503261089324951172e+00 3.220363235473632812e+01 9.513763870927505195e-06 -3.538708028827386443e-07 2.747967982941190712e-06 -9.006744221551343799e-06
2.268000000000000000e+03 9.621855735778808594e+00 2.685779380798339844e+01 2.422497891529928893e-05 3.433685151321697049e-06 8.297599379147868603e-06 1.682017909843125381e-06
2.269000000000000000e+03 7.164092254638671875e+01 2.413404846191406250e+01 2.314643114805221558e-01 7.202617168426513672e+00 2.230224370956420898e+00 -1.177548646926879883e+00
2.270000000000000000e+03 7.294235229492187500e+01 -2.411288261413574219e+01 -4.672203678637742996e-03 8.371370315551757812e+00 2.510009527206420898e+00 -2.741568349301815033e-02
2.271000000000000000e+03 7.302209472656250000e+01 -1.789102935791015625e+01 -3.434835374355316162e-02 8.349048614501953125e+00 2.494410276412963867e+00 -5.520703643560409546e-02
2.272000000000000000e+03 7.346956634521484375e+01 1.367972850799560547e+01 -1.763862073421478271e-01 7.625529766082763672e+00 2.234743118286132812e+00 -8.574633002281188965e-01
2.273000000000000000e+03 7.201602172851562500e+01 1.759685516357421875e+01 -1.652410626411437988e-01 7.533009052276611328e+00 2.210330486297607422e+00 -1.123469114303588867e+00
2.274000000000000000e+03 7.341845703125000000e+01 1.232447147369384766e+01 -1.836097687482833862e-01 7.710551261901855469e+00 2.258082389831542969e+00 -7.961764335632324219e-01
2.275000000000000000e+03 7.251877593994140625e+01 -9.925580024719238281e+00 -5.957447364926338196e-02 8.210643768310546875e+00 2.445320844650268555e+00 -1.327351927757263184e-01
2.276000000000000000e+03 7.259713745117187500e+01 -1.137483024597167969e+01 -5.130802839994430542e-02 8.235222816467285156e+00 2.455174446105957031e+00 -1.187206208705902100e-01
2.277000000000000000e+03 7.273219299316406250e+01 -2.845333337783813477e+00 -9.932889789342880249e-02 8.157581329345703125e+00 2.417475700378417969e+00 -2.505715787410736084e-01
2.278000000000000000e+03 7.307065582275390625e+01 2.680872917175292969e+00 -1.398763805627822876e-01 8.082355499267578125e+00 2.382743835449218750e+00 -4.008423984050750732e-01
2.279000000000000000e+03 7.322658538818359375e+01 5.363620758056640625e+00 -1.579647362232208252e-01 8.017809867858886719e+00 2.357953310012817383e+00 -4.935897886753082275e-01
2.280000000000000000e+03 7.212611389160156250e+01 1.111004734039306641e+01 -2.463414520025253296e-01 7.784945964813232422e+00 2.261581182479858398e+00 -7.925015091896057129e-01
2.281000000000000000e+03 7.317623901367187500e+01 4.025391578674316406e+00 -1.477021723985671997e-01 8.055952072143554688e+00 2.372474908828735352e+00 -4.426809847354888916e-01
2.282000000000000000e+03 7.272377014160156250e+01 -4.256149291992187500e+00 -8.331619203090667725e-02 8.175586700439453125e+00 2.427681207656860352e+00 -2.242866009473800659e-01
2.283000000000000000e+03 7.394807434082031250e+01 -7.201401710510253906e+00 -5.111120268702507019e-02 8.417680740356445312e+00 2.509970903396606445e+00 -1.547466218471527100e-01
2.284000000000000000e+03 7.412946319580078125e+01 -1.421139144897460938e+01 -2.801602147519588470e-02 8.536469459533691406e+00 2.552536010742187500e+00 -7.443025708198547363e-02
2.285000000000000000e+03 7.312011718750000000e+01 8.081866264343261719e+00 -1.864029020071029663e-01 7.910587310791015625e+00 2.317255258560180664e+00 -6.114506125450134277e-01
2.286000000000000000e+03 7.532915496826171875e+01 1.851101684570312500e+01 -5.164123326539993286e-02 7.016181945800781250e+00 2.089362144470214844e+00 -8.547836542129516602e-01
2.287000000000000000e+03 7.401188659667968750e+01 1.944772148132324219e+01 -4.498070105910301208e-02 7.092755794525146484e+00 2.114332675933837891e+00 -1.019235968589782715e+00
2.288000000000000000e+03 7.248328399658203125e+01 2.313997840881347656e+01 1.375406384468078613e-01 7.085818290710449219e+00 2.167007684707641602e+00 -1.152195692062377930e+00
2.289000000000000000e+03 7.302753448486328125e+01 -2.064131355285644531e+01 -2.393740229308605194e-02 8.379829406738281250e+00 2.506767511367797852e+00 -4.090939089655876160e-02
2.290000000000000000e+03 7.430175018310546875e+01 -2.075622177124023438e+01 -9.786162525415420532e-03 8.603593826293945312e+00 2.578142404556274414e+00 -3.188751637935638428e-02
2.291000000000000000e+03 9.174639701843261719e+00 3.478705596923828125e+01 4.054520104546099901e-05 2.965542807942256331e-05 2.106018837366718799e-05 1.887818689283449203e-05
2.292000000000000000e+03 7.322361755371093750e+01 1.781574440002441406e+01 -1.146829351782798767e-01 7.355531692504882812e+00 2.172254800796508789e+00 -1.045171141624450684e+00
2.293000000000000000e+03 7.193903350830078125e+01 -2.785747528076171875e+01 -6.987964734435081482e-03 8.159739494323730469e+00 2.445825576782226562e+00 -2.650407887995243073e-02
2.294000000000000000e+03 7.327410888671875000e+01 -2.861909294128417969e+01 -1.355622336268424988e-02 8.441630363464355469e+00 2.528422117233276367e+00 -3.014536015689373016e-02
2.295000000000000000e+03 9.977373123168945312e+00 9.482458114624023438e+00 7.107678811735240743e-06 -2.528053300920873880e-06 1.373887698719045147e-06 -5.968330697214696556e-06
2.296000000000000000e+03 8.513040542602539062e+00 -1.881330490112304688e+01 2.805412048473954201e-03 5.421430687420070171e-04 1.004266552627086639e-03 -1.777946454240009189e-04
2.297000000000000000e+03 1.028858280181884766e+01 -1.689629936218261719e+01 -2.695393050089478493e-03 -5.005035200156271458e-04 -9.587690001353621483e-04 3.299670934211462736e-04
2.298000000000000000e+03 2.626899337768554688e+01 2.696455001831054688e+01 -6.665232032537460327e-02 -1.833008378744125366e-01 -7.498594373464584351e-02 -3.260078132152557373e-01
2.299000000000000000e+03 2.541067123413085938e+01 2.441171264648437500e+01 -8.427539840340614319e-03 -3.213088214397430420e-01 -9.892091155052185059e-02 -3.216557502746582031e-01
2.300000000000000000e+03 2.814663314819335938e+01 1.627997398376464844e+01 1.214718222618103027e-01 -2.631362378597259521e-01 -4.249931871891021729e-02 -2.593874335289001465e-01
2.301000000000000000e+03 2.694941902160644531e+01 1.759197044372558594e+01 8.671887964010238647e-02 -3.886052668094635010e-01 -9.056591987609863281e-02 -2.824789285659790039e-01
2.302000000000000000e+03 9.390107154846191406e+00 -2.027943611145019531e+01 3.028968349099159241e-03 2.125537575921043754e-04 9.724566480144858360e-04 -8.890197495929896832e-04
2.303000000000000000e+03 2.729273033142089844e+01 7.647824764251708984e+00 4.587384313344955444e-02 -3.572023808956146240e-01 -9.339856356382369995e-02 -6.579405814409255981e-02
2.304000000000000000e+03 2.727025794982910156e+01 9.097279548645019531e+00 5.854031071066856384e-02 -3.720023930072784424e-01 -9.403862059116363525e-02 -9.375946968793869019e-02
2.305000000000000000e+03 2.986702156066894531e+01 7.802886962890625000e+00 9.425852447748184204e-02 8.714852482080459595e-02 5.442211404442787170e-02 -3.432329744100570679e-02
2.306000000000000000e+03 6.098152160644531250e+00 -8.671383857727050781e+00 1.791520626284182072e-04 1.191715928143821657e-04 8.949709445005282760e-05 4.002909699920564890e-04
2.307000000000000000e+03 5.190071105957031250e+00 -9.222406387329101562e+00 -3.914940461982041597e-04 -2.023925480898469687e-04 -1.781659811967983842e-04 -5.022093537263572216e-04
2.308000000000000000e+03 2.707266235351562500e+01 1.481585597991943359e+01 9.297226369380950928e-02 -4.025140702724456787e-01 -9.286253899335861206e-02 -2.177596241235733032e-01
2.309000000000000000e+03 6.594849586486816406e+00 2.520281791687011719e+01 1.846092527557630092e-05 1.393952629769046325e-06 5.956463155598612502e-06 5.405948286352213472e-06
2.310000000000000000e+03 5.229906558990478516e+00 2.436088943481445312e+01 2.080818012473173440e-05 -1.129408360611705575e-06 5.903631517867324874e-06 8.706292646820656955e-06
2.311000000000000000e+03 8.643696784973144531e+00 -2.664710807800292969e+01 -2.491034567356109619e-03 -2.378745237365365028e-03 -1.460933941416442394e-03 3.926404169760644436e-04
2.312000000000000000e+03 6.896389484405517578e+00 -2.289010810852050781e+01 -2.640637336298823357e-03 5.327705366653390229e-05 -7.762080640532076359e-04 -1.864632940851151943e-03
2.313000000000000000e+03 5.736204624176025391e+00 -2.321834373474121094e+01 4.767505917698144913e-03 -1.482712395954877138e-04 1.385770388878881931e-03 3.373663057573139668e-04
2.314000000000000000e+03 5.691207408905029297e+00 -1.933939743041992188e+01 -3.363636089488863945e-03 -8.791995060164481401e-05 -1.035466790199279785e-03 -1.708540075924247503e-04
2.315000000000000000e+03 8.013247489929199219e+00 -1.651734352111816406e+01 -1.131726545281708241e-03 -1.438734121620655060e-03 -7.711382349953055382e-04 8.323243237100541592e-04
2.316000000000000000e+03 2.669960403442382812e+01 2.900131797790527344e+01 -1.220998540520668030e-01 -1.053715050220489502e-01 -6.824140995740890503e-02 -2.905785143375396729e-01
2.317000000000000000e+03 8.354217529296875000e+00 2.725555801391601562e+01 -3.394566374481655657e-05 1.750656565491226502e-06 -9.658501767262350768e-06 -5.964583579043392092e-06
2.318000000000000000e+03 6.851753234863281250e+00 2.642219161987304688e+01 -2.856219180102925748e-05 4.648427136544341920e-07 -8.429204171989113092e-06 -3.207996314813499339e-06
2.319000000000000000e+03 5.214354515075683594e+00 1.593965625762939453e+01 1.515285748610040173e-05 3.437821760599035770e-06 5.577203864959301427e-06 -5.432020202533749398e-07
2.320000000000000000e+03 1.080874156951904297e+01 -2.234715461730957031e+01 1.571595435962080956e-03 -2.024808782152831554e-04 4.107343847863376141e-04 7.250051712617278099e-04
2.321000000000000000e+03 1.136483764648437500e+01 -2.329157447814941406e+01 -4.116397351026535034e-03 8.373936288990080357e-04 -9.837010875344276428e-04 7.704978343099355698e-04
2.322000000000000000e+03 6.482954502105712891e+00 1.981963157653808594e+01 1.768813672242686152e-05 -4.164911388215841725e-06 4.056967554788570851e-06 -3.528699835442239419e-06
2.323000000000000000e+03 7.431316852569580078e+00 1.530898284912109375e+01 4.404359117415879155e-07 4.247418473823927343e-06 1.406356204824987799e-06 4.497206646192353219e-06
2.324000000000000000e+03 5.549823760986328125e+00 1.232890892028808594e+01 -1.237889591720886528e-05 -4.526851625996641815e-06 -5.071724444860592484e-06 -8.232553909692796879e-07
2.325000000000000000e+03 6.339480400085449219e+00 1.577614974975585938e+01 -7.799199920555111021e-06 -6.917443897691555321e-06 -4.414993327372940257e-06 -8.484908562422788236e-07
2.326000000000000000e+03 2.549629020690917969e+01 2.972127723693847656e+01 -9.694214165210723877e-02 -1.143057867884635925e-01 -6.337437778711318970e-02 -2.297457754611968994e-01
2.327000000000000000e+03 8.187677383422851562e+00 -1.989183425903320312e+01 -2.729552565142512321e-03 -4.390799731481820345e-04 -9.505897760391235352e-04 6.113801500760018826e-04
2.328000000000000000e+03 2.552677345275878906e+01 2.306131744384765625e+01 1.149650011211633682e-02 -3.680948317050933838e-01 -1.069795042276382446e-01 -3.241984546184539795e-01
2.329000000000000000e+03 2.677998352050781250e+01 2.176714897155761719e+01 4.079739749431610107e-02 -3.208395242691040039e-01 -8.401263505220413208e-02 -3.552895188331604004e-01
2.330000000000000000e+03 2.727107810974121094e+01 -1.548130226135253906e+01 -6.614931393414735794e-03 -9.004525095224380493e-02 -2.899805456399917603e-02 1.621067151427268982e-02
2.331000000000000000e+03 6.159088611602783203e+00 1.468487930297851562e+01 1.035712557495571673e-05 5.611771030089585111e-06 4.790669208887265995e-06 2.668834667929331772e-06
2.332000000000000000e+03 1.035926246643066406e+01 -2.795916366577148438e+01 -1.888129394501447678e-03 -4.795171786099672318e-03 -2.004990354180335999e-03 2.434358466416597366e-04
2.333000000000000000e+03 1.063846397399902344e+01 -2.674579429626464844e+01 9.261580416932702065e-04 3.390089608728885651e-03 1.294874236918985844e-03 -8.051995537243783474e-04
2.334000000000000000e+03 7.972130775451660156e+00 8.365720748901367188e+00 -2.699609467526897788e-06 1.766216087162320036e-06 -2.800180141093733255e-07 7.975639164214953780e-06
2.335000000000000000e+03 6.550193309783935547e+00 8.085973739624023438e+00 -6.136229785624891520e-06 3.279052407378912903e-06 -8.571532816858962178e-07 5.222135769145097584e-06
2.336000000000000000e+03 7.299560546875000000e+01 2.831196784973144531e+01 3.872724771499633789e-01 6.583695411682128906e+00 2.091290235519409180e+00 -7.816666364669799805e-01
2.337000000000000000e+03 9.798622131347656250e+00 1.281681537628173828e+01 1.106160198105499148e-05 2.933337270860647550e-07 3.406480800549616106e-06 3.312636920327349799e-07
2.338000000000000000e+03 6.674329757690429688e+00 -1.294447040557861328e+01 1.472341595217585564e-03 -1.664313822402618825e-05 4.367095534689724445e-04 -1.188653288409113884e-03
2.339000000000000000e+03 8.479837417602539062e+00 9.151197433471679688e+00 5.100053385831415653e-06 -2.609240937090362422e-06 7.472437459909997415e-07 -7.483094577764859423e-06
2.340000000000000000e+03 6.551728725433349609e+00 1.210822963714599609e+01 -4.026171154691837728e-06 2.942690798590774648e-06 -3.250441125146608101e-07 -2.451668933645123616e-06
2.341000000000000000e+03 7.623603820800781250e+00 -1.361585998535156250e+01 -4.683416045736521482e-04 -6.211146683199331164e-05 -1.591359323356300592e-04 1.325898105278611183e-03
2.342000000000000000e+03 5.663953304290771484e+00 -7.708742618560791016e+00 -1.839881151681765914e-04 -4.739838768728077412e-04 -1.973916077986359596e-04 -2.799572248477488756e-04
2.343000000000000000e+03 2.711414909362792969e+01 -1.838915634155273438e+01 -4.247950389981269836e-03 -1.067712530493736267e-01 -3.330576047301292419e-02 2.070240210741758347e-03
2.344000000000000000e+03 2.815122795104980469e+01 -8.737583160400390625e+00 -1.406621886417269707e-03 -1.399486605077981949e-02 -4.620446357876062393e-03 3.164714202284812927e-02
2.345000000000000000e+03 2.730342292785644531e+01 6.189041614532470703e+00 3.103352151811122894e-02 -3.416557908058166504e-01 -9.318668395280838013e-02 -4.230857267975807190e-02
2.346000000000000000e+03 1.026573562622070312e+01 -3.042881393432617188e+01 9.170297416858375072e-04 -6.510045379400253296e-03 -1.677904743701219559e-03 -9.383756150782573968e-06
2.347000000000000000e+03 2.713327980041503906e+01 1.340690135955810547e+01 9.179229289293289185e-02 -4.012840092182159424e-01 -9.284751862287521362e-02 -1.843000203371047974e-01
2.348000000000000000e+03 1.001886749267578125e+01 -1.439727878570556641e+01 -8.132702787406742573e-04 -5.953450454398989677e-04 -4.225846205372363329e-04 -6.927156937308609486e-04
2.349000000000000000e+03 2.559161949157714844e+01 -2.110203742980957031e+01 1.321224216371774673e-02 -3.597669899463653564e-01 -1.039664223790168762e-01 -1.436431519687175751e-02
2.350000000000000000e+03 2.270034599304199219e+01 -2.391184616088867188e+01 8.313405327498912811e-03 -8.645856976509094238e-01 -2.568816840648651123e-01 -2.491982840001583099e-02
2.351000000000000000e+03 2.427315330505371094e+01 -2.398283767700195312e+01 1.394526753574609756e-02 -5.934187173843383789e-01 -1.738420426845550537e-01 -2.093255519866943359e-02
2.352000000000000000e+03 2.729690361022949219e+01 3.251327991485595703e+00 1.711654663085937500e-02 -3.108557760715484619e-01 -8.812177181243896484e-02 -1.091016572900116444e-03
2.353000000000000000e+03 2.422760009765625000e+01 -3.133199310302734375e+01 -6.374475359916687012e-02 -5.530279874801635742e-01 -1.850318163633346558e-01 -3.418971598148345947e-02
2.354000000000000000e+03 2.404171562194824219e+01 -2.816159820556640625e+01 -2.657276764512062073e-02 -6.265685558319091797e-01 -1.959424018859863281e-01 -3.235637769103050232e-02
2.355000000000000000e+03 2.524684524536132812e+01 -2.770135498046875000e+01 -9.353821165859699249e-03 -4.239631295204162598e-01 -1.299950778484344482e-01 -2.808667346835136414e-02
2.356000000000000000e+03 1.270975017547607422e+01 3.051412582397460938e+01 -6.546838267240673304e-05 5.684166353603359312e-06 -1.793526462279260159e-05 -1.272248391614994034e-05
2.357000000000000000e+03 1.055395412445068359e+01 3.418558502197265625e+01 -5.878513547941111028e-05 3.422158988541923463e-05 -7.369063496298622340e-06 1.728862298477906734e-05
2.358000000000000000e+03 1.136626529693603516e+01 -6.539095878601074219e+00 -1.572990324348211288e-03 -1.481554209021851420e-04 -5.163437454029917717e-04 4.063014639541506767e-04
2.359000000000000000e+03 9.362324714660644531e+00 -6.302225589752197266e+00 -9.777555242180824280e-04 -7.072013686411082745e-04 -5.054870853200554848e-04 7.919779163785278797e-04
2.360000000000000000e+03 9.817800521850585938e+00 2.821087455749511719e+01 -4.783772237715311348e-05 7.130509402486495674e-06 -1.221216371050104499e-05 -1.027113739837659523e-05
2.361000000000000000e+03 2.591152381896972656e+01 -2.400312995910644531e+01 3.410873003304004669e-03 -3.171786069869995117e-01 -9.413032233715057373e-02 -1.910882815718650818e-02
2.362000000000000000e+03 7.311391448974609375e+01 -2.296841621398925781e+01 -1.539104524999856949e-02 8.392248153686523438e+00 2.513057231903076172e+00 -2.615110948681831360e-02
2.363000000000000000e+03 7.297112274169921875e+01 -1.555973529815673828e+01 -3.227736055850982666e-02 8.347235679626464844e+00 2.494487524032592773e+00 -7.322400063276290894e-02
2.364000000000000000e+03 7.237726211547851562e+00 -3.466670608520507812e+01 1.578580029308795929e-02 -4.541508387774229050e-03 3.373287618160247803e-03 5.254263989627361298e-03
2.365000000000000000e+03 7.248409271240234375e+01 -8.496946334838867188e+00 -6.486868113279342651e-02 8.198201179504394531e+00 2.439999818801879883e+00 -1.550384610891342163e-01
2.366000000000000000e+03 1.144117450714111328e+01 3.676526260375976562e+01 6.828591722296550870e-05 4.376451033749617636e-05 3.361512790434062481e-05 2.755184323177672923e-05
2.367000000000000000e+03 1.002695655822753906e+01 3.265563201904296875e+01 3.646972618298605084e-05 1.294395042350515723e-05 1.482410243625054136e-05 2.663532541191671044e-06
2.368000000000000000e+03 8.680944442749023438e+00 3.894334411621093750e+01 2.635285272845067084e-05 7.483478111680597067e-05 3.035629015357699245e-05 4.794824417331255972e-05
2.369000000000000000e+03 7.440779113769531250e+01 6.653482437133789062e+00 -1.243891119956970215e-01 8.047937393188476562e+00 2.377064466476440430e+00 -4.930825233459472656e-01
2.370000000000000000e+03 7.414373016357421875e+01 -2.035797983407974243e-01 -8.267631381750106812e-02 8.294730186462402344e+00 2.463616132736206055e+00 -2.839773297309875488e-01
2.371000000000000000e+03 9.214859962463378906e+00 -1.190228557586669922e+01 -5.758362822234630585e-04 -3.960516551160253584e-05 -1.846324448706582189e-04 9.564283536747097969e-04
2.372000000000000000e+03 9.283126831054687500e+00 -1.357248115539550781e+01 -1.556832343339920044e-03 6.124742794781923294e-04 -2.833074249792844057e-04 1.109669683501124382e-03
2.373000000000000000e+03 5.277859497070312500e+01 2.945074462890625000e+01 3.129245996475219727e+00 3.164112806320190430e+00 1.888007640838623047e+00 4.245490074157714844e+00
2.374000000000000000e+03 5.311827850341796875e+01 2.901272010803222656e+01 3.018476486206054688e+00 5.164252281188964844e+00 2.454818487167358398e+00 5.115393638610839844e+00
2.375000000000000000e+03 5.711994171142578125e+01 2.903809165954589844e+01 2.755773544311523438e+00 1.549966621398925781e+01 5.476632118225097656e+00 -9.698264598846435547e-01
2.376000000000000000e+03 5.405369949340820312e+01 2.901098060607910156e+01 2.389161825180053711e+00 1.003909206390380859e+01 3.728476047515869141e+00 6.308176040649414062e+00
2.377000000000000000e+03 5.399608612060546875e+01 3.443000030517578125e+01 3.841964602470397949e-01 9.488739013671875000e+00 2.961880683898925781e+00 -4.363617420196533203e+00
2.378000000000000000e+03 5.694560623168945312e+01 3.009294700622558594e+01 5.865248680114746094e+00 1.641284370422363281e+01 6.683427810668945312e+00 -1.642017841339111328e+00
2.379000000000000000e+03 5.749930953979492188e+01 3.067090415954589844e+01 7.355144500732421875e+00 1.443858337402343750e+01 6.538118362426757812e+00 -8.314704298973083496e-01
2.380000000000000000e+03 5.462957382202148438e+01 2.867847442626953125e+01 1.230357885360717773e+00 1.277101325988769531e+01 4.200411319732666016e+00 5.243029594421386719e+00
2.381000000000000000e+03 5.360584259033203125e+01 3.430296707153320312e+01 8.160988688468933105e-01 7.607859611511230469e+00 2.527187585830688477e+00 -4.425818920135498047e+00
2.382000000000000000e+03 5.763068771362304688e+01 3.152786445617675781e+01 7.621363639831542969e+00 1.403424358367919922e+01 6.496682167053222656e+00 9.383183121681213379e-01
2.383000000000000000e+03 5.669252014160156250e+01 3.382257080078125000e+01 1.251884937286376953e+00 1.667090415954589844e+01 5.376836776733398438e+00 1.468751907348632812e+00
2.384000000000000000e+03 5.749362182617187500e+01 3.175827407836914062e+01 7.656785011291503906e+00 1.441313457489013672e+01 6.620975971221923828e+00 1.410501360893249512e+00
2.385000000000000000e+03 5.744212341308593750e+01 3.365144729614257812e+01 2.453762292861938477e+00 1.547111034393310547e+01 5.377461910247802734e+00 2.380309820175170898e+00
2.386000000000000000e+03 5.770591354370117188e+01 3.260664367675781250e+01 5.269931793212890625e+00 1.459453296661376953e+01 5.959339618682861328e+00 2.470637321472167969e+00
2.387000000000000000e+03 5.240635681152343750e+01 2.870405387878417969e+01 2.605136156082153320e+00 3.537079334259033203e+00 1.842664599418640137e+00 4.050610065460205078e+00
2.388000000000000000e+03 5.509403610229492188e+01 3.432300567626953125e+01 -6.334761977195739746e-01 1.455680179595947266e+01 4.176997661590576172e+00 -3.114667654037475586e+00
2.389000000000000000e+03 5.080221939086914062e+01 2.853192710876464844e+01 1.666425943374633789e+00 1.438109397888183594e+00 9.313606023788452148e-01 2.230296134948730469e+00
2.390000000000000000e+03 5.587572479248046875e+01 3.445454788208007812e+01 -6.596895456314086914e-01 1.577128696441650391e+01 4.533479213714599609e+00 -1.211357355117797852e+00
2.391000000000000000e+03 4.916667175292968750e+01 2.763570022583007812e+01 1.185283422470092773e+00 1.106482625007629395e+00 6.875298023223876953e-01 1.528006553649902344e+00
2.392000000000000000e+03 5.059177398681640625e+01 2.776357269287109375e+01 1.690504670143127441e+00 1.938119649887084961e+00 1.088587284088134766e+00 2.434363842010498047e+00
2.393000000000000000e+03 5.682336807250976562e+01 3.444705200195312500e+01 3.014329969882965088e-01 1.537604331970214844e+01 4.703242778778076172e+00 8.711676597595214844e-01
2.394000000000000000e+03 5.628151321411132812e+01 3.461351013183593750e+01 -5.106287598609924316e-01 1.544558429718017578e+01 4.480486392974853516e+00 -4.623750448226928711e-01
2.395000000000000000e+03 5.290983581542968750e+01 3.499977874755859375e+01 5.624082088470458984e-01 5.930543422698974609e+00 1.947885394096374512e+00 -3.389854669570922852e+00
2.396000000000000000e+03 5.169216918945312500e+01 2.917191123962402344e+01 2.164360046386718750e+00 1.624957799911499023e+00 1.136795282363891602e+00 2.721606969833374023e+00
2.397000000000000000e+03 4.854377746582031250e+01 2.702954292297363281e+01 1.122979760169982910e+00 1.160376191139221191e+00 6.850067973136901855e-01 1.413309812545776367e+00
2.398000000000000000e+03 5.209387588500976562e+01 3.536052703857421875e+01 7.481687068939208984e-01 3.934603691101074219e+00 1.404831647872924805e+00 -2.485262870788574219e+00
2.399000000000000000e+03 5.240086746215820312e+01 3.516133499145507812e+01 6.706399321556091309e-01 4.542215347290039062e+00 1.563856601715087891e+00 -2.685288667678833008e+00
2.400000000000000000e+03 8.289370536804199219e+00 6.295212745666503906e+00 7.008268767094705254e-06 4.147942490817513317e-06 3.346863422848400660e-06 -1.492127580604574177e-06
2.401000000000000000e+03 6.272161960601806641e+00 7.283488273620605469e+00 1.112106929213041440e-05 1.786517600521619897e-07 3.389916173546225764e-06 -2.515339474484790117e-06
2.402000000000000000e+03 2.732891845703125000e+01 2.866878509521484375e+01 -1.334632933139801025e-01 -9.717572480440139771e-02 -6.919170171022415161e-02 -3.209396302700042725e-01
2.403000000000000000e+03 8.781022071838378906e+00 5.153388500213623047e+00 -2.987093012052355334e-06 -5.676680530086741783e-07 -1.066428353624360170e-06 -3.302157892903778702e-06
2.404000000000000000e+03 2.633769989013671875e+01 2.572465705871582031e+01 -3.983383253216743469e-02 -2.245034277439117432e-01 -7.930117845535278320e-02 -3.474501371383666992e-01
2.405000000000000000e+03 3.130709457397460938e+01 2.925557518005371094e+01 -2.998711168766021729e-01 3.390860930085182190e-02 -7.978875190019607544e-02 -3.737498223781585693e-01
2.406000000000000000e+03 2.793264770507812500e+01 2.939264678955078125e+01 -1.746335178613662720e-01 -5.668786168098449707e-02 -6.939641386270523071e-02 -3.098035752773284912e-01
2.407000000000000000e+03 3.199468231201171875e+01 2.917519760131835938e+01 -3.230968415737152100e-01 4.887842386960983276e-02 -8.226552605628967285e-02 -3.831457197666168213e-01
2.408000000000000000e+03 3.134230041503906250e+01 2.849462127685546875e+01 -2.544529736042022705e-01 2.641547657549381256e-02 -6.841125339269638062e-02 -4.021505713462829590e-01
2.409000000000000000e+03 2.799940299987792969e+01 2.861927604675292969e+01 -1.517770737409591675e-01 -7.514064013957977295e-02 -6.807531416416168213e-02 -3.387084901332855225e-01
2.410000000000000000e+03 1.025471687316894531e+01 6.482022762298583984e+00 5.680059985024854541e-06 5.526720997295342386e-06 3.362034476594999433e-06 1.855619530033436604e-06
2.411000000000000000e+03 3.338432693481445312e+01 2.897160148620605469e+01 -3.632428944110870361e-01 7.817931473255157471e-02 -8.551906794309616089e-02 -3.961209058761596680e-01
2.412000000000000000e+03 3.903435516357421875e+01 2.795870208740234375e+01 -3.582342267036437988e-01 1.802653968334197998e-01 -5.339065194129943848e-02 -3.255267441272735596e-01
2.413000000000000000e+03 3.696276092529296875e+01 2.904952812194824219e+01 -5.163979530334472656e-01 1.283676475286483765e-01 -1.164091005921363831e-01 -3.599960207939147949e-01
2.414000000000000000e+03 3.683684921264648438e+01 2.762307548522949219e+01 -2.898936271667480469e-01 1.561058163642883301e-01 -4.013634473085403442e-02 -3.949674367904663086e-01
2.415000000000000000e+03 3.624208831787109375e+01 2.917740249633789062e+01 -5.059301257133483887e-01 1.197327226400375366e-01 -1.158592253923416138e-01 -3.664621114730834961e-01
2.416000000000000000e+03 3.618881225585937500e+01 2.847084236145019531e+01 -4.027198553085327148e-01 1.287632286548614502e-01 -8.218698203563690186e-02 -3.925618827342987061e-01
2.417000000000000000e+03 8.177217483520507812e+00 -9.467256546020507812e+00 5.131197976879775524e-04 4.646815650630742311e-04 2.933404175564646721e-04 -9.086340432986617088e-04
2.418000000000000000e+03 4.352267837524414062e+01 2.786244392395019531e+01 -1.722698062658309937e-01 2.595482468605041504e-01 2.618352696299552917e-02 -2.034795843064785004e-02
2.419000000000000000e+03 4.654838943481445312e+01 2.760713577270507812e+01 3.872758448123931885e-01 4.869777560234069824e-01 2.622760832309722900e-01 5.327414870262145996e-01
2.420000000000000000e+03 4.789673614501953125e+01 2.699189758300781250e+01 9.474811553955078125e-01 9.510907530784606934e-01 5.695715546607971191e-01 1.138106584548950195e+00
2.421000000000000000e+03 3.477897644042968750e+01 2.872746658325195312e+01 -3.906519412994384766e-01 1.039788424968719482e-01 -8.600193262100219727e-02 -4.001820683479309082e-01
2.422000000000000000e+03 3.408072662353515625e+01 2.885315895080566406e+01 -3.786862790584564209e-01 9.179148077964782715e-02 -8.606844395399093628e-02 -3.988911211490631104e-01
2.423000000000000000e+03 3.612948608398437500e+01 2.774833869934082031e+01 -3.011377453804016113e-01 1.399785876274108887e-01 -4.834774881601333618e-02 -4.077306687831878662e-01
2.424000000000000000e+03 1.016540813446044922e+01 -7.748378276824951172e+00 -9.077306021936237812e-04 -7.530916482210159302e-04 -4.982466925866901875e-04 9.263103129342198372e-04
2.425000000000000000e+03 8.522459983825683594e+00 -6.223773002624511719e+00 4.943677340634167194e-04 9.157681488431990147e-04 4.230407648719847202e-04 -6.543151102960109711e-04
2.426000000000000000e+03 4.267264556884765625e+01 2.729471397399902344e+01 -6.009150668978691101e-02 2.939532995223999023e-01 7.015853375196456909e-02 -6.256781518459320068e-02
2.427000000000000000e+03 4.200157928466796875e+01 2.810938835144042969e+01 -3.469234108924865723e-01 2.083154320716857910e-01 -4.158239811658859253e-02 -1.700899899005889893e-01
2.428000000000000000e+03 1.124394893646240234e+01 5.809929847717285156e+00 7.749355972919147462e-06 2.889735242206370458e-06 3.191727500961860642e-06 1.902124040498165414e-06
2.429000000000000000e+03 1.097229671478271484e+01 7.429694652557373047e+00 2.463664031893131323e-06 5.484031134983524680e-06 2.384308572800364345e-06 1.640974687688867562e-06
2.430000000000000000e+03 1.115048980712890625e+01 -4.850216388702392578e+00 -1.086277188733220100e-03 3.299093441455624998e-05 -3.159858752042055130e-04 1.117075153160840273e-04
2.431000000000000000e+03 1.126295280456542969e+01 -5.556808948516845703e+00 2.138328272849321365e-03 -4.893213626928627491e-04 4.947020206600427628e-04 -8.887834155757445842e-06
2.432000000000000000e+03 8.328269004821777344e+00 1.227887916564941406e+01 7.642137461516540498e-06 1.208660250995308161e-06 2.655239313753554597e-06 -1.180519234367238823e-06
2.433000000000000000e+03 6.367069721221923828e+00 1.373371028900146484e+01 -8.631363925815094262e-06 -4.974844614480389282e-06 -4.081862698512850329e-06 8.006227290024980903e-07
2.434000000000000000e+03 4.581379699707031250e+01 2.763836288452148438e+01 2.209976613521575928e-01 4.032679796218872070e-01 1.872796863317489624e-01 3.561701476573944092e-01
2.435000000000000000e+03 4.721285247802734375e+01 2.697420310974121094e+01 7.715631723403930664e-01 7.853372693061828613e-01 4.670701324939727783e-01 8.876852393150329590e-01
2.436000000000000000e+03 9.029870033264160156e+00 1.408281230926513672e+01 9.044243597600143403e-06 1.051369054039241746e-06 3.028683750017080456e-06 1.747174678712326568e-06
2.437000000000000000e+03 6.905879020690917969e+00 1.791318321228027344e+01 9.142268936557229608e-06 -1.984068831006879918e-06 2.147460236301412806e-06 7.161384473874932155e-06
2.438000000000000000e+03 8.063189506530761719e+00 -1.448647975921630859e+01 -1.390361343510448933e-03 -9.737055515870451927e-04 -7.092200685292482376e-04 -3.836440446320921183e-04
2.439000000000000000e+03 8.915070533752441406e+00 9.996652603149414062e+00 -7.535163604188710451e-06 1.358793724648421630e-06 -1.852911054811556824e-06 4.991289188183145598e-06
2.440000000000000000e+03 4.500335311889648438e+01 2.702931022644042969e+01 2.990341186523437500e-01 4.573299586772918701e-01 2.269092202186584473e-01 3.025468587875366211e-01
2.441000000000000000e+03 7.299306488037109375e+01 1.907707595825195312e+01 -8.282295614480972290e-02 7.289602279663085938e+00 2.162033796310424805e+00 -1.100220322608947754e+00
2.442000000000000000e+03 2.719961738586425781e+01 -1.130238175392150879e+00 1.286420319229364395e-02 -2.803083062171936035e-01 -8.023323118686676025e-02 2.460313960909843445e-02
2.443000000000000000e+03 2.988078117370605469e+01 4.838834285736083984e+00 6.332147866487503052e-02 1.407200992107391357e-01 6.121247261762619019e-02 1.380548812448978424e-02
2.444000000000000000e+03 5.462645530700683594e+00 7.098046302795410156e+00 -8.647552931506652385e-06 -3.219330437786993571e-06 -3.560064897101256065e-06 -1.841787593548360746e-06
2.445000000000000000e+03 6.258601188659667969e+00 9.451549530029296875e+00 9.525620953354518861e-06 1.006445359053032007e-06 3.159619836878846399e-06 6.552810646098805591e-06
2.446000000000000000e+03 9.532073020935058594e+00 1.183291816711425781e+01 -1.050831906468374655e-05 -8.697858220330090262e-07 -3.413431386434240267e-06 -2.350977155174405198e-07
2.447000000000000000e+03 1.128569030761718750e+01 -7.879529476165771484e+00 1.558351796120405197e-03 1.943078532349318266e-04 5.257978918962180614e-04 -4.612776392605155706e-04
2.448000000000000000e+03 9.950765609741210938e+00 -1.084685993194580078e+01 6.595457089133560658e-04 6.250922451727092266e-04 3.853913804050534964e-04 -5.191256641410291195e-04
2.449000000000000000e+03 1.054119682312011719e+01 -9.707678794860839844e+00 1.916109613375738263e-05 -6.678977515548467636e-04 -1.946209958987310529e-04 4.330061201471835375e-04
2.450000000000000000e+03 1.011283302307128906e+01 1.916372108459472656e+01 -1.701420956123911310e-06 2.774202584987506270e-06 3.218344488686852856e-07 -5.356429255698458292e-07
2.451000000000000000e+03 7.085460662841796875e+00 8.838424682617187500e+00 1.407611193826596718e-06 -2.080003923765616491e-06 -2.017178246660478180e-07 -8.134173185680992901e-06
2.452000000000000000e+03 7.088037109375000000e+01 6.565072059631347656e+00 -2.701059281826019287e-01 7.831858158111572266e+00 2.268525600433349609e+00 -5.974456071853637695e-01
2.453000000000000000e+03 7.195121002197265625e+01 7.861674308776855469e+00 -2.347228825092315674e-01 7.869091510772705078e+00 2.290310621261596680e+00 -6.365586519241333008e-01
2.454000000000000000e+03 7.223072052001953125e+01 -2.216107559204101562e+01 -1.794175989925861359e-02 8.237757682800292969e+00 2.465944766998291016e+00 -4.092574864625930786e-02
2.455000000000000000e+03 7.271981048583984375e+01 -1.436360597610473633e+00 -1.086954697966575623e-01 8.137994766235351562e+00 2.408789634704589844e+00 -2.862609922885894775e-01
2.456000000000000000e+03 7.017437744140625000e+01 -4.210758686065673828e+00 -1.384729593992233276e-01 7.823489665985107422e+00 2.305505037307739258e+00 -2.503988146781921387e-01
2.457000000000000000e+03 7.233165740966796875e+01 1.369018459320068359e+01 -2.304740697145462036e-01 7.682308673858642578e+00 2.235550403594970703e+00 -9.192508459091186523e-01
2.458000000000000000e+03 7.369441986083984375e+01 2.946120071411132812e+01 3.365400731563568115e-01 6.286192417144775391e+00 1.986819624900817871e+00 -6.417976617813110352e-01
2.459000000000000000e+03 8.095978736877441406e+00 2.598027610778808594e+01 1.858756513684056699e-05 3.899297553289216012e-06 6.746058716089464724e-06 4.005563368991715834e-06
2.460000000000000000e+03 8.983009338378906250e+00 2.418655014038085938e+01 1.831654481065925211e-05 1.834956577795310295e-07 5.550012247113045305e-06 -1.618553483240248170e-06
2.461000000000000000e+03 7.277882385253906250e+01 -5.308036506175994873e-02 -1.209884285926818848e-01 8.118287086486816406e+00 2.399189710617065430e+00 -3.222439587116241455e-01
2.462000000000000000e+03 8.325901031494140625e+00 1.771924972534179688e+01 7.067036676744464785e-06 1.968642663996433839e-06 2.710703711272799410e-06 2.176752218474575784e-07
2.463000000000000000e+03 9.800372123718261719e+00 1.722142982482910156e+01 9.269016118196304888e-06 6.235889031813712791e-06 4.651471499528270215e-06 4.661770162783795968e-06
2.464000000000000000e+03 3.036408042907714844e+01 -1.852755355834960938e+01 -1.110777817666530609e-02 5.085299015045166016e-01 1.492266356945037842e-01 4.575454443693161011e-02
2.465000000000000000e+03 7.258013916015625000e+01 2.512490844726562500e+01 2.674957215785980225e-01 6.881556034088134766e+00 2.144715547561645508e+00 -1.060676813125610352e+00
2.466000000000000000e+03 7.093561553955078125e+01 2.508408164978027344e+01 3.583129048347473145e-01 7.314182758331298828e+00 2.301748752593994141e+00 -1.178598046302795410e+00
2.467000000000000000e+03 6.686478614807128906e+00 -9.553879737854003906e+00 -4.996782445232383907e-05 2.538306580390781164e-04 6.115885480539873242e-05 -7.888164254836738110e-04
2.468000000000000000e+03 7.175352478027343750e+01 -2.421385002136230469e+01 -6.054308265447616577e-03 8.150262832641601562e+00 2.443262577056884766e+00 -2.519883774220943451e-02
2.469000000000000000e+03 7.229637908935546875e+01 -2.651634788513183594e+01 -5.947805009782314301e-03 8.242240905761718750e+00 2.470887899398803711e+00 -3.240749984979629517e-02
2.470000000000000000e+03 9.775660514831542969e+00 -1.920494079589843750e+01 -3.182523883879184723e-03 -2.960026904474943876e-04 -1.043558004312217236e-03 4.681777209043502808e-04
2.471000000000000000e+03 8.969570159912109375e+00 -2.138623428344726562e+01 -2.724245889112353325e-03 -4.373238189145922661e-04 -9.484709007665514946e-04 2.046605106443166733e-03
2.472000000000000000e+03 7.314762115478515625e+01 -1.678332138061523438e+01 -2.227649837732315063e-02 8.382437705993652344e+00 2.508048295974731445e+00 -6.143947690725326538e-02
2.473000000000000000e+03 7.213057708740234375e+01 -1.711295509338378906e+01 -3.444515541195869446e-02 8.198675155639648438e+00 2.449269056320190430e+00 -6.953798979520797729e-02
2.474000000000000000e+03 7.109341430664062500e+01 -9.977717399597167969e+00 -7.468044757843017578e-02 7.969585895538330078e+00 2.368471622467041016e+00 -1.476753503084182739e-01
2.475000000000000000e+03 7.136134338378906250e+01 -5.544823169708251953e+00 -1.045004129409790039e-01 7.989587783813476562e+00 2.365526199340820312e+00 -2.128988355398178101e-01
2.476000000000000000e+03 7.091490936279296875e+01 4.217648029327392578e+00 -2.352956235408782959e-01 7.857883930206298828e+00 2.286776542663574219e+00 -4.942106902599334717e-01
2.477000000000000000e+03 7.313844299316406250e+01 9.534514427185058594e+00 -1.945561170578002930e-01 7.851819992065429688e+00 2.297179222106933594e+00 -6.758294701576232910e-01
2.478000000000000000e+03 7.254265594482421875e+01 -7.081259250640869141e+00 -7.167777419090270996e-02 8.189424514770507812e+00 2.435323953628540039e+00 -1.749420464038848877e-01
2.479000000000000000e+03 7.216184234619140625e+01 2.131248664855957031e+01 2.499187178909778595e-02 7.281590938568115234e+00 2.191974878311157227e+00 -1.195341467857360840e+00
2.480000000000000000e+03 6.302119731903076172e+00 2.405183982849121094e+01 -2.177526039304211736e-05 1.565538468639715575e-06 -6.062916781957028434e-06 -1.475286353525007144e-06
2.481000000000000000e+03 6.812965869903564453e+00 2.246382522583007812e+01 -1.371160669805249199e-05 3.150128350171144120e-06 -3.168443527101771906e-06 9.786352165974676609e-06
2.482000000000000000e+03 2.723613357543945312e+01 1.054608249664306641e+01 7.416029274463653564e-02 -3.848584592342376709e-01 -9.320945292711257935e-02 -1.215286403894424438e-01
2.483000000000000000e+03 2.690014076232910156e+01 1.897730827331542969e+01 7.909274101257324219e-02 -3.702947199344635010e-01 -8.736059814691543579e-02 -3.114067018032073975e-01
2.484000000000000000e+03 3.074221992492675781e+01 2.772904777526855469e+01 -1.928977221250534058e-01 9.387814789079129696e-04 -5.758768320083618164e-02 -4.160322546958923340e-01
2.485000000000000000e+03 7.208079528808593750e+01 5.387048721313476562e+00 -2.045224457979202271e-01 7.931099414825439453e+00 2.317973136901855469e+00 -5.239490270614624023e-01
2.486000000000000000e+03 2.960092735290527344e+01 1.219374370574951172e+01 1.420299708843231201e-01 -3.380129113793373108e-02 3.246860206127166748e-02 -1.387383788824081421e-01
2.487000000000000000e+03 8.846608161926269531e+00 -1.777851295471191406e+01 -2.894519362598657608e-03 -2.724686055444180965e-04 -9.500964079052209854e-04 3.738850937224924564e-04
2.488000000000000000e+03 2.905980682373046875e+01 1.895327186584472656e+01 1.268869787454605103e-01 -1.663329899311065674e-01 -1.183380279690027237e-02 -3.314388990402221680e-01
2.489000000000000000e+03 2.800085449218750000e+01 1.898804855346679688e+01 1.015733033418655396e-01 -2.651965022087097168e-01 -4.908695816993713379e-02 -3.279005289077758789e-01
2.490000000000000000e+03 7.043270587921142578e+00 -1.656582832336425781e+01 1.038311165757477283e-03 1.609090715646743774e-03 7.942205993458628654e-04 2.625331399030983448e-04
2.491000000000000000e+03 7.218335628509521484e+00 -1.836217689514160156e+01 -2.555378945544362068e-03 -5.358476191759109497e-04 -9.273680043406784534e-04 2.816536580212414265e-04
2.492000000000000000e+03 7.281842041015625000e+01 -1.422785186767578125e+01 -3.845231235027313232e-02 8.300987243652343750e+00 2.478760719299316406e+00 -8.896849304437637329e-02
2.493000000000000000e+03 7.097396087646484375e+01 -1.766238021850585938e+01 -4.341318085789680481e-02 7.991882801055908203e+00 2.384540796279907227e+00 -6.947467476129531860e-02
2.494000000000000000e+03 6.468554496765136719e+00 1.698909378051757812e+01 5.533316652872599661e-06 9.526169378659687936e-06 4.517845809459686279e-06 -4.489572802413022146e-06
2.495000000000000000e+03 8.024433135986328125e+00 1.622741508483886719e+01 1.846779241532203741e-06 -1.621397814233205281e-06 6.761442250535765197e-08 -3.530718231559148990e-06
2.496000000000000000e+03 7.176974773406982422e+00 1.932666206359863281e+01 1.273264501833182294e-06 1.899411472550127655e-06 9.518028036836767569e-07 6.211889740370679647e-07
2.497000000000000000e+03 6.949934005737304688e+00 -1.956132888793945312e+01 2.630058676004409790e-03 6.539087626151740551e-04 9.851902723312377930e-04 -2.725534141063690186e-04
2.498000000000000000e+03 8.057082176208496094e+00 -1.552913093566894531e+01 1.142884837463498116e-03 1.544907572679221630e-03 8.063376881182193756e-04 -2.062324638245627284e-04
2.499000000000000000e+03 7.143297672271728516e+00 -1.441780567169189453e+01 1.105581759475171566e-03 1.172929303720593452e-03 6.835533422417938709e-04 -3.849533386528491974e-04
2.500000000000000000e+03 9.138184547424316406e+00 -1.560296249389648438e+01 -1.497267279773950577e-03 -1.183374784886837006e-03 -8.041926193982362747e-04 5.235489225015044212e-04
2.501000000000000000e+03 7.445107936859130859e+00 -1.201171493530273438e+01 -1.003210199996829033e-03 4.777848880621604621e-05 -2.866295108105987310e-04 1.352584338746964931e-03
2.502000000000000000e+03 2.831751251220703125e+01 1.350340366363525391e+01 1.194153875112533569e-01 -2.338577955961227417e-01 -3.433272242546081543e-02 -1.860923469066619873e-01
2.503000000000000000e+03 2.728870391845703125e+01 2.932149696350097656e+01 -1.506126970052719116e-01 -7.457772642374038696e-02 -6.755712628364562988e-02 -2.943087220191955566e-01
2.504000000000000000e+03 2.733409309387207031e+01 -5.183288097381591797e+00 3.821380902081727982e-03 -2.161385715007781982e-01 -6.369515508413314819e-02 1.623876206576824188e-02
2.505000000000000000e+03 2.928613853454589844e+01 -3.214039087295532227e+00 9.723973460495471954e-03 1.666220426559448242e-01 5.290380492806434631e-02 5.107571929693222046e-02
2.506000000000000000e+03 2.686305618286132812e+01 2.037476158142089844e+01 6.063163653016090393e-02 -3.469090759754180908e-01 -8.588322997093200684e-02 -3.377259671688079834e-01
2.507000000000000000e+03 1.006720066070556641e+01 -2.394454765319824219e+01 4.751624073833227158e-03 -5.616153357550501823e-04 1.257002586498856544e-03 -1.284152240259572864e-04
2.508000000000000000e+03 1.001043796539306641e+01 -2.175346946716308594e+01 3.479351056739687920e-03 -6.767880404368042946e-04 8.407689165323972702e-04 -1.850053318776190281e-03
2.509000000000000000e+03 2.839786338806152344e+01 1.208150959014892578e+01 1.133124828338623047e-01 -2.120642215013504028e-01 -2.962552011013031006e-02 -1.500303596258163452e-01
2.510000000000000000e+03 7.740449905395507812e+00 -6.971372127532958984e+00 2.360400685574859381e-04 1.062496798112988472e-03 3.895610570907592773e-04 -4.483352822717279196e-04
2.511000000000000000e+03 8.809211730957031250e+00 7.889140129089355469e+00 -4.030802074339590035e-07 -6.345464385049126577e-07 -3.112879767286358401e-07 -8.257837180281057954e-06
2.512000000000000000e+03 7.112761497497558594e+00 1.062054157257080078e+01 -1.512301423645112664e-05 6.288584245339734480e-06 -2.650328951858682558e-06 -7.825449301890330389e-07
2.513000000000000000e+03 2.908664512634277344e+01 2.204835700988769531e+01 6.855615228414535522e-02 -1.475439667701721191e-01 -2.369634248316287994e-02 -3.990547657012939453e-01
2.514000000000000000e+03 2.765763664245605469e+01 -6.508955478668212891e+00 5.503347609192132950e-03 -1.352432072162628174e-01 -3.892195597290992737e-02 1.640150323510169983e-02
2.515000000000000000e+03 2.801995086669921875e+01 2.038258361816406250e+01 8.417645841836929321e-02 -2.457952946424484253e-01 -4.848565161228179932e-02 -3.591571152210235596e-01
2.516000000000000000e+03 2.794360733032226562e+01 2.182218170166015625e+01 5.508595332503318787e-02 -2.299482375383377075e-01 -5.245868861675262451e-02 -3.821780681610107422e-01
2.517000000000000000e+03 2.858377838134765625e+01 6.256083965301513672e+00 5.517680570483207703e-02 -1.137673258781433105e-01 -1.757715642452239990e-02 -2.749702706933021545e-02
2.518000000000000000e+03 8.531549453735351562e+00 3.096231460571289062e+01 -3.997740805061766878e-06 2.840787055902183056e-05 7.323038971662754193e-06 3.038286558876279742e-05
2.519000000000000000e+03 3.156283187866210938e+01 -1.140176963806152344e+01 -1.538009010255336761e-02 6.987684965133666992e-01 2.050165235996246338e-01 6.439368426799774170e-02
2.520000000000000000e+03 2.996944618225097656e+01 -9.241639137268066406e+00 -3.557432908564805984e-03 3.678807914257049561e-01 1.092970073223114014e-01 4.647755250334739685e-02
2.521000000000000000e+03 7.139099121093750000e+01 -2.907010459899902344e+01 -8.978965692222118378e-03 8.063143730163574219e+00 2.416249513626098633e+00 -2.650775760412216187e-02
2.522000000000000000e+03 2.730422973632812500e+01 4.720434188842773438e+00 2.347067371010780334e-02 -3.255406916141510010e-01 -9.062100946903228760e-02 -1.812340505421161652e-02
2.523000000000000000e+03 6.483732223510742188e+00 1.092398643493652344e+01 -1.692773139438941143e-06 -1.384793222314328887e-06 -9.232699085259810090e-07 -2.807250893965829164e-06
2.524000000000000000e+03 7.015575408935546875e+01 -2.844929313659667969e+01 -7.072898559272289276e-03 7.869758129119873047e+00 2.358805418014526367e+00 -6.376354955136775970e-03
2.525000000000000000e+03 5.229193115234375000e+01 3.580520248413085938e+01 5.168519020080566406e-01 4.856680393218994141e+00 1.612059712409973145e+00 -2.542585134506225586e+00
2.526000000000000000e+03 8.578319549560546875e+00 2.852362632751464844e+01 1.991896715480834246e-05 1.016382339003030211e-05 9.024836799653712660e-06 1.266395338461734354e-05
2.527000000000000000e+03 2.833479690551757812e+01 -2.574506998062133789e+00 2.235394157469272614e-02 -2.875464782118797302e-02 -1.920211710967123508e-03 4.341923445463180542e-02
2.528000000000000000e+03 7.234450531005859375e+01 2.713755035400390625e+01 4.024769663810729980e-01 6.807541370391845703e+00 2.163005590438842773e+00 -9.357088208198547363e-01
2.529000000000000000e+03 7.075238037109375000e+01 2.680327987670898438e+01 5.313981771469116211e-01 7.276467800140380859e+00 2.342359781265258789e+00 -1.057180047035217285e+00
2.530000000000000000e+03 7.163656616210937500e+01 1.512190580368041992e+00 -1.754561513662338257e-01 7.950615406036376953e+00 2.332547664642333984e+00 -3.888217210769653320e-01
2.531000000000000000e+03 7.132975006103515625e+01 1.035583019256591797e-01 -1.658266782760620117e-01 7.930793762207031250e+00 2.329490184783935547e+00 -3.483155667781829834e-01
2.532000000000000000e+03 2.994550895690917969e+01 2.936814308166503906e+01 -2.501670718193054199e-01 3.154012374579906464e-04 -7.495550066232681274e-02 -3.519088327884674072e-01
2.533000000000000000e+03 2.855484008789062500e+01 3.215768635272979736e-01 2.241143211722373962e-02 -3.734112903475761414e-02 -4.478909075260162354e-03 3.747584670782089233e-02
2.534000000000000000e+03 2.857434654235839844e+01 3.304233789443969727e+00 3.318439051508903503e-02 -7.317072153091430664e-02 -1.199589949101209641e-02 1.497844606637954712e-02
2.535000000000000000e+03 7.206137847900390625e+01 6.635059356689453125e+00 -2.125214189291000366e-01 7.902362823486328125e+00 2.306952476501464844e+00 -5.784745812416076660e-01
2.536000000000000000e+03 7.097177886962890625e+01 5.383553028106689453e+00 -2.482094913721084595e-01 7.850617408752441406e+00 2.280722379684448242e+00 -5.414248704910278320e-01
2.537000000000000000e+03 7.095755767822265625e+01 -8.466699600219726562e+00 -8.608400821685791016e-02 7.938963413238525391e+00 2.355863809585571289e+00 -1.632384955883026123e-01
2.538000000000000000e+03 1.314268016815185547e+01 3.338953399658203125e+01 -1.010071937344036996e-04 2.966360261780209839e-05 -2.140307697118259966e-05 -1.424769197910791263e-05
2.539000000000000000e+03 2.852994537353515625e+01 -1.214395761489868164e+00 1.505035627633333206e-02 -2.358658425509929657e-02 -2.560868160799145699e-03 4.443191736936569214e-02
2.540000000000000000e+03 2.572753143310546875e+01 -2.252525901794433594e+01 2.896304056048393250e-02 -3.350883424282073975e-01 -9.183759242296218872e-02 -2.300430648028850555e-02
2.541000000000000000e+03 8.619440078735351562e+00 3.333496093750000000e+01 -5.794314347440376878e-05 3.798622856265865266e-05 -5.987074473523534834e-06 2.506871896912343800e-05
2.542000000000000000e+03 7.053489685058593750e+01 -2.119841384887695312e+01 -3.121738135814666748e-02 7.927698612213134766e+00 2.368944406509399414e+00 -4.589974880218505859e-02
2.543000000000000000e+03 7.322391510009765625e+01 -2.189865112304687500e+01 -1.028169039636850357e-02 8.418003082275390625e+00 2.522316455841064453e+00 -3.066346980631351471e-02
2.544000000000000000e+03 2.587522315979003906e+01 -2.922178268432617188e+01 -4.043337702751159668e-02 -2.866322100162506104e-01 -9.811967611312866211e-02 -2.226892672479152679e-02
2.545000000000000000e+03 7.194834136962890625e+01 2.921439933776855469e+01 5.303507447242736816e-01 6.820594310760498047e+00 2.205283403396606445e+00 -7.319690585136413574e-01
2.546000000000000000e+03 7.024116516113281250e+01 2.578571701049804688e+01 4.928799867630004883e-01 7.447640895843505859e+00 2.382156133651733398e+00 -1.170424580574035645e+00
2.547000000000000000e+03 9.036203384399414062e+00 -1.449480819702148438e+01 1.680376590229570866e-03 6.960223545320332050e-04 7.129196892492473125e-04 -6.587196257896721363e-04
2.548000000000000000e+03 2.835332489013671875e+01 -1.348377990722656250e+01 -2.021988295018672943e-02 1.026953533291816711e-01 2.474264241755008698e-02 3.630805388092994690e-02
2.549000000000000000e+03 7.746019363403320312e+00 2.184449768066406250e+01 1.102464739233255386e-05 -4.462493052415084094e-06 1.968646529348916374e-06 -1.106886702473275363e-05
2.550000000000000000e+03 7.861742973327636719e+00 2.014908409118652344e+01 2.344904032725025900e-06 -2.905227120209019631e-06 -1.680969461403947207e-07 -4.962128514307551086e-06
2.551000000000000000e+03 7.093021392822265625e+00 2.768505477905273438e+01 1.601436269993428141e-05 8.346405593329109251e-06 7.308230578928487375e-06 8.766993232711683959e-06
2.552000000000000000e+03 7.256429290771484375e+01 -2.983621025085449219e+01 -1.736088469624519348e-02 8.286175727844238281e+00 2.480644464492797852e+00 -3.519112989306449890e-02
2.553000000000000000e+03 9.114182472229003906e+00 3.669751358032226562e+01 -3.467972419457510114e-05 2.306018177478108555e-05 -3.485862862362409942e-06 -7.869859473430551589e-06
2.554000000000000000e+03 5.379752349853515625e+01 2.892561531066894531e+01 2.618563652038574219e+00 8.603913307189941406e+00 3.366743087768554688e+00 6.005595684051513672e+00
2.555000000000000000e+03 5.341792297363281250e+01 2.876655769348144531e+01 2.700845718383789062e+00 6.883562564849853516e+00 2.875322580337524414e+00 5.597139835357666016e+00
2.556000000000000000e+03 5.443024444580078125e+01 2.841184806823730469e+01 1.249158143997192383e+00 1.162835979461669922e+01 3.863255500793457031e+00 5.113317012786865234e+00
2.557000000000000000e+03 5.500856399536132812e+01 2.886077308654785156e+01 9.545501470565795898e-01 1.505898666381835938e+01 4.804060935974121094e+00 4.450026035308837891e+00
2.558000000000000000e+03 5.209810638427734375e+01 2.843392181396484375e+01 2.367224454879760742e+00 3.226616859436035156e+00 1.678152322769165039e+00 3.710528135299682617e+00
2.559000000000000000e+03 5.684476470947265625e+01 2.961269950866699219e+01 3.887597799301147461e+00 1.671800994873046875e+01 6.181682586669921875e+00 -1.303371548652648926e+00
2.560000000000000000e+03 5.843927001953125000e+01 3.064653778076171875e+01 5.943321704864501953e+00 1.278279304504394531e+01 5.617834091186523438e+00 -5.372522473335266113e-01
2.561000000000000000e+03 5.505210113525390625e+01 3.505057144165039062e+01 -8.346788287162780762e-01 1.306892585754394531e+01 3.670274019241333008e+00 -2.719090461730957031e+00
2.562000000000000000e+03 5.745178222656250000e+01 3.001879501342773438e+01 5.493052959442138672e+00 1.495704078674316406e+01 6.135027885437011719e+00 -1.480666995048522949e+00
2.563000000000000000e+03 5.723049163818359375e+01 2.983716392517089844e+01 4.999713420867919922e+00 1.553342437744140625e+01 6.159941673278808594e+00 -1.551495432853698730e+00
2.564000000000000000e+03 5.647972106933593750e+01 2.867628669738769531e+01 1.347499370574951172e+00 1.607076835632324219e+01 5.225480079650878906e+00 3.471418023109436035e-01
2.565000000000000000e+03 5.615135192871093750e+01 2.870782279968261719e+01 1.090802907943725586e+00 1.625038146972656250e+01 5.202355384826660156e+00 1.043176054954528809e+00
2.566000000000000000e+03 5.677286911010742188e+01 2.899303436279296875e+01 2.276776313781738281e+00 1.616282463073730469e+01 5.531880378723144531e+00 -5.376865267753601074e-01
2.567000000000000000e+03 5.390773773193359375e+01 3.489980697631835938e+01 1.050065904855728149e-01 9.030190467834472656e+00 2.740559101104736328e+00 -4.044298648834228516e+00
2.568000000000000000e+03 5.701346206665039062e+01 3.410585403442382812e+01 1.066412806510925293e+00 1.577620887756347656e+01 5.052786827087402344e+00 1.538692593574523926e+00
2.569000000000000000e+03 5.800295257568359375e+01 3.150866889953613281e+01 7.014664173126220703e+00 1.337380886077880859e+01 6.116541862487792969e+00 7.809863090515136719e-01
2.570000000000000000e+03 5.824671936035156250e+01 3.252011489868164062e+01 5.196444511413574219e+00 1.357583045959472656e+01 5.631682395935058594e+00 2.013594865798950195e+00
2.571000000000000000e+03 5.751390457153320312e+01 3.212047195434570312e+01 6.955845355987548828e+00 1.469307327270507812e+01 6.494675636291503906e+00 2.173135042190551758e+00
2.572000000000000000e+03 5.788864135742187500e+01 3.234547042846679688e+01 5.781025886535644531e+00 1.395210647583007812e+01 5.919939994812011719e+00 2.052111625671386719e+00
2.573000000000000000e+03 5.785385131835937500e+01 3.322347259521484375e+01 3.615082740783691406e+00 1.472115325927734375e+01 5.500870704650878906e+00 2.518154859542846680e+00
2.574000000000000000e+03 5.788887786865234375e+01 3.403677749633789062e+01 1.845700979232788086e+00 1.470885562896728516e+01 4.966367244720458984e+00 2.142286777496337891e+00
2.575000000000000000e+03 5.647871780395507812e+01 3.419324111938476562e+01 2.174039632081985474e-01 1.633501434326171875e+01 4.965725421905517578e+00 4.750562608242034912e-01
2.576000000000000000e+03 5.022401809692382812e+01 2.817199516296386719e+01 1.492560744285583496e+00 1.315390944480895996e+00 8.423855304718017578e-01 1.975916266441345215e+00
2.577000000000000000e+03 5.304259872436523438e+01 3.456072616577148438e+01 8.607994914054870605e-01 5.671406269073486328e+00 1.959661722183227539e+00 -3.773255109786987305e+00
2.578000000000000000e+03 4.914580535888671875e+01 2.708291244506835938e+01 1.293774962425231934e+00 1.401013135910034180e+00 8.084363937377929688e-01 1.708536028861999512e+00
2.579000000000000000e+03 5.255017852783203125e+01 3.485839080810546875e+01 7.719319462776184082e-01 4.648483753204345703e+00 1.626124739646911621e+00 -2.917065620422363281e+00
2.580000000000000000e+03 5.719139480590820312e+01 3.468669509887695312e+01 2.809541523456573486e-01 1.490877342224121094e+01 4.556918621063232422e+00 1.153060436248779297e+00
2.581000000000000000e+03 5.413627243041992188e+01 3.635979843139648438e+01 -5.154865980148315430e-01 9.451979637145996094e+00 2.680947780609130859e+00 -2.798336982727050781e+00
2.582000000000000000e+03 4.914464950561523438e+01 2.652499580383300781e+01 1.336984395980834961e+00 1.711525797843933105e+00 9.145530462265014648e-01 1.852643370628356934e+00
2.583000000000000000e+03 4.970484924316406250e+01 2.715077972412109375e+01 1.449689269065856934e+00 1.702235221862792969e+00 9.455773234367370605e-01 2.017058134078979492e+00
2.584000000000000000e+03 4.576345443725585938e+01 2.699085044860839844e+01 4.461452662944793701e-01 5.449329018592834473e-01 2.973234653472900391e-01 4.719628393650054932e-01
2.585000000000000000e+03 3.068122863769531250e+01 2.854448509216308594e+01 -2.360992729663848877e-01 9.334808215498924255e-03 -6.802934408187866211e-02 -3.924011290073394775e-01
2.586000000000000000e+03 2.926685905456542969e+01 2.939642524719238281e+01 -2.248454988002777100e-01 -1.848736219108104706e-02 -7.299985736608505249e-02 -3.397047817707061768e-01
2.587000000000000000e+03 3.078829383850097656e+01 2.682923889160156250e+01 -1.420310735702514648e-01 -6.737228017300367355e-03 -4.463049024343490601e-02 -4.332055449485778809e-01
2.588000000000000000e+03 3.269261169433593750e+01 2.835349464416503906e+01 -2.863267064094543457e-01 6.159267202019691467e-02 -6.742021441459655762e-02 -4.164031445980072021e-01
2.589000000000000000e+03 3.268859100341796875e+01 2.907948875427246094e+01 -3.440673649311065674e-01 6.434398889541625977e-02 -8.391701430082321167e-02 -3.903565704822540283e-01
2.590000000000000000e+03 2.859411048889160156e+01 2.940660476684570312e+01 -1.982702016830444336e-01 -3.735814616084098816e-02 -7.068850845098495483e-02 -3.248803615570068359e-01
2.591000000000000000e+03 2.941491699218750000e+01 2.780100250244140625e+01 -1.609064340591430664e-01 -4.472591355443000793e-02 -6.168970093131065369e-02 -3.955790996551513672e-01
2.592000000000000000e+03 2.802729034423828125e+01 2.776291656494140625e+01 -1.282747536897659302e-01 -9.442387521266937256e-02 -6.680958718061447144e-02 -3.637351095676422119e-01
2.593000000000000000e+03 2.866741752624511719e+01 2.861270904541015625e+01 -1.740102171897888184e-01 -5.323704332113265991e-02 -6.817417591810226440e-02 -3.555331826210021973e-01
2.594000000000000000e+03 3.825394821166992188e+01 2.736706161499023438e+01 -2.478339523077011108e-01 1.910167634487152100e-01 -1.704515330493450165e-02 -3.519502878189086914e-01
2.595000000000000000e+03 4.650033950805664062e+01 2.697426414489746094e+01 6.020724773406982422e-01 6.498436331748962402e-01 3.755748271942138672e-01 6.643177270889282227e-01
2.596000000000000000e+03 3.548085021972656250e+01 2.859913635253906250e+01 -3.991172313690185547e-01 1.169290989637374878e-01 -8.465643972158432007e-02 -3.976721167564392090e-01
2.597000000000000000e+03 3.337488937377929688e+01 2.825190925598144531e+01 -2.974690496921539307e-01 7.850383967161178589e-02 -6.568956375122070312e-02 -4.200746417045593262e-01
2.598000000000000000e+03 3.474130249023437500e+01 2.800569152832031250e+01 -3.082031607627868652e-01 1.090783253312110901e-01 -5.973744764924049377e-02 -4.202873408794403076e-01
2.599000000000000000e+03 4.253016281127929688e+01 2.589607429504394531e+01 2.723662555217742920e-01 4.531064629554748535e-01 2.176418155431747437e-01 5.260085687041282654e-02
2.600000000000000000e+03 4.337822341918945312e+01 2.650023078918457031e+01 2.274583578109741211e-01 4.263414442539215088e-01 1.961399465799331665e-01 1.043367311358451843e-01
2.601000000000000000e+03 3.754708480834960938e+01 2.749682807922363281e+01 -2.727599442005157471e-01 1.740077883005142212e-01 -2.962565235793590546e-02 -3.762837350368499756e-01
2.602000000000000000e+03 3.405698776245117188e+01 2.813318252563476562e+01 -3.051934540271759033e-01 9.374548494815826416e-02 -6.343439221382141113e-02 -4.220302999019622803e-01
2.603000000000000000e+03 4.191301727294921875e+01 2.741906166076660156e+01 -1.484885513782501221e-01 2.580966353416442871e-01 3.288242593407630920e-02 -1.429381668567657471e-01
2.604000000000000000e+03 4.259487533569335938e+01 2.660035514831542969e+01 1.197158917784690857e-01 3.658855259418487549e-01 1.456804275512695312e-01 -1.010073348879814148e-02
2.605000000000000000e+03 4.044712448120117188e+01 2.768996238708496094e+01 -2.800169885158538818e-01 2.115569412708282471e-01 -2.053801342844963074e-02 -2.558029890060424805e-01
2.606000000000000000e+03 4.182820129394531250e+01 2.671567344665527344e+01 2.687172405421733856e-02 3.214344382286071777e-01 1.044918522238731384e-01 -1.021428927779197693e-01
2.607000000000000000e+03 9.306369781494140625e+00 6.327087402343750000e+00 -7.163383543229429051e-06 -4.114118837605929002e-06 -3.383250714250607416e-06 -1.639025185795617290e-06
2.608000000000000000e+03 3.965624618530273438e+01 2.710055732727050781e+01 -1.700672954320907593e-01 2.301475554704666138e-01 1.802407950162887573e-02 -2.829593420028686523e-01
2.609000000000000000e+03 2.722964668273925781e+01 2.786474800109863281e+01 -1.120456084609031677e-01 -1.177577823400497437e-01 -6.894101947546005249e-02 -3.412374854087829590e-01
2.610000000000000000e+03 2.723032760620117188e+01 2.684280204772949219e+01 -8.254253119230270386e-02 -1.475071310997009277e-01 -6.901489943265914917e-02 -3.615162074565887451e-01
2.611000000000000000e+03 4.786842727661132812e+01 2.638442993164062500e+01 1.058067202568054199e+00 1.198340177536010742e+00 6.769222021102905273e-01 1.283087968826293945e+00
2.612000000000000000e+03 4.416770935058593750e+01 2.642272567749023438e+01 3.463971614837646484e-01 4.968245029449462891e-01 2.529664933681488037e-01 2.401543408632278442e-01
2.613000000000000000e+03 7.018597412109375000e+01 -5.398191452026367188e+00 -1.259670108556747437e-01 7.837904453277587891e+00 2.313581228256225586e+00 -2.247993052005767822e-01
2.614000000000000000e+03 7.187209320068359375e+01 2.838389158248901367e+00 -1.812264025211334229e-01 7.959591865539550781e+00 2.333509683609008789e+00 -4.298000633716583252e-01
2.615000000000000000e+03 3.973779296875000000e+01 2.782616424560546875e+01 -3.252074122428894043e-01 1.961560994386672974e-01 -3.871539235115051270e-02 -2.945028245449066162e-01
2.616000000000000000e+03 3.747121047973632812e+01 2.675714492797851562e+01 -1.560674458742141724e-01 1.959235817193984985e-01 1.195684354752302170e-02 -3.734211325645446777e-01
2.617000000000000000e+03 8.412833213806152344e+00 -7.166363239288330078e+00 -5.314138834364712238e-04 -9.231092990376055241e-04 -4.363569605629891157e-04 5.550261703319847584e-04
2.618000000000000000e+03 1.044895648956298828e+01 -5.536707401275634766e+00 -1.310285530053079128e-03 -3.971757832914590836e-04 -5.122384172864258289e-04 1.209166832268238068e-03
2.619000000000000000e+03 7.321871185302734375e+01 6.694392204284667969e+00 -1.671062707901000977e-01 7.970664024353027344e+00 2.341067314147949219e+00 -5.451485514640808105e-01
2.620000000000000000e+03 7.935914993286132812e+00 1.038241767883300781e+01 1.008526669465936720e-05 -2.362893837926094420e-06 2.316711970706819557e-06 -4.103445462533272803e-06
2.621000000000000000e+03 8.102334976196289062e+00 1.130639934539794922e+01 -1.044859618559712544e-05 -2.846713186954730190e-06 -3.988593107351334766e-06 2.231131475127767771e-06
2.622000000000000000e+03 1.030914306640625000e+01 -6.466224193572998047e+00 1.080534537322819233e-03 5.986184114590287209e-04 5.037458613514900208e-04 -9.714671759866178036e-04
2.623000000000000000e+03 2.806108856201171875e+01 1.763591575622558594e+01 1.146946921944618225e-01 -2.690936923027038574e-01 -4.631969705224037170e-02 -2.946200370788574219e-01
2.624000000000000000e+03 7.004361629486083984e+00 6.902456283569335938e+00 2.468788807163946331e-06 1.746000606317466008e-07 7.930166816549899522e-07 1.934321744556655176e-06
2.625000000000000000e+03 3.008184623718261719e+01 2.778596115112304688e+01 -1.783686727285385132e-01 -1.862771436572074890e-02 -5.909891799092292786e-02 -4.067953824996948242e-01
2.626000000000000000e+03 7.143762969970703125e+01 -4.194167613983154297e+00 -1.090791150927543640e-01 7.997402191162109375e+00 2.366496801376342773e+00 -2.389869987964630127e-01
2.627000000000000000e+03 7.010025787353515625e+01 -2.954039335250854492e+00 -1.513091772794723511e-01 7.803710460662841797e+00 2.295720338821411133e+00 -2.775572836399078369e-01
2.628000000000000000e+03 2.846900558471679688e+01 1.063720417022705078e+01 1.002170369029045105e-01 -1.878528296947479248e-01 -2.629073895514011383e-02 -1.157718002796173096e-01
2.629000000000000000e+03 2.823463821411132812e+01 1.490457534790039062e+01 1.237514317035675049e-01 -2.512280046939849854e-01 -3.824297338724136353e-02 -2.220286726951599121e-01
2.630000000000000000e+03 6.966496276855468750e+01 -1.019774723052978516e+01 -8.298163861036300659e-02 7.751966476440429688e+00 2.300695419311523438e+00 -1.394278407096862793e-01
2.631000000000000000e+03 6.890186309814453125e+01 -2.775033950805664062e+01 -1.254707574844360352e-02 7.647074222564697266e+00 2.290358066558837891e+00 2.309913979843258858e-03
2.632000000000000000e+03 6.958691406250000000e+01 -1.811928176879882812e+01 -4.831453040242195129e-02 7.750532150268554688e+00 2.310665369033813477e+00 -6.809623539447784424e-02
2.633000000000000000e+03 7.005519104003906250e+01 -1.967708969116210938e+01 -4.092472791671752930e-02 7.825291633605957031e+00 2.335310220718383789e+00 -5.985754355788230896e-02
2.634000000000000000e+03 7.457974433898925781e+00 -7.601634502410888672e+00 -2.494665095582604408e-04 -3.016508417204022408e-04 -1.653352082939818501e-04 2.673584094736725092e-04
2.635000000000000000e+03 7.454557418823242188e+00 -8.826694488525390625e+00 -2.606672933325171471e-04 -3.433965321164578199e-04 -1.812191476346924901e-04 6.517411675304174423e-04
2.636000000000000000e+03 7.151013183593750000e+01 2.225080490112304688e+01 9.356515109539031982e-02 7.349439144134521484e+00 2.232901334762573242e+00 -1.233032226562500000e+00
2.637000000000000000e+03 6.912312316894531250e+01 -1.650783348083496094e+01 -6.386754661798477173e-02 7.659565448760986328e+00 2.278709411621093750e+00 -8.797845244407653809e-02
2.638000000000000000e+03 7.136300659179687500e+01 -1.293183994293212891e+01 -6.064656376838684082e-02 8.035758972167968750e+00 2.392533779144287109e+00 -1.091284826397895813e-01
2.639000000000000000e+03 7.231980133056640625e+01 1.499026775360107422e+01 -2.194614261388778687e-01 7.626892089843750000e+00 2.222229242324829102e+00 -9.867709279060363770e-01
2.640000000000000000e+03 7.111492919921875000e+01 1.246899223327636719e+01 -3.004749417304992676e-01 7.770617008209228516e+00 2.241042613983154297e+00 -8.916428089141845703e-01
2.641000000000000000e+03 2.865415763854980469e+01 -4.910328388214111328e+00 8.330805227160453796e-03 5.743613839149475098e-02 1.973008178174495697e-02 3.573917225003242493e-02
2.642000000000000000e+03 3.090532684326171875e+01 -1.491504669189453125e+00 2.341448329389095306e-02 4.458265900611877441e-01 1.407723277807235718e-01 6.867495179176330566e-02
2.643000000000000000e+03 7.125639343261718750e+01 2.058841133117675781e+01 -3.104602545499801636e-02 7.497896194458007812e+00 2.240055084228515625e+00 -1.241411328315734863e+00
2.644000000000000000e+03 3.093150901794433594e+01 1.088091850280761719e+01 1.600150167942047119e-01 1.983885616064071655e-01 1.075210720300674438e-01 -7.732351869344711304e-02
2.645000000000000000e+03 2.856504249572753906e+01 7.721029758453369141e+00 6.771409511566162109e-02 -1.365496814250946045e-01 -2.065067552030086517e-02 -5.524404346942901611e-02
2.646000000000000000e+03 9.038978576660156250e+00 1.496714973449707031e+01 -7.982856914168223739e-06 -6.756973107258090749e-06 -4.421949142852099612e-06 -6.656221671619277913e-07
2.647000000000000000e+03 2.970317840576171875e+01 1.074376106262207031e+01 1.322987526655197144e-01 7.337800692766904831e-03 4.189096763730049133e-02 -1.008635014295578003e-01
2.648000000000000000e+03 8.556960105895996094e+00 -2.260800743103027344e+01 1.678376575000584126e-03 2.049706876277923584e-03 1.118425047025084496e-03 -2.530850470066070557e-03
2.649000000000000000e+03 9.006499290466308594e+00 -1.012360477447509766e+01 -5.695630679838359356e-04 -5.544179002754390240e-04 -3.371942730154842138e-04 8.335208403877913952e-04
2.650000000000000000e+03 8.264671325683593750e+00 1.458279037475585938e+01 -1.365041384815413039e-06 1.457131361348729115e-06 2.762699580216576578e-08 -5.986569703964050859e-06
2.651000000000000000e+03 7.753606319427490234e+00 1.375395965576171875e+01 -1.267656784875725862e-06 4.750661901198327541e-06 1.044901523528096732e-06 3.008013891303562559e-06
2.652000000000000000e+03 7.226950836181640625e+01 1.239970493316650391e+01 -2.412935048341751099e-01 7.736752033233642578e+00 2.248637676239013672e+00 -8.542011380195617676e-01
2.653000000000000000e+03 7.095893096923828125e+01 1.128786849975585938e+01 -3.121101260185241699e-01 7.792435169219970703e+00 2.244097471237182617e+00 -8.276506066322326660e-01
2.654000000000000000e+03 2.938563346862792969e+01 1.499870777130126953e+01 1.546865254640579224e-01 -1.044417098164558411e-01 1.507344376295804977e-02 -2.182658165693283081e-01
2.655000000000000000e+03 7.025983428955078125e+01 1.829252052307128906e+01 -2.043139785528182983e-01 7.751240253448486328e+00 2.264077901840209961e+00 -1.213409543037414551e+00
2.656000000000000000e+03 7.221532440185546875e+01 1.629281234741210938e+01 -1.978733986616134644e-01 7.578974246978759766e+00 2.214330196380615234e+00 -1.052992343902587891e+00
2.657000000000000000e+03 7.035813808441162109e+00 2.081188583374023438e+01 -1.362427701678825542e-05 5.353535470931092277e-06 -2.481222509231884032e-06 9.825393135542981327e-06
2.658000000000000000e+03 7.880174636840820312e+00 -2.100690650939941406e+01 1.909541082568466663e-03 1.262960722669959068e-03 9.517505532130599022e-04 -7.675060187466442585e-04
2.659000000000000000e+03 9.923511505126953125e+00 2.960239219665527344e+01 3.165099406032823026e-05 4.182319571555126458e-06 1.074999363481765613e-05 8.635613994556479156e-06
2.660000000000000000e+03 9.861370086669921875e+00 3.110181236267089844e+01 -6.645012035733088851e-05 1.732611053739674389e-05 -1.473720203648554161e-05 -1.129746942751808092e-05
2.661000000000000000e+03 8.651312828063964844e+00 2.109832572937011719e+01 -3.976603238697862253e-06 9.681527899374486879e-07 -9.025351914715429302e-07 8.417901881330180913e-06
2.662000000000000000e+03 7.185855102539062500e+01 9.793361663818359375e+00 -2.585795223712921143e-01 7.821204662322998047e+00 2.268787622451782227e+00 -7.311675548553466797e-01
2.663000000000000000e+03 6.994371795654296875e+01 5.336840629577636719e+00 -2.913755774497985840e-01 7.778397083282470703e+00 2.246106386184692383e+00 -5.464696288108825684e-01
2.664000000000000000e+03 7.125814056396484375e+01 -1.378043174743652344e+00 -1.512084901332855225e-01 7.936926364898681641e+00 2.335715293884277344e+00 -3.093175888061523438e-01
2.665000000000000000e+03 7.555346012115478516e+00 -2.208104515075683594e+01 -7.304783794097602367e-04 -1.303706201724708080e-03 -6.102554034441709518e-04 5.693608545698225498e-04
2.666000000000000000e+03 8.851587295532226562e+00 -2.474417877197265625e+01 -2.106558065861463547e-03 7.515266770496964455e-04 -4.065094108227640390e-04 -1.435454119928181171e-03
2.667000000000000000e+03 7.577889919281005859e+00 9.572857856750488281e+00 -4.543542672763578594e-06 2.233959548902930692e-06 -6.928748916834592819e-07 6.096152446843916550e-06
2.668000000000000000e+03 3.001320457458496094e+01 2.858498382568359375e+01 -2.165996283292770386e-01 -1.020547561347484589e-02 -6.804153323173522949e-02 -3.824534118175506592e-01
2.669000000000000000e+03 1.006348896026611328e+01 1.492483806610107422e+01 1.208058893098495901e-05 3.724846919794799760e-06 4.741630618809722364e-06 2.069060656140209176e-06
2.670000000000000000e+03 3.020651435852050781e+01 -2.033988189697265625e+01 -1.713328994810581207e-02 5.027664303779602051e-01 1.456899493932723999e-01 4.166925325989723206e-02
2.671000000000000000e+03 2.858952903747558594e+01 -2.002243614196777344e+01 3.152775578200817108e-03 1.984862536191940308e-01 6.049171090126037598e-02 8.207190781831741333e-03
2.672000000000000000e+03 3.154253196716308594e+01 -2.413834190368652344e+01 1.253391709178686142e-02 7.892942428588867188e-01 2.405484467744827271e-01 2.221755497157573700e-02
2.673000000000000000e+03 2.980960464477539062e+01 -2.211051750183105469e+01 9.577766759321093559e-04 4.423384666442871094e-01 1.329888701438903809e-01 1.425110269337892532e-02
2.674000000000000000e+03 6.769853973388671875e+01 -2.248995018005371094e+01 -4.724552854895591736e-02 7.400947570800781250e+00 2.206110477447509766e+00 -4.832725226879119873e-02
2.675000000000000000e+03 7.178161621093750000e+01 -2.079504776000976562e+01 -2.794777788221836090e-02 8.144262313842773438e+00 2.434894323348999023e+00 -5.111268535256385803e-02
2.676000000000000000e+03 2.989545249938964844e+01 6.325640678405761719e+00 7.523874193429946899e-02 1.183250769972801208e-01 5.806914716958999634e-02 -1.099752355366945267e-02
2.677000000000000000e+03 2.909271621704101562e+01 -1.218860244750976562e+01 -1.187342032790184021e-02 2.168753743171691895e-01 6.150058656930923462e-02 4.310049861669540405e-02
2.678000000000000000e+03 7.065219116210937500e+01 2.137148666381835938e+01 2.075104229152202606e-02 7.588951587677001953e+00 2.282910823822021484e+00 -1.284907460212707520e+00
2.679000000000000000e+03 7.131533050537109375e+01 2.796990203857421875e+01 5.606576800346374512e-01 7.068173408508300781e+00 2.288649320602416992e+00 -9.029784202575683594e-01
2.680000000000000000e+03 1.032069206237792969e+01 -2.926422119140625000e+01 5.147461313754320145e-03 6.419851444661617279e-03 3.470193827524781227e-03 -2.398832701146602631e-03
2.681000000000000000e+03 1.098252773284912109e+01 -3.334759140014648438e+01 2.661559358239173889e-02 -3.105784999206662178e-03 7.052942644804716110e-03 -1.428499585017561913e-03
2.682000000000000000e+03 2.751509094238281250e+01 2.449318122863769531e+01 -1.652915962040424347e-02 -2.013198286294937134e-01 -6.535469740629196167e-02 -3.905960917472839355e-01
2.683000000000000000e+03 7.001499176025390625e+01 2.478641700744628906e+01 3.653596937656402588e-01 7.556312561035156250e+00 2.376501560211181641e+00 -1.238323926925659180e+00
2.684000000000000000e+03 7.071895599365234375e+01 2.309014129638671875e+01 1.825701743364334106e-01 7.482477664947509766e+00 2.299514293670654297e+00 -1.271205902099609375e+00
2.685000000000000000e+03 2.734009170532226562e+01 2.570114326477050781e+01 -4.859496653079986572e-02 -1.770911365747451782e-01 -6.770583242177963257e-02 -3.792866170406341553e-01
2.686000000000000000e+03 7.114450836181640625e+01 -2.270181465148925781e+01 -2.945573627948760986e-02 8.040477752685546875e+00 2.403306722640991211e+00 -3.735506162047386169e-02
2.687000000000000000e+03 2.856298637390136719e+01 1.821045756340026855e+00 2.521535754203796387e-02 -5.426686257123947144e-02 -8.715451695024967194e-03 2.767920494079589844e-02
2.688000000000000000e+03 2.984705924987792969e+01 3.353226661682128906e+00 4.503007978200912476e-02 1.605494618415832520e-01 6.167386472225189209e-02 3.227634355425834656e-02
2.689000000000000000e+03 2.949395751953125000e+01 1.361107540130615234e+01 1.526468992233276367e-01 -7.216932624578475952e-02 2.414326928555965424e-02 -1.767024844884872437e-01
2.690000000000000000e+03 8.382555961608886719e+00 -1.282952976226806641e+01 7.871198467910289764e-04 -5.597673953161574900e-05 2.193429390899837017e-04 -1.005877624265849590e-03
2.691000000000000000e+03 5.423566055297851562e+01 3.735912322998046875e+01 -7.035595774650573730e-01 9.110284805297851562e+00 2.522017478942871094e+00 -2.228760957717895508e+00
2.692000000000000000e+03 7.170068264007568359e+00 1.289652442932128906e+01 1.750603132677497342e-06 -1.496954496360558551e-06 7.609460794810729567e-08 1.405526859343808610e-06
2.693000000000000000e+03 6.815474700927734375e+01 -1.864224815368652344e+01 -6.106264144182205200e-02 7.494903087615966797e+00 2.230152130126953125e+00 -7.185365259647369385e-02
2.694000000000000000e+03 6.950634765625000000e+01 -2.981154441833496094e+01 -2.078584954142570496e-02 7.718641757965087891e+00 2.309356689453125000e+00 1.059614028781652451e-02
2.695000000000000000e+03 2.968839645385742188e+01 -1.450080490112304688e+01 -2.019022405147552490e-02 3.322122693061828613e-01 9.360661357641220093e-02 3.583079576492309570e-02
2.696000000000000000e+03 6.989370727539062500e+01 -1.164490413665771484e+01 -8.517325669527053833e-02 7.771060943603515625e+00 2.305766344070434570e+00 -1.304144412279129028e-01
2.697000000000000000e+03 7.078797149658203125e+01 1.726079368591308594e+01 -2.297915816307067871e-01 7.705291748046875000e+00 2.242650032043457031e+00 -1.155233263969421387e+00
2.698000000000000000e+03 7.105506896972656250e+01 1.607597160339355469e+01 -2.591106593608856201e-01 7.699996471405029297e+00 2.232265710830688477e+00 -1.087171912193298340e+00
2.699000000000000000e+03 7.109015655517578125e+01 -6.957382202148437500e+00 -1.021148264408111572e-01 7.953117847442626953e+00 2.355300903320312500e+00 -1.871998161077499390e-01
2.700000000000000000e+03 6.908548736572265625e+01 -5.560046195983886719e+00 -1.521489024162292480e-01 7.628916263580322266e+00 2.243030071258544922e+00 -2.202187329530715942e-01
2.701000000000000000e+03 7.066857147216796875e+01 1.015059566497802734e+01 -3.236161470413208008e-01 7.800129890441894531e+00 2.242954254150390625e+00 -7.694485187530517578e-01
2.702000000000000000e+03 7.132242584228515625e+01 8.685832023620605469e+00 -2.723928391933441162e-01 7.830274105072021484e+00 2.267364263534545898e+00 -6.867244243621826172e-01
2.703000000000000000e+03 7.070268249511718750e+01 -2.731978225708007812e+01 -1.063339761458337307e-03 7.964604854583740234e+00 2.389062404632568359e+00 -1.561733894050121307e-02
2.704000000000000000e+03 6.890270996093750000e+01 -2.530209159851074219e+01 -2.789857983589172363e-02 7.666704177856445312e+00 2.291641712188720703e+00 -2.469915524125099182e-02
2.705000000000000000e+03 2.981782341003417969e+01 1.874163508415222168e+00 3.579801693558692932e-02 1.800315976142883301e-01 6.474888324737548828e-02 4.498213902115821838e-02
2.706000000000000000e+03 2.354246330261230469e+01 -3.269881820678710938e+01 -8.195817470550537109e-02 -6.377550363540649414e-01 -2.159139662981033325e-01 -4.382411763072013855e-02
2.707000000000000000e+03 2.699915885925292969e+01 -3.042818832397460938e+01 -3.220834583044052124e-02 -6.216917559504508972e-02 -2.831325680017471313e-02 -1.163705950602889061e-03
2.708000000000000000e+03 2.906273460388183594e+01 2.017577934265136719e+01 1.082330048084259033e-01 -1.617219895124435425e-01 -1.604669354856014252e-02 -3.636883199214935303e-01
2.709000000000000000e+03 2.827450752258300781e+01 -2.152280616760253906e+01 -1.482975640101358294e-04 1.384156644344329834e-01 4.148020967841148376e-02 2.871430711820721626e-03
2.710000000000000000e+03 6.887711334228515625e+01 -3.159001731872558594e+01 -8.478777483105659485e-03 7.618103981018066406e+00 2.282887458801269531e+00 8.506043814122676849e-03
2.711000000000000000e+03 5.804286956787109375e+01 3.075612831115722656e+01 6.580379009246826172e+00 1.339439105987548828e+01 5.992431163787841797e+00 -5.588227510452270508e-01
2.712000000000000000e+03 5.799938964843750000e+01 3.105052566528320312e+01 6.878482818603515625e+00 1.340639114379882812e+01 6.085462093353271484e+00 -6.885638833045959473e-02
2.713000000000000000e+03 5.789471817016601562e+01 3.011068344116210938e+01 5.598907470703125000e+00 1.392417716979980469e+01 5.856925487518310547e+00 -1.278092026710510254e+00
2.714000000000000000e+03 5.571089553833007812e+01 3.513127899169921875e+01 -1.045198678970336914e+00 1.427698612213134766e+01 3.969536066055297852e+00 -1.786865592002868652e+00
2.715000000000000000e+03 5.784080886840820312e+01 3.048109054565429688e+01 6.344878196716308594e+00 1.380927276611328125e+01 6.046245098114013672e+00 -9.747096896171569824e-01
2.716000000000000000e+03 5.585247802734375000e+01 2.839224052429199219e+01 5.923644900321960449e-01 1.542646980285644531e+01 4.805650234222412109e+00 2.018219709396362305e+00
2.717000000000000000e+03 5.584309005737304688e+01 2.873064804077148438e+01 8.955852985382080078e-01 1.638500595092773438e+01 5.184177398681640625e+00 1.825941681861877441e+00
2.718000000000000000e+03 5.331347274780273438e+01 3.516244506835937500e+01 4.010132551193237305e-01 7.033039569854736328e+00 2.230216026306152344e+00 -3.822602272033691406e+00
2.719000000000000000e+03 5.945168685913085938e+01 3.183181381225585938e+01 4.898248672485351562e+00 1.175721168518066406e+01 4.996637821197509766e+00 8.307006955146789551e-01
2.720000000000000000e+03 5.018479537963867188e+01 2.770794296264648438e+01 1.551901102066040039e+00 1.669023275375366211e+00 9.662773013114929199e-01 2.155717849731445312e+00
2.721000000000000000e+03 5.661552429199218750e+01 3.483095550537109375e+01 -3.624823093414306641e-01 1.493537902832031250e+01 4.371869087219238281e+00 1.394982635974884033e-01
2.722000000000000000e+03 5.822171020507812500e+01 3.185665321350097656e+01 6.251156806945800781e+00 1.314940547943115234e+01 5.820168495178222656e+00 1.233531475067138672e+00
2.723000000000000000e+03 5.853731918334960938e+01 3.313043594360351562e+01 3.622737407684326172e+00 1.335864734649658203e+01 5.094415187835693359e+00 2.081262826919555664e+00
2.724000000000000000e+03 5.832337570190429688e+01 3.344576644897460938e+01 3.153442144393920898e+00 1.392712497711181641e+01 5.124170303344726562e+00 2.365817785263061523e+00
2.725000000000000000e+03 5.860923767089843750e+01 3.414362335205078125e+01 2.085719108581542969e+00 1.369981288909912109e+01 4.735659599304199219e+00 2.138101577758789062e+00
2.726000000000000000e+03 5.869621276855468750e+01 3.273403549194335938e+01 4.407002925872802734e+00 1.288222885131835938e+01 5.186769485473632812e+00 1.871335268020629883e+00
2.727000000000000000e+03 5.068687820434570312e+01 2.736804580688476562e+01 1.718475461006164551e+00 2.338006973266601562e+00 1.216944694519042969e+00 2.625710248947143555e+00
2.728000000000000000e+03 5.420133590698242188e+01 3.564457702636718750e+01 -3.534221649169921875e-01 9.692747116088867188e+00 2.801797389984130859e+00 -3.426707029342651367e+00
2.729000000000000000e+03 4.852587127685546875e+01 2.644423866271972656e+01 1.202895998954772949e+00 1.430310130119323730e+00 7.899618744850158691e-01 1.559762835502624512e+00
2.730000000000000000e+03 5.022145843505859375e+01 2.723890304565429688e+01 1.591762304306030273e+00 2.026914119720458984e+00 1.085602879524230957e+00 2.327848434448242188e+00
2.731000000000000000e+03 5.320579528808593750e+01 3.561556243896484375e+01 3.444099128246307373e-01 7.204306125640869141e+00 2.264614820480346680e+00 -3.376298427581787109e+00
2.732000000000000000e+03 5.609783935546875000e+01 3.707994842529296875e+01 -1.325823664665222168e+00 1.208726596832275391e+01 3.228432655334472656e+00 -1.032390832901000977e+00
2.733000000000000000e+03 5.761267471313476562e+01 3.473346710205078125e+01 5.814422965049743652e-01 1.456804561614990234e+01 4.544846534729003906e+00 1.483914971351623535e+00
2.734000000000000000e+03 3.201189041137695312e+01 2.843332099914550781e+01 -2.711959779262542725e-01 4.449219629168510437e-02 -6.801113486289978027e-02 -4.099223315715789795e-01
2.735000000000000000e+03 3.210292816162109375e+01 2.695941162109375000e+01 -1.658220887184143066e-01 3.857236728072166443e-02 -3.817491233348846436e-02 -4.442779421806335449e-01
2.736000000000000000e+03 3.138841438293457031e+01 2.769882965087890625e+01 -2.046283930540084839e-01 1.949484273791313171e-02 -5.554006621241569519e-02 -4.233915507793426514e-01
2.737000000000000000e+03 2.933822822570800781e+01 2.860541343688964844e+01 -1.943322420120239258e-01 -3.101141192018985748e-02 -6.760309636592864990e-02 -3.693774044513702393e-01
2.738000000000000000e+03 5.408301544189453125e+01 3.868106460571289062e+01 -7.878428697586059570e-01 8.444232940673828125e+00 2.296916961669921875e+00 -1.668749809265136719e+00
2.739000000000000000e+03 5.627104187011718750e+01 3.509755706787109375e+01 -7.532260417938232422e-01 1.453449249267578125e+01 4.134379863739013672e+00 -7.165098786354064941e-01
2.740000000000000000e+03 2.830844688415527344e+01 2.572983551025390625e+01 -5.843897908926010132e-02 -1.310207992792129517e-01 -5.683793500065803528e-02 -4.059008061885833740e-01
2.741000000000000000e+03 4.028221893310546875e+01 2.622221755981445312e+01 3.088228777050971985e-02 3.051775693893432617e-01 1.008179634809494019e-01 -2.036056816577911377e-01
2.742000000000000000e+03 3.543103408813476562e+01 2.787619400024414062e+01 -3.063983023166656494e-01 1.238343641161918640e-01 -5.476918071508407593e-02 -4.163713753223419189e-01
2.743000000000000000e+03 3.676396942138671875e+01 2.688178825378417969e+01 -1.816235184669494629e-01 1.731931865215301514e-01 -2.529099816456437111e-03 -3.963324725627899170e-01
2.744000000000000000e+03 3.204067230224609375e+01 2.768236351013183594e+01 -2.167210429906845093e-01 3.898843377828598022e-02 -5.331978574395179749e-02 -4.306192100048065186e-01
2.745000000000000000e+03 3.606198120117187500e+01 2.700285530090332031e+01 -2.005709409713745117e-01 1.521205008029937744e-01 -1.453513093292713165e-02 -4.134455621242523193e-01
2.746000000000000000e+03 3.469411087036132812e+01 2.726363372802734375e+01 -2.250169366598129272e-01 1.145436465740203857e-01 -3.314198553562164307e-02 -4.328691363334655762e-01
2.747000000000000000e+03 3.537205123901367188e+01 2.712922096252441406e+01 -2.155798524618148804e-01 1.328572332859039307e-01 -2.481678128242492676e-02 -4.249552190303802490e-01
2.748000000000000000e+03 4.852029037475585938e+01 2.584122657775878906e+01 1.229927182197570801e+00 1.716817617416381836e+00 8.840234279632568359e-01 1.679896235466003418e+00
2.749000000000000000e+03 4.248399734497070312e+01 2.518192481994628906e+01 3.988638520240783691e-01 5.470968484878540039e-01 2.837882041931152344e-01 1.206991374492645264e-01
2.750000000000000000e+03 4.108285903930664062e+01 2.684029960632324219e+01 -5.187015980482101440e-02 2.828784286975860596e-01 6.930248439311981201e-02 -1.769146919250488281e-01
2.751000000000000000e+03 4.495051193237304688e+01 2.637060737609863281e+01 4.770810008049011230e-01 5.883662700653076172e-01 3.196341693401336670e-01 4.005286693572998047e-01
2.752000000000000000e+03 4.100518417358398438e+01 2.610424423217773438e+01 1.000541895627975464e-01 3.442565500736236572e-01 1.332932114601135254e-01 -1.351067423820495605e-01
2.753000000000000000e+03 4.117110824584960938e+01 2.755187606811523438e+01 -2.211612761020660400e-01 2.340077906847000122e-01 3.853952744975686073e-03 -2.058369219303131104e-01
2.754000000000000000e+03 8.807415008544921875e+00 -8.503279685974121094e+00 -6.496422574855387211e-04 -6.201185751706361771e-04 -3.809282497968524694e-04 6.860835128463804722e-04
2.755000000000000000e+03 2.879059791564941406e+01 2.334159469604492188e+01 2.178344689309597015e-02 -1.526842266321182251e-01 -3.927023336291313171e-02 -4.137883782386779785e-01
2.756000000000000000e+03 6.451491355895996094e+00 -7.334892749786376953e+00 2.276471059303730726e-05 5.450693424791097641e-04 1.703502202872186899e-04 1.123470283346250653e-04
2.757000000000000000e+03 6.877282714843750000e+01 1.254451155662536621e+00 -2.626754641532897949e-01 7.628832817077636719e+00 2.209847211837768555e+00 -3.872435688972473145e-01
2.758000000000000000e+03 7.042129516601562500e+01 1.827196359634399414e+00 -2.153257727622985840e-01 7.825513839721679688e+00 2.283056497573852539e+00 -4.093611836433410645e-01
2.759000000000000000e+03 6.884824371337890625e+01 -3.146122217178344727e+00 -1.817959696054458618e-01 7.623478889465332031e+00 2.232504844665527344e+00 -2.704546153545379639e-01
2.760000000000000000e+03 6.887492370605468750e+01 -4.353884220123291016e+00 -1.661153733730316162e-01 7.618305683135986328e+00 2.235656976699829102e+00 -2.416990697383880615e-01
2.761000000000000000e+03 9.213669776916503906e+00 -7.431291103363037109e+00 7.236804231069982052e-04 8.454394410364329815e-04 4.707359767053276300e-04 -7.083038799464702606e-04
2.762000000000000000e+03 4.717548370361328125e+01 2.635020446777343750e+01 9.086307287216186523e-01 9.941307306289672852e-01 5.708284378051757812e-01 1.022531747817993164e+00
2.763000000000000000e+03 7.003205871582031250e+01 -1.310877513885498047e+01 -6.944651901721954346e-02 7.807730197906494141e+00 2.321485042572021484e+00 -1.126469746232032776e-01
2.764000000000000000e+03 8.364027976989746094e+00 7.176275730133056641e+00 -5.864452759851701558e-06 -2.137872570528998040e-06 -2.400697667326312512e-06 2.439371655782451853e-06
2.765000000000000000e+03 6.808602333068847656e+00 9.963512420654296875e+00 4.260221885488135740e-06 -1.902627673189272173e-06 7.072781613715051208e-07 2.065775674964243080e-07
2.766000000000000000e+03 2.874108886718750000e+01 2.776793670654296875e+01 -1.424995064735412598e-01 -6.989745795726776123e-02 -6.371909379959106445e-02 -3.798626363277435303e-01
2.767000000000000000e+03 3.008702278137207031e+01 1.896162986755371094e+01 1.563428044319152832e-01 -6.334000825881958008e-02 2.790083922445774078e-02 -3.308230936527252197e-01
2.768000000000000000e+03 2.915353202819824219e+01 1.767437934875488281e+01 1.441041678190231323e-01 -1.534666717052459717e-01 -2.808751305565237999e-03 -2.970180511474609375e-01
2.769000000000000000e+03 3.116095924377441406e+01 -3.568980932235717773e+00 1.164124533534049988e-02 5.097184777259826660e-01 1.564079225063323975e-01 8.007388561964035034e-02
2.770000000000000000e+03 3.190253639221191406e+01 -2.270483255386352539e+00 1.962117105722427368e-02 6.583618521690368652e-01 2.033949047327041626e-01 8.503708243370056152e-02
2.771000000000000000e+03 6.860631561279296875e+01 -2.024186325073242188e+01 -4.235134646296501160e-02 7.587943077087402344e+00 2.263677597045898438e+00 -5.507614091038703918e-02
2.772000000000000000e+03 3.079307746887207031e+01 1.232831192016601562e+01 1.771872043609619141e-01 1.378372907638549805e-01 9.450734406709671021e-02 -1.166397556662559509e-01
2.773000000000000000e+03 2.926997947692871094e+01 1.635394668579101562e+01 1.534201353788375854e-01 -1.317378729581832886e-01 6.504679098725318909e-03 -2.571853101253509521e-01
2.774000000000000000e+03 3.038882827758789062e+01 1.644451522827148438e+01 1.868619024753570557e-01 -3.276103176176548004e-03 5.507574230432510376e-02 -2.478867769241333008e-01
2.775000000000000000e+03 3.173432350158691406e+01 2.615078735351562500e+01 -1.103595122694969177e-01 1.809490285813808441e-02 -2.767938375473022461e-02 -4.451978504657745361e-01
2.776000000000000000e+03 7.022955322265625000e+01 9.067510604858398438e+00 -3.294045627117156982e-01 7.796375751495361328e+00 2.240091323852539062e+00 -7.179685831069946289e-01
2.777000000000000000e+03 6.983203887939453125e+01 6.334918975830078125e+00 -3.119301199913024902e-01 7.774291038513183594e+00 2.238708257675170898e+00 -5.882246494293212891e-01
2.778000000000000000e+03 6.902323150634765625e+01 2.510573196411132812e+01 4.639430046081542969e-01 7.799401283264160156e+00 2.479003190994262695e+00 -1.271203517913818359e+00
2.779000000000000000e+03 6.916167449951171875e+01 2.260724830627441406e+01 1.373756825923919678e-01 7.851822853088378906e+00 2.396759510040283203e+00 -1.341307520866394043e+00
2.780000000000000000e+03 6.984116363525390625e+01 1.143745231628417969e+01 -3.730496168136596680e-01 7.800995349884033203e+00 2.228383779525756836e+00 -8.366443514823913574e-01
2.781000000000000000e+03 7.044712066650390625e+01 1.983642768859863281e+01 -1.068675443530082703e-01 7.694585323333740234e+00 2.276315212249755859e+00 -1.260806679725646973e+00
2.782000000000000000e+03 7.194301605224609375e+01 1.879040145874023438e+01 -1.220844537019729614e-01 7.486693859100341797e+00 2.209382772445678711e+00 -1.166803002357482910e+00
2.783000000000000000e+03 2.979620552062988281e+01 9.275634765625000000e+00 1.128685548901557922e-01 4.731092974543571472e-02 4.805384576320648193e-02 -6.620743125677108765e-02
2.784000000000000000e+03 3.108362197875976562e+01 9.404109954833984375e+00 1.448568701744079590e-01 2.630840837955474854e-01 1.223822832107543945e-01 -4.078222066164016724e-02
2.785000000000000000e+03 6.986022186279296875e+01 -1.636718034744262695e+00 -1.807184368371963501e-01 7.763568878173828125e+00 2.274855136871337891e+00 -3.084234893321990967e-01
2.786000000000000000e+03 6.981708526611328125e+01 -2.320828437805175781e+01 -3.242521360516548157e-02 7.804820537567138672e+00 2.331718444824218750e+00 -3.256775438785552979e-02
2.787000000000000000e+03 6.996106719970703125e+01 1.581232357025146484e+01 -3.231183588504791260e-01 7.813996791839599609e+00 2.247263431549072266e+00 -1.089463829994201660e+00
2.788000000000000000e+03 9.082644462585449219e+00 -1.671476364135742188e+01 1.978447195142507553e-03 8.867683936841785908e-04 8.595646941103041172e-04 -4.270532517693936825e-04
2.789000000000000000e+03 6.974376678466796875e+01 2.367221260070800781e+01 2.621965706348419189e-01 7.671737194061279297e+00 2.380180120468139648e+00 -1.303517699241638184e+00
2.790000000000000000e+03 3.083052635192871094e+01 -1.305617427825927734e+01 -2.898457087576389313e-02 5.706003904342651367e-01 1.624847501516342163e-01 5.132893100380897522e-02
2.791000000000000000e+03 6.871195983886718750e+01 -1.482098293304443359e+01 -6.905038654804229736e-02 7.578387737274169922e+00 2.252801179885864258e+00 -9.781668335199356079e-02
2.792000000000000000e+03 7.150822448730468750e+01 -1.437419986724853516e+01 -4.472558572888374329e-02 8.068795204162597656e+00 2.407220840454101562e+00 -9.341624379158020020e-02
2.793000000000000000e+03 7.615753650665283203e+00 -2.814624404907226562e+01 -2.734255744144320488e-03 -3.947254270315170288e-03 -2.004452981054782867e-03 1.208704197779297829e-03
2.794000000000000000e+03 7.843523979187011719e+00 -2.946169662475585938e+01 7.706774864345788956e-03 3.297939663752913475e-03 3.301414428278803825e-03 5.572144345933338627e-06
2.795000000000000000e+03 5.289896774291992188e+01 4.173189163208007812e+01 -3.529652059078216553e-01 6.747161865234375000e+00 1.918259024620056152e+00 -3.496852517127990723e-01
2.796000000000000000e+03 2.727832984924316406e+01 -2.239134407043457031e+01 1.299759466201066971e-02 -2.205863781273365021e-02 -2.718312665820121765e-03 -7.428473327308893204e-03
2.797000000000000000e+03 6.956159210205078125e+01 1.041028022766113281e+01 -3.806786537170410156e-01 7.794322490692138672e+00 2.224093198776245117e+00 -7.838883996009826660e-01
2.798000000000000000e+03 6.966499328613281250e+01 1.680241012573242188e+01 -3.106891810894012451e-01 7.851792812347412109e+00 2.262331247329711914e+00 -1.144460201263427734e+00
2.799000000000000000e+03 6.868048095703125000e+01 1.638512802124023438e+01 -3.799313306808471680e-01 7.945381164550781250e+00 2.269634962081909180e+00 -1.103861331939697266e+00
2.800000000000000000e+03 3.027481269836425781e+01 -7.701967239379882812e+00 -6.149513646960258484e-03 4.073574841022491455e-01 1.203623935580253601e-01 5.520134419202804565e-02
2.801000000000000000e+03 6.974714660644531250e+01 2.740465927124023438e+01 7.045099139213562012e-01 7.505271434783935547e+00 2.462934255599975586e+00 -1.035404324531555176e+00
2.802000000000000000e+03 6.933380126953125000e+01 2.621940612792968750e+01 6.006623506546020508e-01 7.649922847747802734e+00 2.475175619125366211e+00 -1.171947360038757324e+00
2.803000000000000000e+03 2.996224212646484375e+01 -1.685236167907714844e+01 -1.061323750764131546e-02 4.454289376735687256e-01 1.304447054862976074e-01 3.938774392008781433e-02
2.804000000000000000e+03 2.867642021179199219e+01 -1.851266098022460938e+01 -1.893047243356704712e-02 1.760605275630950928e-01 4.713901877403259277e-02 2.326434478163719177e-02
2.805000000000000000e+03 7.022890472412109375e+01 2.868761062622070312e+01 7.438219785690307617e-01 7.338538169860839844e+00 2.424708127975463867e+00 -8.536235690116882324e-01
2.806000000000000000e+03 6.745204925537109375e+01 -2.766449356079101562e+01 -2.623913809657096863e-02 7.422959327697753906e+00 2.219016075134277344e+00 -1.429998036473989487e-02
2.807000000000000000e+03 6.964986419677734375e+01 -2.660909652709960938e+01 -9.706462733447551727e-03 7.760473251342773438e+00 2.325230121612548828e+00 -9.703864343464374542e-03
2.808000000000000000e+03 3.066490936279296875e+01 1.373586368560791016e+01 1.845821589231491089e-01 8.640491962432861328e-02 8.129612356424331665e-02 -1.611014753580093384e-01
2.809000000000000000e+03 3.119762992858886719e+01 4.869234561920166016e+00 8.100037276744842529e-02 3.869535624980926514e-01 1.403861790895462036e-01 3.831206634640693665e-02
2.810000000000000000e+03 7.087400817871093750e+01 7.703273296356201172e+00 -2.913895249366760254e-01 7.826547145843505859e+00 2.260547399520874023e+00 -6.424775719642639160e-01
2.811000000000000000e+03 6.995716094970703125e+01 2.205729293823242188e+01 7.865448296070098877e-02 7.708910465240478516e+00 2.336269378662109375e+00 -1.316494345664978027e+00
2.812000000000000000e+03 7.176462554931640625e+01 1.975603485107421875e+01 -7.051632553339004517e-02 7.446799755096435547e+00 2.212885141372680664e+00 -1.202566146850585938e+00
2.813000000000000000e+03 3.125847625732421875e+01 6.392106056213378906e+00 1.000359207391738892e-01 3.569767475128173828e-01 1.371038109064102173e-01 1.746317930519580841e-02
2.814000000000000000e+03 8.954081535339355469e+00 -3.217547607421875000e+01 1.861542463302612305e-02 -2.780609065666794777e-03 4.750444553792476654e-03 2.234533429145812988e-03
2.815000000000000000e+03 8.105844497680664062e+00 -3.326140975952148438e+01 2.897334285080432892e-03 -3.983865957707166672e-03 -3.259594668634235859e-04 -4.981899401172995567e-04
2.816000000000000000e+03 2.957063484191894531e+01 2.097399330139160156e+01 9.956926107406616211e-02 -1.208126321434974670e-01 -6.373011972755193710e-03 -3.835337758064270020e-01
2.817000000000000000e+03 7.118053436279296875e+01 1.487607097625732422e+01 -2.773013412952423096e-01 7.720372676849365234e+00 2.232921361923217773e+00 -1.019327163696289062e+00
2.818000000000000000e+03 3.115317726135253906e+01 -1.575303554534912109e+01 -1.055281702429056168e-02 6.289705038070678711e-01 1.855253130197525024e-01 5.074930563569068909e-02
2.819000000000000000e+03 2.859854698181152344e+01 -1.708698272705078125e+01 -5.280160810798406601e-03 1.451292932033538818e-01 4.195474088191986084e-02 2.313655801117420197e-02
2.820000000000000000e+03 7.232375335693359375e+01 3.535955810546875000e+01 2.504816055297851562e-01 6.848118782043457031e+00 2.129580020904541016e+00 -1.039805263280868530e-01
2.821000000000000000e+03 7.021793365478515625e+01 3.260122680664062500e+01 7.091097235679626465e-01 7.362552165985107422e+00 2.421498537063598633e+00 -2.460464239120483398e-01
2.822000000000000000e+03 3.250198364257812500e+01 4.829445838928222656e+00 9.240699559450149536e-02 6.356385350227355957e-01 2.184136509895324707e-01 6.714318692684173584e-02
2.823000000000000000e+03 8.964863777160644531e+00 1.591410827636718750e+01 8.009590601432137191e-06 6.555449999723350629e-06 4.369512225821381435e-06 4.647365585697116330e-06
2.824000000000000000e+03 3.129327964782714844e+01 -3.200421142578125000e+01 3.759498242288827896e-03 7.949359416961669922e-01 2.396086305379867554e-01 1.082236785441637039e-02
2.825000000000000000e+03 6.912145233154296875e+01 -5.166448950767517090e-01 -2.195196151733398438e-01 7.673494815826416016e+00 2.236192703247070312e+00 -3.387587368488311768e-01
2.826000000000000000e+03 7.073593139648437500e+01 3.042175292968750000e+00 -2.256686836481094360e-01 7.847548484802246094e+00 2.286563873291015625e+00 -4.494231343269348145e-01
2.827000000000000000e+03 5.412221527099609375e+01 2.832443618774414062e+01 1.528107166290283203e+00 1.024954891204833984e+01 3.533296823501586914e+00 5.320803165435791016e+00
2.828000000000000000e+03 5.117531204223632812e+01 2.825987052917480469e+01 1.929980635643005371e+00 2.023659944534301758e+00 1.186092138290405273e+00 2.723847150802612305e+00
2.829000000000000000e+03 5.384089660644531250e+01 2.834867668151855469e+01 1.790930867195129395e+00 9.082663536071777344e+00 3.262078285217285156e+00 5.451150894165039062e+00
2.830000000000000000e+03 5.721643447875976562e+01 2.867717552185058594e+01 2.108671665191650391e+00 1.499233245849609375e+01 5.130300998687744141e+00 -7.423083186149597168e-01
2.831000000000000000e+03 5.290119552612304688e+01 2.854592704772949219e+01 2.568952560424804688e+00 5.111832618713378906e+00 2.304235696792602539e+00 4.795090675354003906e+00
2.832000000000000000e+03 5.489060592651367188e+01 2.805861473083496094e+01 6.257980465888977051e-01 1.278749084472656250e+01 4.023986339569091797e+00 4.206436634063720703e+00
2.833000000000000000e+03 5.816092681884765625e+01 3.010160636901855469e+01 5.356263160705566406e+00 1.338544750213623047e+01 5.622513294219970703e+00 -1.161311268806457520e+00
2.834000000000000000e+03 5.781206893920898438e+01 2.986373901367187500e+01 5.047724723815917969e+00 1.417613220214843750e+01 5.767157077789306641e+00 -1.425825595855712891e+00
2.835000000000000000e+03 5.740660476684570312e+01 2.950108337402343750e+01 4.029501438140869141e+00 1.509893894195556641e+01 5.738532066345214844e+00 -1.401783704757690430e+00
2.836000000000000000e+03 5.683454513549804688e+01 2.865916824340820312e+01 1.726387858390808105e+00 1.562384700775146484e+01 5.205070495605468750e+00 -2.838181257247924805e-01
2.837000000000000000e+03 5.833707809448242188e+01 3.127189445495605469e+01 6.478032588958740234e+00 1.280720138549804688e+01 5.785570144653320312e+00 3.140351772308349609e-01
2.838000000000000000e+03 5.090230178833007812e+01 2.793428802490234375e+01 1.805849790573120117e+00 2.075831651687622070e+00 1.164504408836364746e+00 2.622901916503906250e+00
2.839000000000000000e+03 5.262926101684570312e+01 2.831603050231933594e+01 2.437510251998901367e+00 4.676669120788574219e+00 2.134253740310668945e+00 4.456532478332519531e+00
2.840000000000000000e+03 5.299036026000976562e+01 3.622815704345703125e+01 2.561236917972564697e-01 6.570229053497314453e+00 2.047905921936035156e+00 -2.883595943450927734e+00
2.841000000000000000e+03 5.270492172241210938e+01 3.541695404052734375e+01 5.485156774520874023e-01 5.760061264038085938e+00 1.892573118209838867e+00 -2.917017936706542969e+00
2.842000000000000000e+03 5.108890533447265625e+01 2.757166481018066406e+01 1.862355709075927734e+00 2.570299386978149414e+00 1.329796552658081055e+00 2.918248653411865234e+00
2.843000000000000000e+03 5.903784942626953125e+01 3.138125801086425781e+01 5.509503841400146484e+00 1.203041839599609375e+01 5.261976718902587891e+00 4.378543794155120850e-01
2.844000000000000000e+03 5.813111495971679688e+01 3.454029083251953125e+01 1.220798850059509277e+00 1.418099880218505859e+01 4.620539188385009766e+00 1.852870583534240723e+00
2.845000000000000000e+03 5.572257995605468750e+01 3.601889801025390625e+01 -1.221895694732666016e+00 1.283140850067138672e+01 3.482853651046752930e+00 -1.698340296745300293e+00
2.846000000000000000e+03 5.898765182495117188e+01 3.209628677368164062e+01 5.219823837280273438e+00 1.224125671386718750e+01 5.238324165344238281e+00 1.218783974647521973e+00
2.847000000000000000e+03 5.879410552978515625e+01 3.357585906982421875e+01 2.944520711898803711e+00 1.329432582855224609e+01 4.871654033660888672e+00 2.126565217971801758e+00
2.848000000000000000e+03 5.928305053710937500e+01 3.273659515380859375e+01 4.152482032775878906e+00 1.222410869598388672e+01 4.912977218627929688e+00 1.622162699699401855e+00
2.849000000000000000e+03 5.951683044433593750e+01 3.363906860351562500e+01 2.759202241897583008e+00 1.231227207183837891e+01 4.521442413330078125e+00 1.803684711456298828e+00
2.850000000000000000e+03 4.784707260131835938e+01 2.576205444335937500e+01 1.117077827453613281e+00 1.446556687355041504e+00 7.690903544425964355e-01 1.400595068931579590e+00
2.851000000000000000e+03 4.973054504394531250e+01 2.662512588500976562e+01 1.460376858711242676e+00 2.034682512283325195e+00 1.048517823219299316e+00 2.159091234207153320e+00
2.852000000000000000e+03 5.287057876586914062e+01 2.797157669067382812e+01 2.125450372695922852e+00 5.718855857849121094e+00 2.353291749954223633e+00 4.640142440795898438e+00
2.853000000000000000e+03 5.143697738647460938e+01 2.784664535522460938e+01 2.031150579452514648e+00 2.807613611221313477e+00 1.451629281044006348e+00 3.193141698837280273e+00
2.854000000000000000e+03 5.761131286621093750e+01 3.537961959838867188e+01 -1.091580539941787720e-01 1.411215114593505859e+01 4.200897693634033203e+00 1.074655413627624512e+00
2.855000000000000000e+03 5.663659286499023438e+01 3.845690155029296875e+01 -1.495921492576599121e+00 1.152674484252929688e+01 3.009247064590454102e+00 -5.066040754318237305e-01
2.856000000000000000e+03 3.336398696899414062e+01 2.753022193908691406e+01 -2.326508909463882446e-01 7.875002920627593994e-02 -4.617026075720787048e-02 -4.369660913944244385e-01
2.857000000000000000e+03 3.012010765075683594e+01 2.699379730224609375e+01 -1.367031484842300415e-01 -2.745848707854747772e-02 -4.924849048256874084e-02 -4.258112311363220215e-01
2.858000000000000000e+03 2.952679824829101562e+01 2.700678825378417969e+01 -1.265875250101089478e-01 -5.684068799018859863e-02 -5.502846091985702515e-02 -4.121544361114501953e-01
2.859000000000000000e+03 2.989960479736328125e+01 2.628645133972167969e+01 -9.606961905956268311e-02 -5.138393864035606384e-02 -4.423606768250465393e-02 -4.302498996257781982e-01
2.860000000000000000e+03 3.668691635131835938e+01 2.612168693542480469e+01 -8.000233769416809082e-02 1.933078616857528687e-01 3.399165719747543335e-02 -3.888551890850067139e-01
2.861000000000000000e+03 2.854779243469238281e+01 2.457700347900390625e+01 -1.912891678512096405e-02 -1.441538780927658081e-01 -4.898484051227569580e-02 -4.133670032024383545e-01
2.862000000000000000e+03 2.811427879333496094e+01 2.679498481750488281e+01 -9.645846486091613770e-02 -1.120622754096984863e-01 -6.255622208118438721e-02 -3.872489333152770996e-01
2.863000000000000000e+03 4.571630477905273438e+01 2.634283447265625000e+01 6.148474216461181641e-01 6.957049369812011719e-01 3.931657075881958008e-01 5.830897688865661621e-01
2.864000000000000000e+03 4.645729827880859375e+01 2.633746147155761719e+01 7.600007653236389160e-01 8.319044709205627441e-01 4.775715768337249756e-01 7.900000810623168945e-01
2.865000000000000000e+03 4.332162475585937500e+01 2.581311416625976562e+01 3.763951361179351807e-01 5.250841379165649414e-01 2.704437971115112305e-01 1.769455671310424805e-01
2.866000000000000000e+03 4.411699676513671875e+01 2.575072860717773438e+01 4.909444153308868408e-01 6.174906492233276367e-01 3.325305283069610596e-01 3.246612548828125000e-01
2.867000000000000000e+03 3.598562240600585938e+01 2.622948646545410156e+01 -1.046404018998146057e-01 1.665256619453430176e-01 1.856557652354240417e-02 -4.095370769500732422e-01
2.868000000000000000e+03 3.529727172851562500e+01 2.634908485412597656e+01 -1.247686818242073059e-01 1.441303342580795288e-01 5.808495916426181793e-03 -4.250704348087310791e-01
2.869000000000000000e+03 4.407555389404296875e+01 2.507420730590820312e+01 5.999303460121154785e-01 7.442547678947448730e-01 4.032555222511291504e-01 4.059334397315979004e-01
2.870000000000000000e+03 4.175631713867187500e+01 2.599433135986328125e+01 1.795080453157424927e-01 3.917541205883026123e-01 1.713786423206329346e-01 -5.200776085257530212e-02
2.871000000000000000e+03 4.327922439575195312e+01 2.512088584899902344e+01 4.969973564147949219e-01 6.366792321205139160e-01 3.401030004024505615e-01 2.525666952133178711e-01
2.872000000000000000e+03 4.036068725585937500e+01 2.697048568725585938e+01 -1.171280592679977417e-01 2.553021907806396484e-01 4.145224392414093018e-02 -2.355656474828720093e-01
2.873000000000000000e+03 3.957912063598632812e+01 2.634831237792968750e+01 -2.671793848276138306e-02 2.738086879253387451e-01 7.412722706794738770e-02 -2.580021619796752930e-01
2.874000000000000000e+03 4.490372848510742188e+01 2.571005249023437500e+01 6.110838055610656738e-01 7.262073755264282227e-01 4.011873304843902588e-01 4.941977262496948242e-01
2.875000000000000000e+03 3.895653533935546875e+01 2.723304557800292969e+01 -2.132663130760192871e-01 2.109664827585220337e-01 -6.899466970935463905e-04 -3.206581175327301025e-01
2.876000000000000000e+03 6.920790863037109375e+01 1.770487403869628906e+01 -2.931185066699981689e-01 7.911643028259277344e+00 2.285557508468627930e+00 -1.188307523727416992e+00
2.877000000000000000e+03 7.107125091552734375e+01 1.907219505310058594e+01 -1.340187489986419678e-01 7.611609458923339844e+00 2.243277311325073242e+00 -1.215670108795166016e+00
2.878000000000000000e+03 6.880627441406250000e+01 1.157388973236083984e+01 -4.310773909091949463e-01 7.814059257507324219e+00 2.214894533157348633e+00 -8.324667811393737793e-01
2.879000000000000000e+03 6.872187805175781250e+01 2.404370498657226562e+01 3.477134406566619873e-01 7.914597034454345703e+00 2.478693246841430664e+00 -1.338735103607177734e+00
2.880000000000000000e+03 3.270342636108398438e+01 2.763069152832031250e+01 -2.271494418382644653e-01 6.055688112974166870e-02 -4.997776821255683899e-02 -4.350472688674926758e-01
2.881000000000000000e+03 3.086660766601562500e+01 2.364351081848144531e+01 3.648996353149414062e-02 -2.648518420755863190e-02 3.001433331519365311e-03 -4.334235787391662598e-01
2.882000000000000000e+03 6.816487884521484375e+01 -1.058076667785644531e+01 -1.043505072593688965e-01 7.501503944396972656e+00 2.219146013259887695e+00 -1.387064009904861450e-01
2.883000000000000000e+03 2.983841705322265625e+01 2.350921821594238281e+01 2.982486598193645477e-02 -8.503090590238571167e-02 -1.656181178987026215e-02 -4.271351993083953857e-01
2.884000000000000000e+03 7.009043884277343750e+01 1.475815200805664062e+01 -3.388734161853790283e-01 7.801822185516357422e+00 2.238884687423706055e+00 -1.030369520187377930e+00
2.885000000000000000e+03 6.817272949218750000e+01 -1.302776217460632324e+00 -2.351394742727279663e-01 7.541799068450927734e+00 2.191997766494750977e+00 -3.105677664279937744e-01
2.886000000000000000e+03 3.739257812500000000e+01 2.600285720825195312e+01 -4.691584408283233643e-02 2.218699455261230469e-01 5.248622968792915344e-02 -3.601355552673339844e-01
2.887000000000000000e+03 3.887895202636718750e+01 2.648332786560058594e+01 -7.814643532037734985e-02 2.453241199254989624e-01 5.015330389142036438e-02 -3.046714663505554199e-01
2.888000000000000000e+03 3.129619026184082031e+01 1.784523010253906250e+01 2.091214656829833984e-01 7.202248275279998779e-02 8.434318751096725464e-02 -2.771074175834655762e-01
2.889000000000000000e+03 6.916003417968750000e+01 9.380298614501953125e+00 -3.898429274559020996e-01 7.772830009460449219e+00 2.214896202087402344e+00 -7.227775454521179199e-01
2.890000000000000000e+03 6.921203613281250000e+01 6.982103824615478516e+00 -3.450812399387359619e-01 7.746003627777099609e+00 2.220276594161987305e+00 -6.073020696640014648e-01
2.891000000000000000e+03 2.888767051696777344e+01 2.686067581176757812e+01 -1.144688874483108521e-01 -8.241329342126846313e-02 -5.906465277075767517e-02 -4.017173945903778076e-01
2.892000000000000000e+03 6.967624664306640625e+01 3.304637670516967773e+00 -2.661122679710388184e-01 7.750290393829345703e+00 2.245253562927246094e+00 -4.623293578624725342e-01
2.893000000000000000e+03 3.053434181213378906e+01 1.510729503631591797e+01 1.899813711643218994e-01 3.968118503689765930e-02 6.889876723289489746e-02 -2.019774019718170166e-01
2.894000000000000000e+03 3.150198936462402344e+01 1.656393623352050781e+01 2.252089828252792358e-01 1.265359371900558472e-01 1.055234745144844055e-01 -2.274691313505172729e-01
2.895000000000000000e+03 3.213515472412109375e+01 1.106365108489990234e+01 1.911926865577697754e-01 3.800741136074066162e-01 1.713800430297851562e-01 -4.671879112720489502e-02
2.896000000000000000e+03 3.122085762023925781e+01 7.907382965087890625e+00 1.184711977839469910e-01 3.161584138870239258e-01 1.303888857364654541e-01 -1.043519843369722366e-02
2.897000000000000000e+03 3.236639785766601562e+01 9.604741096496582031e+00 1.729177236557006836e-01 4.659788608551025391e-01 1.916689723730087280e-01 -7.418581284582614899e-03
2.898000000000000000e+03 2.995001029968261719e+01 2.005519294738769531e+01 1.392839699983596802e-01 -8.164776116609573364e-02 1.729086227715015411e-02 -3.615798652172088623e-01
2.899000000000000000e+03 3.051924133300781250e+01 2.128626823425292969e+01 1.123742312192916870e-01 -4.688715562224388123e-02 1.964612118899822235e-02 -3.892363607883453369e-01
2.900000000000000000e+03 6.815277099609375000e+00 -3.241755676269531250e+01 7.273586466908454895e-03 -7.226345478557050228e-04 1.965285511687397957e-03 4.554875195026397705e-03
2.901000000000000000e+03 6.803498840332031250e+01 2.980731129646301270e-01 -2.626949548721313477e-01 7.543523788452148438e+00 2.184248685836791992e+00 -3.528437316417694092e-01
2.902000000000000000e+03 6.994406890869140625e+01 5.567454099655151367e-01 -2.121808677911758423e-01 7.768363952636718750e+00 2.266855001449584961e+00 -3.683563768863677979e-01
2.903000000000000000e+03 6.987718200683593750e+01 2.056000328063964844e+01 -6.760791689157485962e-02 7.771298408508300781e+00 2.311107158660888672e+00 -1.295174717903137207e+00
2.904000000000000000e+03 5.579217433929443359e+00 -2.062536811828613281e+01 3.573163412511348724e-03 5.885788414161652327e-05 1.089606317691504955e-03 2.867665316443890333e-04
2.905000000000000000e+03 6.749277114868164062e+00 -2.074217796325683594e+01 -2.993404632434248924e-03 -2.917379024438560009e-04 -9.855427779257297516e-04 -2.512485953047871590e-04
2.906000000000000000e+03 7.004235839843750000e+01 1.365285682678222656e+01 -3.545774221420288086e-01 7.806502819061279297e+00 2.235577583312988281e+00 -9.660447835922241211e-01
2.907000000000000000e+03 7.118695831298828125e+01 1.367032051086425781e+01 -2.923738658428192139e-01 7.744383335113525391e+00 2.235602855682373047e+00 -9.544997215270996094e-01
2.908000000000000000e+03 6.502867889404296875e+01 -2.150788497924804688e+01 -5.840076878666877747e-02 6.941226005554199219e+00 2.064847707748413086e+00 -4.409033805131912231e-02
2.909000000000000000e+03 6.506156158447265625e+01 -2.621282005310058594e+01 -3.852067515254020691e-02 6.923912525177001953e+00 2.065617561340332031e+00 -4.024478420615196228e-02
2.910000000000000000e+03 6.837269592285156250e+01 2.661174964904785156e+01 7.415978908538818359e-01 7.899777889251708984e+00 2.592412710189819336e+00 -1.177829742431640625e+00
2.911000000000000000e+03 5.317077159881591797e+00 2.218865013122558594e+01 9.374633918923791498e-06 3.117661208307254128e-06 3.747688424482475966e-06 1.405286275257822126e-05
2.912000000000000000e+03 9.066922187805175781e+00 -2.924861145019531250e+01 -2.254505176097154617e-03 -5.493639968335628510e-03 -2.324443543329834938e-03 -1.188244554214179516e-03
2.913000000000000000e+03 8.962195396423339844e+00 -2.792400169372558594e+01 4.656579345464706421e-03 5.298328585922718048e-03 2.986472332850098610e-03 -9.260685765184462070e-04
2.914000000000000000e+03 3.108555984497070312e+01 1.906226730346679688e+01 1.899140477180480957e-01 2.704419754445552826e-02 6.508747488260269165e-02 -3.214718401432037354e-01
2.915000000000000000e+03 2.981462860107421875e+01 -1.176620602607727051e+00 2.533868141472339630e-02 2.251728028059005737e-01 7.515344768762588501e-02 5.887668579816818237e-02
2.916000000000000000e+03 2.985104942321777344e+01 3.523038327693939209e-01 2.478703111410140991e-02 2.025450021028518677e-01 6.819961220026016235e-02 5.010093748569488525e-02
2.917000000000000000e+03 3.002783393859863281e+01 -4.494825363159179688e+00 1.092163007706403732e-02 3.373915553092956543e-01 1.044939532876014709e-01 6.521504372358322144e-02
2.918000000000000000e+03 3.017959594726562500e+01 -2.455973148345947266e+00 9.147536009550094604e-03 2.936522364616394043e-01 9.083992987871170044e-02 6.256740540266036987e-02
2.919000000000000000e+03 6.632438659667968750e+00 -2.186225700378417969e+01 3.288941225036978722e-03 4.825780051760375500e-04 1.131455763243138790e-03 1.163823297247290611e-03
2.920000000000000000e+03 6.917854309082031250e+01 -2.173906898498535156e+01 -4.587149620056152344e-02 7.675627231597900391e+00 2.288926839828491211e+00 -5.006090551614761353e-02
2.921000000000000000e+03 3.112060546875000000e+01 3.373035430908203125e+00 5.782714486122131348e-02 4.011872410774230957e-01 1.377043128013610840e-01 5.270391702651977539e-02
2.922000000000000000e+03 8.804584503173828125e+00 1.683064460754394531e+01 -8.115523996821139008e-06 -2.914838432843680494e-06 -3.309108706162078306e-06 4.131612030278120073e-08
2.923000000000000000e+03 6.987432861328125000e+01 4.326181411743164062e+00 -2.801139354705810547e-01 7.769295215606689453e+00 2.246754407882690430e+00 -4.987324178218841553e-01
2.924000000000000000e+03 3.015331459045410156e+01 2.236211204528808594e+01 7.672221958637237549e-02 -7.045842707157135010e-02 1.879136427305638790e-03 -4.130446016788482666e-01
2.925000000000000000e+03 3.157810020446777344e+01 2.474382972717285156e+01 -1.481057889759540558e-02 1.311359275132417679e-02 -5.090959020890295506e-04 -4.480297863483428955e-01
2.926000000000000000e+03 2.698567008972167969e+01 -2.111952972412109375e+01 6.561566144227981567e-03 -1.218500807881355286e-01 -3.458655625581741333e-02 2.592774340882897377e-03
2.927000000000000000e+03 3.269918441772460938e+01 6.427425861358642578e+00 1.208334714174270630e-01 6.258406639099121094e-01 2.240022420883178711e-01 5.367228761315345764e-02
2.928000000000000000e+03 6.795533752441406250e+01 2.964299392700195312e+01 1.182451367378234863e+00 7.917864322662353516e+00 2.730094671249389648e+00 -7.237473726272583008e-01
2.929000000000000000e+03 7.081038665771484375e+01 3.007283592224121094e+01 7.013441324234008789e-01 7.150314331054687500e+00 2.355497598648071289e+00 -6.433461904525756836e-01
2.930000000000000000e+03 3.183773612976074219e+01 1.387796592712402344e+01 2.214634269475936890e-01 2.412421852350234985e-01 1.388116776943206787e-01 -1.325619220733642578e-01
2.931000000000000000e+03 3.266126251220703125e+01 8.060462951660156250e+00 1.486874818801879883e-01 5.722224116325378418e-01 2.162729650735855103e-01 3.079699166119098663e-02
2.932000000000000000e+03 3.227763366699218750e+01 -1.426960945129394531e+01 -2.464225701987743378e-02 8.470256328582763672e-01 2.467150092124938965e-01 6.351427733898162842e-02
2.933000000000000000e+03 3.104803085327148438e+01 1.933408856391906738e+00 3.730805218219757080e-02 4.029387533664703369e-01 1.320740431547164917e-01 5.542329326272010803e-02
2.934000000000000000e+03 3.238764953613281250e+01 3.323641061782836914e+00 6.410405784845352173e-02 6.404298543930053711e-01 2.113601714372634888e-01 7.188715785741806030e-02
2.935000000000000000e+03 7.075603485107421875e+01 3.579330062866210938e+01 4.021818041801452637e-01 7.355573177337646484e+00 2.327326536178588867e+00 6.839571893215179443e-02
2.936000000000000000e+03 8.473897933959960938e+00 -3.593228149414062500e+01 8.352441713213920593e-03 -1.654283702373504639e-02 -2.457118593156337738e-03 1.281134970486164093e-02
2.937000000000000000e+03 2.954938697814941406e+01 -2.622110939025878906e+01 -9.301725775003433228e-03 4.053487181663513184e-01 1.188140958547592163e-01 3.289656480774283409e-03
2.938000000000000000e+03 2.959519386291503906e+01 -2.403871917724609375e+01 -1.178975871880538762e-04 4.087532758712768555e-01 1.225906088948249817e-01 1.372047793120145798e-02
2.939000000000000000e+03 6.956452178955078125e+01 3.080932617187500000e+01 9.208635091781616211e-01 7.507227420806884766e+00 2.528427362442016602e+00 -5.220374464988708496e-01
2.940000000000000000e+03 6.872031402587890625e+01 2.787103843688964844e+01 8.908135890960693359e-01 7.750545978546142578e+00 2.592407941818237305e+00 -1.013183593750000000e+00
2.941000000000000000e+03 5.453393554687500000e+01 2.800431251525878906e+01 8.974486589431762695e-01 1.153047752380371094e+01 3.728377819061279297e+00 4.629343986511230469e+00
2.942000000000000000e+03 5.202212524414062500e+01 2.772641181945800781e+01 2.074504375457763672e+00 3.923063278198242188e+00 1.799270272254943848e+00 3.772430181503295898e+00
2.943000000000000000e+03 5.522928237915039062e+01 2.844039344787597656e+01 6.214322447776794434e-01 1.461865043640136719e+01 4.572024822235107422e+00 3.556033372879028320e+00
2.944000000000000000e+03 5.879290390014648438e+01 3.050316047668457031e+01 5.416321277618408203e+00 1.232309913635253906e+01 5.321825981140136719e+00 -6.006774902343750000e-01
2.945000000000000000e+03 5.410563659667968750e+01 2.869631958007812500e+01 1.875946402549743652e+00 1.038671493530273438e+01 3.678798437118530273e+00 5.782305240631103516e+00
2.946000000000000000e+03 5.793493270874023438e+01 2.917205619812011719e+01 3.446982383728027344e+00 1.396637439727783203e+01 5.224007129669189453e+00 -1.355593919754028320e+00
2.947000000000000000e+03 5.333913803100585938e+01 2.847940444946289062e+01 2.312538862228393555e+00 6.865020751953125000e+00 2.753267765045166016e+00 5.288166522979736328e+00
2.948000000000000000e+03 5.818311691284179688e+01 2.986934471130371094e+01 4.899035930633544922e+00 1.339579200744628906e+01 5.488448143005371094e+00 -1.256493568420410156e+00
2.949000000000000000e+03 5.850852203369140625e+01 2.980023574829101562e+01 4.625689983367919922e+00 1.296910381317138672e+01 5.278438091278076172e+00 -1.214852929115295410e+00
2.950000000000000000e+03 5.553975296020507812e+01 2.841394424438476562e+01 5.187031030654907227e-01 1.517930698394775391e+01 4.709403038024902344e+00 2.812148094177246094e+00
2.951000000000000000e+03 5.651433563232421875e+01 2.830664062500000000e+01 9.501659870147705078e-01 1.532987308502197266e+01 4.884011745452880859e+00 5.917087197303771973e-01
2.952000000000000000e+03 5.986140823364257812e+01 3.141922569274902344e+01 4.635284423828125000e+00 1.133889865875244141e+01 4.792254924774169922e+00 3.727599978446960449e-01
2.953000000000000000e+03 5.259669494628906250e+01 2.767518806457519531e+01 1.999320507049560547e+00 5.224409103393554688e+00 2.167118787765502930e+00 4.331394672393798828e+00
2.954000000000000000e+03 5.368270874023437500e+01 3.541398239135742188e+01 5.401271209120750427e-02 8.375016212463378906e+00 2.528708696365356445e+00 -3.639552831649780273e+00
2.955000000000000000e+03 4.915880584716796875e+01 2.594669532775878906e+01 1.337460041046142578e+00 2.015606164932250977e+00 1.005919933319091797e+00 1.968588590621948242e+00
2.956000000000000000e+03 5.080750656127929688e+01 2.690456008911132812e+01 1.699691176414489746e+00 2.831797122955322266e+00 1.359446406364440918e+00 2.826892375946044922e+00
2.957000000000000000e+03 6.046289062500000000e+01 3.193377876281738281e+01 3.971701145172119141e+00 1.102988719940185547e+01 4.500476360321044922e+00 6.846681833267211914e-01
2.958000000000000000e+03 4.782761383056640625e+01 2.511247062683105469e+01 1.135670065879821777e+00 1.705342173576354980e+00 8.523036837577819824e-01 1.492455840110778809e+00
2.959000000000000000e+03 4.852279663085937500e+01 2.520371246337890625e+01 1.221465706825256348e+00 2.003146648406982422e+00 9.673836827278137207e-01 1.769665718078613281e+00
2.960000000000000000e+03 4.976818084716796875e+01 2.607287788391113281e+01 1.429228663444519043e+00 2.377522468566894531e+00 1.142025351524353027e+00 2.266402006149291992e+00
2.961000000000000000e+03 5.991579055786132812e+01 3.246512603759765625e+01 4.075634002685546875e+00 1.155531883239746094e+01 4.689285755157470703e+00 1.218315005302429199e+00
2.962000000000000000e+03 3.147008514404296875e+01 2.684806442260742188e+01 -1.508432924747467041e-01 1.202845387160778046e-02 -4.164445027709007263e-02 -4.400112032890319824e-01
2.963000000000000000e+03 3.066352081298828125e+01 2.584734344482421875e+01 -8.329262584447860718e-02 -2.479578740894794464e-02 -3.242652490735054016e-02 -4.433133304119110107e-01
2.964000000000000000e+03 5.926929855346679688e+01 3.459989929199218750e+01 1.532413601875305176e+00 1.283531856536865234e+01 4.310319900512695312e+00 1.833120226860046387e+00
2.965000000000000000e+03 5.028871154785156250e+01 2.674876594543457031e+01 1.578760266304016113e+00 2.413221359252929688e+00 1.197594404220581055e+00 2.481003522872924805e+00
2.966000000000000000e+03 5.337326049804687500e+01 2.792647361755371094e+01 1.818753600120544434e+00 7.371712684631347656e+00 2.757139921188354492e+00 4.935747623443603516e+00
2.967000000000000000e+03 4.714252090454101562e+01 2.571448707580566406e+01 9.949094057083129883e-01 1.216758608818054199e+00 6.635004281997680664e-01 1.139732718467712402e+00
2.968000000000000000e+03 2.958072280883789062e+01 2.472041893005371094e+01 -2.487652935087680817e-02 -8.727952837944030762e-02 -3.364681825041770935e-02 -4.336403608322143555e-01
2.969000000000000000e+03 4.567258453369140625e+01 2.569094657897949219e+01 7.383008599281311035e-01 8.619744181632995605e-01 4.800825715065002441e-01 6.884694695472717285e-01
2.970000000000000000e+03 5.844137191772460938e+01 3.523662185668945312e+01 3.993538022041320801e-01 1.367538452148437500e+01 4.222421646118164062e+00 1.516336321830749512e+00
2.971000000000000000e+03 5.865099716186523438e+01 3.629328536987304688e+01 -4.494159817695617676e-01 1.306425476074218750e+01 3.784451484680175781e+00 1.086361765861511230e+00
2.972000000000000000e+03 6.042812728881835938e+01 3.336019515991210938e+01 2.877707958221435547e+00 1.148320960998535156e+01 4.308275222778320312e+00 1.492519974708557129e+00
2.973000000000000000e+03 2.922798156738281250e+01 2.586616897583007812e+01 -7.280606776475906372e-02 -8.376352488994598389e-02 -4.697087779641151428e-02 -4.238255620002746582e-01
2.974000000000000000e+03 3.661476898193359375e+01 2.535587310791015625e+01 1.380411256104707718e-02 2.161194235086441040e-01 6.897705793380737305e-02 -3.710810244083404541e-01
2.975000000000000000e+03 4.246105957031250000e+01 2.445347976684570312e+01 5.023768544197082520e-01 6.536284685134887695e-01 3.468015789985656738e-01 1.929131597280502319e-01
2.976000000000000000e+03 3.462363433837890625e+01 2.649453735351562500e+01 -1.438978910446166992e-01 1.214317530393600464e-01 -6.739841308444738388e-03 -4.359514117240905762e-01
2.977000000000000000e+03 3.590721893310546875e+01 2.542988014221191406e+01 -1.496335119009017944e-02 1.864012330770492554e-01 5.143136531114578247e-02 -3.972416818141937256e-01
2.978000000000000000e+03 3.396747589111328125e+01 2.665609550476074219e+01 -1.587130278348922729e-01 1.006960868835449219e-01 -1.740508340299129486e-02 -4.434696733951568604e-01
2.979000000000000000e+03 3.519756317138671875e+01 2.552565002441406250e+01 -3.954828903079032898e-02 1.561356931924819946e-01 3.497621789574623108e-02 -4.167993068695068359e-01
2.980000000000000000e+03 4.170382690429687500e+01 2.525370025634765625e+01 3.096396327018737793e-01 4.777278602123260498e-01 2.362102568149566650e-01 9.551485069096088409e-03
2.981000000000000000e+03 4.481986236572265625e+01 2.436492156982421875e+01 7.750822305679321289e-01 1.030216693878173828e+00 5.415896773338317871e-01 6.611478924751281738e-01
2.982000000000000000e+03 3.402577972412109375e+01 2.740104484558105469e+01 -2.309255599975585938e-01 9.681515395641326904e-02 -4.023312404751777649e-02 -4.360902309417724609e-01
2.983000000000000000e+03 3.271559524536132812e+01 2.693943023681640625e+01 -1.725536584854125977e-01 5.849008634686470032e-02 -3.421907126903533936e-02 -4.454368054866790771e-01
2.984000000000000000e+03 4.021123504638671875e+01 2.543999671936035156e+01 1.651029437780380249e-01 3.657390475273132324e-01 1.592525988817214966e-01 -1.601088792085647583e-01
2.985000000000000000e+03 4.486155319213867188e+01 2.504333305358886719e+01 7.105994820594787598e-01 8.769670128822326660e-01 4.762699604034423828e-01 5.838838815689086914e-01
2.986000000000000000e+03 4.641740798950195312e+01 2.569268798828125000e+01 8.668530583381652832e-01 1.017997622489929199e+00 5.654551982879638672e-01 9.017781019210815430e-01
2.987000000000000000e+03 5.731098556518554688e+01 3.628829574584960938e+01 -9.073318243026733398e-01 1.328600406646728516e+01 3.713601827621459961e+00 3.068966269493103027e-01
2.988000000000000000e+03 3.809832000732421875e+01 2.586321067810058594e+01 -5.323940888047218323e-03 2.540321052074432373e-01 7.461245357990264893e-02 -3.243901133537292480e-01
2.989000000000000000e+03 3.817706680297851562e+01 2.662236976623535156e+01 -1.213131621479988098e-01 2.207186967134475708e-01 2.982166036963462830e-02 -3.423268795013427734e-01
2.990000000000000000e+03 5.700848388671875000e+01 3.515998840332031250e+01 -2.890749573707580566e-01 1.437806224822998047e+01 4.226696491241455078e+00 5.887656807899475098e-01
2.991000000000000000e+03 3.179689216613769531e+01 2.036732292175292969e+01 1.779794543981552124e-01 6.464988738298416138e-02 7.278880476951599121e-02 -3.494411110877990723e-01
2.992000000000000000e+03 4.094302368164062500e+01 2.533887290954589844e+01 2.317849546670913696e-01 4.149206578731536865e-01 1.940116733312606812e-01 -8.572636544704437256e-02
2.993000000000000000e+03 3.430892181396484375e+01 2.486260032653808594e+01 1.421619392931461334e-02 1.423973888158798218e-01 4.698407649993896484e-02 -4.244695901870727539e-01
2.994000000000000000e+03 3.061968231201171875e+01 2.476486015319824219e+01 -2.217422239482402802e-02 -3.431710600852966309e-02 -1.694739982485771179e-02 -4.438636004924774170e-01
2.995000000000000000e+03 6.927767181396484375e+01 2.119401168823242188e+01 -2.205798029899597168e-02 7.865492343902587891e+00 2.353030204772949219e+00 -1.323195695877075195e+00
2.996000000000000000e+03 6.822212982177734375e+01 1.718387603759765625e+01 -3.760747909545898438e-01 8.013662338256835938e+00 2.291276216506958008e+00 -1.139016509056091309e+00
2.997000000000000000e+03 6.910803222656250000e+01 1.987453842163085938e+01 -1.436907052993774414e-01 7.914709568023681641e+00 2.331305742263793945e+00 -1.290766119956970215e+00
2.998000000000000000e+03 6.892015838623046875e+01 1.242138481140136719e+01 -4.229438006877899170e-01 7.835796356201171875e+00 2.223855733871459961e+00 -8.869273066520690918e-01
2.999000000000000000e+03 3.407527542114257812e+01 1.575539398193359375e+01 3.109601736068725586e-01 4.713460206985473633e-01 2.346918582916259766e-01 -1.035141721367835999e-01
3.000000000000000000e+03 3.232932281494140625e+01 1.798998069763183594e+01 2.451622486114501953e-01 1.760908514261245728e-01 1.263759285211563110e-01 -2.546421587467193604e-01
3.001000000000000000e+03 6.850068664550781250e+01 1.065683460235595703e+01 -4.388512074947357178e-01 7.790875911712646484e+00 2.205607414245605469e+00 -7.775089144706726074e-01
3.002000000000000000e+03 6.808272552490234375e+01 7.217300415039062500e+00 -4.013752937316894531e-01 7.672884464263916016e+00 2.181452751159667969e+00 -5.954013466835021973e-01
3.003000000000000000e+03 3.118111991882324219e+01 2.256504631042480469e+01 8.679752796888351440e-02 -6.611646153032779694e-03 2.405576407909393311e-02 -4.149582386016845703e-01
3.004000000000000000e+03 3.406085968017578125e+01 8.535939216613769531e+00 1.784480363130569458e-01 7.929199934005737305e-01 2.914104163646697998e-01 6.975845992565155029e-02
3.005000000000000000e+03 6.888545227050781250e+01 4.479364871978759766e+00 -3.194347023963928223e-01 7.678216457366943359e+00 2.207634687423706055e+00 -4.958089888095855713e-01
3.006000000000000000e+03 6.615204620361328125e+01 2.601673889160156250e+01 8.446175456047058105e-01 8.529130935668945312e+00 2.812124490737915039e+00 -1.307821750640869141e+00
3.007000000000000000e+03 3.310030364990234375e+01 1.264709949493408203e+01 2.411105483770370483e-01 4.702565371990203857e-01 2.134101241827011108e-01 -5.524170398712158203e-02
3.008000000000000000e+03 3.196514320373535156e+01 1.248542404174804688e+01 2.101604044437408447e-01 3.084302246570587158e-01 1.555771827697753906e-01 -8.873257786035537720e-02
3.009000000000000000e+03 3.169266700744628906e+01 1.523760700225830078e+01 2.256458848714828491e-01 1.827984601259231567e-01 1.225333064794540405e-01 -1.803698241710662842e-01
3.010000000000000000e+03 6.932667541503906250e+01 2.266500711441040039e+00 -2.608709335327148438e-01 7.701282501220703125e+00 2.232123374938964844e+00 -4.237771034240722656e-01
3.011000000000000000e+03 6.760447692871093750e+01 -8.057866096496582031e+00 -1.408373862504959106e-01 7.416081905364990234e+00 2.182573318481445312e+00 -1.655752211809158325e-01
3.012000000000000000e+03 7.017099761962890625e+01 -1.459564113616943359e+01 -5.752919614315032959e-02 7.841899871826171875e+00 2.335311174392700195e+00 -9.996258467435836792e-02
3.013000000000000000e+03 3.247268676757812500e+01 -4.372151374816894531e+00 7.990851067006587982e-03 7.672708034515380859e-01 2.325785011053085327e-01 9.403512626886367798e-02
3.014000000000000000e+03 3.299342346191406250e+01 -2.840737819671630859e+00 1.814335398375988007e-02 8.551530838012695312e-01 2.619889378547668457e-01 1.065388321876525879e-01
3.015000000000000000e+03 2.890537643432617188e+01 -6.171752929687500000e+00 5.739378277212381363e-03 1.200191378593444824e-01 3.772755339741706848e-02 4.863836988806724548e-02
3.016000000000000000e+03 6.831176757812500000e+01 2.304376792907714844e+01 1.971330195665359497e-01 8.032742500305175781e+00 2.468962669372558594e+00 -1.361195564270019531e+00
3.017000000000000000e+03 6.858990478515625000e+01 2.170175170898437500e+01 2.281628921627998352e-02 8.004275321960449219e+00 2.408127546310424805e+00 -1.348292469978332520e+00
3.018000000000000000e+03 6.893053436279296875e+01 6.136228084564208984e+00 -3.498747944831848145e-01 7.719494342803955078e+00 2.210886001586914062e+00 -5.687679052352905273e-01
3.019000000000000000e+03 6.839643859863281250e+01 2.758733987808227539e+00 -2.999649941921234131e-01 7.607019901275634766e+00 2.192116498947143555e+00 -4.296467900276184082e-01
3.020000000000000000e+03 3.103798866271972656e+01 5.626361966133117676e-01 3.103729896247386932e-02 4.331525862216949463e-01 1.392569541931152344e-01 6.001071259379386902e-02
3.021000000000000000e+03 2.961148071289062500e+01 -1.075433063507080078e+01 -1.592751964926719666e-02 2.876028716564178467e-01 8.150260895490646362e-02 4.365578666329383850e-02
3.022000000000000000e+03 3.303369903564453125e+01 1.401979827880859375e+01 2.575415968894958496e-01 4.082172214984893799e-01 1.997276395559310913e-01 -9.732929617166519165e-02
3.023000000000000000e+03 6.857003021240234375e+01 3.327212905883789062e+01 9.182548522949218750e-01 7.850686550140380859e+00 2.630682468414306641e+00 -7.092217355966567993e-02
3.024000000000000000e+03 6.823023986816406250e+01 3.128118324279785156e+01 1.128213882446289062e+00 7.863604068756103516e+00 2.697545289993286133e+00 -4.233416914939880371e-01
3.025000000000000000e+03 3.358816528320312500e+01 -1.529257392883300781e+01 -2.106992900371551514e-02 1.123998284339904785e+00 3.308784961700439453e-01 7.209780812263488770e-02
3.026000000000000000e+03 6.773612213134765625e+01 -1.699165344238281250e+01 -6.914144009351730347e-02 7.416011333465576172e+00 2.204061031341552734e+00 -8.002553135156631470e-02
3.027000000000000000e+03 6.696032714843750000e+01 -2.099836158752441406e+01 -5.107127875089645386e-02 7.280771732330322266e+00 2.168910026550292969e+00 -5.254484713077545166e-02
3.028000000000000000e+03 3.628887939453125000e+01 1.853853583335876465e+00 6.054029613733291626e-02 1.419890999794006348e+00 4.441293776035308838e-01 1.754505038261413574e-01
3.029000000000000000e+03 3.372951507568359375e+01 4.667380332946777344e+00 9.323576837778091431e-02 8.496611118316650391e-01 2.828690707683563232e-01 9.749750047922134399e-02
3.030000000000000000e+03 8.643558502197265625e+00 -3.932501602172851562e+01 -1.383233629167079926e-02 4.329364281147718430e-03 -2.850891556590795517e-03 1.594918593764305115e-02
3.031000000000000000e+03 6.897215270996093750e+01 1.554861736297607422e+01 -3.895046412944793701e-01 7.899041175842285156e+00 2.252861022949218750e+00 -1.063071250915527344e+00
3.032000000000000000e+03 6.906872558593750000e+01 1.376943206787109375e+01 -4.069780111312866211e-01 7.854303836822509766e+00 2.234197616577148438e+00 -9.657726883888244629e-01
3.033000000000000000e+03 3.221466445922851562e+01 -1.879296493530273438e+01 -1.435407530516386032e-02 8.506729602813720703e-01 2.508956789970397949e-01 4.555957019329071045e-02
3.034000000000000000e+03 6.871059417724609375e+01 -2.094121694564819336e+00 -2.016391158103942871e-01 7.606817722320556641e+00 2.221553564071655273e+00 -2.939158678054809570e-01
3.035000000000000000e+03 6.974838256835937500e+01 7.969629287719726562e+00 -3.412230908870697021e-01 7.777468204498291016e+00 2.230873584747314453e+00 -6.529839634895324707e-01
3.036000000000000000e+03 6.764319610595703125e+01 8.700141906738281250e+00 -4.486251175403594971e-01 7.702475070953369141e+00 2.176155090332031250e+00 -6.521898508071899414e-01
3.037000000000000000e+03 6.842770385742187500e+01 -2.376672744750976562e+01 -2.613523975014686584e-02 7.569032192230224609e+00 2.262869119644165039e+00 -4.991887882351875305e-02
3.038000000000000000e+03 6.818383789062500000e+01 -2.903765106201171875e+01 -2.278036996722221375e-02 7.527783870697021484e+00 2.251501083374023438e+00 5.731216166168451309e-03
3.039000000000000000e+03 6.710530090332031250e+01 -2.583450889587402344e+01 -4.377084225416183472e-02 7.320255279541015625e+00 2.182945489883422852e+00 -3.233040496706962585e-02
3.040000000000000000e+03 6.806976318359375000e+01 2.545850372314453125e+01 5.837725996971130371e-01 8.024248123168945312e+00 2.582406044006347656e+00 -1.292531847953796387e+00
3.041000000000000000e+03 3.159016609191894531e+01 -2.249110794067382812e+01 -1.672755554318428040e-02 7.646916508674621582e-01 2.243892252445220947e-01 3.191665560007095337e-02
3.042000000000000000e+03 5.688841247558593750e+01 2.828541755676269531e+01 1.210662961006164551e+00 1.498976230621337891e+01 4.860127449035644531e+00 6.945550907403230667e-03
3.043000000000000000e+03 5.617324829101562500e+01 2.835287666320800781e+01 7.745805978775024414e-01 1.546006488800048828e+01 4.870393753051757812e+00 1.222616791725158691e+00
3.044000000000000000e+03 5.383720397949218750e+01 2.777609252929687500e+01 1.345371842384338379e+00 8.912035942077636719e+00 3.077222347259521484e+00 4.900327682495117188e+00
3.045000000000000000e+03 5.365127944946289062e+01 2.870950889587402344e+01 2.488689184188842773e+00 7.831748485565185547e+00 3.096131324768066406e+00 5.736188411712646484e+00
3.046000000000000000e+03 5.194211959838867188e+01 2.689932823181152344e+01 1.700415492057800293e+00 4.475335597991943359e+00 1.852725386619567871e+00 3.667106151580810547e+00
3.047000000000000000e+03 5.460369873046875000e+01 2.753400421142578125e+01 5.601587891578674316e-01 1.121640968322753906e+01 3.532970428466796875e+00 4.154919147491455078e+00
3.048000000000000000e+03 5.529692459106445312e+01 2.763492584228515625e+01 2.336816936731338501e-01 1.303953742980957031e+01 3.981965780258178711e+00 3.220950841903686523e+00
3.049000000000000000e+03 5.868257522583007812e+01 3.014963150024414062e+01 5.088918209075927734e+00 1.258174991607666016e+01 5.301200389862060547e+00 -9.531465172767639160e-01
3.050000000000000000e+03 5.821928787231445312e+01 2.959578895568847656e+01 4.317712306976318359e+00 1.339630317687988281e+01 5.314204692840576172e+00 -1.331911802291870117e+00
3.051000000000000000e+03 5.911327362060546875e+01 2.971180343627929688e+01 4.250183105468750000e+00 1.217245388031005859e+01 4.926791191101074219e+00 -1.084997296333312988e+00
3.052000000000000000e+03 5.805679702758789062e+01 2.878146171569824219e+01 2.794238567352294922e+00 1.375148868560791016e+01 4.963717937469482422e+00 -1.245108962059020996e+00
3.053000000000000000e+03 5.597322463989257812e+01 2.775445365905761719e+01 2.760996222496032715e-01 1.416691303253173828e+01 4.332903861999511719e+00 1.897108554840087891e+00
3.054000000000000000e+03 5.729169082641601562e+01 2.829290962219238281e+01 1.567586183547973633e+00 1.449420547485351562e+01 4.818537712097167969e+00 -5.181348323822021484e-01
3.055000000000000000e+03 5.233887481689453125e+01 2.804317092895507812e+01 2.253627061843872070e+00 4.263130187988281250e+00 1.955027103424072266e+00 4.129637241363525391e+00
3.056000000000000000e+03 5.913852691650390625e+01 3.048980522155761719e+01 5.066442966461181641e+00 1.198075389862060547e+01 5.114159107208251953e+00 -5.506877899169921875e-01
3.057000000000000000e+03 5.899372863769531250e+01 3.078350639343261719e+01 5.411839485168457031e+00 1.207595539093017578e+01 5.246338367462158203e+00 -2.909578680992126465e-01
3.058000000000000000e+03 5.092515182495117188e+01 2.637454795837402344e+01 1.569881200790405273e+00 3.334687232971191406e+00 1.471370577812194824e+00 2.939280748367309570e+00
3.059000000000000000e+03 4.918474960327148438e+01 2.532780647277832031e+01 1.292765378952026367e+00 2.339509725570678711e+00 1.089682579040527344e+00 2.056347370147705078e+00
3.060000000000000000e+03 5.035660934448242188e+01 2.621680259704589844e+01 1.508817195892333984e+00 2.803319215774536133e+00 1.293640971183776855e+00 2.591455221176147461e+00
3.061000000000000000e+03 4.852860260009765625e+01 2.451474761962890625e+01 1.174878835678100586e+00 2.307659626007080078e+00 1.044761538505554199e+00 1.827153921127319336e+00
3.062000000000000000e+03 4.981377410888671875e+01 2.547877311706542969e+01 1.359821557998657227e+00 2.713124752044677734e+00 1.221883893013000488e+00 2.343926429748535156e+00
3.063000000000000000e+03 6.015515136718750000e+01 3.085375404357910156e+01 4.337952613830566406e+00 1.108890724182128906e+01 4.628057956695556641e+00 -1.588408499956130981e-01
3.064000000000000000e+03 3.384784698486328125e+01 2.589458847045898438e+01 -8.699548989534378052e-02 1.017595082521438599e-01 4.429205786436796188e-03 -4.451217949390411377e-01
3.065000000000000000e+03 4.710850524902343750e+01 2.505814361572265625e+01 1.038358449935913086e+00 1.432299733161926270e+00 7.411974668502807617e-01 1.234670400619506836e+00
3.066000000000000000e+03 4.637597274780273438e+01 2.503285980224609375e+01 9.311339855194091797e-01 1.217282176017761230e+00 6.445248126983642578e-01 9.996070861816406250e-01
3.067000000000000000e+03 3.585629272460937500e+01 2.462293243408203125e+01 7.065247744321823120e-02 2.122658938169479370e-01 8.487550914287567139e-02 -3.762854933738708496e-01
3.068000000000000000e+03 3.657012939453125000e+01 2.461209297180175781e+01 9.209327399730682373e-02 2.408514618873596191e-01 9.988342225551605225e-02 -3.507306873798370361e-01
3.069000000000000000e+03 6.266959381103515625e+01 3.218022537231445312e+01 2.590670824050903320e+00 9.876299858093261719e+00 3.740091323852539062e+00 3.292819857597351074e-01
3.070000000000000000e+03 3.505440902709960938e+01 2.463586235046386719e+01 4.649665206670761108e-02 1.746349483728408813e-01 6.633947789669036865e-02 -4.028743207454681396e-01
3.071000000000000000e+03 3.333250427246093750e+01 2.681637001037597656e+01 -1.677070260047912598e-01 7.988245785236358643e-02 -2.634737081825733185e-02 -4.464766979217529297e-01
3.072000000000000000e+03 3.222162628173828125e+01 2.634828948974609375e+01 -1.270895898342132568e-01 3.528191894292831421e-02 -2.754230052232742310e-02 -4.468515217304229736e-01
3.073000000000000000e+03 3.323028182983398438e+01 2.611604690551757812e+01 -1.082797124981880188e-01 7.613780349493026733e-02 -9.642574004828929901e-03 -4.470720887184143066e-01
3.074000000000000000e+03 4.325177001953125000e+01 2.441915893554687500e+01 5.882333517074584961e-01 7.548204660415649414e-01 4.029161632061004639e-01 3.267531394958496094e-01
3.075000000000000000e+03 4.404125213623046875e+01 2.438925552368164062e+01 6.825134158134460449e-01 8.813415169715881348e-01 4.691564738750457764e-01 4.842604100704193115e-01
3.076000000000000000e+03 4.401297760009765625e+01 2.369265365600585938e+01 7.342317700386047363e-01 1.020566940307617188e+00 5.264396071434020996e-01 5.514194965362548828e-01
3.077000000000000000e+03 4.562939453125000000e+01 2.502907752990722656e+01 8.206228613853454590e-01 1.030022740364074707e+00 5.551936626434326172e-01 7.798563241958618164e-01
3.078000000000000000e+03 4.167824935913085938e+01 2.449028396606445312e+01 4.220784008502960205e-01 5.728179216384887695e-01 2.984688878059387207e-01 7.825441658496856689e-02
3.079000000000000000e+03 6.008234024047851562e+01 3.544819641113281250e+01 8.476945161819458008e-01 1.213733005523681641e+01 3.895507335662841797e+00 1.599775791168212891e+00
3.080000000000000000e+03 5.912205505371093750e+01 3.772229385375976562e+01 -9.446313381195068359e-01 1.238542461395263672e+01 3.432238101959228516e+00 8.007055521011352539e-01
3.081000000000000000e+03 6.810691070556640625e+01 1.201665592193603516e+01 -4.736147224903106689e-01 7.836012840270996094e+00 2.208719491958618164e+00 -8.352375030517578125e-01
3.082000000000000000e+03 6.996365356445312500e+01 1.252129077911376953e+01 -3.685656487941741943e-01 7.807776451110839844e+00 2.231763124465942383e+00 -9.034556746482849121e-01
3.083000000000000000e+03 6.798580932617187500e+01 2.017903709411621094e+01 -1.675910800695419312e-01 8.113386154174804688e+00 2.383738517761230469e+00 -1.296416878700256348e+00
3.084000000000000000e+03 6.866408538818359375e+01 2.051427841186523438e+01 -1.076662391424179077e-01 7.990836620330810547e+00 2.364951133728027344e+00 -1.313003659248352051e+00
3.085000000000000000e+03 3.880169296264648438e+01 2.571129035949707031e+01 4.453882575035095215e-02 2.889136970043182373e-01 1.000357568264007568e-01 -2.773683071136474609e-01
3.086000000000000000e+03 6.909712219238281250e+01 1.466454887390136719e+01 -3.938204050064086914e-01 7.867692947387695312e+00 2.242161750793457031e+00 -1.014389634132385254e+00
3.087000000000000000e+03 6.857592010498046875e+01 1.313505649566650391e+01 -4.400199651718139648e-01 7.859144687652587891e+00 2.225737333297729492e+00 -9.159256815910339355e-01
3.088000000000000000e+03 3.251242828369140625e+01 2.165143585205078125e+01 1.548277437686920166e-01 9.394320100545883179e-02 7.463128864765167236e-02 -3.770105242729187012e-01
3.089000000000000000e+03 3.084493827819824219e+01 2.021145439147949219e+01 1.543118059635162354e-01 -1.365529466420412064e-02 4.219695553183555603e-02 -3.578748703002929688e-01
3.090000000000000000e+03 3.374777221679687500e+01 2.430848693847656250e+01 4.008641839027404785e-02 1.181780323386192322e-01 4.747933521866798401e-02 -4.251385033130645752e-01
3.091000000000000000e+03 6.778163909912109375e+01 1.959519267082214355e+00 -3.033421039581298828e-01 7.540049076080322266e+00 2.171011924743652344e+00 -3.962064385414123535e-01
3.092000000000000000e+03 3.250369262695312500e+01 -1.026412129402160645e+00 2.090431004762649536e-02 7.449114918708801270e-01 2.297447323799133301e-01 9.469600021839141846e-02
3.093000000000000000e+03 3.154824066162109375e+01 -4.297770857810974121e-01 3.422845155000686646e-02 5.536210536956787109e-01 1.763548552989959717e-01 8.374965935945510864e-02
3.094000000000000000e+03 3.221132659912109375e+01 2.274257087707519531e+01 1.013837456703186035e-01 5.810286477208137512e-02 4.784598201513290405e-02 -4.107997715473175049e-01
3.095000000000000000e+03 3.150143051147460938e+01 2.148496055603027344e+01 1.330567002296447754e-01 2.476869896054267883e-02 4.734762012958526611e-02 -3.885389566421508789e-01
3.096000000000000000e+03 6.747888946533203125e+01 2.342255592346191406e+01 2.679897546768188477e-01 8.228770256042480469e+00 2.549027919769287109e+00 -1.382351040840148926e+00
3.097000000000000000e+03 4.014953994750976562e+01 2.460461997985839844e+01 2.776467204093933105e-01 4.365681409835815430e-01 2.142644524574279785e-01 -1.106883883476257324e-01
3.098000000000000000e+03 3.334291458129882812e+01 1.817049789428710938e+01 2.801021337509155273e-01 2.741486132144927979e-01 1.662752181291580200e-01 -2.270726412534713745e-01
3.099000000000000000e+03 3.450828933715820312e+01 2.569242095947265625e+01 -6.313984841108322144e-02 1.333141922950744629e-01 2.105230279266834259e-02 -4.330378770828247070e-01
3.100000000000000000e+03 3.519167327880859375e+01 1.621461868286132812e+01 3.583572506904602051e-01 6.042347550392150879e-01 2.887775897979736328e-01 -5.892762169241905212e-02
3.101000000000000000e+03 6.720000457763671875e+01 -6.700150966644287109e-01 -2.638415992259979248e-01 7.427175045013427734e+00 2.149000167846679688e+00 -3.137651085853576660e-01
3.102000000000000000e+03 3.360660171508789062e+01 9.944835662841796875e+00 2.014567703008651733e-01 6.509247422218322754e-01 2.557144463062286377e-01 2.725845575332641602e-02
3.103000000000000000e+03 3.441531372070312500e+01 1.160357379913330078e+01 2.571388483047485352e-01 7.190522551536560059e-01 2.928573191165924072e-01 2.657312527298927307e-02
3.104000000000000000e+03 3.488732528686523438e+01 7.336057186126708984e+00 1.586921215057373047e-01 9.731034040451049805e-01 3.395386636257171631e-01 1.140306144952774048e-01
3.105000000000000000e+03 3.687405776977539062e+01 1.141835403442382812e+01 2.939287722110748291e-01 1.170325279235839844e+00 4.392762184143066406e-01 1.590169072151184082e-01
3.106000000000000000e+03 6.667276000976562500e+01 2.373044586181640625e+01 3.122764825820922852e-01 8.422623634338378906e+00 2.620470046997070312e+00 -1.384795308113098145e+00
3.107000000000000000e+03 6.697502136230468750e+01 2.770148992538452148e+00 -3.489342033863067627e-01 7.466035366058349609e+00 2.135130405426025391e+00 -4.052038788795471191e-01
3.108000000000000000e+03 3.411240005493164062e+01 1.396010684967041016e+01 2.915561497211456299e-01 5.558141469955444336e-01 2.542110979557037354e-01 -4.837009310722351074e-02
3.109000000000000000e+03 6.789417266845703125e+01 6.060851573944091797e+00 -3.928436934947967529e-01 7.634000301361083984e+00 2.172347068786621094e+00 -5.421323776245117188e-01
3.110000000000000000e+03 6.901834869384765625e+01 5.294941902160644531e+00 -3.379217982292175293e-01 7.708981513977050781e+00 2.211317777633666992e+00 -5.350757241249084473e-01
3.111000000000000000e+03 3.199335289001464844e+01 -7.920769214630126953e+00 -8.024954237043857574e-03 7.335070371627807617e-01 2.176446318626403809e-01 7.494082301855087280e-02
3.112000000000000000e+03 6.464736938476562500e+01 -8.900683403015136719e+00 -1.744569391012191772e-01 6.933156013488769531e+00 2.027609586715698242e+00 -1.328084766864776611e-01
3.113000000000000000e+03 6.941493988037109375e+01 -8.731175422668457031e+00 -1.108814775943756104e-01 7.711406230926513672e+00 2.280157566070556641e+00 -1.677541732788085938e-01
3.114000000000000000e+03 6.861104583740234375e+01 -1.192974948883056641e+01 -8.991196751594543457e-02 7.571644306182861328e+00 2.244519710540771484e+00 -1.188952922821044922e-01
3.115000000000000000e+03 3.544195938110351562e+01 -1.754161071777343750e+01 -3.092548809945583344e-02 1.495606064796447754e+00 4.394041597843170166e-01 6.321845948696136475e-02
3.116000000000000000e+03 3.208070755004882812e+01 5.980935096740722656e-01 4.283827543258666992e-02 6.469856500625610352e-01 2.069471776485443115e-01 9.184234589338302612e-02
3.117000000000000000e+03 3.227899932861328125e+01 1.887514948844909668e+00 4.442302882671356201e-02 6.513813734054565430e-01 2.087413221597671509e-01 8.197562396526336670e-02
3.118000000000000000e+03 3.315207290649414062e+01 2.222642451524734497e-01 4.102848097681999207e-02 8.544010519981384277e-01 2.686288654804229736e-01 1.088359281420707703e-01
3.119000000000000000e+03 6.811098480224609375e+01 2.092390823364257812e+01 -8.468908816576004028e-02 8.099178314208984375e+00 2.404346942901611328e+00 -1.325922727584838867e+00
3.120000000000000000e+03 6.769075012207031250e+01 2.821973419189453125e+01 1.084126114845275879e+00 8.022477149963378906e+00 2.731980800628662109e+00 -9.983090758323669434e-01
3.121000000000000000e+03 3.386864471435546875e+01 -6.377685546875000000e+00 -1.024997513741254807e-02 1.074935555458068848e+00 3.194056749343872070e-01 1.077412590384483337e-01
3.122000000000000000e+03 3.432268524169921875e+01 -1.698895573616027832e+00 2.564672939479351044e-02 1.114101529121398926e+00 3.419244587421417236e-01 1.347326934337615967e-01
3.123000000000000000e+03 6.086790084838867188e+01 3.121962356567382812e+01 3.810694456100463867e+00 1.063173961639404297e+01 4.332730293273925781e+00 5.604168400168418884e-02
3.124000000000000000e+03 6.513880920410156250e+01 -1.466910839080810547e+01 -9.520458430051803589e-02 6.968356609344482422e+00 2.061945676803588867e+00 -8.288526535034179688e-02
3.125000000000000000e+03 6.739555358886718750e+01 2.694109725952148438e+01 9.044427275657653809e-01 8.150535583496093750e+00 2.716493368148803711e+00 -1.187872767448425293e+00
3.126000000000000000e+03 3.392607879638671875e+01 -1.367113018035888672e+01 -3.056554496288299561e-02 1.127586364746093750e+00 3.291062414646148682e-01 7.622973620891571045e-02
3.127000000000000000e+03 6.741532897949218750e+01 1.354843807220458984e+01 -5.095382928848266602e-01 7.914392948150634766e+00 2.221456527709960938e+00 -8.922488093376159668e-01
3.128000000000000000e+03 6.731660461425781250e+01 9.975236892700195312e+00 -4.868274331092834473e-01 7.740902900695800781e+00 2.176222562789916992e+00 -6.990656256675720215e-01
3.129000000000000000e+03 6.864601898193359375e+01 8.330071449279785156e+00 -4.044577777385711670e-01 7.732310771942138672e+00 2.198355913162231445e+00 -6.603245735168457031e-01
3.130000000000000000e+03 3.041377639770507812e+01 -6.059421539306640625e+00 4.655034746974706650e-03 4.016432166099548340e-01 1.218894720077514648e-01 6.135447695851325989e-02
3.131000000000000000e+03 3.181743812561035156e+01 -9.644787788391113281e+00 -1.010140124708414078e-02 7.227324843406677246e-01 2.137893140316009521e-01 6.990192085504531860e-02
3.132000000000000000e+03 3.189488410949707031e+01 -2.625374412536621094e+01 -3.701883554458618164e-02 8.341014385223388672e-01 2.391247749328613281e-01 8.955113589763641357e-03
3.133000000000000000e+03 6.497986602783203125e+01 -2.382236671447753906e+01 -4.569354280829429626e-02 6.928991317749023438e+00 2.064989328384399414e+00 -4.327516630291938782e-02
3.134000000000000000e+03 6.071536636352539062e+01 -2.094275093078613281e+01 -8.167073875665664673e-02 6.131988048553466797e+00 1.815095186233520508e+00 -2.593142352998256683e-02
3.135000000000000000e+03 6.982685852050781250e+01 -6.503927230834960938e+00 -1.272967457771301270e-01 7.759248733520507812e+00 2.289585590362548828e+00 -1.990827918052673340e-01
3.136000000000000000e+03 5.651621627807617188e+01 2.789597511291503906e+01 5.697712302207946777e-01 1.457220268249511719e+01 4.542592048645019531e+00 8.767280578613281250e-01
3.137000000000000000e+03 5.391185379028320312e+01 2.735604858398437500e+01 1.038191318511962891e+00 9.047200202941894531e+00 3.025617599487304688e+00 4.535438537597656250e+00
3.138000000000000000e+03 5.750717544555664062e+01 2.911347770690917969e+01 3.155086755752563477e+00 1.476559829711914062e+01 5.376205444335937500e+00 -1.228037357330322266e+00
3.139000000000000000e+03 5.907270431518554688e+01 2.933894729614257812e+01 3.656512260437011719e+00 1.229482841491699219e+01 4.785402297973632812e+00 -1.273142337799072266e+00
3.140000000000000000e+03 5.563996124267578125e+01 2.767561149597167969e+01 2.035774290561676025e-01 1.364727687835693359e+01 4.155256271362304688e+00 2.555224657058715820e+00
3.141000000000000000e+03 5.912244415283203125e+01 3.010520744323730469e+01 4.686965465545654297e+00 1.206947612762451172e+01 5.026932716369628906e+00 -8.664712905883789062e-01
3.142000000000000000e+03 5.556242752075195312e+01 2.805083084106445312e+01 3.915829658508300781e-01 1.436353778839111328e+01 4.426536083221435547e+00 2.710439682006835938e+00
3.143000000000000000e+03 5.229637908935546875e+01 2.731925964355468750e+01 1.846470713615417480e+00 4.868912696838378906e+00 2.014615058898925781e+00 4.024911403656005859e+00
3.144000000000000000e+03 5.771499633789062500e+01 2.832363319396972656e+01 1.898745775222778320e+00 1.400247192382812500e+01 4.770365238189697266e+00 -8.645844459533691406e-01
3.145000000000000000e+03 5.936759185791015625e+01 3.105532073974609375e+01 5.155692100524902344e+00 1.171910476684570312e+01 5.062438964843750000e+00 2.042393572628498077e-02
3.146000000000000000e+03 6.669274139404296875e+01 2.845774841308593750e+01 1.300791263580322266e+00 8.296426773071289062e+00 2.879165410995483398e+00 -9.911143779754638672e-01
3.147000000000000000e+03 4.922811889648437500e+01 2.464535713195800781e+01 1.223488092422485352e+00 2.682350397109985352e+00 1.171751618385314941e+00 2.120005846023559570e+00
3.148000000000000000e+03 5.041755676269531250e+01 2.564357566833496094e+01 1.400518059730529785e+00 3.187200784683227539e+00 1.376315712928771973e+00 2.640969991683959961e+00
3.149000000000000000e+03 5.160368347167968750e+01 2.591838836669921875e+01 1.381891131401062012e+00 4.515746116638183594e+00 1.769291162490844727e+00 3.322076082229614258e+00
3.150000000000000000e+03 5.101143264770507812e+01 2.579340171813964844e+01 1.413872003555297852e+00 3.746448755264282227e+00 1.548096179962158203e+00 2.968970775604248047e+00
3.151000000000000000e+03 4.780243682861328125e+01 2.442392349243164062e+01 1.117138028144836426e+00 1.943001866340637207e+00 9.180419445037841797e-01 1.556096911430358887e+00
3.152000000000000000e+03 3.590565109252929688e+01 2.383996200561523438e+01 1.393235623836517334e-01 2.406417727470397949e-01 1.139896064996719360e-01 -3.532162010669708252e-01
3.153000000000000000e+03 3.789281463623046875e+01 2.438702583312988281e+01 1.732781976461410522e-01 3.274952173233032227e-01 1.502320170402526855e-01 -2.725356221199035645e-01
3.154000000000000000e+03 4.090403747558593750e+01 2.453610038757324219e+01 3.451801836490631104e-01 5.045456290245056152e-01 2.549177408218383789e-01 -2.285115048289299011e-02
3.155000000000000000e+03 6.065857315063476562e+01 3.005934715270996094e+01 3.674588441848754883e+00 1.076520919799804688e+01 4.331939220428466797e+00 -6.774343848228454590e-01
3.156000000000000000e+03 4.246727752685546875e+01 2.370437622070312500e+01 5.815201997756958008e-01 7.731856703758239746e-01 4.064117670059204102e-01 2.684504687786102295e-01
3.157000000000000000e+03 4.324300003051757812e+01 2.370066642761230469e+01 6.596398353576660156e-01 8.828539848327636719e-01 4.627481400966644287e-01 4.021957218647003174e-01
3.158000000000000000e+03 3.269284439086914062e+01 2.633042144775390625e+01 -1.238408163189888000e-01 6.123216822743415833e-02 -1.878259517252445221e-02 -4.502745866775512695e-01
3.159000000000000000e+03 3.187267494201660156e+01 2.377789306640625000e+01 4.261990264058113098e-02 2.923341281712055206e-02 2.155599370598793030e-02 -4.338709115982055664e-01
3.160000000000000000e+03 6.604557037353515625e+01 8.314065933227539062e+00 -5.130022764205932617e-01 7.592794895172119141e+00 2.123937845230102539e+00 -5.611957907676696777e-01
3.161000000000000000e+03 3.205341339111328125e+01 2.560048484802246094e+01 -6.936807185411453247e-02 3.289833664894104004e-02 -1.094092149287462234e-02 -4.533468186855316162e-01
3.162000000000000000e+03 3.240311813354492188e+01 2.491186904907226562e+01 -2.192850969731807709e-02 5.302064493298530579e-02 9.327640756964683533e-03 -4.481702744960784912e-01
3.163000000000000000e+03 6.169316482543945312e+01 3.171046257019042969e+01 3.217283010482788086e+00 1.023362350463867188e+01 4.035271644592285156e+00 2.804352641105651855e-01
3.164000000000000000e+03 4.558058166503906250e+01 2.434902000427246094e+01 8.718794584274291992e-01 1.207574129104614258e+00 6.238361001014709473e-01 8.617419004440307617e-01
3.165000000000000000e+03 4.632499313354492188e+01 2.434759712219238281e+01 9.609148502349853516e-01 1.408393621444702148e+00 7.107925415039062500e-01 1.071887731552124023e+00
3.166000000000000000e+03 6.868213653564453125e+01 1.854669761657714844e+01 -2.656280100345611572e-01 7.984030723571777344e+00 2.315520763397216797e+00 -1.231708645820617676e+00
3.167000000000000000e+03 6.210009384155273438e+01 3.331870651245117188e+01 2.352171182632446289e+00 1.039592361450195312e+01 3.824428558349609375e+00 9.181265234947204590e-01
3.168000000000000000e+03 6.120764923095703125e+01 3.439158248901367188e+01 1.809709668159484863e+00 1.125950717926025391e+01 3.920764923095703125e+00 1.464176774024963379e+00
3.169000000000000000e+03 3.870971679687500000e+01 2.491842842102050781e+01 1.531895399093627930e-01 3.384461998939514160e-01 1.474907249212265015e-01 -2.435738593339920044e-01
3.170000000000000000e+03 4.010131454467773438e+01 2.368384933471679688e+01 3.834441304206848145e-01 5.309810638427734375e-01 2.743275761604309082e-01 -4.489954188466072083e-02
3.171000000000000000e+03 3.362701034545898438e+01 3.214952945709228516e+00 7.481633126735687256e-02 8.777608275413513184e-01 2.857731580734252930e-01 1.044855341315269470e-01
3.172000000000000000e+03 3.595060729980468750e+01 8.224800109863281250e+00 1.935226321220397949e-01 1.141888618469238281e+00 4.006233811378479004e-01 1.394522041082382202e-01
3.173000000000000000e+03 3.363138961791992188e+01 2.511371612548828125e+01 -2.605223469436168671e-02 9.679076075553894043e-02 2.122155763208866119e-02 -4.404101371765136719e-01
3.174000000000000000e+03 3.477981948852539062e+01 1.040960025787353516e+01 2.321703583002090454e-01 8.447669744491577148e-01 3.230811953544616699e-01 6.487419456243515015e-02
3.175000000000000000e+03 6.676230621337890625e+01 9.188386917114257812e+00 -4.990364909172058105e-01 7.682507514953613281e+00 2.155041217803955078e+00 -6.377969384193420410e-01
3.176000000000000000e+03 6.752253723144531250e+01 1.074830055236816406e+01 -4.906195700168609619e-01 7.783387184143066406e+00 2.187830209732055664e+00 -7.494214773178100586e-01
3.177000000000000000e+03 3.304307937622070312e+01 1.934813308715820312e+01 2.484658062458038330e-01 2.031336873769760132e-01 1.354798525571823120e-01 -2.813398540019989014e-01
3.178000000000000000e+03 3.206589126586914062e+01 1.919968414306640625e+01 2.179985642433166504e-01 1.131373420357704163e-01 9.934077411890029907e-02 -3.045463860034942627e-01
3.179000000000000000e+03 3.528779220581054688e+01 1.863270759582519531e+01 3.505268096923828125e-01 4.649812877178192139e-01 2.446524351835250854e-01 -1.523816287517547607e-01
3.180000000000000000e+03 3.368192672729492188e+01 1.696870994567871094e+01 2.992814481258392334e-01 3.632899522781372070e-01 1.987714171409606934e-01 -1.678778678178787231e-01
3.181000000000000000e+03 3.801170730590820312e+01 2.510805702209472656e+01 9.326989948749542236e-02 2.920385003089904785e-01 1.155925244092941284e-01 -2.989749312400817871e-01
3.182000000000000000e+03 6.103551864624023438e+01 3.669358825683593750e+01 9.727422147989273071e-02 1.171352672576904297e+01 3.543240308761596680e+00 1.332739591598510742e+00
3.183000000000000000e+03 3.418070602416992188e+01 1.279380607604980469e+01 2.688401937484741211e-01 6.217707991600036621e-01 2.671833038330078125e-01 -1.311683934181928635e-02
3.184000000000000000e+03 3.146448898315429688e+01 2.561625671386718750e+01 -7.366970926523208618e-02 1.044305879622697830e-02 -1.896799355745315552e-02 -4.504989981651306152e-01
3.185000000000000000e+03 6.783129882812500000e+01 2.211263084411621094e+01 6.797203421592712402e-02 8.164698600769042969e+00 2.469801187515258789e+00 -1.370732426643371582e+00
3.186000000000000000e+03 3.503470611572265625e+01 1.397848224639892578e+01 3.199831843376159668e-01 7.114660739898681641e-01 3.094347715377807617e-01 -5.825647385790944099e-04
3.187000000000000000e+03 6.628983306884765625e+01 3.698890686035156250e+00 -3.936870396137237549e-01 7.424554347991943359e+00 2.109260082244873047e+00 -4.129416048526763916e-01
3.188000000000000000e+03 6.867946624755859375e+01 3.605769157409667969e+00 -3.087438642978668213e-01 7.650258064270019531e+00 2.202454328536987305e+00 -4.677690565586090088e-01
3.189000000000000000e+03 6.673214721679687500e+01 1.733710861206054688e+01 -4.527996182441711426e-01 8.175449371337890625e+00 2.316794872283935547e+00 -1.081724286079406738e+00
3.190000000000000000e+03 6.759796905517578125e+01 -3.188207149505615234e+00 -2.091943323612213135e-01 7.458929061889648438e+00 2.174920320510864258e+00 -2.663346230983734131e-01
3.191000000000000000e+03 6.881930541992187500e+01 -7.397955417633056641e+00 -1.274085342884063721e-01 7.612565517425537109e+00 2.245547056198120117e+00 -1.857390850782394409e-01
3.192000000000000000e+03 6.810601806640625000e+01 1.531016921997070312e+01 -4.440701901912689209e-01 7.951042652130126953e+00 2.252091884613037109e+00 -1.020510673522949219e+00
3.193000000000000000e+03 6.816837310791015625e+01 1.454806327819824219e+01 -4.513804316520690918e-01 7.923449039459228516e+00 2.241620540618896484e+00 -9.862564802169799805e-01
3.194000000000000000e+03 6.767191314697265625e+01 -2.150114774703979492e+00 -2.270437926054000854e-01 7.473012447357177734e+00 2.173790693283081055e+00 -2.860360145568847656e-01
3.195000000000000000e+03 3.548494720458984375e+01 1.195558452606201172e+01 2.835624217987060547e-01 8.899847269058227539e-01 3.520641326904296875e-01 7.305412739515304565e-02
3.196000000000000000e+03 3.737311172485351562e+01 1.263046646118164062e+01 3.321444392204284668e-01 1.167408108711242676e+00 4.498657584190368652e-01 1.619908660650253296e-01
3.197000000000000000e+03 3.370354461669921875e+01 -9.875528335571289062e+00 -1.446493063122034073e-02 1.095436334609985352e+00 3.242914080619812012e-01 9.142776578664779663e-02
3.198000000000000000e+03 6.641970825195312500e+01 2.722079467773437500e+01 1.056305527687072754e+00 8.425836563110351562e+00 2.844642877578735352e+00 -1.186954498291015625e+00
3.199000000000000000e+03 6.433402252197265625e+01 2.494802093505859375e+01 6.117219924926757812e-01 9.150038719177246094e+00 2.928528308868408203e+00 -1.381153225898742676e+00
3.200000000000000000e+03 6.689136505126953125e+01 2.469313812255859375e+01 5.145751237869262695e-01 8.357428550720214844e+00 2.661601305007934570e+00 -1.371232509613037109e+00
3.201000000000000000e+03 6.644805145263671875e+01 -1.820819139480590820e+00 -2.624695599079132080e-01 7.299386024475097656e+00 2.111074924468994141e+00 -2.746435999870300293e-01
3.202000000000000000e+03 6.671482086181640625e+01 -8.931022644042968750e+00 -1.404466032981872559e-01 7.267631053924560547e+00 2.138155221939086914e+00 -1.562039405107498169e-01
3.203000000000000000e+03 3.355492782592773438e+01 1.675499796867370605e+00 5.356878414750099182e-02 8.972851634025573730e-01 2.852561771869659424e-01 1.149718090891838074e-01
3.204000000000000000e+03 6.702986907958984375e+01 1.068397998809814453e+00 -3.083107769489288330e-01 7.438384532928466797e+00 2.139022111892700195e+00 -3.561009764671325684e-01
3.205000000000000000e+03 3.566197204589843750e+01 1.523379325866699219e+01 3.493839502334594727e-01 7.186971306800842285e-01 3.204243183135986328e-01 -6.283259019255638123e-03
3.206000000000000000e+03 3.462256240844726562e+01 1.479288387298583984e+01 3.090894520282745361e-01 5.908577442169189453e-01 2.699841558933258057e-01 -4.973743483424186707e-02
3.207000000000000000e+03 6.673029327392578125e+01 5.545108318328857422e+00 -4.218743443489074707e-01 7.529577732086181641e+00 2.132311105728149414e+00 -4.899207353591918945e-01
3.208000000000000000e+03 3.212358474731445312e+01 -6.125310897827148438e+00 -6.534539163112640381e-03 7.341505289077758789e-01 2.182848006486892700e-01 8.650997281074523926e-02
3.209000000000000000e+03 3.400807189941406250e+01 -4.674168109893798828e+00 -7.384172204183414578e-05 1.091606736183166504e+00 3.274598717689514160e-01 1.119619607925415039e-01
3.210000000000000000e+03 6.161786651611328125e+01 4.139133834838867188e+01 -1.212393283843994141e+00 1.134032726287841797e+01 3.038380146026611328e+00 1.959923952817916870e-01
3.211000000000000000e+03 6.732742309570312500e+01 2.118743515014648438e+01 -8.605642616748809814e-02 8.267579078674316406e+00 2.454456806182861328e+00 -1.329145193099975586e+00
3.212000000000000000e+03 6.866962432861328125e+01 -1.325831699371337891e+01 -8.440359681844711304e-02 7.567758560180664062e+00 2.245006561279296875e+00 -1.124857366085052490e-01
3.213000000000000000e+03 6.574788665771484375e+01 -1.005291175842285156e+01 -1.450774073600769043e-01 7.107529163360595703e+00 2.088735580444335938e+00 -1.317975670099258423e-01
3.214000000000000000e+03 3.200539779663085938e+01 -2.077639007568359375e+01 -2.482429519295692444e-02 7.937430143356323242e-01 2.306756079196929932e-01 4.136542230844497681e-02
3.215000000000000000e+03 3.417177581787109375e+01 -1.750240516662597656e+01 -2.543944306671619415e-02 1.215289235115051270e+00 3.569549322128295898e-01 6.197223812341690063e-02
3.216000000000000000e+03 3.449709320068359375e+01 -2.573050308227539062e+01 -2.668852731585502625e-02 1.325994253158569336e+00 3.897917270660400391e-01 4.256924614310264587e-02
3.217000000000000000e+03 5.360706329345703125e+01 2.731873130798339844e+01 1.236023426055908203e+00 8.219603538513183594e+00 2.836688280105590820e+00 4.582307815551757812e+00
3.218000000000000000e+03 5.425180435180664062e+01 2.744409751892089844e+01 8.061151504516601562e-01 1.006719303131103516e+01 3.261992454528808594e+00 4.411883831024169922e+00
3.219000000000000000e+03 5.503192520141601562e+01 2.716352081298828125e+01 2.023444622755050659e-01 1.176431941986083984e+01 3.589999198913574219e+00 3.421369314193725586e+00
3.220000000000000000e+03 5.538891601562500000e+01 2.721371459960937500e+01 8.646820485591888428e-02 1.246561431884765625e+01 3.765624761581420898e+00 2.917129516601562500e+00
3.221000000000000000e+03 5.962835311889648438e+01 3.015431976318359375e+01 4.352392196655273438e+00 1.156818389892578125e+01 4.776172637939453125e+00 -7.202238440513610840e-01
3.222000000000000000e+03 5.862160491943359375e+01 2.842242050170898438e+01 2.406323432922363281e+00 1.285742855072021484e+01 4.579125881195068359e+00 -1.242758989334106445e+00
3.223000000000000000e+03 5.853338241577148438e+01 2.886867523193359375e+01 3.073648691177368164e+00 1.301927852630615234e+01 4.827877998352050781e+00 -1.345418453216552734e+00
3.224000000000000000e+03 5.838433837890625000e+01 2.927629852294921875e+01 3.743740797042846680e+00 1.326229095458984375e+01 5.101809501647949219e+00 -1.370246887207031250e+00
3.225000000000000000e+03 5.615834808349609375e+01 2.799175834655761719e+01 4.580628871917724609e-01 1.468278217315673828e+01 4.542253494262695312e+00 1.471124172210693359e+00
3.226000000000000000e+03 5.475534820556640625e+01 2.667881774902343750e+01 2.078674882650375366e-01 1.066830253601074219e+01 3.262850999832153320e+00 3.502483606338500977e+00
3.227000000000000000e+03 5.693223190307617188e+01 2.788059425354003906e+01 8.240723609924316406e-01 1.432929801940917969e+01 4.546010971069335938e+00 2.169485241174697876e-01
3.228000000000000000e+03 6.023927688598632812e+01 2.973452758789062500e+01 3.681720256805419922e+00 1.112152099609375000e+01 4.440972328186035156e+00 -9.215148091316223145e-01
3.229000000000000000e+03 5.957585144042968750e+01 3.063782882690429688e+01 4.758208274841308594e+00 1.156211376190185547e+01 4.896096706390380859e+00 -3.717308044433593750e-01
3.230000000000000000e+03 4.988643264770507812e+01 2.483212852478027344e+01 1.253116965293884277e+00 3.063398838043212891e+00 1.294954776763916016e+00 2.388592243194580078e+00
3.231000000000000000e+03 4.930206680297851562e+01 2.386707305908203125e+01 1.091982126235961914e+00 3.069419384002685547e+00 1.248420476913452148e+00 2.131941795349121094e+00
3.232000000000000000e+03 5.048802947998046875e+01 2.504631996154785156e+01 1.256415963172912598e+00 3.540721416473388672e+00 1.439141154289245605e+00 2.639138698577880859e+00
3.233000000000000000e+03 4.852467346191406250e+01 2.377287864685058594e+01 1.091701388359069824e+00 2.560491323471069336e+00 1.095657825469970703e+00 1.841132402420043945e+00
3.234000000000000000e+03 4.169002914428710938e+01 2.370449256896972656e+01 5.111871957778930664e-01 6.807674765586853027e-01 3.575863838195800781e-01 1.512250751256942749e-01
3.235000000000000000e+03 3.374543380737304688e+01 2.063350105285644531e+01 2.403311729431152344e-01 2.210780233144760132e-01 1.384227573871612549e-01 -3.065601587295532227e-01
3.236000000000000000e+03 3.659218215942382812e+01 2.390305709838867188e+01 1.561795771121978760e-01 2.767201364040374756e-01 1.298699080944061279e-01 -3.239809572696685791e-01
3.237000000000000000e+03 4.477227783203125000e+01 2.367127990722656250e+01 8.162804245948791504e-01 1.191295862197875977e+00 6.022728681564331055e-01 7.311277389526367188e-01
3.238000000000000000e+03 4.706473922729492188e+01 2.436985969543457031e+01 1.041591644287109375e+00 1.657724618911743164e+00 8.097949028015136719e-01 1.308135032653808594e+00
3.239000000000000000e+03 6.579849243164062500e+01 2.856756401062011719e+01 1.436159610748291016e+00 8.529994964599609375e+00 2.989846467971801758e+00 -9.852629303932189941e-01
3.240000000000000000e+03 4.182547760009765625e+01 2.210302925109863281e+01 6.345314383506774902e-01 9.322899580001831055e-01 4.700464308261871338e-01 3.082669079303741455e-01
3.241000000000000000e+03 4.326014709472656250e+01 2.296063804626464844e+01 7.048094868659973145e-01 1.017491221427917480e+00 5.166901946067810059e-01 4.727019965648651123e-01
3.242000000000000000e+03 4.111593627929687500e+01 2.204105949401855469e+01 5.739538669586181641e-01 8.526970744132995605e-01 4.279952645301818848e-01 2.092415839433670044e-01
3.243000000000000000e+03 4.250664520263671875e+01 2.293214225769042969e+01 6.428204178810119629e-01 9.057925939559936523e-01 4.645839035511016846e-01 3.501512110233306885e-01
3.244000000000000000e+03 6.656262207031250000e+01 2.168619155883789062e+01 -5.073037743568420410e-02 8.433645248413085938e+00 2.514874458312988281e+00 -1.337664604187011719e+00
3.245000000000000000e+03 3.724108886718750000e+01 2.455255889892578125e+01 1.218741908669471741e-01 2.781342267990112305e-01 1.200025230646133423e-01 -3.177024424076080322e-01
3.246000000000000000e+03 4.615220642089843750e+01 2.284972572326660156e+01 9.413031935691833496e-01 1.774959444999694824e+00 8.148788213729858398e-01 1.152561545372009277e+00
3.247000000000000000e+03 6.617267608642578125e+01 7.151629030704498291e-02 -3.035173416137695312e-01 7.319264411926269531e+00 2.104724168777465820e+00 -3.160020411014556885e-01
3.248000000000000000e+03 3.521771621704101562e+01 1.300120830535888672e+01 3.050458431243896484e-01 7.857095599174499512e-01 3.272266089916229248e-01 3.407394513487815857e-02
3.249000000000000000e+03 6.121083831787109375e+01 3.048432350158691406e+01 3.479325532913208008e+00 1.042410278320312500e+01 4.171028614044189453e+00 -3.998807668685913086e-01
3.250000000000000000e+03 6.721919250488281250e+01 1.444147491455078125e+01 -5.165238976478576660e-01 7.976923465728759766e+00 2.238119840621948242e+00 -9.352820515632629395e-01
3.251000000000000000e+03 6.772128295898437500e+01 1.275764179229736328e+01 -4.924999773502349854e-01 7.866520881652832031e+00 2.212206363677978516e+00 -8.580325841903686523e-01
3.252000000000000000e+03 3.942123031616210938e+01 2.473126220703125000e+01 2.190024703741073608e-01 3.853327035903930664e-01 1.813005506992340088e-01 -1.789039671421051025e-01
3.253000000000000000e+03 6.826132965087890625e+01 1.378499507904052734e+01 -4.610903561115264893e-01 7.900603294372558594e+00 2.231853961944580078e+00 -9.488326907157897949e-01
3.254000000000000000e+03 3.325901794433593750e+01 2.295085906982421875e+01 1.187180802226066589e-01 1.209983676671981812e-01 7.191493362188339233e-02 -3.979171812534332275e-01
3.255000000000000000e+03 3.297174072265625000e+01 2.541308403015136719e+01 -4.839048907160758972e-02 7.089295983314514160e-02 6.750741042196750641e-03 -4.470630586147308350e-01
3.256000000000000000e+03 6.587619781494140625e+01 2.389814758300781250e+01 3.401124179363250732e-01 8.646148681640625000e+00 2.695878267288208008e+00 -1.380145549774169922e+00
3.257000000000000000e+03 3.457660675048828125e+01 2.174370384216308594e+01 2.229397296905517578e-01 2.400167882442474365e-01 1.388869583606719971e-01 -3.218248486518859863e-01
3.258000000000000000e+03 3.400626373291015625e+01 1.950423049926757812e+01 2.807174324989318848e-01 2.866421341896057129e-01 1.702078729867935181e-01 -2.531484961509704590e-01
3.259000000000000000e+03 6.384142684936523438e+01 3.260343170166015625e+01 2.046391010284423828e+00 9.428135871887207031e+00 3.442358016967773438e+00 2.843716442584991455e-01
3.260000000000000000e+03 6.118531036376953125e+01 3.259409332275390625e+01 3.118722200393676758e+00 1.070313453674316406e+01 4.146556854248046875e+00 8.637886047363281250e-01
3.261000000000000000e+03 4.090777969360351562e+01 2.369886589050292969e+01 4.477482438087463379e-01 6.067526340484619141e-01 3.163502812385559082e-01 4.819861054420471191e-02
3.262000000000000000e+03 4.023264694213867188e+01 2.276125907897949219e+01 4.683578908443450928e-01 6.429587602615356445e-01 3.333950042724609375e-01 3.594854101538658142e-02
3.263000000000000000e+03 6.819616699218750000e+01 5.032025337219238281e+00 -3.602835237979888916e-01 7.631014823913574219e+00 2.181219339370727539e+00 -5.085862278938293457e-01
3.264000000000000000e+03 6.492833709716796875e+01 5.628764152526855469e+00 -4.803364872932434082e-01 7.359591007232666016e+00 2.063776254653930664e+00 -4.110737442970275879e-01
3.265000000000000000e+03 6.581280517578125000e+01 2.112655258178710938e+01 -1.717130690813064575e-01 8.550500869750976562e+00 2.513636350631713867e+00 -1.266360044479370117e+00
3.266000000000000000e+03 6.708995819091796875e+01 2.252069854736328125e+01 1.069954112172126770e-01 8.317333221435546875e+00 2.527298688888549805e+00 -1.371397852897644043e+00
3.267000000000000000e+03 6.235261154174804688e+01 3.543894195556640625e+01 9.429185986518859863e-01 1.086425209045410156e+01 3.542151212692260742e+00 1.195633769035339355e+00
3.268000000000000000e+03 3.284032440185546875e+01 2.401632690429687500e+01 4.456253722310066223e-02 7.906531542539596558e-02 3.708835691213607788e-02 -4.334328472614288330e-01
3.269000000000000000e+03 6.600894927978515625e+01 2.488346099853515625e+01 5.680486559867858887e-01 8.604566574096679688e+00 2.751784324645996094e+00 -1.383558392524719238e+00
3.270000000000000000e+03 6.581082916259765625e+01 2.305024719238281250e+01 1.641076952219009399e-01 8.650421142578125000e+00 2.644358634948730469e+00 -1.365711450576782227e+00
3.271000000000000000e+03 7.047138214111328125e+01 -1.611910438537597656e+01 -5.309304594993591309e-02 7.893360137939453125e+00 2.352080106735229492e+00 -7.915432006120681763e-02
3.272000000000000000e+03 3.587635803222656250e+01 1.091353797912597656e+01 2.668072283267974854e-01 1.023098349571228027e+00 3.869716823101043701e-01 1.164889037609100342e-01
3.273000000000000000e+03 6.560150909423828125e+01 2.974994277954101562e+01 1.690923094749450684e+00 8.602982521057128906e+00 3.088171482086181641e+00 -7.182593345642089844e-01
3.274000000000000000e+03 5.998734283447265625e+01 2.907729911804199219e+01 3.187652349472045898e+00 1.138775253295898438e+01 4.372621536254882812e+00 -1.190596222877502441e+00
3.275000000000000000e+03 3.647999191284179688e+01 1.232510375976562500e+01 3.124644458293914795e-01 1.050721645355224609e+00 4.089558124542236328e-01 1.248719468712806702e-01
3.276000000000000000e+03 6.765522766113281250e+01 1.803134346008300781e+01 -3.630353212356567383e-01 8.118696212768554688e+00 2.326698303222656250e+00 -1.169982910156250000e+00
3.277000000000000000e+03 6.534915924072265625e+01 1.906211471557617188e+01 -4.333352446556091309e-01 8.483440399169921875e+00 2.415031433105468750e+00 -1.092769384384155273e+00
3.278000000000000000e+03 3.493914794921875000e+01 1.966675376892089844e+01 3.162887394428253174e-01 3.687540888786315918e-01 2.055128514766693115e-01 -2.169837355613708496e-01
3.279000000000000000e+03 3.473317337036132812e+01 1.727670860290527344e+01 3.389494717121124268e-01 4.803944230079650879e-01 2.458031773567199707e-01 -1.270616501569747925e-01
3.280000000000000000e+03 6.728836822509765625e+01 4.440169334411621094e+00 -3.748721480369567871e-01 7.541324615478515625e+00 2.149935722351074219e+00 -4.687819778919219971e-01
3.281000000000000000e+03 6.796746826171875000e+01 -6.231602191925048828e+00 -1.652838289737701416e-01 7.478220939636230469e+00 2.193881273269653320e+00 -1.955121904611587524e-01
3.282000000000000000e+03 6.762272644042968750e+01 -4.321333885192871094e+00 -2.007858753204345703e-01 7.444496154785156250e+00 2.173113107681274414e+00 -2.320603281259536743e-01
3.283000000000000000e+03 6.524423217773437500e+01 9.640900492668151855e-01 -3.474793732166290283e-01 7.215410232543945312e+00 2.060379266738891602e+00 -3.126368224620819092e-01
3.284000000000000000e+03 6.522385406494140625e+01 -1.097180485725402832e+00 -2.971874773502349854e-01 7.153411388397216797e+00 2.056867122650146484e+00 -2.645370960235595703e-01
3.285000000000000000e+03 6.013460159301757812e+01 3.939320755004882812e+01 -1.253335833549499512e+00 1.184243774414062500e+01 3.176730394363403320e+00 6.395479440689086914e-01
3.286000000000000000e+03 6.450334167480468750e+01 3.994782257080078125e+01 -5.187342762947082520e-01 1.036258602142333984e+01 2.953155517578125000e+00 4.057460725307464600e-01
3.287000000000000000e+03 6.327174377441406250e+01 3.405411148071289062e+01 1.688160777091979980e+00 1.001742649078369141e+01 3.511676073074340820e+00 8.097026348114013672e-01
3.288000000000000000e+03 3.433532714843750000e+01 1.838520622253417969e+01 3.161405622959136963e-01 3.722785711288452148e-01 2.065257281064987183e-01 -1.926157325506210327e-01
3.289000000000000000e+03 3.469137954711914062e+01 2.070310974121093750e+01 2.712896764278411865e-01 2.936186790466308594e-01 1.694725006818771362e-01 -2.731332182884216309e-01
3.290000000000000000e+03 6.589411926269531250e+01 -1.600746154785156250e+01 -8.845651894807815552e-02 7.079571723937988281e+00 2.097334623336791992e+00 -7.719899713993072510e-02
3.291000000000000000e+03 3.490842437744140625e+01 1.636547923088073730e+00 6.050346046686172485e-02 1.143444538116455078e+00 3.611844182014465332e-01 1.431241184473037720e-01
3.292000000000000000e+03 3.513089370727539062e+01 2.283291518688201904e-02 3.385725989937782288e-02 1.215390086174011230e+00 3.747741878032684326e-01 1.457955986261367798e-01
3.293000000000000000e+03 6.603240966796875000e+01 6.557872295379638672e+00 -4.695192575454711914e-01 7.510638713836669922e+00 2.112335920333862305e+00 -4.968489110469818115e-01
3.294000000000000000e+03 6.697603607177734375e+01 7.622804641723632812e+00 -4.578449726104736328e-01 7.623967170715332031e+00 2.149836540222167969e+00 -5.773585438728332520e-01
3.295000000000000000e+03 6.643500518798828125e+01 -1.372268867492675781e+01 -9.807465225458145142e-02 7.199048519134521484e+00 2.130292177200317383e+00 -9.529842436313629150e-02
3.296000000000000000e+03 6.651526641845703125e+01 1.322945404052734375e+01 -5.560661554336547852e-01 7.912059307098388672e+00 2.206797838211059570e+00 -8.239163756370544434e-01
3.297000000000000000e+03 3.548357391357421875e+01 -4.710019588470458984e+00 -3.585661994293332100e-03 1.378733515739440918e+00 4.125443696975708008e-01 1.366325914859771729e-01
3.298000000000000000e+03 6.535324859619140625e+01 2.844274520874023438e+00 -3.968761265277862549e-01 7.288041114807128906e+00 2.067349433898925781e+00 -3.593389987945556641e-01
3.299000000000000000e+03 6.440979766845703125e+01 1.936020612716674805e+00 -3.923590481281280518e-01 7.137348175048828125e+00 2.023496627807617188e+00 -3.034090101718902588e-01
3.300000000000000000e+03 6.824320220947265625e+01 1.937670326232910156e+01 -2.230593115091323853e-01 8.063478469848632812e+00 2.352125644683837891e+00 -1.267292141914367676e+00
3.301000000000000000e+03 6.623126983642578125e+01 1.896864128112792969e+01 -3.796341419219970703e-01 8.336276054382324219e+00 2.386992454528808594e+00 -1.151772499084472656e+00
3.302000000000000000e+03 3.617809295654296875e+01 -1.379017353057861328e+01 -3.672869876027107239e-02 1.573316454887390137e+00 4.609763026237487793e-01 9.105011075735092163e-02
3.303000000000000000e+03 3.549102401733398438e+01 -9.845371246337890625e+00 -3.445599600672721863e-02 1.425550699234008789e+00 4.173283874988555908e-01 9.973858296871185303e-02
3.304000000000000000e+03 3.515697097778320312e+01 5.499737262725830078e+00 1.285668313503265381e-01 1.111674427986145020e+00 3.720723688602447510e-01 1.355843991041183472e-01
3.305000000000000000e+03 3.697096252441406250e+01 8.967907905578613281e+00 2.232986539602279663e-01 1.324329495429992676e+00 4.642884433269500732e-01 1.885849088430404663e-01
3.306000000000000000e+03 5.948430633544921875e+01 2.934834098815917969e+01 3.600797891616821289e+00 1.185045146942138672e+01 4.635375022888183594e+00 -1.215664267539978027e+00
3.307000000000000000e+03 5.779412841796875000e+01 2.791249275207519531e+01 1.408385753631591797e+00 1.360530948638916016e+01 4.504108428955078125e+00 -6.855377554893493652e-01
3.308000000000000000e+03 5.431070709228515625e+01 2.699536514282226562e+01 5.537565946578979492e-01 9.982116699218750000e+00 3.160761833190917969e+00 4.035869598388671875e+00
3.309000000000000000e+03 5.554053497314453125e+01 2.629254531860351562e+01 -1.584945023059844971e-01 1.145411491394042969e+01 3.388686180114746094e+00 2.490025043487548828e+00
3.310000000000000000e+03 5.904181671142578125e+01 2.892093467712402344e+01 3.178221464157104492e+00 1.236743640899658203e+01 4.663697242736816406e+00 -1.323813915252685547e+00
3.311000000000000000e+03 5.287305068969726562e+01 2.735550689697265625e+01 1.700944900512695312e+00 6.104024887084960938e+00 2.341490983963012695e+00 4.384801387786865234e+00
3.312000000000000000e+03 5.984197235107421875e+01 2.950345611572265625e+01 3.651040077209472656e+00 1.142576503753662109e+01 4.523041725158691406e+00 -1.074402332305908203e+00
3.313000000000000000e+03 5.548029708862304688e+01 2.677174949645996094e+01 -3.146672248840332031e-02 1.198957920074462891e+01 3.587433576583862305e+00 2.682698726654052734e+00
3.314000000000000000e+03 5.575224304199218750e+01 2.727180480957031250e+01 3.892866894602775574e-02 1.307549858093261719e+01 3.934328079223632812e+00 2.373893499374389648e+00
3.315000000000000000e+03 5.613526916503906250e+01 2.736742591857910156e+01 1.296336203813552856e-01 1.358872222900390625e+01 4.115506649017333984e+00 1.707867026329040527e+00
3.316000000000000000e+03 5.355241394042968750e+01 2.763412666320800781e+01 1.481312155723571777e+00 7.986033439636230469e+00 2.840203762054443359e+00 4.801150798797607422e+00
3.317000000000000000e+03 5.106299591064453125e+01 2.519879150390625000e+01 1.248767733573913574e+00 4.145305633544921875e+00 1.618221998214721680e+00 2.966474533081054688e+00
3.318000000000000000e+03 5.261083221435546875e+01 2.697565841674804688e+01 1.589785695075988770e+00 5.676164627075195312e+00 2.179785251617431641e+00 4.126096725463867188e+00
3.319000000000000000e+03 5.353417587280273438e+01 2.689955329895019531e+01 1.028482437133789062e+00 7.983994960784912109e+00 2.703743219375610352e+00 4.275765895843505859e+00
3.320000000000000000e+03 5.005401611328125000e+01 2.410553550720214844e+01 1.092319369316101074e+00 3.540488243103027344e+00 1.389842271804809570e+00 2.425490140914916992e+00
3.321000000000000000e+03 4.924987792968750000e+01 2.301739311218261719e+01 9.653988480567932129e-01 3.291341304779052734e+00 1.277022004127502441e+00 2.067194461822509766e+00
3.322000000000000000e+03 5.063409805297851562e+01 2.447157096862792969e+01 1.117732405662536621e+00 3.966543436050415039e+00 1.525282740592956543e+00 2.690494060516357422e+00
3.323000000000000000e+03 5.333801269531250000e+01 2.643489837646484375e+01 9.348280429840087891e-01 7.553255081176757812e+00 2.546424865722656250e+00 4.034783363342285156e+00
3.324000000000000000e+03 4.776066207885742188e+01 2.369122695922851562e+01 1.062638521194458008e+00 2.182304382324218750e+00 9.734828472137451172e-01 1.592243909835815430e+00
3.325000000000000000e+03 4.847673034667968750e+01 2.299312782287597656e+01 1.002357959747314453e+00 2.778895378112792969e+00 1.134376049041748047e+00 1.835508465766906738e+00
3.326000000000000000e+03 6.019218444824218750e+01 3.024229431152343750e+01 3.976740837097167969e+00 1.108977222442626953e+01 4.519953727722167969e+00 -6.128025054931640625e-01
3.327000000000000000e+03 6.460687255859375000e+01 2.918656730651855469e+01 1.848570585250854492e+00 8.928935050964355469e+00 3.233251571655273438e+00 -8.589894175529479980e-01
3.328000000000000000e+03 4.399343872070312500e+01 2.298835372924804688e+01 7.673190832138061523e-01 1.166492581367492676e+00 5.801435112953186035e-01 6.141337752342224121e-01
3.329000000000000000e+03 4.257315444946289062e+01 2.213794708251953125e+01 6.850224733352661133e-01 1.059140563011169434e+00 5.232489109039306641e-01 4.168427884578704834e-01
3.330000000000000000e+03 4.332517623901367188e+01 2.218843650817871094e+01 7.365335822105407715e-01 1.178006052970886230e+00 5.743618607521057129e-01 5.574817061424255371e-01
3.331000000000000000e+03 3.538115310668945312e+01 2.297015762329101562e+01 1.813304275274276733e-01 2.436777204275131226e-01 1.275024414062500000e-01 -3.376476466655731201e-01
3.332000000000000000e+03 3.929373550415039062e+01 2.381779098510742188e+01 3.142708241939544678e-01 4.575183391571044922e-01 2.315367460250854492e-01 -1.291633099317550659e-01
3.333000000000000000e+03 4.700319290161132812e+01 2.363944435119628906e+01 1.020161747932434082e+00 1.866231083869934082e+00 8.659178018569946289e-01 1.345129489898681641e+00
3.334000000000000000e+03 4.551563262939453125e+01 2.364134025573730469e+01 8.913673758506774902e-01 1.378539681434631348e+00 6.809720993041992188e-01 9.209695458412170410e-01
3.335000000000000000e+03 3.422208786010742188e+01 2.336092758178710938e+01 1.218725070357322693e-01 1.670010238885879517e-01 8.666206151247024536e-02 -3.895744979381561279e-01
3.336000000000000000e+03 3.509671020507812500e+01 2.372755050659179688e+01 1.217980533838272095e-01 2.010294049978256226e-01 9.684824198484420776e-02 -3.753313720226287842e-01
3.337000000000000000e+03 4.099010848999023438e+01 2.285784530639648438e+01 5.202647447586059570e-01 7.133875489234924316e-01 3.700957000255584717e-01 1.239183470606803894e-01
3.338000000000000000e+03 3.855577850341796875e+01 2.411651611328125000e+01 2.373514622449874878e-01 3.883799910545349121e-01 1.877194344997406006e-01 -2.108380049467086792e-01
3.339000000000000000e+03 6.685018920898437500e+01 1.237135601043701172e+01 -5.413141250610351562e-01 7.861754894256591797e+00 2.196132183074951172e+00 -7.996259331703186035e-01
3.340000000000000000e+03 3.573317718505859375e+01 1.761627006530761719e+01 3.806286156177520752e-01 5.835535526275634766e-01 2.892546355724334717e-01 -7.878298312425613403e-02
3.341000000000000000e+03 3.823975372314453125e+01 2.333797264099121094e+01 2.927631437778472900e-01 4.204107224941253662e-01 2.139521539211273193e-01 -1.905454695224761963e-01
3.342000000000000000e+03 6.643333435058593750e+01 2.290900802612304688e+01 1.579614728689193726e-01 8.478966712951660156e+00 2.591078519821166992e+00 -1.368951320648193359e+00
3.343000000000000000e+03 6.530075073242187500e+01 1.579794788360595703e+01 -6.025569438934326172e-01 8.154130935668945312e+00 2.265472173690795898e+00 -8.666897416114807129e-01
3.344000000000000000e+03 6.214558410644531250e+01 2.921622848510742188e+01 2.537354707717895508e+00 9.938469886779785156e+00 3.742747306823730469e+00 -9.510790109634399414e-01
3.345000000000000000e+03 3.730846023559570312e+01 2.339090347290039062e+01 2.342476844787597656e-01 3.482785224914550781e-01 1.747578531503677368e-01 -2.611477971076965332e-01
3.346000000000000000e+03 4.908783721923828125e+01 2.223249816894531250e+01 8.564200997352600098e-01 3.392773628234863281e+00 1.274758100509643555e+00 1.964486598968505859e+00
3.347000000000000000e+03 3.665321350097656250e+01 1.800247955322265625e+01 4.164559543132781982e-01 6.702151894569396973e-01 3.260013461112976074e-01 -3.309396654367446899e-02
3.348000000000000000e+03 3.622931671142578125e+01 1.328333568572998047e+01 3.363706171512603760e-01 9.386776089668273926e-01 3.825144469738006592e-01 8.906983584165573120e-02
3.349000000000000000e+03 4.541822814941406250e+01 2.289598464965820312e+01 8.932250738143920898e-01 1.546337723731994629e+00 7.318688035011291504e-01 9.664960503578186035e-01
3.350000000000000000e+03 3.355580902099609375e+01 2.179496383666992188e+01 1.835476160049438477e-01 1.664613485336303711e-01 1.050026863813400269e-01 -3.572648763656616211e-01
3.351000000000000000e+03 3.550365066528320312e+01 2.161914062500000000e+01 2.743898928165435791e-01 3.226292431354522705e-01 1.791057437658309937e-01 -2.739315032958984375e-01
3.352000000000000000e+03 6.389997482299804688e+01 4.756889343261718750e+00 -4.821457862854003906e-01 7.201630592346191406e+00 2.015845537185668945e+00 -3.369569182395935059e-01
3.353000000000000000e+03 3.625617599487304688e+01 1.662045478820800781e+01 3.960181176662445068e-01 7.169923186302185059e-01 3.339031338691711426e-01 -6.297750398516654968e-03
3.354000000000000000e+03 6.519855499267578125e+01 2.604301452636718750e+01 9.271536469459533691e-01 8.820915222167968750e+00 2.924420833587646484e+00 -1.343486785888671875e+00
3.355000000000000000e+03 6.429530334472656250e+01 2.283360481262207031e+01 3.919267654418945312e-02 9.030329704284667969e+00 2.720856666564941406e+00 -1.276188373565673828e+00
3.356000000000000000e+03 6.424826812744140625e+01 -4.262957349419593811e-02 -3.451103866100311279e-01 7.043918132781982422e+00 2.009642362594604492e+00 -2.582730948925018311e-01
3.357000000000000000e+03 3.609597396850585938e+01 3.354325532913208008e+00 8.765139430761337280e-02 1.345601081848144531e+00 4.299757182598114014e-01 1.696915179491043091e-01
3.358000000000000000e+03 3.485410308837890625e+01 3.177821874618530273e+00 7.875147461891174316e-02 1.093396067619323730e+00 3.516442477703094482e-01 1.400573551654815674e-01
3.359000000000000000e+03 3.600881195068359375e+01 1.427058124542236328e+01 3.463842272758483887e-01 8.278072476387023926e-01 3.522574305534362793e-01 4.866537824273109436e-02
3.360000000000000000e+03 6.725292968750000000e+01 1.904244232177734375e+01 -3.184313178062438965e-01 8.209812164306640625e+00 2.367413997650146484e+00 -1.210847735404968262e+00
3.361000000000000000e+03 6.614015960693359375e+01 2.009393119812011719e+01 -2.734347581863403320e-01 8.431849479675292969e+00 2.447524309158325195e+00 -1.227245926856994629e+00
3.362000000000000000e+03 6.678791046142578125e+01 2.982419013977050781e+01 1.419305920600891113e+00 8.231452941894531250e+00 2.895227670669555664e+00 -6.980491876602172852e-01
3.363000000000000000e+03 6.516811370849609375e+01 7.415240764617919922e+00 -5.246204137802124023e-01 7.484806060791015625e+00 2.088055849075317383e+00 -4.807933866977691650e-01
3.364000000000000000e+03 6.461954498291015625e+01 3.802879095077514648e+00 -4.398108422756195068e-01 7.239911556243896484e+00 2.040030241012573242e+00 -3.514061272144317627e-01
3.365000000000000000e+03 6.632173156738281250e+01 1.113562583923339844e+01 -5.561237335205078125e-01 7.774683952331542969e+00 2.165568113327026367e+00 -6.997294425964355469e-01
3.366000000000000000e+03 3.638378906250000000e+01 9.912950515747070312e+00 2.449929863214492798e-01 1.159789323806762695e+00 4.214347004890441895e-01 1.491141468286514282e-01
3.367000000000000000e+03 3.772151947021484375e+01 1.193002510070800781e+01 3.223223686218261719e-01 1.304854512214660645e+00 4.881530404090881348e-01 2.107882201671600342e-01
3.368000000000000000e+03 6.507377624511718750e+01 2.392894744873046875e+01 3.321551382541656494e-01 8.866127014160156250e+00 2.759484767913818359e+00 -1.377037048339843750e+00
3.369000000000000000e+03 6.683473968505859375e+01 3.141510200500488281e+01 1.399156808853149414e+00 8.258693695068359375e+00 2.897355079650878906e+00 -3.439461290836334229e-01
3.370000000000000000e+03 6.624663543701171875e+01 1.418111419677734375e+01 -5.697923302650451660e-01 7.984735012054443359e+00 2.224482774734497070e+00 -8.579326272010803223e-01
3.371000000000000000e+03 3.403559875488281250e+01 -5.324637293815612793e-01 3.222213685512542725e-02 1.025714755058288574e+00 3.173810839653015137e-01 1.256381273269653320e-01
3.372000000000000000e+03 6.541568756103515625e+01 3.126933479309082031e+01 1.766287088394165039e+00 8.708874702453613281e+00 3.142548561096191406e+00 -3.192272484302520752e-01
3.373000000000000000e+03 6.711421203613281250e+01 -5.276212692260742188e+00 -1.896291822195053101e-01 7.362946987152099609e+00 2.151995420455932617e+00 -2.092447429895401001e-01
3.374000000000000000e+03 6.648292541503906250e+01 -4.362132549285888672e+00 -2.267692089080810547e-01 7.255788326263427734e+00 2.108705759048461914e+00 -2.233824729919433594e-01
3.375000000000000000e+03 6.439105987548828125e+01 1.973060989379882812e+01 -4.506191611289978027e-01 8.670804977416992188e+00 2.466055870056152344e+00 -1.030966639518737793e+00
3.376000000000000000e+03 6.511248016357421875e+01 2.296056747436523438e+01 1.201930940151214600e-01 8.826559066772460938e+00 2.684025526046752930e+00 -1.337774753570556641e+00
3.377000000000000000e+03 6.462706756591796875e+01 2.180475044250488281e+01 -1.483701467514038086e-01 8.851984024047851562e+00 2.611084222793579102e+00 -1.219443559646606445e+00
3.378000000000000000e+03 6.523957824707031250e+01 9.081764221191406250e+00 -5.625923871994018555e-01 7.591131687164306641e+00 2.108561754226684570e+00 -5.418478846549987793e-01
3.379000000000000000e+03 3.683000564575195312e+01 5.200879096984863281e+00 1.277905404567718506e-01 1.433157205581665039e+00 4.682843387126922607e-01 1.922902911901473999e-01
3.380000000000000000e+03 3.599496078491210938e+01 6.379615783691406250e+00 1.449248492717742920e-01 1.235266685485839844e+00 4.140574634075164795e-01 1.594300568103790283e-01
3.381000000000000000e+03 6.515090942382812500e+01 2.494632530212402344e+01 5.941510796546936035e-01 8.860234260559082031e+00 2.836315631866455078e+00 -1.382741451263427734e+00
3.382000000000000000e+03 3.419583129882812500e+01 -3.090951681137084961e+00 8.251104503870010376e-03 1.096234321594238281e+00 3.313456475734710693e-01 1.245900094509124756e-01
3.383000000000000000e+03 3.543357467651367188e+01 -3.065398693084716797e+00 1.747090951539576054e-03 1.345806121826171875e+00 4.042659699916839600e-01 1.366349756717681885e-01
3.384000000000000000e+03 3.563043212890625000e+01 -6.522957801818847656e+00 -2.203672006726264954e-02 1.428540587425231934e+00 4.219511747360229492e-01 1.238354817032814026e-01
3.385000000000000000e+03 3.617734527587890625e+01 1.891615676879882812e+01 3.875117897987365723e-01 5.467740893363952637e-01 2.802857458591461182e-01 -1.077166199684143066e-01
3.386000000000000000e+03 6.683304595947265625e+01 -7.057415962219238281e+00 -1.614789813756942749e-01 7.310959339141845703e+00 2.144844055175781250e+00 -1.847509443759918213e-01
3.387000000000000000e+03 6.448864746093750000e+01 -1.113662147521972656e+01 -1.451014131307601929e-01 6.888538837432861328e+00 2.023031234741210938e+00 -1.086222678422927856e-01
3.388000000000000000e+03 6.346487808227539062e+01 -9.926896095275878906e+00 -1.694655269384384155e-01 6.735938549041748047e+00 1.969941973686218262e+00 -1.117038056254386902e-01
3.389000000000000000e+03 6.324629211425781250e+01 -1.224523639678955078e+01 -1.411529481410980225e-01 6.675830841064453125e+00 1.960403442382812500e+00 -8.712255954742431641e-02
3.390000000000000000e+03 3.601135635375976562e+01 -1.170414638519287109e+01 -3.419966623187065125e-02 1.538377642631530762e+00 4.512533843517303467e-01 9.555471688508987427e-02
3.391000000000000000e+03 3.375227355957031250e+01 -8.108410835266113281e+00 -1.743369549512863159e-02 1.074694395065307617e+00 3.171782195568084717e-01 1.032545864582061768e-01
3.392000000000000000e+03 3.482671356201171875e+01 -1.619262313842773438e+01 -2.760375663638114929e-02 1.339280128479003906e+00 3.935028910636901855e-01 6.817432492971420288e-02
3.393000000000000000e+03 6.383419036865234375e+01 3.653912734985351562e+01 4.540784657001495361e-01 1.028823661804199219e+01 3.222694396972656250e+00 8.313141465187072754e-01
3.394000000000000000e+03 6.392983245849609375e+01 -1.571500015258789062e+01 -1.018792390823364258e-01 6.764067649841308594e+00 1.998656511306762695e+00 -6.759747862815856934e-02
3.395000000000000000e+03 6.866542816162109375e+01 3.565945053100585938e+01 5.601572394371032715e-01 8.007308006286621094e+00 2.570239782333374023e+00 1.794352382421493530e-01
3.396000000000000000e+03 5.735593032836914062e+01 2.789043045043945312e+01 1.095912098884582520e+00 1.404950904846191406e+01 4.543626308441162109e+00 -2.800222039222717285e-01
3.397000000000000000e+03 5.655457305908203125e+01 2.743320083618164062e+01 2.862526774406433105e-01 1.381295490264892578e+01 4.229762554168701172e+00 1.031979203224182129e+00
3.398000000000000000e+03 5.953366851806640625e+01 2.895656013488769531e+01 3.149460554122924805e+00 1.182809829711914062e+01 4.493267536163330078e+00 -1.271981239318847656e+00
3.399000000000000000e+03 5.911024475097656250e+01 2.846179008483886719e+01 2.564804077148437500e+00 1.230632114410400391e+01 4.461337566375732422e+00 -1.314247965812683105e+00
3.400000000000000000e+03 5.511344909667968750e+01 2.673935699462890625e+01 6.986724585294723511e-02 1.135386276245117188e+01 3.427118778228759766e+00 3.129146099090576172e+00
3.401000000000000000e+03 5.232135772705078125e+01 2.650991821289062500e+01 1.445919036865234375e+00 5.373604774475097656e+00 2.045857191085815430e+00 3.800882577896118164e+00
3.402000000000000000e+03 5.585831451416015625e+01 2.681749916076660156e+01 -7.491511851549148560e-02 1.251961803436279297e+01 3.733411073684692383e+00 2.182509660720825195e+00
3.403000000000000000e+03 5.216870498657226562e+01 2.590906715393066406e+01 1.257511734962463379e+00 5.341280937194824219e+00 1.979637861251831055e+00 3.545820713043212891e+00
3.404000000000000000e+03 5.162887954711914062e+01 2.525469779968261719e+01 1.150061964988708496e+00 4.829380512237548828e+00 1.793832778930664062e+00 3.180629253387451172e+00
3.405000000000000000e+03 5.039567565917968750e+01 2.341372299194335938e+01 9.194287061691284180e-01 4.047667026519775391e+00 1.490128755569458008e+00 2.454907655715942383e+00
3.406000000000000000e+03 5.273422622680664062e+01 2.629389572143554688e+01 1.194118976593017578e+00 6.264179229736328125e+00 2.237489461898803711e+00 3.886072397232055664e+00
3.407000000000000000e+03 5.163028335571289062e+01 2.464717483520507812e+01 9.652957320213317871e-01 4.968462467193603516e+00 1.780127406120300293e+00 3.009576559066772461e+00
3.408000000000000000e+03 5.125220489501953125e+01 2.323262023925781250e+01 7.131381630897521973e-01 4.828649044036865234e+00 1.662536144256591797e+00 2.608571767807006836e+00
3.409000000000000000e+03 5.110769271850585938e+01 2.465786170959472656e+01 1.095607519149780273e+00 4.372580051422119141e+00 1.640456199645996094e+00 2.884660005569458008e+00
3.410000000000000000e+03 4.459681701660156250e+01 2.226840782165527344e+01 8.240234851837158203e-01 1.497971057891845703e+00 6.965983510017395020e-01 8.192831873893737793e-01
3.411000000000000000e+03 4.691684722900390625e+01 2.285630035400390625e+01 9.751614928245544434e-01 2.062970876693725586e+00 9.114397168159484863e-01 1.359543681144714355e+00
3.412000000000000000e+03 4.523993301391601562e+01 2.209583473205566406e+01 8.697336316108703613e-01 1.670202136039733887e+00 7.619807124137878418e-01 9.728603363037109375e-01
3.413000000000000000e+03 4.470816802978515625e+01 2.296523094177246094e+01 8.274543285369873047e-01 1.345158815383911133e+00 6.517839431762695312e-01 7.812603712081909180e-01
3.414000000000000000e+03 3.960126113891601562e+01 2.243784523010253906e+01 4.466163814067840576e-01 6.194884181022644043e-01 3.198314309120178223e-01 -6.725485902279615402e-03
3.415000000000000000e+03 4.263397598266601562e+01 2.134557533264160156e+01 6.946982145309448242e-01 1.211039543151855469e+00 5.717213153839111328e-01 4.842534661293029785e-01
3.416000000000000000e+03 4.423052215576171875e+01 2.165901756286621094e+01 7.940058112144470215e-01 1.513714671134948730e+00 6.923161745071411133e-01 7.675728797912597656e-01
3.417000000000000000e+03 4.046327209472656250e+01 2.191634941101074219e+01 5.368671417236328125e-01 7.809770703315734863e-01 3.953532576560974121e-01 1.248342618346214294e-01
3.418000000000000000e+03 4.174590301513671875e+01 2.290507316589355469e+01 5.781384706497192383e-01 8.101286888122558594e-01 4.164801537990570068e-01 2.258995175361633301e-01
3.419000000000000000e+03 3.480063247680664062e+01 2.257822990417480469e+01 1.898350119590759277e-01 2.244782298803329468e-01 1.242939755320549011e-01 -3.446573019027709961e-01
3.420000000000000000e+03 3.646372604370117188e+01 2.087516593933105469e+01 3.455452024936676025e-01 4.454644620418548584e-01 2.373028993606567383e-01 -1.874178946018218994e-01
3.421000000000000000e+03 3.582806396484375000e+01 1.984610557556152344e+01 3.499589264392852783e-01 4.466930627822875977e-01 2.389955967664718628e-01 -1.763778030872344971e-01
3.422000000000000000e+03 4.769756317138671875e+01 2.291455841064453125e+01 9.942682385444641113e-01 2.406925916671752930e+00 1.020358204841613770e+00 1.586932301521301270e+00
3.423000000000000000e+03 4.841006851196289062e+01 2.218958091735839844e+01 9.032605290412902832e-01 3.020579814910888672e+00 1.177152037620544434e+00 1.799022793769836426e+00
3.424000000000000000e+03 3.718500518798828125e+01 2.393118095397949219e+01 1.806889921426773071e-01 3.059720695018768311e-01 1.459983140230178833e-01 -2.932969033718109131e-01
3.425000000000000000e+03 3.606383895874023438e+01 2.310626792907714844e+01 2.011360824108123779e-01 2.833965122699737549e-01 1.453597843647003174e-01 -3.128158748149871826e-01
3.426000000000000000e+03 3.713011932373046875e+01 1.452961063385009766e+01 3.861716687679290771e-01 1.008844375610351562e+00 4.185048341751098633e-01 1.174448728561401367e-01
3.427000000000000000e+03 3.886419677734375000e+01 1.691091156005859375e+01 4.881345629692077637e-01 1.108867168426513672e+00 4.791005253791809082e-01 1.979964971542358398e-01
3.428000000000000000e+03 6.200939941406250000e+01 3.082658576965332031e+01 3.098107337951660156e+00 9.998932838439941406e+00 3.929111957550048828e+00 -2.396886050701141357e-01
3.429000000000000000e+03 6.092809295654296875e+01 2.952913856506347656e+01 3.221983194351196289e+00 1.063332653045654297e+01 4.156592845916748047e+00 -9.190409183502197266e-01
3.430000000000000000e+03 3.560340499877929688e+01 2.076440048217773438e+01 3.069418370723724365e-01 3.731575310230255127e-01 2.040298134088516235e-01 -2.304345965385437012e-01
3.431000000000000000e+03 3.837982177734375000e+01 2.066477394104003906e+01 4.544158875942230225e-01 6.613127589225769043e-01 3.347185850143432617e-01 -2.586178109049797058e-02
3.432000000000000000e+03 4.600044631958007812e+01 2.200524330139160156e+01 8.919191956520080566e-01 1.938264131546020508e+00 8.490549921989440918e-01 1.145542025566101074e+00
3.433000000000000000e+03 4.625502014160156250e+01 2.362497711181640625e+01 9.637380242347717285e-01 1.600791215896606445e+00 7.693587541580200195e-01 1.128636240959167480e+00
3.434000000000000000e+03 6.230686950683593750e+01 1.270712763071060181e-01 -3.782895803451538086e-01 6.778928756713867188e+00 1.920191764831542969e+00 -1.909598410129547119e-01
3.435000000000000000e+03 6.465033721923828125e+01 1.769819259643554688e+01 -5.709896683692932129e-01 8.397930145263671875e+00 2.348082065582275391e+00 -9.265535473823547363e-01
3.436000000000000000e+03 6.496854400634765625e+01 2.085893058776855469e+01 -2.700839936733245850e-01 8.692488670349121094e+00 2.526721477508544922e+00 -1.180476903915405273e+00
3.437000000000000000e+03 3.741474914550781250e+01 1.054053688049316406e+01 2.725473046302795410e-01 1.330330491065979004e+00 4.808633625507354736e-01 2.021133303642272949e-01
3.438000000000000000e+03 6.436240386962890625e+01 8.284654617309570312e+00 -5.721293091773986816e-01 7.470962524414062500e+00 2.069649934768676758e+00 -4.570226371288299561e-01
3.439000000000000000e+03 6.602637481689453125e+01 9.818233489990234375e+00 -5.467316508293151855e-01 7.680395126342773438e+00 2.140099048614501953e+00 -6.226309537887573242e-01
3.440000000000000000e+03 6.543888854980468750e+01 1.057982254028320312e+01 -5.897458791732788086e-01 7.708681583404541016e+00 2.135680675506591797e+00 -6.145926117897033691e-01
3.441000000000000000e+03 6.507369232177734375e+01 2.829324913024902344e+01 1.541246294975280762e+00 8.807452201843261719e+00 3.104609489440917969e+00 -1.076888442039489746e+00
3.442000000000000000e+03 6.560326385498046875e+01 2.762773895263671875e+01 1.259583830833435059e+00 8.645512580871582031e+00 2.971529006958007812e+00 -1.177066683769226074e+00
3.443000000000000000e+03 3.767854690551757812e+01 2.090750455856323242e+00 5.894812569022178650e-02 1.705779075622558594e+00 5.294181704521179199e-01 2.039073556661605835e-01
3.444000000000000000e+03 6.293878555297851562e+01 2.484076499938964844e+01 4.943760633468627930e-01 9.604490280151367188e+00 3.029659748077392578e+00 -1.295681834220886230e+00
3.445000000000000000e+03 6.537173461914062500e+01 2.203969573974609375e+01 -4.742504656314849854e-02 8.714771270751953125e+00 2.600203752517700195e+00 -1.305038809776306152e+00
3.446000000000000000e+03 6.594679260253906250e+01 1.795295524597167969e+01 -4.729775786399841309e-01 8.301126480102539062e+00 2.348444700241088867e+00 -1.065453886985778809e+00
3.447000000000000000e+03 6.422583770751953125e+01 2.391133117675781250e+01 2.886333167552947998e-01 9.124855995178222656e+00 2.824046611785888672e+00 -1.334660172462463379e+00
3.448000000000000000e+03 6.316337966918945312e+01 5.706666469573974609e+00 -5.242095589637756348e-01 7.170164108276367188e+00 1.993786334991455078e+00 -3.110095858573913574e-01
3.449000000000000000e+03 6.417462921142578125e+01 6.546224117279052734e+00 -5.246648192405700684e-01 7.336769580841064453e+00 2.043631315231323242e+00 -3.959272801876068115e-01
3.450000000000000000e+03 6.295156097412109375e+01 3.105800247192382812e+01 2.666943550109863281e+00 9.595824241638183594e+00 3.678830146789550781e+00 -2.045994549989700317e-01
3.451000000000000000e+03 3.905364227294921875e+01 1.383630084991455078e+01 3.958103060722351074e-01 1.417179822921752930e+00 5.438970327377319336e-01 2.777367532253265381e-01
3.452000000000000000e+03 6.458028411865234375e+01 1.239201450347900391e+01 -6.510520577430725098e-01 7.821879386901855469e+00 2.151248216629028320e+00 -6.181194782257080078e-01
3.453000000000000000e+03 3.835201644897460938e+01 1.123043155670166016e+01 2.991705536842346191e-01 1.449803590774536133e+00 5.246922373771667480e-01 2.454806268215179443e-01
3.454000000000000000e+03 3.633954238891601562e+01 2.166397666931152344e+01 3.089700341224670410e-01 3.893662095069885254e-01 2.095008790493011475e-01 -2.287839055061340332e-01
3.455000000000000000e+03 3.693480300903320312e+01 2.254471778869628906e+01 2.855083048343658447e-01 3.826815187931060791e-01 2.004569470882415771e-01 -2.346744835376739502e-01
3.456000000000000000e+03 6.473677825927734375e+01 3.477066421508789062e+01 1.146216034889221191e+00 9.474610328674316406e+00 3.186247825622558594e+00 6.073563098907470703e-01
3.457000000000000000e+03 6.682122039794921875e+01 3.327919387817382812e+01 1.216869235038757324e+00 8.421670913696289062e+00 2.891561985015869141e+00 5.561328679323196411e-02
3.458000000000000000e+03 3.643380737304687500e+01 2.573768496513366699e-01 3.597081080079078674e-02 1.480708122253417969e+00 4.550036787986755371e-01 1.728873997926712036e-01
3.459000000000000000e+03 6.621778869628906250e+01 -3.143070697784423828e+00 -2.460237294435501099e-01 7.244472503662109375e+00 2.099534511566162109e+00 -2.419683039188385010e-01
3.460000000000000000e+03 6.367720794677734375e+01 -7.714462280273437500e+00 -2.015666067600250244e-01 6.794142723083496094e+00 1.977772831916809082e+00 -1.341359615325927734e-01
3.461000000000000000e+03 6.591822814941406250e+01 1.194002151489257812e+01 -5.825209021568298340e-01 7.820837020874023438e+00 2.171494722366333008e+00 -7.126654386520385742e-01
3.462000000000000000e+03 6.515827941894531250e+01 1.834798812866210938e+01 -5.042155981063842773e-01 8.426158905029296875e+00 2.376582860946655273e+00 -1.019382596015930176e+00
3.463000000000000000e+03 6.469457244873046875e+01 1.640734481811523438e+01 -6.256110072135925293e-01 8.251985549926757812e+00 2.287912368774414062e+00 -8.436789512634277344e-01
3.464000000000000000e+03 6.364399337768554688e+01 2.925958871841430664e+00 -4.354502856731414795e-01 7.079393386840820312e+00 1.993182897567749023e+00 -2.888679206371307373e-01
3.465000000000000000e+03 6.522257232666015625e+01 1.993023681640625000e+01 -3.593228757381439209e-01 8.566051483154296875e+00 2.462018489837646484e+00 -1.136935949325561523e+00
3.466000000000000000e+03 3.664406967163085938e+01 -2.890195369720458984e+00 4.584755748510360718e-03 1.572008728981018066e+00 4.729780256748199463e-01 1.534858047962188721e-01
3.467000000000000000e+03 3.655211257934570312e+01 -1.326304674148559570e+00 8.534533903002738953e-03 1.528202414512634277e+00 4.610210657119750977e-01 1.618347167968750000e-01
3.468000000000000000e+03 6.486131286621093750e+01 -6.816034317016601562e+00 -1.951277405023574829e-01 6.996516227722167969e+00 2.040416479110717773e+00 -1.654978990554809570e-01
3.469000000000000000e+03 6.121637344360351562e+01 -9.736212730407714844e+00 -1.911325901746749878e-01 6.355171680450439453e+00 1.849211812019348145e+00 -8.660651743412017822e-02
3.470000000000000000e+03 6.503804779052734375e+01 -1.950636291503906250e+01 -7.555746287107467651e-02 6.939959049224853516e+00 2.059320449829101562e+00 -5.513105913996696472e-02
3.471000000000000000e+03 6.663893890380859375e+01 -1.918198585510253906e+01 -6.836256384849548340e-02 7.214642047882080078e+00 2.143883705139160156e+00 -6.309725344181060791e-02
3.472000000000000000e+03 6.298522567749023438e+01 -1.464177036285400391e+01 -1.112928390502929688e-01 6.613202571868896484e+00 1.950572848320007324e+00 -6.966545432806015015e-02
3.473000000000000000e+03 3.550101470947265625e+01 -8.252967834472656250e+00 -2.045896649360656738e-02 1.421877622604370117e+00 4.204256236553192139e-01 1.144268736243247986e-01
3.474000000000000000e+03 3.877341461181640625e+01 1.531641960144042969e+01 4.410486221313476562e-01 1.206675529479980469e+00 4.943172335624694824e-01 2.208016514778137207e-01
3.475000000000000000e+03 3.681602096557617188e+01 1.560436725616455078e+01 3.949431777000427246e-01 8.828812241554260254e-01 3.833473026752471924e-01 6.601682305335998535e-02
3.476000000000000000e+03 6.562493896484375000e+01 4.678525447845458984e+00 -4.381521046161651611e-01 7.386493682861328125e+00 2.084502458572387695e+00 -4.167548418045043945e-01
3.477000000000000000e+03 6.223569488525390625e+01 -1.100629520416259766e+01 -1.682355850934982300e-01 6.513729095458984375e+00 1.903648018836975098e+00 -8.638726919889450073e-02
3.478000000000000000e+03 6.340860366821289062e+01 1.015723466873168945e+00 -3.857765495777130127e-01 6.967230319976806641e+00 1.974436163902282715e+00 -2.450858950614929199e-01
3.479000000000000000e+03 3.266679000854492188e+01 -1.687555885314941406e+01 -1.621619611978530884e-02 9.504562616348266602e-01 2.802720367908477783e-01 5.562169477343559265e-02
3.480000000000000000e+03 3.407250595092773438e+01 -1.928328514099121094e+01 -1.932500861585140228e-02 1.237716078758239746e+00 3.655173182487487793e-01 5.319050326943397522e-02
3.481000000000000000e+03 3.952871322631835938e+01 -9.655017852783203125e+00 -5.465902388095855713e-02 2.234521150588989258e+00 6.539586186408996582e-01 1.117100864648818970e-01
3.482000000000000000e+03 3.859550094604492188e+01 8.628621101379394531e+00 2.211484909057617188e-01 1.625637769699096680e+00 5.540359020233154297e-01 2.669985592365264893e-01
3.483000000000000000e+03 3.906754302978515625e+01 1.035928630828857422e+01 2.776268124580383301e-01 1.643663763999938965e+00 5.763871669769287109e-01 2.966248989105224609e-01
3.484000000000000000e+03 5.741922378540039062e+01 2.747711753845214844e+01 7.590122818946838379e-01 1.357505416870117188e+01 4.300220012664794922e+00 -1.187549382448196411e-01
3.485000000000000000e+03 5.296442031860351562e+01 2.670112037658691406e+01 1.277356505393981934e+00 6.567775249481201172e+00 2.353539466857910156e+00 4.110870838165283203e+00
3.486000000000000000e+03 5.665863800048828125e+01 2.695117378234863281e+01 6.272222101688385010e-02 1.311874675750732422e+01 3.954440593719482422e+00 1.047719120979309082e+00
3.487000000000000000e+03 5.824071502685546875e+01 2.794027900695800781e+01 1.678514242172241211e+00 1.315550708770751953e+01 4.450206756591796875e+00 -9.747133255004882812e-01
3.488000000000000000e+03 6.111293792724609375e+01 2.896043014526367188e+01 2.750303745269775391e+00 1.055800533294677734e+01 3.992492675781250000e+00 -1.101440072059631348e+00
3.489000000000000000e+03 6.060551071166992188e+01 2.875057792663574219e+01 2.727467298507690430e+00 1.094601631164550781e+01 4.102045059204101562e+00 -1.201832413673400879e+00
3.490000000000000000e+03 6.010362625122070312e+01 2.859255218505859375e+01 2.684159517288208008e+00 1.135915851593017578e+01 4.212995529174804688e+00 -1.277827024459838867e+00
3.491000000000000000e+03 5.392446517944335938e+01 2.688164901733398438e+01 7.715586423873901367e-01 8.919295310974121094e+00 2.907256126403808594e+00 4.172996520996093750e+00
3.492000000000000000e+03 5.594900131225585938e+01 2.630904197692871094e+01 -2.159864604473114014e-01 1.188226985931396484e+01 3.499885082244873047e+00 2.019367694854736328e+00
3.493000000000000000e+03 5.217766952514648438e+01 2.523953056335449219e+01 9.872571825981140137e-01 5.538274288177490234e+00 1.957659482955932617e+00 3.321526050567626953e+00
3.494000000000000000e+03 5.483334350585937500e+01 2.629476737976074219e+01 8.216997981071472168e-02 1.044453907012939453e+01 3.158012628555297852e+00 3.231336593627929688e+00
3.495000000000000000e+03 4.763493347167968750e+01 2.209354400634765625e+01 9.147999286651611328e-01 2.612422943115234375e+00 1.058166861534118652e+00 1.568867087364196777e+00
3.496000000000000000e+03 4.916334915161132812e+01 2.153195571899414062e+01 7.404751181602478027e-01 3.632927656173706055e+00 1.312020897865295410e+00 1.912115812301635742e+00
3.497000000000000000e+03 4.993273925781250000e+01 2.277971076965332031e+01 8.606607317924499512e-01 3.865278482437133789e+00 1.417781710624694824e+00 2.251457452774047852e+00
3.498000000000000000e+03 6.336525726318359375e+01 2.893680953979492188e+01 2.098946809768676758e+00 9.399338722229003906e+00 3.449485540390014648e+00 -9.993912577629089355e-01
3.499000000000000000e+03 6.147945404052734375e+01 2.980146026611328125e+01 3.058397293090820312e+00 1.028206062316894531e+01 4.002137184143066406e+00 -7.629928588867187500e-01
3.500000000000000000e+03 5.086201477050781250e+01 2.288653564453125000e+01 7.145648598670959473e-01 4.634788990020751953e+00 1.604806184768676758e+00 2.456924438476562500e+00
3.501000000000000000e+03 5.101704025268554688e+01 2.417390441894531250e+01 9.798871278762817383e-01 4.393792152404785156e+00 1.612103819847106934e+00 2.737637758255004883e+00
3.502000000000000000e+03 5.157474136352539062e+01 2.409266662597656250e+01 8.279958963394165039e-01 5.066836833953857422e+00 1.768449783325195312e+00 2.857736110687255859e+00
3.503000000000000000e+03 5.267234802246093750e+01 2.582199287414550781e+01 1.028081297874450684e+00 6.314726829528808594e+00 2.202842473983764648e+00 3.663711309432983398e+00
3.504000000000000000e+03 4.934652328491210938e+01 2.069696235656738281e+01 6.012969017028808594e-01 3.885371923446655273e+00 1.346000671386718750e+00 1.846340060234069824e+00
3.505000000000000000e+03 5.050187683105468750e+01 2.236880302429199219e+01 6.951668262481689453e-01 4.429840087890625000e+00 1.537502050399780273e+00 2.335811614990234375e+00
3.506000000000000000e+03 4.188162612915039062e+01 2.131561660766601562e+01 6.492006182670593262e-01 1.047578096389770508e+00 5.090336203575134277e-01 3.563036024570465088e-01
3.507000000000000000e+03 4.348481750488281250e+01 2.136674308776855469e+01 7.584623098373413086e-01 1.392138361930847168e+00 6.451802253723144531e-01 6.467177271842956543e-01
3.508000000000000000e+03 3.931231689453125000e+01 2.182070159912109375e+01 4.650024175643920898e-01 6.474910378456115723e-01 3.337480127811431885e-01 4.477429320104420185e-04
3.509000000000000000e+03 3.895357513427734375e+01 2.290991592407226562e+01 3.752553462982177734e-01 5.165037512779235840e-01 2.675277292728424072e-01 -1.019301787018775940e-01
3.510000000000000000e+03 4.121796417236328125e+01 2.127901077270507812e+01 6.261057257652282715e-01 9.635189771652221680e-01 4.768874347209930420e-01 2.847158014774322510e-01
3.511000000000000000e+03 6.343699264526367188e+01 2.682929801940917969e+01 1.292029023170471191e+00 9.463848114013671875e+00 3.226763248443603516e+00 -1.319922327995300293e+00
3.512000000000000000e+03 6.455110931396484375e+01 9.928160667419433594e+00 -6.080868840217590332e-01 7.605485439300537109e+00 2.099219560623168945e+00 -5.219198465347290039e-01
3.513000000000000000e+03 6.340199279785156250e+01 7.470656394958496094e+00 -5.758494734764099121e-01 7.322360038757324219e+00 2.023953199386596680e+00 -3.649253845214843750e-01
3.514000000000000000e+03 3.551261901855468750e+01 2.233894920349121094e+01 2.364720106124877930e-01 2.913376986980438232e-01 1.583429127931594849e-01 -3.008767962455749512e-01
3.515000000000000000e+03 6.347227478027343750e+01 2.248462295532226562e+01 -9.178666770458221436e-02 9.194478034973144531e+00 2.730807304382324219e+00 -1.169210433959960938e+00
3.516000000000000000e+03 4.023223114013671875e+01 1.875581359863281250e+01 5.707496404647827148e-01 1.145032525062561035e+00 5.147346854209899902e-01 2.817119657993316650e-01
3.517000000000000000e+03 3.622480010986328125e+01 2.239864349365234375e+01 2.611242830753326416e-01 3.340955376625061035e-01 1.785659492015838623e-01 -2.678433656692504883e-01
3.518000000000000000e+03 6.388286972045898438e+01 2.153039360046386719e+01 -2.502673268318176270e-01 8.973577499389648438e+00 2.616993188858032227e+00 -1.130660772323608398e+00
3.519000000000000000e+03 4.063077545166015625e+01 2.109862327575683594e+01 5.755584239959716797e-01 9.204780459403991699e-01 4.488109350204467773e-01 2.033023834228515625e-01
3.520000000000000000e+03 6.498863220214843750e+01 2.702179145812988281e+01 1.160014867782592773e+00 8.827920913696289062e+00 2.996380805969238281e+00 -1.248305797576904297e+00
3.521000000000000000e+03 3.807582473754882812e+01 5.738577365875244141e+00 1.358890533447265625e-01 1.652858018875122070e+00 5.366241335868835449e-01 2.296947687864303589e-01
3.522000000000000000e+03 3.723617553710937500e+01 1.709848976135253906e+01 4.342902600765228271e-01 8.218983411788940430e-01 3.768565654754638672e-01 4.389998316764831543e-02
3.523000000000000000e+03 6.528140258789062500e+01 1.375045108795166016e+01 -6.249248981475830078e-01 7.969301700592041016e+00 2.203313112258911133e+00 -7.558972835540771484e-01
3.524000000000000000e+03 6.432688903808593750e+01 2.594091796875000000e+01 9.317249059677124023e-01 9.150684356689453125e+00 3.024722814559936523e+00 -1.381077051162719727e+00
3.525000000000000000e+03 6.339303588867187500e+01 2.414290428161621094e+01 2.936727702617645264e-01 9.410836219787597656e+00 2.911352872848510742e+00 -1.299389243125915527e+00
3.526000000000000000e+03 6.363100051879882812e+01 1.967346572875976562e+01 -5.090426802635192871e-01 8.749916076660156250e+00 2.472261905670166016e+00 -9.313890933990478516e-01
3.527000000000000000e+03 6.359781265258789062e+01 2.497959709167480469e+01 6.074638366699218750e-01 9.359668731689453125e+00 2.990139722824096680e+00 -1.359358668327331543e+00
3.528000000000000000e+03 6.286275863647460938e+01 2.333839607238769531e+01 5.178570374846458435e-02 9.454595565795898438e+00 2.851914405822753906e+00 -1.166276216506958008e+00
3.529000000000000000e+03 6.533007049560546875e+01 1.712939071655273438e+01 -5.572801232337951660e-01 8.275238990783691406e+00 2.315387725830078125e+00 -9.498201012611389160e-01
3.530000000000000000e+03 3.787184143066406250e+01 7.040193557739257812e+00 1.593671292066574097e-01 1.568438649177551270e+00 5.183417201042175293e-01 2.237179279327392578e-01
3.531000000000000000e+03 3.801566696166992188e+01 9.638537406921386719e+00 2.490318566560745239e-01 1.478752374649047852e+00 5.183352828025817871e-01 2.346943318843841553e-01
3.532000000000000000e+03 6.427719116210937500e+01 1.344234561920166016e+01 -6.778062582015991211e-01 7.922546863555908203e+00 2.173422098159790039e+00 -6.323696970939636230e-01
3.533000000000000000e+03 6.586209106445312500e+01 1.507981395721435547e+01 -5.861498713493347168e-01 8.067559242248535156e+00 2.244422674179077148e+00 -8.749771714210510254e-01
3.534000000000000000e+03 3.914757537841796875e+01 1.210411834716796875e+01 3.348351120948791504e-01 1.545304417610168457e+00 5.640418529510498047e-01 2.959622442722320557e-01
3.535000000000000000e+03 3.823539352416992188e+01 1.262209510803222656e+01 3.488462269306182861e-01 1.336596250534057617e+00 5.056326985359191895e-01 2.348527163267135620e-01
3.536000000000000000e+03 6.215342712402343750e+01 2.998669624328613281e+01 2.845118999481201172e+00 9.910793304443359375e+00 3.826773643493652344e+00 -6.513174176216125488e-01
3.537000000000000000e+03 6.408464813232421875e+01 3.113780403137207031e+01 2.198571920394897461e+00 9.154041290283203125e+00 3.405784130096435547e+00 -2.543837428092956543e-01
3.538000000000000000e+03 6.504531860351562500e+01 1.458282756805419922e+01 -6.342936754226684570e-01 8.027757644653320312e+00 2.218039274215698242e+00 -7.709802985191345215e-01
3.539000000000000000e+03 6.495854949951171875e+01 1.143514919281005859e+01 -6.219856739044189453e-01 7.756666660308837891e+00 2.140404462814331055e+00 -6.145001649856567383e-01
3.540000000000000000e+03 6.465392303466796875e+01 1.517658901214599609e+01 -6.551677584648132324e-01 8.116321563720703125e+00 2.238346099853515625e+00 -7.620347142219543457e-01
3.541000000000000000e+03 6.310126876831054688e+01 -1.011512398719787598e+00 -3.404235541820526123e-01 6.854942321777343750e+00 1.954355597496032715e+00 -2.049194425344467163e-01
3.542000000000000000e+03 3.782239151000976562e+01 -2.670415878295898438e+00 -4.335680510848760605e-03 1.802557110786437988e+00 5.394664406776428223e-01 1.655967831611633301e-01
3.543000000000000000e+03 6.385913085937500000e+01 2.985234069824218750e+01 2.151234865188598633e+00 9.178073883056640625e+00 3.398792505264282227e+00 -7.050844430923461914e-01
3.544000000000000000e+03 3.910995101928710938e+01 4.100539982318878174e-01 1.468060538172721863e-02 2.020608425140380859e+00 6.105867624282836914e-01 2.084754407405853271e-01
3.545000000000000000e+03 6.291051483154296875e+01 3.908584594726562500e+00 -4.758991301059722900e-01 7.033497333526611328e+00 1.967279553413391113e+00 -2.675312161445617676e-01
3.546000000000000000e+03 3.790741729736328125e+01 1.616119384765625000e+01 4.374457299709320068e-01 1.006990075111389160e+00 4.333307147026062012e-01 1.313633918762207031e-01
3.547000000000000000e+03 6.602362823486328125e+01 -6.020735263824462891e+00 -1.926392018795013428e-01 7.189093112945556641e+00 2.098936080932617188e+00 -1.965344548225402832e-01
3.548000000000000000e+03 6.246240997314453125e+01 -8.694980621337890625e+00 -1.973790824413299561e-01 6.577806949615478516e+00 1.914128303527832031e+00 -1.087174415588378906e-01
3.549000000000000000e+03 3.697708892822265625e+01 1.923646926879882812e+01 4.214338362216949463e-01 6.185735464096069336e-01 3.120022118091583252e-01 -6.404732912778854370e-02
3.550000000000000000e+03 6.422068023681640625e+01 -1.345633411407470703e+01 -1.164667904376983643e-01 6.829162597656250000e+00 2.013808727264404297e+00 -8.634097874164581299e-02
3.551000000000000000e+03 3.835152435302734375e+01 -1.449666786193847656e+01 -4.936598613858222961e-02 1.988880395889282227e+00 5.818543434143066406e-01 7.721935212612152100e-02
3.552000000000000000e+03 3.683856964111328125e+01 -4.497674942016601562e+00 -1.268586982041597366e-02 1.626761794090270996e+00 4.842227697372436523e-01 1.423799693584442139e-01
3.553000000000000000e+03 6.073292922973632812e+01 -1.472821140289306641e+01 -1.254081279039382935e-01 6.226991176605224609e+00 1.830474972724914551e+00 -5.201492086052894592e-02
3.554000000000000000e+03 6.636400604248046875e+01 -1.752442932128906250e+01 -7.495893537998199463e-02 7.169258594512939453e+00 2.128289937973022461e+00 -7.046509534120559692e-02
3.555000000000000000e+03 6.723379516601562500e+01 -1.528836059570312500e+01 -7.949474453926086426e-02 7.331406116485595703e+00 2.175573348999023438e+00 -9.186746180057525635e-02
3.556000000000000000e+03 3.666634750366210938e+01 -1.705520057678222656e+01 -3.126494586467742920e-02 1.650844097137451172e+00 4.858737289905548096e-01 5.935173481702804565e-02
3.557000000000000000e+03 3.824055480957031250e+01 1.444561481475830078e+01 4.119596779346466064e-01 1.195939779281616211e+00 4.823698103427886963e-01 2.030994892120361328e-01
3.558000000000000000e+03 3.976577377319335938e+01 1.459353160858154297e+01 4.373146891593933105e-01 1.525822162628173828e+00 5.889410376548767090e-01 3.395287394523620605e-01
3.559000000000000000e+03 5.916709518432617188e+01 2.799474334716796875e+01 2.007384777069091797e+00 1.217780017852783203e+01 4.255555629730224609e+00 -1.230478763580322266e+00
3.560000000000000000e+03 5.707691955566406250e+01 2.700329017639160156e+01 2.455543428659439087e-01 1.319601249694824219e+01 4.032470226287841797e+00 5.099283456802368164e-01
3.561000000000000000e+03 5.869219207763671875e+01 2.797850608825683594e+01 1.872010946273803711e+00 1.271062755584716797e+01 4.374791622161865234e+00 -1.141818642616271973e+00
3.562000000000000000e+03 5.625166320800781250e+01 2.688661575317382812e+01 -4.372305050492286682e-02 1.287370586395263672e+01 3.848994731903076172e+00 1.599175691604614258e+00
3.563000000000000000e+03 5.452081680297851562e+01 2.618696022033691406e+01 2.100000828504562378e-01 9.812177658081054688e+00 3.006653070449829102e+00 3.459163665771484375e+00
3.564000000000000000e+03 5.946308517456054688e+01 2.547319412231445312e+01 2.402242124080657959e-01 1.119306468963623047e+01 3.429986715316772461e+00 -6.915147304534912109e-01
3.565000000000000000e+03 5.785913848876953125e+01 2.749716567993164062e+01 9.865171909332275391e-01 1.325362205505371094e+01 4.272041797637939453e+00 -4.988965690135955811e-01
3.566000000000000000e+03 6.044485855102539062e+01 2.927315521240234375e+01 3.221226453781127930e+00 1.102573966979980469e+01 4.274089813232421875e+00 -1.069536209106445312e+00
3.567000000000000000e+03 6.130855560302734375e+01 2.839047431945800781e+01 2.286337375640869141e+00 1.046164512634277344e+01 3.824394702911376953e+00 -1.232535481452941895e+00
3.568000000000000000e+03 5.304952239990234375e+01 2.600776863098144531e+01 9.189537167549133301e-01 6.948685646057128906e+00 2.360291719436645508e+00 3.788379907608032227e+00
3.569000000000000000e+03 5.099942398071289062e+01 2.203754425048828125e+01 5.376734733581542969e-01 4.840079307556152344e+00 1.613325834274291992e+00 2.300776720046997070e+00
3.570000000000000000e+03 5.218356704711914062e+01 2.459385490417480469e+01 7.927456498146057129e-01 5.711542129516601562e+00 1.951286315917968750e+00 3.122932195663452148e+00
3.571000000000000000e+03 6.335418319702148438e+01 1.889740371704101562e+01 -5.860493779182434082e-01 8.685585021972656250e+00 2.429860591888427734e+00 -8.479388356208801270e-01
3.572000000000000000e+03 6.406443786621093750e+01 1.699963951110839844e+01 -6.455212831497192383e-01 8.357981681823730469e+00 2.313738346099853516e+00 -8.075684905052185059e-01
3.573000000000000000e+03 5.214416885375976562e+01 2.396938705444335938e+01 6.460368633270263672e-01 5.743462562561035156e+00 1.916849732398986816e+00 2.925882816314697266e+00
3.574000000000000000e+03 4.672548675537109375e+01 2.111397171020507812e+01 8.224866986274719238e-01 2.448971748352050781e+00 9.814375638961791992e-01 1.328469157218933105e+00
3.575000000000000000e+03 5.326625061035156250e+01 2.517328071594238281e+01 5.634980797767639160e-01 7.296633720397949219e+00 2.358039617538452148e+00 3.414582729339599609e+00
3.576000000000000000e+03 5.273400115966796875e+01 2.521437263488769531e+01 7.832922339439392090e-01 6.409743785858154297e+00 2.157910823822021484e+00 3.414169549942016602e+00
3.577000000000000000e+03 6.420288085937500000e+01 2.063917160034179688e+01 -3.554534018039703369e-01 8.817544937133789062e+00 2.538627386093139648e+00 -1.084876179695129395e+00
3.578000000000000000e+03 6.401702880859375000e+01 1.833797836303710938e+01 -5.762562155723571777e-01 8.543744087219238281e+00 2.390246391296386719e+00 -8.930655121803283691e-01
3.579000000000000000e+03 4.345495223999023438e+01 2.045451354980468750e+01 7.272734045982360840e-01 1.521984696388244629e+00 6.747773885726928711e-01 6.696018576622009277e-01
3.580000000000000000e+03 3.805598831176757812e+01 2.008995819091796875e+01 4.501553177833557129e-01 6.779301166534423828e-01 3.384256362915039062e-01 -2.501250617206096649e-02
3.581000000000000000e+03 4.681800842285156250e+01 2.201569366455078125e+01 9.071736335754394531e-01 2.257690191268920898e+00 9.494591355323791504e-01 1.352831363677978516e+00
3.582000000000000000e+03 4.842354202270507812e+01 2.137091064453125000e+01 7.787083983421325684e-01 3.237301111221313477e+00 1.204802870750427246e+00 1.731377363204956055e+00
3.583000000000000000e+03 4.163614273071289062e+01 1.924417495727539062e+01 6.409043669700622559e-01 1.326845884323120117e+00 5.903250575065612793e-01 4.415763318538665771e-01
3.584000000000000000e+03 6.316495895385742188e+01 2.113702964782714844e+01 -3.718806207180023193e-01 9.063909530639648438e+00 2.607608556747436523e+00 -9.998413920402526855e-01
3.585000000000000000e+03 6.406439208984375000e+01 1.567590141296386719e+01 -6.769957542419433594e-01 8.187998771667480469e+00 2.253300905227661133e+00 -7.296786308288574219e-01
3.586000000000000000e+03 4.579633712768554688e+01 2.108106040954589844e+01 8.198964595794677734e-01 2.087629318237304688e+00 8.722577691078186035e-01 1.119100451469421387e+00
3.587000000000000000e+03 6.422818756103515625e+01 2.689454650878906250e+01 1.244654893875122070e+00 9.176927566528320312e+00 3.126474618911743164e+00 -1.317639350891113281e+00
3.588000000000000000e+03 6.225049591064453125e+01 2.468998908996582031e+01 3.922235667705535889e-01 9.853142738342285156e+00 3.073609828948974609e+00 -1.225901007652282715e+00
3.589000000000000000e+03 6.295024490356445312e+01 3.003002929687500000e+01 2.544947385787963867e+00 9.569395065307617188e+00 3.634302854537963867e+00 -6.150222420692443848e-01
3.590000000000000000e+03 6.184840393066406250e+01 2.868314361572265625e+01 2.331699848175048828e+00 1.012966346740722656e+01 3.738408803939819336e+00 -1.140250682830810547e+00
3.591000000000000000e+03 6.388495254516601562e+01 2.832292366027832031e+01 1.818919181823730469e+00 9.250914573669433594e+00 3.320950031280517578e+00 -1.110231399536132812e+00
3.592000000000000000e+03 6.362810516357421875e+01 9.187341690063476562e+00 -6.171792745590209961e-01 7.480683326721191406e+00 2.059051275253295898e+00 -4.264906644821166992e-01
3.593000000000000000e+03 6.240290832519531250e+01 6.663808345794677734e+00 -5.655029416084289551e-01 7.141680717468261719e+00 1.972853302955627441e+00 -2.741549313068389893e-01
3.594000000000000000e+03 6.395808410644531250e+01 1.085751342773437500e+01 -6.497977375984191895e-01 7.650524616241455078e+00 2.100218057632446289e+00 -5.017790794372558594e-01
3.595000000000000000e+03 6.281494140625000000e+01 2.573376464843750000e+01 8.478286862373352051e-01 9.722064971923828125e+00 3.170968294143676758e+00 -1.339580416679382324e+00
3.596000000000000000e+03 6.354355239868164062e+01 2.587262535095214844e+01 8.988485336303710938e-01 9.414483070373535156e+00 3.093999385833740234e+00 -1.373859047889709473e+00
3.597000000000000000e+03 6.092700195312500000e+01 2.458304786682128906e+01 1.769471615552902222e-01 1.031984138488769531e+01 3.149036645889282227e+00 -9.629055261611938477e-01
3.598000000000000000e+03 6.278831100463867188e+01 -6.493129253387451172e+00 -2.288010716438293457e-01 6.665855884552001953e+00 1.931116461753845215e+00 -1.341182589530944824e-01
3.599000000000000000e+03 6.400044250488281250e+01 -2.204371213912963867e+00 -3.003190755844116211e-01 6.958670139312744141e+00 1.997505307197570801e+00 -2.127766758203506470e-01
3.600000000000000000e+03 3.996491622924804688e+01 2.095098495483398438e+01 5.380560159683227539e-01 8.340747356414794922e-01 4.116392135620117188e-01 1.371681988239288330e-01
3.601000000000000000e+03 4.034625625610351562e+01 1.542873096466064453e+01 4.644324779510498047e-01 1.548250079154968262e+00 6.038047671318054199e-01 3.762771189212799072e-01
3.602000000000000000e+03 3.956433486938476562e+01 1.608641052246093750e+01 4.825570881366729736e-01 1.298661351203918457e+00 5.343655347824096680e-01 2.760066092014312744e-01
3.603000000000000000e+03 6.193010330200195312e+01 3.080860614776611328e+00 -4.641189873218536377e-01 6.853241443634033203e+00 1.916736721992492676e+00 -2.053331881761550903e-01
3.604000000000000000e+03 6.264968490600585938e+01 2.059157848358154297e+00 -4.273645579814910889e-01 6.907661437988281250e+00 1.944089055061340332e+00 -2.289430350065231323e-01
3.605000000000000000e+03 6.463085937500000000e+01 1.889712905883789062e+01 -4.994054138660430908e-01 8.556061744689941406e+00 2.416996717453002930e+00 -9.990087747573852539e-01
3.606000000000000000e+03 4.077692031860351562e+01 9.663394927978515625e+00 2.371465563774108887e-01 2.088293313980102539e+00 6.976319551467895508e-01 3.987283706665039062e-01
3.607000000000000000e+03 3.789307785034179688e+01 2.202611923217773438e+01 3.664960563182830811e-01 4.979696869850158691e-01 2.593397200107574463e-01 -1.414437890052795410e-01
3.608000000000000000e+03 6.222552871704101562e+01 2.260257530212402344e+01 -2.181739807128906250e-01 9.508833885192871094e+00 2.787197828292846680e+00 -9.707604050636291504e-01
3.609000000000000000e+03 6.352154159545898438e+01 2.041293525695800781e+01 -4.341776669025421143e-01 8.894230842590332031e+00 2.538015842437744141e+00 -9.884786605834960938e-01
3.610000000000000000e+03 3.737343215942382812e+01 3.731352806091308594e+00 9.344377368688583374e-02 1.611624121665954590e+00 5.115203857421875000e-01 2.068788558244705200e-01
3.611000000000000000e+03 6.653696441650390625e+01 3.536498260498046875e+01 7.864399552345275879e-01 8.834264755249023438e+00 2.886211395263671875e+00 3.883337080478668213e-01
3.612000000000000000e+03 6.522830963134765625e+01 3.299672698974609375e+01 1.610978007316589355e+00 8.974568367004394531e+00 3.175663948059082031e+00 1.982878148555755615e-01
3.613000000000000000e+03 3.805935287475585938e+01 -4.107364177703857422e+00 -1.921734958887100220e-02 1.871995568275451660e+00 5.558334589004516602e-01 1.527849733829498291e-01
3.614000000000000000e+03 4.002859497070312500e+01 -2.807613134384155273e+00 -3.913991153240203857e-02 2.286566972732543945e+00 6.742280721664428711e-01 1.870748251676559448e-01
3.615000000000000000e+03 6.181645965576171875e+01 1.151389884948730469e+01 -7.245781421661376953e-01 7.551027774810791016e+00 2.047935009002685547e+00 -2.886546850204467773e-01
3.616000000000000000e+03 6.356546401977539062e+01 1.193310642242431641e+01 -6.821478009223937988e-01 7.728600978851318359e+00 2.113935947418212891e+00 -5.000681281089782715e-01
3.617000000000000000e+03 6.159474945068359375e+01 1.227944731712341309e+00 -4.141633510589599609e-01 6.714009284973144531e+00 1.889953732490539551e+00 -1.711703985929489136e-01
3.618000000000000000e+03 6.473760986328125000e+01 -3.537247657775878906e+00 -2.653586268424987793e-01 7.032862663269042969e+00 2.030251264572143555e+00 -2.122737914323806763e-01
3.619000000000000000e+03 4.129180145263671875e+01 -1.433543491363525391e+01 -6.504983454942703247e-02 2.571542501449584961e+00 7.519477605819702148e-01 7.557752728462219238e-02
3.620000000000000000e+03 6.405588531494140625e+01 -5.619124889373779297e+00 -2.305405437946319580e-01 6.889825344085693359e+00 1.997785449028015137e+00 -1.685770153999328613e-01
3.621000000000000000e+03 6.151618576049804688e+01 -7.440443515777587891e+00 -2.255477309226989746e-01 6.439394474029541016e+00 1.864154100418090820e+00 -1.013881266117095947e-01
3.622000000000000000e+03 3.726428985595703125e+01 -6.248837471008300781e+00 -2.834495902061462402e-02 1.728434324264526367e+00 5.100268125534057617e-01 1.339808553457260132e-01
3.623000000000000000e+03 6.200090789794921875e+01 -1.344102096557617188e+01 -1.306723505258560181e-01 6.452237129211425781e+00 1.896469473838806152e+00 -7.059639692306518555e-02
3.624000000000000000e+03 6.393758392333984375e+01 -1.775695610046386719e+01 -8.638958632946014404e-02 6.737819194793701172e+00 1.995428919792175293e+00 -5.933779478073120117e-02
3.625000000000000000e+03 6.507992553710937500e+01 -1.791085433959960938e+01 -8.345837891101837158e-02 6.935602188110351562e+00 2.055643081665039062e+00 -6.735526025295257568e-02
3.626000000000000000e+03 3.689432907104492188e+01 -9.147703170776367188e+00 -3.839227929711341858e-02 1.680002093315124512e+00 4.924829602241516113e-01 1.146158650517463684e-01
3.627000000000000000e+03 3.819764328002929688e+01 -8.013339996337890625e+00 -4.056749865412712097e-02 1.931642413139343262e+00 5.673224329948425293e-01 1.188784390687942505e-01
3.628000000000000000e+03 6.141352081298828125e+01 5.866659164428710938e+00 -5.500321984291076660e-01 6.951611042022705078e+00 1.920473694801330566e+00 -1.933288723230361938e-01
3.629000000000000000e+03 4.105641937255859375e+01 8.592474937438964844e+00 1.934997737407684326e-01 2.229091167449951172e+00 7.267772555351257324e-01 4.098108112812042236e-01
3.630000000000000000e+03 5.960882568359375000e+01 2.850193214416503906e+01 2.658488988876342773e+00 1.178178691864013672e+01 4.332082748413085938e+00 -1.325431585311889648e+00
3.631000000000000000e+03 5.831840515136718750e+01 2.748527145385742188e+01 1.224898219108581543e+00 1.282243824005126953e+01 4.214200973510742188e+00 -8.091825842857360840e-01
3.632000000000000000e+03 5.576604080200195312e+01 2.551963615417480469e+01 -3.185397088527679443e-01 1.098660469055175781e+01 3.200419425964355469e+00 2.110298156738281250e+00
3.633000000000000000e+03 5.636621475219726562e+01 2.639508056640625000e+01 -1.769582480192184448e-01 1.232597064971923828e+01 3.644703626632690430e+00 1.493760108947753906e+00
3.634000000000000000e+03 5.789759445190429688e+01 2.710365867614746094e+01 7.128814458847045898e-01 1.296618175506591797e+01 4.103718757629394531e+00 -3.593506515026092529e-01
3.635000000000000000e+03 5.366775512695312500e+01 2.609415626525878906e+01 6.539898514747619629e-01 8.113534927368164062e+00 2.630257368087768555e+00 3.791888236999511719e+00
3.636000000000000000e+03 5.749623870849609375e+01 2.705595016479492188e+01 4.939262270927429199e-01 1.309439373016357422e+01 4.076496124267578125e+00 1.188637409359216690e-02
3.637000000000000000e+03 5.829087066650390625e+01 2.703001213073730469e+01 8.198922276496887207e-01 1.259267425537109375e+01 4.023769855499267578e+00 -6.061933636665344238e-01
3.638000000000000000e+03 5.677564620971679688e+01 2.647049522399902344e+01 -9.108524769544601440e-02 1.255450248718261719e+01 3.739025115966796875e+00 1.035405158996582031e+00
3.639000000000000000e+03 5.335776901245117188e+01 2.568680763244628906e+01 6.861434578895568848e-01 7.407387733459472656e+00 2.428059339523315430e+00 3.645689725875854492e+00
3.640000000000000000e+03 6.161690521240234375e+01 2.918014907836914062e+01 2.748971462249755859e+00 1.023595714569091797e+01 3.895478487014770508e+00 -9.962731599807739258e-01
3.641000000000000000e+03 5.649114608764648438e+01 2.589628791809082031e+01 -2.905658483505249023e-01 1.181130123138427734e+01 3.456220865249633789e+00 1.399437427520751953e+00
3.642000000000000000e+03 5.173830032348632812e+01 2.285725021362304688e+01 5.100206732749938965e-01 5.404761314392089844e+00 1.774434566497802734e+00 2.564046382904052734e+00
3.643000000000000000e+03 5.096848297119140625e+01 2.367423057556152344e+01 8.814918994903564453e-01 4.474859714508056641e+00 1.606905460357666016e+00 2.656490325927734375e+00
3.644000000000000000e+03 6.284556198120117188e+01 1.818700027465820312e+01 -6.769720911979675293e-01 8.593486785888671875e+00 2.374954223632812500e+00 -6.900311112403869629e-01
3.645000000000000000e+03 4.760869979858398438e+01 2.122951889038085938e+01 8.135145902633666992e-01 2.833802223205566406e+00 1.094195127487182617e+00 1.546522021293640137e+00
3.646000000000000000e+03 4.850313949584960938e+01 2.051210403442382812e+01 6.662687063217163086e-01 3.424455881118774414e+00 1.227217316627502441e+00 1.670434713363647461e+00
3.647000000000000000e+03 5.018179702758789062e+01 2.074488830566406250e+01 4.993527829647064209e-01 4.381306648254394531e+00 1.464197874069213867e+00 1.966626763343811035e+00
3.648000000000000000e+03 5.024264907836914062e+01 2.164410400390625000e+01 6.201450228691101074e-01 4.324262619018554688e+00 1.483322262763977051e+00 2.139386892318725586e+00
3.649000000000000000e+03 6.217535018920898438e+01 2.812024307250976562e+01 2.013688564300537109e+00 9.965338706970214844e+00 3.593708276748657227e+00 -1.226686596870422363e+00
3.650000000000000000e+03 5.335068511962890625e+01 2.378641700744628906e+01 1.925951987504959106e-01 7.174231052398681641e+00 2.210047960281372070e+00 2.813239574432373047e+00
3.651000000000000000e+03 5.275350189208984375e+01 2.453603744506835938e+01 5.859796404838562012e-01 6.465859889984130859e+00 2.115551710128784180e+00 3.160159826278686523e+00
3.652000000000000000e+03 6.347582626342773438e+01 1.483008480072021484e+01 -7.159936428070068359e-01 8.066157341003417969e+00 2.205049037933349609e+00 -6.040695309638977051e-01
3.653000000000000000e+03 3.765610885620117188e+01 2.279872894287109375e+01 3.105018436908721924e-01 4.202109873294830322e-01 2.192138433456420898e-01 -2.007438540458679199e-01
3.654000000000000000e+03 4.061445617675781250e+01 1.736041831970214844e+01 5.486555695533752441e-01 1.375815391540527344e+00 5.773412585258483887e-01 3.688511550426483154e-01
3.655000000000000000e+03 4.448156356811523438e+01 2.018153190612792969e+01 7.455487251281738281e-01 1.865536570549011230e+00 7.833256125450134277e-01 8.680375814437866211e-01
3.656000000000000000e+03 3.964960479736328125e+01 1.778614234924316406e+01 5.299793481826782227e-01 1.156381487846374512e+00 5.059082508087158203e-01 2.477476149797439575e-01
3.657000000000000000e+03 3.747329711914062500e+01 1.845548057556152344e+01 4.469618797302246094e-01 7.441700100898742676e-01 3.573395609855651855e-01 6.950249429792165756e-03
3.658000000000000000e+03 4.112073516845703125e+01 2.055704498291015625e+01 6.136180162429809570e-01 1.046584010124206543e+00 4.980606138706207275e-01 3.062592446804046631e-01
3.659000000000000000e+03 6.276302719116210938e+01 2.915398216247558594e+01 2.302614450454711914e+00 9.661103248596191406e+00 3.589115381240844727e+00 -9.786340594291687012e-01
3.660000000000000000e+03 6.281724548339843750e+01 2.844238090515136719e+01 2.076418638229370117e+00 9.678793907165527344e+00 3.526563882827758789e+00 -1.139775037765502930e+00
3.661000000000000000e+03 6.248293685913085938e+01 2.060316085815429688e+01 -5.146086215972900391e-01 9.068751335144042969e+00 2.566242933273315430e+00 -8.110471367835998535e-01
3.662000000000000000e+03 4.857565307617187500e+01 1.961254501342773438e+01 5.597787499427795410e-01 3.619767904281616211e+00 1.253864049911499023e+00 1.611786842346191406e+00
3.663000000000000000e+03 6.295783615112304688e+01 1.011424255371093750e+01 -6.614931821823120117e-01 7.505860805511474609e+00 2.053310394287109375e+00 -3.893319368362426758e-01
3.664000000000000000e+03 4.187986755371093750e+01 2.054605102539062500e+01 6.436972618103027344e-01 1.186619877815246582e+00 5.490951538085937500e-01 4.025388956069946289e-01
3.665000000000000000e+03 3.799401855468750000e+01 2.121380805969238281e+01 4.136371612548828125e-01 5.843434333801269531e-01 2.993941903114318848e-01 -8.571358770132064819e-02
3.666000000000000000e+03 6.327979278564453125e+01 1.308018970489501953e+01 -7.154340744018554688e-01 7.852288246154785156e+00 2.141056299209594727e+00 -5.101644992828369141e-01
3.667000000000000000e+03 6.267239761352539062e+01 1.930998039245605469e+01 -6.128003597259521484e-01 8.828872680664062500e+00 2.464821815490722656e+00 -7.520239949226379395e-01
3.668000000000000000e+03 3.763980865478515625e+01 1.958737564086914062e+01 4.404719173908233643e-01 6.715061664581298828e-01 3.335934281349182129e-01 -3.484598174691200256e-02
3.669000000000000000e+03 6.244922256469726562e+01 2.739141273498535156e+01 1.598876714706420898e+00 9.889792442321777344e+00 3.446600675582885742e+00 -1.308615207672119141e+00
3.670000000000000000e+03 6.266722869873046875e+01 2.659304237365722656e+01 1.237788558006286621e+00 9.803371429443359375e+00 3.312348127365112305e+00 -1.353356122970581055e+00
3.671000000000000000e+03 6.162067031860351562e+01 1.228355979919433594e+01 -7.386788129806518555e-01 7.599758625030517578e+00 2.058324098587036133e+00 -2.813472151756286621e-01
3.672000000000000000e+03 4.157357406616210938e+01 1.714787101745605469e+01 5.653699040412902832e-01 1.604104042053222656e+00 6.508421897888183594e-01 4.920690357685089111e-01
3.673000000000000000e+03 6.273218536376953125e+01 2.191273880004882812e+01 -2.871588170528411865e-01 9.285609245300292969e+00 2.699535131454467773e+00 -9.948781132698059082e-01
3.674000000000000000e+03 6.178071975708007812e+01 2.007756996154785156e+01 -6.254423856735229492e-01 9.017435073852539062e+00 2.517597675323486328e+00 -6.258826851844787598e-01
3.675000000000000000e+03 6.138818740844726562e+01 2.078415107727050781e+01 -5.898148417472839355e-01 9.225889205932617188e+00 2.590822219848632812e+00 -5.835930109024047852e-01
3.676000000000000000e+03 4.051042938232421875e+01 1.377305316925048828e+01 4.200798869132995605e-01 1.713761806488037109e+00 6.401525139808654785e-01 4.080688357353210449e-01
3.677000000000000000e+03 6.217490386962890625e+01 4.886212348937988281e+00 -5.135641694068908691e-01 6.990870952606201172e+00 1.943192124366760254e+00 -2.378770858049392700e-01
3.678000000000000000e+03 4.223013687133789062e+01 1.995385551452636719e+01 6.710824966430664062e-01 1.330233931541442871e+00 6.003949642181396484e-01 4.944457411766052246e-01
3.679000000000000000e+03 4.303346252441406250e+01 1.956532478332519531e+01 6.909056901931762695e-01 1.581937670707702637e+00 6.818529963493347168e-01 6.400077939033508301e-01
3.680000000000000000e+03 6.107806015014648438e+01 -7.066722512245178223e-01 -3.683487176895141602e-01 6.554470062255859375e+00 1.855836391448974609e+00 -1.359532922506332397e-01
3.681000000000000000e+03 6.099570465087890625e+01 -1.215501022338867188e+01 -1.551131159067153931e-01 6.290172100067138672e+00 1.840517640113830566e+00 -6.750851869583129883e-02
3.682000000000000000e+03 6.265760421752929688e+01 8.403357505798339844e+00 -6.193211674690246582e-01 7.318371295928955078e+00 2.009715080261230469e+00 -3.236390650272369385e-01
3.683000000000000000e+03 6.164168930053710938e+01 7.632176399230957031e+00 -6.094990968704223633e-01 7.120965957641601562e+00 1.953439950942993164e+00 -2.214438766241073608e-01
3.684000000000000000e+03 6.283366775512695312e+01 1.690036773681640625e+01 -7.221257090568542480e-01 8.371700286865234375e+00 2.294872283935546875e+00 -6.105331778526306152e-01
3.685000000000000000e+03 6.277751541137695312e+01 1.404421043395996094e+01 -7.409704327583312988e-01 7.941065311431884766e+00 2.160028457641601562e+00 -4.810940623283386230e-01
3.686000000000000000e+03 3.938359832763671875e+01 3.545452594757080078e+00 5.821068957448005676e-02 2.021196365356445312e+00 6.238220930099487305e-01 2.525334358215332031e-01
3.687000000000000000e+03 6.180743789672851562e+01 -1.901436328887939453e+00 -3.307727873325347900e-01 6.629388809204101562e+00 1.889584779739379883e+00 -1.525433808565139771e-01
3.688000000000000000e+03 4.053094863891601562e+01 3.193365335464477539e-01 -5.133060039952397346e-04 2.343896389007568359e+00 7.030149698257446289e-01 2.328895926475524902e-01
3.689000000000000000e+03 3.774898529052734375e+01 3.994408845901489258e-01 2.765417098999023438e-02 1.748898863792419434e+00 5.329658985137939453e-01 1.926423013210296631e-01
3.690000000000000000e+03 6.197640991210937500e+01 9.319010734558105469e+00 -6.570949554443359375e-01 7.320789813995361328e+00 1.999108433723449707e+00 -2.728676497936248779e-01
3.691000000000000000e+03 3.914106369018554688e+01 7.452557086944580078e+00 1.670031100511550903e-01 1.838688492774963379e+00 6.017075181007385254e-01 2.912090718746185303e-01
3.692000000000000000e+03 4.184046173095703125e+01 9.730311393737792969e+00 2.358987927436828613e-01 2.323656082153320312e+00 7.678664922714233398e-01 4.842867851257324219e-01
3.693000000000000000e+03 3.994630432128906250e+01 1.124006938934326172e+01 3.078676760196685791e-01 1.786916971206665039e+00 6.284353733062744141e-01 3.601517677307128906e-01
3.694000000000000000e+03 4.083852386474609375e+01 1.075809001922607422e+01 2.685171365737915039e-01 2.017430782318115234e+00 6.857843995094299316e-01 4.087092578411102295e-01
3.695000000000000000e+03 6.022723007202148438e+01 -8.443353652954101562e+00 -2.115243524312973022e-01 6.200143337249755859e+00 1.796585679054260254e+00 -7.671710848808288574e-02
3.696000000000000000e+03 3.810562515258789062e+01 1.768812179565429688e+01 4.728267192840576172e-01 9.011175036430358887e-01 4.121832549571990967e-01 9.537522494792938232e-02
3.697000000000000000e+03 3.860997009277343750e+01 -5.539465904235839844e+00 -3.358731791377067566e-02 2.008637666702270508e+00 5.925151109695434570e-01 1.418296396732330322e-01
3.698000000000000000e+03 4.047235870361328125e+01 -1.380315899848937988e+00 -3.063115663826465607e-02 2.347502231597900391e+00 6.950613260269165039e-01 2.090599983930587769e-01
3.699000000000000000e+03 3.777913284301757812e+01 -1.184080719947814941e+00 -1.008225808618590236e-04 1.775616526603698730e+00 5.326547026634216309e-01 1.789442747831344604e-01
3.700000000000000000e+03 5.794614410400390625e+01 -8.121541023254394531e+00 -2.146551311016082764e-01 5.814852714538574219e+00 1.680059194564819336e+00 -3.494329005479812622e-02
3.701000000000000000e+03 6.176366424560546875e+01 -1.601315116882324219e+01 -1.084918975830078125e-01 6.388118267059326172e+00 1.883888006210327148e+00 -5.122177675366401672e-02
3.702000000000000000e+03 3.757468795776367188e+01 8.068049430847167969e+00 2.023592740297317505e-01 1.474750161170959473e+00 5.031328201293945312e-01 2.183796614408493042e-01
3.703000000000000000e+03 6.152988815307617188e+01 2.402295684814453125e+01 9.386372566223144531e-02 9.993750572204589844e+00 3.026284456253051758e+00 -1.020958542823791504e+00
3.704000000000000000e+03 5.719102478027343750e+01 2.655050468444824219e+01 4.938092082738876343e-02 1.264446353912353516e+01 3.808153390884399414e+00 5.446071028709411621e-01
3.705000000000000000e+03 5.274023818969726562e+01 2.385926437377929688e+01 4.264536201953887939e-01 6.450412750244140625e+00 2.063059806823730469e+00 2.913196563720703125e+00
3.706000000000000000e+03 5.546051406860351562e+01 2.585284805297851562e+01 -2.256010174751281738e-01 1.093042755126953125e+01 3.211447954177856445e+00 2.438690423965454102e+00
3.707000000000000000e+03 5.875252151489257812e+01 2.753333091735839844e+01 1.430647969245910645e+00 1.249472904205322266e+01 4.177612781524658203e+00 -1.015489459037780762e+00
3.708000000000000000e+03 5.917075347900390625e+01 2.754201507568359375e+01 1.564799547195434570e+00 1.213743686676025391e+01 4.110671043395996094e+00 -1.142014384269714355e+00
3.709000000000000000e+03 5.444018173217773438e+01 2.566575431823730469e+01 1.212014406919479370e-01 9.419315338134765625e+00 2.862154960632324219e+00 3.300827026367187500e+00
3.710000000000000000e+03 5.761267852783203125e+01 2.663410377502441406e+01 2.348320186138153076e-01 1.264262104034423828e+01 3.863235712051391602e+00 1.042725369334220886e-01
3.711000000000000000e+03 5.690570449829101562e+01 2.596820640563964844e+01 -2.361651510000228882e-01 1.202269077301025391e+01 3.535957574844360352e+00 9.848706126213073730e-01
3.712000000000000000e+03 6.317953109741210938e+01 2.772717857360839844e+01 1.688868999481201172e+00 9.534139633178710938e+00 3.366902589797973633e+00 -1.244920372962951660e+00
3.713000000000000000e+03 5.422275924682617188e+01 2.599153900146484375e+01 2.892008721828460693e-01 9.159059524536132812e+00 2.834478139877319336e+00 3.492261171340942383e+00
3.714000000000000000e+03 5.366603469848632812e+01 2.532736396789550781e+01 4.072067141532897949e-01 7.978883266448974609e+00 2.515826940536499023e+00 3.403283834457397461e+00
3.715000000000000000e+03 5.175499725341796875e+01 2.198963546752929688e+01 3.677402138710021973e-01 5.457577228546142578e+00 1.747595191001892090e+00 2.349843978881835938e+00
3.716000000000000000e+03 5.133517074584960938e+01 2.245483970642089844e+01 5.483148097991943359e-01 5.038239002227783203e+00 1.675966143608093262e+00 2.422833919525146484e+00
3.717000000000000000e+03 5.025544738769531250e+01 1.885154914855957031e+01 2.586344182491302490e-01 4.632682323455810547e+00 1.467395067214965820e+00 1.691809654235839844e+00
3.718000000000000000e+03 5.024225997924804688e+01 1.978167152404785156e+01 3.658475577831268311e-01 4.525280952453613281e+00 1.467338562011718750e+00 1.832275032997131348e+00
3.719000000000000000e+03 5.148232269287109375e+01 2.360336494445800781e+01 7.545826435089111328e-01 5.030094146728515625e+00 1.735403060913085938e+00 2.740172386169433594e+00
3.720000000000000000e+03 5.101579284667968750e+01 2.070121192932128906e+01 3.358411490917205811e-01 5.020953655242919922e+00 1.607038378715515137e+00 2.057762384414672852e+00
3.721000000000000000e+03 3.865439605712890625e+01 2.204460525512695312e+01 4.085458219051361084e-01 5.751169323921203613e-01 2.950988411903381348e-01 -7.478417456150054932e-02
3.722000000000000000e+03 4.667243194580078125e+01 2.016189575195312500e+01 7.379347681999206543e-01 2.646492242813110352e+00 1.015328049659729004e+00 1.304622650146484375e+00
3.723000000000000000e+03 4.768991470336914062e+01 1.942984008789062500e+01 6.131692528724670410e-01 3.210863113403320312e+00 1.147209644317626953e+00 1.445299267768859863e+00
3.724000000000000000e+03 5.333611297607421875e+01 2.450002670288085938e+01 3.392037451267242432e-01 7.272925376892089844e+00 2.283638715744018555e+00 3.107855558395385742e+00
3.725000000000000000e+03 4.392094421386718750e+01 1.913395881652832031e+01 6.841784715652465820e-01 1.897843837738037109e+00 7.746067047119140625e-01 7.934113144874572754e-01
3.726000000000000000e+03 6.213476181030273438e+01 2.382529640197753906e+01 1.082419976592063904e-01 9.771275520324707031e+00 2.963855266571044922e+00 -1.122116923332214355e+00
3.727000000000000000e+03 6.212623977661132812e+01 2.557039642333984375e+01 7.469201087951660156e-01 1.000080013275146484e+01 3.224316120147705078e+00 -1.298821806907653809e+00
3.728000000000000000e+03 6.153865051269531250e+01 2.778901290893554688e+01 1.897202372550964355e+00 1.037131214141845703e+01 3.680554389953613281e+00 -1.317408561706542969e+00
3.729000000000000000e+03 4.559061813354492188e+01 2.002747917175292969e+01 7.498186230659484863e-01 2.244357347488403320e+00 8.982527256011962891e-01 1.083409547805786133e+00
3.730000000000000000e+03 4.864980697631835938e+01 1.871503639221191406e+01 4.500520229339599609e-01 3.779169559478759766e+00 1.268766522407531738e+00 1.522203087806701660e+00
3.731000000000000000e+03 6.298474121093750000e+01 1.998417091369628906e+01 -5.385269522666931152e-01 8.894639968872070312e+00 2.506834030151367188e+00 -8.489332795143127441e-01
3.732000000000000000e+03 6.225099182128906250e+01 1.753566932678222656e+01 -7.347735166549682617e-01 8.484364509582519531e+00 2.324877262115478516e+00 -5.474951863288879395e-01
3.733000000000000000e+03 6.280792236328125000e+01 1.551809215545654297e+01 -7.441996932029724121e-01 8.149980545043945312e+00 2.221734285354614258e+00 -5.367132425308227539e-01
3.734000000000000000e+03 6.344206237792968750e+01 1.761108398437500000e+01 -6.616297364234924316e-01 8.476871490478515625e+00 2.344572305679321289e+00 -7.558081150054931641e-01
3.735000000000000000e+03 6.003918838500976562e+01 1.262423801422119141e+01 -7.599806189537048340e-01 7.464572429656982422e+00 2.011377573013305664e+00 -6.160544604063034058e-02
3.736000000000000000e+03 6.157484817504882812e+01 2.197315597534179688e+01 -4.121463894844055176e-01 9.498144149780273438e+00 2.725799322128295898e+00 -7.537251114845275879e-01
3.737000000000000000e+03 3.946536636352539062e+01 6.108190059661865234e+00 1.342822909355163574e-01 1.974189162254333496e+00 6.325414180755615234e-01 2.998851537704467773e-01
3.738000000000000000e+03 3.852035522460937500e+01 4.345755100250244141e+00 9.965991228818893433e-02 1.815257668495178223e+00 5.744752883911132812e-01 2.416468113660812378e-01
3.739000000000000000e+03 4.090401077270507812e+01 6.182771205902099609e+00 1.171868965029716492e-01 2.278737068176269531e+00 7.187771797180175781e-01 3.480589687824249268e-01
3.740000000000000000e+03 4.198266983032226562e+01 1.072709274291992188e+01 2.569127380847930908e-01 2.273299932479858398e+00 7.590638399124145508e-01 4.878835976123809814e-01
3.741000000000000000e+03 3.905474472045898438e+01 2.034010124206542969e+01 4.970438778400421143e-01 7.787291407585144043e-01 3.827319145202636719e-01 5.825080350041389465e-02
3.742000000000000000e+03 4.046343612670898438e+01 1.636358451843261719e+01 5.106894969940185547e-01 1.455045938491821289e+00 5.897206664085388184e-01 3.728084564208984375e-01
3.743000000000000000e+03 4.319123458862304688e+01 1.833021163940429688e+01 6.302965879440307617e-01 1.830680489540100098e+00 7.382931113243103027e-01 6.795313358306884766e-01
3.744000000000000000e+03 6.213289260864257812e+01 1.481031036376953125e+01 -7.721460461616516113e-01 8.025537490844726562e+00 2.176017284393310547e+00 -4.123403131961822510e-01
3.745000000000000000e+03 6.196465301513671875e+01 2.637088775634765625e+01 1.115893006324768066e+00 1.012077522277832031e+01 3.371000289916992188e+00 -1.333076596260070801e+00
3.746000000000000000e+03 5.864797973632812500e+01 3.546806812286376953e+00 -4.813127517700195312e-01 6.361412525177001953e+00 1.764029979705810547e+00 -3.346938872709870338e-03
3.747000000000000000e+03 6.093025207519531250e+01 2.290078163146972656e+00 -4.509705305099487305e-01 6.664800167083740234e+00 1.864148974418640137e+00 -1.449082046747207642e-01
3.748000000000000000e+03 4.239588928222656250e+01 1.626860237121582031e+01 5.235028266906738281e-01 1.883661389350891113e+00 7.221492528915405273e-01 5.842638611793518066e-01
3.749000000000000000e+03 4.074371337890625000e+01 1.279680156707763672e+01 3.635310232639312744e-01 1.855237960815429688e+00 6.656306982040405273e-01 4.251719713211059570e-01
3.750000000000000000e+03 4.941644668579101562e+01 1.974558258056640625e+01 4.737967252731323242e-01 4.066702365875244141e+00 1.362149715423583984e+00 1.732257366180419922e+00
3.751000000000000000e+03 4.074245071411132812e+01 1.971397590637207031e+01 6.008844375610351562e-01 1.102972865104675293e+00 5.111571550369262695e-01 2.995241582393646240e-01
3.752000000000000000e+03 6.339881515502929688e+01 -1.937672042846679688e+01 -8.579123765230178833e-02 6.629333972930908203e+00 1.963062882423400879e+00 -5.383559688925743103e-02
3.753000000000000000e+03 5.909371185302734375e+01 -2.045994102954864502e-01 -3.814621567726135254e-01 6.239994525909423828e+00 1.757559657096862793e+00 -5.426792055368423462e-02
3.754000000000000000e+03 6.196575927734375000e+01 -5.248087406158447266e+00 -2.615277767181396484e-01 6.556489467620849609e+00 1.888488411903381348e+00 -1.300141811370849609e-01
3.755000000000000000e+03 6.043414306640625000e+01 4.573818445205688477e-01 -3.993267416954040527e-01 6.505496978759765625e+00 1.831851005554199219e+00 -1.142519712448120117e-01
3.756000000000000000e+03 4.145438003540039062e+01 1.624099349975585938e+01 5.202065706253051758e-01 1.664183259010314941e+00 6.553169488906860352e-01 4.828192889690399170e-01
3.757000000000000000e+03 3.966190719604492188e+01 9.270389556884765625e+00 2.362699955701828003e-01 1.840341091156005859e+00 6.229833364486694336e-01 3.221836686134338379e-01
3.758000000000000000e+03 6.344514846801757812e+01 1.626590156555175781e+01 -7.007418870925903320e-01 8.268355369567871094e+00 2.270284175872802734e+00 -6.763793230056762695e-01
3.759000000000000000e+03 6.197665405273437500e+01 1.344855117797851562e+01 -7.557296752929687500e-01 7.800657749176025391e+00 2.113478422164916992e+00 -3.508127331733703613e-01
3.760000000000000000e+03 6.331838226318359375e+01 -4.363789081573486328e+00 -2.666980028152465820e-01 6.793341636657714844e+00 1.957993149757385254e+00 -1.684555262327194214e-01
3.761000000000000000e+03 6.257566452026367188e+01 -3.117111921310424805e+00 -2.995327711105346680e-01 6.707190513610839844e+00 1.922297239303588867e+00 -1.645391434431076050e-01
3.762000000000000000e+03 4.180912399291992188e+01 3.385131835937500000e+00 2.811975404620170593e-02 2.538757085800170898e+00 7.700630426406860352e-01 3.187844455242156982e-01
3.763000000000000000e+03 3.798871231079101562e+01 -1.096871662139892578e+01 -4.686228558421134949e-02 1.919633388519287109e+00 5.618312954902648926e-01 1.033234447240829468e-01
3.764000000000000000e+03 6.183412551879882812e+01 -1.875054931640625000e+01 -8.989442884922027588e-02 6.365629196166992188e+00 1.882720351219177246e+00 -4.242464527487754822e-02
3.765000000000000000e+03 4.185483932495117188e+01 1.299348545074462891e+01 3.685794174671173096e-01 2.100073575973510742e+00 7.405959367752075195e-01 5.103680491447448730e-01
3.766000000000000000e+03 4.085703277587890625e+01 1.177677345275878906e+01 3.230620324611663818e-01 1.942666411399841309e+00 6.797185540199279785e-01 4.287951290607452393e-01
3.767000000000000000e+03 3.974713516235351562e+01 -4.711610794067382812e+00 -3.626952320337295532e-02 2.218347072601318359e+00 6.546232700347900391e-01 1.668090969324111938e-01
3.768000000000000000e+03 4.059089660644531250e+01 -5.818745613098144531e+00 -5.110959336161613464e-02 2.418673038482666016e+00 7.102690935134887695e-01 1.612951308488845825e-01
3.769000000000000000e+03 3.953594589233398438e+01 -6.942583084106445312e+00 -5.290707945823669434e-02 2.200966358184814453e+00 6.444178223609924316e-01 1.465486437082290649e-01
3.770000000000000000e+03 4.198139572143554688e+01 3.040861487388610840e-01 -2.452616579830646515e-02 2.656120538711547852e+00 7.894783020019531250e-01 2.654094994068145752e-01
3.771000000000000000e+03 5.875386810302734375e+01 -1.196273326873779297e+01 -1.613283753395080566e-01 5.888277530670166016e+00 1.718084692955017090e+00 -4.529090225696563721e-02
3.772000000000000000e+03 5.975178527832031250e+01 -1.334039402008056641e+01 -1.440715342760086060e-01 6.059507846832275391e+00 1.774630904197692871e+00 -5.553918331861495972e-02
3.773000000000000000e+03 5.390632629394531250e+01 2.443355369567871094e+01 1.126014962792396545e-01 7.997542381286621094e+00 2.433043003082275391e+00 2.941282510757446289e+00
3.774000000000000000e+03 5.516641616821289062e+01 2.595473098754882812e+01 -9.861662983894348145e-02 1.065981292724609375e+01 3.168358802795410156e+00 2.845977783203125000e+00
3.775000000000000000e+03 6.028194808959960938e+01 2.738078689575195312e+01 1.600508689880371094e+00 1.120730304718017578e+01 3.842343330383300781e+00 -1.295381188392639160e+00
3.776000000000000000e+03 5.518500900268554688e+01 2.559548759460449219e+01 -1.747698336839675903e-01 1.030030536651611328e+01 3.037660598754882812e+00 2.616487503051757812e+00
3.777000000000000000e+03 6.102142333984375000e+01 2.397518539428710938e+01 -3.486785339191555977e-03 1.014037799835205078e+01 3.041067361831665039e+00 -8.993330001831054688e-01
3.778000000000000000e+03 5.802369308471679688e+01 2.674478721618652344e+01 4.855628907680511475e-01 1.253948783874511719e+01 3.907515048980712891e+00 -2.834881842136383057e-01
3.779000000000000000e+03 6.020677566528320312e+01 2.803557014465332031e+01 2.184939622879028320e+00 1.129380130767822266e+01 4.043622493743896484e+00 -1.325363636016845703e+00
3.780000000000000000e+03 6.109851074218750000e+01 2.687615585327148438e+01 1.348399043083190918e+00 1.062068653106689453e+01 3.590725660324096680e+00 -1.319481134414672852e+00
3.781000000000000000e+03 5.267665863037109375e+01 2.317746543884277344e+01 3.077571690082550049e-01 6.348659992218017578e+00 1.996925115585327148e+00 2.685799598693847656e+00
3.782000000000000000e+03 5.515617370605468750e+01 2.371201324462890625e+01 -3.568855226039886475e-01 9.084989547729492188e+00 2.618431329727172852e+00 2.182877540588378906e+00
3.783000000000000000e+03 6.091300582885742188e+01 2.755110359191894531e+01 1.769886612892150879e+00 1.074024009704589844e+01 3.753038167953491211e+00 -1.329568147659301758e+00
3.784000000000000000e+03 6.080358505249023438e+01 2.029140472412109375e+01 -6.839839220046997070e-01 9.145534515380859375e+00 2.538465261459350586e+00 -4.046119153499603271e-01
3.785000000000000000e+03 6.204053878784179688e+01 2.133083915710449219e+01 -4.635794758796691895e-01 9.277704238891601562e+00 2.644237518310546875e+00 -7.853143215179443359e-01
3.786000000000000000e+03 5.135788345336914062e+01 2.161845397949218750e+01 4.077618718147277832e-01 5.166113853454589844e+00 1.672162771224975586e+00 2.259351491928100586e+00
3.787000000000000000e+03 5.404629135131835938e+01 2.495497894287109375e+01 1.618968844413757324e-01 8.442154884338378906e+00 2.581215620040893555e+00 3.106162548065185547e+00
3.788000000000000000e+03 5.215050125122070312e+01 2.239212226867675781e+01 3.286466002464294434e-01 5.822181701660156250e+00 1.845248460769653320e+00 2.478725433349609375e+00
3.789000000000000000e+03 6.176446533203125000e+01 2.711401939392089844e+01 1.508507013320922852e+00 1.023649501800537109e+01 3.523500442504882812e+00 -1.340268373489379883e+00
3.790000000000000000e+03 4.460619354248046875e+01 1.841282272338867188e+01 6.449270248413085938e-01 2.199404239654541016e+00 8.532993793487548828e-01 9.006353616714477539e-01
3.791000000000000000e+03 4.245663833618164062e+01 1.878265762329101562e+01 6.528168916702270508e-01 1.582705020904541016e+00 6.706565618515014648e-01 5.795652866363525391e-01
3.792000000000000000e+03 4.156476593017578125e+01 1.412539482116699219e+01 4.266590774059295654e-01 1.907750010490417480e+00 7.003227472305297852e-01 4.892775714397430420e-01
3.793000000000000000e+03 4.304224014282226562e+01 1.722097778320312500e+01 5.739542841911315918e-01 1.943452239036560059e+00 7.552219629287719727e-01 6.652257442474365234e-01
3.794000000000000000e+03 5.266252136230468750e+01 2.252605056762695312e+01 2.143262326717376709e-01 6.291878223419189453e+00 1.951861381530761719e+00 2.503083467483520508e+00
3.795000000000000000e+03 5.203191375732421875e+01 2.336375236511230469e+01 5.335216522216796875e-01 5.658650398254394531e+00 1.857651591300964355e+00 2.723751544952392578e+00
3.796000000000000000e+03 3.884273147583007812e+01 1.839236259460449219e+01 5.057926774024963379e-01 9.496368765830993652e-01 4.366288781166076660e-01 1.363069117069244385e-01
3.797000000000000000e+03 6.170093917846679688e+01 2.311341476440429688e+01 -1.677394360303878784e-01 9.724702835083007812e+00 2.867089033126831055e+00 -9.241383075714111328e-01
3.798000000000000000e+03 6.155340957641601562e+01 2.468922805786132812e+01 3.111942112445831299e-01 1.010779476165771484e+01 3.125696659088134766e+00 -1.120963096618652344e+00
3.799000000000000000e+03 4.672624969482421875e+01 1.920588493347167969e+01 6.503637433052062988e-01 2.833719491958618164e+00 1.045225024223327637e+00 1.280227899551391602e+00
3.800000000000000000e+03 4.374956130981445312e+01 1.773541831970214844e+01 6.045497655868530273e-01 2.044513463973999023e+00 7.947189211845397949e-01 7.563484311103820801e-01
3.801000000000000000e+03 6.160327148437500000e+01 1.688794517517089844e+01 -7.811202406883239746e-01 8.355985641479492188e+00 2.272459745407104492e+00 -3.978592753410339355e-01
3.802000000000000000e+03 3.984077072143554688e+01 2.005903816223144531e+01 5.518676638603210449e-01 9.127015471458435059e-01 4.393707811832427979e-01 1.689835488796234131e-01
3.803000000000000000e+03 3.942125701904296875e+01 1.919559478759765625e+01 5.399060845375061035e-01 9.617115855216979980e-01 4.504852890968322754e-01 1.646192520856857300e-01
3.804000000000000000e+03 6.239672088623046875e+01 1.264318084716796875e+01 -7.303183674812316895e-01 7.729712486267089844e+00 2.099818229675292969e+00 -3.906666934490203857e-01
3.805000000000000000e+03 5.706178665161132812e+01 -6.674618721008300781e+00 -2.467130124568939209e-01 5.664209365844726562e+00 1.625248908996582031e+00 -1.186316367238759995e-02
3.806000000000000000e+03 5.981133651733398438e+01 -4.875658988952636719e+00 -2.808739244937896729e-01 6.205379486083984375e+00 1.777351617813110352e+00 -7.838156074285507202e-02
3.807000000000000000e+03 4.114475250244140625e+01 7.508951187133789062e+00 1.452046483755111694e-01 2.278345823287963867e+00 7.270651459693908691e-01 3.804150223731994629e-01
3.808000000000000000e+03 6.145728683471679688e+01 2.542419624328613281e+01 5.957440733909606934e-01 1.026133346557617188e+01 3.257123231887817383e+00 -1.191655874252319336e+00
3.809000000000000000e+03 5.928556823730468750e+01 2.606234931945800781e+01 4.933964908123016357e-01 1.152156066894531250e+01 3.604486942291259766e+00 -7.656872868537902832e-01
3.810000000000000000e+03 5.023599624633789062e+01 1.796955871582031250e+01 1.704009473323822021e-01 4.667716026306152344e+00 1.451435089111328125e+00 1.555260300636291504e+00
3.811000000000000000e+03 4.779743957519531250e+01 1.852144813537597656e+01 5.121662616729736328e-01 3.401253938674926758e+00 1.174026012420654297e+00 1.400628209114074707e+00
3.812000000000000000e+03 6.137987136840820312e+01 1.021584701538085938e+01 -6.892864108085632324e-01 7.341706275939941406e+00 1.995725989341735840e+00 -2.222433090209960938e-01
3.813000000000000000e+03 6.228444290161132812e+01 1.084779167175292969e+01 -6.960938572883605957e-01 7.530030727386474609e+00 2.050181150436401367e+00 -3.401647806167602539e-01
3.814000000000000000e+03 6.071337890625000000e+01 1.344736194610595703e+01 -7.796550989151000977e-01 7.695836067199707031e+00 2.074854373931884766e+00 -1.651485711336135864e-01
3.815000000000000000e+03 6.219052505493164062e+01 1.620441436767578125e+01 -7.644478678703308105e-01 8.249458312988281250e+00 2.245503187179565430e+00 -4.724115431308746338e-01
3.816000000000000000e+03 6.036180877685546875e+01 9.650325775146484375e+00 -6.760334968566894531e-01 7.150375843048095703e+00 1.942302823066711426e+00 -1.154785454273223877e-01
3.817000000000000000e+03 4.201548767089843750e+01 1.184779262542724609e+01 3.056190907955169678e-01 2.204160213470458984e+00 7.529338002204895020e-01 5.005174279212951660e-01
3.818000000000000000e+03 6.025820922851562500e+01 3.314497947692871094e+00 -4.803178608417510986e-01 6.612326145172119141e+00 1.839602470397949219e+00 -1.116176620125770569e-01
3.819000000000000000e+03 5.988322830200195312e+01 1.568264961242675781e+00 -4.324209690093994141e-01 6.456959247589111328e+00 1.807361483573913574e+00 -9.379844367504119873e-02
3.820000000000000000e+03 6.061780548095703125e+01 6.860578060150146484e+00 -5.837068557739257812e-01 6.907198905944824219e+00 1.897047638893127441e+00 -1.368050575256347656e-01
3.821000000000000000e+03 6.201097106933593750e+01 1.932856941223144531e+01 -6.584237217903137207e-01 8.865289688110351562e+00 2.462059736251831055e+00 -6.264550089836120605e-01
3.822000000000000000e+03 6.171797561645507812e+01 1.819232368469238281e+01 -7.417109012603759766e-01 8.617042541503906250e+00 2.362599372863769531e+00 -4.848071634769439697e-01
3.823000000000000000e+03 6.093550109863281250e+01 8.614192008972167969e+00 -6.447126269340515137e-01 7.124640941619873047e+00 1.943978548049926758e+00 -1.672176271677017212e-01
3.824000000000000000e+03 6.063365554809570312e+01 -6.167036533355712891e+00 -2.539910078048706055e-01 6.317108631134033203e+00 1.818935394287109375e+00 -9.332177788019180298e-02
3.825000000000000000e+03 5.973818588256835938e+01 -1.488403201103210449e+00 -3.503310084342956543e-01 6.299281120300292969e+00 1.784685015678405762e+00 -8.198010176420211792e-02
3.826000000000000000e+03 4.209302520751953125e+01 -1.605957031250000000e+00 -5.255006998777389526e-02 2.704154729843139648e+00 7.954814434051513672e-01 2.341677844524383545e-01
3.827000000000000000e+03 4.273477172851562500e+01 4.846654415130615234e+00 3.514258936047554016e-02 2.738139390945434570e+00 8.319845795631408691e-01 3.791678845882415771e-01
3.828000000000000000e+03 5.965795516967773438e+01 6.044815540313720703e+00 -5.581585764884948730e-01 6.706343650817871094e+00 1.844455599784851074e+00 -6.374682486057281494e-02
3.829000000000000000e+03 4.176344299316406250e+01 -6.775849342346191406e+00 -7.072245329618453979e-02 2.673150062561035156e+00 7.807282805442810059e-01 1.394462138414382935e-01
3.830000000000000000e+03 5.597640991210937500e+01 -1.823456764221191406e+01 -1.019296869635581970e-01 5.327370643615722656e+00 1.567632317543029785e+00 1.213589496910572052e-02
3.831000000000000000e+03 3.949974822998046875e+01 -1.277165889739990234e+01 -5.573124065995216370e-02 2.201445341110229492e+00 6.437142491340637207e-01 9.171524643898010254e-02
3.832000000000000000e+03 3.911890029907226562e+01 2.087431907653808594e+00 4.885017126798629761e-02 2.001585721969604492e+00 6.151307821273803711e-01 2.260368019342422485e-01
3.833000000000000000e+03 4.053507614135742188e+01 1.928371787071228027e+00 2.379042096436023712e-02 2.314289569854736328e+00 7.014239430427551270e-01 2.590903937816619873e-01
3.834000000000000000e+03 6.291522216796875000e+01 -2.145433616638183594e+01 -6.878989189863204956e-02 6.541878700256347656e+00 1.941926717758178711e+00 -4.410495236515998840e-02
3.835000000000000000e+03 5.662908554077148438e+01 -1.206779479980468750e+01 -1.678609699010848999e-01 5.491417884826660156e+00 1.597067117691040039e+00 -8.171132765710353851e-03
3.836000000000000000e+03 3.628624725341796875e+01 -2.160194396972656250e+01 -3.242543339729309082e-02 1.597001314163208008e+00 4.693727493286132812e-01 4.932799562811851501e-02
3.837000000000000000e+03 2.777784347534179688e+01 -3.357812881469726562e+01 -2.488975040614604950e-02 9.411890059709548950e-02 2.076874487102031708e-02 3.330650553107261658e-02
3.838000000000000000e+03 2.941804885864257812e+01 -2.867156028747558594e+01 -2.625420317053794861e-02 3.932088017463684082e-01 1.100863739848136902e-01 -2.063513360917568207e-02
3.839000000000000000e+03 5.967551803588867188e+01 2.798719215393066406e+01 2.100712537765502930e+00 1.172239494323730469e+01 4.146932601928710938e+00 -1.302468180656433105e+00
3.840000000000000000e+03 5.775180435180664062e+01 2.620306396484375000e+01 7.305014878511428833e-02 1.224773120880126953e+01 3.696234464645385742e+00 1.384310275316238403e-01
3.841000000000000000e+03 5.870809555053710938e+01 2.683489418029785156e+01 8.255006074905395508e-01 1.219665813446044922e+01 3.906647682189941406e+00 -7.267217040061950684e-01
3.842000000000000000e+03 6.075424575805664062e+01 2.817654800415039062e+01 2.234284400939941406e+00 1.087145137786865234e+01 3.931720733642578125e+00 -1.299275636672973633e+00
3.843000000000000000e+03 5.642190170288085938e+01 2.545798301696777344e+01 -3.804247975349426270e-01 1.132729911804199219e+01 3.284062385559082031e+00 1.503596425056457520e+00
3.844000000000000000e+03 6.112006378173828125e+01 2.252752304077148438e+01 -3.679611384868621826e-01 9.729259490966796875e+00 2.808389425277709961e+00 -7.185045480728149414e-01
3.845000000000000000e+03 5.464324188232421875e+01 2.532716560363769531e+01 -1.170872058719396591e-02 9.388818740844726562e+00 2.813133001327514648e+00 2.950941324234008789e+00
3.846000000000000000e+03 5.711700820922851562e+01 2.553297424316406250e+01 -3.097147941589355469e-01 1.168769836425781250e+01 3.413395166397094727e+00 8.576766848564147949e-01
3.847000000000000000e+03 5.967502975463867188e+01 2.739934730529785156e+01 1.548386216163635254e+00 1.164484405517578125e+01 3.957968950271606445e+00 -1.223088979721069336e+00
3.848000000000000000e+03 6.125895690917968750e+01 2.350903701782226562e+01 -1.158942654728889465e-01 9.956311225891113281e+00 2.952125072479248047e+00 -8.825602531433105469e-01
3.849000000000000000e+03 5.487146377563476562e+01 2.561778640747070312e+01 -5.119966715574264526e-02 9.881991386413574219e+00 2.949237346649169922e+00 2.851186990737915039e+00
3.850000000000000000e+03 5.171954345703125000e+01 2.096491622924804688e+01 2.320896685123443604e-01 5.505178451538085938e+00 1.721180438995361328e+00 2.128430366516113281e+00
3.851000000000000000e+03 6.105742263793945312e+01 1.966626358032226562e+01 -7.146344780921936035e-01 8.953918457031250000e+00 2.471785068511962891e+00 -4.164086580276489258e-01
3.852000000000000000e+03 6.128327941894531250e+01 1.890744590759277344e+01 -7.382478713989257812e-01 8.797632217407226562e+00 2.417815446853637695e+00 -4.268451035022735596e-01
3.853000000000000000e+03 5.202924728393554688e+01 1.951528167724609375e+01 1.953146234154701233e-02 5.688212871551513672e+00 1.712323188781738281e+00 1.835465788841247559e+00
3.854000000000000000e+03 4.946059036254882812e+01 1.883465385437011719e+01 3.694175779819488525e-01 4.179880619049072266e+00 1.364789366722106934e+00 1.624934077262878418e+00
3.855000000000000000e+03 5.106374359130859375e+01 1.876056289672851562e+01 1.176634356379508972e-01 5.099461555480957031e+00 1.565137386322021484e+00 1.697922945022583008e+00
3.856000000000000000e+03 5.111600494384765625e+01 1.973795890808105469e+01 2.053953409194946289e-01 5.111279964447021484e+00 1.595002651214599609e+00 1.880350232124328613e+00
3.857000000000000000e+03 5.334799194335937500e+01 2.307561111450195312e+01 8.868692815303802490e-02 7.066252708435058594e+00 2.146481752395629883e+00 2.584165334701538086e+00
3.858000000000000000e+03 5.575639343261718750e+01 2.471671485900878906e+01 -4.029701054096221924e-01 1.025449466705322266e+01 2.955457448959350586e+00 1.984724879264831543e+00
3.859000000000000000e+03 6.129383850097656250e+01 2.616196060180664062e+01 9.522578120231628418e-01 1.045288944244384766e+01 3.421544075012207031e+00 -1.273412704467773438e+00
3.860000000000000000e+03 3.869598388671875000e+01 1.963980865478515625e+01 4.988017976284027100e-01 7.971291542053222656e-01 3.887792825698852539e-01 5.988789722323417664e-02
3.861000000000000000e+03 6.151565170288085938e+01 1.551771736145019531e+01 -7.929781675338745117e-01 8.100649833679199219e+00 2.192301511764526367e+00 -3.337338268756866455e-01
3.862000000000000000e+03 6.043348693847656250e+01 2.198362159729003906e+01 -5.415921211242675781e-01 9.648284912109375000e+00 2.732007741928100586e+00 -4.392600059509277344e-01
3.863000000000000000e+03 6.092792129516601562e+01 2.139479064941406250e+01 -5.736271739006042480e-01 9.423760414123535156e+00 2.655040025711059570e+00 -5.225284099578857422e-01
3.864000000000000000e+03 6.033953857421875000e+01 2.078965950012207031e+01 -6.703440546989440918e-01 9.277770042419433594e+00 2.582227706909179688e+00 -3.273039162158966064e-01
3.865000000000000000e+03 5.255209732055664062e+01 2.197544670104980469e+01 1.448082923889160156e-01 6.216794490814208984e+00 1.908480882644653320e+00 2.347944974899291992e+00
3.866000000000000000e+03 4.564867019653320312e+01 1.893421936035156250e+01 6.619191169738769531e-01 2.451429128646850586e+00 9.340044260025024414e-01 1.071240544319152832e+00
3.867000000000000000e+03 4.328497695922851562e+01 1.651927947998046875e+01 5.383828282356262207e-01 2.090164661407470703e+00 7.885642051696777344e-01 6.954683661460876465e-01
3.868000000000000000e+03 4.192268371582031250e+01 1.799527740478515625e+01 6.000264286994934082e-01 1.571183919906616211e+00 6.513630747795104980e-01 5.200583934783935547e-01
3.869000000000000000e+03 4.874988937377929688e+01 1.782654953002929688e+01 3.520168066024780273e-01 3.920380830764770508e+00 1.281719326972961426e+00 1.443570613861083984e+00
3.870000000000000000e+03 4.109216690063476562e+01 1.834642601013183594e+01 5.946359634399414062e-01 1.335874795913696289e+00 5.791532397270202637e-01 3.988122642040252686e-01
3.871000000000000000e+03 4.950032806396484375e+01 1.796483612060546875e+01 2.779304087162017822e-01 4.276858806610107422e+00 1.366436719894409180e+00 1.516633152961730957e+00
3.872000000000000000e+03 6.127825927734375000e+01 1.289456653594970703e+01 -7.597526907920837402e-01 7.654046535491943359e+00 2.068288087844848633e+00 -2.339282333850860596e-01
3.873000000000000000e+03 5.858989715576171875e+01 1.133930873870849609e+01 -7.034164071083068848e-01 7.024707317352294922e+00 1.896387219429016113e+00 1.327935159206390381e-01
3.874000000000000000e+03 6.081472396850585938e+01 1.482428264617919922e+01 -8.061533570289611816e-01 7.920523166656494141e+00 2.134310960769653320e+00 -1.959749311208724976e-01
3.875000000000000000e+03 6.141806793212890625e+01 1.414571857452392578e+01 -7.785434722900390625e-01 7.862693786621093750e+00 2.125245094299316406e+00 -2.833064496517181396e-01
3.876000000000000000e+03 4.251077270507812500e+01 1.536814212799072266e+01 4.786390364170074463e-01 2.026176214218139648e+00 7.514445781707763672e-01 5.984236598014831543e-01
3.877000000000000000e+03 4.199432373046875000e+01 8.842003822326660156e+00 1.813407242298126221e-01 2.384479761123657227e+00 7.697461843490600586e-01 4.516454041004180908e-01
3.878000000000000000e+03 4.318544006347656250e+01 1.054284572601318359e+01 2.204636782407760620e-01 2.610537767410278320e+00 8.493003845214843750e-01 5.610747933387756348e-01
3.879000000000000000e+03 6.084453201293945312e+01 1.217084026336669922e+01 -7.515577673912048340e-01 7.495943069458007812e+00 2.023315668106079102e+00 -1.630092263221740723e-01
3.880000000000000000e+03 4.270896530151367188e+01 1.434958553314208984e+01 4.262445569038391113e-01 2.175156354904174805e+00 7.804203033447265625e-01 6.156570315361022949e-01
3.881000000000000000e+03 4.443704605102539062e+01 1.606183433532714844e+01 4.916195869445800781e-01 2.481206178665161133e+00 8.918477296829223633e-01 8.348968029022216797e-01
3.882000000000000000e+03 4.242686462402343750e+01 7.819954872131347656e+00 1.265597045421600342e-01 2.552349805831909180e+00 8.036728501319885254e-01 4.325319826602935791e-01
3.883000000000000000e+03 5.954617309570312500e+01 4.292064666748046875e+00 -5.063022375106811523e-01 6.558683872222900391e+00 1.815714478492736816e+00 -6.247739493846893311e-02
3.884000000000000000e+03 4.501118850708007812e+01 1.747084236145019531e+01 5.727875232696533203e-01 2.491077661514282227e+00 9.191595315933227539e-01 9.492231011390686035e-01
3.885000000000000000e+03 4.688674545288085938e+01 1.825935935974121094e+01 5.479671359062194824e-01 3.037333965301513672e+00 1.075590372085571289e+00 1.243183732032775879e+00
3.886000000000000000e+03 4.453235626220703125e+01 -3.101624727249145508e+00 -1.051343008875846863e-01 3.218906641006469727e+00 9.341317415237426758e-01 2.117126137018203735e-01
3.887000000000000000e+03 4.337122344970703125e+01 -4.282060623168945312e+00 -8.688202500343322754e-02 2.963337659835815430e+00 8.629366755485534668e-01 1.982028633356094360e-01
3.888000000000000000e+03 5.878286743164062500e+01 5.206647872924804688e+00 -5.275150537490844727e-01 6.492428302764892578e+00 1.789474010467529297e+00 2.675937255844473839e-03
3.889000000000000000e+03 5.839659500122070312e+01 1.986165165901184082e+00 -4.400621056556701660e-01 6.233204364776611328e+00 1.737942695617675781e+00 -2.356006298214197159e-03
3.890000000000000000e+03 6.105208206176757812e+01 1.758367156982421875e+01 -7.921680808067321777e-01 8.483071327209472656e+00 2.307271003723144531e+00 -3.172622323036193848e-01
3.891000000000000000e+03 6.091693115234375000e+01 1.621150016784667969e+01 -8.092139363288879395e-01 8.190675735473632812e+00 2.214438676834106445e+00 -2.421970218420028687e-01
3.892000000000000000e+03 4.060778427124023438e+01 3.386704206466674805e+00 4.175315424799919128e-02 2.278375625610351562e+00 6.960386633872985840e-01 2.773536741733551025e-01
3.893000000000000000e+03 4.188363265991210938e+01 1.942132472991943359e+00 6.842050061095505953e-05 2.591883182525634766e+00 7.775854468345642090e-01 2.936133444309234619e-01
3.894000000000000000e+03 5.875330352783203125e+01 7.006074428558349609e+00 -5.795112252235412598e-01 6.621613025665283203e+00 1.812630534172058105e+00 2.456793934106826782e-02
3.895000000000000000e+03 5.979031372070312500e+01 7.901780605316162109e+00 -6.181431412696838379e-01 6.869988918304443359e+00 1.875553727149963379e+00 -5.467125028371810913e-02
3.896000000000000000e+03 5.929777145385742188e+01 -7.122168540954589844e+00 -2.392641305923461914e-01 6.062309265136718750e+00 1.746913552284240723e+00 -5.664481595158576965e-02
3.897000000000000000e+03 4.322549438476562500e+01 2.143105030059814453e+00 -2.296287752687931061e-02 2.891208887100219727e+00 8.604738116264343262e-01 3.231879770755767822e-01
3.898000000000000000e+03 4.097011947631835938e+01 -1.122952842712402344e+01 -6.708765774965286255e-02 2.494466781616210938e+00 7.282137274742126465e-01 1.087637171149253845e-01
3.899000000000000000e+03 5.904769897460937500e+01 -3.575196981430053711e+00 -3.079723417758941650e-01 6.115058898925781250e+00 1.742125988006591797e+00 -5.937115103006362915e-02
3.900000000000000000e+03 6.118886566162109375e+01 -3.998024463653564453e+00 -2.930805385112762451e-01 6.464383125305175781e+00 1.851390838623046875e+00 -1.197026371955871582e-01
3.901000000000000000e+03 5.891947937011718750e+01 -9.506936073303222656e+00 -2.054570168256759644e-01 5.952592372894287109e+00 1.724140644073486328e+00 -5.121730640530586243e-02
3.902000000000000000e+03 5.700998306274414062e+01 -1.538462829589843750e+01 -1.267492771148681641e-01 5.524676799774169922e+00 1.619378209114074707e+00 1.194696291349828243e-03
3.903000000000000000e+03 5.845328140258789062e+01 -1.447555637359619141e+01 -1.353680789470672607e-01 5.798484325408935547e+00 1.698934793472290039e+00 -3.025941736996173859e-02
3.904000000000000000e+03 6.047452926635742188e+01 -1.760727500915527344e+01 -9.487041085958480835e-02 6.161447525024414062e+00 1.819973230361938477e+00 -3.723330050706863403e-02
3.905000000000000000e+03 6.074360656738281250e+01 2.309106063842773438e+01 -2.940838038921356201e-01 9.934703826904296875e+00 2.892185926437377930e+00 -6.858971714973449707e-01
3.906000000000000000e+03 5.538618087768554688e+01 2.516312789916992188e+01 -2.697387635707855225e-01 1.022801017761230469e+01 2.987481355667114258e+00 2.377092123031616211e+00
3.907000000000000000e+03 5.878627777099609375e+01 2.588036918640136719e+01 2.371661216020584106e-01 1.167198467254638672e+01 3.572745323181152344e+00 -4.658068716526031494e-01
3.908000000000000000e+03 5.820119857788085938e+01 2.631791114807128906e+01 2.912110090255737305e-01 1.215561771392822266e+01 3.734048604965209961e+00 -2.498790174722671509e-01
3.909000000000000000e+03 5.395991516113281250e+01 2.374606132507324219e+01 -1.267139334231615067e-02 7.847985744476318359e+00 2.350594282150268555e+00 2.703439712524414062e+00
3.910000000000000000e+03 5.611747360229492188e+01 2.509207344055175781e+01 -4.103223681449890137e-01 1.086817836761474609e+01 3.137356996536254883e+00 1.742150545120239258e+00
3.911000000000000000e+03 6.020228576660156250e+01 2.505036544799804688e+01 2.245263755321502686e-01 1.073155212402343750e+01 3.286823511123657227e+00 -8.533620834350585938e-01
3.912000000000000000e+03 5.732266235351562500e+01 2.610496330261230469e+01 -9.485986083745956421e-02 1.221033477783203125e+01 3.634642362594604492e+00 5.354638695716857910e-01
3.913000000000000000e+03 6.034037399291992188e+01 2.438292312622070312e+01 5.624954123049974442e-03 1.047997856140136719e+01 3.145681142807006836e+00 -7.670279741287231445e-01
3.914000000000000000e+03 5.745193481445312500e+01 2.569950103759765625e+01 -2.070606052875518799e-01 1.188711261749267578e+01 3.504015684127807617e+00 5.381191968917846680e-01
3.915000000000000000e+03 5.492388534545898438e+01 2.479974746704101562e+01 -1.878541857004165649e-01 9.435847282409667969e+00 2.774397850036621094e+00 2.587892532348632812e+00
3.916000000000000000e+03 5.099077987670898438e+01 1.783926773071289062e+01 5.267371237277984619e-02 5.060904979705810547e+00 1.534073591232299805e+00 1.554519772529602051e+00
3.917000000000000000e+03 6.081129837036132812e+01 2.525478172302246094e+01 4.256174862384796143e-01 1.052678585052490234e+01 3.285720825195312500e+00 -1.050665378570556641e+00
3.918000000000000000e+03 6.049524688720703125e+01 2.372061920166015625e+01 -1.643223911523818970e-01 1.020499515533447266e+01 3.012201786041259766e+00 -6.929656267166137695e-01
3.919000000000000000e+03 5.280321502685546875e+01 2.102164459228515625e+01 -5.224944557994604111e-03 6.343530654907226562e+00 1.901491641998291016e+00 2.114357948303222656e+00
3.920000000000000000e+03 5.685128402709960938e+01 2.512580871582031250e+01 -4.150431454181671143e-01 1.122601985931396484e+01 3.243292808532714844e+00 1.120901584625244141e+00
3.921000000000000000e+03 6.009101104736328125e+01 2.269020080566406250e+01 -4.729761481285095215e-01 9.921220779418945312e+00 2.834473371505737305e+00 -4.028845131397247314e-01
3.922000000000000000e+03 5.313696670532226562e+01 2.167657852172851562e+01 -1.533589325845241547e-02 6.639123916625976562e+00 1.987136363983154297e+00 2.241703271865844727e+00
3.923000000000000000e+03 5.361380004882812500e+01 1.810553741455078125e+01 -3.596128523349761963e-01 6.495824813842773438e+00 1.840863585472106934e+00 1.423207521438598633e+00
3.924000000000000000e+03 5.084532546997070312e+01 1.695050811767578125e+01 1.815295964479446411e-02 4.978005409240722656e+00 1.498847603797912598e+00 1.433527350425720215e+00
3.925000000000000000e+03 5.330717849731445312e+01 2.236401367187500000e+01 5.445247050374746323e-03 6.901378154754638672e+00 2.072046995162963867e+00 2.403960943222045898e+00
3.926000000000000000e+03 5.443142318725585938e+01 2.448825263977050781e+01 -9.251890331506729126e-02 8.755836486816406250e+00 2.598995447158813477e+00 2.733270883560180664e+00
3.927000000000000000e+03 4.957154464721679688e+01 1.716461944580078125e+01 1.987096816301345825e-01 4.341758728027343750e+00 1.362140536308288574e+00 1.416323542594909668e+00
3.928000000000000000e+03 4.236211013793945312e+01 1.703363227844238281e+01 5.671005249023437500e-01 1.784253716468811035e+00 7.054062485694885254e-01 5.811023712158203125e-01
3.929000000000000000e+03 5.943696594238281250e+01 1.342447566986083984e+01 -7.715888023376464844e-01 7.476660728454589844e+00 2.011521577835083008e+00 3.810961917042732239e-02
3.930000000000000000e+03 4.594008636474609375e+01 1.792082595825195312e+01 5.672730803489685059e-01 2.736949920654296875e+00 9.912669062614440918e-01 1.084975957870483398e+00
3.931000000000000000e+03 6.231009292602539062e+01 1.870894622802734375e+01 -6.829326748847961426e-01 8.710179328918457031e+00 2.408174037933349609e+00 -6.304535865783691406e-01
3.932000000000000000e+03 6.041617202758789062e+01 1.967849922180175781e+01 -7.509970664978027344e-01 8.960672378540039062e+00 2.462902545928955078e+00 -2.609820961952209473e-01
3.933000000000000000e+03 4.298239517211914062e+01 1.320851707458496094e+01 3.620442152023315430e-01 2.351150989532470703e+00 8.139585852622985840e-01 6.138867139816284180e-01
3.934000000000000000e+03 4.351055145263671875e+01 1.565643024444580078e+01 4.884265959262847900e-01 2.248860120773315430e+00 8.211860060691833496e-01 7.192001938819885254e-01
3.935000000000000000e+03 4.424433517456054688e+01 4.028777599334716797e+00 -1.902327686548233032e-02 3.102476358413696289e+00 9.250358939170837402e-01 3.968339860439300537e-01
3.936000000000000000e+03 4.177295303344726562e+01 4.652968406677246094e+00 5.289066955447196960e-02 2.482019186019897461e+00 7.604729533195495605e-01 3.388658761978149414e-01
3.937000000000000000e+03 5.775361633300781250e+01 2.827011585235595703e+00 -4.513669908046722412e-01 6.162852764129638672e+00 1.713445782661437988e+00 2.866759523749351501e-02
3.938000000000000000e+03 4.435097503662109375e+01 9.868308067321777344e+00 1.520984619855880737e-01 2.927829742431640625e+00 9.239785075187683105e-01 5.905276536941528320e-01
3.939000000000000000e+03 4.533197784423828125e+01 1.651541328430175781e+01 4.880417883396148682e-01 2.716619729995727539e+00 9.613984823226928711e-01 9.509135484695434570e-01
3.940000000000000000e+03 4.271162033081054688e+01 9.454671859741210938e+00 1.857865452766418457e-01 2.545954465866088867e+00 8.195223212242126465e-01 4.884664714336395264e-01
3.941000000000000000e+03 4.210239791870117188e+01 5.752675533294677734e+00 7.889050990343093872e-02 2.546126127243041992e+00 7.875050306320190430e-01 3.781621754169464111e-01
3.942000000000000000e+03 4.310093688964843750e+01 6.675489902496337891e+00 8.097062259912490845e-02 2.741074800491333008e+00 8.466136455535888672e-01 4.250739812850952148e-01
3.943000000000000000e+03 5.794198608398437500e+01 6.024329662322998047e+00 -5.365920662879943848e-01 6.386447429656982422e+00 1.754956603050231934e+00 7.118614017963409424e-02
3.944000000000000000e+03 5.947597885131835938e+01 1.479516696929931641e+01 -8.042443990707397461e-01 7.710196495056152344e+00 2.071785688400268555e+00 5.660888552665710449e-02
3.945000000000000000e+03 5.982449722290039062e+01 1.758059310913085938e+01 -8.333863019943237305e-01 8.387704849243164062e+00 2.266295433044433594e+00 -2.161803841590881348e-02
3.946000000000000000e+03 5.616501998901367188e+01 -5.304267883300781250e+00 -2.732507884502410889e-01 5.521916866302490234e+00 1.574599862098693848e+00 2.237895689904689789e-02
3.947000000000000000e+03 5.767852401733398438e+01 -9.320187568664550781e-01 -3.569444715976715088e-01 5.964690685272216797e+00 1.682323813438415527e+00 -1.110773999243974686e-03
3.948000000000000000e+03 6.046192550659179688e+01 5.072221279144287109e+00 -5.293713808059692383e-01 6.755935192108154297e+00 1.867969274520874023e+00 -1.255734711885452271e-01
3.949000000000000000e+03 6.091671371459960938e+01 1.119524860382080078e+01 -7.251703739166259766e-01 7.409127712249755859e+00 2.005187273025512695e+00 -1.782161444425582886e-01
3.950000000000000000e+03 4.301048660278320312e+01 3.593788385391235352e+00 3.861771430820226669e-03 2.817351102828979492e+00 8.463638424873352051e-01 3.523341119289398193e-01
3.951000000000000000e+03 5.842919158935546875e+01 -5.767483711242675781e+00 -2.706167399883270264e-01 5.944806575775146484e+00 1.702257037162780762e+00 -4.089685156941413879e-02
3.952000000000000000e+03 5.834399414062500000e+01 -2.271042346954345703e+00 -3.306069374084472656e-01 6.036529064178466797e+00 1.711776733398437500e+00 -3.498858585953712463e-02
3.953000000000000000e+03 4.342562866210937500e+01 5.160698890686035156e-01 -5.347903072834014893e-02 2.945814371109008789e+00 8.677005767822265625e-01 2.873352468013763428e-01
3.954000000000000000e+03 5.758612060546875000e+01 -1.066196250915527344e+01 -1.944193989038467407e-01 5.681252956390380859e+00 1.646050095558166504e+00 -2.111841179430484772e-02
3.955000000000000000e+03 5.542144775390625000e+01 -1.598625659942626953e+01 -1.268933564424514771e-01 5.246191024780273438e+00 1.535789251327514648e+00 9.441724978387355804e-03
3.956000000000000000e+03 5.891169357299804688e+01 -1.945376396179199219e+01 -9.446318447589874268e-02 5.841804504394531250e+00 1.724202513694763184e+00 -1.981517300009727478e-02
3.957000000000000000e+03 5.724925994873046875e+01 -2.388548278808593750e+01 -7.674835622310638428e-02 5.531377792358398438e+00 1.636388897895812988e+00 9.325349237769842148e-04
3.958000000000000000e+03 6.264839935302734375e+01 -2.391803932189941406e+01 -5.272346362471580505e-02 6.496868610382080078e+00 1.933243632316589355e+00 -2.808758802711963654e-02
3.959000000000000000e+03 5.652162933349609375e+01 -1.366800308227539062e+01 -1.547315865755081177e-01 5.442132949829101562e+00 1.586220383644104004e+00 -2.498361747711896896e-03
3.960000000000000000e+03 4.668949890136718750e+01 -5.945852756500244141e+00 -1.336127966642379761e-01 3.674606561660766602e+00 1.062298178672790527e+00 1.600790917873382568e-01
3.961000000000000000e+03 4.244049072265625000e+01 -5.518028259277343750e+00 -7.653868943452835083e-02 2.772239685058593750e+00 8.087103366851806641e-01 1.776687651872634888e-01
3.962000000000000000e+03 6.788798522949218750e+01 4.104776763916015625e+01 -2.760051190853118896e-01 9.008378982543945312e+00 2.619712352752685547e+00 1.352732628583908081e-01
3.963000000000000000e+03 4.390343856811523438e+01 -8.284889221191406250e+00 -9.920473396778106689e-02 3.084345340728759766e+00 8.955421447753906250e-01 1.416444629430770874e-01
3.964000000000000000e+03 3.323934555053710938e+01 -2.341975402832031250e+01 -7.512946147471666336e-03 1.107299923896789551e+00 3.299360871315002441e-01 3.752177581191062927e-02
3.965000000000000000e+03 6.581826782226562500e+01 3.759898376464843750e+01 1.840683370828628540e-01 9.447376251220703125e+00 2.889433383941650391e+00 5.376294851303100586e-01
3.966000000000000000e+03 5.745516204833984375e+01 2.533038902282714844e+01 -3.112766742706298828e-01 1.152746009826660156e+01 3.364855051040649414e+00 6.040996909141540527e-01
3.967000000000000000e+03 5.865366363525390625e+01 2.639280700683593750e+01 4.763599932193756104e-01 1.204199314117431641e+01 3.755506038665771484e+00 -5.606352686882019043e-01
3.968000000000000000e+03 5.785900115966796875e+01 2.574972724914550781e+01 -7.298628240823745728e-02 1.183386230468750000e+01 3.528262615203857422e+00 1.906568706035614014e-01
3.969000000000000000e+03 5.538909912109375000e+01 2.427649497985839844e+01 -3.608955442905426025e-01 9.515894889831542969e+00 2.746499776840209961e+00 2.159193754196166992e+00
3.970000000000000000e+03 5.899147033691406250e+01 2.718239402770996094e+01 1.203313350677490234e+00 1.220691394805908203e+01 4.023068428039550781e+00 -9.950897097587585449e-01
3.971000000000000000e+03 5.962073898315429688e+01 2.483118057250976562e+01 1.832949742674827576e-02 1.087731838226318359e+01 3.268694400787353516e+00 -6.107018589973449707e-01
3.972000000000000000e+03 6.043190383911132812e+01 2.666260147094726562e+01 1.127328038215637207e+00 1.101137924194335938e+01 3.641612052917480469e+00 -1.217237114906311035e+00
3.973000000000000000e+03 5.652988815307617188e+01 2.467399597167968750e+01 -4.792075455188751221e-01 1.069031333923339844e+01 3.063331604003906250e+00 1.384535074234008789e+00
3.974000000000000000e+03 5.638669967651367188e+01 2.388026809692382812e+01 -5.575382709503173828e-01 1.005194187164306641e+01 2.848320960998535156e+00 1.436013460159301758e+00
3.975000000000000000e+03 5.977661895751953125e+01 2.416398811340332031e+01 -1.696757227182388306e-01 1.056367969512939453e+01 3.118201255798339844e+00 -5.267807245254516602e-01
3.976000000000000000e+03 4.710142135620117188e+01 1.731054306030273438e+01 4.530096352100372314e-01 3.265705823898315430e+00 1.115614652633666992e+00 1.210671782493591309e+00
3.977000000000000000e+03 5.992675018310546875e+01 2.345952796936035156e+01 -3.310703337192535400e-01 1.025626564025878906e+01 2.977558612823486328e+00 -4.522962272167205811e-01
3.978000000000000000e+03 6.019739151000976562e+01 1.551206779479980469e+01 -8.198040723800659180e-01 7.977540969848632812e+00 2.147320985794067383e+00 -8.876353502273559570e-02
3.979000000000000000e+03 6.011748504638671875e+01 1.411141014099121094e+01 -7.911251187324523926e-01 7.703462123870849609e+00 2.073701143264770508e+00 -8.137746155261993408e-02
3.980000000000000000e+03 5.235830307006835938e+01 2.035007667541503906e+01 2.147101424634456635e-02 5.950102806091308594e+00 1.791472077369689941e+00 1.984674572944641113e+00
3.981000000000000000e+03 5.190519714355468750e+01 1.855818557739257812e+01 -3.611758351325988770e-02 5.559648990631103516e+00 1.657059431076049805e+00 1.652761936187744141e+00
3.982000000000000000e+03 5.350826263427734375e+01 2.062752914428710938e+01 -1.974661797285079956e-01 6.757295608520507812e+00 1.967948913574218750e+00 1.912081599235534668e+00
3.983000000000000000e+03 4.795343017578125000e+01 1.760587120056152344e+01 4.053921103477478027e-01 3.585272550582885742e+00 1.197199344635009766e+00 1.337375044822692871e+00
3.984000000000000000e+03 6.035111236572265625e+01 1.690273094177246094e+01 -8.243039846420288086e-01 8.288132667541503906e+00 2.239148616790771484e+00 -1.396428942680358887e-01
3.985000000000000000e+03 5.936973953247070312e+01 1.180048274993896484e+01 -7.415558099746704102e-01 7.264377117156982422e+00 1.956846356391906738e+00 3.031492978334426880e-02
3.986000000000000000e+03 5.920810317993164062e+01 9.092488288879394531e+00 -6.500216722488403320e-01 6.889183044433593750e+00 1.871748328208923340e+00 1.345034595578908920e-02
3.987000000000000000e+03 4.621999359130859375e+01 1.694431877136230469e+01 4.798535406589508057e-01 2.971886634826660156e+00 1.035522103309631348e+00 1.076759696006774902e+00
3.988000000000000000e+03 5.399666976928710938e+01 2.300288200378417969e+01 -1.240652054548263550e-01 7.743893623352050781e+00 2.285948514938354492e+00 2.446110248565673828e+00
3.989000000000000000e+03 5.462428665161132812e+01 2.091685676574707031e+01 -4.158636629581451416e-01 7.602191448211669922e+00 2.155898332595825195e+00 1.746888756752014160e+00
3.990000000000000000e+03 4.381224822998046875e+01 5.437326908111572266e+00 2.638150565326213837e-02 2.945698261260986328e+00 8.916239142417907715e-01 4.133956730365753174e-01
3.991000000000000000e+03 5.997156524658203125e+01 1.892305946350097656e+01 -8.046541213989257812e-01 8.745079994201660156e+00 2.382127761840820312e+00 -1.065479069948196411e-01
3.992000000000000000e+03 4.472086715698242188e+01 1.508270168304443359e+01 4.157601892948150635e-01 2.670135021209716797e+00 9.257685542106628418e-01 8.293973803520202637e-01
3.993000000000000000e+03 4.375401306152343750e+01 1.466743183135986328e+01 4.246151149272918701e-01 2.424100637435913086e+00 8.546147346496582031e-01 7.213347554206848145e-01
3.994000000000000000e+03 4.405722808837890625e+01 1.354951095581054688e+01 3.457138538360595703e-01 2.605840921401977539e+00 8.854664564132690430e-01 7.113356590270996094e-01
3.995000000000000000e+03 5.763422012329101562e+01 7.699769020080566406e+00 -5.795089602470397949e-01 6.472007274627685547e+00 1.767749428749084473e+00 1.270677894353866577e-01
3.996000000000000000e+03 4.351424789428710938e+01 8.680775642395019531e+00 1.323564648628234863e-01 2.783947706222534180e+00 8.748912811279296875e-01 5.114563107490539551e-01
3.997000000000000000e+03 4.447274398803710938e+01 1.226426315307617188e+01 2.594529986381530762e-01 2.831641435623168945e+00 9.273283481597900391e-01 6.903046965599060059e-01
3.998000000000000000e+03 5.369043731689453125e+01 -1.205452728271484375e+01 -1.660623103380203247e-01 4.967971801757812500e+00 1.440572738647460938e+00 3.492585942149162292e-02
3.999000000000000000e+03 5.518730163574218750e+01 -1.185142326354980469e+01 -1.713797897100448608e-01 5.254606723785400391e+00 1.524968028068542480e+00 9.086952544748783112e-03
4.000000000000000000e+03 5.794585418701171875e+01 4.405702590942382812e+00 -4.943103492259979248e-01 6.286201953887939453e+00 1.737567424774169922e+00 4.206534102559089661e-02
4.001000000000000000e+03 5.688320922851562500e+01 2.089649438858032227e+00 -4.179007112979888916e-01 5.928330421447753906e+00 1.653128862380981445e+00 6.617821007966995239e-02
4.002000000000000000e+03 5.568894195556640625e+01 -4.489624500274658203e-01 -3.422089219093322754e-01 5.598846912384033203e+00 1.576991319656372070e+00 7.310301065444946289e-02
4.003000000000000000e+03 5.686223983764648438e+01 2.982671558856964111e-01 -3.803662061691284180e-01 5.861072063446044922e+00 1.644211769104003906e+00 4.539481922984123230e-02
4.004000000000000000e+03 5.861519241333007812e+01 1.321172714233398438e+01 -7.641782164573669434e-01 7.333576202392578125e+00 1.970819473266601562e+00 1.660850644111633301e-01
4.005000000000000000e+03 4.486536026000976562e+01 8.899707198143005371e-01 -8.499900251626968384e-02 3.297762393951416016e+00 9.638290405273437500e-01 3.033185303211212158e-01
4.006000000000000000e+03 4.373867797851562500e+01 -1.330132842063903809e+00 -7.590937614440917969e-02 3.053258657455444336e+00 8.932047486305236816e-01 2.479350417852401733e-01
4.007000000000000000e+03 4.148312759399414062e+01 -4.719178199768066406e+00 -6.451746821403503418e-02 2.649435520172119141e+00 7.754754424095153809e-01 1.711260974407196045e-01
4.008000000000000000e+03 5.761775970458984375e+01 -4.420260906219482422e+00 -2.904624342918395996e-01 5.830063343048095703e+00 1.661880254745483398e+00 -1.965817995369434357e-02
4.009000000000000000e+03 5.481863784790039062e+01 -2.369533061981201172e+00 -3.039105236530303955e-01 5.370326995849609375e+00 1.519924998283386230e+00 8.424472063779830933e-02
4.010000000000000000e+03 5.498231887817382812e+01 -9.827835083007812500e+00 -1.971058100461959839e-01 5.224279403686523438e+00 1.508152127265930176e+00 2.650318481028079987e-02
4.011000000000000000e+03 5.795550155639648438e+01 8.882834434509277344e+00 -6.153664588928222656e-01 6.636690616607666016e+00 1.806397318840026855e+00 1.324565559625625610e-01
4.012000000000000000e+03 5.720468902587890625e+01 5.165319442749023438e+00 -4.966538846492767334e-01 6.192414283752441406e+00 1.708728075027465820e+00 1.004526913166046143e-01
4.013000000000000000e+03 5.443522644042968750e+01 -2.413636398315429688e+01 -7.918391376733779907e-02 4.985586166381835938e+00 1.471920728683471680e+00 9.401747025549411774e-03
4.014000000000000000e+03 5.515546417236328125e+01 -1.390105438232421875e+01 -1.499340385198593140e-01 5.221577167510986328e+00 1.521492838859558105e+00 7.661573588848114014e-03
4.015000000000000000e+03 4.442666625976562500e+01 -5.690765857696533203e+00 -1.089189648628234863e-01 3.222713708877563477e+00 9.341384172439575195e-01 1.661836355924606323e-01
4.016000000000000000e+03 4.563536071777343750e+01 -4.585310935974121094e+00 -1.273334026336669922e-01 3.458882570266723633e+00 9.994647502899169922e-01 1.809328645467758179e-01
4.017000000000000000e+03 5.174024963378906250e+01 -1.652647399902343750e+01 -1.102436408400535583e-01 4.577889919281005859e+00 1.340293884277343750e+00 3.314016014337539673e-02
4.018000000000000000e+03 5.443209457397460938e+01 -2.128434753417968750e+01 -8.561643958091735840e-02 5.023981094360351562e+00 1.481509447097778320e+00 2.032883651554584503e-02
4.019000000000000000e+03 6.044284820556640625e+01 -2.746163368225097656e+00 -3.206511437892913818e-01 6.374816417694091797e+00 1.816249608993530273e+00 -1.034663319587707520e-01
4.020000000000000000e+03 5.981789398193359375e+01 2.637357139587402344e+01 8.352435231208801270e-01 1.131247615814208984e+01 3.644315719604492188e+00 -1.036368489265441895e+00
4.021000000000000000e+03 5.905570983886718750e+01 2.653503799438476562e+01 7.161903381347656250e-01 1.179446983337402344e+01 3.753197908401489258e+00 -8.045343160629272461e-01
4.022000000000000000e+03 5.830987548828125000e+01 2.579745864868164062e+01 7.747253775596618652e-02 1.175371170043945312e+01 3.549355268478393555e+00 -1.620840579271316528e-01
4.023000000000000000e+03 5.787626266479492188e+01 2.529100799560546875e+01 -2.532179653644561768e-01 1.147264766693115234e+01 3.365828990936279297e+00 2.993085682392120361e-01
4.024000000000000000e+03 5.456801605224609375e+01 2.377121925354003906e+01 -2.142409831285476685e-01 8.607808113098144531e+00 2.518069982528686523e+00 2.473180055618286133e+00
4.025000000000000000e+03 5.733197784423828125e+01 2.489065170288085938e+01 -4.060721397399902344e-01 1.113273048400878906e+01 3.217997550964355469e+00 7.454717755317687988e-01
4.026000000000000000e+03 5.783856964111328125e+01 2.446386528015136719e+01 -4.272723495960235596e-01 1.088855838775634766e+01 3.138385772705078125e+00 4.372667372226715088e-01
4.027000000000000000e+03 5.848397445678710938e+01 2.303949928283691406e+01 -5.884634852409362793e-01 1.010829353332519531e+01 2.855949163436889648e+00 2.396188676357269287e-01
4.028000000000000000e+03 5.939495086669921875e+01 2.254073333740234375e+01 -5.727896690368652344e-01 9.916333198547363281e+00 2.803062915802001953e+00 -1.371670812368392944e-01
4.029000000000000000e+03 5.979371643066406250e+01 2.132140350341796875e+01 -6.701558232307434082e-01 9.450189590454101562e+00 2.634010076522827148e+00 -1.764522790908813477e-01
4.030000000000000000e+03 5.909625625610351562e+01 2.174132728576660156e+01 -6.835531592369079590e-01 9.594390869140625000e+00 2.673251390457153320e+00 5.287380144000053406e-02
4.031000000000000000e+03 5.288723754882812500e+01 1.915647315979003906e+01 -1.862174272537231445e-01 6.239008426666259766e+00 1.815837264060974121e+00 1.698002934455871582e+00
4.032000000000000000e+03 5.363077545166015625e+01 1.885723686218261719e+01 -3.191519081592559814e-01 6.582778930664062500e+00 1.879088044166564941e+00 1.571824073791503906e+00
4.033000000000000000e+03 5.180537796020507812e+01 1.761749267578125000e+01 -7.919485867023468018e-02 5.464544773101806641e+00 1.615604877471923828e+00 1.505035400390625000e+00
4.034000000000000000e+03 5.932363891601562500e+01 2.058377647399902344e+01 -7.605690360069274902e-01 9.177488327026367188e+00 2.525075912475585938e+00 3.123894892632961273e-02
4.035000000000000000e+03 5.276463317871093750e+01 1.829052734375000000e+01 -2.006172835826873779e-01 6.039966106414794922e+00 1.751804709434509277e+00 1.553308486938476562e+00
4.036000000000000000e+03 5.315647506713867188e+01 1.992215538024902344e+01 -1.844111531972885132e-01 6.451081752777099609e+00 1.880001187324523926e+00 1.815201640129089355e+00
4.037000000000000000e+03 5.017452239990234375e+01 1.716773414611816406e+01 1.131994649767875671e-01 4.680659770965576172e+00 1.438157677650451660e+00 1.443147182464599609e+00
4.038000000000000000e+03 4.816650390625000000e+01 1.668706512451171875e+01 3.117335736751556396e-01 3.781696796417236328e+00 1.228029131889343262e+00 1.272458195686340332e+00
4.039000000000000000e+03 5.878340911865234375e+01 1.547894859313964844e+01 -8.113263249397277832e-01 7.753362178802490234e+00 2.082610845565795898e+00 2.103500664234161377e-01
4.040000000000000000e+03 5.931667327880859375e+01 1.821930694580078125e+01 -8.306650519371032715e-01 8.486038208007812500e+00 2.296612024307250977e+00 8.826371282339096069e-02
4.041000000000000000e+03 5.461552047729492188e+01 2.301234436035156250e+01 -2.880384624004364014e-01 8.237782478332519531e+00 2.384922981262207031e+00 2.223830223083496094e+00
4.042000000000000000e+03 5.402291488647460938e+01 2.218754005432128906e+01 -2.144172638654708862e-01 7.507366657257080078e+00 2.187884807586669922e+00 2.183958768844604492e+00
4.043000000000000000e+03 4.650287628173828125e+01 1.598008728027343750e+01 3.833079040050506592e-01 3.191815137863159180e+00 1.072536826133728027e+00 1.052331686019897461e+00
4.044000000000000000e+03 4.504917907714843750e+01 1.403542423248291016e+01 3.317978382110595703e-01 2.871665477752685547e+00 9.610390067100524902e-01 8.080924749374389648e-01
4.045000000000000000e+03 4.596189117431640625e+01 1.456267070770263672e+01 3.152037560939788818e-01 3.135365724563598633e+00 1.035170793533325195e+00 9.179106354713439941e-01
4.046000000000000000e+03 4.563088226318359375e+01 1.554097652435302734e+01 4.046981632709503174e-01 2.924963474273681641e+00 9.988985061645507812e-01 9.369699358940124512e-01
4.047000000000000000e+03 5.798283767700195312e+01 1.458689594268798828e+01 -7.647425532341003418e-01 7.406920433044433594e+00 1.992653369903564453e+00 3.221037387847900391e-01
4.048000000000000000e+03 5.885050964355468750e+01 1.406632995605468750e+01 -7.821329236030578613e-01 7.503095626831054688e+00 2.016288757324218750e+00 1.452094316482543945e-01
4.049000000000000000e+03 5.561932373046875000e+01 3.795865774154663086e+00 -4.251593649387359619e-01 5.769425868988037109e+00 1.603279948234558105e+00 1.695496141910552979e-01
4.050000000000000000e+03 5.960669708251953125e+01 1.620099067687988281e+01 -8.247357010841369629e-01 8.046571731567382812e+00 2.166550874710083008e+00 3.245792910456657410e-02
4.051000000000000000e+03 4.442208099365234375e+01 7.586737155914306641e+00 6.191274151206016541e-02 3.059612751007080078e+00 9.364576935768127441e-01 5.118427276611328125e-01
4.052000000000000000e+03 4.513381576538085938e+01 6.147955417633056641e+00 -3.188596339896321297e-03 3.275349140167236328e+00 9.816481471061706543e-01 4.758596420288085938e-01
4.053000000000000000e+03 4.624079895019531250e+01 1.014058589935302734e+01 6.669655442237854004e-02 3.476955890655517578e+00 1.063095688819885254e+00 6.784750223159790039e-01
4.054000000000000000e+03 4.326293182373046875e+01 1.189507865905761719e+01 2.784369885921478271e-01 2.544773817062377930e+00 8.469632267951965332e-01 5.981198549270629883e-01
4.055000000000000000e+03 5.784328842163085938e+01 1.008966159820556641e+01 -6.485831737518310547e-01 6.751403331756591797e+00 1.830845952033996582e+00 1.751352399587631226e-01
4.056000000000000000e+03 5.696928405761718750e+01 6.686726570129394531e+00 -5.283565521240234375e-01 6.255242347717285156e+00 1.718065738677978516e+00 1.499214321374893188e-01
4.057000000000000000e+03 5.709607315063476562e+01 3.658534765243530273e+00 -4.592070579528808594e-01 6.071343898773193359e+00 1.683641076087951660e+00 8.025191724300384521e-02
4.058000000000000000e+03 5.629041671752929688e+01 -1.733001112937927246e+00 -3.295510411262512207e-01 5.673488140106201172e+00 1.603181123733520508e+00 4.399159923195838928e-02
4.059000000000000000e+03 5.889363098144531250e+01 1.031274604797363281e+01 -6.841056942939758301e-01 6.963184356689453125e+00 1.883723616600036621e+00 8.150921016931533813e-02
4.060000000000000000e+03 5.757527923583984375e+01 1.230041980743408203e+01 -6.994024515151977539e-01 6.949146270751953125e+00 1.874923110008239746e+00 3.006813824176788330e-01
4.061000000000000000e+03 4.586333847045898438e+01 -2.227155208587646484e+00 -1.250984072685241699e-01 3.502816677093505859e+00 1.013315439224243164e+00 2.313860505819320679e-01
4.062000000000000000e+03 5.597589111328125000e+01 1.357123255729675293e+00 -3.921584486961364746e-01 5.719774723052978516e+00 1.598284959793090820e+00 1.048558130860328674e-01
4.063000000000000000e+03 4.516228103637695312e+01 -7.449173331260681152e-01 -1.065714284777641296e-01 3.374158620834350586e+00 9.802761077880859375e-01 2.604241967201232910e-01
4.064000000000000000e+03 4.550091171264648438e+01 1.296459007263183594e+01 2.444377243518829346e-01 3.115744590759277344e+00 1.008054733276367188e+00 7.954970598220825195e-01
4.065000000000000000e+03 5.480252838134765625e+01 -6.367699623107910156e+00 -2.418074458837509155e-01 5.251646995544433594e+00 1.502951860427856445e+00 3.796509280800819397e-02
4.066000000000000000e+03 5.578097534179687500e+01 -7.540665149688720703e+00 -2.218188196420669556e-01 5.431872367858886719e+00 1.563016057014465332e+00 1.148459501564502716e-02
4.067000000000000000e+03 5.442670059204101562e+01 -7.906474113464355469e+00 -2.213138341903686523e-01 5.163402557373046875e+00 1.482626557350158691e+00 4.802903532981872559e-02
4.068000000000000000e+03 5.350910186767578125e+01 -1.016655254364013672e+01 -1.848349571228027344e-01 4.970292091369628906e+00 1.435637116432189941e+00 3.101597726345062256e-02
4.069000000000000000e+03 4.461990737915039062e+01 2.515718221664428711e+00 -6.197308376431465149e-02 3.218885660171508789e+00 9.470738172531127930e-01 3.482203185558319092e-01
4.070000000000000000e+03 4.552127838134765625e+01 4.566089630126953125e+00 -5.200185999274253845e-02 3.399503707885742188e+00 1.004250526428222656e+00 4.105533957481384277e-01
4.071000000000000000e+03 4.509929275512695312e+01 -9.761876106262207031e+00 -1.152541562914848328e-01 3.323542356491088867e+00 9.624864459037780762e-01 1.168600395321846008e-01
4.072000000000000000e+03 4.238846588134765625e+01 -9.668198585510253906e+00 -8.250251412391662598e-02 2.787674188613891602e+00 8.115515112876892090e-01 1.245787069201469421e-01
4.073000000000000000e+03 5.614913177490234375e+01 2.433425140380859375e+01 -5.061368942260742188e-01 1.022929286956787109e+01 2.916946887969970703e+00 1.636692523956298828e+00
4.074000000000000000e+03 5.924160385131835938e+01 2.396942329406738281e+01 -3.140276670455932617e-01 1.056335830688476562e+01 3.074799060821533203e+00 -2.720140516757965088e-01
4.075000000000000000e+03 6.004012298583984375e+01 2.571589469909667969e+01 4.979013204574584961e-01 1.099809360504150391e+01 3.448798656463623047e+00 -9.524898529052734375e-01
4.076000000000000000e+03 5.889502716064453125e+01 2.527398109436035156e+01 2.649990841746330261e-03 1.128735446929931641e+01 3.387001276016235352e+00 -3.524032831192016602e-01
4.077000000000000000e+03 6.064796447753906250e+01 2.595057868957519531e+01 7.279871106147766113e-01 1.074408912658691406e+01 3.441622972488403320e+00 -1.129528045654296875e+00
4.078000000000000000e+03 5.835671997070312500e+01 2.523498916625976562e+01 -1.429281383752822876e-01 1.136396312713623047e+01 3.366310358047485352e+00 -4.396041855216026306e-02
4.079000000000000000e+03 5.386166763305664062e+01 2.136795043945312500e+01 -2.280177772045135498e-01 7.195163249969482422e+00 2.090143680572509766e+00 2.029718637466430664e+00
4.080000000000000000e+03 5.736051940917968750e+01 2.306122779846191406e+01 -6.582394242286682129e-01 9.980885505676269531e+00 2.796793937683105469e+00 8.385133743286132812e-01
4.081000000000000000e+03 5.520858383178710938e+01 2.308255767822265625e+01 -4.289351999759674072e-01 8.762716293334960938e+00 2.500134229660034180e+00 1.984081149101257324e+00
4.082000000000000000e+03 5.190618133544921875e+01 1.459444427490234375e+01 -2.333444505929946899e-01 5.408429145812988281e+00 1.552525401115417480e+00 1.081937551498413086e+00
4.083000000000000000e+03 5.756483459472656250e+01 2.380992507934570312e+01 -5.761736631393432617e-01 1.042862224578857422e+01 2.955734491348266602e+00 7.049600481986999512e-01
4.084000000000000000e+03 5.937314987182617188e+01 2.329497718811035156e+01 -4.367802441120147705e-01 1.026704216003417969e+01 2.949078559875488281e+00 -2.357276082038879395e-01
4.085000000000000000e+03 5.423451232910156250e+01 1.839861869812011719e+01 -4.448036551475524902e-01 6.833509445190429688e+00 1.916611671447753906e+00 1.375126957893371582e+00
4.086000000000000000e+03 5.935725402832031250e+01 1.943949699401855469e+01 -8.125114440917968750e-01 8.824349403381347656e+00 2.403551340103149414e+00 7.042042911052703857e-02
4.087000000000000000e+03 5.255763626098632812e+01 1.634932708740234375e+01 -2.537681460380554199e-01 5.758368015289306641e+00 1.651379942893981934e+00 1.279088377952575684e+00
4.088000000000000000e+03 5.390855026245117188e+01 1.952449035644531250e+01 -3.365302383899688721e-01 6.824675559997558594e+00 1.946443676948547363e+00 1.627697229385375977e+00
4.089000000000000000e+03 5.908708572387695312e+01 1.690904617309570312e+01 -8.284273743629455566e-01 8.106882095336914062e+00 2.183536291122436523e+00 1.450769007205963135e-01
4.090000000000000000e+03 5.744387817382812500e+01 1.605007553100585938e+01 -7.586961984634399414e-01 7.561724662780761719e+00 2.040908575057983398e+00 4.635258913040161133e-01
4.091000000000000000e+03 5.852055740356445312e+01 2.433460235595703125e+01 -3.387740254402160645e-01 1.084098625183105469e+01 3.150663852691650391e+00 3.623789548873901367e-02
4.092000000000000000e+03 4.922517776489257812e+01 1.605637168884277344e+01 1.495228558778762817e-01 4.286200046539306641e+00 1.330716848373413086e+00 1.275447726249694824e+00
4.093000000000000000e+03 5.164259338378906250e+01 1.668405723571777344e+01 -1.141506507992744446e-01 5.344894886016845703e+00 1.569223284721374512e+00 1.369483590126037598e+00
4.094000000000000000e+03 4.735232162475585938e+01 1.636790084838867188e+01 3.551557958126068115e-01 3.471828460693359375e+00 1.148095250129699707e+00 1.165435671806335449e+00
4.095000000000000000e+03 4.843132781982421875e+01 1.577569389343261719e+01 2.125353813171386719e-01 3.955066442489624023e+00 1.250280499458312988e+00 1.198707818984985352e+00
4.096000000000000000e+03 5.270149993896484375e+01 1.734325599670410156e+01 -2.349614053964614868e-01 5.900688648223876953e+00 1.699718117713928223e+00 1.402841210365295410e+00
4.097000000000000000e+03 5.870089340209960938e+01 2.096450996398925781e+01 -7.687514424324035645e-01 9.254390716552734375e+00 2.545691728591918945e+00 2.665794491767883301e-01
4.098000000000000000e+03 5.759006500244140625e+01 1.345966911315917969e+01 -7.305549383163452148e-01 7.129560947418212891e+00 1.919701695442199707e+00 3.504863381385803223e-01
4.099000000000000000e+03 5.854522323608398438e+01 1.226086044311523438e+01 -7.403418421745300293e-01 7.181336402893066406e+00 1.932298421859741211e+00 1.581800729036331177e-01
4.100000000000000000e+03 4.681023025512695312e+01 1.504607582092285156e+01 2.985125184059143066e-01 3.386438846588134766e+00 1.105485439300537109e+00 1.018552422523498535e+00
4.101000000000000000e+03 4.547787094116210938e+01 8.821394920349121094e+00 6.064738333225250244e-02 3.305604457855224609e+00 1.009875535964965820e+00 5.916588902473449707e-01
4.102000000000000000e+03 4.680187225341796875e+01 8.145754814147949219e+00 -2.104285918176174164e-02 3.660404920578002930e+00 1.091808557510375977e+00 5.878230929374694824e-01
4.103000000000000000e+03 4.521991348266601562e+01 1.105220222473144531e+01 1.657514870166778564e-01 3.124305009841918945e+00 9.870169758796691895e-01 6.798059344291687012e-01
4.104000000000000000e+03 5.577591323852539062e+01 9.950057029724121094e+00 -5.589739084243774414e-01 6.239342689514160156e+00 1.704110622406005859e+00 3.840717077255249023e-01
4.105000000000000000e+03 5.683219146728515625e+01 9.017302513122558594e+00 -5.858692526817321777e-01 6.419068813323974609e+00 1.749959826469421387e+00 2.431955337524414062e-01
4.106000000000000000e+03 5.637671279907226562e+01 5.792405605316162109e+00 -4.973732233047485352e-01 6.072030067443847656e+00 1.672397017478942871e+00 1.762057989835739136e-01
4.107000000000000000e+03 5.462044525146484375e+01 3.270735263824462891e+00 -3.936334252357482910e-01 5.544061660766601562e+00 1.545128464698791504e+00 2.091055512428283691e-01
4.108000000000000000e+03 5.646313858032226562e+01 4.412810802459716797e+00 -4.658297300338745117e-01 5.997283458709716797e+00 1.659436106681823730e+00 1.386383026838302612e-01
4.109000000000000000e+03 5.619694519042968750e+01 2.971285581588745117e+00 -4.249189198017120361e-01 5.847755432128906250e+00 1.626851081848144531e+00 1.212195679545402527e-01
4.110000000000000000e+03 5.523042678833007812e+01 2.333253145217895508e+00 -3.943432867527008057e-01 5.608346462249755859e+00 1.564200997352600098e+00 1.580330431461334229e-01
4.111000000000000000e+03 4.618714141845703125e+01 9.922863245010375977e-01 -1.155564561486244202e-01 3.585140228271484375e+00 1.040875077247619629e+00 3.093353509902954102e-01
4.112000000000000000e+03 4.678921508789062500e+01 2.242547988891601562e+00 -1.298084408044815063e-01 3.720769405364990234e+00 1.077288269996643066e+00 3.455667197704315186e-01
4.113000000000000000e+03 5.452311325073242188e+01 -9.793034791946411133e-01 -3.253367841243743896e-01 5.355160713195800781e+00 1.508947253227233887e+00 1.217813268303871155e-01
4.114000000000000000e+03 5.680337524414062500e+01 1.002652072906494141e+01 -6.063127517700195312e-01 6.510098457336425781e+00 1.771135807037353516e+00 2.716007530689239502e-01
4.115000000000000000e+03 4.711107635498046875e+01 3.519384860992431641e+00 -1.247438192367553711e-01 3.812915802001953125e+00 1.106451630592346191e+00 3.878682851791381836e-01
4.116000000000000000e+03 4.537810134887695312e+01 -7.106061458587646484e+00 -1.173374652862548828e-01 3.406443357467651367e+00 9.867318272590637207e-01 1.531629115343093872e-01
4.117000000000000000e+03 4.662142181396484375e+01 6.537868022918701172e+00 -5.559962615370750427e-02 3.638991355895996094e+00 1.075017571449279785e+00 5.131163001060485840e-01
4.118000000000000000e+03 5.689411544799804688e+01 -3.083997488021850586e+00 -3.061802089214324951e-01 5.744542598724365234e+00 1.631508708000183105e+00 1.505993772298097610e-02
4.119000000000000000e+03 4.252376556396484375e+01 -1.273780632019042969e+01 -8.726052939891815186e-02 2.810379743576049805e+00 8.169357180595397949e-01 9.501536935567855835e-02
4.120000000000000000e+03 4.379756546020507812e+01 -1.118688774108886719e+01 -9.447471797466278076e-02 3.069690942764282227e+00 8.925648331642150879e-01 1.064080595970153809e-01
4.121000000000000000e+03 4.012646102905273438e+01 -1.595408821105957031e+01 -5.933878198266029358e-02 2.358385086059570312e+00 6.897138953208923340e-01 7.670181989669799805e-02
4.122000000000000000e+03 4.234080886840820312e+01 4.124269866943359375e+01 7.218683362007141113e-01 -1.967416554689407349e-01 1.575380116701126099e-01 1.052288413047790527e-01
4.123000000000000000e+03 5.615901565551757812e+01 2.293998908996582031e+01 -5.901048183441162109e-01 9.406592369079589844e+00 2.644946098327636719e+00 1.487483024597167969e+00
4.124000000000000000e+03 5.473348617553710938e+01 2.222565841674804688e+01 -3.685689568519592285e-01 8.058379173278808594e+00 2.306943178176879883e+00 1.996840119361877441e+00
4.125000000000000000e+03 5.590519714355468750e+01 2.391784477233886719e+01 -5.000799894332885742e-01 9.775783538818359375e+00 2.782711029052734375e+00 1.714736223220825195e+00
4.126000000000000000e+03 5.567184448242187500e+01 2.339021682739257812e+01 -5.051852464675903320e-01 9.338347434997558594e+00 2.649948596954345703e+00 1.778315901756286621e+00
4.127000000000000000e+03 5.780151367187500000e+01 2.486042976379394531e+01 -3.424007594585418701e-01 1.118503189086914062e+01 3.252789258956909180e+00 3.991539478302001953e-01
4.128000000000000000e+03 5.904738998413085938e+01 2.461860847473144531e+01 -1.753824353218078613e-01 1.092520713806152344e+01 3.224947452545166016e+00 -2.933963835239410400e-01
4.129000000000000000e+03 5.710181045532226562e+01 2.359638977050781250e+01 -6.105355024337768555e-01 1.023535919189453125e+01 2.887447118759155273e+00 9.611082673072814941e-01
4.130000000000000000e+03 5.574527359008789062e+01 2.095152854919433594e+01 -6.082414388656616211e-01 8.256340980529785156e+00 2.294430017471313477e+00 1.387876749038696289e+00
4.131000000000000000e+03 5.424414825439453125e+01 2.020793342590332031e+01 -3.753246963024139404e-01 7.172654628753662109e+00 2.039198875427246094e+00 1.694033861160278320e+00
4.132000000000000000e+03 5.712245559692382812e+01 1.521816062927246094e+01 -7.418710589408874512e-01 7.325838088989257812e+00 1.975190043449401855e+00 5.084528923034667969e-01
4.133000000000000000e+03 5.495420837402343750e+01 1.974828529357910156e+01 -5.245754718780517578e-01 7.510407924652099609e+00 2.095749616622924805e+00 1.449131131172180176e+00
4.134000000000000000e+03 5.873681640625000000e+01 2.377228164672851562e+01 -4.280081093311309814e-01 1.051328277587890625e+01 3.025582313537597656e+00 -1.057278644293546677e-02
4.135000000000000000e+03 5.735775375366210938e+01 2.435139083862304688e+01 -5.108625292778015137e-01 1.078407001495361328e+01 3.081962347030639648e+00 7.893485426902770996e-01
4.136000000000000000e+03 5.112331008911132812e+01 1.493017959594726562e+01 -1.248251572251319885e-01 5.084775924682617188e+00 1.487985134124755859e+00 1.166047096252441406e+00
4.137000000000000000e+03 5.859175872802734375e+01 1.763839912414550781e+01 -8.279654979705810547e-01 8.192028999328613281e+00 2.209218978881835938e+00 2.932386994361877441e-01
4.138000000000000000e+03 5.766388702392578125e+01 1.982925987243652344e+01 -7.995970249176025391e-01 8.647476196289062500e+00 2.354363679885864258e+00 6.082473397254943848e-01
4.139000000000000000e+03 5.832578659057617188e+01 1.969846725463867188e+01 -7.954130172729492188e-01 8.690486907958984375e+00 2.368522167205810547e+00 3.825222253799438477e-01
4.140000000000000000e+03 4.762900543212890625e+01 1.545010757446289062e+01 2.615796923637390137e-01 3.664192438125610352e+00 1.177731633186340332e+00 1.115941047668457031e+00
4.141000000000000000e+03 5.527316284179687500e+01 1.866046142578125000e+01 -5.890156626701354980e-01 7.406973838806152344e+00 2.045387268066406250e+00 1.216420292854309082e+00
4.142000000000000000e+03 5.827978134155273438e+01 1.629334259033203125e+01 -8.141341209411621094e-01 7.841235160827636719e+00 2.108130216598510742e+00 3.226076364517211914e-01
4.143000000000000000e+03 5.653958892822265625e+01 1.679108619689941406e+01 -7.138326764106750488e-01 7.451481342315673828e+00 2.021294593811035156e+00 7.119943499565124512e-01
4.144000000000000000e+03 4.790618515014648438e+01 1.458000564575195312e+01 1.831720024347305298e-01 3.824449062347412109e+00 1.202286243438720703e+00 1.059872746467590332e+00
4.145000000000000000e+03 5.054531097412109375e+01 1.606830024719238281e+01 1.053266925737261772e-03 4.824054241180419922e+00 1.447532296180725098e+00 1.304419398307800293e+00
4.146000000000000000e+03 5.792101669311523438e+01 1.711781120300292969e+01 -8.098800182342529297e-01 7.932420253753662109e+00 2.136762142181396484e+00 4.366263747215270996e-01
4.147000000000000000e+03 5.585960006713867188e+01 8.903712272644042969e+00 -5.443856716156005859e-01 6.174154758453369141e+00 1.688930749893188477e+00 3.257242143154144287e-01
4.148000000000000000e+03 4.816921997070312500e+01 5.181331157684326172e+00 -1.507118195295333862e-01 4.044127941131591797e+00 1.168024897575378418e+00 4.678893089294433594e-01
4.149000000000000000e+03 4.637716674804687500e+01 1.362398338317871094e+01 2.354275584220886230e-01 3.340247869491577148e+00 1.072702646255493164e+00 8.995669484138488770e-01
4.150000000000000000e+03 5.646330642700195312e+01 8.150013923645019531e+00 -5.528966784477233887e-01 6.243426322937011719e+00 1.707158923149108887e+00 2.538254559040069580e-01
4.151000000000000000e+03 4.721016693115234375e+01 4.572090804576873779e-01 -1.472501009702682495e-01 3.828762292861938477e+00 1.104453682899475098e+00 2.947973310947418213e-01
4.152000000000000000e+03 5.172841262817382812e+01 3.951551675796508789e+00 -3.035250306129455566e-01 4.930436134338378906e+00 1.388073325157165527e+00 3.369849920272827148e-01
4.153000000000000000e+03 4.887494659423828125e+01 1.295976161956787109e+01 8.723918348550796509e-03 4.196284294128417969e+00 1.261502385139465332e+00 9.399104118347167969e-01
4.154000000000000000e+03 5.010280609130859375e+01 3.335857391357421875e+00 -2.425314486026763916e-01 4.514664173126220703e+00 1.281639814376831055e+00 3.665097951889038086e-01
4.155000000000000000e+03 5.420996856689453125e+01 1.690468311309814453e+00 -3.635662496089935303e-01 5.377083301544189453e+00 1.504055023193359375e+00 1.833084374666213989e-01
4.156000000000000000e+03 5.498558044433593750e+01 6.941910386085510254e-01 -3.503359854221343994e-01 5.499948024749755859e+00 1.544883608818054199e+00 1.294176727533340454e-01
4.157000000000000000e+03 4.683927917480468750e+01 4.958512306213378906e+00 -1.005502343177795410e-01 3.728072404861450195e+00 1.088256597518920898e+00 4.421658813953399658e-01
4.158000000000000000e+03 5.369327926635742188e+01 1.711956214904785156e+01 -3.987857103347778320e-01 6.401300907135009766e+00 1.800754547119140625e+00 1.272936344146728516e+00
4.159000000000000000e+03 5.647668075561523438e+01 1.349965572357177734e+01 -6.703846454620361328e-01 6.853680133819580078e+00 1.854988574981689453e+00 5.077986717224121094e-01
4.160000000000000000e+03 5.659634017944335938e+01 1.225971984863281250e+01 -6.484290361404418945e-01 6.711663246154785156e+00 1.818970322608947754e+00 4.061783850193023682e-01
4.161000000000000000e+03 4.636815261840820312e+01 -1.107043933868408203e+01 -1.203035935759544373e-01 3.568874597549438477e+00 1.034571290016174316e+00 1.081588938832283020e-01
4.162000000000000000e+03 4.794287490844726562e+01 -4.828849792480468750e+00 -1.635933220386505127e-01 3.943765401840209961e+00 1.134051680564880371e+00 1.708375215530395508e-01
4.163000000000000000e+03 5.349704360961914062e+01 -2.381231307983398438e+00 -2.779316306114196777e-01 5.104448795318603516e+00 1.447955131530761719e+00 1.019144058227539062e-01
4.164000000000000000e+03 4.859436416625976562e+01 -1.075797748565673828e+01 -1.403452306985855103e-01 4.015299797058105469e+00 1.162486433982849121e+00 8.835732191801071167e-02
4.165000000000000000e+03 3.892480850219726562e+01 -1.746330070495605469e+01 -5.211681127548217773e-02 2.096363544464111328e+00 6.132739782333374023e-01 6.704054772853851318e-02
4.166000000000000000e+03 4.341323852539062500e+01 -1.901757812500000000e+01 -6.623400002717971802e-02 2.986167907714843750e+00 8.759801387786865234e-01 6.438963860273361206e-02
4.167000000000000000e+03 4.410468673706054688e+01 -1.414554405212402344e+01 -8.701575547456741333e-02 3.128423929214477539e+00 9.124224185943603516e-01 7.953464239835739136e-02
4.168000000000000000e+03 6.342207717895507812e+01 -2.951404190063476562e+01 -4.052631929516792297e-02 6.593166828155517578e+00 1.965792179107666016e+00 -1.536075770854949951e-02
4.169000000000000000e+03 6.927488708496093750e+01 -3.361980819702148438e+01 -2.497988753020763397e-02 7.650799274444580078e+00 2.287745714187622070e+00 5.473596043884754181e-03
4.170000000000000000e+03 5.686028289794921875e+01 2.415770149230957031e+01 -5.583081245422363281e-01 1.049269962310791016e+01 2.980317354202270508e+00 1.116734266281127930e+00
4.171000000000000000e+03 5.882926940917968750e+01 2.269486808776855469e+01 -6.041515469551086426e-01 9.961375236511230469e+00 2.807167053222656250e+00 8.927749842405319214e-02
4.172000000000000000e+03 5.820678710937500000e+01 2.473595809936523438e+01 -3.057328462600708008e-01 1.108681869506835938e+01 3.234325885772705078e+00 1.456941217184066772e-01
4.173000000000000000e+03 5.888731002807617188e+01 2.322001647949218750e+01 -5.119057893753051758e-01 1.021609115600585938e+01 2.911255598068237305e+00 -2.337343990802764893e-03
4.174000000000000000e+03 5.780485916137695312e+01 2.328191757202148438e+01 -6.164037585258483887e-01 1.019466304779052734e+01 2.873477697372436523e+00 6.005873680114746094e-01
4.175000000000000000e+03 5.511408615112304688e+01 2.149915313720703125e+01 -4.869033694267272949e-01 8.089591979980468750e+00 2.280806541442871094e+00 1.716470956802368164e+00
4.176000000000000000e+03 5.759446334838867188e+01 2.248444175720214844e+01 -6.946673989295959473e-01 9.744804382324218750e+00 2.715040922164916992e+00 7.098991274833679199e-01
4.177000000000000000e+03 5.746196746826171875e+01 1.913161849975585938e+01 -7.926762104034423828e-01 8.350735664367675781e+00 2.267417669296264648e+00 6.519616246223449707e-01
4.178000000000000000e+03 5.844219207763671875e+01 2.029122352600097656e+01 -7.938231825828552246e-01 8.938366889953613281e+00 2.443363189697265625e+00 3.822309672832489014e-01
4.179000000000000000e+03 5.780569076538085938e+01 2.180186080932617188e+01 -7.363784313201904297e-01 9.453630447387695312e+00 2.615175724029541016e+00 5.944198966026306152e-01
4.180000000000000000e+03 5.795930480957031250e+01 2.108371543884277344e+01 -7.659423947334289551e-01 9.191181182861328125e+00 2.527571678161621094e+00 5.317415595054626465e-01
4.181000000000000000e+03 5.578704071044921875e+01 1.579102420806884766e+01 -6.579132080078125000e-01 7.045849800109863281e+00 1.916381001472473145e+00 7.916129231452941895e-01
4.182000000000000000e+03 5.492585754394531250e+01 1.790102577209472656e+01 -5.450214743614196777e-01 7.057480335235595703e+00 1.953737616539001465e+00 1.197584629058837891e+00
4.183000000000000000e+03 5.360411071777343750e+01 1.594459247589111328e+01 -4.102146625518798828e-01 6.209663867950439453e+00 1.739834785461425781e+00 1.115252494812011719e+00
4.184000000000000000e+03 5.846028900146484375e+01 2.216782188415527344e+01 -6.911200284957885742e-01 9.709868431091308594e+00 2.705624341964721680e+00 3.028436899185180664e-01
4.185000000000000000e+03 4.867166137695312500e+01 1.486215686798095703e+01 1.339662522077560425e-01 4.095451354980468750e+00 1.268825292587280273e+00 1.131041288375854492e+00
4.186000000000000000e+03 4.733282470703125000e+01 9.529735565185546875e+00 -6.984495557844638824e-03 3.785996198654174805e+00 1.133703470230102539e+00 6.810060143470764160e-01
4.187000000000000000e+03 4.957508087158203125e+01 4.210804939270019531e+00 -2.218910157680511475e-01 4.407465457916259766e+00 1.255672335624694824e+00 4.032074809074401855e-01
4.188000000000000000e+03 5.472237014770507812e+01 1.692571830749511719e+01 -5.343047976493835449e-01 6.813291549682617188e+00 1.883695960044860840e+00 1.111428380012512207e+00
4.189000000000000000e+03 5.823235321044921875e+01 1.905449104309082031e+01 -8.136528134346008301e-01 8.514751434326171875e+00 2.310329675674438477e+00 4.012008905410766602e-01
4.190000000000000000e+03 5.729293060302734375e+01 1.683432960510253906e+01 -7.640379071235656738e-01 7.686776161193847656e+00 2.076821565628051758e+00 5.381598472595214844e-01
4.191000000000000000e+03 5.423987197875976562e+01 4.271608829498291016e+00 -3.952060043811798096e-01 5.515567302703857422e+00 1.536108374595642090e+00 2.476669996976852417e-01
4.192000000000000000e+03 4.767382812500000000e+01 1.210642719268798828e+01 7.065074890851974487e-02 3.868373870849609375e+00 1.181707382202148438e+00 8.658179640769958496e-01
4.193000000000000000e+03 5.460701370239257812e+01 7.565651416778564453e+00 -4.646744132041931152e-01 5.789766788482666016e+00 1.597527742385864258e+00 3.656273782253265381e-01
4.194000000000000000e+03 5.585382080078125000e+01 7.233508110046386719e+00 -5.094069838523864746e-01 6.057716846466064453e+00 1.664492964744567871e+00 2.575559020042419434e-01
4.195000000000000000e+03 4.809564208984375000e+01 6.567823886871337891e+00 -1.228502094745635986e-01 4.049170970916748047e+00 1.177896142005920410e+00 5.285664200782775879e-01
4.196000000000000000e+03 5.670888519287109375e+01 1.111241149902343750e+01 -6.299041509628295898e-01 6.603224754333496094e+00 1.791996240615844727e+00 3.364725708961486816e-01
4.197000000000000000e+03 5.541318130493164062e+01 6.225981712341308594e+00 -4.723002016544342041e-01 5.871979236602783203e+00 1.619903683662414551e+00 2.561132311820983887e-01
4.198000000000000000e+03 5.316505050659179688e+01 6.509672164916992188e+00 -3.805872201919555664e-01 5.373298168182373047e+00 1.497813224792480469e+00 4.033912420272827148e-01
4.199000000000000000e+03 4.692937469482421875e+01 1.278362751007080078e+01 1.554496437311172485e-01 3.565841674804687500e+00 1.116387367248535156e+00 8.765990138053894043e-01
4.200000000000000000e+03 4.781837081909179688e+01 1.063052177429199219e+01 -5.107219796627759933e-03 3.898964166641235352e+00 1.168157100677490234e+00 7.495330572128295898e-01
4.201000000000000000e+03 5.403971862792968750e+01 1.195244640111923218e-01 -3.233698308467864990e-01 5.328442096710205078e+00 1.501521706581115723e+00 1.425718665122985840e-01
4.202000000000000000e+03 5.474578094482421875e+01 1.095439720153808594e+01 -5.221208333969116211e-01 6.084997653961181641e+00 1.668862938880920410e+00 5.428869128227233887e-01
4.203000000000000000e+03 5.305091094970703125e+01 -1.387435644865036011e-01 -3.027806580066680908e-01 5.079316616058349609e+00 1.432960867881774902e+00 1.758904755115509033e-01
4.204000000000000000e+03 4.633982086181640625e+01 -2.535012662410736084e-01 -1.297539770603179932e-01 3.604991912841796875e+00 1.042571306228637695e+00 2.778114974498748779e-01
4.205000000000000000e+03 5.114281845092773438e+01 2.639385461807250977e+00 -2.808346450328826904e-01 4.743173122406005859e+00 1.338701605796813965e+00 3.090059161186218262e-01
4.206000000000000000e+03 5.572954559326171875e+01 1.102113533020019531e+01 -5.755776762962341309e-01 6.345447063446044922e+00 1.730960845947265625e+00 4.384450316429138184e-01
4.207000000000000000e+03 4.851132965087890625e+01 9.233621597290039062e+00 -9.737163782119750977e-02 4.147808551788330078e+00 1.215131044387817383e+00 6.656119823455810547e-01
4.208000000000000000e+03 5.015174865722656250e+01 -7.494861602783203125e+00 -1.795453876256942749e-01 4.356223583221435547e+00 1.253003358840942383e+00 1.049217879772186279e-01
4.209000000000000000e+03 4.704496765136718750e+01 -1.403493642807006836e+00 -1.506180167198181152e-01 3.759914636611938477e+00 1.082789063453674316e+00 2.489823102951049805e-01
4.210000000000000000e+03 5.263700485229492188e+01 -3.499509811401367188e+00 -2.638778984546661377e-01 4.907933712005615234e+00 1.393216729164123535e+00 1.214582994580268860e-01
4.211000000000000000e+03 5.661257934570312500e+01 2.334396553039550781e+01 -6.122146248817443848e-01 9.888732910156250000e+00 2.782955408096313477e+00 1.258572936058044434e+00
4.212000000000000000e+03 5.535026168823242188e+01 2.244934272766113281e+01 -4.948054850101470947e-01 8.640653610229492188e+00 2.443754673004150391e+00 1.794116735458374023e+00
4.213000000000000000e+03 5.803884506225585938e+01 2.403137969970703125e+01 -4.905807673931121826e-01 1.065119361877441406e+01 3.048183917999267578e+00 3.955617547035217285e-01
4.214000000000000000e+03 5.825842285156250000e+01 2.353310966491699219e+01 -5.466587543487548828e-01 1.036706161499023438e+01 2.946120977401733398e+00 3.304680883884429932e-01
4.215000000000000000e+03 5.693403625488281250e+01 2.286524581909179688e+01 -6.610281467437744141e-01 9.725601196289062500e+00 2.719372034072875977e+00 1.031329989433288574e+00
4.216000000000000000e+03 5.679970550537109375e+01 2.113735198974609375e+01 -7.345166802406311035e-01 8.860920906066894531e+00 2.437921285629272461e+00 1.001348853111267090e+00
4.217000000000000000e+03 5.533401870727539062e+01 2.037582588195800781e+01 -5.710734128952026367e-01 7.896953582763671875e+00 2.197763919830322266e+00 1.429432272911071777e+00
4.218000000000000000e+03 5.561164855957031250e+01 2.190710830688476562e+01 -5.569251179695129395e-01 8.559216499328613281e+00 2.400687456130981445e+00 1.605853915214538574e+00
4.219000000000000000e+03 5.662819671630859375e+01 2.255191612243652344e+01 -6.453706026077270508e-01 9.412213325500488281e+00 2.630052804946899414e+00 1.164739727973937988e+00
4.220000000000000000e+03 5.614269256591796875e+01 2.149724006652832031e+01 -6.529073119163513184e-01 8.692381858825683594e+00 2.411842584609985352e+00 1.347680449485778809e+00
4.221000000000000000e+03 5.737590789794921875e+01 2.073954010009765625e+01 -7.718390226364135742e-01 8.934406280517578125e+00 2.448770284652709961e+00 7.665162086486816406e-01
4.222000000000000000e+03 5.822752380371093750e+01 1.835745811462402344e+01 -8.204327225685119629e-01 8.292328834533691406e+00 2.241568803787231445e+00 3.940636217594146729e-01
4.223000000000000000e+03 5.788290405273437500e+01 2.044410705566406250e+01 -7.797709107398986816e-01 8.888936996459960938e+00 2.432749748229980469e+00 5.154972672462463379e-01
4.224000000000000000e+03 5.227817153930664062e+01 1.541692924499511719e+01 -2.511200308799743652e-01 5.598686695098876953e+00 1.604269981384277344e+00 1.176184773445129395e+00
4.225000000000000000e+03 4.946920013427734375e+01 1.508235073089599609e+01 6.537083536386489868e-02 4.407415866851806641e+00 1.341835975646972656e+00 1.181106805801391602e+00
4.226000000000000000e+03 5.138953781127929688e+01 1.578657722473144531e+01 -1.222560405731201172e-01 5.212836265563964844e+00 1.527173995971679688e+00 1.252893447875976562e+00
4.227000000000000000e+03 5.403308868408203125e+01 1.405822944641113281e+01 -4.747887551784515381e-01 6.174848079681396484e+00 1.710017800331115723e+00 8.728784918785095215e-01
4.228000000000000000e+03 5.660762405395507812e+01 1.829568672180175781e+01 -7.368546128273010254e-01 7.846179962158203125e+00 2.132797479629516602e+00 8.355681300163269043e-01
4.229000000000000000e+03 4.754999923706054688e+01 1.342172050476074219e+01 1.423210501670837402e-01 3.744515657424926758e+00 1.166051030158996582e+00 9.481546282768249512e-01
4.230000000000000000e+03 5.501153564453125000e+01 1.448674488067626953e+01 -5.610308051109313965e-01 6.532180786132812500e+00 1.791344881057739258e+00 7.990691065788269043e-01
4.231000000000000000e+03 5.108997726440429688e+01 1.143985176086425781e+01 -2.386969923973083496e-01 4.978162765502929688e+00 1.421839714050292969e+00 7.922829985618591309e-01
4.232000000000000000e+03 4.814252090454101562e+01 1.377359008789062500e+01 1.190615743398666382e-01 3.951592206954956055e+00 1.221196174621582031e+00 1.016080498695373535e+00
4.233000000000000000e+03 5.615333557128906250e+01 1.470576572418212891e+01 -6.641798019409179688e-01 6.966677665710449219e+00 1.890749335289001465e+00 6.324883103370666504e-01
4.234000000000000000e+03 5.541373825073242188e+01 1.328931713104248047e+01 -5.907068848609924316e-01 6.512083530426025391e+00 1.776412963867187500e+00 6.354616880416870117e-01
4.235000000000000000e+03 5.563105773925781250e+01 1.213335418701171875e+01 -5.941745042800903320e-01 6.452727317810058594e+00 1.757565855979919434e+00 5.228000283241271973e-01
4.236000000000000000e+03 5.326918792724609375e+01 8.936194181442260742e-01 -3.130107223987579346e-01 5.155395984649658203e+00 1.452715635299682617e+00 1.844106614589691162e-01
4.237000000000000000e+03 5.302961730957031250e+01 3.953373908996582031e+00 -3.493671715259552002e-01 5.216395854949951172e+00 1.460108637809753418e+00 2.975334227085113525e-01
4.238000000000000000e+03 4.822698593139648438e+01 7.938552379608154297e+00 -1.064630150794982910e-01 4.081971168518066406e+00 1.192652463912963867e+00 5.889449715614318848e-01
4.239000000000000000e+03 5.097298812866210938e+01 9.038727760314941406e+00 -2.600947618484497070e-01 4.874990463256835938e+00 1.384468793869018555e+00 6.281287074089050293e-01
4.240000000000000000e+03 4.906293869018554688e+01 5.178436636924743652e-01 -1.975057870149612427e-01 4.250686168670654297e+00 1.215954184532165527e+00 2.776332497596740723e-01
4.241000000000000000e+03 5.740564727783203125e+01 1.830578994750976562e+01 -7.879129648208618164e-01 8.090707778930664062e+00 2.190838575363159180e+00 6.119471788406372070e-01
4.242000000000000000e+03 5.576489257812500000e+01 1.764578247070312500e+01 -6.435248255729675293e-01 7.357687473297119141e+00 2.014248847961425781e+00 9.797014594078063965e-01
4.243000000000000000e+03 5.432490539550781250e+01 6.437190532684326172e+00 -4.328073859214782715e-01 5.641405105590820312e+00 1.562579274177551270e+00 3.292798995971679688e-01
4.244000000000000000e+03 4.841008758544921875e+01 3.777878046035766602e+00 -1.723721623420715332e-01 4.095023155212402344e+00 1.176795363426208496e+00 4.005801379680633545e-01
4.245000000000000000e+03 4.907791519165039062e+01 2.537249803543090820e+00 -2.036949992179870605e-01 4.255104064941406250e+00 1.215422749519348145e+00 3.427456021308898926e-01
4.246000000000000000e+03 5.471298599243164062e+01 9.888470649719238281e+00 -5.062975883483886719e-01 5.987535953521728516e+00 1.644371509552001953e+00 4.813247919082641602e-01
4.247000000000000000e+03 4.945845413208007812e+01 6.591166019439697266e+00 -1.885750740766525269e-01 4.404417037963867188e+00 1.264752626419067383e+00 5.081131458282470703e-01
4.248000000000000000e+03 4.696290206909179688e+01 1.121193790435791016e+01 7.022979110479354858e-02 3.647234916687011719e+00 1.115239381790161133e+00 7.678384780883789062e-01
4.249000000000000000e+03 5.194546508789062500e+01 -5.678785443305969238e-01 -2.661828696727752686e-01 4.837368011474609375e+00 1.371355533599853516e+00 2.068473249673843384e-01
4.250000000000000000e+03 5.357360839843750000e+01 9.957193374633789062e+00 -4.354626834392547607e-01 5.687959194183349609e+00 1.575748920440673828e+00 5.682994127273559570e-01
4.251000000000000000e+03 5.182289505004882812e+01 -2.449964761734008789e+00 -2.672512233257293701e-01 4.781061172485351562e+00 1.354143023490905762e+00 1.877007931470870972e-01
4.252000000000000000e+03 5.357005691528320312e+01 -5.028616428375244141e+00 -2.426148951053619385e-01 5.063465595245361328e+00 1.446255207061767578e+00 8.534011989831924438e-02
4.253000000000000000e+03 4.945556640625000000e+01 5.351599216461181641e+00 -2.039949744939804077e-01 4.378787040710449219e+00 1.252437591552734375e+00 4.492879211902618408e-01
4.254000000000000000e+03 5.364888763427734375e+01 -1.410641384124755859e+01 -1.465843170881271362e-01 4.944578647613525391e+00 1.439398288726806641e+00 2.732392027974128723e-02
4.255000000000000000e+03 2.353507995605468750e+01 -3.640613937377929688e+01 -3.738284483551979065e-02 -5.455902814865112305e-01 -1.748919337987899780e-01 3.093415498733520508e-02
4.256000000000000000e+03 5.422866058349609375e+01 -2.736132431030273438e+01 -3.916804865002632141e-02 4.963848114013671875e+00 1.477403998374938965e+00 2.324059605598449707e-03
4.257000000000000000e+03 6.728800201416015625e+01 -3.496864700317382812e+01 -1.379752624779939651e-02 7.320075035095214844e+00 2.191883325576782227e+00 -2.465748926624655724e-03
4.258000000000000000e+03 7.007434082031250000e+01 -3.577096557617187500e+01 -2.631712518632411957e-02 7.829677104949951172e+00 2.341007947921752930e+00 -1.086374092847108841e-02
4.259000000000000000e+03 5.705491638183593750e+01 2.179852104187011719e+01 -7.105005979537963867e-01 9.208272933959960938e+00 2.549331665039062500e+00 9.263563752174377441e-01
4.260000000000000000e+03 5.628569793701171875e+01 1.887982368469238281e+01 -6.968283057212829590e-01 7.877221107482910156e+00 2.154117822647094727e+00 9.680112600326538086e-01
4.261000000000000000e+03 5.702465057373046875e+01 2.011429977416992188e+01 -7.665061950683593750e-01 8.556627273559570312e+00 2.337036371231079102e+00 8.579712510108947754e-01
4.262000000000000000e+03 5.263829803466796875e+01 1.407605743408203125e+01 -3.294899165630340576e-01 5.655826568603515625e+00 1.597900986671447754e+00 9.745573997497558594e-01
4.263000000000000000e+03 5.094206619262695312e+01 1.413272285461425781e+01 -1.385589838027954102e-01 4.986998081207275391e+00 1.454531669616699219e+00 1.076811313629150391e+00
4.264000000000000000e+03 5.450676727294921875e+01 1.301447772979736328e+01 -5.204649567604064941e-01 6.220652103424072266e+00 1.710056185722351074e+00 7.210655212402343750e-01
4.265000000000000000e+03 5.639251327514648438e+01 2.050934791564941406e+01 -6.935744881629943848e-01 8.416902542114257812e+00 2.316998481750488281e+00 1.113144397735595703e+00
4.266000000000000000e+03 5.563150405883789062e+01 1.930734634399414062e+01 -6.286727786064147949e-01 7.749310493469238281e+00 2.136191129684448242e+00 1.202555060386657715e+00
4.267000000000000000e+03 5.708777618408203125e+01 2.239193344116210938e+01 -6.771488785743713379e-01 9.543017387390136719e+00 2.659760475158691406e+00 9.252461791038513184e-01
4.268000000000000000e+03 5.568232727050781250e+01 1.678942298889160156e+01 -6.458993554115295410e-01 7.161642551422119141e+00 1.954723000526428223e+00 9.139121174812316895e-01
4.269000000000000000e+03 5.026307678222656250e+01 1.412346649169921875e+01 -7.054405659437179565e-02 4.724133014678955078e+00 1.396076679229736328e+00 1.084536433219909668e+00
4.270000000000000000e+03 5.221409988403320312e+01 8.946112632751464844e+00 -3.428506553173065186e-01 5.224362373352050781e+00 1.464453577995300293e+00 5.802929997444152832e-01
4.271000000000000000e+03 5.665678405761718750e+01 1.597446155548095703e+01 -7.177256345748901367e-01 7.292755126953125000e+00 1.972508907318115234e+00 6.602136492729187012e-01
4.272000000000000000e+03 5.323316192626953125e+01 1.489508438110351562e+01 -3.856167495250701904e-01 5.965572357177734375e+00 1.673986673355102539e+00 1.027297377586364746e+00
4.273000000000000000e+03 5.733436584472656250e+01 1.751992034912109375e+01 -7.792370915412902832e-01 7.870009422302246094e+00 2.127231836318969727e+00 5.714375972747802734e-01
4.274000000000000000e+03 5.656241226196289062e+01 1.756106567382812500e+01 -7.306242585182189941e-01 7.665245532989501953e+00 2.080386400222778320e+00 7.753316164016723633e-01
4.275000000000000000e+03 5.070796585083007812e+01 1.227353000640869141e+01 -1.796442121267318726e-01 4.844348907470703125e+00 1.399411439895629883e+00 8.959008455276489258e-01
4.276000000000000000e+03 4.847742843627929688e+01 1.141971397399902344e+01 -2.612138912081718445e-02 4.132450580596923828e+00 1.231898665428161621e+00 8.143155574798583984e-01
4.277000000000000000e+03 5.471977615356445312e+01 1.198847866058349609e+01 -5.276291966438293457e-01 6.165778160095214844e+00 1.691444635391235352e+00 6.111025214195251465e-01
4.278000000000000000e+03 5.416138076782226562e+01 5.343530654907226562e+00 -4.110558331012725830e-01 5.541517734527587891e+00 1.539138555526733398e+00 2.925608158111572266e-01
4.279000000000000000e+03 5.068497848510742188e+01 5.382723331451416016e+00 -2.590256929397583008e-01 4.718427658081054688e+00 1.337820649147033691e+00 4.227269589900970459e-01
4.280000000000000000e+03 5.345487594604492188e+01 8.828730583190917969e+00 -4.173115193843841553e-01 5.561131000518798828e+00 1.543145895004272461e+00 5.098913908004760742e-01
4.281000000000000000e+03 5.332572937011718750e+01 7.677557945251464844e+00 -4.032911658287048340e-01 5.466536998748779297e+00 1.518973708152770996e+00 4.549044072628021240e-01
4.282000000000000000e+03 5.473034667968750000e+01 8.744052886962890625e+00 -4.931762218475341797e-01 5.906082630157470703e+00 1.623871803283691406e+00 4.121189415454864502e-01
4.283000000000000000e+03 5.225558853149414062e+01 1.731256127357482910e+00 -3.043475151062011719e-01 4.977583408355712891e+00 1.401970744132995605e+00 2.531362175941467285e-01
4.284000000000000000e+03 5.010721969604492188e+01 1.539077281951904297e+00 -2.326841205358505249e-01 4.485210895538330078e+00 1.275758028030395508e+00 2.899423539638519287e-01
4.285000000000000000e+03 5.001015090942382812e+01 -4.972645938396453857e-01 -2.227352261543273926e-01 4.422662258148193359e+00 1.259978055953979492e+00 2.303714603185653687e-01
4.286000000000000000e+03 4.899847412109375000e+01 -1.538951277732849121e+00 -1.997098177671432495e-01 4.193362236022949219e+00 1.198095679283142090e+00 2.296060919761657715e-01
4.287000000000000000e+03 5.091032791137695312e+01 -1.518018126487731934e+00 -2.458609789609909058e-01 4.607172012329101562e+00 1.308393239974975586e+00 2.004531621932983398e-01
4.288000000000000000e+03 5.187248992919921875e+01 5.304341793060302734e+00 -3.143976330757141113e-01 5.019222259521484375e+00 1.411447405815124512e+00 3.964705169200897217e-01
4.289000000000000000e+03 4.954393768310546875e+01 1.405356788635253906e+01 -4.556534811854362488e-03 4.475365161895751953e+00 1.341242551803588867e+00 1.060491085052490234e+00
4.290000000000000000e+03 4.813623046875000000e+01 1.295035743713378906e+01 6.727333366870880127e-02 3.972101926803588867e+00 1.211812496185302734e+00 9.455137252807617188e-01
4.291000000000000000e+03 5.206542968750000000e+01 1.334956169128417969e+01 -2.802877724170684814e-01 5.374987602233886719e+00 1.528409957885742188e+00 9.357849955558776855e-01
4.292000000000000000e+03 4.640662765502929688e+01 -8.461925506591796875e+00 -1.339915841817855835e-01 3.590764045715332031e+00 1.037031769752502441e+00 1.308198422193527222e-01
4.293000000000000000e+03 5.074629974365234375e+01 6.585749626159667969e+00 -2.627812027931213379e-01 4.760391235351562500e+00 1.349283099174499512e+00 4.838466942310333252e-01
4.294000000000000000e+03 4.907260513305664062e+01 -3.721730232238769531e+00 -1.960428506135940552e-01 4.174871444702148438e+00 1.193648576736450195e+00 1.851377487182617188e-01
4.295000000000000000e+03 5.059457015991210938e+01 -1.381812477111816406e+01 -1.352902054786682129e-01 4.400369644165039062e+00 1.279523849487304688e+00 4.808218777179718018e-02
4.296000000000000000e+03 5.001171112060546875e+01 -2.598856925964355469e+00 -2.138945013284683228e-01 4.379293441772460938e+00 1.249619722366333008e+00 1.818193644285202026e-01
4.297000000000000000e+03 6.006178665161132812e+01 -2.379450988769531250e+01 -6.465832144021987915e-02 6.016089439392089844e+00 1.785429358482360840e+00 -1.648734323680400848e-02
4.298000000000000000e+03 3.187820053100585938e+01 -2.895673370361328125e+01 -2.032696455717086792e-02 8.556919097900390625e-01 2.506094872951507568e-01 1.172974426299333572e-02
4.299000000000000000e+03 5.601398849487304688e+01 1.990590476989746094e+01 -6.615682840347290039e-01 8.053525924682617188e+00 2.217587232589721680e+00 1.175364255905151367e+00
4.300000000000000000e+03 5.012674713134765625e+01 1.156316947937011719e+01 -1.434319466352462769e-01 4.631889820098876953e+00 1.346537470817565918e+00 8.192409276962280273e-01
4.301000000000000000e+03 5.589242935180664062e+01 2.238418769836425781e+01 -5.900155901908874512e-01 8.963583946228027344e+00 2.512070417404174805e+00 1.575242280960083008e+00
4.302000000000000000e+03 5.642637634277343750e+01 2.205210494995117188e+01 -6.694467663764953613e-01 9.120198249816894531e+00 2.535225629806518555e+00 1.266659617424011230e+00
4.303000000000000000e+03 5.593764114379882812e+01 1.834661483764648438e+01 -6.630948185920715332e-01 7.569425106048583984e+00 2.071899175643920898e+00 1.021351575851440430e+00
4.304000000000000000e+03 5.473034286499023438e+01 1.572904491424560547e+01 -5.370967388153076172e-01 6.614207744598388672e+00 1.823133349418640137e+00 9.540826082229614258e-01
4.305000000000000000e+03 5.152682876586914062e+01 1.388556194305419922e+01 -2.116278707981109619e-01 5.213840961456298828e+00 1.500663876533508301e+00 1.028725385665893555e+00
4.306000000000000000e+03 5.327207565307617188e+01 1.340480136871337891e+01 -4.006884396076202393e-01 5.818149566650390625e+00 1.625238418579101562e+00 8.779855966567993164e-01
4.307000000000000000e+03 5.374345397949218750e+01 1.100314140319824219e+01 -4.529450237751007080e-01 5.798651218414306641e+00 1.603711843490600586e+00 6.306620836257934570e-01
4.308000000000000000e+03 5.375041580200195312e+01 1.267813491821289062e+01 -4.498355388641357422e-01 5.944548130035400391e+00 1.648413777351379395e+00 7.795941233634948730e-01
4.309000000000000000e+03 5.262255477905273438e+01 1.270843410491943359e+01 -3.485792279243469238e-01 5.553871631622314453e+00 1.561587810516357422e+00 8.422121405601501465e-01
4.310000000000000000e+03 5.670476913452148438e+01 1.944687843322753906e+01 -7.407065629959106445e-01 8.204343795776367188e+00 2.239091157913208008e+00 9.045025706291198730e-01
4.311000000000000000e+03 5.103860855102539062e+01 1.342278480529785156e+01 -1.732700616121292114e-01 5.002411365509033203e+00 1.448742389678955078e+00 9.960715174674987793e-01
4.312000000000000000e+03 4.876195144653320312e+01 1.043859672546386719e+01 -7.860204577445983887e-02 4.223488330841064453e+00 1.243465781211853027e+00 7.549789547920227051e-01
4.313000000000000000e+03 5.389401626586914062e+01 1.190981388092041016e+01 -4.721813201904296875e-01 5.916685581207275391e+00 1.633351206779479980e+00 6.932519078254699707e-01
4.314000000000000000e+03 5.144076538085937500e+01 1.273457050323486328e+01 -2.274653911590576172e-01 5.098785877227783203e+00 1.461396217346191406e+00 9.153938293457031250e-01
4.315000000000000000e+03 5.304391479492187500e+01 5.287449836730957031e+00 -3.654860556125640869e-01 5.276002407073974609e+00 1.473155021667480469e+00 3.516551852226257324e-01
4.316000000000000000e+03 5.197461700439453125e+01 6.549819946289062500e+00 -3.258826434612274170e-01 5.076486587524414062e+00 1.425181150436401367e+00 4.514268338680267334e-01
4.317000000000000000e+03 4.956166839599609375e+01 7.852839469909667969e+00 -1.840561479330062866e-01 4.454989433288574219e+00 1.281280040740966797e+00 5.800142884254455566e-01
4.318000000000000000e+03 5.343143463134765625e+01 2.699787855148315430e+00 -3.520299196243286133e-01 5.251992225646972656e+00 1.469988703727722168e+00 2.413737326860427856e-01
4.319000000000000000e+03 5.260454177856445312e+01 -1.648570895195007324e+00 -2.625583708286285400e-01 4.891020774841308594e+00 1.388538599014282227e+00 1.503483951091766357e-01
4.320000000000000000e+03 5.112990570068359375e+01 5.522340536117553711e-01 -2.585017979145050049e-01 4.689622879028320312e+00 1.329336285591125488e+00 2.411521822214126587e-01
4.321000000000000000e+03 5.084124374389648438e+01 7.804081916809082031e+00 -2.604089379310607910e-01 4.807055950164794922e+00 1.363994002342224121e+00 5.507079362869262695e-01
4.322000000000000000e+03 5.208736801147460938e+01 7.750029087066650391e+00 -3.337027132511138916e-01 5.145503520965576172e+00 1.443540334701538086e+00 5.120444297790527344e-01
4.323000000000000000e+03 5.059413528442382812e+01 4.253003120422363281e+00 -2.559240460395812988e-01 4.647040843963623047e+00 1.317335128784179688e+00 3.852781951427459717e-01
4.324000000000000000e+03 5.044380950927734375e+01 -4.898194789886474609e+00 -2.098655402660369873e-01 4.459960937500000000e+00 1.275028586387634277e+00 1.468763500452041626e-01
4.325000000000000000e+03 4.773044967651367188e+01 -7.246073246002197266e+00 -1.469446569681167603e-01 3.873198986053466797e+00 1.117876291275024414e+00 1.347545236349105835e-01
4.326000000000000000e+03 4.748481750488281250e+01 -9.705159187316894531e+00 -1.363268643617630005e-01 3.789677381515502930e+00 1.096005201339721680e+00 1.061779484152793884e-01
4.327000000000000000e+03 6.064830017089843750e+01 -3.030300903320312500e+01 -3.439614921808242798e-02 6.133711814880371094e+00 1.829794645309448242e+00 -1.279030926525592804e-03
4.328000000000000000e+03 7.365683078765869141e+00 -3.703987503051757812e+01 -6.774782086722552776e-04 1.589419087395071983e-03 2.735822636168450117e-04 1.144263148307800293e-02
4.329000000000000000e+03 6.487424468994140625e+01 -3.253665161132812500e+01 -1.898326724767684937e-02 6.908195495605468750e+00 2.066763639450073242e+00 -1.250990480184555054e-02
4.330000000000000000e+03 5.112040710449218750e+01 1.030517864227294922e+01 -2.561626434326171875e-01 4.964672088623046875e+00 1.412552714347839355e+00 7.150664925575256348e-01
4.331000000000000000e+03 4.973162460327148438e+01 9.114043235778808594e+00 -1.761351227760314941e-01 4.509302616119384766e+00 1.299950242042541504e+00 6.545686125755310059e-01
4.332000000000000000e+03 5.034828186035156250e+01 1.312930488586425781e+01 -1.169621050357818604e-01 4.767504692077636719e+00 1.395162820816040039e+00 9.815464615821838379e-01
4.333000000000000000e+03 4.926904296875000000e+01 1.212553596496582031e+01 -5.833384394645690918e-02 4.372691154479980469e+00 1.294307231903076172e+00 8.899143338203430176e-01
4.334000000000000000e+03 5.195797348022460938e+01 1.193896675109863281e+01 -2.997047603130340576e-01 5.253245353698730469e+00 1.486062288284301758e+00 8.093562722206115723e-01
4.335000000000000000e+03 4.524778366088867188e+01 -1.255513191223144531e+01 -1.124047413468360901e-01 3.355978965759277344e+00 9.730722308158874512e-01 8.833888173103332520e-02
4.336000000000000000e+03 4.988166427612304688e+01 1.039459228515625000e+01 -1.588475257158279419e-01 4.544291973114013672e+00 1.315633416175842285e+00 7.427148818969726562e-01
4.337000000000000000e+03 5.237339401245117188e+01 1.017115974426269531e+01 -3.426486253738403320e-01 5.321311950683593750e+00 1.493598937988281250e+00 6.593841314315795898e-01
4.338000000000000000e+03 4.910252761840820312e+01 -6.108115196228027344e+00 -1.701594889163970947e-01 4.177831172943115234e+00 1.202301502227783203e+00 1.354603767395019531e-01
4.339000000000000000e+03 5.183401489257812500e+01 -6.412960529327392578e+00 -2.135027199983596802e-01 4.704903602600097656e+00 1.347420215606689453e+00 1.024849116802215576e-01
4.340000000000000000e+03 5.033819580078125000e+01 -1.016863727569580078e+01 -1.623065918684005737e-01 4.378865242004394531e+00 1.264967679977416992e+00 7.349777966737747192e-02
4.341000000000000000e+03 5.320510101318359375e+01 1.213668727874755859e+01 -4.031348526477813721e-01 5.694223403930664062e+00 1.587326526641845703e+00 7.796123623847961426e-01
4.342000000000000000e+03 5.060388565063476562e+01 -8.896745681762695312e+00 -1.764803528785705566e-01 4.435682296752929688e+00 1.277760505676269531e+00 9.061978012323379517e-02
4.343000000000000000e+03 4.868724441528320312e+01 -8.480343818664550781e+00 -1.642229259014129639e-01 4.043852329254150391e+00 1.163888812065124512e+00 1.089569032192230225e-01
4.344000000000000000e+03 4.948061752319335938e+01 -9.545063972473144531e+00 -1.561346203088760376e-01 4.192659854888916016e+00 1.210957527160644531e+00 1.006274744868278503e-01
4.345000000000000000e+03 5.133582305908203125e+01 -1.049553966522216797e+01 -1.677998155355453491e-01 4.507007122039794922e+00 1.301762223243713379e+00 6.307711452245712280e-02
4.346000000000000000e+03 5.232577133178710938e+01 -1.216146087646484375e+01 -1.580135226249694824e-01 4.721144199371337891e+00 1.368939280509948730e+00 5.060563609004020691e-02
4.347000000000000000e+03 4.912292861938476562e+01 -1.314382171630859375e+01 -1.216889470815658569e-01 4.101524829864501953e+00 1.193950772285461426e+00 5.717488005757331848e-02
4.348000000000000000e+03 2.465111351013183594e+01 -3.378697586059570312e+01 -8.360407501459121704e-02 -4.202001690864562988e-01 -1.511412709951400757e-01 3.224155399948358536e-03
4.349000000000000000e+03 2.997243309020996094e+01 -3.526040267944335938e+01 1.544869598001241684e-02 5.136523246765136719e-01 1.587302982807159424e-01 1.832584477961063385e-02
4.350000000000000000e+03 5.063689041137695312e+01 -2.537787246704101562e+01 -4.776493832468986511e-02 4.356050968170166016e+00 1.292485713958740234e+00 1.056776847690343857e-02
4.351000000000000000e+03 7.967502117156982422e+00 4.130319213867187500e+01 3.157224637106992304e-05 1.391441128362203017e-05 1.364599756925599650e-05 2.557964307925431058e-06
4.352000000000000000e+03 5.273321914672851562e+01 1.128308391571044922e+01 -3.681735098361968994e-01 5.482460021972656250e+00 1.534285902976989746e+00 7.267030477523803711e-01
4.353000000000000000e+03 4.770066833496093750e+01 -1.220681953430175781e+01 -1.231019422411918640e-01 3.810009241104125977e+00 1.106072187423706055e+00 8.416970074176788330e-02
4.354000000000000000e+03 4.978502655029296875e+01 -1.153133487701416016e+01 -1.549123525619506836e-01 4.249070644378662109e+00 1.228247523307800293e+00 7.088647037744522095e-02
4.355000000000000000e+03 2.587483215332031250e+01 -3.541412734985351562e+01 -3.308156132698059082e-02 -1.732621639966964722e-01 -6.190311908721923828e-02 5.183818191289901733e-02
4.356000000000000000e+03 4.568010330200195312e+01 -1.541296291351318359e+01 -9.598311781883239746e-02 3.458100795745849609e+00 1.008635282516479492e+00 6.405594199895858765e-02
4.357000000000000000e+03 4.946149444580078125e+01 -2.004496955871582031e+01 -7.934390753507614136e-02 4.121413230895996094e+00 1.212620735168457031e+00 3.287345916032791138e-02
4.358000000000000000e+03 4.844705200195312500e+01 -1.793873405456542969e+01 -9.413577616214752197e-02 3.948247194290161133e+00 1.156233429908752441e+00 5.231331288814544678e-02
4.359000000000000000e+03 5.181671142578125000e+01 -1.909923171997070312e+01 -9.324654191732406616e-02 4.572010993957519531e+00 1.343629240989685059e+00 2.833034843206405640e-02
4.360000000000000000e+03 4.646418762207031250e+01 -1.824016952514648438e+01 -6.308013200759887695e-02 3.595385313034057617e+00 1.059691548347473145e+00 4.139725863933563232e-02
4.361000000000000000e+03 5.368900299072265625e+01 -1.635793113708496094e+01 -1.213275268673896790e-01 4.946461200714111328e+00 1.447540044784545898e+00 1.906973123550415039e-02
4.362000000000000000e+03 4.026868057250976562e+01 -1.914931106567382812e+01 -5.270781368017196655e-02 2.384403467178344727e+00 6.995086669921875000e-01 6.547564268112182617e-02
4.363000000000000000e+03 2.767505264282226562e+01 -2.394875526428222656e+01 6.857418455183506012e-03 5.858880653977394104e-02 1.963386684656143188e-02 -1.930247619748115540e-02
4.364000000000000000e+03 2.760878944396972656e+01 -2.577138137817382812e+01 -8.891764096915721893e-03 6.523727625608444214e-02 1.690365374088287354e-02 -1.755008660256862640e-02
4.365000000000000000e+03 3.748881530761718750e+01 -1.863144111633300781e+01 -3.540968894958496094e-02 1.805174350738525391e+00 5.309293866157531738e-01 5.388485267758369446e-02
4.366000000000000000e+03 4.462430191040039062e+01 -1.715268898010253906e+01 -6.713315099477767944e-02 3.211116313934326172e+00 9.431949853897094727e-01 5.355856940150260925e-02
4.367000000000000000e+03 4.172467422485351562e+01 -1.750064849853515625e+01 -6.161167845129966736e-02 2.657741785049438477e+00 7.788390517234802246e-01 6.307904422283172607e-02
4.368000000000000000e+03 4.214158248901367188e+01 3.926177215576171875e+01 4.196915328502655029e-01 -2.483946532011032104e-01 5.138906836509704590e-02 3.077875673770904541e-01
4.369000000000000000e+03 5.727753448486328125e+01 -2.726476287841796875e+01 -5.124936997890472412e-02 5.530412197113037109e+00 1.643748879432678223e+00 -1.221263315528631210e-03
4.370000000000000000e+03 5.399698257446289062e+01 -1.874961662292480469e+01 -9.534470736980438232e-02 4.999723434448242188e+00 1.471313595771789551e+00 1.292303670197725296e-02
4.371000000000000000e+03 7.349369812011718750e+01 3.707514572143554688e+01 1.353349536657333374e-01 6.202656745910644531e+00 1.901397466659545898e+00 -1.188121438026428223e-01
4.372000000000000000e+03 3.582970809936523438e+01 -1.928416252136230469e+01 -2.841703779995441437e-02 1.529181957244873047e+00 4.502294659614562988e-01 5.491150915622711182e-02
4.373000000000000000e+03 6.691060638427734375e+01 -2.389767265319824219e+01 -3.727257996797561646e-02 7.271936893463134766e+00 2.170399188995361328e+00 -3.407520800828933716e-02
4.374000000000000000e+03 4.351016616821289062e+01 -2.263033866882324219e+01 -4.660730436444282532e-02 3.002113103866577148e+00 8.866517543792724609e-01 3.802972659468650818e-02
4.375000000000000000e+03 4.538444137573242188e+01 -2.038972663879394531e+01 -7.196234166622161865e-02 3.368063211441040039e+00 9.888302087783813477e-01 4.855436459183692932e-02
4.376000000000000000e+03 6.666596221923828125e+01 -3.784469985961914062e+01 -8.925647474825382233e-03 7.213447570800781250e+00 2.161356449127197266e+00 2.266919473186135292e-03
4.377000000000000000e+03 6.016097259521484375e+01 -2.701046180725097656e+01 -5.794617906212806702e-02 6.023760318756103516e+00 1.789744257926940918e+00 -4.044193308800458908e-03
4.378000000000000000e+03 1.759809494018554688e+01 -4.141838073730468750e+01 7.528394460678100586e-02 -4.743635058403015137e-01 -1.197238713502883911e-01 -1.238426193594932556e-01
4.379000000000000000e+03 7.556800079345703125e+01 -3.715095901489257812e+01 -4.195978492498397827e-02 8.936883926391601562e+00 2.668477296829223633e+00 -1.010462734848260880e-02
4.380000000000000000e+03 3.464968109130859375e+01 -2.904281044006347656e+01 -1.972123980522155762e-02 1.386777043342590332e+00 4.101167321205139160e-01 5.083440616726875305e-02
4.381000000000000000e+03 5.233138275146484375e+01 -2.143680381774902344e+01 -8.451976627111434937e-02 4.659849166870117188e+00 1.372598767280578613e+00 1.782910153269767761e-02
4.382000000000000000e+03 6.994925022125244141e+00 3.628046798706054688e+01 -1.033456646837294102e-05 4.729457941721193492e-05 1.108800461224745959e-05 3.599964838940650225e-05
4.383000000000000000e+03 7.699421405792236328e+00 3.454962158203125000e+01 9.089505510928574950e-06 -1.357722067041322589e-05 -1.346314547845395282e-06 -3.750746827790862881e-06
4.384000000000000000e+03 5.104080581665039062e+01 -1.200156497955322266e+01 -1.514048278331756592e-01 4.474584102630615234e+00 1.296953797340393066e+00 6.311081349849700928e-02
4.385000000000000000e+03 5.733661651611328125e+01 4.171583557128906250e+01 -1.775571107864379883e+00 1.128125286102294922e+01 2.851704597473144531e+00 -3.946168720722198486e-02
4.386000000000000000e+03 2.771117210388183594e+01 -4.071175384521484375e+01 8.389481902122497559e-02 1.227998733520507812e-01 6.200840696692466736e-02 1.784949935972690582e-02
4.387000000000000000e+03 2.721846008300781250e+01 -3.764034271240234375e+01 3.652177751064300537e-02 6.125438585877418518e-02 2.933284826576709747e-02 6.770008057355880737e-02
4.388000000000000000e+03 6.155436515808105469e+00 3.835987854003906250e+01 2.987239167850930244e-05 -2.419411976006813347e-05 1.703481643744453322e-06 2.562913323345128447e-05
4.389000000000000000e+03 4.725989532470703125e+01 -2.196174430847167969e+01 -7.256927341222763062e-02 3.700258970260620117e+00 1.088306903839111328e+00 3.979453817009925842e-02
4.390000000000000000e+03 6.222751998901367188e+01 -3.751689529418945312e+01 -1.340017467737197876e-02 6.430659294128417969e+00 1.925177693367004395e+00 -2.993816277012228966e-03
4.391000000000000000e+03 5.762807464599609375e+01 -3.762507629394531250e+01 -1.601934432983398438e-02 5.561607360839843750e+00 1.663676381111145020e+00 -1.967236894415691495e-04
4.392000000000000000e+03 3.764150619506835938e+01 -3.605067062377929688e+01 1.215874589979648590e-02 1.903543710708618164e+00 5.747107267379760742e-01 2.856646105647087097e-02
4.393000000000000000e+03 3.330171966552734375e+01 -3.631961822509765625e+01 2.168926596641540527e-02 1.081481575965881348e+00 3.309512436389923096e-01 2.005402743816375732e-02
4.394000000000000000e+03 7.170100402832031250e+01 -4.108840560913085938e+01 -1.997196581214666367e-03 8.190814971923828125e+00 2.456645488739013672e+00 -6.593344733119010925e-03
4.395000000000000000e+03 3.846170806884765625e+01 -2.059635925292968750e+01 -3.581226617097854614e-02 2.025887489318847656e+00 5.970225930213928223e-01 4.406329244375228882e-02
4.396000000000000000e+03 3.403644561767578125e+01 -2.150719642639160156e+01 -3.143360465764999390e-02 1.219768166542053223e+00 3.565003871917724609e-01 4.937900230288505554e-02
4.397000000000000000e+03 5.208218383789062500e+01 -2.362610054016113281e+01 -7.018274813890457153e-02 4.590924263000488281e+00 1.356222391128540039e+00 1.785371452569961548e-02
4.398000000000000000e+03 4.533065032958984375e+01 -2.427184867858886719e+01 -4.667367413640022278e-02 3.315656661987304688e+00 9.806948900222778320e-01 2.689499594271183014e-02
4.399000000000000000e+03 6.157498931884765625e+01 -3.384394836425781250e+01 -2.603999339044094086e-02 6.322311401367187500e+00 1.888881444931030273e+00 -1.021214644424617290e-03
4.400000000000000000e+03 3.919369125366210938e+01 -2.701856803894042969e+01 -2.839663997292518616e-02 2.114847421646118164e+00 6.259352564811706543e-01 3.858592361211776733e-02
4.401000000000000000e+03 4.916733551025390625e+01 -2.713442802429199219e+01 -5.517035722732543945e-02 4.038052558898925781e+00 1.194864749908447266e+00 2.203842438757419586e-02
4.402000000000000000e+03 3.740352249145507812e+01 -2.962122344970703125e+01 -1.468812022358179092e-02 1.814911365509033203e+00 5.400669574737548828e-01 4.778649285435676575e-02
4.403000000000000000e+03 3.974889373779296875e+01 -2.275529289245605469e+01 -1.999603398144245148e-02 2.287037134170532227e+00 6.801123023033142090e-01 5.038372799754142761e-02
4.404000000000000000e+03 4.150373840332031250e+01 -2.908333396911621094e+01 -2.125800959765911102e-02 2.588165998458862305e+00 7.700724005699157715e-01 6.111314520239830017e-03
4.405000000000000000e+03 4.887659835815429688e+01 -2.375694274902343750e+01 -6.238429993391036987e-02 4.025347232818603516e+00 1.188888907432556152e+00 2.798529900610446930e-02
4.406000000000000000e+03 4.651177215576171875e+01 -3.266394042968750000e+01 -1.186318229883909225e-02 3.525178909301757812e+00 1.053994774818420410e+00 2.483409456908702850e-02
4.407000000000000000e+03 5.741718292236328125e+01 -3.069600677490234375e+01 -3.421982005238533020e-02 5.551419258117675781e+00 1.655159711837768555e+00 -5.904228892177343369e-03
4.408000000000000000e+03 4.558793640136718750e+01 -2.830852317810058594e+01 -4.398080334067344666e-02 3.366899013519287109e+00 9.968754649162292480e-01 3.155108168721199036e-02
4.409000000000000000e+03 3.947991180419921875e+01 -3.141185951232910156e+01 -2.029961533844470978e-02 2.202296018600463867e+00 6.545989513397216797e-01 2.648868225514888763e-02
4.410000000000000000e+03 4.145524215698242188e+01 -2.480543136596679688e+01 -3.447893261909484863e-02 2.580615997314453125e+00 7.638410925865173340e-01 2.574636973440647125e-02
4.411000000000000000e+03 4.133371734619140625e+01 -3.408478546142578125e+01 -9.926918894052505493e-03 2.574277877807617188e+00 7.693052887916564941e-01 1.549915410578250885e-02
4.412000000000000000e+03 4.801563644409179688e+01 -2.964899635314941406e+01 -2.968057245016098022e-02 3.812647819519042969e+00 1.134890198707580566e+00 2.251396328210830688e-02
4.413000000000000000e+03 5.085661315917968750e+01 -3.045546340942382812e+01 -2.036631293594837189e-02 4.348211765289306641e+00 1.298353672027587891e+00 1.839663833379745483e-02
4.414000000000000000e+03 5.364842987060546875e+01 -3.413173294067382812e+01 -2.999993972480297089e-02 4.844797611236572266e+00 1.444439291954040527e+00 1.301812357269227505e-03
4.415000000000000000e+03 4.875851058959960938e+01 -3.712384796142578125e+01 -1.231667120009660721e-02 3.928189754486083984e+00 1.174761891365051270e+00 -1.658605295233428478e-03
4.416000000000000000e+03 5.231230545043945312e+01 3.380681228637695312e+01 8.535439372062683105e-01 2.509432077407836914e+00 1.008892774581909180e+00 -2.311601638793945312e+00
4.417000000000000000e+03 5.336581420898437500e+01 3.344102478027343750e+01 1.651682257652282715e+00 4.948260307312011719e+00 1.979982733726501465e+00 -4.264037609100341797e+00
4.418000000000000000e+03 5.379267120361328125e+01 3.323211669921875000e+01 1.907504916191101074e+00 7.146706581115722656e+00 2.716263532638549805e+00 -5.301928043365478516e+00
4.419000000000000000e+03 5.419773864746093750e+01 3.318273925781250000e+01 1.665789127349853516e+00 1.033318519592285156e+01 3.599692344665527344e+00 -6.142172336578369141e+00
4.420000000000000000e+03 5.477915954589843750e+01 3.308441925048828125e+01 4.683794975280761719e-01 1.685225486755371094e+01 5.196190357208251953e+00 -5.463775157928466797e+00
4.421000000000000000e+03 5.499429702758789062e+01 3.333716964721679688e+01 -3.334227716550230980e-03 1.729761886596679688e+01 5.188285350799560547e+00 -4.145264625549316406e+00
4.422000000000000000e+03 5.579586029052734375e+01 3.322972869873046875e+01 9.442963004112243652e-01 1.998868370056152344e+01 6.279893875122070312e+00 2.794454693794250488e-01
4.423000000000000000e+03 5.697999572753906250e+01 3.185381507873535156e+01 8.705040931701660156e+00 1.597503948211669922e+01 7.404024124145507812e+00 2.120194196701049805e+00
4.424000000000000000e+03 5.691204071044921875e+01 3.209346389770507812e+01 7.989182949066162109e+00 1.647352409362792969e+01 7.338812351226806641e+00 2.706978082656860352e+00
4.425000000000000000e+03 5.664634704589843750e+01 3.031382751464843750e+01 6.848542213439941406e+00 1.761310958862304688e+01 7.338495254516601562e+00 -1.775759100914001465e+00
4.426000000000000000e+03 5.576958465576171875e+01 2.956271934509277344e+01 2.115633964538574219e+00 1.941533660888671875e+01 6.459290981292724609e+00 1.173299312591552734e+00
4.427000000000000000e+03 5.545118331909179688e+01 2.988183784484863281e+01 2.168054103851318359e+00 2.126966667175292969e+01 7.031316280364990234e+00 2.314958572387695312e+00
4.428000000000000000e+03 5.504973983764648438e+01 2.977803802490234375e+01 1.856897115707397461e+00 1.930008888244628906e+01 6.347095966339111328e+00 5.001018047332763672e+00
4.429000000000000000e+03 5.476088714599609375e+01 2.907717323303222656e+01 1.411283254623413086e+00 1.455735397338867188e+01 4.790591239929199219e+00 5.409870624542236328e+00
4.430000000000000000e+03 5.407619476318359375e+01 2.976443481445312500e+01 3.856959819793701172e+00 9.807270050048828125e+00 4.099268913269042969e+00 7.495908737182617188e+00
4.431000000000000000e+03 5.336370849609375000e+01 2.966433334350585938e+01 3.871365785598754883e+00 4.813135623931884766e+00 2.605350494384765625e+00 5.509900093078613281e+00
4.432000000000000000e+03 5.319683837890625000e+01 2.972260856628417969e+01 3.777257204055786133e+00 3.852581501007080078e+00 2.288951635360717773e+00 5.001050949096679688e+00
4.433000000000000000e+03 1.260405063629150391e+00 2.704986572265625000e+00 -2.152512706743436866e-06 2.808319550240412354e-06 1.967420359960669884e-07 2.723895420331245987e-07
4.434000000000000000e+03 2.117544364929199219e+01 3.421945190429687500e+01 -5.846965126693248749e-03 -7.070497609674930573e-03 -3.875238820910453796e-03 -5.155530758202075958e-03
4.435000000000000000e+03 2.060441970825195312e+01 3.400588226318359375e+01 -9.510343079455196857e-04 3.923886455595493317e-03 8.918556850403547287e-04 -2.416641218587756157e-03
4.436000000000000000e+03 4.235557937622070312e+01 3.659263229370117188e+01 -1.871455460786819458e-01 -2.975991368293762207e-01 -1.454234123229980469e-01 4.394568502902984619e-01
4.437000000000000000e+03 3.838206100463867188e+01 3.591044998168945312e+01 -2.793551683425903320e-01 -1.039292812347412109e-01 -1.149853393435478210e-01 2.551901936531066895e-01
4.438000000000000000e+03 3.786787033081054688e+01 3.636022567749023438e+01 -2.255152612924575806e-01 -1.225797086954116821e-01 -1.044284924864768982e-01 2.428278774023056030e-01
4.439000000000000000e+03 2.696749687194824219e+01 3.932883071899414062e+01 -3.258289303630590439e-03 -5.284885410219430923e-03 -2.562952460721135139e-03 2.917262492701411247e-03
4.440000000000000000e+03 2.125674438476562500e+01 -3.507466125488281250e+01 -1.400120407342910767e-01 -1.068477749824523926e+00 -3.625469207763671875e-01 -1.186729818582534790e-01
4.441000000000000000e+03 4.078022766113281250e+01 3.874527740478515625e+01 2.973290681838989258e-01 -2.035836130380630493e-01 2.812363393604755402e-02 3.510366678237915039e-01
4.442000000000000000e+03 2.430739641189575195e+00 2.688951015472412109e+00 5.298976248013786972e-06 3.095194870184059255e-06 2.518251449146191590e-06 -9.802357681110152043e-07
4.443000000000000000e+03 3.100896072387695312e+01 3.854085922241210938e+01 -5.466768983751535416e-03 -4.750835150480270386e-02 -1.589253544807434082e-02 4.507087916135787964e-02
4.444000000000000000e+03 3.405010223388671875e+01 3.918703079223632812e+01 8.317870087921619415e-03 -1.129668429493904114e-01 -3.139469400048255920e-02 9.599956870079040527e-02
4.445000000000000000e+03 3.320238494873046875e+01 3.814892959594726562e+01 -2.143765799701213837e-02 -7.502210140228271484e-02 -2.893792651593685150e-02 7.995520532131195068e-02
4.446000000000000000e+03 1.880379104614257812e+01 3.828519821166992188e+01 6.206320249475538731e-04 9.826254099607467651e-04 4.809772653970867395e-04 -9.034381946548819542e-04
4.447000000000000000e+03 1.967316436767578125e+01 3.876054382324218750e+01 -3.901051968568935990e-05 7.382241310551762581e-04 2.097640826832503080e-04 -1.467468799091875553e-03
4.448000000000000000e+03 1.356468486785888672e+01 -3.861675643920898438e+01 3.543679416179656982e-02 -1.163176074624061584e-02 7.141510024666786194e-03 5.624713748693466187e-02
4.449000000000000000e+03 1.013951683044433594e+01 -3.532776260375976562e+01 3.624508529901504517e-02 -1.089182309806346893e-02 7.605978753417730331e-03 -7.621765136718750000e-03
4.450000000000000000e+03 1.810041046142578125e+01 3.849730682373046875e+01 5.572182708419859409e-04 8.819460344966500998e-05 1.936238695634528995e-04 -9.239684441126883030e-04
4.451000000000000000e+03 8.917925834655761719e+00 -3.748920440673828125e+01 3.236112883314490318e-03 -1.386634260416030884e-02 -3.189068753272294998e-03 1.934458129107952118e-02
4.452000000000000000e+03 5.699773025512695312e+01 4.009331512451171875e+01 -1.600237250328063965e+00 1.111464118957519531e+01 2.854321241378784180e+00 -2.319027483463287354e-01
4.453000000000000000e+03 5.361548233032226562e+01 4.018048477172851562e+01 -6.986605525016784668e-01 7.697314262390136719e+00 2.099596023559570312e+00 -1.049533486366271973e+00
4.454000000000000000e+03 4.886170578002929688e+01 3.812549209594726562e+01 7.676942944526672363e-01 1.722584724426269531e+00 7.470837235450744629e-01 -4.527539610862731934e-01
4.455000000000000000e+03 1.058721637725830078e+01 -2.075109672546386719e+01 -2.909374656155705452e-03 3.773375065065920353e-04 -7.596111390739679337e-04 1.109357224777340889e-03
4.456000000000000000e+03 7.347860717773437500e+01 -3.683628463745117188e+01 -1.125696394592523575e-02 8.432814598083496094e+00 2.526467084884643555e+00 -1.202750485390424728e-02
4.457000000000000000e+03 5.197247314453125000e+01 2.944814109802246094e+01 2.265094280242919922e+00 1.571238279342651367e+00 1.150899767875671387e+00 2.779379129409790039e+00
4.458000000000000000e+03 5.137068939208984375e+01 2.900608634948730469e+01 1.856984496116638184e+00 1.436872363090515137e+00 9.881570339202880859e-01 2.423599958419799805e+00
4.459000000000000000e+03 5.282523727416992188e+01 2.969030952453613281e+01 3.230869054794311523e+00 2.722570896148681641e+00 1.786031961441040039e+00 4.032114028930664062e+00
4.460000000000000000e+03 5.369913482666015625e+01 2.960417747497558594e+01 3.794196367263793945e+00 6.931002616882324219e+00 3.217559814453125000e+00 6.437798023223876953e+00
4.461000000000000000e+03 5.420665359497070312e+01 2.958844184875488281e+01 3.165512800216674805e+00 1.111042499542236328e+01 4.282781600952148438e+00 7.196660995483398438e+00
4.462000000000000000e+03 5.451229858398437500e+01 2.930154228210449219e+01 2.046827316284179688e+00 1.335166168212890625e+01 4.619546890258789062e+00 6.375746250152587891e+00
4.463000000000000000e+03 5.516274261474609375e+01 2.906926155090332031e+01 9.998825192451477051e-01 1.625115585327148438e+01 5.175311565399169922e+00 4.046630382537841797e+00
4.464000000000000000e+03 5.436991500854492188e+01 2.876128578186035156e+01 1.624963164329528809e+00 1.164363098144531250e+01 3.980578422546386719e+00 5.687405586242675781e+00
4.465000000000000000e+03 5.547343444824218750e+01 2.941427612304687500e+01 1.532413721084594727e+00 1.879417419433593750e+01 6.097976207733154297e+00 2.679557085037231445e+00
4.466000000000000000e+03 5.609629058837890625e+01 2.945197105407714844e+01 2.398558855056762695e+00 1.843925666809082031e+01 6.251344680786132812e+00 2.637094855308532715e-01
4.467000000000000000e+03 5.643175125122070312e+01 2.933285140991210938e+01 2.672476768493652344e+00 1.736793708801269531e+01 6.012124061584472656e+00 -4.230488240718841553e-01
4.468000000000000000e+03 5.676269531250000000e+01 2.993898010253906250e+01 5.115118980407714844e+00 1.709099006652832031e+01 6.661832332611083984e+00 -1.533689856529235840e+00
4.469000000000000000e+03 5.686748886108398438e+01 3.084194755554199219e+01 8.989072799682617188e+00 1.635106849670410156e+01 7.602042675018310547e+00 -1.001911520957946777e+00
4.470000000000000000e+03 5.712931823730468750e+01 3.025736999511718750e+01 6.429851055145263672e+00 1.577253437042236328e+01 6.660715579986572266e+00 -1.561390042304992676e+00
4.471000000000000000e+03 5.716944885253906250e+01 3.081090164184570312e+01 8.104866027832031250e+00 1.519005489349365234e+01 6.988476276397705078e+00 -7.795628309249877930e-01
4.472000000000000000e+03 5.715991210937500000e+01 3.103169822692871094e+01 8.531359672546386719e+00 1.505586719512939453e+01 7.076168060302734375e+00 -4.213646054267883301e-01
4.473000000000000000e+03 5.745864868164062500e+01 3.113545417785644531e+01 7.938185691833496094e+00 1.439210700988769531e+01 6.699087619781494141e+00 -8.644582331180572510e-02
4.474000000000000000e+03 5.724466705322265625e+01 3.138240242004394531e+01 8.782591819763183594e+00 1.498989391326904297e+01 7.131745815277099609e+00 6.276183724403381348e-01
4.475000000000000000e+03 5.777268981933593750e+01 3.129228973388671875e+01 7.432395935058593750e+00 1.371530055999755859e+01 6.344308853149414062e+00 3.698554039001464844e-01
4.476000000000000000e+03 5.724576568603515625e+01 3.215174102783203125e+01 7.354482173919677734e+00 1.546892070770263672e+01 6.847021102905273438e+00 2.482888936996459961e+00
4.477000000000000000e+03 5.693260192871093750e+01 3.300533294677734375e+01 4.069957733154296875e+00 1.709681129455566406e+01 6.350030422210693359e+00 2.803223371505737305e+00
4.478000000000000000e+03 5.636098098754882812e+01 3.350536727905273438e+01 1.432170033454895020e+00 1.811148262023925781e+01 5.863095760345458984e+00 1.365892171859741211e+00
4.479000000000000000e+03 5.586963653564453125e+01 3.371973037719726562e+01 3.882873058319091797e-02 1.797602272033691406e+01 5.404455184936523438e+00 -4.049435257911682129e-01
4.480000000000000000e+03 5.478667449951171875e+01 3.359573745727539062e+01 -4.364052042365074158e-02 1.517709827423095703e+01 4.540037155151367188e+00 -4.487851619720458984e+00
4.481000000000000000e+03 5.445503234863281250e+01 3.337987899780273438e+01 7.935832738876342773e-01 1.298044776916503906e+01 4.132209300994873047e+00 -5.616965293884277344e+00
4.482000000000000000e+03 5.447901535034179688e+01 3.375104904174804688e+01 3.559204041957855225e-01 1.244165039062500000e+01 3.839271306991577148e+00 -4.955431461334228516e+00
4.483000000000000000e+03 5.350049972534179688e+01 3.376253128051757812e+01 1.313887715339660645e+00 6.302500724792480469e+00 2.284916400909423828e+00 -4.533267974853515625e+00
4.484000000000000000e+03 5.330836105346679688e+01 3.385195159912109375e+01 1.288499236106872559e+00 5.757080554962158203e+00 2.113673925399780273e+00 -4.222318172454833984e+00
4.485000000000000000e+03 5.320224761962890625e+01 3.414474105834960938e+01 1.104229688644409180e+00 5.721876144409179688e+00 2.047831773757934570e+00 -3.990049362182617188e+00
4.486000000000000000e+03 2.015207481384277344e+01 -4.042855834960937500e+01 1.781865060329437256e-01 -9.180749654769897461e-01 -2.219665497541427612e-01 4.234235361218452454e-02
4.487000000000000000e+03 2.715559720993041992e+00 3.819418716430664062e+01 -1.154495475930161774e-05 -3.664665200631134212e-05 -1.445748239348176867e-05 1.457123835280071944e-05
4.488000000000000000e+03 7.754549407958984375e+01 -3.544957733154296875e+01 -2.054370753467082977e-02 9.239866256713867188e+00 2.765796661376953125e+00 2.116109058260917664e-02
4.489000000000000000e+03 1.911776924133300781e+01 3.872533416748046875e+01 6.809295882703736424e-05 1.032490050420165062e-03 3.301749238744378090e-04 -1.197535777464509010e-03
4.490000000000000000e+03 2.756506204605102539e+00 -2.893562793731689453e+00 -7.169292657636106014e-04 -4.900828571408055723e-05 -2.297812607139348984e-04 1.455397141398862004e-04
4.491000000000000000e+03 2.247216939926147461e+00 3.548077344894409180e+00 -5.107539891469059512e-06 -3.938620920962421224e-06 -2.713848289204179309e-06 5.843535745952976868e-06
4.492000000000000000e+03 4.354636001586914062e+01 3.818338775634765625e+01 2.960922420024871826e-01 -2.151651531457901001e-01 2.427812293171882629e-02 3.188217282295227051e-01
4.493000000000000000e+03 5.399669265747070312e+01 2.948835945129394531e+01 3.275748014450073242e+00 9.410881996154785156e+00 3.805989027023315430e+00 6.885941028594970703e+00
4.494000000000000000e+03 5.187427902221679688e+01 2.881884002685546875e+01 2.336230039596557617e+00 2.311294794082641602e+00 1.394257545471191406e+00 3.217088937759399414e+00
4.495000000000000000e+03 5.151516342163085938e+01 2.856472969055175781e+01 2.090274333953857422e+00 2.086194992065429688e+00 1.252940773963928223e+00 2.923546075820922852e+00
4.496000000000000000e+03 5.287289810180664062e+01 2.908086013793945312e+01 3.055577993392944336e+00 4.301913738250732422e+00 2.207247495651245117e+00 4.736165046691894531e+00
4.497000000000000000e+03 5.491332244873046875e+01 2.850495529174804688e+01 8.146082758903503418e-01 1.385103130340576172e+01 4.399692058563232422e+00 4.477351665496826172e+00
4.498000000000000000e+03 1.136301898956298828e+01 -2.596420478820800781e+01 4.397969692945480347e-03 -4.624938883353024721e-04 1.180642750114202499e-03 2.099527278915047646e-03
4.499000000000000000e+03 5.312865447998046875e+01 2.927304267883300781e+01 3.306819915771484375e+00 4.878193378448486328e+00 2.455503940582275391e+00 5.190882205963134766e+00
4.500000000000000000e+03 5.323576736450195312e+01 2.953275108337402344e+01 3.624803066253662109e+00 4.627804279327392578e+00 2.475782155990600586e+00 5.312215805053710938e+00
4.501000000000000000e+03 5.332233047485351562e+01 2.933008193969726562e+01 3.307969093322753906e+00 5.476612567901611328e+00 2.635374546051025391e+00 5.493693828582763672e+00
4.502000000000000000e+03 5.582187271118164062e+01 2.906284332275390625e+01 1.224781632423400879e+00 1.734203529357910156e+01 5.570045471191406250e+00 1.601985692977905273e+00
4.503000000000000000e+03 5.660865783691406250e+01 2.977217292785644531e+01 4.227188110351562500e+00 1.759292984008789062e+01 6.546035766601562500e+00 -1.300430297851562500e+00
4.504000000000000000e+03 5.698977279663085938e+01 2.973417663574218750e+01 4.446259498596191406e+00 1.619451141357421875e+01 6.192231178283691406e+00 -1.440477132797241211e+00
4.505000000000000000e+03 5.770132064819335938e+01 3.089588165283203125e+01 7.380080699920654297e+00 1.402578639984130859e+01 6.421760082244873047e+00 -4.415340423583984375e-01
4.506000000000000000e+03 5.758251571655273438e+01 3.235556793212890625e+01 6.284012317657470703e+00 1.478467082977294922e+01 6.320604801177978516e+00 2.345760107040405273e+00
4.507000000000000000e+03 5.719692993164062500e+01 3.383065414428710938e+01 1.738524913787841797e+00 1.584652233123779297e+01 5.275514125823974609e+00 1.981052756309509277e+00
4.508000000000000000e+03 5.475319290161132812e+01 3.387545394897460938e+01 -7.634274661540985107e-02 1.419117832183837891e+01 4.234450817108154297e+00 -4.085843086242675781e+00
4.509000000000000000e+03 1.115880870819091797e+01 -4.115458011627197266e+00 7.021120982244610786e-04 3.734623023774474859e-04 3.226723056286573410e-04 -5.311158602125942707e-04
4.510000000000000000e+03 5.441186904907226562e+01 3.446397399902343750e+01 -1.201324388384819031e-01 1.146204185485839844e+01 3.402572870254516602e+00 -4.153760910034179688e+00
4.511000000000000000e+03 5.719209671020507812e+01 3.333058547973632812e+01 2.900142669677734375e+00 1.615305900573730469e+01 5.715960502624511719e+00 2.509020328521728516e+00
4.512000000000000000e+03 5.498908996582031250e+01 3.361127471923828125e+01 -3.190391659736633301e-01 1.629076766967773438e+01 4.791518688201904297e+00 -3.955498456954956055e+00
4.513000000000000000e+03 7.469921875000000000e+01 -3.615496826171875000e+01 -4.720184579491615295e-02 8.687443733215332031e+00 2.592072486877441406e+00 -4.818675294518470764e-02
4.514000000000000000e+03 2.237105560302734375e+01 -3.226791000366210938e+01 -7.183074206113815308e-02 -9.198778271675109863e-01 -2.975125610828399658e-01 -7.727500051259994507e-02
4.515000000000000000e+03 5.932459831237792969e+00 -3.150681114196777344e+01 2.229338744655251503e-03 -6.185614038258790970e-03 -1.186882611364126205e-03 7.964598480612039566e-04
4.516000000000000000e+03 5.643862533569335938e+01 2.902259445190429688e+01 1.911917090415954590e+00 1.685118865966796875e+01 5.628931522369384766e+00 -2.156738564372062683e-02
4.517000000000000000e+03 5.525469207763671875e+01 2.878916549682617188e+01 7.648035883903503418e-01 1.567527198791503906e+01 4.932022571563720703e+00 3.644319057464599609e+00
4.518000000000000000e+03 5.672358703613281250e+01 2.926209640502929688e+01 2.807819843292236328e+00 1.656405067443847656e+01 5.811561107635498047e+00 -7.246977686882019043e-01
4.519000000000000000e+03 1.036454772949218750e+01 8.084622383117675781e+00 3.333926997584057972e-06 -1.600463178874633741e-06 5.200391228754597250e-07 -5.868210791959427297e-06
4.520000000000000000e+03 1.000000572204589844e+01 1.385283851623535156e+01 -1.148232513514813036e-05 -1.576545514581084717e-06 -3.917661160812713206e-06 -6.678166073470492847e-07
4.521000000000000000e+03 1.177082252502441406e+01 3.363010787963867188e+01 4.102569437236525118e-05 8.953102224040776491e-06 1.499363861512392759e-05 1.275423437618883327e-05
4.522000000000000000e+03 8.186839103698730469e+00 -3.086581420898437500e+01 -3.822845173999667168e-03 -4.024608526378870010e-03 -2.354236086830496788e-03 -1.294322079047560692e-03
4.523000000000000000e+03 7.004399299621582031e+00 -3.113751029968261719e+01 8.203037083148956299e-03 1.588722574524581432e-03 2.937527839094400406e-03 -1.893479377031326294e-03
4.524000000000000000e+03 5.269394683837890625e+01 2.888625907897949219e+01 2.857520341873168945e+00 3.974600076675415039e+00 2.049636125564575195e+00 4.457799911499023438e+00
4.525000000000000000e+03 5.557287979125976562e+01 2.907166099548339844e+01 9.939171671867370605e-01 1.712902641296386719e+01 5.436882972717285156e+00 2.607146501541137695e+00
4.526000000000000000e+03 5.555272293090820312e+01 3.410392761230468750e+01 -5.983884930610656738e-01 1.626665115356445312e+01 4.700479030609130859e+00 -1.892911911010742188e+00
4.527000000000000000e+03 5.347573852539062500e+01 3.473563003540039062e+01 5.485554337501525879e-01 7.352551937103271484e+00 2.370332241058349609e+00 -4.021121501922607422e+00
4.528000000000000000e+03 5.417517471313476562e+01 2.789650535583496094e+01 1.145763635635375977e+00 1.008897113800048828e+01 3.370420455932617188e+00 4.875988006591796875e+00
4.529000000000000000e+03 5.553910827636718750e+01 2.876689147949218750e+01 7.935539484024047852e-01 1.613691902160644531e+01 5.079142093658447266e+00 2.779534578323364258e+00
4.530000000000000000e+03 1.166839885711669922e+01 3.500186920166015625e+01 -8.259930473286658525e-05 4.402502599987201393e-05 -1.157228325610049069e-05 -2.754188426479231566e-05
4.531000000000000000e+03 5.523547363281250000e+01 2.804763603210449219e+01 4.129820168018341064e-01 1.378373241424560547e+01 4.259014606475830078e+00 3.441422224044799805e+00
4.532000000000000000e+03 5.495126342773437500e+01 2.759738159179687500e+01 3.777211904525756836e-01 1.215707111358642578e+01 3.760437488555908203e+00 3.743515014648437500e+00
4.533000000000000000e+03 5.708157730102539062e+01 2.950115585327148438e+01 3.805735826492309570e+00 1.589741420745849609e+01 5.910944938659667969e+00 -1.298976659774780273e+00
4.534000000000000000e+03 5.762120437622070312e+01 3.025385284423828125e+01 6.119286060333251953e+00 1.440276908874511719e+01 6.156616687774658203e+00 -1.298480629920959473e+00
4.535000000000000000e+03 7.744345092773437500e+01 2.904174613952636719e+01 6.718028336763381958e-02 5.043258666992187500e+00 1.533131718635559082e+00 -3.464978635311126709e-01
4.536000000000000000e+03 7.459446716308593750e+01 2.859515762329101562e+01 2.393696010112762451e-01 6.039878368377685547e+00 1.883774399757385254e+00 -6.304511427879333496e-01
4.537000000000000000e+03 5.177096176147460938e+01 2.814433479309082031e+01 2.176641225814819336e+00 2.999843358993530273e+00 1.552945375442504883e+00 3.431537389755249023e+00
4.538000000000000000e+03 5.316103744506835938e+01 2.871163177490234375e+01 2.728428602218627930e+00 5.740515232086181641e+00 2.540683031082153320e+00 5.142015933990478516e+00
4.539000000000000000e+03 5.339448928833007812e+01 2.906413650512695312e+01 3.059072494506835938e+00 6.427941799163818359e+00 2.846104383468627930e+00 5.636719703674316406e+00
4.540000000000000000e+03 5.313623046875000000e+01 2.822475242614746094e+01 2.248476505279541016e+00 6.400369167327880859e+00 2.594653606414794922e+00 5.005136013031005859e+00
4.541000000000000000e+03 5.736999893188476562e+01 3.435103988647460938e+01 1.001051306724548340e+00 1.503626728057861328e+01 4.811195373535156250e+00 1.607153773307800293e+00
4.542000000000000000e+03 5.780044174194335938e+01 3.362485122680664062e+01 2.774878025054931641e+00 1.497542476654052734e+01 5.325090885162353516e+00 2.493580102920532227e+00
4.543000000000000000e+03 5.804708099365234375e+01 3.286281204223632812e+01 4.671914100646972656e+00 1.416335105895996094e+01 5.650579452514648438e+00 2.370140552520751953e+00
4.544000000000000000e+03 9.252058982849121094e+00 -3.044071197509765625e+01 8.381515741348266602e-03 5.482041742652654648e-03 4.159067291766405106e-03 1.138289342634379864e-03
4.545000000000000000e+03 5.696812438964843750e+01 2.930716514587402344e+01 3.264967203140258789e+00 1.600357246398925781e+01 5.780561923980712891e+00 -1.105471849441528320e+00
4.546000000000000000e+03 7.853950023651123047e+00 -2.573670578002929688e+01 1.032202970236539841e-03 -3.745465946849435568e-04 1.972969184862449765e-04 2.801506780087947845e-03
4.547000000000000000e+03 2.599063873291015625e+01 -2.552864837646484375e+01 2.110632369294762611e-03 -3.009950816631317139e-01 -8.966533839702606201e-02 -2.444495260715484619e-02
4.548000000000000000e+03 9.232756614685058594e+00 7.204877853393554688e+00 7.301830464712111279e-06 3.350435463289613836e-06 3.195679710188414901e-06 3.339844624861143529e-06
4.549000000000000000e+03 5.386662292480468750e+01 2.866499900817871094e+01 2.126821517944335938e+00 9.291460037231445312e+00 3.425484418869018555e+00 5.754976749420166016e+00
4.550000000000000000e+03 5.359011459350585938e+01 2.839942741394042969e+01 2.104140043258666992e+00 7.769350051879882812e+00 2.962047100067138672e+00 5.423829078674316406e+00
4.551000000000000000e+03 5.442455291748046875e+01 3.499435043334960938e+01 -3.043068051338195801e-01 1.090153121948242188e+01 3.179167270660400391e+00 -3.708934307098388672e+00
4.552000000000000000e+03 5.167006301879882812e+01 2.739633178710937500e+01 1.915154576301574707e+00 3.559252023696899414e+00 1.642321944236755371e+00 3.460538625717163086e+00
4.553000000000000000e+03 7.552198028564453125e+01 2.838648796081542969e+01 1.751659065485000610e-01 5.766982078552246094e+00 1.782644391059875488e+00 -5.898057222366333008e-01
4.554000000000000000e+03 5.782000732421875000e+01 2.954269599914550781e+01 4.251914024353027344e+00 1.419855594635009766e+01 5.535140991210937500e+00 -1.410483837127685547e+00
4.555000000000000000e+03 6.101573467254638672e+00 2.946560668945312500e+01 1.307212914980482310e-05 1.133026853494811803e-05 7.320719305425882339e-06 9.100833267439156771e-06
4.556000000000000000e+03 6.877559661865234375e+00 -2.493056678771972656e+01 -9.371982887387275696e-04 1.304931007325649261e-03 1.103198228520341218e-04 -1.798906829208135605e-03
4.557000000000000000e+03 5.781202697753906250e+01 3.201242446899414062e+01 6.626060962677001953e+00 1.393752002716064453e+01 6.169074058532714844e+00 1.718662142753601074e+00
4.558000000000000000e+03 5.817757034301757812e+01 3.380593872070312500e+01 2.583490848541259766e+00 1.422398567199707031e+01 5.042243003845214844e+00 2.354704856872558594e+00
4.559000000000000000e+03 5.750802230834960938e+01 3.402999496459960938e+01 1.655809283256530762e+00 1.509394836425781250e+01 5.024927616119384766e+00 2.033404350280761719e+00
4.560000000000000000e+03 5.126932907104492188e+01 2.711288452148437500e+01 1.811622619628906250e+00 3.227070093154907227e+00 1.511607766151428223e+00 3.176968574523925781e+00
4.561000000000000000e+03 5.806035232543945312e+01 3.029502487182617188e+01 5.888698101043701172e+00 1.352497673034667969e+01 5.824102401733398438e+00 -1.062067031860351562e+00
4.562000000000000000e+03 5.833373641967773438e+01 3.029666519165039062e+01 5.648461341857910156e+00 1.312755680084228516e+01 5.632805347442626953e+00 -9.957517385482788086e-01
4.563000000000000000e+03 5.867940902709960938e+01 3.101646041870117188e+01 5.953844070434570312e+00 1.240059947967529297e+01 5.506333351135253906e+00 -4.682846367359161377e-02
4.564000000000000000e+03 5.486156082153320312e+01 3.590511322021484375e+01 -8.595663309097290039e-01 1.131103038787841797e+01 3.135439395904541016e+00 -2.398489475250244141e+00
4.565000000000000000e+03 1.097340202331542969e+01 -1.260642051696777344e+01 1.897392678074538708e-03 3.702475514728575945e-04 6.802920834161341190e-04 -6.488428916782140732e-04
4.566000000000000000e+03 5.467816352844238281e+00 5.839905738830566406e+00 1.889043119263078552e-06 2.516040012778830715e-06 1.321524905506521463e-06 -2.316506879651569761e-06
4.567000000000000000e+03 4.798599243164062500e+00 6.668186187744140625e+00 1.114307724492391571e-05 -4.930786872137105092e-07 3.194999635525164194e-06 -3.585600552469259128e-06
4.568000000000000000e+03 3.781321763992309570e+00 6.722261428833007812e+00 1.233753755514044315e-05 -3.146187737002037466e-06 2.757404899966786616e-06 -2.058933205262292176e-06
4.569000000000000000e+03 4.865250110626220703e+00 7.959609985351562500e+00 2.458338485666899942e-06 7.296754347407841124e-07 9.564041647536214441e-07 2.421056706225499511e-06
4.570000000000000000e+03 5.467611312866210938e+01 2.709362220764160156e+01 3.714611530303955078e-01 1.088656711578369141e+01 3.377408504486083984e+00 3.786908864974975586e+00
4.571000000000000000e+03 5.311454391479492188e+01 2.766954231262207031e+01 1.785569787025451660e+00 6.608858108520507812e+00 2.518328428268432617e+00 4.664927959442138672e+00
4.572000000000000000e+03 5.586454010009765625e+01 2.806355285644531250e+01 3.920767307281494141e-01 1.476026248931884766e+01 4.545701980590820312e+00 2.099484205245971680e+00
4.573000000000000000e+03 5.366521835327148438e+01 2.810974502563476562e+01 1.796371579170227051e+00 8.337891578674316406e+00 3.040278911590576172e+00 5.237546443939208984e+00
4.574000000000000000e+03 5.147543716430664062e+01 2.656472396850585938e+01 1.619948387145996094e+00 3.963779687881469727e+00 1.675118446350097656e+00 3.321469068527221680e+00
4.575000000000000000e+03 7.357434272766113281e+00 2.895159339904785156e+01 -3.094146813964471221e-05 -6.721835461576119997e-07 -9.484096153755672276e-06 -4.078551228303695098e-06
4.576000000000000000e+03 5.762225341796875000e+01 2.872228813171386719e+01 2.468858957290649414e+00 1.434524536132812500e+01 5.044231414794921875e+00 -1.058773636817932129e+00
4.577000000000000000e+03 4.297209262847900391e+00 7.256096839904785156e+00 -8.127069122565444559e-06 4.637471192836528644e-06 -1.046879560817615129e-06 5.878595175090595149e-07
4.578000000000000000e+03 2.710758972167968750e+01 3.003839492797851562e+01 -1.613661199808120728e-01 -6.064865365624427795e-02 -6.660443544387817383e-02 -2.681886851787567139e-01
4.579000000000000000e+03 3.832883071899414062e+01 2.808944702148437500e+01 -3.811123967170715332e-01 1.681594401597976685e-01 -6.388588249683380127e-02 -3.499321341514587402e-01
4.580000000000000000e+03 7.126184463500976562e+00 1.135214042663574219e+01 1.321541822107974440e-05 3.486673676889040507e-06 5.010627774026943371e-06 4.197184182430646615e-07
4.581000000000000000e+03 5.439805603027343750e+01 2.656813240051269531e+01 3.658220171928405762e-01 9.867405891418457031e+00 3.069968461990356445e+00 3.726652145385742188e+00
4.582000000000000000e+03 6.405074119567871094e+00 1.877935600280761719e+01 -1.724405774439219385e-05 -1.774462020875944290e-06 -5.705555849999655038e-06 5.258738724478462245e-07
4.583000000000000000e+03 4.722434616088867188e+01 -1.651079940795898438e+01 -1.012135669589042664e-01 3.729032278060913086e+00 1.088345646858215332e+00 7.855900377035140991e-02
4.584000000000000000e+03 5.334990692138671875e+01 2.742567062377929688e+01 1.484673380851745605e+00 7.400488853454589844e+00 2.665548801422119141e+00 4.590702533721923828e+00
4.585000000000000000e+03 5.698892593383789062e+01 2.745072174072265625e+01 5.100985169410705566e-01 1.377541446685791016e+01 4.285654067993164062e+00 3.865619897842407227e-01
4.586000000000000000e+03 5.317979812622070312e+01 2.709306907653808594e+01 1.382119536399841309e+00 6.966987609863281250e+00 2.504732131958007812e+00 4.375819683074951172e+00
4.587000000000000000e+03 7.168326568603515625e+01 2.603896141052246094e+01 3.872352540493011475e-01 7.062700271606445312e+00 2.234980583190917969e+00 -1.061090350151062012e+00
4.588000000000000000e+03 5.815692520141601562e+01 2.836921501159667969e+01 2.183702945709228516e+00 1.345154380798339844e+01 4.690573692321777344e+00 -1.124744296073913574e+00
4.589000000000000000e+03 5.875642013549804688e+01 2.952278518676757812e+01 4.073408603668212891e+00 1.263845348358154297e+01 5.013558864593505859e+00 -1.226432681083679199e+00
4.590000000000000000e+03 5.516893005371093750e+01 2.632649421691894531e+01 -4.717291891574859619e-02 1.098719501495361328e+01 3.282006740570068359e+00 2.939432382583618164e+00
4.591000000000000000e+03 2.748247146606445312e+01 -1.160305118560791016e+01 -2.009647525846958160e-02 -1.078702062368392944e-01 -3.839000314474105835e-02 2.302352525293827057e-02
4.592000000000000000e+03 2.717506790161132812e+01 -1.409971046447753906e+01 -1.360342279076576233e-02 -1.030348613858222961e-01 -3.499148413538932800e-02 2.053112536668777466e-02
4.593000000000000000e+03 5.055530548095703125e+01 -2.215928459167480469e+01 -7.907671481370925903e-02 4.292094230651855469e+00 1.263905286788940430e+00 2.079198695719242096e-02
4.594000000000000000e+03 6.446002197265625000e+01 2.768233108520507812e+01 1.511821746826171875e+00 9.032637596130371094e+00 3.163337945938110352e+00 -1.186668992042541504e+00
4.595000000000000000e+03 5.402184677124023438e+01 2.640097808837890625e+01 5.459100008010864258e-01 8.949567794799804688e+00 2.848643302917480469e+00 3.851430177688598633e+00
4.596000000000000000e+03 5.954322433471679688e+01 2.971519851684570312e+01 3.981147766113281250e+00 1.170018005371093750e+01 4.704398155212402344e+00 -1.003323912620544434e+00
4.597000000000000000e+03 5.489334106445312500e+01 2.595196914672851562e+01 -9.811063297092914581e-03 1.031994438171386719e+01 3.093039989471435547e+00 2.996043920516967773e+00
4.598000000000000000e+03 5.610459518432617188e+01 2.581103134155273438e+01 -3.278512060642242432e-01 1.149869441986083984e+01 3.351253032684326172e+00 1.859517812728881836e+00
4.599000000000000000e+03 4.673628234863281250e+01 -1.377601242065429688e+01 -1.141734123229980469e-01 3.636883497238159180e+00 1.056813001632690430e+00 9.591512382030487061e-02
4.600000000000000000e+03 3.616316604614257812e+01 -1.560712337493896484e+01 -4.197978600859642029e-02 1.550694584846496582e+00 4.526144564151763916e-01 7.466103881597518921e-02
4.601000000000000000e+03 5.394589233398437500e+01 2.569575119018554688e+01 3.590351343154907227e-01 8.571849822998046875e+00 2.679265499114990234e+00 3.454750061035156250e+00
4.602000000000000000e+03 5.427144241333007812e+01 2.535563278198242188e+01 1.428930163383483887e-01 8.955830574035644531e+00 2.729616880416870117e+00 3.177009344100952148e+00
4.603000000000000000e+03 3.950419616699218750e+01 2.556377601623535156e+01 1.015121117234230042e-01 3.241451978683471680e-01 1.276971995830535889e-01 -2.231721282005310059e-01
4.604000000000000000e+03 5.466115570068359375e+01 2.586014938354492188e+01 1.091235950589179993e-01 9.684836387634277344e+00 2.938188076019287109e+00 3.200749635696411133e+00
4.605000000000000000e+03 7.266475677490234375e+01 2.024587440490722656e+01 -3.381971642374992371e-02 7.269489765167236328e+00 2.170701026916503906e+00 -1.154046177864074707e+00
4.606000000000000000e+03 5.766407012939453125e+01 -1.304499340057373047e+01 -1.571173667907714844e-01 5.695153236389160156e+00 1.661410689353942871e+00 -1.743940263986587524e-02
4.607000000000000000e+03 3.731501388549804688e+01 2.525668334960937500e+01 4.844843968749046326e-02 2.490627020597457886e-01 8.925334364175796509e-02 -3.415393531322479248e-01
4.608000000000000000e+03 5.233202362060546875e+01 -1.051535606384277344e+01 -1.831709593534469604e-01 4.758392333984375000e+00 1.372566461563110352e+00 7.585217803716659546e-02
4.609000000000000000e+03 5.944310379028320312e+01 2.687754631042480469e+01 1.050230860710144043e+00 1.168836975097656250e+01 3.821580171585083008e+00 -1.036007165908813477e+00
4.610000000000000000e+03 5.288153839111328125e+01 -8.297061920166015625e+00 -1.982239931821823120e-01 4.875596523284912109e+00 1.403211712837219238e+00 6.236266344785690308e-02
4.611000000000000000e+03 6.962377166748046875e+01 1.913055419921875000e+01 -1.773450076580047607e-01 7.841918468475341797e+00 2.299371957778930664e+00 -1.260612249374389648e+00
4.612000000000000000e+03 3.914540481567382812e+01 -3.629733324050903320e+00 -2.678024955093860626e-02 2.100836992263793945e+00 6.222170591354370117e-01 1.614256799221038818e-01
4.613000000000000000e+03 3.248410797119140625e+01 2.587967681884765625e+01 -8.770152926445007324e-02 4.726019501686096191e-02 -1.213240064680576324e-02 -4.487653076648712158e-01
4.614000000000000000e+03 7.173500823974609375e+01 -1.577544593811035156e+01 -4.236535355448722839e-02 8.111793518066406250e+00 2.420828580856323242e+00 -8.830171078443527222e-02
4.615000000000000000e+03 4.078456878662109375e+01 -3.754718780517578125e+00 -3.889049217104911804e-02 2.449541568756103516e+00 7.231953144073486328e-01 1.941160559654235840e-01
4.616000000000000000e+03 3.340212249755859375e+01 -1.538604497909545898e+00 2.409008145332336426e-02 8.996644020080566406e-01 2.771263420581817627e-01 1.145793795585632324e-01
4.617000000000000000e+03 6.673008728027343750e+01 -1.133125591278076172e+01 -1.164414659142494202e-01 7.247666358947753906e+00 2.139367580413818359e+00 -1.250887811183929443e-01
4.618000000000000000e+03 3.906805038452148438e+01 -1.161889195442199707e+00 -9.126109071075916290e-03 2.030704259872436523e+00 6.064734458923339844e-01 1.952446997165679932e-01
4.619000000000000000e+03 5.087101364135742188e+01 2.148753929138183594e+01 4.764920473098754883e-01 4.835211277008056641e+00 1.593510985374450684e+00 2.193646907806396484e+00
4.620000000000000000e+03 6.602097320556640625e+01 2.235194587707519531e+01 3.560363873839378357e-02 8.581229209899902344e+00 2.585049867630004883e+00 -1.342496871948242188e+00
4.621000000000000000e+03 6.816793823242187500e+01 9.678028106689453125e+00 -4.468434154987335205e-01 7.752123355865478516e+00 2.191584110260009766e+00 -7.122896313667297363e-01
4.622000000000000000e+03 3.277371215820312500e+01 2.051296806335449219e+01 2.081173956394195557e-01 1.414305567741394043e-01 1.048643887042999268e-01 -3.330072760581970215e-01
4.623000000000000000e+03 5.807872772216796875e+01 2.273014831542968750e+01 -6.677334904670715332e-01 9.936940193176269531e+00 2.780762195587158203e+00 4.852934181690216064e-01
4.624000000000000000e+03 5.124539566040039062e+01 -3.561510324478149414e+00 -2.228751927614212036e-01 4.645779609680175781e+00 1.326871275901794434e+00 1.462620943784713745e-01
4.625000000000000000e+03 5.220691299438476562e+01 2.147810745239257812e+01 1.719599813222885132e-01 5.936617374420166016e+00 1.832573175430297852e+00 2.250634193420410156e+00
4.626000000000000000e+03 3.672390747070312500e+01 2.322476005554199219e+01 2.277716398239135742e-01 3.239060044288635254e-01 1.655032932758331299e-01 -2.856413722038269043e-01
4.627000000000000000e+03 3.769781112670898438e+01 2.376677322387695312e+01 2.188286036252975464e-01 3.503483235836029053e-01 1.707530766725540161e-01 -2.546072900295257568e-01
4.628000000000000000e+03 6.711423492431640625e+01 2.015771293640136719e+01 -2.109710723161697388e-01 8.282323837280273438e+00 2.421405792236328125e+00 -1.275871634483337402e+00
4.629000000000000000e+03 5.460355377197265625e+01 1.908296394348144531e+01 -4.813426136970520020e-01 7.167225837707519531e+00 2.005764961242675781e+00 1.409974098205566406e+00
4.630000000000000000e+03 4.807986831665039062e+01 -4.944336116313934326e-01 -1.750791519880294800e-01 4.002935409545898438e+00 1.148356914520263672e+00 2.652423381805419922e-01
4.631000000000000000e+03 6.785906982421875000e+01 1.595450019836425781e+01 -4.442910850048065186e-01 8.006260871887207031e+00 2.268590927124023438e+00 -1.054901123046875000e+00
4.632000000000000000e+03 6.735298156738281250e+01 1.658261299133300781e+01 -4.480208456516265869e-01 8.073951721191406250e+00 2.287779331207275391e+00 -1.072610974311828613e+00
4.633000000000000000e+03 6.662423706054687500e+01 1.580506134033203125e+01 -5.236081480979919434e-01 8.084431648254394531e+00 2.268246889114379883e+00 -9.759747982025146484e-01
4.634000000000000000e+03 6.794745635986328125e+01 -9.201323509216308594e+00 -1.294198036193847656e-01 7.453034400939941406e+00 2.197084426879882812e+00 -1.552558243274688721e-01
4.635000000000000000e+03 4.400208663940429688e+01 2.229586029052734375e+01 7.754951715469360352e-01 1.292233347892761230e+00 6.203185915946960449e-01 6.579589843750000000e-01
4.636000000000000000e+03 3.987926483154296875e+01 2.176561164855957031e+01 5.137986540794372559e-01 7.220690846443176270e-01 3.707603216171264648e-01 7.271588593721389771e-02
4.637000000000000000e+03 3.923617172241210938e+01 2.107802200317382812e+01 4.867394566535949707e-01 7.180529236793518066e-01 3.614377081394195557e-01 3.688104078173637390e-02
4.638000000000000000e+03 3.711851119995117188e+01 2.181155204772949219e+01 3.358620703220367432e-01 4.372138977050781250e-01 2.319227904081344604e-01 -1.883347183465957642e-01
4.639000000000000000e+03 4.413498306274414062e+01 1.695884895324707031e+01 5.615482926368713379e-01 2.265115499496459961e+00 8.479991555213928223e-01 8.173856735229492188e-01
4.640000000000000000e+03 5.345729446411132812e+01 -1.231788158416748047e+00 -2.952415049076080322e-01 5.148317813873291016e+00 1.455922842025756836e+00 1.313039958477020264e-01
4.641000000000000000e+03 5.874736785888671875e+01 1.011114835739135742e+00 -4.159791767597198486e-01 6.227866649627685547e+00 1.743566274642944336e+00 -3.188649937510490417e-02
4.642000000000000000e+03 4.891619873046875000e+01 1.694408416748046875e+01 2.543141245841979980e-01 4.077188491821289062e+00 1.299450755119323730e+00 1.367495179176330566e+00
4.643000000000000000e+03 5.770039749145507812e+01 1.213937163352966309e+00 -4.050839841365814209e-01 6.055807590484619141e+00 1.695217132568359375e+00 1.350078452378511429e-02
4.644000000000000000e+03 3.859540557861328125e+01 2.126154708862304688e+01 4.456127583980560303e-01 6.333749890327453613e-01 3.236963152885437012e-01 -3.714734315872192383e-02
4.645000000000000000e+03 3.728520584106445312e+01 2.101205825805664062e+01 3.848799467086791992e-01 5.152776241302490234e-01 2.700472772121429443e-01 -1.313966661691665649e-01
4.646000000000000000e+03 3.579610824584960938e+01 4.626789569854736328e+00 1.141879409551620483e-01 1.257481813430786133e+00 4.115009307861328125e-01 1.572723239660263062e-01
4.647000000000000000e+03 3.665198898315429688e+01 2.005012512207031250e+01 3.831624984741210938e-01 5.157102346420288086e-01 2.696618139743804932e-01 -1.320475190877914429e-01
4.648000000000000000e+03 6.556715393066406250e+01 1.282529067993164062e+01 -6.110163927078247070e-01 7.892115116119384766e+00 2.184329748153686523e+00 -7.328238487243652344e-01
4.649000000000000000e+03 5.889095306396484375e+01 1.995020866394042969e+01 -8.115342855453491211e-01 8.905055046081542969e+00 2.428056240081787109e+00 2.170965224504470825e-01
4.650000000000000000e+03 3.679307937622070312e+01 7.312063217163085938e+00 1.702081263065338135e-01 1.344115376472473145e+00 4.542970359325408936e-01 1.846776753664016724e-01
4.651000000000000000e+03 6.424393463134765625e+01 1.443111228942871094e+01 -6.834051609039306641e-01 8.026867866516113281e+00 2.203038692474365234e+00 -6.693269610404968262e-01
4.652000000000000000e+03 4.261474990844726562e+01 1.767929267883300781e+01 6.003734469413757324e-01 1.769599437713623047e+00 7.109918594360351562e-01 6.136907339096069336e-01
4.653000000000000000e+03 3.816849899291992188e+01 1.899712371826171875e+01 4.790022671222686768e-01 7.867456078529357910e-01 3.797243535518646240e-01 4.315004497766494751e-02
4.654000000000000000e+03 3.739844894409179688e+01 2.023636627197265625e+01 4.187957942485809326e-01 5.869260430335998535e-01 3.017165362834930420e-01 -8.435828238725662231e-02
4.655000000000000000e+03 4.987672042846679688e+01 1.649187660217285156e+01 1.036697328090667725e-01 4.539122104644775391e+00 1.392837524414062500e+00 1.348703384399414062e+00
4.656000000000000000e+03 5.883176803588867188e+01 1.879011726379394531e+01 -8.228437900543212891e-01 8.557502746582031250e+00 2.320397615432739258e+00 2.157294452190399170e-01
4.657000000000000000e+03 4.141350555419921875e+01 1.523235321044921875e+01 4.739466309547424316e-01 1.761142849922180176e+00 6.705268621444702148e-01 4.820757210254669189e-01
4.658000000000000000e+03 5.030269241333007812e+01 1.511481380462646484e+01 -1.992411538958549500e-02 4.737077713012695312e+00 1.415146112442016602e+00 1.193468928337097168e+00
4.659000000000000000e+03 3.723531723022460938e+01 1.349993896484375000e+01 3.542795777320861816e-01 1.107201576232910156e+00 4.384443163871765137e-01 1.515558511018753052e-01
4.660000000000000000e+03 3.824067306518554688e+01 1.351610660552978516e+01 3.698985874652862549e-01 1.275112032890319824e+00 4.935031831264495850e-01 2.162213176488876343e-01
4.661000000000000000e+03 5.519011688232421875e+01 4.560755729675292969e+00 -4.309074580669403076e-01 5.729327678680419922e+00 1.589526057243347168e+00 2.167032212018966675e-01
4.662000000000000000e+03 6.262830352783203125e+01 1.170059776306152344e+01 -7.006576061248779297e-01 7.640442848205566406e+00 2.081935644149780273e+00 -3.982908427715301514e-01
4.663000000000000000e+03 4.715434265136718750e+01 1.417590999603271484e+01 2.165990471839904785e-01 3.570602655410766602e+00 1.136160492897033691e+00 9.826353192329406738e-01
4.664000000000000000e+03 4.960177993774414062e+01 1.303969383239746094e+01 -6.079767271876335144e-02 4.524529933929443359e+00 1.339119672775268555e+00 9.566127657890319824e-01
4.665000000000000000e+03 5.512094497680664062e+01 5.338400363922119141e+00 -4.442831277847290039e-01 5.762742519378662109e+00 1.595537781715393066e+00 2.411205023527145386e-01
4.666000000000000000e+03 5.585158920288085938e+01 5.034096717834472656e+00 -4.579319655895233154e-01 5.901702404022216797e+00 1.633131146430969238e+00 1.873808652162551880e-01
4.667000000000000000e+03 1.426702117919921875e+01 1.252673983573913574e+00 -2.623756699904333800e-06 -1.909433819946571020e-07 -8.444100103588425554e-07 -2.224029231001622975e-06
4.668000000000000000e+03 1.462149238586425781e+01 1.164639949798583984e+00 5.729011263611027971e-06 -3.384062097211426590e-07 1.617181510482623708e-06 -7.242220476655347738e-07
4.669000000000000000e+03 1.332876110076904297e+01 1.093653082847595215e+00 -7.778904773658723570e-07 -1.702149347693193704e-06 -7.440119702550873626e-07 -8.270407079180586152e-07
4.670000000000000000e+03 1.406522464752197266e+01 3.572364747524261475e-01 -6.391799161065137014e-07 -1.147259240497078281e-06 -5.359317469810775947e-07 -2.151256666138579021e-07
4.671000000000000000e+03 1.336003494262695312e+01 3.511472940444946289e-01 2.990690575188637013e-07 1.821311002458969597e-06 6.361140094668371603e-07 4.019225059437303571e-07
4.672000000000000000e+03 1.476313018798828125e+01 5.016638040542602539e-01 3.173922493715508608e-07 5.792829256279219408e-07 2.690025553420127835e-07 2.700100765196111752e-07
4.673000000000000000e+03 1.414069938659667969e+01 9.322270154953002930e-01 3.458880655671237037e-06 -7.294839861060609110e-07 8.188190463442879263e-07 1.541175151942297816e-06
4.674000000000000000e+03 1.384797477722167969e+01 1.187353014945983887e+00 2.064880817442826810e-07 1.372034603264182806e-06 4.735568097657960607e-07 7.271692652466299478e-07
4.675000000000000000e+03 1.112969017028808594e+01 3.708996772766113281e-01 -4.312897203817556147e-07 -2.289154963364126161e-06 -8.161334221767901909e-07 3.272512927310344821e-08
4.676000000000000000e+03 1.113907623291015625e+01 1.110847473144531250e+00 1.370143309031846002e-06 1.777343754838511813e-06 9.442460964237398002e-07 -1.703384278073372116e-08
4.677000000000000000e+03 1.263169097900390625e+01 3.451149165630340576e-01 -3.661328094040072756e-07 -2.201019015046767890e-06 -7.701455615460872650e-07 -1.297959073554011411e-07
4.678000000000000000e+03 1.037880802154541016e+01 3.837110698223114014e-01 4.780154654326906893e-07 2.258396079923841171e-06 8.209235033973527607e-07 -5.333353758629755248e-09
4.679000000000000000e+03 1.188065242767333984e+01 3.580341637134552002e-01 3.955377394504466793e-07 2.315868641744600609e-06 8.134219342537107877e-07 1.650123948593318346e-08
4.680000000000000000e+03 1.264514160156250000e+01 1.084993243217468262e+00 9.257378792426607106e-07 1.613922222531982698e-06 7.618980362167349085e-07 2.493492843314015772e-07
4.681000000000000000e+03 1.038616180419921875e+01 1.123693704605102539e+00 -1.275744693884917069e-06 -1.877368276836932637e-06 -9.459338912165549118e-07 6.905889904373907484e-08
4.682000000000000000e+03 1.189207077026367188e+01 1.097947120666503906e+00 -1.182672576760523953e-06 -1.674996383371762931e-06 -8.573006766710022930e-07 3.637277146140149853e-08
4.683000000000000000e+03 9.625078201293945312e+00 3.871397972106933594e-01 -4.344565240899100900e-07 -2.254408855151268654e-06 -8.066595569289347623e-07 -3.384193547617542208e-08
4.684000000000000000e+03 8.868724822998046875e+00 3.828192353248596191e-01 5.077333184999588411e-07 2.233726945632952265e-06 8.224380394494801294e-07 6.671157848359143827e-08
4.685000000000000000e+03 9.644926071166992188e+00 1.127139806747436523e+00 1.406348701493698172e-06 1.895096829684916884e-06 9.904337048283196054e-07 -6.020007958795758896e-08
4.686000000000000000e+03 8.112174034118652344e+00 3.804100155830383301e-01 -4.444388252977660159e-07 -2.121199258908745833e-06 -7.696914394728082698e-07 -8.046050936627580086e-08
4.687000000000000000e+03 7.356014251708984375e+00 3.793691694736480713e-01 5.273889200907433406e-07 1.924644266182440333e-06 7.356099445132713299e-07 8.279506147346182843e-08
4.688000000000000000e+03 5.843623161315917969e+00 3.767499327659606934e-01 5.374255920287396293e-07 1.300133476433984470e-06 5.512677034857915714e-07 2.124263964731198939e-08
4.689000000000000000e+03 5.088051319122314453e+00 3.757717311382293701e-01 -2.850710814072954236e-07 -8.379664109270379413e-07 -3.369112562268128386e-07 1.557416737796302186e-07
4.690000000000000000e+03 3.576755046844482422e+00 3.680583238601684570e-01 -3.903832066498580389e-07 2.428820948807697278e-07 -4.425033495181196486e-08 3.615187722516566282e-07
4.691000000000000000e+03 2.822042465209960938e+00 3.613462746143341064e-01 7.679826694584335200e-07 -4.141764975429396145e-07 1.061418473113917571e-07 -2.147352375914124423e-07
4.692000000000000000e+03 2.068703651428222656e+00 3.577998280525207520e-01 -4.607840651260630693e-07 3.151046996663353639e-07 -4.370381390117472620e-08 1.369902093983910163e-07
4.693000000000000000e+03 2.358754634857177734e+00 1.097799897193908691e+00 1.853615913205430843e-06 3.272623132488661213e-07 6.542634878314856905e-07 2.152389413367927773e-07
4.694000000000000000e+03 1.327708005905151367e+00 3.658417165279388428e-01 -6.103824290448756074e-08 -5.096382551528222393e-07 -1.712029416012228467e-07 -6.387805910890165251e-07
4.695000000000000000e+03 1.644779324531555176e+00 1.105841755867004395e+00 -8.290634809782204684e-07 -1.139745108957868069e-06 -5.906425712964846753e-07 -2.211763359127871809e-07
4.696000000000000000e+03 6.509408354759216309e-01 3.937322795391082764e-01 2.227443246738403104e-06 1.918927864608122036e-06 1.243911356141325086e-06 2.405532541160937399e-06
4.697000000000000000e+03 3.482567369937896729e-01 9.569563269615173340e-01 -3.219855216229916550e-06 -2.123613739968277514e-06 -1.603040686859458219e-06 -7.598405886710679624e-07
4.698000000000000000e+03 3.085073232650756836e+00 1.101346254348754883e+00 -1.974771976165357046e-06 -2.088626445129193598e-07 -6.550903890456538647e-07 1.465587189386496902e-07
4.699000000000000000e+03 3.812765598297119141e+00 1.108058333396911621e+00 1.675850057836214546e-06 4.760859440011699917e-07 6.455808261307538487e-07 -6.021978151693474501e-07
4.700000000000000000e+03 4.332499980926513672e+00 3.732680678367614746e-01 4.900946350971935317e-07 2.503671510112326359e-07 2.221385386746987933e-07 -3.183303647347202059e-07
4.701000000000000000e+03 5.998572826385498047e+00 1.116749882698059082e+00 -1.189981844618159812e-06 -1.247676777893502731e-06 -7.312975753848149907e-07 3.871325873205933021e-07
4.702000000000000000e+03 6.600036144256591797e+00 3.784387111663818359e-01 -4.429570594766119029e-07 -1.640576442696328741e-06 -6.250600677049078513e-07 -6.022096243896157830e-08
4.703000000000000000e+03 8.186062812805175781e+00 1.120409965515136719e+00 1.335837851001997478e-06 1.743205984894302674e-06 9.237131166628387291e-07 -1.426792408665278344e-07
4.704000000000000000e+03 8.915593147277832031e+00 1.122819185256958008e+00 -1.297217067985911854e-06 -1.827142909860413056e-06 -9.373080160912650172e-07 8.293471864817547612e-08
4.705000000000000000e+03 7.456923484802246094e+00 1.119369149208068848e+00 -1.274584860766481142e-06 -1.614168240848812275e-06 -8.666259532219555695e-07 2.258858131654051249e-07
4.706000000000000000e+03 6.727965354919433594e+00 1.118438720703125000e+00 1.348083401353505906e-06 1.461104602640261874e-06 8.427563784607627895e-07 -2.648302768193389056e-07
4.707000000000000000e+03 5.270021438598632812e+00 1.115771770477294922e+00 1.120030219681211747e-06 1.075895738722465467e-06 6.587778216271544807e-07 -4.830033617508888710e-07
4.708000000000000000e+03 4.541490077972412109e+00 1.113268017768859863e+00 -1.067478024197043851e-06 -8.629672834103985224e-07 -5.791335979665745981e-07 6.964778549445327371e-07
4.709000000000000000e+03 9.950323700904846191e-01 1.133732318878173828e+00 -9.053553071680653375e-07 3.023982799277291633e-06 6.355882078423746862e-07 -8.803683613223256543e-07
4.710000000000000000e+03 7.951600551605224609e+00 -3.791473805904388428e-01 -1.021853022393770516e-04 -6.937954458408057690e-04 -2.387942222412675619e-04 1.069737045327201486e-04
4.711000000000000000e+03 8.812386512756347656e+00 -1.121279358863830566e+00 -2.652127295732498169e-04 -4.611065087374299765e-04 -2.178957656724378467e-04 1.551326713524758816e-04
4.712000000000000000e+03 9.587816238403320312e+00 -3.863115906715393066e-01 -9.368252358399331570e-05 -5.216521094553172588e-04 -1.846003870014101267e-04 7.446914969477802515e-05
4.713000000000000000e+03 7.132064342498779297e+00 -3.779651820659637451e-01 1.111485034925863147e-04 7.340093725360929966e-04 2.535473613534122705e-04 -1.190244438475929201e-04
4.714000000000000000e+03 6.306247234344482422e+00 -3.772793114185333252e-01 -6.767817103536799550e-05 -7.169321761466562748e-04 -2.353830932406708598e-04 9.256276825908571482e-05
4.715000000000000000e+03 5.442752361297607422e+00 -3.835102021694183350e-01 1.227942675541271456e-06 5.931960185989737511e-04 1.783271873136982322e-04 2.145697362720966339e-05
4.716000000000000000e+03 4.552286148071289062e+00 -3.399353623390197754e-01 -1.115560007747262716e-04 -5.123598384670913219e-04 -1.871747517725452781e-04 -8.282419003080576658e-05
4.717000000000000000e+03 4.371328830718994141e+00 -8.708365559577941895e-01 6.899076397530734539e-04 2.498275134712457657e-04 2.819205401465296745e-04 2.838385116774588823e-04
4.718000000000000000e+03 2.785328388214111328e+00 -7.796061038970947266e-01 3.625513345468789339e-04 -1.353882835246622562e-04 6.814891821704804897e-05 5.122329457662999630e-04
4.719000000000000000e+03 1.180722951889038086e+00 -3.608860373497009277e-01 -4.656092787627130747e-04 4.979733421350829303e-05 -1.247435866389423609e-04 -9.376770321978256106e-05
4.720000000000000000e+03 4.099212884902954102e-01 -5.526853203773498535e-01 4.393491508380975574e-06 -9.020078141475096345e-05 -2.574218706286046654e-05 -5.122826769365929067e-05
4.721000000000000000e+03 7.477942705154418945e-01 -1.100885987281799316e+00 1.481218496337532997e-03 1.234176452271640301e-04 4.813908308278769255e-04 2.701375633478164673e-04
4.722000000000000000e+03 9.597747802734375000e+00 -1.126311540603637695e+00 2.603728207759559155e-04 4.279761051293462515e-04 2.065046719508245587e-04 -1.720912987366318703e-04
4.723000000000000000e+03 8.026608467102050781e+00 -1.119147419929504395e+00 2.635935961734503508e-04 4.800914612133055925e-04 2.231055259471759200e-04 -1.399954780936241150e-04
4.724000000000000000e+03 7.239610195159912109e+00 -1.117965221405029297e+00 -2.341350627830252051e-04 -4.686593892984092236e-04 -2.108383341692388058e-04 9.345873695565387607e-05
4.725000000000000000e+03 6.446331024169921875e+00 -1.117279291152954102e+00 1.600701216375455260e-04 4.154691705480217934e-04 1.726617920212447643e-04 -2.769603270280640572e-05
4.726000000000000000e+03 5.615375041961669922e+00 -1.123510241508483887e+00 -1.662085560383275151e-05 -3.236813936382532120e-04 -1.020906784106045961e-04 -3.482037209323607385e-05
4.727000000000000000e+03 4.879715442657470703e+00 -1.221276640892028809e+00 -2.364383399253711104e-04 8.039767999434843659e-05 -4.681219797930680215e-05 -1.621360279386863112e-04
4.728000000000000000e+03 4.223337173461914062e+00 -1.290901184082031250e+00 -5.594380199909210205e-04 9.630646673031151295e-05 -1.389394601574167609e-04 -4.275287574273534119e-05
4.729000000000000000e+03 3.489140987396240234e+00 -1.263193726539611816e+00 6.089028902351856232e-04 3.304542042315006256e-05 1.925844990182667971e-04 3.729852323886007071e-04
4.730000000000000000e+03 2.723763942718505859e+00 -1.258556365966796875e+00 -2.965090970974415541e-04 -3.268399741500616074e-04 -1.870047126431018114e-04 -5.721995839849114418e-04
4.731000000000000000e+03 1.357383847236633301e+00 -1.202877521514892578e+00 -1.507889130152761936e-03 -5.177270504646003246e-04 -6.076848949305713177e-04 -2.862603869289159775e-04
4.732000000000000000e+03 8.769917488098144531e+00 -3.812793791294097900e-01 1.005272206384688616e-04 6.198838818818330765e-04 2.161233278457075357e-04 -9.192362631438300014e-05
4.733000000000000000e+03 3.581377506256103516e+00 -7.854385375976562500e-01 -4.477891197893768549e-04 -1.620651019038632512e-04 -1.829562679631635547e-04 -3.505806380417197943e-04
4.734000000000000000e+03 3.695749998092651367e+00 -2.822447717189788818e-01 1.189609974971972406e-04 4.959790967404842377e-04 1.844820217229425907e-04 1.536853233119472861e-04
4.735000000000000000e+03 2.864297151565551758e+00 -2.810497581958770752e-01 -2.214545529568567872e-04 -4.084412648808211088e-04 -1.889687409857288003e-04 -1.724842877592891455e-04
4.736000000000000000e+03 1.994235515594482422e+00 -3.319245874881744385e-01 4.222409552312456071e-05 2.079908153973519802e-04 7.506446854677051306e-05 2.623088366817682981e-04
4.737000000000000000e+03 1.981270551681518555e+00 -1.274680376052856445e+00 3.332318156026303768e-04 6.980823236517608166e-04 3.093942650593817234e-04 5.738189211115241051e-04
4.738000000000000000e+03 1.973554253578186035e+00 -8.466050028800964355e-01 4.845961811952292919e-04 2.367284178035333753e-04 2.163973695132881403e-04 -7.136569474823772907e-04
4.739000000000000000e+03 1.332448291778564453e+01 -3.621845245361328125e-01 1.450989802833646536e-04 9.249336471839342266e-06 4.630449620890431106e-05 2.170351035601925105e-05
4.740000000000000000e+03 1.426397991180419922e+01 -1.317608714103698730e+00 -4.549211007542908192e-04 -2.939496480394154787e-04 -2.246612275484949350e-04 -9.621374192647635937e-05
4.741000000000000000e+03 1.327361392974853516e+01 -1.248556852340698242e+00 -3.593061992432922125e-04 -1.996156643144786358e-04 -1.676765532465651631e-04 3.926742356270551682e-04
4.742000000000000000e+03 1.480296707153320312e+01 -1.047354817390441895e+00 2.988541091326624155e-04 1.952387974597513676e-04 1.482278748881071806e-04 9.277167555410414934e-05
4.743000000000000000e+03 1.356446647644042969e+01 -7.579438090324401855e-01 -5.690697435056790709e-05 3.224097599741071463e-05 -7.399799869745038450e-06 -3.323114651720970869e-04
4.744000000000000000e+03 1.393659019470214844e+01 -3.302382230758666992e-01 -3.671787681014393456e-06 9.526206667942460626e-06 1.756325559654214885e-06 9.852874063653871417e-05
4.745000000000000000e+03 1.449034786224365234e+01 -4.399540424346923828e-01 -2.063511201413348317e-04 -1.758190774125978351e-04 -1.146510621765628457e-04 -2.525851014070212841e-04
4.746000000000000000e+03 1.380024147033691406e+01 -1.352263331413269043e+00 6.890046061016619205e-04 1.141585016739554703e-04 2.409489243291318417e-04 -2.157598792109638453e-04
4.747000000000000000e+03 1.402595424652099609e+01 -9.610455632209777832e-01 3.372031496837735176e-04 -2.108598710037767887e-05 9.483514440944418311e-05 4.042476357426494360e-04
4.748000000000000000e+03 1.185737037658691406e+01 -1.162281751632690430e+00 -2.083637955365702510e-04 -2.700444310903549194e-04 -1.435224694432690740e-04 1.703371235635131598e-04
4.749000000000000000e+03 1.112013435363769531e+01 -4.102526009082794189e-01 -8.370244904654100537e-05 -3.339117101859301329e-04 -1.252842484973371029e-04 5.935721128480508924e-05
4.750000000000000000e+03 1.261753940582275391e+01 -4.348734915256500244e-01 -1.017513277474790812e-04 -5.869658343726769090e-05 -4.813437408301979303e-05 8.498885290464386344e-05
4.751000000000000000e+03 1.037124824523925781e+01 -3.971002995967864990e-01 8.857875218382105231e-05 4.493533924687653780e-04 1.613796339370310307e-04 -6.611467688344419003e-05
4.752000000000000000e+03 1.036389350891113281e+01 -1.137082934379577637e+00 -2.688096428755670786e-04 -3.884781326632946730e-04 -1.971863384824246168e-04 1.840853219619020820e-04
4.753000000000000000e+03 1.260408973693847656e+01 -1.174751639366149902e+00 2.416599309071898460e-04 2.317365433555096388e-04 1.420189510099589825e-04 -2.181258460041135550e-04
4.754000000000000000e+03 1.111074829101562500e+01 -1.150200366973876953e+00 2.547520271036773920e-04 3.094853891525417566e-04 1.692712248768657446e-04 -1.731611991999670863e-04
4.755000000000000000e+03 1.186878871917724609e+01 -4.223687946796417236e-01 6.180089985718950629e-05 2.071838971460238099e-04 8.069544128375127912e-05 -8.001580863492563367e-05
4.756000000000000000e+03 5.479091644287109375e+01 3.143642425537109375e+01 3.407156753540039062e+01 4.086212158203125000e+00 1.144733333587646484e+01 9.275862693786621094e+00
4.757000000000000000e+03 5.479264068603515625e+01 3.141703224182128906e+01 3.398891067504882812e+01 1.403406620025634766e+01 1.440689373016357422e+01 2.205536460876464844e+01
4.758000000000000000e+03 5.479810714721679688e+01 3.139834785461425781e+01 3.271369552612304688e+01 2.529152679443359375e+01 1.740156745910644531e+01 2.741565513610839844e+01
4.759000000000000000e+03 5.480710601806640625e+01 3.138108444213867188e+01 2.938179588317871094e+01 3.763763809204101562e+01 2.010582923889160156e+01 3.024112129211425781e+01
4.760000000000000000e+03 5.481929397583007812e+01 3.136590194702148438e+01 2.581974220275878906e+01 4.955451965332031250e+01 2.261227798461914062e+01 2.992496299743652344e+01
4.761000000000000000e+03 5.483420181274414062e+01 3.135338401794433594e+01 2.188144111633300781e+01 6.032171630859375000e+01 2.466094779968261719e+01 2.695944404602050781e+01
4.762000000000000000e+03 5.485126495361328125e+01 3.134400749206542969e+01 1.920011329650878906e+01 6.897577667236328125e+01 2.645276641845703125e+01 2.166544342041015625e+01
4.763000000000000000e+03 5.486982727050781250e+01 3.133813285827636719e+01 1.779298019409179688e+01 7.468122863769531250e+01 2.774226188659667969e+01 1.477774429321289062e+01
4.764000000000000000e+03 5.488917541503906250e+01 3.133598327636718750e+01 1.853200721740722656e+01 7.712236022949218750e+01 2.869631004333496094e+01 7.424639701843261719e+00
4.765000000000000000e+03 5.490857315063476562e+01 3.133764266967773438e+01 2.123829078674316406e+01 7.641801452636718750e+01 2.929689216613769531e+01 5.137411355972290039e-01
4.766000000000000000e+03 5.492727661132812500e+01 3.134304428100585938e+01 2.553850555419921875e+01 7.318275451660156250e+01 2.961637878417968750e+01 -4.930510044097900391e+00
4.767000000000000000e+03 5.494456863403320312e+01 3.135198593139648438e+01 3.078873062133789062e+01 6.824188232421875000e+01 2.970918464660644531e+01 -8.410328865051269531e+00
4.768000000000000000e+03 5.495978927612304688e+01 3.136412239074707031e+01 3.622189712524414062e+01 6.271514511108398438e+01 2.968111228942871094e+01 -9.654401779174804688e+00
4.769000000000000000e+03 5.497235870361328125e+01 3.137899017333984375e+01 4.112815093994140625e+01 5.738018798828125000e+01 2.955250167846679688e+01 -8.861056327819824219e+00
4.770000000000000000e+03 5.498179244995117188e+01 3.139602088928222656e+01 4.505720520019531250e+01 5.316267013549804688e+01 2.946596336364746094e+01 -6.368608474731445312e+00
4.771000000000000000e+03 5.498772811889648438e+01 3.141456222534179688e+01 4.760735702514648438e+01 5.034749603271484375e+01 2.938645553588867188e+01 -2.686674833297729492e+00
4.772000000000000000e+03 5.498994064331054688e+01 3.143390464782714844e+01 4.858384323120117188e+01 4.932938766479492188e+01 2.937396812438964844e+01 1.610895156860351562e+00
4.773000000000000000e+03 5.498834991455078125e+01 3.145330619812011719e+01 4.795484924316406250e+01 5.033737182617187500e+01 2.948766517639160156e+01 6.042768001556396484e+00
4.774000000000000000e+03 5.498300933837890625e+01 3.147202873229980469e+01 4.555209732055664062e+01 5.300256729125976562e+01 2.956639862060546875e+01 1.000784492492675781e+01
4.775000000000000000e+03 5.497412490844726562e+01 3.148935127258300781e+01 4.168173599243164062e+01 5.751025772094726562e+01 2.975759887695312500e+01 1.285514926910400391e+01
4.776000000000000000e+03 5.496203613281250000e+01 3.150461387634277344e+01 3.639471435546875000e+01 6.297686386108398438e+01 2.981147384643554688e+01 1.408677864074707031e+01
4.777000000000000000e+03 5.494721221923828125e+01 3.151723098754882812e+01 3.046137809753417969e+01 6.890972900390625000e+01 2.981133270263671875e+01 1.314229393005371094e+01
4.778000000000000000e+03 5.493021392822265625e+01 3.152672004699707031e+01 2.446905899047851562e+01 7.421027374267578125e+01 2.960379981994628906e+01 9.869206428527832031e+00
4.779000000000000000e+03 5.491169357299804688e+01 3.153271865844726562e+01 1.924473953247070312e+01 7.784900665283203125e+01 2.912812423706054688e+01 4.406570434570312500e+00
4.780000000000000000e+03 5.489235687255859375e+01 3.153499794006347656e+01 1.557256412506103516e+01 7.883602142333984375e+01 2.832257652282714844e+01 -2.564065217971801758e+00
4.781000000000000000e+03 5.487294769287109375e+01 3.153346824645996094e+01 1.405516052246093750e+01 7.666048431396484375e+01 2.721469497680664062e+01 -1.034754657745361328e+01
4.782000000000000000e+03 5.485420989990234375e+01 3.152819061279296875e+01 1.431692028045654297e+01 7.102104949951171875e+01 2.560139083862304688e+01 -1.761070442199707031e+01
4.783000000000000000e+03 5.483685684204101562e+01 3.151936340332031250e+01 1.679549598693847656e+01 6.231465911865234375e+01 2.373304748535156250e+01 -2.353733444213867188e+01
4.784000000000000000e+03 5.482155609130859375e+01 3.150732994079589844e+01 1.998368072509765625e+01 5.124638748168945312e+01 2.136902046203613281e+01 -2.718044471740722656e+01
4.785000000000000000e+03 5.480888748168945312e+01 3.149254417419433594e+01 2.436601829528808594e+01 3.833511352539062500e+01 1.881033897399902344e+01 -2.791735839843750000e+01
4.786000000000000000e+03 5.479934310913085938e+01 3.147557830810546875e+01 2.785615730285644531e+01 2.512928009033203125e+01 1.589563083648681641e+01 -2.556495094299316406e+01
4.787000000000000000e+03 5.479328155517578125e+01 3.145707702636718750e+01 3.331874465942382812e+01 9.892642021179199219e+00 1.296341609954833984e+01 -1.591334724426269531e+01
